
units lj                  # Use reduced LJ style units
atom_style atomic         # Uncharged point particles
atom_modify map hash      # Needed for indexing of clusters etc
                          # Used to be able to find where atoms are in relation to each other.

lattice fcc 1.0 spacing 1 1 1
Lattice spacing in x,y,z = 1.5874011 1.5874011 1.5874011
region box block 0 10 0 10 0 10 units lattice
create_box 2 box
Created orthogonal box = (0.0000000 0.0000000 0.0000000) to (15.874011 15.874011 15.874011)
  3 by 4 by 4 MPI processor grid
create_atoms 1 box
Created 4000 atoms
  using lattice units in orthogonal box = (0.0000000 0.0000000 0.0000000) to (15.874011 15.874011 15.874011)
  create_atoms CPU = 0.018 seconds
set type 1 type/fraction 2 0.41 78393
Setting atom values ...
  1648 settings made for type/fraction
mass 1 1.0
mass 2 1.0
pair_style lj/cut  3.5
pair_modify tail  yes
pair_coeff 1  1  1.0  1.0   # Intearaction between 1 and 1 set with epsilon = 1 and sigma = 1
pair_coeff 1  2  1.5  0.8
pair_coeff 2  2  0.5  0.88

write_data data.0
System init for write_data ...
Neighbor list info ...
  update every 1 steps, delay 10 steps, check yes
  max neighbors/atom: 2000, page size: 100000
  master list distance cutoff = 3.8
  ghost atom cutoff = 3.8
  binsize = 1.9, bins = 9 9 9
  1 neighbor lists, perpetual/occasional/extra = 1 0 0
  (1) pair lj/cut, perpetual
      attributes: half, newton on
      pair build: half/bin/atomonly/newton
      stencil: half/bin/3d
      bin: standard
WARNING: Not all mixed pair coeffs generated from mixing. Use write_data with 'pair ij' option to store all pair coeffs. (../write_data.cpp:312)


#############################
#   M E L T   S Y S T E M   #
#############################

velocity all create 2.4 5300450 mom yes dist gaussian # Assign velocities
                                                    # Temperature 2.4, random number seed, zero linear momentum
                                                                                # Gaussian distribution

timestep 0.002   # simulation timestep
thermo 1000       # output thermodynamic data every 1000 steps bf 100

# Define a fix  in this case with index 1 applied to all
# particles in the simulation. This fix is for simulations
# in the anisotropic NPT ensemble. Note that we use the MTK
# correction.
fix 1 all npt temp 2.4 2.4 0.1 iso 5.68 5.68 0.5 mtk yes tchain 5 pchain 5 # Use NPT ensemble
                                                                         # Set temperature and pressure and damping
                                                                         # Numbers of thermostats in chain and in barostat
run 10000          # run for 10000 steps
Per MPI rank memory allocation (min/avg/max) = 3.642 | 3.644 | 3.648 Mbytes
Step Temp E_pair E_mol TotEng Press Volume 
       0          2.4   -5.8082674            0   -2.2091674   -4.1765581         4000 
    1000     2.404594   -4.9933556            0   -1.3873663    5.5745139    3888.8116 
    2000    2.3840126   -5.0199969            0    -1.444872    5.7549065    3861.3895 
    3000    2.3854476   -5.0581896            0   -1.4809128    5.6522112    3859.7623 
    4000     2.435051   -5.0482492            0   -1.3965859      5.62381    3867.1464 
    5000    2.3990705   -5.0162762            0   -1.4185701    5.3371354    3899.5424 
    6000    2.3595812    -5.020142            0    -1.481655    5.5793725    3871.1838 
    7000    2.4080626   -5.0702158            0    -1.459025     5.682633    3853.5393 
    8000    2.4164616   -4.9926562            0     -1.36887    5.7336774     3878.979 
    9000    2.4108364   -5.0830774            0   -1.4677269    5.3883635    3874.1557 
   10000    2.3538599   -4.9862046            0   -1.4562974     5.413895    3903.7834 
Loop time of 2.74252 on 48 procs for 10000 steps with 4000 atoms

Performance: 630077.611 tau/day, 3646.282 timesteps/s
99.4% CPU use with 48 MPI tasks x no OpenMP threads

MPI task timing breakdown:
Section |  min time  |  avg time  |  max time  |%varavg| %total
---------------------------------------------------------------
Pair    | 1.13       | 1.1897     | 1.3352     |   4.1 | 43.38
Neigh   | 0.20861    | 0.21841    | 0.23977    |   1.4 |  7.96
Comm    | 0.70547    | 0.87842    | 0.99335    |   6.0 | 32.03
Output  | 0.00024284 | 0.00025093 | 0.00047857 |   0.0 |  0.01
Modify  | 0.34025    | 0.44058    | 0.46785    |   3.6 | 16.06
Other   |            | 0.01512    |            |       |  0.55

Nlocal:        83.3333 ave          94 max          73 min
Histogram: 2 1 3 7 12 10 8 3 1 1
Nghost:        1667.69 ave        1700 max        1636 min
Histogram: 1 1 4 13 7 10 2 5 4 1
Neighs:        9778.98 ave       11385 max        8078 min
Histogram: 2 0 5 5 8 10 14 2 0 2

Total # of neighbors = 469391
Ave neighs/atom = 117.34775
Neighbor list builds = 909
Dangerous builds = 221

# Equilibrate just above the melting temperature to avoid step fn in T

fix 1 all npt temp 1.25 1.25 0.1 iso 5.68 5.68 0.5 mtk yes tchain 5 pchain 5
run 2000
Per MPI rank memory allocation (min/avg/max) = 3.643 | 3.645 | 3.649 Mbytes
Step Temp E_pair E_mol TotEng Press Volume 
   10000    2.3538599   -4.9862046            0   -1.4562974     5.413895    3903.7834 
   11000    1.2461526   -7.0101231            0   -5.1413616    5.6965261    3074.0838 
   12000    1.2628071   -7.0886223            0   -5.1948852    5.5718885    3056.4588 
Loop time of 0.590936 on 48 procs for 2000 steps with 4000 atoms

Performance: 584835.132 tau/day, 3384.463 timesteps/s
99.7% CPU use with 48 MPI tasks x no OpenMP threads

MPI task timing breakdown:
Section |  min time  |  avg time  |  max time  |%varavg| %total
---------------------------------------------------------------
Pair    | 0.26298    | 0.29022    | 0.31888    |   2.2 | 49.11
Neigh   | 0.038962   | 0.041416   | 0.044436   |   0.6 |  7.01
Comm    | 0.18227    | 0.21379    | 0.24634    |   2.9 | 36.18
Output  | 4.9678e-05 | 5.064e-05  | 6.6408e-05 |   0.0 |  0.01
Modify  | 0.037673   | 0.040929   | 0.04392    |   0.9 |  6.93
Other   |            | 0.004526   |            |       |  0.77

Nlocal:        83.3333 ave          94 max          76 min
Histogram: 1 5 9 9 6 11 5 1 0 1
Nghost:        1963.38 ave        1986 max        1949 min
Histogram: 4 10 7 5 7 8 2 2 2 1
Neighs:        12481.8 ave       14125 max       11092 min
Histogram: 4 3 8 6 4 10 7 2 3 1

Total # of neighbors = 599127
Ave neighs/atom = 149.78175
Neighbor list builds = 144
Dangerous builds = 11

#############################
# L I N E A R  Q U E N C H  #
#############################

# Define solid atoms. This closely follows ten Wolde  Ruiz-Montero and Frenkel  Faraday Discuss  1996  104  93-110
# Compute components of the per-atom q6 vector
compute q6 all orientorder/atom degrees 1 6 components 6 nnn NULL cutoff 1.3 # compute the Q6 parameter.
                                                                             # Use all neighbours within 1.3 unit cell.

# get number of connections
compute coord_number all coord/atom orientorder q6 0.5

# An atom is solid if it has 8 or more connections (of a possible 14)
variable is_solid atom c_coord_number>=8
group solid dynamic all var is_solid    # Must be dynamic to update
dynamic group solid defined

# do clustering
compute cluster solid cluster/atom 1.3 # Create a cluster where all atoms within are solid and max 1.3 units from another member

# define chunks one chunk per cluster
compute clus_chunks solid chunk/atom c_cluster nchunk every compress yes  # Says which atoms are in which chunk

# count the size of each chunk
compute size_chunks solid property/chunk clus_chunks count


# Find the maximum entry in the vector of chunk sizes
variable max_n equal max(c_size_chunks)


# Thermo style which includes this variable
# thermo_style custom step temp pe vol v_max_n

thermo ${N}  # Print the thermo information every 100 steps
thermo 1000  

# Reset the npt fix at a lower temperature (below freezing)
fix 1  all npt temp  ${temp} ${temp}  0.1  iso  5.68  5.68  0.5  mtk yes tchain  5  pchain  5
fix 1  all npt temp  0.45 ${temp}  0.1  iso  5.68  5.68  0.5  mtk yes tchain  5  pchain  5
fix 1  all npt temp  0.45 0.45  0.1  iso  5.68  5.68  0.5  mtk yes tchain  5  pchain  5

dump dmp2 all dcd ${N} traj.dcd
dump dmp2 all dcd 1000 traj.dcd


compute msd all msd com yes
variable twopoint equal c_msd[4]/6/(step*dt+1.0e-6)
fix 9 all vector 10 c_msd[4]
variable fit equal slope(f_9)/6/(10*dt)
thermo_style custom step temp pe c_msd[4] v_twopoint v_fit v_max_n

fix 1 all npt temp 1.25 ${temp} 0.1 iso 5.68 5.68 0.5 mtk yes tchain 5 pchain 5
fix 1 all npt temp 1.25 0.45 0.1 iso 5.68 5.68 0.5 mtk yes tchain 5 pchain 5
run 5000000 # 5000000  # Run for this many steps
Neighbor list info ...
  update every 1 steps, delay 10 steps, check yes
  max neighbors/atom: 2000, page size: 100000
  master list distance cutoff = 3.8
  ghost atom cutoff = 3.8
  binsize = 1.9, bins = 8 8 8
  4 neighbor lists, perpetual/occasional/extra = 1 3 0
  (1) pair lj/cut, perpetual
      attributes: half, newton on
      pair build: half/bin/atomonly/newton
      stencil: half/bin/3d
      bin: standard
  (2) compute orientorder/atom, occasional
      attributes: full, newton on
      pair build: full/bin/atomonly
      stencil: full/bin/3d
      bin: standard
  (3) compute coord/atom, occasional
      attributes: full, newton on
      pair build: full/bin/atomonly
      stencil: full/bin/3d
      bin: standard
  (4) compute cluster/atom, occasional
      attributes: full, newton on
      pair build: full/bin/atomonly
      stencil: full/bin/3d
      bin: standard
Per MPI rank memory allocation (min/avg/max) = 9.827 | 9.832 | 9.837 Mbytes
Step Temp PotEng c_msd[4] v_twopoint v_fit v_max_n 
   12000    1.2628071   -7.0886223  1.81793e-30 1.2624513e-32 8.3333333e+20            2 
   13000    1.2654434    -7.126134   0.47624142 0.0030528295  0.039076144            3 
   14000    1.2215817   -7.1268696   0.89814741 0.0053461153  0.036490188            1 
   15000    1.2709846   -7.0515051    1.3341731 0.0074120726  0.036117166            1 
   16000    1.2531111   -7.1016226    1.7103198 0.0089079156  0.035529362            2 
   17000    1.2343501   -7.1288613    2.1724779  0.010649401   0.03505984            2 
   18000    1.2574438   -7.1139817    2.6058029  0.012063902  0.035427489            2 
   19000    1.2460323   -7.0921006    3.0344056  0.013308796   0.03549057            1 
   20000    1.2330579   -7.1149823    3.4604122  0.014418384  0.035599946            1 
   21000    1.2547121   -7.1314432    3.8917721   0.01544354  0.035545371            2 
   22000    1.2730807   -7.1736192    4.3375669  0.016430177  0.035695191            2 
   23000    1.2738926      -7.1193    4.7710274  0.017286331  0.035841907            2 
   24000    1.2237541   -7.1486784    5.2222686  0.018132877  0.036019796            2 
   25000    1.2439601   -7.1428213    5.6838331   0.01894611  0.036084267            2 
   26000    1.2280865   -7.1136744    6.1827162  0.019816398   0.03625148            1 
   27000     1.237139   -7.1307292    6.5989449  0.020367114  0.036452359            1 
   28000    1.2436833   -7.1538472    7.0671957   0.02103332  0.036570726            2 
   29000    1.2367248   -7.1823548    7.4247561  0.021335506  0.036603201            1 
   30000    1.2465281   -7.1458219    7.7895938   0.02163776  0.036556722            1 
   31000    1.2445108   -7.0560817    8.2641251   0.02221539  0.036446988            2 
   32000    1.2386813   -7.1488014    8.7019504  0.022661329  0.036415305            4 
   33000    1.2350805   -7.1330047    9.1520768  0.023111305   0.03637361            2 
   34000    1.2562738   -7.0891023    9.6626424  0.023682947  0.036411477            1 
   35000    1.2354732   -7.0914828    10.091068  0.024026352  0.036442898            2 
   36000    1.2484784   -7.1100045    10.448062  0.024185328  0.036445047            2 
   37000      1.25692   -7.1483834     10.89872  0.024546667  0.036411038            2 
   38000    1.2642043   -7.1399205    11.302554  0.024786303  0.036383453            2 
   39000    1.2614703   -7.1378705    11.652734  0.024899003   0.03631858            1 
   40000    1.2368917   -7.0630482    12.189406  0.025394596  0.036287307            1 
   41000    1.2280247    -7.108366    12.577803   0.02556464  0.036241178            2 
   42000    1.2294092   -7.1545847    12.920983   0.02563687   0.03616544            2 
   43000    1.2524202   -7.1440063    13.456644  0.026078766  0.036122901            2 
   44000     1.245189    -7.146509    13.904255  0.026333816  0.036107849       -1e+20 
   45000    1.2274151   -7.1383341      14.3574  0.026587778  0.036121004            3 
   46000    1.2464969   -7.1487983    14.686627  0.026606207  0.036111399            3 
   47000    1.2637808   -7.1566483    15.125325  0.026817952  0.036092083            1 
   48000    1.2315683   -7.0879737     15.49655  0.026903733  0.036044353            2 
   49000    1.2193848   -7.1227633    15.935202  0.027100683  0.035994186            1 
   50000    1.2609815   -7.1344028    16.434482  0.027390803  0.035965209            3 
   51000    1.2481201   -7.1537712    16.931846  0.027666415  0.035971871            1 
   52000    1.2671864   -7.1169688    17.423824  0.027922794  0.036009608            2 
   53000       1.2258   -7.1253081    17.736796  0.027888043  0.036012707            2 
   54000    1.2345478   -7.1038603    18.175111   0.02804801  0.036008324            2 
   55000    1.2741418   -7.1384544    18.446487  0.027949222  0.035991846            1 
   56000    1.2247352   -7.1103198     19.00614  0.028282946  0.035974811            1 
   57000    1.2451851   -7.1136461    19.411855  0.028379905  0.035959972            1 
   58000    1.2340359   -7.1375358    19.824209  0.028483058  0.035945294            1 
   59000    1.2332924   -7.0891147    20.300681  0.028673278  0.035934578            1 
   60000    1.2226411   -7.1812178    20.662712  0.028698211  0.035931781            3 
   61000    1.2390991   -7.1441075    21.094108  0.028817087  0.035913066            1 
   62000    1.2428445   -7.1074129    21.566205  0.028986835  0.035904565            2 
   63000     1.240204    -7.113483    22.003162  0.029104712  0.035893379            1 
   64000    1.2440705   -7.1737208    22.532133  0.029338714  0.035890394            1 
   65000    1.2687929   -7.1332364    22.924046  0.029389803  0.035897796            2 
   66000    1.2352539   -7.1413027    23.397378  0.029542144  0.035912925            2 
   67000    1.2518189    -7.123064    23.908795  0.029737307  0.035927608            2 
   68000    1.2338027   -7.1453566    24.344832  0.029834353  0.035952931            2 
   69000    1.2339608    -7.117303    24.827869  0.029985349  0.035980195            1 
   70000    1.2426284   -7.0872216    25.355666  0.030185316  0.036003769            1 
   71000    1.2694228   -7.1865935    25.436754  0.029855345  0.036007673            2 
   72000    1.2104385   -7.1086291    26.060354  0.030162446  0.036000547            1 
   73000    1.2290697   -7.1133497    26.368134   0.03010061   0.03599895            2 
   74000    1.2414689   -7.1698076    26.668623  0.030032233  0.035980303            1 
   75000    1.2320234   -7.1406569    26.984779  0.029983088   0.03595949            4 
   76000    1.2250906   -7.1598279    27.492101  0.030144847  0.035947914            1 
   77000    1.2452685   -7.1337472    27.767422  0.030051322  0.035930738            1 
   78000    1.2094504   -7.1369498    28.145018  0.030069463  0.035897932            1 
   79000    1.2155688   -7.1735774    28.616201  0.030185866  0.035867413            1 
   80000    1.2280755   -7.1531595    28.956375   0.03016289  0.035832861            1 
   81000    1.2071735   -7.1574113    29.489469   0.03033896  0.035801726            3 
   82000    1.2262571   -7.1698774    29.858704  0.030344211  0.035777343            1 
   83000    1.2105793    -7.140461    30.305015  0.030426722  0.035755647            3 
   84000    1.2228378   -7.1318477    30.599651  0.030356796  0.035729966            2 
   85000    1.2437018   -7.1628774    31.080579  0.030471156  0.035684404            2 
   86000    1.2332836   -7.1312919    31.394141  0.030420679  0.035652915            2 
   87000    1.2175766   -7.1285005    31.822312  0.030481142  0.035616444            2 
   88000    1.2299993   -7.1160753    32.416304  0.030697257  0.035583449            3 
   89000    1.2137478    -7.155041    32.673084  0.030592775  0.035552583            1 
   90000    1.2509945   -7.1620589    33.248935  0.030786051  0.035529882            2 
   91000    1.2359506   -7.1549406    33.525799  0.030701281  0.035512203            1 
   92000    1.2485443   -7.1813197    34.046551  0.030839267  0.035492876            2 
   93000    1.2105891   -7.1463872    34.562442   0.03096993  0.035484889            1 
   94000    1.2160984   -7.1208621    34.834758  0.030881878  0.035469848            1 
   95000    1.2178445   -7.1756142    35.127844  0.030813898  0.035446132            2 
   96000    1.2290151    -7.160509    35.565389  0.030872733  0.035423424            1 
   97000    1.2422142   -7.1547205     36.03609   0.03095884     0.035401            1 
   98000    1.2670609   -7.1680883    36.361198  0.030919386  0.035381906            1 
   99000     1.227567   -7.1357832    37.107191  0.031235009   0.03536503            1 
  100000    1.2453629   -7.1475191    37.606907  0.031339089  0.035362678            1 
  101000    1.2605891   -7.1647492    38.122542  0.031454243  0.035366178            4 
  102000    1.2280276    -7.164856    38.339649  0.031323243  0.035372216            2 
  103000    1.2294994   -7.1250167    38.839273   0.03142336  0.035371478            1 
  104000    1.2328737   -7.2040498    38.963228  0.031220535  0.035360572            1 
  105000     1.226411    -7.146173     39.37528  0.031250222  0.035343651            2 
  106000    1.2231755   -7.1360546    39.546832  0.031090277  0.035315357            1 
  107000    1.2499083   -7.1732624    39.945829  0.031110459  0.035284229            2 
  108000    1.2467141   -7.1692255    40.508142  0.031256282  0.035261595            2 
  109000    1.2464302   -7.1573618     41.08439  0.031410084  0.035246058            1 
  110000    1.2548963   -7.1702867    41.342769   0.03132028  0.035233676            1 
  111000    1.2504458   -7.1544719    41.874876  0.031437595  0.035224999            2 
  112000    1.2336536   -7.1300645    42.280154  0.031458448  0.035207831            1 
  113000    1.2391671   -7.1561417    42.811945  0.031572231  0.035194485            2 
  114000    1.2552973   -7.1376235    43.279049  0.031636732  0.035182762            1 
  115000    1.2278874   -7.1401827    43.548296  0.031556736  0.035173692            2 
  116000    1.2442266   -7.1403067    44.186093  0.031742883  0.035165441            1 
  117000    1.2434882   -7.1583331     44.70819   0.03184344  0.035165219            2 
  118000     1.230792   -7.1618202    44.981167  0.031766361  0.035165027            2 
  119000    1.2720064   -7.1407001    45.529917  0.031883696  0.035165483            1 
  120000     1.240518   -7.1132674     45.77553  0.031788562  0.035161835            2 
  121000    1.2246513   -7.1385338    46.238207  0.031844495  0.035156038            1 
  122000    1.2566686   -7.1610802     46.65449  0.031867821   0.03515305            4 
  123000    1.2319084   -7.1490552    46.921655  0.031789739  0.035147373            2 
  124000    1.2441047   -7.1635451    47.184466   0.03170999  0.035139385            1 
  125000     1.227476   -7.1511529    47.985844  0.031990562  0.035131865            2 
  126000    1.2136748   -7.1161183    48.610335  0.032149692  0.035135723            1 
  127000    1.2250949   -7.1349989    49.076454  0.032202397  0.035142536            1 
  128000    1.2352097    -7.171103    49.301036  0.032097028  0.035147495            1 
  129000    1.2182701   -7.2038987    49.551717  0.032010153  0.035148747            1 
  130000    1.2479766   -7.1730604    49.826854  0.031940291  0.035144834            2 
  131000    1.2315119   -7.1517743    50.224808  0.031949623  0.035137291            1 
  132000    1.2221368   -7.2013568    50.598846  0.031943716  0.035130452            1 
  133000    1.2305997   -7.1364851    50.897493  0.031890659  0.035123283            1 
  134000    1.2469615   -7.1881485    51.375754  0.031950096  0.035110957            1 
  135000    1.2097136   -7.1821836    51.769683  0.031956594  0.035099852            2 
  136000    1.2243191   -7.0875186    52.498825  0.032168398  0.035091189            1 
  137000    1.2298688   -7.1898982    52.692469   0.03205138  0.035087332            1 
  138000    1.2425241   -7.0944479    53.353934  0.032218559  0.035083822            2 
  139000    1.2186919   -7.1290736    53.821002  0.032266788  0.035080046            1 
  140000    1.2488717   -7.1971703    54.185171  0.032253078  0.035077388            1 
  141000    1.2223402    -7.148688    54.720845  0.032340925  0.035078692            1 
  142000    1.2177424    -7.170046    55.096776  0.032333789  0.035081067            1 
  143000    1.2105708   -7.1844006    55.263077   0.03220459  0.035076946            1 
  144000    1.2295178   -7.1377315     55.80909  0.032296927  0.035074061            2 
  145000    1.2035795   -7.1662451    56.052903  0.032214312  0.035070428            2 
  146000      1.22836   -7.1340351    56.574577  0.032291425  0.035063535            1 
  147000    1.2192683    -7.226715    56.904883  0.032259004  0.035057657            3 
  148000    1.2072279   -7.1214167    57.326414  0.032278386  0.035052473            2 
  149000    1.2180227   -7.1262859    57.669576  0.032253678  0.035045335            2 
  150000    1.2191264   -7.1561554    58.185074  0.032325041  0.035035728            2 
  151000     1.233883   -7.1709511    58.676792  0.032382335  0.035030118            1 
  152000     1.240497   -7.1433576    58.980835  0.032335984  0.035025515            3 
  153000    1.2193698   -7.1170066    59.433947  0.032371431  0.035022156            1 
  154000    1.2288812   -7.1333957     60.10575  0.032524756  0.035019934            1 
  155000    1.2365701   -7.1931335    60.010815  0.032263879  0.035014173            1 
  156000    1.2392869   -7.1575483    60.332017  0.032228641  0.035004369            1 
  157000    1.2175881   -7.1751746    60.849732  0.032298159  0.034990864            2 
  158000    1.2295157   -7.1349682    61.196847  0.032276818   0.03497782            2 
  159000    1.2465909   -7.1584598    61.662148  0.032317687  0.034968325            1 
  160000    1.2345505   -7.1700309    61.804088  0.032189629  0.034957711            3 
  161000    1.2306219   -7.1818711    62.193539  0.032191273  0.034943908            1 
  162000    1.2218672   -7.1617471    62.738579  0.032272931  0.034927661            2 
  163000    1.2456668   -7.1928169    63.150689  0.032285628  0.034913246            2 
  164000    1.2356229   -7.1789321    63.183724  0.032105551  0.034896462            2 
  165000    1.2369794   -7.1691218     63.91808  0.032281858  0.034879412            1 
  166000    1.2510189   -7.1852205     64.38768  0.032323132  0.034865888            2 
  167000     1.223175    -7.171383    64.646142  0.032258554  0.034851618            2 
  168000    1.2480679   -7.2095727    65.088721  0.032286072  0.034837775            1 
  169000    1.2386372   -7.1835061    65.550663  0.032322812  0.034826569            1 
  170000    1.2193651   -7.1831079    66.191103  0.032446619  0.034816786            1 
  171000    1.2239808   -7.1978743    66.357476  0.032337951  0.034808318            1 
  172000    1.2325405   -7.1693402    67.085767  0.032502794  0.034799441            2 
  173000    1.2103599   -7.2312804    67.043912  0.032294755  0.034788683            2 
  174000    1.2128187   -7.1744355    67.643194  0.032396165  0.034776383            2 
  175000    1.2420654   -7.1962312     67.93394  0.032349495  0.034765194            2 
  176000    1.2495978    -7.169489    68.311978  0.032344687  0.034754777            2 
  177000    1.2314612   -7.1477851    68.706783  0.032347826  0.034744034            3 
  178000    1.2337072   -7.2095853    68.961427  0.032285312   0.03473033            1 
  179000     1.247854   -7.1865272    69.338101  0.032280308  0.034717697            1 
  180000    1.2361724   -7.1662099    69.965091  0.032391246  0.034705677            1 
  181000    1.2063251   -7.1897329    70.187084  0.032314496  0.034695873            2 
  182000    1.2220457   -7.1834407    70.713327  0.032377897  0.034683245            3 
  183000    1.2160838   -7.2081745    71.149503  0.032399592  0.034673925            1 
  184000    1.1939704   -7.1043183     72.01534  0.032615643  0.034664586            1 
  185000    1.2080892   -7.1718231    71.974563  0.032420974  0.034655102            1 
  186000    1.2288018   -7.1501949    72.260445  0.032374751   0.03464537            1 
  187000    1.2181834   -7.1701066    72.428054  0.032276316  0.034632732            2 
  188000    1.2016683   -7.1484497    73.061567  0.032385446   0.03461959            4 
  189000    1.2086239   -7.1911435    72.962113  0.032170244  0.034603608            1 
  190000    1.2277498   -7.1932806    73.451232  0.032215453  0.034588288            1 
  191000    1.2290267   -7.1581609     73.94328  0.032261466  0.034571163            2 
  192000    1.2125842   -7.1356206    74.336371   0.03226405  0.034552816            1 
  193000    1.2000818   -7.1743458    74.665574  0.032239021  0.034533012            3 
  194000     1.245262   -7.1601859    74.821716  0.032139912  0.034511541            3 
  195000    1.1998539   -7.1460339    74.934728  0.032023388   0.03449004            2 
  196000    1.2117074   -7.1926574    75.328564  0.032027451  0.034464098            1 
  197000    1.2361377   -7.1802494    75.737701  0.032037945  0.034440409            1 
  198000    1.2333932   -7.1767349    76.319444  0.032120978  0.034420632            2 
  199000    1.2214187   -7.1466168    76.968415   0.03223133  0.034402027            2 
  200000    1.2094031   -7.1873777    77.566077  0.032319199  0.034387394            2 
  201000    1.2534971   -7.1750482    77.772934  0.032244168  0.034375946            1 
  202000    1.2200748   -7.2154273    78.285341  0.032295933  0.034365998            1 
  203000    1.1995142   -7.1912542    79.085847  0.032465454  0.034357983            2 
  204000    1.2034573   -7.1949497    79.218546  0.032360517  0.034347564            2 
  205000    1.2327969   -7.2162155    79.562189  0.032342353  0.034337588            2 
  206000    1.2157356   -7.1997093    79.953118  0.032343494  0.034326212            2 
  207000    1.2260218   -7.1938103    80.534357  0.032421239  0.034314238            2 
  208000    1.1892496   -7.1579223    81.400658  0.032612443  0.034308015            1 
  209000     1.203699   -7.1316515    82.006669  0.032698034  0.034302631            3 
  210000    1.2126923   -7.1701224    81.774474  0.032450188  0.034297591            1 
  211000    1.2184358   -7.1915085    82.099702  0.032424843  0.034290524            2 
  212000    1.2090343   -7.1862799    82.131522  0.032284403  0.034281809            2 
  213000    1.2245028    -7.177719    82.405671   0.03224009  0.034270459            2 
  214000    1.2296949   -7.2033381    82.449563  0.032106528  0.034257117            1 
  215000    1.2266849   -7.2570716    83.061732   0.03219447   0.03424034            1 
  216000    1.2073601   -7.2138385    83.147253  0.032078415  0.034221754            2 
  217000    1.2249801   -7.1734397    83.883455  0.032213308  0.034205088       -1e+20 
  218000    1.2190518   -7.1786908    84.289521  0.032220765  0.034190672            2 
  219000    1.2142598   -7.1922986    84.668456  0.032217829  0.034176718            1 
  220000    1.2308874   -7.1789761    85.134965  0.032248093  0.034163281            1 
  221000    1.2259923   -7.1679213     85.33674  0.032178258  0.034150676            2 
  222000     1.206547   -7.2401964    85.669128  0.032158081  0.034136924            1 
  223000    1.2426607   -7.1805115    86.164408  0.032198956  0.034123129            1 
  224000    1.2073031   -7.1723186    86.637877  0.032231353  0.034109065            1 
  225000    1.1930045   -7.1642664    86.980155  0.032214872  0.034095779            1 
  226000    1.2167702   -7.1712195    87.316717   0.03219643  0.034081938            1 
  227000    1.2273796   -7.1557728     87.63916  0.032172966  0.034066362            2 
  228000    1.2102534   -7.1843862    87.933663  0.032139496  0.034050236            1 
  229000    1.2129117   -7.2426935    88.388226  0.032164566  0.034036519            2 
  230000    1.2063251   -7.1461139     88.73772  0.032151348   0.03402254            1 
  231000    1.2004037   -7.1651359    89.068888  0.032131633  0.034008369            1 
  232000    1.2158608   -7.1995214    89.174412  0.032031039  0.033992781            3 
  233000    1.2011382   -7.2073544    89.441931  0.031989246  0.033973975            2 
  234000    1.2184791   -7.1764677     90.03504  0.032063761  0.033954966            2 
  235000     1.195962   -7.1979619    90.600628  0.032127882  0.033937272            1 
  236000    1.2077655   -7.2331535    90.929982  0.032108045  0.033921844            2 
  237000    1.2104546    -7.203468     91.48385  0.032167317  0.033907172            1 
  238000    1.2285268   -7.1871102    91.895335  0.032176238  0.033895202            3 
  239000    1.2256117   -7.1905891    92.222269  0.032155603  0.033882811            1 
  240000    1.2389066    -7.188648    92.601381  0.032153257  0.033870965            2 
  241000    1.2172999   -7.1653955    92.663291  0.032041249  0.033857841            1 
  242000     1.176663   -7.2039168     92.80262  0.031956825  0.033842009            2 
  243000    1.1878254   -7.2128297    93.053244  0.031911263  0.033825316            3 
  244000    1.2002836   -7.2044554     93.36654   0.03188748  0.033807338            2 
  245000    1.1831241   -7.2067086    93.909301  0.031941939  0.033788523            2 
  246000    1.2163484   -7.2128278    94.195878  0.031909173  0.033770646            2 
  247000    1.2026323    -7.230974    94.463574  0.031870302  0.033752777            3 
  248000    1.2203409   -7.2092624     95.20194  0.031989899   0.03373601            2 
  249000    1.2102045   -7.1637808    95.672568  0.032018932  0.033719251            1 
  250000    1.2125344    -7.132526    96.199337  0.032066446  0.033703705            5 
  251000    1.2307014   -7.2037093    95.997756  0.031871765  0.033688698            2 
  252000    1.2065777   -7.2085721    96.669181  0.031967322  0.033673317            3 
  253000     1.196889   -7.1997883     96.67424  0.031842635  0.033658514            1 
  254000    1.2106639   -7.2163953    97.295427  0.031921072  0.033644118            3 
  255000    1.1943999   -7.1785798    97.865561   0.03198221  0.033630019            1 
  256000    1.2176959   -7.1815734    98.443353  0.032045362  0.033616915            2 
  257000    1.1831983   -7.2280414    98.479234  0.031932307  0.033603362            2 
  258000    1.2056841   -7.2421426    98.887701  0.031940472  0.033589396            1 
  259000    1.2093181   -7.2232129    99.597433  0.032045506  0.033577166            2 
  260000    1.2120677   -7.2050312    100.19569  0.032114004  0.033565355            3 
  261000    1.2019315   -7.2183263    100.18553  0.031987717  0.033553713            3 
  262000    1.2305965    -7.141166     101.0216  0.032131552  0.033542411            2 
  263000    1.2134075   -7.1848348     101.3512  0.032113816  0.033532293            1 
  264000    1.2086319   -7.2153651    101.37392  0.031999344  0.033522608            3 
  265000    1.2125713   -7.2093546    101.90609  0.032045939  0.033509888            1 
  266000    1.1766765   -7.1975037    102.21081  0.032020932  0.033497805            2 
  267000     1.179628   -7.1945746    102.75804  0.032071796  0.033486249            1 
  268000    1.2374909   -7.2223021    102.76863  0.031955419  0.033475537            1 
  269000    1.2152093   -7.1894336     103.3867  0.032028096  0.033464378            2 
  270000    1.2112069   -7.2173067    103.75054  0.032021773  0.033453808            2 
  271000    1.2145547   -7.2317498    104.24662  0.032056157  0.033443364            1 
  272000    1.2213414   -7.2313897    104.86704  0.032128383  0.033435278            4 
  273000    1.1929351   -7.2017813    105.30293  0.032143751  0.033426308            4 
  274000    1.2095124    -7.224383    105.35813  0.032043226  0.033418267            2 
  275000    1.2050724   -7.2309416    105.80834  0.032063134  0.033408758            1 
  276000    1.2116642   -7.1863146    105.94085  0.031986972  0.033399372            2 
  277000    1.1903567   -7.1917881    106.59925  0.032069571  0.033389403            1 
  278000    1.1936577    -7.238236    106.85527  0.032030956  0.033380662            2 
  279000    1.2422758   -7.1992487    107.51349  0.032112752  0.033372303            1 
  280000    1.1944753   -7.1339592    108.15838  0.032189994  0.033364296            1 
  281000    1.1990166    -7.193239    108.26352  0.032106619    0.0333552            1 
  282000    1.2004979    -7.204024    108.42418  0.032040243  0.033345356            2 
  283000    1.1956545   -7.2639761    108.66996  0.031999399  0.033334387            2 
  284000     1.215993   -7.1992839    109.43946  0.032112516  0.033325533            2 
  285000    1.2345323   -7.2382269    109.03598  0.031881865  0.033316386            2 
  286000    1.2208628   -7.1896096    109.99002  0.032048374  0.033306886            1 
  287000    1.2155275   -7.2125977    110.43933  0.032067168  0.033297209            2 
  288000    1.2133263   -7.2147237    110.80653  0.032062076  0.033287593            6 
  289000    1.2078989    -7.185296    111.51955  0.032156734  0.033279698            2 
  290000    1.2121265    -7.247853     111.3828  0.032006553  0.033272029            1 
  291000    1.1946891    -7.203839    112.04687  0.032086732  0.033264622            2 
  292000    1.2384038   -7.2160153    112.52532  0.032113391  0.033257995            1 
  293000    1.1983393   -7.2065932    113.16906  0.032186876  0.033253468            2 
  294000     1.229519   -7.1834127    113.80201  0.032256805  0.033247581            2 
  295000    1.2160487   -7.1590073    114.29312  0.032286191  0.033242913            2 
  296000    1.1887558   -7.2172311    114.67279  0.032284007  0.033237581            2 
  297000    1.2160999   -7.1644541    114.98648  0.032263322  0.033232575            1 
  298000    1.2033633   -7.1849985     115.1927  0.032212722  0.033227326            1 
  299000    1.2318289   -7.2182547    115.21199  0.032110364  0.033221342            2 
  300000    1.2014456   -7.1928387    115.97357  0.032214881  0.033215527            2 
  301000    1.2011054   -7.2445216    116.16118  0.032159794  0.033209292            1 
  302000    1.1977447   -7.2367947    116.47513  0.032139936  0.033204395            2 
  303000    1.2259066   -7.1805794    117.06637  0.032196471  0.033199396            2 
  304000    1.2153172   -7.1636743    118.25461  0.032416285  0.033195347            1 
  305000    1.1752582   -7.2304955    117.35307   0.03206368  0.033190979            2 
  306000    1.2206908   -7.2457653    117.48349  0.031994415  0.033183665            1 
  307000    1.1871181   -7.2376699      118.347  0.032124592  0.033176861            2 
  308000    1.1814317   -7.2743304    118.48266  0.032056996  0.033169825            2 
  309000    1.2159209   -7.2366912    118.88558  0.032061915  0.033162725            2 
  310000    1.2063163   -7.2003064    119.10828  0.032018355  0.033156697            1 
  311000    1.2041276   -7.2514612    119.59673  0.032046285  0.033150122            2 
  312000     1.208266   -7.2138823     120.1943  0.032103179  0.033144269            4 
  313000    1.1903505   -7.2114828    120.18302  0.031997609  0.033138182            2 
  314000    1.2209762   -7.2328888    120.64055  0.032017132  0.033131886            1 
  315000    1.2085513   -7.2355872    121.17966  0.032058112   0.03312475            1 
  316000    1.1996728   -7.2353287    121.35006  0.032001599  0.033117472            2 
  317000    1.1889864   -7.2500214     122.1345  0.032106862  0.033110218            1 
  318000    1.2000426   -7.2034772    122.29153  0.032047045   0.03310299            1 
  319000    1.1955519   -7.2588857    122.49684  0.032000219  0.033094795            1 
  320000    1.1993157     -7.21683    122.53804  0.031910948  0.033087037            2 
  321000    1.2073924   -7.1995086    123.09188  0.031955318  0.033078706            2 
  322000     1.202558   -7.2407093    122.69991  0.031754636  0.033069137            1 
  323000    1.2349818   -7.2651132    122.95006  0.031720861  0.033058805            1 
  324000     1.178961   -7.2207145    123.83245  0.031849909  0.033047601            1 
  325000    1.2047133   -7.2257168    124.41489  0.031901254  0.033037211            1 
  326000      1.22308   -7.2236188    124.44408  0.031810859  0.033025899            2 
  327000    1.2185336   -7.2107645    124.81438  0.031807945  0.033014774            1 
  328000    1.1963597   -7.2555803    124.78973  0.031704709   0.03300421            1 
  329000    1.1826054   -7.2389728    125.86171  0.031879866   0.03299338            3 
  330000    1.2136762   -7.2294197    126.18709  0.031865427  0.032983509            2 
  331000    1.2040135   -7.2450929    126.23528  0.031781288  0.032973667            1 
  332000    1.2045984   -7.2316174    126.56171  0.031767498  0.032964063            1 
  333000    1.1936591    -7.212694    127.04068  0.031791962  0.032955015            1 
  334000    1.2249411   -7.2279746    127.21847  0.031741135  0.032945092            1 
  335000    1.2079666   -7.2441435    127.59206  0.031739319  0.032934386            1 
  336000    1.1840518   -7.2223907    128.20101  0.031795885   0.03292393            1 
  337000    1.1967961   -7.2364138    127.92164  0.031632452  0.032912959            1 
  338000    1.1872532   -7.2613261    129.05473  0.031818227  0.032902458            2 
  339000    1.1940495   -7.2511194    129.64391    0.0318692    0.0328934            1 
  340000    1.2253526   -7.2349809    129.54939  0.031752302  0.032884205            2 
  341000    1.1910379   -7.2179834     130.5749  0.031909801  0.032874631            2 
  342000    1.2002712   -7.2696117    130.38673  0.031770646  0.032864908            1 
  343000    1.2140406   -7.2247647    130.84203  0.031788636  0.032854822            2 
  344000    1.1998747   -7.2687463    130.45002  0.031601265  0.032843821            1 
  345000    1.1950117   -7.2921157    131.04316  0.031652938  0.032832464            2 
  346000    1.2084674   -7.2436986    131.28149  0.031618856  0.032820664            1 
  347000     1.177273    -7.255464    131.83686   0.03166111  0.032809425            1 
  348000    1.1800771   -7.2332006     132.2541  0.031670043  0.032797777            1 
  349000    1.2004017   -7.1981133    132.65981  0.031676173  0.032786908            2 
  350000    1.2034664   -7.2186302     132.4999  0.031547596  0.032775383            1 
  351000    1.1958287   -7.2138293    133.03937  0.031585795  0.032763625            1 
  352000     1.192717   -7.2555209    133.05124  0.031498872  0.032751137            2 
  353000    1.1762868   -7.2535539    133.06803  0.031413605  0.032737589            2 
  354000    1.1968836   -7.2358807    133.67349  0.031467394  0.032723284            1 
  355000    1.2040532   -7.2249297    134.09857  0.031478538  0.032709109            3 
  356000    1.2133654      -7.2296    134.62633  0.031513655  0.032696202            1 
  357000     1.213731   -7.1892949    134.75282  0.031454905  0.032684038            1 
  358000    1.1591192   -7.2180816     135.4427   0.03152763  0.032671168            2 
  359000    1.2035685   -7.2500706    135.21648  0.031387299  0.032657716            4 
  360000    1.2307239   -7.2076233     136.1657  0.031519838  0.032644885            4 
  361000    1.2031297   -7.3003092    135.67296  0.031318781  0.032632203            3 
  362000      1.18293   -7.1813415    136.87233  0.031508362  0.032619429            1 
  363000    1.2184159   -7.2427555    137.00095   0.03145109  0.032606357            2 
  364000    1.1869651    -7.216894    137.51503  0.031482379  0.032593064            3 
  365000    1.1895601   -7.2412169    137.59178  0.031413647  0.032580669            1 
  366000    1.1930868    -7.281851    138.08455  0.031440016  0.032567437            3 
  367000    1.1859119   -7.2569697    138.34221  0.031412855  0.032555127            2 
  368000    1.2058215    -7.247774     138.7177  0.031412523   0.03254268            1 
  369000    1.1874191   -7.2567969    138.82954  0.031352651  0.032529563            2 
  370000    1.2213185   -7.2532945    139.15104  0.031340325  0.032516898            1 
  371000    1.1885371   -7.2296108    139.35695    0.0313021  0.032503695            2 
  372000     1.192683   -7.2489257    139.67219  0.031288574  0.032490157            1 
  373000    1.1897388   -7.2295987    139.58287  0.031184733  0.032476119            1 
  374000    1.1833652   -7.2786907    140.13739   0.03122491  0.032462402            3 
  375000    1.1857343   -7.2819463    140.36076  0.031191281  0.032448806            1 
  376000    1.1746629   -7.2328844    141.37068  0.031332154  0.032435328            1 
  377000    1.1890811    -7.231255    141.50905   0.03127963  0.032422676            2 
  378000    1.1959015   -7.2538966    141.67364  0.031233166  0.032410221            2 
  379000    1.1776953   -7.2868973    141.91337  0.031203467  0.032397504            1 
  380000    1.1738259   -7.2979422    142.24601    0.0311943  0.032385337            3 
  381000    1.1687798   -7.2650702     142.6932  0.031210236  0.032372952            2 
  382000    1.1747233     -7.26086    143.16449  0.031231347  0.032360024            1 
  383000    1.1674755   -7.3062106    143.66114  0.031257863  0.032347692            1 
  384000    1.2020674   -7.2371036    144.56175  0.031371907  0.032335945            2 
  385000    1.1810212    -7.266552    144.75396  0.031332025  0.032324753            1 
  386000    1.1860731   -7.2082965    145.57242  0.031427551  0.032314627            1 
  387000    1.1576146    -7.236407    146.10671  0.031461394  0.032305103            2 
  388000    1.2003206   -7.2780881    145.92108  0.031340439  0.032295173            2 
  389000    1.2154327   -7.2767199    146.37933   0.03135804  0.032285351            1 
  390000    1.1883461   -7.2701008    146.51997  0.031307687  0.032276918            2 
  391000    1.1665709   -7.2331444    147.69979  0.031479068  0.032268323            1 
  392000    1.1767566   -7.2498201    147.73123  0.031405448  0.032259584            1 
  393000    1.2038981   -7.3083758    147.66164   0.03131078  0.032249569            2 
  394000    1.1738232   -7.2339934    148.15919  0.031336546   0.03224085            2 
  395000      1.19745    -7.234149    149.09038  0.031453667  0.032231392            2 
  396000    1.1932751   -7.2655416    148.82798  0.031319019  0.032222183            3 
  397000    1.1774971   -7.2712728     149.2073  0.031319751  0.032212692            1 
  398000    1.2038045   -7.2827133    149.37435  0.031276036  0.032202479            4 
  399000    1.1765912    -7.261863    150.08767  0.031346632  0.032192738            3 
  400000      1.16516   -7.2655426    150.45851  0.031345522  0.032182611            3 
  401000    1.1663592   -7.2855742     150.5893  0.031294534  0.032172758            1 
  402000     1.178814   -7.2390688    150.88533  0.031278054  0.032162456            1 
  403000    1.1760228   -7.2229246    151.82957  0.031395694  0.032152812            1 
  404000    1.1691329   -7.2853632    151.22234  0.031192726  0.032143136            2 
  405000    1.1838207   -7.2325991    152.01845  0.031279515  0.032132655            3 
  406000    1.1826216    -7.234712    152.06712  0.031212462  0.032122365            1 
  407000     1.194193   -7.2885207    151.95248    0.0311123  0.032111696            2 
  408000    1.1694794   -7.2455542    153.05863  0.031261974  0.032100758            3 
  409000       1.1984   -7.2685659    153.07864  0.031189617  0.032090173            2 
  410000    1.1748874   -7.2348836      153.398  0.031178455  0.032079683            1 
  411000    1.1934596   -7.2730151      152.936  0.031008921  0.032068153            2 
  412000    1.1949104    -7.238611    153.81052  0.031110542  0.032056487            1 
  413000    1.1620119   -7.2642812    153.95232  0.031063826  0.032044803            3 
  414000    1.1786414   -7.2701284    154.02409   0.03100324  0.032033432            6 
  415000     1.181194   -7.2654769    154.38628  0.031001262  0.032021645            2 
  416000    1.1836383   -7.2555504    155.15988  0.031081708  0.032009621            2 
  417000    1.2052658   -7.3206386    154.97485  0.030970195  0.031997617            1 
  418000    1.1733095   -7.2909417    155.01329  0.030903767  0.031985814            2 
  419000     1.177963    -7.277905    156.05437  0.031037067  0.031974553            1 
  420000    1.1699579   -7.3094478    155.33325  0.030820089  0.031962409            2 
  421000    1.1927705   -7.2658214    156.32693  0.030943573  0.031949522            2 
  422000    1.2111334   -7.2809821    157.09405  0.031021732  0.031937509            1 
  423000    1.1820149    -7.253519     157.3494    0.0309987  0.031926705            2 
  424000    1.1697272   -7.2789748    157.78047  0.031010313  0.031915664            1 
  425000    1.1719575    -7.262471    157.97909  0.030976292  0.031904506            1 
  426000    1.1669943   -7.2874953    158.34745  0.030975635  0.031892957            1 
  427000    1.1908455   -7.2791939    158.82532  0.030996355  0.031881699            3 
  428000    1.1861833   -7.2822637    159.30692  0.031017702  0.031870675            2 
  429000    1.1964076   -7.2564367    159.65913  0.031013817   0.03186087            3 
  430000     1.172114   -7.2815327    159.50046  0.030910943  0.031849879            6 
  431000    1.1900503   -7.2558323    160.23895  0.030982009  0.031838775            2 
  432000    1.1871868   -7.3010888    159.22857  0.030715388  0.031827058            2 
  433000    1.1745235   -7.2916214    159.97612  0.030788321   0.03181497            3 
  434000    1.2127803   -7.2673642    160.85556  0.030886243    0.0318029            2 
  435000    1.1935902   -7.2761149    161.11248   0.03086446  0.031790475            1 
  436000    1.1819594   -7.2514473    160.47876  0.030672546   0.03177738            2 
  437000    1.1588988   -7.2728727    161.07298  0.030715671  0.031764181            3 
  438000    1.1841199   -7.2924176    161.66524  0.030758227  0.031750942            1 
  439000    1.2019909   -7.2379378    162.38675  0.030825123  0.031737713            4 
  440000    1.1822512   -7.3176074    161.41829  0.030571645   0.03172453            1 
  441000    1.1944166   -7.2803068    161.90094  0.030593526   0.03171088            2 
  442000     1.193367   -7.3153588     162.6107  0.030658126   0.03169756            2 
  443000    1.2067997   -7.2847836    162.67735  0.030601459  0.031683941            1 
  444000    1.1886615   -7.2631549    163.18189  0.030627232  0.031670837            2 
  445000    1.1853795   -7.2803726    163.87812  0.030688786  0.031658353            2 
  446000    1.1517228   -7.2776998    164.00166   0.03064306  0.031645121            5 
  447000    1.1889851   -7.2529549    164.56135   0.03067885  0.031631988            2 
  448000    1.1812969   -7.3161921    164.61763  0.030620839  0.031619051            1 
  449000    1.1826333   -7.2955024    165.23564  0.030667343  0.031605959            1 
  450000    1.1770882   -7.2658401     165.4268  0.030634593  0.031593139            1 
  451000    1.1776406   -7.2835144    166.12441  0.030695568  0.031580062            1 
  452000    1.1557445    -7.257123    166.16423  0.030634999  0.031567229            2 
  453000    1.1878436   -7.3045044    166.06209  0.030548581  0.031554569            1 
  454000     1.155431   -7.2683586    167.02817  0.030658621  0.031541934            1 
  455000    1.1928965   -7.2756645    166.44159  0.030483807  0.031528834            2 
  456000    1.1766519   -7.2734129    166.71762  0.030467401  0.031515402            2 
  457000    1.1814363   -7.2668909    166.90445  0.030434802  0.031501527            2 
  458000     1.174248   -7.2524912    168.11255  0.030588164  0.031487733            2 
  459000    1.1853502     -7.27612    168.36317  0.030567024  0.031474647            1 
  460000    1.1819718   -7.3305047    168.45061  0.030516416  0.031461359            1 
  461000    1.1491198   -7.2586195    168.88559  0.030528848  0.031448179            2 
  462000    1.1707089   -7.2551123    169.28387  0.030534609  0.031435765            1 
  463000    1.1496606   -7.2867866    169.32533  0.030476122  0.031422613            2 
  464000    1.1770637   -7.2115918    170.29328  0.030584282  0.031409614            1 
  465000    1.1709257    -7.302518    169.32199  0.030344442  0.031396455            1 
  466000     1.186001   -7.2683279    170.43601  0.030478542  0.031382733            1 
  467000    1.1630316      -7.2934    170.21026  0.030372995  0.031369087            2 
  468000    1.2050337   -7.3283014    170.41178  0.030343978  0.031355243            2 
  469000    1.1762421   -7.2688683    171.33227  0.030442834  0.031342014            1 
  470000    1.1582754   -7.2865526    171.68975  0.030441445   0.03132899            1 
  471000     1.176833   -7.2710078     172.6424  0.030545364  0.031316516            1 
  472000    1.1885282   -7.2885202    172.37029  0.030432608  0.031304075            2 
  473000    1.1828081   -7.2530677    172.98628  0.030476794  0.031292183            6 
  474000    1.1920323   -7.2556473    172.97837  0.030411106  0.031279685            1 
  475000    1.1621354   -7.2919036    173.13702  0.030374915  0.031267566            2 
  476000     1.191454   -7.2675514    173.63656  0.030398558  0.031255501            1 
  477000    1.1756641   -7.3083173    174.19631  0.030432619  0.031243328            4 
  478000    1.2257051   -7.2634052    174.33905  0.030393837  0.031231527            1 
  479000    1.1724276   -7.2884377    174.68917  0.030391296  0.031220056            2 
  480000    1.2112056    -7.228784    175.74948  0.030512063  0.031209094            2 
  481000    1.1788416   -7.2098402    176.35704  0.030553888  0.031198636            1 
  482000    1.1752642    -7.302015    175.85016  0.030402863  0.031187441            1 
  483000    1.1567825    -7.296384    177.09381  0.030554488  0.031177137            1 
  484000    1.1881728   -7.2901012    177.34777  0.030535085  0.031167403            2 
  485000    1.1900229   -7.2960395    177.62952  0.030520537  0.031157335            1 
  486000    1.1902421    -7.280671    177.67388  0.030465343  0.031147443            1 
  487000    1.1697926    -7.278356    178.35775  0.030519806  0.031138308            1 
  488000    1.1957923   -7.2627668    179.55469  0.030661661  0.031129489            1 
  489000    1.1380309   -7.3350725     179.6627  0.030617366  0.031121365            2 
  490000    1.1574288    -7.320184    179.95411   0.03060444  0.031112925            3 
  491000    1.1755539   -7.3251012    180.00312  0.030550428   0.03110492            1 
  492000    1.1615186   -7.3139829    181.24656  0.030698944  0.031096732            1 
  493000    1.1741931   -7.2641394    181.65379  0.030705508  0.031088727       -1e+20 
  494000     1.172161   -7.2936086    180.94351  0.030523534  0.031080901            2 
  495000    1.1557936   -7.3236989    181.63654  0.030578542  0.031072274            1 
  496000    1.1657029   -7.3183596     181.9551  0.030570413  0.031063928            2 
  497000     1.164264   -7.2830638    182.65772  0.030626714   0.03105553            1 
  498000    1.1692443   -7.3233785    182.78203  0.030586016  0.031047223            2 
  499000      1.15675   -7.2624836    182.88796  0.030542411  0.031039408            3 
  500000    1.1721012   -7.3072149    183.61329  0.030602216  0.031031366            1 
  501000    1.1689509   -7.3096246    183.26215  0.030482726  0.031023734            2 
  502000    1.1464081    -7.267423    183.41362  0.030447149  0.031015961            1 
  503000    1.1715984   -7.2738659    184.21016  0.030518582  0.031007489            1 
  504000     1.179121   -7.2814217    184.47094  0.030501148  0.030998943            2 
  505000    1.1749933   -7.2701901    185.10759  0.030545807  0.030990811            1 
  506000    1.1732531   -7.3012005    185.36131  0.030527224  0.030982512            2 
  507000    1.1614879   -7.3124983    185.71327  0.030524864  0.030974708            2 
  508000    1.1779629   -7.3086235    186.69892  0.030626463  0.030967701            1 
  509000    1.1665451   -7.2816144    187.06488  0.030626208  0.030961837            1 
  510000    1.1899653   -7.2676271    187.69173  0.030668583  0.030955877            1 
  511000    1.1536582    -7.313559     187.4282  0.030565591  0.030949768            2 
  512000    1.1212006   -7.2916497    187.86456  0.030576913  0.030943599            1 
  513000    1.1489038    -7.291724    188.99537  0.030701003  0.030937575            2 
  514000    1.1746099   -7.2929619    188.48445  0.030558438  0.030931395            2 
  515000     1.165046   -7.3229149    188.84227  0.030557002  0.030925623            2 
  516000    1.1781758   -7.2800753       190.03  0.030689599  0.030919541            2 
  517000    1.1631813   -7.2768609    191.04115  0.030793222  0.030914588            2 
  518000    1.1585026   -7.2744669    190.14049  0.030588881  0.030909051            1 
  519000    1.1834972   -7.2783413    190.79129   0.03063444   0.03090348            2 
  520000    1.1513211   -7.3697701    190.18273  0.030478002  0.030897285            2 
  521000    1.1621333   -7.3156903     190.7161  0.030504814  0.030890778            1 
  522000    1.1499269   -7.2926009    191.61576  0.030589999  0.030885018            2 
  523000    1.1680436   -7.3285544    191.85681  0.030569919  0.030879134            2 
  524000    1.1633064   -7.3161449    192.69381   0.03064469  0.030873196            4 
  525000    1.1695583   -7.3147987    193.05711  0.030643986  0.030868216            2 
  526000    1.1592649   -7.2933027     193.6231  0.030675396  0.030862878            2 
  527000    1.1407842   -7.2773406    193.77192  0.030640721  0.030858194            2 
  528000    1.1865654   -7.3009921    194.09014  0.030632914  0.030853016            4 
  529000    1.1606953   -7.3217246    194.95311  0.030710949  0.030848362            2 
  530000     1.169299   -7.2783218    196.03048  0.030822403  0.030844226            1 
  531000    1.1520732   -7.3224738    195.08557  0.030616065  0.030839981            1 
  532000    1.1912928   -7.2529348    196.27584  0.030744962  0.030835363            2 
  533000      1.17397   -7.2946858    195.61063  0.030583276  0.030830873            1 
  534000    1.1677277   -7.2894378    196.09067  0.030600916  0.030826031            1 
  535000     1.144496   -7.3108667     195.9417  0.030520515  0.030820706            4 
  536000    1.1648911   -7.2844469    196.19973  0.030503689  0.030814601            4 
  537000    1.1556238   -7.3234298     196.4854  0.030491217  0.030808305            1 
  538000    1.1570472   -7.3144234    196.67547  0.030463982  0.030801796            1 
  539000    1.1756487   -7.3071562    198.49128  0.030688201  0.030796133            2 
  540000     1.177674   -7.2970095    198.30156  0.030602092  0.030790814            2 
  541000     1.147406   -7.3231264    197.93624  0.030489255   0.03078583            2 
  542000     1.152716    -7.274133    198.57507  0.030531223  0.030780729            3 
  543000    1.1545147   -7.3624305    198.16552  0.030412142  0.030775347            2 
  544000    1.2134238   -7.3025815    199.76374  0.030601063  0.030770311            1 
  545000    1.1741692   -7.3503899    199.35307   0.03048212  0.030765127            3 
  546000    1.1638665   -7.2817944     200.5082  0.030602594  0.030759962            1 
  547000    1.1799089   -7.3396108     200.6773   0.03057241  0.030755623            1 
  548000    1.1671823   -7.2808049    201.56969  0.030652325  0.030751261            1 
  549000    1.1748554   -7.3389831    200.66974  0.030459888   0.03074658            3 
  550000     1.169603   -7.3206193    201.42725  0.030519281  0.030741313            2 
  551000    1.1581803   -7.3166018    201.36041  0.030453782  0.030735975            2 
  552000    1.1653675   -7.3322204    201.20572  0.030375259  0.030730429            2 
  553000    1.1531097   -7.3111276    201.59395  0.030378836  0.030724625            1 
  554000    1.1803645   -7.3197254    202.55863  0.030469108  0.030718707            1 
  555000    1.1848515   -7.3372534    201.42664   0.03024424   0.03071244            4 
  556000    1.1608904   -7.3171188    202.30064  0.030320839  0.030705657            2 
  557000     1.171509   -7.2965782     203.4192  0.030433753  0.030699381            2 
  558000    1.1788116   -7.3437305    202.85938  0.030295607  0.030692863            4 
  559000    1.1612251   -7.3269328    203.32129   0.03031027  0.030686155            2 
  560000    1.1454316   -7.3040075    204.11802  0.030374705  0.030680172            1 
  561000    1.1672647   -7.3294538    203.85301  0.030281196  0.030673545            4 
  562000    1.1717299   -7.3309111     204.2964  0.030293061  0.030666997            1 
  563000    1.1727845   -7.3045934     204.1935  0.030224024  0.030660096            1 
  564000    1.1820474   -7.3164671    205.17923   0.03031608  0.030652904            3 
  565000     1.160014   -7.2817457    205.52795  0.030313858  0.030646346            3 
  566000    1.1686509   -7.3463548    206.07947    0.0303415  0.030639402            4 
  567000    1.1556669   -7.3196765    206.19832  0.030305456  0.030632512            1 
  568000    1.1696194   -7.2775343    207.31021   0.03041523  0.030626295            2 
  569000    1.1508997   -7.3704849     206.3657  0.030223448  0.030620307            1 
  570000    1.1462799   -7.3059657    207.72792  0.030369579  0.030613992            1 
  571000    1.1659794   -7.3160049    208.04685  0.030362938  0.030608125            1 
  572000    1.1745508   -7.3233828    208.25212  0.030339762  0.030602039            1 
  573000    1.1582996   -7.3452797    208.62319  0.030340778   0.03059637            2 
  574000    1.1500636    -7.308282    208.95258  0.030335741  0.030590539            3 
  575000    1.1759927   -7.3093985    209.40878  0.030349098  0.030585001            4 
  576000    1.1456571    -7.277738    209.67194  0.030334482   0.03057908            3 
  577000    1.1454413   -7.2970977    210.29946  0.030372539  0.030573188            1 
  578000    1.1625903   -7.2990945    210.37317  0.030330619  0.030567503            2 
  579000    1.1383179   -7.3474796    209.87243  0.030206165  0.030561498            2 
  580000    1.1820376   -7.2939046    211.13431  0.030335389  0.030555348            2 
  581000    1.1882354   -7.3052372    211.09013   0.03027684  0.030549384            2 
  582000     1.164851   -7.3272573    211.41869  0.030271863  0.030543317            1 
  583000      1.16657   -7.3228119     211.2956  0.030202345   0.03053683            4 
  584000    1.1600915   -7.3330459    212.15946  0.030273896  0.030530662            2 
  585000     1.111589   -7.3137722    212.37932  0.030253464  0.030524872            2 
  586000    1.1809499    -7.348863    212.58872  0.030231615  0.030519338            1 
  587000    1.1647901   -7.3495915    213.34474  0.030287442  0.030514464            2 
  588000     1.171028    -7.310117    213.63194  0.030276635  0.030508865            1 
  589000    1.1725302   -7.3635767    214.07939  0.030288539  0.030502962            1 
  590000    1.1566593   -7.3406796    213.81635  0.030200049  0.030496946            2 
  591000    1.1414727   -7.3751725    213.69296   0.03013155  0.030490083            2 
  592000    1.1523124   -7.3043262    214.54685  0.030200851  0.030483346            2 
  593000    1.1614375   -7.3253256      214.141   0.03009289  0.030476483       -1e+20 
  594000    1.1535075   -7.3271366    215.02685  0.030166506  0.030469494            2 
  595000    1.1484578   -7.3244297    215.65331  0.030203545  0.030462866            1 
  596000    1.1331538   -7.3179661    216.05676  0.030209278  0.030456507            2 
  597000    1.1768059   -7.3915538     215.8011   0.03012299  0.030449921            1 
  598000     1.139827   -7.3501346    216.08088  0.030111605  0.030443228            1 
  599000    1.1400119   -7.3553834    216.20747  0.030078946  0.030436676            1 
  600000    1.1551856   -7.3054771    217.07009  0.030148624  0.030430264            2 
  601000    1.1698414   -7.2903832    217.54087  0.030163737  0.030424248            2 
  602000    1.1699728   -7.2941734    217.83854  0.030154836  0.030418246            1 
  603000     1.131824   -7.2937042    218.06792  0.030136528  0.030412331            2 
  604000     1.132088    -7.336419     218.8903  0.030200096  0.030406132            1 
  605000    1.1323051    -7.374785    218.27526  0.030065463  0.030399885            2 
  606000    1.1589936   -7.3348658    219.00733  0.030116519  0.030393613            2 
  607000    1.1489436   -7.3231927    219.69743  0.030161646  0.030387819            1 
  608000    1.1373626   -7.3417858    219.62658  0.030102327  0.030382154            2 
  609000    1.1366411    -7.363747    219.71144  0.030064511  0.030375693            1 
  610000    1.1708166   -7.3528946    219.51658  0.029988604   0.03036945            3 
  611000    1.1591009   -7.3319682    220.62289   0.03009041  0.030362985            1 
  612000    1.1609198   -7.3262677    221.24208  0.030125556  0.030356435            1 
  613000    1.1499856   -7.3400583    220.92149  0.030032829   0.03035007            3 
  614000    1.1301384   -7.3019995    221.75148  0.030096563  0.030344125            2 
  615000    1.1486659   -7.3291832    221.75197  0.030047693   0.03033817            2 
  616000    1.1482494   -7.3338139    222.11603  0.030048165  0.030331677            1 
  617000    1.1711225   -7.3104738    222.68144  0.030075829  0.030325002            1 
  618000    1.1605038   -7.3200029    222.30664  0.029976624    0.0303185            2 
  619000     1.143751   -7.3620097    222.38264  0.029938427  0.030311735            3 
  620000     1.141994   -7.3353515    223.73893  0.030072436  0.030304488            1 
  621000    1.1299597   -7.3789769    223.06264  0.029933258  0.030297209            2 
  622000    1.1649366   -7.3207097    223.22728  0.029907192  0.030290377            1 
  623000    1.1648907   -7.3922983    223.65642  0.029916589  0.030283232            2 
  624000    1.1807248   -7.3592315    224.12798  0.029931621  0.030276186            1 
  625000    1.1467423   -7.3094907    224.56683  0.029942243  0.030269109            2 
  626000    1.1498975   -7.3153615    224.94917   0.02994531  0.030261925            2 
  627000    1.1435704   -7.3245277    225.72697  0.030000927   0.03025524            1 
  628000    1.1521186   -7.3433353      226.041  0.029994824  0.030248685            1 
  629000    1.1435148   -7.3577898    226.31088  0.029982894   0.03024217            1 
  630000    1.1442599    -7.325926    227.01557  0.030028514  0.030235478            1 
  631000    1.1406065   -7.3327194    226.69195  0.029938187  0.030228914            1 
  632000    1.1392042   -7.3643707    227.13376  0.029949071  0.030222535            2 
  633000    1.1542789   -7.3165313    228.15252  0.030035877   0.03021641            1 
  634000    1.1587318     -7.32942    228.18814  0.029993184  0.030210275            1 
  635000     1.161517    -7.398807    228.38733  0.029972091  0.030204444            2 
  636000    1.1883517   -7.3581222    228.83157  0.029983172  0.030198651            3 
  637000    1.1437614   -7.3628724    229.64998  0.030043169  0.030193497            2 
  638000    1.1494221   -7.3571663    230.78313  0.030144087   0.03018821           10 
  639000    1.1439066   -7.3158238    231.08091  0.030135747  0.030183173            1 
  640000    1.1358843   -7.3108456    230.69344  0.030038208  0.030178146            3 
  641000    1.1291104   -7.3793814    229.99023  0.029899925  0.030173088            2 
  642000    1.1309315   -7.3144045    232.05719   0.03012165  0.030167684            2 
  643000    1.1628162    -7.320833    231.69676  0.030028092  0.030162571            4 
  644000    1.1660411   -7.3258089    232.16263  0.030041748  0.030157507            5 
  645000    1.1301836   -7.3648301    232.39956  0.030025783  0.030152124            1 
  646000    1.1744682    -7.318488    233.18771  0.030080974  0.030147093            1 
  647000    1.1493266   -7.3454946    233.34811   0.03005514  0.030142003            4 
  648000    1.1458875   -7.3929386    233.83433  0.030071287  0.030137217            4 
  649000    1.1602207   -7.3483897    234.21764  0.030074171  0.030132802            2 
  650000    1.1357418   -7.3505353    234.59026  0.030075674  0.030128929            1 
  651000    1.1526883   -7.3008607    235.96737  0.030205756  0.030125236            4 
  652000    1.1263887   -7.3568144    235.19173  0.030060293  0.030121462            5 
  653000    1.1392659   -7.3321491    235.16461  0.030010797  0.030117699            2 
  654000    1.1328949   -7.3740504    235.87754  0.030055752  0.030113512       -1e+20 
  655000    1.1438509   -7.3704075    235.84453  0.030005665  0.030109493            1 
  656000    1.1465118   -7.3411786    236.67665  0.030065631  0.030105003            2 
  657000    1.1402255   -7.3823132    236.29017  0.029970849  0.030100769            2 
  658000     1.150106   -7.3880644     236.9435  0.030008042  0.030096143            1 
  659000    1.1650345    -7.320191    238.17244  0.030117911  0.030091737            1 
  660000    1.1484312   -7.3889137    237.28666  0.029960437  0.030087574            1 
  661000    1.1187637   -7.3731783    237.64308  0.029960046  0.030083074            3 
  662000    1.1265067   -7.3364415    238.44921  0.030016265  0.030078797            2 
  663000    1.1524194    -7.373769     238.5147  0.029979223  0.030074363            1 
  664000    1.1560851    -7.328312    240.35317  0.030164806  0.030070427            2 
  665000    1.1568253    -7.376362    239.60596  0.030025809  0.030066429            1 
  666000     1.160317   -7.3403444    240.07817  0.030039811  0.030062642            3 
  667000    1.1579985   -7.3749778    239.75311  0.029954161  0.030058176            2 
  668000     1.139998   -7.3411377    240.64961  0.030021159   0.03005333            2 
  669000    1.1476722   -7.3953515    240.01229  0.029896897  0.030048839            3 
  670000    1.1513525    -7.340597    241.87416  0.030083851  0.030044108            1 
  671000     1.129644   -7.3457303    241.72531  0.030020531   0.03003965            1 
  672000    1.1259313   -7.3895426    241.65305  0.029966896  0.030034976            1 
  673000    1.1204718   -7.3114583    241.94928  0.029959049  0.030030566            1 
  674000    1.1282217   -7.3662143    241.92848  0.029912028  0.030026142            1 
  675000    1.1399213   -7.3802356     242.3676  0.029921926  0.030021352            1 
  676000    1.1179868   -7.3613674    242.63793  0.029910987  0.030016284            2 
  677000    1.1468895    -7.334018    243.57781  0.029982497  0.030011548            3 
  678000    1.1552794   -7.3468268    242.80453  0.029843231  0.030007026            1 
  679000    1.1394564   -7.3729557    242.57082  0.029770596   0.03000198            1 
  680000    1.1566676   -7.3564374    243.47004  0.029837015  0.029996772            5 
  681000    1.1572811   -7.3705842    243.21032   0.02976142  0.029991604            1 
  682000    1.1407498   -7.3982911    243.01152   0.02969349  0.029986078            1 
  683000    1.1047175   -7.3473474    245.11918  0.029907172  0.029980967            1 
  684000    1.1274324   -7.3503098    244.87049   0.02983315  0.029975977            3 
  685000     1.143919   -7.3424454    246.07103  0.029935648  0.029970927            3 
  686000    1.1127682   -7.3433765     245.5705  0.029831208  0.029965952            1 
  687000    1.1373427   -7.3849481    245.40133  0.029767265  0.029960603            1 
  688000    1.1712251   -7.3325825    246.23209  0.029824624  0.029955397            4 
  689000    1.1273105   -7.3502951     246.4233  0.029804463  0.029950339            1 
  690000    1.1297224   -7.3814567    245.85838  0.029693041  0.029944686            1 
  691000    1.1541553   -7.3805242    246.59598  0.029739023  0.029938933            1 
  692000    1.1436696   -7.3864529     246.8415  0.029725614  0.029933538            2 
  693000    1.1683642   -7.3524725    247.67947  0.029783486  0.029927859            2 
  694000     1.132019   -7.3613387    248.40453  0.029827633  0.029922735            1 
  695000    1.1611578   -7.4041759    247.58188  0.029686077  0.029917401            7 
  696000    1.1403161    -7.385165    248.61569  0.029767205  0.029912055            1 
  697000    1.1449915   -7.3162889    249.30921  0.029807413  0.029906372            2 
  698000    1.1162872   -7.3345427    248.67923  0.029689498  0.029900597            2 
  699000    1.1385856   -7.3440478    249.09639  0.029696756  0.029894779            1 
  700000    1.1430007   -7.3598778    249.04385  0.029648078  0.029889172            1 
  701000    1.1647306   -7.3736122     249.1488   0.02961826  0.029883155            2 
  702000    1.1077037   -7.3526078    249.95442  0.029671702  0.029877427            2 
  703000    1.1397721   -7.3998914    249.95082  0.029629068   0.02987126            1 
  704000    1.1289385   -7.3637132     250.1986  0.029616312  0.029865451            3 
  705000    1.1337349   -7.3973793    250.42987   0.02960164  0.029859241            2 
  706000    1.1510563   -7.3633402    251.12176  0.029641378  0.029853358            3 
  707000    1.1411194   -7.3253234    252.02573  0.029706003  0.029847351            2 
  708000    1.1442985   -7.3514994    251.64017  0.029618664  0.029841328            1 
  709000    1.1305893   -7.3382083    251.46673  0.029556503  0.029835114            4 
  710000    1.1534169   -7.3315676    252.42323   0.02962714  0.029828889            2 
  711000    1.1280804   -7.3783971    251.44758  0.029471118  0.029822531            2 
  712000    1.1365416   -7.3464373    252.56588  0.029560613  0.029815676            4 
  713000    1.1608222   -7.3726392    251.11407  0.029349471  0.029808651            5 
  714000    1.1335748   -7.3535214    252.35522  0.029453223  0.029801464            1 
  715000     1.144456   -7.3850139    252.83877  0.029468388  0.029794169            3 
  716000    1.1217989   -7.3996708    252.83319  0.029426582  0.029787207            2 
  717000    1.1334157   -7.3573048    253.04923  0.029410649  0.029779896            1 
  718000    1.1486035   -7.4091171    252.60926  0.029318624  0.029772672            1 
  719000     1.127652   -7.4266224     252.7015  0.029288538  0.029765172            2 
  720000    1.1438741   -7.4020252     253.3441  0.029322234  0.029757943            2 
  721000    1.1548439   -7.4087238    253.57178  0.029307881  0.029750693            5 
  722000    1.1358222   -7.3741696    254.29086  0.029350284   0.02974314            1 
  723000    1.1264353   -7.4021795    254.32254   0.02931334  0.029735392            1 
  724000    1.1664254   -7.4082038    254.79027  0.029326688  0.029727992            1 
  725000     1.145862   -7.3674203    255.13356  0.029325696  0.029720548            3 
  726000     1.164977   -7.4322255      254.797  0.029246671  0.029712932            3 
  727000    1.1318726   -7.4107281    255.14976  0.029246877  0.029705298            1 
  728000    1.1129336   -7.4336589    256.21798  0.029328981  0.029698019            1 
  729000    1.1196311   -7.4070625    255.63275   0.02922185  0.029690324            1 
  730000    1.1291708   -7.4309665    255.59705  0.029177745  0.029682496            1 
  731000    1.1151208   -7.3933924    256.31427  0.029219593  0.029674354            3 
  732000     1.135265   -7.3927496    257.10697  0.029269919  0.029666363            3 
  733000    1.1405284   -7.4496231    256.02302  0.029106756  0.029657864            2 
  734000    1.1333821    -7.423466    257.10928  0.029190427   0.02964935            1 
  735000    1.1121192   -7.3564511    257.60504   0.02920692  0.029640827            1 
  736000    1.1435709   -7.4040061    257.34707  0.029138028  0.029632524            1 
  737000     1.138307   -7.4032786    257.60717  0.029127903  0.029624148            1 
  738000    1.1139571   -7.3975647    256.87017  0.029005214  0.029615729            2 
  739000    1.1227934   -7.4072609    257.94454  0.029087116  0.029607403            1 
  740000    1.1153485   -7.3949299    258.55966  0.029117079  0.029599135            1 
  741000    1.1223653   -7.4218875    258.90605   0.02911674  0.029590756            2 
  742000    1.0988139   -7.3775362    259.82372  0.029180561  0.029582348            4 
  743000    1.1143039    -7.359109    259.96092  0.029156676  0.029574452            2 
  744000    1.1597063   -7.3798509    260.29642  0.029155065  0.029566587            1 
  745000    1.1307726   -7.3885606    260.53849  0.029143008  0.029558801            1 
  746000    1.1299906   -7.4120586    260.21244   0.02906752  0.029550558            1 
  747000    1.1213075   -7.3437205    261.26558  0.029146093  0.029542274            2 
  748000    1.1113116   -7.3674321    262.43638  0.029237564  0.029534275            1 
  749000    1.1046868   -7.4356965    261.14288  0.029054615  0.029526258            1 
  750000     1.124012   -7.4031206    261.88039  0.029097821  0.029518295            1 
  751000    1.1364903   -7.4202655    262.02739  0.029075387  0.029510278            4 
  752000    1.1122975   -7.4066579    263.35486  0.029183828  0.029502473            2 
  753000    1.1453972   -7.4408772    262.57542  0.029058812  0.029494703            2 
  754000    1.1497761   -7.3780233    263.06186  0.029074034  0.029486747            2 
  755000    1.1427637   -7.4101869    262.67274  0.028992576  0.029479101            1 
  756000    1.1414175   -7.3583205     263.5108  0.029046605  0.029471056            3 
  757000    1.1240284   -7.3863368    264.15234  0.029078857  0.029463274            1 
  758000    1.1346988    -7.406529    263.95668  0.029018984  0.029455481            2 
  759000    1.1326135   -7.3509554    264.81719   0.02907523   0.02944759            2 
  760000    1.1259719   -7.4358018      264.142  0.028962938   0.02943988            3 
  761000    1.1285039   -7.3939209    264.51474  0.028965697  0.029431996            1 
  762000    1.1308416   -7.3619486    265.83212  0.029071754  0.029424299            2 
  763000    1.1140466    -7.385119    266.13336  0.029066553  0.029416673            1 
  764000      1.13037   -7.3835063    266.61601  0.029081153   0.02940894            1 
  765000    1.1433321   -7.4030954    266.88253  0.029072171  0.029401156            1 
  766000     1.136507   -7.4120669    266.18028  0.028957819  0.029393426            1 
  767000    1.1415978   -7.4242325      266.242  0.028926771  0.029385486            4 
  768000     1.134423   -7.3639079    267.62533  0.029039206  0.029377642            1 
  769000    1.1381788   -7.3761414     267.2911  0.028965225  0.029370122            1 
  770000    1.1319432   -7.3948816    267.22016   0.02891993  0.029362558            1 
  771000    1.1416228   -7.3930757    267.82881  0.028948207  0.029354839            3 
  772000    1.1063784   -7.4430466    267.67178  0.028893759  0.029346901            1 
  773000    1.1130352   -7.3828507    268.21557  0.028915003  0.029339042            1 
  774000    1.1366979   -7.4287011    267.73385  0.028825781  0.029331251            1 
  775000    1.1017496   -7.4153252    267.76865  0.028792328  0.029322864            1 
  776000    1.1463181   -7.4182855    269.22973  0.028912127  0.029314687            2 
  777000    1.1639506   -7.4294949    267.88343  0.028730527  0.029306106            1 
  778000    1.1367617   -7.3978596    269.99273   0.02891953  0.029297738            1 
  779000    1.1243758   -7.4373707    269.38907  0.028817829  0.029289634            5 
  780000     1.125511   -7.4312577    269.53757  0.028796749  0.029281436            1 
  781000    1.1381303    -7.396922    270.28908  0.028840064  0.029273305            1 
  782000    1.1355173   -7.4054953    271.44185  0.028926028  0.029265319            2 
  783000    1.1434311   -7.4122281    270.65027   0.02880484   0.02925718            1 
  784000    1.1179419   -7.3908454    270.37516  0.028738856  0.029248817            1 
  785000    1.1339695   -7.3959737    271.45815  0.028817213  0.029240586            3 
  786000    1.1189857   -7.4327192    271.87096  0.028824317  0.029232414            5 
  787000    1.1160501   -7.3916307    271.95004  0.028796065  0.029224299            4 
  788000    1.1405786   -7.3786936    272.96378  0.028866728  0.029216574            2 
  789000    1.1101255   -7.3925927     272.7216  0.028804563  0.029208828            2 
  790000    1.1374194   -7.4230445    273.31045  0.028830216  0.029201046            1 
  791000    1.1288982   -7.3847982    273.35314  0.028798266  0.029193383            1 
  792000    1.1111288   -7.4078476     273.8048  0.028809428  0.029185552            1 
  793000     1.118234   -7.4022319    273.51912  0.028743077  0.029177644            1 
  794000    1.1492016   -7.4133425    274.48086  0.028807815  0.029169734            1 
  795000     1.144342   -7.4004487    275.51016  0.028879472  0.029161903            2 
  796000    1.1136093    -7.402116    275.12129   0.02880248  0.029154342            2 
  797000    1.1076358   -7.4279072    275.20255  0.028774838  0.029146624            1 
  798000    1.1201152   -7.4047929    274.63962  0.028679994  0.029138932            2 
  799000    1.1147974   -7.4001106    275.97778  0.028783665  0.029131414            2 
  800000    1.0978719   -7.4504699    275.51214  0.028699182  0.029123396            4 
  801000    1.1317142   -7.4520712    275.48048  0.028660058  0.029115638            2 
  802000    1.1471214   -7.4007789    277.48427   0.02883253  0.029107903            2 
  803000    1.1307213   -7.4007953    277.20304  0.028767439  0.029100142            2 
  804000    1.1233599   -7.4518735    276.27513  0.028635482  0.029091843            2 
  805000    1.1312963   -7.4001064    276.54356  0.028627698   0.02908372            1 
  806000    1.1354269    -7.397797    277.71805  0.028713611  0.029075603            3 
  807000    1.1247508   -7.4079953    277.76028  0.028682391  0.029067599            2 
  808000     1.123156   -7.4069132    278.12125  0.028684122  0.029059405            3 
  809000    1.1149036   -7.4071942    277.69543  0.028604804  0.029051504            2 
  810000    1.1316907   -7.4671066    278.55933  0.028658367  0.029043415            1 
  811000    1.1126529   -7.4074454     278.9276  0.028660871  0.029035328            2 
  812000    1.1215846   -7.4111164    279.02266   0.02863533  0.029026984            3 
  813000    1.1252087   -7.4387599    278.15738  0.028511416  0.029018702            1 
  814000    1.1410305   -7.4224097    278.30731  0.028491739  0.029010562            3 
  815000    1.1254104   -7.3904206    279.80003   0.02860941  0.029002395            2 
  816000    1.1271665   -7.3843697    280.15129  0.028610222  0.028994214            1 
  817000    1.1168094   -7.4076778    279.77919  0.028537249  0.028986113            2 
  818000    1.1410607   -7.4307413    280.79996  0.028606353  0.028978011            3 
  819000    1.1338733   -7.3920756    280.80663  0.028572104  0.028969707            1 
  820000    1.1329027   -7.4209209    281.55528  0.028613341  0.028961253            2 
  821000    1.1194833   -7.4119635    281.80046  0.028603376  0.028952792            2 
  822000    1.0967856   -7.4243989    281.21908  0.028509639  0.028944517            3 
  823000    1.1248159     -7.44312    281.35928  0.028489194  0.028936355            1 
  824000    1.1253485   -7.4572739    281.17288  0.028435768  0.028928208            2 
  825000      1.10556   -7.4537825    281.98129  0.028482959  0.028919744            3 
  826000    1.1247483   -7.4395402    281.94864  0.028445181  0.028911284            2 
  827000    1.1142025   -7.4081249    283.13798   0.02853063  0.028902762            3 
  828000    1.1432571   -7.4147005    282.87815  0.028470023  0.028894447            1 
  829000    1.1185666   -7.4407613    282.73354  0.028421144  0.028886097            2 
  830000    1.0992979   -7.4423565    282.53763  0.028367232  0.028877243            1 
  831000    1.1053444   -7.3932574    283.39444  0.028419017  0.028868239            1 
  832000    1.1148464   -7.3978396    283.42015  0.028387435  0.028859471            1 
  833000    1.1215081   -7.3921891    283.50134  0.028361479  0.028850657            5 
  834000    1.1326498   -7.4319371    284.32503  0.028409776  0.028841731            4 
  835000    1.1300205   -7.4331869     283.2873  0.028272185  0.028832788            2 
  836000    1.1091336   -7.4167362    284.51916  0.028361161  0.028823642            3 
  837000     1.120646   -7.4323277    284.27414  0.028302881  0.028814622            2 
  838000    1.1140801   -7.4335273    285.25825   0.02836697  0.028805396            1 
  839000    1.1137764   -7.4125564    284.34699  0.028242649  0.028796311            6 
  840000    1.1083478   -7.3987495    285.27515  0.028301106  0.028787063            1 
  841000    1.1473948   -7.4064177    285.63947  0.028303554  0.028778174            1 
  842000    1.1088432   -7.3918495    286.82679  0.028387449  0.028769186            1 
  843000    1.1031731   -7.4408292    286.45974  0.028317491  0.028760241            1 
  844000     1.134324   -7.4234905    286.19498  0.028257798  0.028751027            4 
  845000    1.1276237   -7.4328747    284.80572  0.028087349  0.028741735            2 
  846000     1.123735   -7.4295321    285.53127  0.028125617  0.028732423            2 
  847000    1.1406484   -7.4563625    286.35553  0.028173507   0.02872299            1 
  848000    1.1331245   -7.4620239    286.69347  0.028173493   0.02871336            3 
  849000    1.1048392   -7.4332522    286.94547  0.028165044  0.028704273            1 
  850000    1.0911714   -7.4478194     287.2173  0.028158559  0.028694978            2 
  851000    1.1173433   -7.4738449    287.26754   0.02813039  0.028685497            1 
  852000    1.1083113   -7.4690681     287.1032  0.028081299  0.028675875            1 
  853000    1.1068369   -7.4738128    288.40004  0.028175072  0.028666335            3 
  854000    1.1531543   -7.4395772    288.30346  0.028132656  0.028656855            1 
  855000     1.115167   -7.4229618    289.17434  0.028184633  0.028647808            2 
  856000    1.1065732   -7.4646914    287.57326  0.027995839  0.028638503            2 
  857000    1.1131392   -7.4364427    289.26657  0.028127826  0.028629204            2 
  858000    1.1123755   -7.4140549    289.71253  0.028138358  0.028619937            1 
  859000    1.1059938   -7.4749562    288.57949  0.027995682    0.0286107            2 
  860000    1.1200786   -7.4669254    288.98772  0.028002686  0.028601296            4 
  861000    1.1032196   -7.4567949    289.83277  0.028051952  0.028591854            1 
  862000    1.1162945   -7.4632555    289.97876  0.028033523  0.028582498            2 
  863000     1.097482   -7.4400098     290.7783  0.028078245  0.028573468            2 
  864000    1.1112873   -7.4784373    290.97456  0.028064676  0.028564531            1 
  865000    1.0957244   -7.4423681    291.04356  0.028038879  0.028555322            4 
  866000    1.1251353   -7.4549898    291.16366  0.028018058  0.028546273            1 
  867000    1.1302873   -7.4232093    291.93613   0.02805999  0.028537384            3 
  868000    1.1126889   -7.4173195    292.76976  0.028107696  0.028528175            2 
  869000    1.1015537   -7.4295574    292.81595   0.02807978  0.028519293            1 
  870000    1.1128847   -7.4282938    292.31502  0.027999523  0.028510288            1 
  871000     1.115799    -7.453447     292.4044  0.027975928  0.028501389            1 
  872000     1.112363   -7.4406138    293.14051  0.028014193  0.028492528            4 
  873000    1.1027321   -7.4727016    292.81076  0.027950627  0.028483582            1 
  874000      1.11647   -7.4782123    294.25405   0.02805626  0.028474686            1 
  875000    1.1193456   -7.4388691    294.03937  0.028003749  0.028465722            2 
  876000    1.1048228   -7.4222106    294.31038  0.027997563  0.028457037            2 
  877000    1.1072198   -7.4354429     294.9003  0.028021693   0.02844837            1 
  878000    1.1198352   -7.4137734    295.73498     0.028069  0.028439816            3 
  879000    1.1090669   -7.4693717    295.24896   0.02799099  0.028431281            3 
  880000    1.1092137   -7.4718735    295.65764  0.027997882  0.028422594            5 
  881000    1.0963422   -7.4766803    294.93665  0.027897905   0.02841383            2 
  882000    1.1146233   -7.4625948    295.47651  0.027917282  0.028404822            2 
  883000    1.1080033   -7.4322886    295.83292  0.027919302  0.028395934            2 
  884000    1.1099384   -7.4184799     295.7228  0.027877338  0.028387001            1 
  885000    1.0868141   -7.4736841    296.81445   0.02794863  0.028377862            2 
  886000    1.1190083   -7.4700748     296.0596  0.027846088  0.028368532            1 
  887000    1.1090215   -7.4608229    296.26995  0.027834456  0.028359203            2 
  888000    1.1197117   -7.4619559       295.63  0.027743056  0.028349653            1 
  889000    1.1102812   -7.4336262     297.5988    0.0278964  0.028340264            3 
  890000    1.1014597   -7.4691212    296.34864     0.027748  0.028331075            1 
  891000    1.1184939   -7.4303183    296.89474  0.027767933  0.028321665            3 
  892000     1.109893    -7.418119    297.57409   0.02780027  0.028312236            1 
  893000    1.1031965    -7.494949      296.765  0.027693636  0.028302551            4 
  894000    1.1434492   -7.4702415    297.20468  0.027703643  0.028292927            2 
  895000    1.1191844   -7.4706775    298.34074  0.027778467  0.028283246            2 
  896000      1.11313    -7.468163    297.15698  0.027637368  0.028273732            3 
  897000     1.109655   -7.4100922    298.75545  0.027755058  0.028263938            1 
  898000    1.0927945    -7.427081    298.42157  0.027693167  0.028254245            3 
  899000    1.1057536   -7.5158201    297.24993  0.027553757  0.028244529            3 
  900000    1.1202435   -7.4295067    298.82859  0.027669314  0.028234785            3 
  901000    1.1139938     -7.48282    298.45806  0.027604334  0.028225415            1 
  902000    1.1254768   -7.4577405    299.37684  0.027658615  0.028215813            3 
  903000    1.1103031   -7.4583434    299.12542  0.027604782  0.028206016            2 
  904000    1.1092394   -7.4147183     299.5471  0.027613118  0.028196508            2 
  905000    1.0837619   -7.4309402    300.43507  0.027664371  0.028186883            1 
  906000    1.0902268   -7.4150298    300.80167  0.027667556  0.028177169            2 
  907000    1.1297028   -7.4444513    300.70536  0.027628203  0.028167395            1 
  908000    1.1195319   -7.4721726    300.97859  0.027622852  0.028157559            2 
  909000    1.0944247   -7.4734682    300.53474  0.027551773  0.028147753            2 
  910000     1.095278   -7.4574461    300.87386  0.027552551  0.028137946            2 
  911000    1.1156032   -7.4740434    301.06908  0.027540165  0.028128137            2 
  912000    1.1051329   -7.4600061    301.28202  0.027529424   0.02811846            3 
  913000    1.1207334   -7.4053436    302.78183  0.027636166  0.028108992            1 
  914000    1.1074861   -7.4587111    302.20317   0.02755317  0.028099394            2 
  915000    1.1196278   -7.4841913    302.69553  0.027567899  0.028089764            3 
  916000    1.1220745   -7.4884734    303.09246  0.027573913  0.028080167            2 
  917000    1.1226085   -7.4751889    303.13889  0.027548063  0.028070644            2 
  918000    1.0940896   -7.4848753    302.83449  0.027490422  0.028061175            2 
  919000    1.0923045   -7.4765918    303.44978  0.027516302  0.028051949            1 
  920000     1.117807   -7.4880231    304.26682    0.0275604  0.028042567            1 
  921000    1.0933335   -7.5194699    303.47729  0.027459038  0.028033147            2 
  922000    1.0971752    -7.494845    304.35734  0.027508798  0.028023765            2 
  923000    1.0953212   -7.4833143    304.81559  0.027520367  0.028014546            3 
  924000    1.0979943   -7.4674173    305.48735  0.027551168  0.028005587            2 
  925000    1.1054782   -7.4661022     306.8631  0.027645324  0.027996544            1 
  926000    1.0967398   -7.4462123    306.39466  0.027573314  0.027987498            1 
  927000    1.0932565   -7.4105021    306.81986  0.027581792  0.027978624            1 
  928000     1.091464   -7.4671367    306.45935  0.027519698   0.02796977            1 
  929000    1.1177326   -7.4665332    307.19317    0.0275559  0.027960881            2 
  930000     1.088213   -7.4330751    307.75282  0.027576418  0.027952109            1 
  931000    1.1023294   -7.4645478    307.58708  0.027531962  0.027943252            1 
  932000    1.0895507   -7.4802844    307.34032  0.027480357  0.027934439            1 
  933000    1.1085259   -7.4703169    307.87441  0.027498608  0.027925506            2 
  934000     1.090636   -7.4704383      307.441  0.027430496   0.02791647            3 
  935000    1.1221695   -7.5114513    308.29039  0.027476862  0.027907497            2 
  936000    1.1346905   -7.4829126    309.05379  0.027515473  0.027898631            2 
  937000    1.0978273   -7.4404905    309.15102  0.027494755  0.027889827            1 
  938000    1.1115505   -7.4575292    308.97706  0.027449988  0.027880835            1 
  939000    1.0879007   -7.4732451    309.70528  0.027485381  0.027872006            2 
  940000    1.0965965   -7.4602888    308.21126  0.027323693  0.027862852            1 
  941000     1.110995   -7.4422811    309.71492  0.027427818   0.02785362            3 
  942000     1.103877   -7.4454112    310.29587  0.027450094  0.027844556            2 
  943000    1.1153617   -7.4722299    309.93923  0.027389469  0.027835821            3 
  944000     1.125541   -7.4651488    310.28553  0.027391025  0.027826926            3 
  945000     1.082159   -7.4599658    310.87038  0.027413614  0.027818131            4 
  946000     1.083932   -7.4558371    311.17026  0.027411052  0.027809564            2 
  947000    1.0905616   -7.4803569    311.62301  0.027421947  0.027801008            1 
  948000    1.0843025   -7.4704985    312.66658  0.027484756   0.02779232            2 
  949000    1.0957829    -7.478708    311.35166  0.027340328  0.027783643            3 
  950000     1.109272   -7.5057968     312.2409  0.027389552  0.027774826            1 
  951000    1.0960251   -7.4693474     312.5853  0.027390931  0.027765929            2 
  952000    1.0876304   -7.5070421    312.80597  0.027381475  0.027757321            2 
  953000    1.0877621   -7.5103001    312.43149  0.027319997  0.027748858            7 
  954000    1.1009277   -7.5017023    312.59932   0.02730602  0.027740069            4 
  955000    1.0925737   -7.4331627    314.04334  0.027403432  0.027731374            2 
  956000    1.0950459    -7.453043    314.69382   0.02743147   0.02772293            2 
  957000    1.0888455   -7.4921251    314.04823  0.027346589  0.027714402            2 
  958000    1.1189235   -7.4678369    313.70404  0.027288104  0.027705666            2 
  959000    1.1075928   -7.4549948     315.2248  0.027391797  0.027696996            3 
  960000    1.1028466   -7.5104875    314.22357  0.027276352  0.027688224            2 
  961000    1.1051146   -7.5033393    314.04054  0.027232097  0.027679261            1 
  962000    1.0962719   -7.5000487    314.37842  0.027233058  0.027670365            2 
  963000    1.0770056   -7.4764755    316.06809  0.027350994  0.027661478            2 
  964000    1.0834952   -7.5036716    314.93897  0.027225014  0.027652489            2 
  965000     1.079899   -7.4647986    315.13047   0.02721334  0.027643591            2 
  966000    1.1237355   -7.4565528    315.91663  0.027252988  0.027634937            1 
  967000    1.0879837   -7.5043564    315.69635  0.027205821  0.027626147            5 
  968000    1.0892171   -7.5018982    315.01751  0.027119276  0.027617314            3 
  969000    1.0990602   -7.4856629    316.71301  0.027237101  0.027608552            1 
  970000    1.1034096   -7.4618081     316.3956  0.027181753  0.027599934            3 
  971000    1.0949596   -7.4593144    316.94996  0.027201335  0.027591196            1 
  972000    1.1099812   -7.5173164     316.7851  0.027159216  0.027582456            1 
  973000    1.0893101   -7.4572641    317.46767  0.027189763  0.027573807            2 
  974000    1.0981933   -7.4758177    317.79997  0.027190278  0.027565171            2 
  975000    1.0952104   -7.4705471    318.17819  0.027194717  0.027556741            1 
  976000    1.0734887   -7.4564162    319.56656  0.027285397  0.027548177            1 
  977000    1.1192896   -7.4732366    318.34987  0.027153691  0.027539318            1 
  978000    1.1285355   -7.4978932     319.0075  0.027181962  0.027530827            1 
  979000    1.1026159   -7.4884328    318.39147   0.02710176  0.027522126            1 
  980000    1.0552831   -7.4863035    319.63603  0.027179934  0.027513725            3 
  981000     1.111344   -7.4416454    321.54759   0.02731461  0.027505352            1 
  982000    1.1064777   -7.4609419    320.71895  0.027216476     0.027497            1 
  983000    1.1048497   -7.5081032    319.32892  0.027070949  0.027488729            1 
  984000    1.0944856    -7.461088    320.90981  0.027177321  0.027480278            1 
  985000    1.1005213   -7.5114142    319.90155  0.027064429  0.027471935            2 
  986000    1.1029053   -7.4846507    321.03463  0.027132744  0.027463466            1 
  987000    1.1048587   -7.5178384    320.32147  0.027045041   0.02745527            1 
  988000    1.1022889   -7.4842355    321.74364  0.027137621  0.027447027            5 
  989000    1.0845137   -7.4663418    322.65289  0.027186796   0.02743873            2 
  990000    1.0945292   -7.5139715    322.64899  0.027159006  0.027430403            2 
  991000    1.0856553   -7.4924666    321.84748  0.027064201  0.027422048            5 
  992000    1.1088158   -7.5047958    322.88923  0.027124431  0.027413857            3 
  993000    1.0995201   -7.5165937    322.90719  0.027098623  0.027405734            2 
  994000    1.0702476   -7.4821797    323.31684  0.027105704  0.027397503            2 
  995000    1.1305213   -7.4878758    324.45798  0.027174035  0.027389568            2 
  996000    1.0889847    -7.516893    324.22521  0.027127277  0.027381526            1 
  997000    1.0734743   -7.4795529    324.80583  0.027148599  0.027373268            2 
  998000    1.0831545   -7.4921268    323.82489  0.027039486  0.027365101            1 
  999000    1.0880212   -7.4810078    325.52228  0.027154011  0.027356997            2 
 1000000    1.1000604   -7.4549657    325.99185  0.027165987  0.027349186            1 
 1001000    1.0920554   -7.5177924    325.54623  0.027101751  0.027341011            2 
 1002000    1.0800211   -7.4837494    324.53258  0.026990401  0.027332889            2 
 1003000    1.0874596   -7.5046348    325.89019  0.027076287  0.027324655            3 
 1004000    1.0921375   -7.4579653    326.66397  0.027113543  0.027316651            2 
 1005000    1.0872461   -7.4836245    325.66286  0.027003554  0.027308867            3 
 1006000    1.0657753   -7.4886363    327.45404  0.027125086  0.027300896            3 
 1007000    1.0910867   -7.5237692    326.29551  0.027002276  0.027292777            1 
 1008000    1.1065998   -7.4578352    327.82958  0.027102313  0.027284916            1 
 1009000    1.0833037   -7.4918937     325.9713  0.026921977  0.027276924            1 
 1010000    1.0867285   -7.5034788    327.54815  0.027025425  0.027268843            2 
 1011000     1.098878   -7.4986323    328.74428  0.027097286  0.027261035            1 
 1012000    1.1160205   -7.4866505    328.46726  0.027047699  0.027253287            3 
 1013000    1.1061797   -7.5098368    327.96349  0.026979557  0.027245396            1 
 1014000    1.0578235   -7.5014557    328.86211    0.0270268  0.027237342            1 
 1015000    1.0943618   -7.4842986    329.61843  0.027062269  0.027229309            2 
 1016000    1.0829359   -7.5028716    328.44073  0.026939036  0.027221276            1 
 1017000    1.0927909   -7.4984698    328.49214   0.02691676  0.027213084            2 
 1018000    1.0951983   -7.4608383    329.54499  0.026976505  0.027204917            3 
 1019000    1.0867891   -7.5172724    328.04621  0.026827462  0.027196794            1 
 1020000    1.1019705   -7.4761057    329.20964  0.026896212   0.02718866            2 
 1021000    1.0895131   -7.4586643    330.14849  0.026946498  0.027180575            2 
 1022000    1.0915019   -7.4809053    330.41036  0.026941484  0.027172356            2 
 1023000    1.0678633   -7.4905215    330.10542  0.026890308  0.027163845            2 
 1024000    1.0700899   -7.5048652    330.52381  0.026898097  0.027155681            1 
 1025000     1.102578    -7.512606    330.27975  0.026852012  0.027147315            2 
 1026000    1.0823857   -7.4960844    330.88819  0.026875259  0.027138944            2 
 1027000    1.0834561   -7.4820679    330.17374  0.026791118  0.027130547            2 
 1028000     1.082266   -7.5070817    330.85622  0.026820381  0.027122123            3 
 1029000    1.1098832   -7.4929754    330.82254  0.026791589  0.027113933            1 
 1030000    1.0936085   -7.4972918    330.81357  0.026764852  0.027105397            2 
 1031000    1.0768904   -7.4837319    330.83555  0.026740669  0.027096747            2 
 1032000    1.1078615   -7.4889752    331.44571  0.026764027  0.027088122            2 
 1033000    1.0949005   -7.4407458    331.77445  0.026764637  0.027079503            1 
 1034000    1.1046622   -7.5301328    331.84312  0.026744287  0.027071266            3 
 1035000    1.0918208   -7.5340678    331.95063  0.026727104  0.027062781            4 
 1036000    1.0833151   -7.4973316    332.05232  0.026709485  0.027054382            4 
 1037000      1.08221   -7.5521192    332.20821  0.026696256  0.027045683            2 
 1038000    1.0749524   -7.5061429    332.59929  0.026701934  0.027037267            3 
 1039000    1.0778171   -7.5071378    332.80437  0.026692683  0.027028444            1 
 1040000    1.1004862   -7.5142765    333.33145  0.026709251  0.027019901            1 
 1041000    1.0870123    -7.529324    333.50021  0.026697103   0.02701141            3 
 1042000    1.0725149   -7.4844957    334.22666   0.02672958  0.027002915            1 
 1043000    1.0691834   -7.5188803    333.51068  0.026646747  0.026994419            3 
 1044000    1.0883072   -7.5025947    333.59389  0.026627865  0.026985886            2 
 1045000    1.0901384   -7.4860284    334.68156   0.02668912  0.026977472            3 
 1046000    1.0778243   -7.4868754    334.77866   0.02667134  0.026969048            1 
 1047000    1.1042123   -7.5180711    334.50809  0.026624331  0.026960606            4 
 1048000    1.0888587   -7.4952135    335.27835  0.026660174  0.026952126            2 
 1049000      1.09624   -7.5091368    335.21848  0.026630003  0.026943617            3 
 1050000     1.079073   -7.5189391    336.00743  0.026667256  0.026935283            1 
 1051000     1.093387   -7.5632415    336.22361  0.026659024  0.026927056            2 
 1052000    1.0722361    -7.546258    335.50228  0.026576543  0.026918854            2 
 1053000    1.0724775   -7.5360802    335.52544  0.026553137  0.026910401            2 
 1054000    1.0781961    -7.449692    337.89921  0.026715623  0.026902183            2 
 1055000    1.0650584    -7.509869    336.87563  0.026609449  0.026894126            3 
 1056000    1.0717347   -7.4795507    338.67373  0.026726146  0.026886193            3 
 1057000    1.0820035   -7.5039004    338.74417  0.026706415  0.026878322            4 
 1058000    1.0850155   -7.5145155    338.98892  0.026700451  0.026870336            2 
 1059000    1.0839222   -7.4996776    339.22233  0.026693605  0.026862169            1 
 1060000    1.0766476   -7.4954322    338.78376  0.026633943  0.026854188            1 
 1061000    1.1034409   -7.4973059    339.22262   0.02664331  0.026846062            2 
 1062000    1.0868052   -7.5578587    338.98515  0.026599588  0.026838015       -1e+20 
 1063000    1.0780193   -7.5068044    339.61707  0.026624104  0.026830141            2 
 1064000      1.07033   -7.5057257    339.93371  0.026623881  0.026822367            4 
 1065000    1.0691613   -7.5583026    339.47679  0.026563129  0.026814432            5 
 1066000    1.0768717   -7.5055265     340.3739  0.026608341  0.026806479            2 
 1067000     1.062737   -7.5189992    340.80717  0.026617242  0.026798931            4 
 1068000    1.0703761   -7.5426445    340.84578  0.026595333   0.02679123            3 
 1069000    1.0724141   -7.5445473    341.56002  0.026626132  0.026783553            4 
 1070000    1.1080142   -7.5017536    342.50968  0.026675208  0.026776079            2 
 1071000    1.1053567   -7.5038803    342.35096  0.026637952  0.026768661            1 
 1072000    1.0918027   -7.5192807    341.84922    0.0265741   0.02676124            1 
 1073000    1.0870866   -7.5055531     343.2425  0.026657541  0.026753628            2 
 1074000    1.0767394    -7.523282    342.92428  0.026608029  0.026746091            1 
 1075000    1.0459063   -7.5093997    342.34954  0.026538724  0.026738638            2 
 1076000    1.0742439   -7.5403966    342.89889  0.026556605  0.026731213            1 
 1077000    1.0956366   -7.5073658    344.15145  0.026628865   0.02672394            2 
 1078000    1.1009354   -7.5198246     344.8791  0.026660413  0.026716619            1 
 1079000    1.0789585   -7.5367957    343.56179  0.026533966  0.026709378            2 
 1080000    1.0819283   -7.5281424    344.72481  0.026599136  0.026701941            4 
 1081000    1.0711027   -7.4656086    345.84348  0.026660768   0.02669496            2 
 1082000    1.0947256   -7.5516899    345.23214  0.026589044  0.026688107            2 
 1083000    1.0828454   -7.5043465    345.59955  0.026592763  0.026681051            2 
 1084000    1.0830755   -7.5009352    345.90636  0.026591817  0.026674031            4 
 1085000    1.0704745   -7.5245084    345.89422  0.026566376  0.026666752            3 
 1086000    1.0754807   -7.4989166    347.72235  0.026682194  0.026659411            1 
 1087000    1.0544043   -7.5196094    345.82558  0.026512234  0.026652057            2 
 1088000    1.0773607   -7.5380664    346.63284  0.026549697  0.026644572            6 
 1089000    1.0910854   -7.5427772     346.3332  0.026502387  0.026637063            2 
 1090000    1.0947894   -7.5628731    347.04723  0.026532663  0.026629588            1 
 1091000     1.083474   -7.4852069    347.84022  0.026568914  0.026622435            1 
 1092000    1.0952781   -7.5387346    347.15851   0.02649256  0.026615153            2 
 1093000    1.0624726    -7.513066    348.89344  0.026600597  0.026607946            7 
 1094000    1.0778873   -7.5449409     347.8638  0.026497852  0.026600703            4 
 1095000    1.0923865   -7.5474564    348.34587   0.02651034  0.026593402            3 
 1096000    1.0793337   -7.5315479    347.89576  0.026451928  0.026585977            1 
 1097000    1.0975373   -7.4832861    349.23927  0.026529875  0.026578796            2 
 1098000    1.0855279    -7.545119    348.41893  0.026443452  0.026571664            1 
 1099000    1.0505158   -7.5259781    347.55584  0.026353946  0.026564128            2 
 1100000    1.0722266   -7.5024174     350.0466  0.026518682  0.026556636            3 
 1101000    1.0881828   -7.5484024    349.06771  0.026420505  0.026548975            1 
 1102000    1.0551927   -7.5518612    348.52413  0.026355424  0.026541186            4 
 1103000    1.0770305   -7.5551652    348.53252  0.026332164  0.026533552            2 
 1104000    1.0785868   -7.5314739    349.76453  0.026401308  0.026525771            1 
 1105000    1.0735337   -7.5740684    348.97848  0.026318136  0.026518338            7 
 1106000    1.0634913   -7.5437167    349.86663  0.026361259  0.026510742            2 
 1107000    1.0607152   -7.5017271    351.11331  0.026431294  0.026503385            2 
 1108000    1.0830194   -7.5386386    349.67981  0.026299625  0.026495732            3 
 1109000    1.0547496   -7.5008929    351.37304  0.026403144  0.026488324            1 
 1110000    1.0981007    -7.503655    352.21292  0.026442412  0.026480868            1 
 1111000    1.0354033   -7.5428382    352.58646  0.026446629  0.026473587            3 
 1112000    1.0652319   -7.5521388    351.56954  0.026346638  0.026466091            2 
 1113000    1.0675025    -7.546329    350.53821  0.026245748  0.026458366            3 
 1114000     1.071288   -7.5717546    351.68713  0.026308133  0.026450686            1 
 1115000    1.0970265   -7.5495079    352.22098  0.026324438  0.026442973            2 
 1116000    1.0879167   -7.5559288    351.87161  0.026274762  0.026435357            3 
 1117000    1.0533981    -7.489515    353.75766  0.026391947  0.026427756            1 
 1118000    1.0713967   -7.5442603    351.97002  0.026235094  0.026420138            2 
 1119000    1.0882391   -7.5358647     352.1997  0.026228754  0.026412407            3 
 1120000    1.0823776    -7.523807    354.04272  0.026342464  0.026404618            2 
 1121000    1.0800737   -7.5456691    352.96158  0.026238595  0.026396882            1 
 1122000    1.0574138   -7.5191323    353.84592  0.026280891   0.02638924            1 
 1123000    1.0665615   -7.5827062    353.15931  0.026206539  0.026381462            1 
 1124000      1.07819   -7.5694787    352.63611  0.026144433  0.026373666            2 
 1125000    1.0836773   -7.5609951    353.30187  0.026170509   0.02636583            3 
 1126000    1.0760266   -7.5473368     353.4134  0.026155521  0.026358143            3 
 1127000    1.0755259   -7.5316899    355.76585  0.026306259  0.026350578            2 
 1128000    1.0756691   -7.5301044    355.61033  0.026271448  0.026343123            1 
 1129000    1.0651026   -7.5489798    354.16253  0.026141314  0.026335502            3 
 1130000    1.0730204   -7.5251851    356.38706  0.026282232  0.026327945            2 
 1131000    1.0877679   -7.5081586    356.08658  0.026236854  0.026320224            1 
 1132000    1.0714394   -7.5393089    354.67252  0.026109579  0.026312402            2 
 1133000    1.0612231   -7.5122285    355.93135  0.026179123  0.026304498            4 
 1134000    1.0618127   -7.5882604    354.90431  0.026080564  0.026296774            4 
 1135000    1.0694225   -7.5760725    355.63658  0.026111349  0.026288816            1 
 1136000    1.0341976   -7.5856251    354.68408  0.026018491  0.026280946            2 
 1137000    1.0637204   -7.5057858     357.6638  0.026213999  0.026273295            2 
 1138000     1.045193   -7.5658951    356.92721  0.026137024  0.026265775            1 
 1139000    1.0623395   -7.4752521    357.72162    0.0261722  0.026258233            4 
 1140000    1.0775542   -7.4858024    358.60978  0.026214165  0.026250939            1 
 1141000     1.045679   -7.5637528    358.09673   0.02615372  0.026243477            1 
 1142000    1.0450733   -7.5481767    357.48558  0.026086222   0.02623604            2 
 1143000    1.0666009   -7.5025542    358.57544  0.026142858  0.026228658            2 
 1144000    1.0572647   -7.5398264    358.84224   0.02613944  0.026221277            3 
 1145000    1.0717991   -7.5350258    358.95151  0.026124564  0.026213958            1 
 1146000    1.0935715   -7.5361354    358.90333  0.026098264  0.026206509            1 
 1147000    1.0856166   -7.5072542    360.39705  0.026184034  0.026199136            2 
 1148000    1.0718871   -7.5393299     359.8451   0.02612116   0.02619191            2 
 1149000    1.0850571   -7.5565488    358.92772  0.026031891  0.026184481            3 
 1150000     1.035714   -7.5294997    358.97467  0.026012657  0.026177027            2 
 1151000    1.0611041   -7.5420664    360.10204   0.02607168   0.02616941            1 
 1152000     1.046325   -7.5809513    359.47338  0.026003572  0.026161729            2 
 1153000      1.06293   -7.5579226    360.11041  0.026027061  0.026154125            1 
 1154000    1.0646626   -7.5252276     360.4456  0.026028711  0.026146442            2 
 1155000    1.0538847   -7.5547734    359.25919  0.025920577  0.026138609            3 
 1156000    1.0456952   -7.5413902    361.36128  0.026049689  0.026130935            2 
 1157000    1.0743557   -7.5481561    361.31436  0.026023794   0.02612337            3 
 1158000    1.0596617   -7.5274765    361.17052   0.02599097  0.026115823            2 
 1159000    1.0907461   -7.5281425    360.93065  0.025951298  0.026108259            3 
 1160000    1.0766929    -7.581592    361.20552  0.025948672  0.026100642            1 
 1161000    1.0571235    -7.572926    362.13329  0.025992915  0.026092955            1 
 1162000    1.0727048   -7.5877489    361.11241  0.025897333  0.026085295            2 
 1163000     1.033931   -7.5574176     362.2657  0.025957703  0.026077814            1 
 1164000    1.0591297    -7.528569    363.10495  0.025995486  0.026070449            3 
 1165000    1.0563163   -7.5399597    362.97923  0.025964179  0.026062956            3 
 1166000    1.0920755    -7.553923     363.3373  0.025967503  0.026055693            2 
 1167000    1.0515853   -7.5701893    364.36076  0.026018335  0.026048453            1 
 1168000    1.0518714   -7.5387217    364.65537  0.026017078  0.026041333            2 
 1169000    1.0509846    -7.561774    365.79528  0.026076082  0.026034319            5 
 1170000    1.0870957   -7.5517708    365.33896  0.026021294  0.026027185            2 
 1171000    1.0756847   -7.5461038     365.7636  0.026029291  0.026019957            1 
 1172000    1.0921332   -7.5470455    365.00839  0.025953384   0.02601276            1 
 1173000    1.0761845   -7.5068798    366.04847  0.026005149  0.026005599            1 
 1174000    1.0415421   -7.5494379    365.76374  0.025962787    0.0259985            2 
 1175000    1.0440861    -7.549689    366.44854  0.025989258  0.025991246            3 
 1176000    1.0720257   -7.5910546    365.55037  0.025903512  0.025984023            2 
 1177000    1.0567482   -7.5740488    366.81357  0.025970941  0.025976673            5 
 1178000    1.0583727   -7.5344878    367.64725   0.02600787  0.025969552            2 
 1179000    1.0483788   -7.5303423    367.20974  0.025954887  0.025962573            4 
 1180000    1.0479049    -7.561779    365.98167  0.025846163  0.025955412            4 
 1181000    1.0469196   -7.5731714     367.0697  0.025901051  0.025948249            4 
 1182000    1.0778041   -7.5374922    368.08108  0.025950443  0.025940951            8 
 1183000    1.0797431   -7.5844406    366.80506  0.025838621  0.025933806            2 
 1184000    1.0474241   -7.5740468    367.48254  0.025864481  0.025926534            3 
 1185000    1.0707986   -7.5691178     366.4965  0.025773312  0.025919103            1 
 1186000    1.0744844   -7.5634268    368.59812  0.025899249    0.0259117            5 
 1187000    1.0795361   -7.5738582    368.52827  0.025872527  0.025904555            3 
 1188000    1.0679083   -7.5808037    367.97416   0.02581188  0.025897436            2 
 1189000    1.0278482   -7.5576936    368.63499  0.025836487  0.025890362            1 
 1190000     1.069056   -7.5573336    369.30319  0.025861568   0.02588336            1 
 1191000    1.0560297   -7.5788755    370.35607  0.025913523  0.025876406            2 
 1192000    1.0693568   -7.5880293    369.24097  0.025813826  0.025869419            1 
 1193000    1.0735129   -7.5755726    369.79756  0.025831068   0.02586247            3 
 1194000    1.0480257   -7.5940325    370.08962  0.025829817  0.025855403            2 
 1195000     1.077838   -7.5412176    370.55761  0.025840837  0.025848539            2 
 1196000    1.0286117   -7.5744786    370.78052  0.025834763  0.025841636            2 
 1197000    1.0721578   -7.5869768    370.64924  0.025804041  0.025834574            2 
 1198000    1.0584104   -7.6017127    370.86429   0.02579746  0.025827513            2 
 1199000    1.0618932    -7.608894    370.75003  0.025768003  0.025820457            1 
 1200000    1.0586744   -7.5505377    372.36341   0.02585857  0.025813432            2 
 1201000    1.0828029    -7.562404    373.45035  0.025912459  0.025806641            1 
 1202000    1.0646514   -7.5531868    372.15304   0.02580096   0.02579988            1 
 1203000    1.0495386   -7.5695073    372.36469  0.025794174  0.025793113            4 
 1204000    1.0633972   -7.5893473    372.76434  0.025800411  0.025786414            1 
 1205000    1.0681332   -7.5886712    373.13984  0.025804968  0.025779783            3 
 1206000    1.0633364   -7.5815257    373.84828  0.025832523  0.025773216            1 
 1207000    1.0875102   -7.5906291    372.93616  0.025748147  0.025766548            1 
 1208000    1.0557603   -7.5969053    373.48905  0.025764973  0.025759697            5 
 1209000    1.0769212   -7.5836046     375.2508  0.025865095  0.025753052            3 
 1210000    1.0609426   -7.5619815    373.81546  0.025744867   0.02574641            6 
 1211000    1.0852233   -7.5626875    374.96213  0.025802514  0.025739833            3 
 1212000    1.0378131   -7.5679993     375.4775   0.02581666  0.025733391            2 
 1213000    1.0321619    -7.584768    376.43642  0.025861254  0.025727043            3 
 1214000    1.0430607   -7.5427644    376.61576  0.025852263  0.025720639            3 
 1215000    1.0794747   -7.5988189    376.72556  0.025838516  0.025714461            1 
 1216000    1.0502239   -7.5989283     376.4681  0.025799623  0.025708199            2 
 1217000    1.0506785   -7.5884583    376.96279  0.025812297  0.025701854            3 
 1218000    1.0540623   -7.5784215    377.84714   0.02585161  0.025695607            1 
 1219000    1.0448611   -7.5938005    376.81007  0.025759507  0.025689243            2 
 1220000     1.056007   -7.5930324    376.91625  0.025745645  0.025682723            2 
 1221000    1.0444255   -7.5928208    377.63173  0.025773392  0.025676365            1 
 1222000    1.0280452   -7.5282188    378.14764  0.025787482  0.025669931            2 
 1223000    1.0535086   -7.6043486    377.37602   0.02571382  0.025663321            2 
 1224000    1.0570414   -7.6154491    377.40428  0.025694736  0.025656732            3 
 1225000     1.053648   -7.6350876    376.92916   0.02564144  0.025650063            3 
 1226000    1.0290159   -7.6019522    378.16442  0.025704488  0.025643256            2 
 1227000    1.0628417   -7.5602695    379.10837  0.025747648  0.025636647            1 
 1228000    1.0472167   -7.6211817     378.6465  0.025695338  0.025629891            6 
 1229000     1.063168    -7.559034    378.92348  0.025693211  0.025623216            4 
 1230000    1.0492366   -7.6072362    378.28563  0.025629107  0.025616625            3 
 1231000    1.0197851   -7.5799096    379.75919  0.025708041  0.025609861            1 
 1232000    1.0212734   -7.5492624    380.38223  0.025729317  0.025603375            2 
 1233000    1.0884367   -7.6133043    378.47384   0.02557947  0.025596776            2 
 1234000    1.0631251    -7.613162    378.85512   0.02558449  0.025590089            2 
 1235000      1.03265    -7.600018    379.65838  0.025617974  0.025583431            2 
 1236000    1.0600615   -7.6037222     379.6019   0.02559344  0.025576809            3 
 1237000    1.0560151   -7.5662201    379.97549  0.025597918  0.025570182            3 
 1238000    1.0594155    -7.579291    380.74305  0.025628907  0.025563646            1 
 1239000    1.0672465   -7.6088484    380.88284  0.025617625  0.025557096            3 
 1240000    1.0361346   -7.6072504    381.11311   0.02561244  0.025550461            2 
 1241000    1.0423714   -7.5800099    381.66079  0.025628579  0.025543734            3 
 1242000    1.0611288   -7.5694361    380.82007  0.025551535  0.025537163            2 
 1243000    1.0487769   -7.5658942    382.93394  0.025672696  0.025530584            1 
 1244000    1.0407615   -7.5982255    382.96807  0.025654346  0.025523977            5 
 1245000    1.0615057    -7.611494    381.00153  0.025502111  0.025517278            2 
 1246000    1.0517647   -7.5997005    380.48685  0.025447221  0.025510419            3 
 1247000    1.0664786   -7.5835439    381.67541  0.025506242  0.025503676            6 
 1248000    1.0525684   -7.5923394    381.91353  0.025501704  0.025496855            3 
 1249000    1.0394015   -7.6151863    383.01546  0.025554808  0.025490301            1 
 1250000    1.0652902   -7.6126309    382.61712  0.025507808  0.025483833            1 
 1251000    1.0648949   -7.5506021    383.98064  0.025578247   0.02547718            3 
 1252000    1.0510456   -7.5402715    384.56982  0.025597033  0.025470571            3 
 1253000     1.044837   -7.5646082    383.48931  0.025504742  0.025463977            1 
 1254000    1.0598664   -7.6427713    383.41789  0.025479658  0.025457179            2 
 1255000    1.0441471   -7.5974497    383.87468  0.025489687   0.02545041            1 
 1256000    1.0476015   -7.6366869    384.94147  0.025540172  0.025443762            3 
 1257000     1.052401   -7.6026819    383.53494  0.025426607  0.025437223            8 
 1258000    1.0465855    -7.596849    386.78516  0.025621698  0.025430662            2 
 1259000    1.0311481   -7.5733285    386.05046  0.025552718  0.025424249            2 
 1260000    1.0626741   -7.5451394    385.74394  0.025512165  0.025417805            2 
 1261000    1.0758123   -7.5894753    386.39113  0.025534703  0.025411494            2 
 1262000    1.0505413   -7.5947358    385.90498  0.025482368  0.025405139            2 
 1263000    1.0385591   -7.5899907    386.92952  0.025529792  0.025398766            2 
 1264000     1.064953   -7.6221208    386.26143  0.025465548  0.025392527            1 
 1265000    1.0888588   -7.6158423    385.69075  0.025407823  0.025386124            2 
 1266000     1.029787   -7.6132909    387.50532  0.025507196  0.025379727            2 
 1267000    1.0656159   -7.6385852    386.51184  0.025421721  0.025373375            3 
 1268000    1.0672884   -7.5908972    388.93299   0.02556079  0.025367007            1 
 1269000    1.0388422    -7.599312    387.89239  0.025472313  0.025360533            3 
 1270000    1.0391502     -7.58969    387.84956  0.025449446  0.025354315            1 
 1271000    1.0429564   -7.5940981    388.38997  0.025464855  0.025347956            6 
 1272000    1.0383248   -7.5957629    388.18943  0.025431697  0.025341564            2 
 1273000    1.0520202   -7.5569255    388.20947  0.025413032  0.025335125            3 
 1274000    1.0721965   -7.6241165    387.46474  0.025344371  0.025328579            1 
 1275000    1.0448965   -7.5642721    389.36624  0.025448774  0.025322184            2 
 1276000     1.045416   -7.6036406    389.41526  0.025432031  0.025315745            4 
 1277000    1.0375523   -7.6211765    389.17914  0.025396707  0.025309146            2 
 1278000    1.0695453   -7.5498146    390.09563  0.025436595  0.025302905            2 
 1279000    1.0602084    -7.591691    390.48059   0.02544179  0.025296697            2 
 1280000    1.0166357   -7.6172681    390.50776  0.025423682  0.025290435            1 
 1281000    1.0461603   -7.6300335    390.41778  0.025397982    0.0252842            2 
 1282000    1.0322417   -7.6169445    391.16538  0.025426767   0.02527797            2 
 1283000      1.04613   -7.5471472    392.34553  0.025483602  0.025271974            3 
 1284000    1.0509538   -7.6078626    391.18284  0.025388295  0.025265852            1 
 1285000    1.0727984   -7.6225234    391.28904  0.025375424  0.025259524            2 
 1286000    1.0334664   -7.5963706    391.34661  0.025359422  0.025253322            1 
 1287000    1.0589007   -7.5559587     392.9137  0.025441187  0.025247176            5 
 1288000    1.0311903    -7.620376    391.55132  0.025333289  0.025240891            2 
 1289000    1.0590125   -7.5967087     392.6701  0.025385964  0.025234504            3 
 1290000    1.0421064   -7.6235759    391.99505  0.025322678  0.025228165            2 
 1291000     1.032805   -7.6178892    391.94448  0.025299799  0.025221914            2 
 1292000    1.0414068   -7.6233671    392.09711  0.025290061  0.025215551            1 
 1293000    1.0504027   -7.6178455    392.50357  0.025296698  0.025209218            2 
 1294000    1.0348449   -7.6402947    392.99573  0.025308844  0.025202867            1 
 1295000    1.0252156   -7.6199998    393.96992   0.02535199  0.025196665            4 
 1296000    1.0269327   -7.5590083    394.77208  0.025384007  0.025190547            2 
 1297000    1.0475603   -7.5929061    394.46771   0.02534488  0.025184452            4 
 1298000     1.031092   -7.5906324    394.75749  0.025343958  0.025178354            2 
 1299000    1.0548789   -7.5849502    395.20488  0.025353149  0.025172115            3 
 1300000    1.0484411     -7.59815    395.09333  0.025326496  0.025166065            3 
 1301000    1.0548843   -7.5957016    396.03443  0.025367309   0.02516011            2 
 1302000    1.0443912    -7.608368    395.25374  0.025297858  0.025154081            4 
 1303000    1.0501345   -7.5968807    396.08707  0.025331739   0.02514789            1 
 1304000    1.0589589    -7.595383    396.16706  0.025317425  0.025141629            3 
 1305000    1.0283991   -7.6152158    396.05346   0.02529077   0.02513544            1 
 1306000    1.0208075   -7.6060347    395.68782  0.025248074  0.025129119            2 
 1307000     1.028465   -7.5655918    396.47237  0.025278779   0.02512279            2 
 1308000    1.0427604   -7.6252378    396.62427   0.02526913  0.025116506            3 
 1309000    1.0308386   -7.6256585    395.10817  0.025153309  0.025110073            2 
 1310000    1.0339217   -7.6378915    396.35201  0.025213232  0.025103634            2 
 1311000    1.0432998   -7.6107783    396.26812  0.025188668  0.025097143            1 
 1312000    1.0567442   -7.6164808    396.47075  0.025182339  0.025090652            2 
 1313000    1.0363303   -7.5963824    397.18282  0.025208353  0.025084151            3 
 1314000    1.0218287   -7.5998213    396.67712  0.025157098   0.02507772            3 
 1315000     1.032838   -7.6191879    396.16783  0.025105693  0.025071283            2 
 1316000    1.0478406   -7.6084841    397.29908   0.02515825  0.025064741            2 
 1317000    1.0451341   -7.6407911    396.86357   0.02511159  0.025058325            1 
 1318000    1.0177939   -7.6262913     397.6659  0.025143266  0.025051903            3 
 1319000    1.0186674   -7.6151506    396.36803  0.025042206  0.025045359            2 
 1320000    1.0622961   -7.6014576    398.02591  0.025127898  0.025038753            1 
 1321000    1.0199884   -7.5940071    398.55607  0.025142321  0.025032282            2 
 1322000    1.0431661   -7.6055066    398.26907  0.025105211  0.025025896            4 
 1323000    1.0455296   -7.6368233    398.78976  0.025119032  0.025019463            2 
 1324000    1.0397642   -7.6335801    399.66592  0.025155206  0.025012964            4 
 1325000    1.0373796   -7.5950121    398.98531  0.025093416  0.025006513            1 
 1326000        1.026   -7.6399659    397.96365  0.025010285   0.02500007            3 
 1327000    1.0609507   -7.5955291    399.14563  0.025065664  0.024993607            3 
 1328000    1.0264207   -7.6338655    398.62678  0.025014231  0.024987114            2 
 1329000     1.042371   -7.5953584    399.50037  0.025050186   0.02498058            3 
 1330000    1.0491103   -7.6429586    398.81461  0.024988384  0.024973916            2 
 1331000     1.040153   -7.6428184     399.4733   0.02501085  0.024967143            2 
 1332000    1.0394619   -7.6317398    400.28269  0.025042711  0.024960441            2 
 1333000    1.0446684   -7.6208094     400.8442  0.025059027  0.024953721            1 
 1334000    1.0464766   -7.6511749    400.41975  0.025013727  0.024947176            2 
 1335000    1.0264852   -7.6358266    399.92399  0.024964044  0.024940497            3 
 1336000    1.0233433   -7.6253093    400.23659  0.024964857  0.024933798            2 
 1337000    1.0238704   -7.6144163    400.44726  0.024959315   0.02492725            1 
 1338000    1.0234065   -7.5685735    401.63796   0.02501482  0.024920593            3 
 1339000    1.0495345     -7.62575    401.72006  0.025001248   0.02491393            1 
 1340000    1.0351675   -7.6295816    401.77952  0.024986288  0.024907387            1 
 1341000    1.0329367   -7.6121615    401.80496  0.024969237  0.024900807            1 
 1342000     1.028738   -7.5766682    402.02278  0.024964156  0.024894486            2 
 1343000    1.0349173    -7.610043    402.66129  0.024985188   0.02488799            1 
 1344000    1.0404169   -7.6158905    402.61056  0.024963453  0.024881567            1 
 1345000    1.0145252   -7.6419806    402.83538  0.024958821  0.024874964            2 
 1346000    1.0419537   -7.5901692    404.25035  0.025027882  0.024868432            2 
 1347000     1.029945   -7.6752905    403.04856  0.024934952  0.024861965            2 
 1348000     1.031255   -7.6275739    402.85409  0.024904432  0.024855529            2 
 1349000    1.0131917   -7.6391503     404.2107  0.024969774   0.02484899            3 
 1350000    1.0511541   -7.6294006    404.56291  0.024973019  0.024842368            2 
 1351000     1.028575   -7.5962674    403.95871  0.024917265  0.024836023            1 
 1352000    1.0408316   -7.6052035    405.56751  0.024997997  0.024829788            1 
 1353000    1.0645218    -7.559038    406.54877  0.025039959    0.0248235            2 
 1354000    1.0387335   -7.6344065    404.82883   0.02491561  0.024817316            1 
 1355000    1.0335158    -7.618557    405.19462  0.024919718   0.02481105            2 
 1356000     1.044693   -7.6438735    404.93187  0.024885194  0.024804678            5 
 1357000    1.0341711   -7.6411251    405.36491  0.024893448  0.024798475            1 
 1358000    1.0362975   -7.6684039    405.37788  0.024875913  0.024792206            3 
 1359000    1.0302022   -7.6673268    405.42633   0.02486058  0.024785911            1 
 1360000    1.0471372   -7.6019568    408.04214  0.025002582  0.024779778            2 
 1361000    1.0428403   -7.5740886    406.59839  0.024895811  0.024773605            2 
 1362000    1.0236851   -7.6046305    406.79162  0.024889355  0.024767497            2 
 1363000    1.0427511    -7.620729    407.56633   0.02491846  0.024761304            3 
 1364000    1.0612981   -7.6428988     407.3781  0.024888692  0.024755015            1 
 1365000     1.020545   -7.6568561    407.58774  0.024883256  0.024748682            4 
 1366000    1.0361064   -7.6292342    407.67075  0.024870104   0.02474218            3 
 1367000    1.0192962   -7.6421166    407.24179  0.024825761  0.024735764            1 
 1368000     1.046461   -7.6072496    407.88982  0.024847089  0.024729317            2 
 1369000    1.0189143   -7.6382907    407.52913  0.024806984    0.0247229            4 
 1370000     1.011687   -7.6181606    407.69713  0.024799096  0.024716441            6 
 1371000    1.0280121   -7.6348624    409.23295  0.024874359   0.02470997            2 
 1372000    1.0462723   -7.6499344    407.47091  0.024749205   0.02470337            2 
 1373000    1.0394086   -7.6439901    408.35202  0.024784658   0.02469671            2 
 1374000    1.0390395   -7.6174004    409.78468   0.02485351  0.024690215            2 
 1375000    1.0360583   -7.6364453    407.75921  0.024712679  0.024683667            2 
 1376000    1.0211387   -7.6259512     408.2671  0.024725478  0.024677149            2 
 1377000    1.0382842   -7.6455972    409.61766  0.024789256  0.024670495            2 
 1378000    1.0375356   -7.6192516    409.03405  0.024735973   0.02466392            4 
 1379000    1.0065262   -7.6294338    408.42021  0.024680941  0.024657454            2 
 1380000    1.0367162   -7.6494152    408.88575  0.024691169  0.024650898            1 
 1381000    1.0274589    -7.643502    410.05609  0.024743911  0.024644414            1 
 1382000    1.0453567   -7.7190297    407.78754  0.024589215  0.024637847            2 
 1383000    1.0427562   -7.6661154     408.7962  0.024632213  0.024631187            2 
 1384000    1.0334909   -7.6508971    410.53609  0.024719177  0.024624698            2 
 1385000    1.0406191   -7.6499405    410.04092  0.024671535  0.024618134            4 
 1386000    1.0309029   -7.6598955    410.06456  0.024655157  0.024611602            4 
 1387000    1.0425988   -7.6382075       410.82  0.024682769  0.024605226            3 
 1388000    1.0345137   -7.6258245    411.26324  0.024691597  0.024598781            2 
 1389000    1.0286368   -7.6117305    412.65025  0.024757035  0.024592357            3 
 1390000   0.99793591   -7.6299934    411.35704  0.024661693  0.024585912            1 
 1391000    1.0248003   -7.6489351    411.38402   0.02464558  0.024579371            2 
 1392000    1.0528236    -7.641828    412.85722  0.024716069  0.024572783            1 
 1393000    1.0216684   -7.6621007    411.21576  0.024600129  0.024566288            2 
 1394000    1.0171081   -7.6213818    413.28339  0.024706085  0.024559692            2 
 1395000    1.0276929   -7.6387674    411.56852  0.024585933  0.024553002            3 
 1396000    1.0593774   -7.6701045    411.40014   0.02455827  0.024546382            1 
 1397000    1.0294029    -7.638842    411.42903  0.024542414  0.024539719            2 
 1398000    1.0563923   -7.6775327    412.02505  0.024560387  0.024533118            5 
 1399000    1.0202067   -7.6504106    413.20545  0.024613143  0.024526495            3 
 1400000    1.0171753   -7.6159756    413.56901  0.024617203  0.024520069            2 
 1401000    1.0004955   -7.6731728    413.32796  0.024585294  0.024513544            2 
 1402000      1.04021   -7.6925181    413.24065  0.024562568  0.024507039            4 
 1403000     1.034793   -7.6960729    413.55603  0.024563793  0.024500433            3 
 1404000    1.0205959   -7.6657959    413.94536  0.024569406  0.024493864            3 
 1405000    1.0346786    -7.675447    414.20338  0.024567223  0.024487316            4 
 1406000    1.0221235   -7.6812114    414.63295   0.02457521  0.024480781            3 
 1407000    1.0212842    -7.681648    414.01474  0.024521129  0.024474115            3 
 1408000    1.0210933   -7.6550772    414.08529  0.024507889  0.024467602            1 
 1409000    1.0318961   -7.6710189    414.27946  0.024501979  0.024461116            2 
 1410000    1.0391519   -7.6788022    414.93203   0.02452317  0.024454573            2 
 1411000     1.033844   -7.6395165    416.63858  0.024606578  0.024448092            3 
 1412000    1.0198265   -7.7049587    413.75271  0.024418833  0.024441504            1 
 1413000    1.0425084   -7.6522306    415.28549  0.024491949  0.024434885            4 
 1414000    1.0282397   -7.6167216    416.97276  0.024574067   0.02442834            1 
 1415000    1.0320181   -7.6847037    415.69953  0.024481715  0.024421862            1 
 1416000    1.0349378   -7.6723584    415.83357  0.024472315  0.024415317            1 
 1417000    1.0327283   -7.6214652     417.3211  0.024542525  0.024408776            2 
 1418000    1.0247026   -7.6498145    416.76627  0.024492611  0.024402374            1 
 1419000    1.0054513   -7.6725502    416.37834  0.024452569   0.02439602            1 
 1420000    1.0094797   -7.6458727    418.35059  0.024551091  0.024389513            2 
 1421000    1.0357905   -7.6559111    417.40674  0.024478462  0.024383125            3 
 1422000    1.0115034   -7.6498299    416.91207  0.024432259  0.024376663            2 
 1423000   0.99837442   -7.6694925    416.68614  0.024401859  0.024370223            2 
 1424000    1.0192542   -7.7139387    416.06428  0.024348331  0.024363755            2 
 1425000    1.0002653   -7.6478062    418.07082  0.024448586   0.02435717            4 
 1426000    1.0409925   -7.6928442    417.44497  0.024394868  0.024350551            1 
 1427000    1.0261135     -7.60766    419.94962  0.024524038  0.024344074            1 
 1428000    1.0269473   -7.6352417      417.938  0.024389472  0.024337802            3 
 1429000    1.0171077   -7.6890862    417.54251  0.024349342  0.024331226            1 
 1430000    1.0178564   -7.6676192    417.15378  0.024309661  0.024324585            8 
 1431000    1.0282999   -7.6769113    419.28852  0.024416988  0.024318047            4 
 1432000    1.0330169   -7.6511047      417.711  0.024308135  0.024311444            1 
 1433000    1.0203942   -7.6536269    419.10431  0.024372198  0.024304874            2 
 1434000    1.0447481   -7.6980165    419.47341  0.024376651  0.024298265            2 
 1435000    1.0143337   -7.6483276    419.27763  0.024348295  0.024291693            1 
 1436000    1.0272719   -7.6666124    420.78842  0.024419012  0.024285109            1 
 1437000    1.0285299   -7.6428904    420.43549  0.024381553  0.024278545            2 
 1438000    1.0392277   -7.6738357    420.60312  0.024374312  0.024271991            2 
 1439000    1.0390691   -7.6608808    419.25213  0.024279136  0.024265298            2 
 1440000    1.0171722   -7.6977829    418.93809  0.024244103  0.024258571            4 
 1441000    1.0181403   -7.6907436    419.62735  0.024267138   0.02425176            2 
 1442000    1.0343858   -7.6766633    419.87578  0.024264666   0.02424506            3 
 1443000    1.0369504   -7.6571873    420.25783  0.024269914  0.024238383            3 
 1444000    1.0160089    -7.653867    420.75723  0.024281927  0.024231749            1 
 1445000    1.0368891   -7.6683305    420.54806   0.02425306   0.02422507            3 
 1446000    1.0206903   -7.6712085    420.97154  0.024260693  0.024218347            2 
 1447000    1.0160487   -7.6408225    420.44154  0.024213404  0.024211644            1 
 1448000    1.0080007   -7.6537709    421.32491   0.02424752  0.024204971            1 
 1449000    1.0341163   -7.6828482     420.6812  0.024193766  0.024198158            1 
 1450000    1.0168268   -7.6740012    422.05306  0.024255923  0.024191456            2 
 1451000    1.0035796   -7.6622732    420.72363  0.024162855  0.024184655            3 
 1452000    1.0457961   -7.6760198    420.95113  0.024159271  0.024177888            2 
 1453000    1.0224901   -7.7376225     421.3715  0.024166753  0.024170978            2 
 1454000    1.0116505   -7.6892411    422.96519  0.024241471  0.024164141            4 
 1455000    1.0168037   -7.6469036    422.21566  0.024181882  0.024157298            1 
 1456000    1.0154769   -7.6474371     422.3172  0.024171085  0.024150542            3 
 1457000    1.0232103   -7.6646974    422.45335  0.024162283   0.02414385            6 
 1458000    1.0330297   -7.6902182    424.10466  0.024240093  0.024137278            2 
 1459000    1.0004518   -7.7026635    422.26307  0.024118293  0.024130619            2 
 1460000    1.0191991   -7.6593316    424.17287   0.02421078  0.024124057            3 
 1461000    1.0092909   -7.6834622    423.23082  0.024140476  0.024117454            2 
 1462000     1.019507   -7.6912637    423.56054  0.024142758  0.024110876            1 
 1463000   0.98936859   -7.6804543    423.72209  0.024135457  0.024104189            2 
 1464000    1.0341398   -7.6483293    424.52018    0.0241644  0.024097573            5 
 1465000    1.0384736   -7.6844485    424.41985  0.024142198  0.024090961            1 
 1466000    1.0069136   -7.6961707    423.73489  0.024086795   0.02408431            3 
 1467000    1.0191654   -7.6596892    424.35892  0.024105824  0.024077763            2 
 1468000   0.99804554    -7.712148    424.00695  0.024069423  0.024071151            2 
 1469000    1.0116844   -7.6716821    424.30358  0.024069865  0.024064434            5 
 1470000    1.0190563   -7.6644128    426.19228   0.02416056  0.024057784            1 
 1471000    1.0202109   -7.7043369    424.96473  0.024074594  0.024050996            2 
 1472000    1.0003593   -7.6804678     424.5004  0.024031952  0.024044243            3 
 1473000   0.99123477   -7.6280944    425.81279  0.024089884  0.024037505            2 
 1474000    1.0038697   -7.6517823    426.02131   0.02408533  0.024030824            1 
 1475000    1.0210126   -7.6651423    426.04899  0.024070565  0.024024128            2 
 1476000    1.0094977   -7.6748974    425.70144  0.024034634  0.024017478            2 
 1477000    1.0340511   -7.6737406    425.22118  0.023991265  0.024010655            2 
 1478000    1.0146865   -7.6949031    426.30135  0.024035936  0.024003825            2 
 1479000    1.0105541    -7.649081     427.8322  0.024105939  0.023997122            1 
 1480000    1.0360459   -7.6545395    426.32911  0.024005017  0.023990541            7 
 1481000     1.020813    -7.640828    427.53834   0.02405685  0.023984007            1 
 1482000    1.0339225    -7.655257    428.21915  0.024078899  0.023977428            3 
 1483000    1.0259258   -7.6748952    427.23823  0.024007543  0.023970896            1 
 1484000    1.0273341    -7.674451    427.91428  0.024029328  0.023964334            1 
 1485000     1.010897   -7.7085957    428.17089  0.024027547  0.023957763            3 
 1486000    1.0063625   -7.6894296    428.17033  0.024011347   0.02395126            1 
 1487000    1.0421319   -7.6737367    429.13585  0.024049308  0.023944695            1 
 1488000    1.0326079   -7.6829083    429.88445   0.02407507  0.023938202            3 
 1489000    1.0346041   -7.6836048    427.69978  0.023936634  0.023931663            3 
 1490000    1.0061892    -7.650853    430.72102  0.024089543  0.023925147            2 
 1491000    1.0313212   -7.6966347    429.39715  0.023999394  0.023918747            6 
 1492000    1.0259222   -7.6866578     429.4514  0.023986338  0.023912169            3 
 1493000    1.0028301   -7.6967048     428.4613  0.023915009  0.023905579            3 
 1494000     1.024282    -7.696193    428.90696   0.02392386  0.023898863            5 
 1495000    1.0025613   -7.6817941    428.55515  0.023888247  0.023892118            1 
 1496000    1.0470997   -7.7129379    429.06318  0.023900578   0.02388548            2 
 1497000   0.99994365   -7.6896439    429.23611  0.023894239  0.023878839            1 
 1498000    1.0162355   -7.6955601     430.0344  0.023922697  0.023872094            4 
 1499000    1.0086888   -7.7283629    430.22891  0.023917551  0.023865448            2 
 1500000    1.0112269   -7.6605535    430.69976  0.023927764    0.0238588            1 
 1501000    1.0214042   -7.6980576    430.01353  0.023873724  0.023852159            2 
 1502000    1.0184426   -7.6901531    431.03127  0.023914296  0.023845509            3 
 1503000    1.0223291   -7.6842003    430.82223  0.023886795  0.023838838            1 
 1504000    1.0259309   -7.7274395     429.1783  0.023779826  0.023832047            2 
 1505000    1.0251466   -7.7182738    429.83099  0.023800166  0.023825229            1 
 1506000   0.99579682   -7.7052113    431.91553  0.023899709  0.023818398            2 
 1507000    1.0114192   -7.7380935    430.29551  0.023794266  0.023811604            2 
 1508000    1.0088768   -7.7159883    430.56447  0.023793351  0.023804707            4 
 1509000    1.0105903   -7.6445101    432.80573  0.023901354  0.023797966            2 
 1510000    1.0311028   -7.7080367    431.61888  0.023820026   0.02379126            3 
 1511000    1.0145202   -7.6761284    431.22651  0.023782622  0.023784491            3 
 1512000    1.0113568   -7.7007193    430.48618   0.02372609  0.023777792            2 
 1513000    1.0048351   -7.6721649    431.08118   0.02374318   0.02377101            2 
 1514000   0.99582209   -7.7324817    431.75239  0.023764443  0.023764198            3 
 1515000    1.0105408   -7.6603931    432.57405  0.023793952   0.02375746            2 
 1516000    1.0196275   -7.6739404    432.65946  0.023782952  0.023750653            2 
 1517000    1.0024483   -7.6611505    433.07831  0.023790283   0.02374388            2 
 1518000   0.99905415   -7.6699721    432.15437   0.02372389   0.02373707            2 
 1519000    1.0084201   -7.7102706    431.75352  0.023686281  0.023730239            1 
 1520000    1.0135015   -7.6664371    434.01354  0.023794602  0.023723413            4 
 1521000    1.0011286   -7.6652133    433.59855  0.023756221  0.023716685            3 
 1522000    1.0095275   -7.6925371    433.48192  0.023734227  0.023709919            1 
 1523000    1.0068067   -7.6816097    434.91481  0.023797046  0.023703125            3 
 1524000   0.99804402   -7.7019761    432.60022  0.023654868  0.023696249            2 
 1525000    1.0164876   -7.6780823    433.94741  0.023712973  0.023689402            1 
 1526000    1.0254214   -7.7147095    434.02682   0.02370177    0.0236826            2 
 1527000   0.98494768   -7.7153552    432.95557  0.023627787  0.023675686            2 
 1528000    1.0063243   -7.7194387    433.57354  0.023646026  0.023668746            2 
 1529000   0.99477373   -7.7576591    432.81266  0.023589092  0.023661705            2 
 1530000    1.0082137   -7.6953443    433.30669  0.023600582  0.023654718            6 
 1531000    1.0190482     -7.68993    433.74437   0.02360899  0.023647932            2 
 1532000    1.0110758   -7.7128511    434.34456  0.023626227  0.023641065            1 
 1533000    1.0000696   -7.6971601    435.09332  0.023651518  0.023634199            4 
 1534000    1.0142042   -7.6799789    435.85251  0.023677342  0.023627433            3 
 1535000   0.98481264   -7.6973249    436.08627  0.023674607  0.023620608            2 
 1536000    1.0209899   -7.7270792    434.81009  0.023589957  0.023613781            4 
 1537000   0.99510068   -7.7275759    434.78796  0.023573409  0.023606927            3 
 1538000   0.98848173   -7.6788758     436.5494  0.023653522  0.023600042            1 
 1539000   0.99210393   -7.6969089    436.88731   0.02365645  0.023593342            4 
 1540000   0.97884366   -7.6848474    435.39344  0.023560251  0.023586583            3 
 1541000   0.99419659   -7.6857308    436.96146  0.023629757  0.023579915            2 
 1542000    1.0098097   -7.7479208    435.50092  0.023535502  0.023573103            5 
 1543000     1.004956   -7.6953507     436.3873  0.023568119  0.023566221            2 
 1544000    1.0057454   -7.6640696    436.44303  0.023555863  0.023559339            2 
 1545000   0.98322248   -7.6975375    437.03655   0.02357263  0.023552618            1 
 1546000    1.0057557   -7.7146046    437.02717  0.023556876  0.023545746            1 
 1547000    1.0293678   -7.7679732    437.30466  0.023556597  0.023538885            1 
 1548000    1.0013364   -7.7007339    437.14278  0.023532665  0.023532011            1 
 1549000   0.99327228   -7.7381531    437.05014  0.023512489  0.023525151            1 
 1550000    1.0001076   -7.7566279    437.43718  0.023518128   0.02351824            2 
 1551000    1.0020938   -7.6896074    435.72952  0.023411214  0.023511252            2 
 1552000    1.0026914   -7.7351126    437.69521  0.023501676  0.023504202            2 
 1553000    1.0129715   -7.7112657    438.62285  0.023536319  0.023497317            3 
 1554000   0.98951884   -7.7625316    436.52484  0.023408668  0.023490435            1 
 1555000    1.0073792   -7.7144251    437.85233  0.023464755   0.02348362            3 
 1556000    0.9824745   -7.6994827    439.18693  0.023521151  0.023476857            2 
 1557000    0.9888525   -7.7172052    438.63914  0.023476726  0.023470065            2 
 1558000    1.0022553   -7.6784803    439.48266  0.023506775  0.023463286            1 
 1559000    1.0079267   -7.6995838    439.42328  0.023488523  0.023456458            2 
 1560000    0.9819374   -7.6950616    439.58725  0.023482225  0.023449659            3 
 1561000   0.99612557   -7.7154292    438.44055  0.023405966  0.023442813            2 
 1562000    1.0321941   -7.6977433    439.54049  0.023449663  0.023435927            2 
 1563000    0.9958122     -7.73062    439.47728   0.02343129  0.023429096            3 
 1564000    1.0158178   -7.7567123    439.44662  0.023414675  0.023422246            1 
 1565000    1.0092774   -7.7082599    439.98412  0.023428334  0.023415364            2 
 1566000    1.0083601   -7.7248308    439.83196  0.023405277  0.023408593            1 
 1567000    0.9891937   -7.7191996    439.48515  0.023371897  0.023401808            1 
 1568000    1.0006476   -7.7279824    438.93265  0.023327628  0.023394991            3 
 1569000   0.99649151   -7.7464843    440.02167  0.023370601  0.023388144            5 
 1570000   0.98674297    -7.700169    440.34252  0.023372745  0.023381298            6 
 1571000    1.0171073   -7.6682265    441.95473  0.023443387  0.023374591            1 
 1572000     1.008027   -7.6992914    440.55105  0.023354063  0.023367944            1 
 1573000    1.0048479   -7.7183026    440.16575  0.023318804  0.023361257            3 
 1574000   0.99589088   -7.7135074    441.26954  0.023362428   0.02335443            1 
 1575000    1.0003881   -7.7635773     439.7267  0.023265963  0.023347633            1 
 1576000    1.0104671   -7.7492309    439.85185  0.023257818  0.023340684            3 
 1577000    1.0117173   -7.7483448    442.11019  0.023362407  0.023333699            5 
 1578000   0.98885723   -7.6779646    443.02785  0.023396063  0.023326851            3 
 1579000    1.0183566   -7.7086396    441.51134  0.023301211  0.023320109            2 
 1580000    1.0053911   -7.7288263    441.70758  0.023296814  0.023313329            4 
 1581000    1.0014367   -7.6502709    444.10004  0.023408182  0.023306622            1 
 1582000   0.96931937   -7.7204517    443.90209  0.023382959  0.023299959            3 
 1583000   0.99719517   -7.6860622     444.0356  0.023375216  0.023293193            4 
 1584000    1.0134097   -7.7261728    443.14726  0.023313723  0.023286387            4 
 1585000    0.9868359   -7.7389853    443.23512  0.023303634  0.023279485            2 
 1586000   0.99615552   -7.7260525    442.16594  0.023232763  0.023272602            3 
 1587000   0.98175844   -7.7145695    443.35413  0.023280515  0.023265806            2 
 1588000   0.99795921   -7.7363322    443.06842  0.023250862  0.023258945            2 
 1589000    1.0072997   -7.7366237     444.0377  0.023287062  0.023252105            1 
 1590000    1.0104072   -7.7184664    444.07291  0.023274262  0.023245241            3 
 1591000    0.9863333    -7.757806    444.69034  0.023291972  0.023238413            3 
 1592000   0.98883097   -7.7286299    444.10934  0.023246929  0.023231783            2 
 1593000   0.99370104   -7.7250608    444.49444  0.023252481   0.02322507            2 
 1594000   0.99072509   -7.7156952    445.14061  0.023271675  0.023218353            1 
 1595000   0.98491391   -7.7778347    444.46824  0.023221956  0.023211656            4 
 1596000   0.99099592   -7.7376552    445.61925  0.023267505  0.023205056            2 
 1597000    1.0030279   -7.7172639    445.12037  0.023226903  0.023198493            3 
 1598000     1.011197   -7.6919928    445.75739  0.023245588  0.023191899            3 
 1599000   0.97703955   -7.7083341    445.59836  0.023222762  0.023185177            1 
 1600000     0.988006   -7.7552017    446.06853  0.023232736  0.023178411            2 
 1601000   0.99647065   -7.7111691    445.74061  0.023201156  0.023171598            1 
 1602000   0.99069212   -7.7273612    445.64931  0.023181924  0.023164806            3 
 1603000   0.98090797   -7.7493689    443.98079  0.023080723  0.023158005            1 
 1604000   0.99294729   -7.7308434    446.06479  0.023174605  0.023151328            2 
 1605000   0.99993362   -7.7373493    445.70759  0.023141619  0.023144593            1 
 1606000    1.0143427   -7.7388917    446.18566  0.023152017  0.023137797            1 
 1607000    1.0069055    -7.745239    446.90136  0.023174723  0.023130983            3 
 1608000   0.98821566   -7.7506259    446.14596  0.023121163  0.023124307            1 
 1609000   0.99023242   -7.7156241    447.40847  0.023172181  0.023117588            2 
 1610000    1.0049309    -7.745478    446.66316  0.023119211  0.023110889            1 
 1611000   0.98975674   -7.7450787    446.60101  0.023101645  0.023104105            1 
 1612000    1.0078794   -7.7490834    448.03421  0.023161404  0.023097325            3 
 1613000    1.0249773   -7.7016981    447.21778  0.023104866  0.023090591            1 
 1614000   0.99503694   -7.7048221    448.12426  0.023137354  0.023083853            1 
 1615000   0.98623285   -7.7734737    447.54369   0.02309307  0.023076959            2 
 1616000   0.99391407   -7.7589247    447.48985  0.023076003  0.023070112            3 
 1617000   0.97909529   -7.7021558    448.09166  0.023092747  0.023063314            4 
 1618000    1.0013167   -7.7324677    448.42749  0.023095771  0.023056493            2 
 1619000   0.99340701   -7.7597816    447.75773  0.023047031  0.023049622            1 
 1620000   0.99356098   -7.7441382    448.47024  0.023069457   0.02304279            2 
 1621000    1.0075261    -7.728903    449.66627  0.023116712  0.023035943            3 
 1622000    1.0202699    -7.727115     448.7138  0.023053524  0.023029176            4 
 1623000    1.0002804   -7.7393946    450.45141  0.023128538  0.023022498            2 
 1624000    0.9858884   -7.7450812    449.70974  0.023076239    0.0230158            1 
 1625000   0.96587998   -7.7385395    449.62173  0.023057525  0.023009137            1 
 1626000   0.99782332    -7.756697     448.6247  0.022992246  0.023002416            5 
 1627000    1.0031417   -7.7604906    449.57374  0.023026723  0.022995735            3 
 1628000    1.0038562   -7.7494215    449.31229  0.022999196   0.02298902            2 
 1629000   0.98304555   -7.6969733    451.80887  0.023112793  0.022982314            2 
 1630000   0.98947087   -7.7843197    449.72949  0.022992305  0.022975573            6 
 1631000   0.97158313   -7.7787008    448.65718   0.02292342  0.022968748            3 
 1632000   0.98280578   -7.7357117     449.9881  0.022977333  0.022961985            2 
 1633000   0.98728076   -7.7235997    450.75941  0.023002624   0.02295538            2 
 1634000   0.99776763   -7.7292949    450.87156  0.022994266  0.022948858            1 
 1635000   0.98597901   -7.7480237    450.46228  0.022959342  0.022942276            1 
 1636000   0.97930823   -7.7738265    452.24469  0.023036099  0.022935662            2 
 1637000   0.99540176   -7.7432486    451.78814  0.022998785  0.022929074            2 
 1638000   0.97548564    -7.709375     451.9475  0.022992852  0.022922706            1 
 1639000   0.99993163   -7.7097474     453.8959  0.023077888   0.02291622            1 
 1640000    1.0224343    -7.762688    452.06138  0.022970599  0.022909793            2 
 1641000   0.99428662   -7.7039247    453.42276  0.023025734  0.022903295            3 
 1642000    0.9985541   -7.7955618    452.71262  0.022975671  0.022896861            2 
 1643000    0.9816275   -7.7631376    452.42485  0.022947091  0.022890275            2 
 1644000   0.96279727   -7.7599398    452.27381  0.022925477  0.022883635            4 
 1645000   0.97778519   -7.7685148    451.85998  0.022890577  0.022877031            1 
 1646000    0.9894554   -7.7146155    454.19817  0.022995047  0.022870396            1 
 1647000   0.96980052   -7.7330332    453.86026  0.022963988  0.022863811            7 
 1648000    1.0118633    -7.746806    453.91436  0.022952789  0.022857134            2 
 1649000   0.98903145   -7.7321336    454.21077  0.022953849  0.022850459            2 
 1650000    1.0055703   -7.7221354    453.26073  0.022891956  0.022843934            1 
 1651000   0.97612483   -7.7428229    453.53478  0.022891923  0.022837294            2 
 1652000   0.99367446   -7.7145004    452.86967  0.022844515  0.022830647            3 
 1653000   0.98000269   -7.7251786    453.42466  0.022858674  0.022823998            3 
 1654000   0.98454423   -7.7275941     452.1198  0.022779111  0.022817347            2 
 1655000    1.0067491   -7.7515911    453.17967  0.022818714  0.022810537            2 
 1656000   0.97995115   -7.7711066    453.25644  0.022808798  0.022803675            2 
 1657000   0.97563423   -7.7577103    452.62217  0.022763135  0.022796812            1 
 1658000   0.99812333   -7.7773804    453.11298  0.022774074  0.022789899            2 
 1659000   0.98225923   -7.7236943    453.97824   0.02280381  0.022783044            3 
 1660000   0.96333739   -7.7149623     455.7867  0.022880858   0.02277626            2 
 1661000   0.97464476   -7.7891678    451.99941  0.022677073  0.022769355            1 
 1662000   0.98139345   -7.7637519    453.71558  0.022749478  0.022762406            3 
 1663000   0.96506811   -7.7555195    453.45413  0.022722696  0.022755438            2 
 1664000   0.99045108   -7.7586819    454.64762  0.022768811  0.022748597            3 
 1665000    0.9755168   -7.7955157    453.01227  0.022673287  0.022741781            1 
 1666000    1.0039694    -7.771956    454.27294  0.022722736  0.022734952            3 
 1667000   0.99093567   -7.7272348    454.86352  0.022738628  0.022728079            3 
 1668000    1.0003188   -7.7403039    453.95839  0.022679776  0.022721259            3 
 1669000    1.0166044   -7.7580771    454.78329  0.022707374   0.02271443            2 
 1670000   0.98423479   -7.7444151    456.02179  0.022755578  0.022707622            2 
 1671000    0.9797679   -7.7287347    455.48955  0.022715417  0.022700883            3 
 1672000   0.96780489    -7.753304    455.00759  0.022677811  0.022694196            1 
 1673000    0.9883893   -7.7336678    456.88188  0.022757615  0.022687497            1 
 1674000   0.98163284   -7.7995201    456.38437  0.022719254  0.022680819            1 
 1675000   0.98691138   -7.7474316    456.94607  0.022733636  0.022674126            2 
 1676000   0.99041683   -7.7267313    460.14109  0.022878932  0.022667478            2 
 1677000   0.98889987   -7.7702456    456.18208  0.022668559  0.022660762            4 
 1678000   0.97612726   -7.6846282    459.27185  0.022808495  0.022654088            2 
 1679000   0.98347434   -7.7283912    458.06193  0.022734859  0.022647511            4 
 1680000   0.96731737   -7.7383618    458.53818  0.022744949  0.022640806            3 
 1681000    0.9596384    -7.753706    456.87037   0.02264874  0.022634099            3 
 1682000    0.9720191   -7.7722799    457.48005   0.02266548  0.022627384            3 
 1683000   0.98224637   -7.7812113    457.82959   0.02266932  0.022620793            1 
 1684000    1.0205758   -7.7548481    458.41874  0.022685013  0.022614184            2 
 1685000    0.9694016   -7.7420931    459.25033  0.022712677  0.022607604            2 
 1686000   0.99588145   -7.7662647    459.38593  0.022705908   0.02260109            1 
 1687000   0.97596313   -7.7438677     460.3145  0.022738317  0.022594603            4 
 1688000    1.0039875   -7.7404488     461.1596  0.022766568  0.022588123            2 
 1689000    0.9748073   -7.7338544    460.01678  0.022696703  0.022581614            3 
 1690000   0.96469345   -7.7875726    459.74187  0.022669718  0.022575095            2 
 1691000   0.96023649   -7.7430095    460.80116  0.022708513  0.022568579            2 
 1692000   0.99071491   -7.7332262    460.31651  0.022671223  0.022562252            3 
 1693000   0.96961905   -7.7723158    459.38051   0.02261176  0.022555827            3 
 1694000   0.97607712   -7.7625078    460.22784  0.022640094  0.022549353            5 
 1695000   0.99199296   -7.7589071    460.01818   0.02261643  0.022542971            1 
 1696000   0.98083373   -7.8326802    459.55087  0.022580133  0.022536546            1 
 1697000    1.0000334   -7.7615239     461.5084  0.022662954  0.022530103            2 
 1698000   0.98102027   -7.8123947    460.82503  0.022616069  0.022523619            3 
 1699000   0.97370275   -7.7884311    461.67118   0.02264426  0.022517111            1 
 1700000   0.95641539   -7.8038591    461.09458  0.022602676  0.022510554            2 
 1701000   0.95932958   -7.8016615    460.49706  0.022560115  0.022503972            2 
 1702000   0.96203055   -7.8119364    460.22964  0.022533766   0.02249737            1 
 1703000    0.9696402   -7.7950999    460.75993  0.022546483  0.022490774            3 
 1704000   0.99748272   -7.7783327    461.90016  0.022589014  0.022484275            1 
 1705000   0.99486195   -7.7405898     462.2805  0.022594355  0.022477796            3 
 1706000    0.9694493   -7.7491727     462.4666  0.022590201  0.022471263            2 
 1707000   0.97085258   -7.7484793    462.17308  0.022562638  0.022464739            5 
 1708000    1.0133135   -7.7612349    463.00873    0.0225902  0.022458241            2 
 1709000   0.99468435    -7.742585    462.41266  0.022547916   0.02245176            7 
 1710000   0.97138689   -7.7967163    461.92216  0.022510826  0.022445217            1 
 1711000   0.98127971   -7.8024779    462.45761  0.022523749  0.022438615            1 
 1712000    0.9743533   -7.8197679    462.75917  0.022525271  0.022432031            2 
 1713000   0.95943575   -7.8247934    462.00027  0.022475203  0.022425429            2 
 1714000   0.98621689   -7.8249564    460.64556  0.022396225  0.022418775            1 
 1715000   0.97143897   -7.7802105    462.44875  0.022470785   0.02241216            2 
 1716000   0.98635791   -7.7809882    463.71676  0.022519268  0.022405639            3 
 1717000    0.9656511   -7.7475369    462.91547  0.022467262  0.022399149            2 
 1718000   0.98979815   -7.8069299    463.86969   0.02250047  0.022392589            2 
 1719000   0.98048527   -7.7569173    464.07909  0.022497532   0.02238616            4 
 1720000   0.98009445   -7.7968513    464.55861  0.022507684  0.022379701            2 
 1721000   0.98418837   -7.7690521    464.27072  0.022480666  0.022373272            3 
 1722000    0.9812905   -7.7870286    464.46356  0.022476943   0.02236688            1 
 1723000   0.97082696   -7.7890271    464.24525   0.02245334  0.022360425            2 
 1724000   0.98326076   -7.7751012     465.6688  0.022509126   0.02235398            3 
 1725000   0.98345819   -7.7735258    466.53209  0.022537782  0.022347597            3 
 1726000   0.97508956   -7.7829403    464.72108  0.022437286  0.022341145            5 
 1727000   0.95583601   -7.7855992    464.21615   0.02239993  0.022334629            2 
 1728000   0.95403887   -7.8356694    464.16859  0.022384673  0.022327993            2 
 1729000   0.97813779   -7.7674914     464.7857   0.02240147  0.022321414            3 
 1730000    0.9834274   -7.8231306    464.32443  0.022366302  0.022314794            4 
 1731000   0.97507841   -7.8099255     464.9188  0.022381995  0.022308176            1 
 1732000   0.97943441   -7.7848648    465.80252  0.022411591  0.022301609            2 
 1733000   0.97325967    -7.735093    465.95705   0.02240609  0.022295117            3 
 1734000   0.98922693   -7.7826495    465.62304  0.022377117  0.022288655            1 
 1735000   0.96122663   -7.7767617    465.84714  0.022374983   0.02228214            1 
 1736000   0.98880458    -7.833854    465.84172  0.022361834  0.022275647            2 
 1737000   0.97501848   -7.7756909    466.09944  0.022361324  0.022269159            1 
 1738000   0.96405351   -7.7814011    467.32001  0.022406982  0.022262778            4 
 1739000   0.98412832    -7.788906    466.56291  0.022357816  0.022256328            4 
 1740000   0.98778917   -7.7707261    467.35787   0.02238304  0.022249772            4 
 1741000   0.96275067   -7.7805339    467.15462  0.022360455  0.022243338            3 
 1742000   0.97315505   -7.7767235    467.56059  0.022367039  0.022236902            5 
 1743000   0.96117001   -7.8123925    466.89187  0.022322235  0.022230489            3 
 1744000   0.97322088   -7.7729574    467.82709  0.022354123   0.02222413            1 
 1745000   0.98791302   -7.8315297    466.34613  0.022270589   0.02221766            1 
 1746000    0.9760527   -7.7680586    468.40229   0.02235597  0.022211223            4 
 1747000   0.97301661   -7.7752132    468.07526  0.022327574  0.022204864            1 
 1748000   0.98066996   -7.8197649    467.08599  0.022267639  0.022198471            1 
 1749000   0.96510778   -7.8252977    466.66197  0.022234704  0.022191922            1 
 1750000   0.97037516   -7.7854782    467.84644  0.022278402  0.022185355            1 
 1751000   0.96350318   -7.7905593    468.31602  0.022288027  0.022178829            2 
 1752000   0.96927877   -7.8061502    468.08688  0.022264406  0.022172279            7 
 1753000   0.97915754   -7.8076274    467.56458  0.022226877  0.022165692            3 
 1754000   0.97710545   -7.7471549    469.14624   0.02228935   0.02215916            2 
 1755000   0.99263662   -7.7874027    469.48393  0.022292684   0.02215258            2 
 1756000   0.96339102   -7.7589147     468.1915  0.022218655  0.022145981            3 
 1757000   0.97165223   -7.8450445    466.57973  0.022129564  0.022139305            2 
 1758000   0.98488125   -7.8288621    468.25535  0.022196405  0.022132708            2 
 1759000   0.96178449   -7.7877378    467.88744  0.022166356  0.022126075            1 
 1760000   0.98537074     -7.76179    468.57666  0.022186395   0.02211945            3 
 1761000   0.98295175   -7.7706338    468.75134  0.022182062  0.022112883            1 
 1762000   0.96248169   -7.7830672    468.93366  0.022178096  0.022106315            5 
 1763000   0.96692166   -7.8101615      469.374   0.02218633  0.022099746            2 
 1764000   0.96052112   -7.7607193    469.86124   0.02219677  0.022093168            1 
 1765000   0.97974851   -7.8016769    468.72155  0.022130385  0.022086556            2 
 1766000   0.96063424   -7.7820801          470   0.02217818  0.022080082            2 
 1767000   0.96748097   -7.7790063    470.53646  0.022190929   0.02207362            2 
 1768000   0.94645808   -7.7541464    472.55793  0.022273658  0.022067135            1 
 1769000   0.95235735   -7.7898996     469.8476   0.02213339  0.022060594            1 
 1770000   0.96004121   -7.7971896    469.82682  0.022119907  0.022054036            2 
 1771000   0.97545653   -7.8173849    469.08166  0.022072354  0.022047451            2 
 1772000   0.99036739   -7.7860115    469.30164  0.022070243  0.022040808            1 
 1773000   0.97051115   -7.8009272    470.28448  0.022103989  0.022034185            4 
 1774000   0.93812467   -7.8140102    471.15547  0.022132444  0.022027496            2 
 1775000   0.98002026   -7.7584669    470.21873  0.022075997  0.022020847            2 
 1776000   0.96674408   -7.7606635    471.55138  0.022126097   0.02201428            1 
 1777000   0.94857633   -7.7992813      470.456  0.022062277  0.022007686            2 
 1778000    0.9760791   -7.8104654    470.83226  0.022067504  0.022001095            1 
 1779000   0.94877088    -7.842539    469.68415  0.022001319  0.021994441            2 
 1780000   0.95895097   -7.8075706    471.04526  0.022052681  0.021987852            2 
 1781000   0.98277562    -7.797242    471.47389  0.022060354  0.021981333            3 
 1782000   0.95770079    -7.782058    472.59045  0.022100189  0.021974855            3 
 1783000   0.98162532    -7.831342    471.77456  0.022049662  0.021968369            1 
 1784000   0.97061615   -7.7800268    473.35596  0.022111172   0.02196187            2 
 1785000   0.97312498   -7.8064749    473.91506  0.022124886  0.021955416            1 
 1786000   0.98822855   -7.7876514    473.13574  0.022076136  0.021949057            2 
 1787000   0.96168503   -7.7926354    474.29096  0.022117653  0.021942633            2 
 1788000   0.96671312   -7.7801285    473.20516  0.022054677  0.021936166            5 
 1789000   0.97596681   -7.7970709    473.57186  0.022059431  0.021929767            2 
 1790000   0.98055938   -7.8035774    472.77748  0.022010125   0.02192334            2 
 1791000   0.94296484   -7.8017553    475.22464  0.022111699  0.021916886            2 
 1792000   0.96654152   -7.8166444    474.06894  0.022045617  0.021910471            3 
 1793000   0.98830086   -7.8216275    473.40572  0.022002497  0.021904138            3 
 1794000   0.98447266   -7.7978278    474.20946  0.022027567  0.021897807            2 
 1795000   0.96412448   -7.7890962    473.63948  0.021988834  0.021891483            7 
 1796000   0.96047022   -7.8369406    474.70517  0.022026038  0.021885145            2 
 1797000   0.98743359   -7.8110496    475.30269   0.02204149  0.021878822            5 
 1798000   0.96770697   -7.8377032    472.27988  0.021889131  0.021872455            1 
 1799000   0.94567913   -7.8108086    475.07253  0.022006324  0.021866162            2 
 1800000   0.95023753   -7.8305348    475.12406  0.021996484  0.021859853            3 
 1801000   0.94475807   -7.8537799    474.47795  0.021954375  0.021853476            1 
 1802000   0.94358033   -7.7801899    476.23974  0.022023665  0.021847079            2 
 1803000   0.97292162   -7.8139313    475.86138  0.021993963  0.021840767            2 
 1804000   0.94121368   -7.8109866    476.22222   0.02199844  0.021834499            2 
 1805000   0.94213304   -7.8266349    474.80597  0.021920867  0.021828253            3 
 1806000   0.96250452   -7.8366292     476.9586  0.022008057  0.021821919            1 
 1807000   0.96357314   -7.8327495    475.38904  0.021923494  0.021815587            2 
 1808000   0.95931216    -7.830293    476.58925  0.021966687  0.021809317            2 
 1809000   0.96684414   -7.8270541    476.69802  0.021959555  0.021802951            2 
 1810000   0.95899705   -7.8370817    476.17413  0.021923302  0.021796596            6 
 1811000    0.9399544   -7.8067092    477.64427  0.021978845  0.021790312            2 
 1812000   0.94234879   -7.8260777    476.08141   0.02189484   0.02178399            1 
 1813000   0.97109371   -7.8390297    476.90961  0.021920832  0.021777684            1 
 1814000   0.96802399   -7.8302646    476.28355  0.021879987  0.021771286            2 
 1815000   0.97527273   -7.8750498    475.50161   0.02183203   0.02176481            1 
 1816000   0.95785408   -7.8020398     478.0119  0.021935201  0.021758386            5 
 1817000    0.9571389   -7.8069642    478.28868  0.021935823  0.021751967            3 
 1818000   0.93843532   -7.8260068    477.19229  0.021873501  0.021745581            1 
 1819000   0.92908546   -7.8178119    477.06877  0.021855817  0.021739142            2 
 1820000   0.96960747   -7.8487251    475.93487   0.02179189  0.021732724            2 
 1821000   0.95837577   -7.8704951     475.4885  0.021759495  0.021726224            3 
 1822000   0.96015082   -7.8601634    476.44069  0.021791104  0.021719703            3 
 1823000   0.97391211   -7.8369445    478.12186     0.021856  0.021713222            3 
 1824000   0.92777186   -7.8354469    478.32156  0.021853142  0.021706752            2 
 1825000   0.96556522   -7.8586969     477.1037  0.021785557  0.021700286            3 
 1826000    0.9466947   -7.8295194    478.65109  0.021844245  0.021693853            3 
 1827000   0.96449181   -7.8479891    477.70742  0.021789246  0.021687404            4 
 1828000   0.92956773   -7.8030156     478.6079  0.021818376  0.021680984            1 
 1829000   0.95819228   -7.8057873    479.80525  0.021861001  0.021674563            1 
 1830000    1.0147505   -7.8044785    478.74689   0.02180086   0.02166811            2 
 1831000   0.97629711   -7.8345559    477.59578  0.021736564  0.021661617            2 
 1832000   0.95786863   -7.7943316    479.32628  0.021803415  0.021655145            2 
 1833000    0.9688343   -7.8232295    478.73103  0.021764458  0.021648676            1 
 1834000   0.95207132   -7.8201541    479.18844  0.021773375  0.021642264            4 
 1835000   0.95961814   -7.8294411    478.79657  0.021743714  0.021635759            1 
 1836000    0.9449116   -7.8215028    478.58889  0.021722444  0.021629245            4 
 1837000   0.95966219   -7.8503395    478.33895  0.021699281  0.021622774            2 
 1838000   0.95144414   -7.8103869     479.1246  0.021723096  0.021616344            5 
 1839000   0.95950025   -7.8245768    479.97538  0.021749836  0.021609972            7 
 1840000   0.96547853    -7.853812    480.43954  0.021759037  0.021603603            3 
 1841000   0.96708243   -7.7981051    480.31765  0.021741701  0.021597186            2 
 1842000   0.95658403   -7.8442746    479.81928  0.021707351  0.021590777            1 
 1843000   0.92601581   -7.8437112     480.2424  0.021714704  0.021584345            2 
 1844000   0.96730946   -7.8194612    480.32278  0.021706561  0.021577974            2 
 1845000   0.95185353    -7.826711    481.03337  0.021726891   0.02157162            3 
 1846000   0.96524536   -7.8411508     481.1218  0.021719113  0.021565163            2 
 1847000   0.95595796   -7.8580472    480.42839  0.021676069  0.021558697            2 
 1848000   0.95240039   -7.8056952    481.96438  0.021733603  0.021552387            3 
 1849000   0.95824557   -7.8262808    481.66952   0.02170856  0.021546073            3 
 1850000    0.9473963   -7.8279841    482.14328  0.021718166  0.021539729            6 
 1851000   0.94753527   -7.8344448    481.58808  0.021681437  0.021533424            6 
 1852000   0.93963409   -7.8204774    480.40875  0.021616664    0.0215271            9 
 1853000   0.95176539     -7.87625    479.86701  0.021580635  0.021520729            1 
 1854000   0.94842166   -7.8204272    483.28431  0.021722596  0.021514358            2 
 1855000    0.9294785   -7.8462919    481.67056   0.02163839  0.021508033            2 
 1856000   0.96286153    -7.837657    482.25306  0.021652885    0.0215017            5 
 1857000   0.97610929   -7.8220763    483.39197  0.021692334  0.021495456            2 
 1858000    0.9671007   -7.8499618    481.94887  0.021615934  0.021489223            2 
 1859000   0.94106723   -7.8358326    482.27295  0.021618834  0.021482972            2 
 1860000   0.94595998   -7.8187721    482.65118  0.021624157  0.021476684            3 
 1861000   0.95754987   -7.8457195     482.5659  0.021608718  0.021470388            2 
 1862000   0.96896848   -7.8478144    481.55251  0.021551759  0.021464098            2 
 1863000   0.94943834     -7.84655    484.45044  0.021669817   0.02145771            1 
 1864000    0.9822461    -7.837201    481.90234  0.021544275  0.021451348            2 
 1865000   0.96765854   -7.8602296    483.61183  0.021609108   0.02144503            3 
 1866000   0.94632589   -7.8120288    484.67496  0.021645005  0.021438756            2 
 1867000    0.9395166   -7.8401497    483.49127  0.021580578  0.021432554            4 
 1868000   0.94711909   -7.8597623    483.44807  0.021567098   0.02142625            1 
 1869000   0.96233325   -7.8219386    483.99391  0.021579896  0.021419948            3 
 1870000   0.95281673   -7.8234354     484.8954  0.021608529  0.021413686            2 
 1871000   0.98899964    -7.887521    484.21384  0.021566624  0.021407447            1 
 1872000   0.96045717   -7.8285368    485.20433  0.021599196  0.021401225            1 
 1873000   0.95542442   -7.8439277    484.52175  0.021557294  0.021394927            3 
 1874000   0.93996209    -7.842968    485.20592  0.021576215  0.021388626            3 
 1875000   0.93148514   -7.8798269    484.48132  0.021532503  0.021382342            1 
 1876000   0.96764291   -7.8932321    484.21494  0.021509193  0.021375956            9 
 1877000   0.94235589    -7.864594    483.78337  0.021478573  0.021369564            2 
 1878000    0.9324992   -7.8306385    486.73706  0.021598201   0.02136326            1 
 1879000   0.94834289   -7.8617478    486.08417  0.021557751  0.021356976            2 
 1880000   0.95007192   -7.8601471    484.99278  0.021497907  0.021350687            4 
 1881000   0.96480901   -7.8742348    485.59083  0.021512973  0.021344441            3 
 1882000   0.95035834   -7.8708371    485.45196  0.021495393  0.021338148            2 
 1883000   0.95036435   -7.8804227    485.22936  0.021474126   0.02133188            3 
 1884000   0.96549061   -7.8750965    486.72911  0.021529065  0.021325695            2 
 1885000   0.95015594   -7.8296201    487.16728  0.021537015  0.021319571            3 
 1886000    0.9423653   -7.8713597    488.57028  0.021587587  0.021313463            3 
 1887000   0.95506166   -7.8987455    486.09919  0.021467019  0.021307356            2 
 1888000   0.95739811   -7.8730112     486.4326  0.021470366  0.021301247            1 
 1889000   0.94371631   -7.9050484    487.44934  0.021503853   0.02129515            2 
 1890000   0.95958925   -7.8462897    487.74747  0.021505621  0.021289093            1 
 1891000   0.94112651   -7.8324802    487.70648  0.021492442  0.021283075            3 
 1892000   0.95286533   -7.8844213    488.04409  0.021495952  0.021277006            3 
 1893000   0.97137157   -7.8506452    488.70408   0.02151365  0.021270902            3 
 1894000   0.96992683   -7.8285624    489.31345  0.021529103  0.021264885            2 
 1895000    0.9465322   -7.8354746    489.03702  0.021505586  0.021258883            2 
 1896000   0.94804217   -7.8666688    489.51327  0.021515176   0.02125291            3 
 1897000   0.95080153   -7.8589732    489.24815  0.021492187  0.021246912            2 
 1898000    0.9700143   -7.8133259    491.55498  0.021582147  0.021240988            3 
 1899000   0.92689626   -7.8361421    488.69416  0.021445241  0.021235026            3 
 1900000   0.94510946   -7.8291735    488.95624  0.021445449  0.021229072            1 
 1901000   0.95342931   -7.8648561    489.72335  0.021467795  0.021223083            2 
 1902000   0.93321198   -7.8516764    490.47613  0.021489491  0.021217148            5 
 1903000   0.94481235   -7.8810028    490.33742  0.021472124  0.021211146            2 
 1904000   0.95226377   -7.8388255    489.66772  0.021431535  0.021205178            4 
 1905000   0.93703036    -7.829543    491.73624  0.021510772  0.021199318            1 
 1906000   0.95369401   -7.8517976    491.16995  0.021474727  0.021193424            5 
 1907000   0.94402473   -7.8092036    491.56299  0.021480641  0.021187543            1 
 1908000   0.93499309   -7.8659458    491.27094  0.021456628   0.02118163            2 
 1909000   0.96581596   -7.8714399    490.12618  0.021395415  0.021175677            2 
 1910000   0.94466638   -7.8514975    490.39772  0.021396061  0.021169745            2 
 1911000   0.95683575   -7.8719883    490.96034  0.021409399   0.02116381            2 
 1912000   0.94502358   -7.8560947    492.08667  0.021447292  0.021157873            3 
 1913000   0.93355723   -7.9009601    490.97624  0.021387709  0.021151882            4 
 1914000   0.92413957   -7.8751266     491.2946  0.021390395  0.021145851            1 
 1915000   0.94739014   -7.8778709     492.3168  0.021423708  0.021139865            1 
 1916000   0.93328992   -7.8586459     492.2346  0.021408951  0.021133866            2 
 1917000   0.95126097   -7.8985065    492.40555  0.021405214  0.021127931            3 
 1918000   0.94375389   -7.8503815    492.42404  0.021394857   0.02112199            1 
 1919000   0.95619913   -7.8646805    492.55616  0.021389446  0.021116047            2 
 1920000   0.93960284   -7.8788079    492.51959  0.021376718  0.021110208            2 
 1921000   0.92095805   -7.8778095    492.15589  0.021349813   0.02110429            1 
 1922000   0.94983103   -7.8641062    493.42299  0.021393643  0.021098495            3 
 1923000   0.93282525   -7.8560019    492.49123   0.02134214  0.021092645            3 
 1924000   0.93541655   -7.8678423    493.21425  0.021362363  0.021086711            2 
 1925000   0.95588543   -7.8482093    493.91313  0.021381521  0.021080773            2 
 1926000   0.93206468   -7.8832335     492.4498  0.021307105  0.021074818            2 
 1927000   0.92287589   -7.8913587     492.1778  0.021284285  0.021068813            2 
 1928000   0.97289083    -7.900131    493.28073  0.021320917  0.021062794            1 
 1929000   0.95468386   -7.8938235    492.43116  0.021273162  0.021056844            1 
 1930000   0.95166898   -7.8605488    492.98966  0.021286255   0.02105085            2 
 1931000   0.93865079   -7.8771878    493.58617  0.021300974  0.021044872            2 
 1932000   0.94945999    -7.866862    494.84754  0.021344356  0.021038867            2 
 1933000   0.94592411   -7.8865914    494.27234  0.021308516  0.021032894            3 
 1934000   0.92812586    -7.899103     492.1627  0.021206597  0.021026896            2 
 1935000   0.94607975   -7.8800678     493.8373  0.021267756   0.02102096            1 
 1936000   0.92909245    -7.861332    494.78531  0.021297577  0.021014924            2 
 1937000    0.9273608   -7.9059805     495.0143  0.021296433  0.021008945            3 
 1938000   0.97294823   -7.8880894    493.72816  0.021230141  0.021002986            1 
 1939000   0.92604105   -7.8882126    494.41441  0.021248685  0.020997102            8 
 1940000   0.95496345   -7.8993526    494.14163  0.021226015  0.020991184            4 
 1941000   0.95401415   -7.9100453    493.55902  0.021190066  0.020985228            2 
 1942000   0.95209672   -7.8812121    493.91977  0.021194635  0.020979187            2 
 1943000   0.93854742    -7.896563    493.59197  0.021169668  0.020973171            5 
 1944000   0.93124732    -7.906336    495.71295  0.021249698  0.020967124            1 
 1945000   0.93779496   -7.8930643     493.4846  0.021143299  0.020961096            1 
 1946000    0.9317322   -7.8873105    495.02473  0.021198387  0.020955183            4 
 1947000   0.94471845   -7.8740056    494.51723  0.021165778  0.020949244            2 
 1948000   0.94663469   -7.8814524    494.92021  0.021172152  0.020943269            4 
 1949000   0.94103517   -7.8932125    495.88864  0.021202695  0.020937276            1 
 1950000   0.95991889   -7.8531702    495.21407  0.021162995  0.020931319            2 
 1951000   0.93880965   -7.9000222    494.94475  0.021140644  0.020925368            1 
 1952000   0.94046016   -7.8770609      495.432  0.021150615  0.020919351            4 
 1953000   0.94855903   -7.8956129     495.6236   0.02114796  0.020913379            5 
 1954000   0.95138237   -7.8386458    497.22823  0.021205571  0.020907424            1 
 1955000   0.92113921   -7.8707043    496.02842  0.021143582  0.020901496            2 
 1956000   0.93645225   -7.8901653    497.34857  0.021189015  0.020895507            2 
 1957000    0.9352901   -7.8589875    498.16233   0.02121284  0.020889547            2 
 1958000   0.94703626   -7.8950239    495.98894  0.021109505  0.020883645            1 
 1959000   0.92611295   -7.9017946    495.78895  0.021090223  0.020877722            4 
 1960000   0.93763962   -7.8915845    498.03294   0.02117487  0.020871745            3 
 1961000   0.92162209   -7.8820088    496.16383  0.021084644  0.020865742            1 
 1962000   0.94625058   -7.9066286    497.47543  0.021129605   0.02085973            3 
 1963000   0.93676194   -7.8908337    497.39934  0.021115611  0.020853761            2 
 1964000   0.93423535   -7.8670873    498.72982  0.021161313  0.020847801            1 
 1965000   0.94707562   -7.9025693    497.34058  0.021091628  0.020841891            1 
 1966000   0.93137822   -7.8952667    497.30644  0.021079452  0.020835924            1 
 1967000   0.92712241   -7.8813792    497.96444  0.021096612  0.020830009            4 
 1968000   0.94845373   -7.8639706    498.55057  0.021110712  0.020824126            3 
 1969000   0.94535781   -7.8663941    498.34421  0.021091256  0.020818282            3 
 1970000   0.93612276   -7.8972615    498.36251  0.021081324   0.02081231            2 
 1971000   0.94956244   -7.8863463    498.38339  0.021071512  0.020806323            4 
 1972000   0.93905084   -7.8777712     498.5881  0.021069477  0.020800327            4 
 1973000   0.94319699   -7.8812427    498.79684  0.021067614  0.020794369            2 
 1974000   0.91285656   -7.8891866    498.35926  0.021038469  0.020788423            4 
 1975000   0.93582103   -7.8683311    498.50911   0.02103414  0.020782412            2 
 1976000   0.96118393   -7.8738346    496.76828  0.020950079  0.020776425            3 
 1977000   0.92651852   -7.8711384    498.04539  0.020993314  0.020770445            5 
 1978000   0.93030269   -7.8784316    497.82398  0.020973373  0.020764457            4 
 1979000   0.91153191   -7.9023516    498.00094  0.020970226  0.020758445            1 
 1980000   0.94171777   -7.8701514    498.78207  0.020992511  0.020752422            2 
 1981000   0.94144565   -7.8930309    499.01778   0.02099183  0.020746429            1 
 1982000   0.92313597    -7.893877    498.59022  0.020963262  0.020740459            3 
 1983000   0.90863352   -7.9170864    499.14163  0.020975863  0.020734463            4 
 1984000   0.95143486   -7.9259136     498.3164  0.020930628  0.020728481            3 
 1985000   0.92548201   -7.8877459     499.6422  0.020975743  0.020722535            4 
 1986000   0.92786535   -7.9055075    500.54483  0.021003056  0.020716528            4 
 1987000   0.92056442   -7.9193631    499.36777  0.020943121  0.020710495            2 
 1988000   0.91757993   -7.9013919    501.14188  0.021006953  0.020704499            2 
 1989000   0.92907558   -7.8954603    499.54558  0.020929511  0.020698478            3 
 1990000   0.93004692   -7.8688744    501.16642  0.020986868  0.020692465            7 
 1991000   0.94797375   -7.9190966    499.66539  0.020913502  0.020686454            1 
 1992000   0.94054103   -7.8931076    500.51182  0.020938413  0.020680438            2 
 1993000   0.92660893   -7.8703886    500.03594  0.020908009  0.020674493            1 
 1994000   0.90470073   -7.9026504     500.9122  0.020934144  0.020668494            5 
 1995000    0.9410636   -7.8928634    500.92748  0.020924289  0.020662461            2 
 1996000   0.93227187   -7.9271279    500.27606  0.020886609  0.020656448            1 
 1997000   0.93138354   -7.8605083    501.11621  0.020911209  0.020650496            1 
 1998000   0.92170373   -7.8706002    502.13334  0.020943166  0.020644591            1 
 1999000   0.93109991    -7.871335     501.2565  0.020896135  0.020638716            2 
 2000000   0.93999068   -7.8894639    501.43751   0.02089323  0.020632762            4 
 2001000   0.94417879   -7.9191618    501.52371  0.020886378  0.020626852            2 
 2002000   0.91549758   -7.8872414    502.05496  0.020898059  0.020620987            1 
 2003000   0.92806121   -7.9264042    501.43521  0.020861841  0.020615066            2 
 2004000   0.94408527   -7.8738679    503.04315  0.020918295  0.020609131            2 
 2005000   0.94474136   -7.8935222    502.43139  0.020882435   0.02060323            2 
 2006000   0.94279288   -7.8940345    501.75126  0.020843771  0.020597297            3 
 2007000   0.93287736   -7.9122044    501.20953  0.020810892  0.020591335            2 
 2008000   0.93826627   -7.8838978    501.87423  0.020828114   0.02058535            2 
 2009000   0.92462248   -7.9081049     502.1604  0.020829617    0.0205794            4 
 2010000   0.94897019   -7.9153946    501.93544  0.020809927  0.020573457            2 
 2011000   0.93035148   -7.9001319    502.46516   0.02082153  0.020567472            1 
 2012000   0.92513146   -7.8991129    501.66191  0.020777912   0.02056152            1 
 2013000   0.91807403    -7.883078    503.15359  0.020829342  0.020555618            4 
 2014000   0.93030915   -7.9100129    502.49463  0.020791734  0.020549641            2 
 2015000   0.91959091   -7.9196842    503.54174  0.020824721   0.02054363            2 
 2016000   0.93526846   -7.9327754    501.87095  0.020745327  0.020537614            3 
 2017000   0.93332741      -7.9212    502.13116  0.020745792  0.020531593            2 
 2018000   0.91890033   -7.9297374    503.17471  0.020778605   0.02052559            4 
 2019000   0.94826217   -7.9016267    502.52885  0.020741656  0.020519615            4 
 2020000   0.91449657   -7.8645173    504.57165  0.020815662  0.020513643            2 
 2021000   0.91445866   -7.8911884    503.34114  0.020754624  0.020507711            2 
 2022000   0.93277631   -7.9400188    502.95746  0.020728547  0.020501703            3 
 2023000   0.94381395   -7.9373006     501.8211   0.02067149  0.020495721            5 
 2024000    0.8912895   -7.8773595    503.96427  0.020749517  0.020489725            2 
 2025000   0.92192314   -7.8933918    503.88807  0.020736135  0.020483826            1 
 2026000   0.93376876   -7.9048113    504.02677  0.020731604  0.020477946            3 
 2027000   0.93088448   -7.9220313     503.6213  0.020704707  0.020472099            6 
 2028000   0.91680812   -7.9095618    503.95224  0.020708097  0.020466261            6 
 2029000   0.92297422   -7.9103949     504.2611  0.020710576  0.020460388            2 
 2030000   0.93030475    -7.898797    504.54037  0.020711838  0.020454473            5 
 2031000   0.94300796   -7.9224072    505.46266  0.020739482  0.020448588            2 
 2032000   0.92059634   -7.9106572    506.65117  0.020778017  0.020442715            1 
 2033000   0.92492843   -7.9615212    504.49775  0.020679527   0.02043688            3 
 2034000   0.91072602   -7.9505536    504.23901   0.02065876  0.020430979            3 
 2035000   0.92017065   -7.9283816    504.72107  0.020668348  0.020425105            3 
 2036000   0.91217027   -7.9247393    505.32114  0.020682758  0.020419283            3 
 2037000   0.93640197   -7.9074171    506.51118  0.020721289  0.020413482            2 
 2038000    0.9178617   -7.9172837    506.64022  0.020716398  0.020407694            3 
 2039000   0.94464591   -7.9251322    505.60665  0.020663996  0.020401809            4 
 2040000   0.89179987   -7.9320631    504.66881  0.020615556   0.02039595            3 
 2041000   0.91712234   -7.9101331    507.29007   0.02071248  0.020390111            1 
 2042000   0.92708115   -7.8950193    506.70963   0.02067865  0.020384297            2 
 2043000   0.92671329   -7.9013681    508.32909  0.020734585  0.020378538            3 
 2044000   0.93175162   -7.9449222    505.22855  0.020598033  0.020372733            1 
 2045000   0.93528187   -7.9310713    507.85844  0.020695128  0.020366831            4 
 2046000   0.91757983   -7.9152897    507.12919  0.020655311  0.020361026            4 
 2047000   0.93396223   -7.8936179    508.26984  0.020691656  0.020355149            2 
 2048000   0.95085999   -7.8930689    508.17087  0.020677526  0.020349325            5 
 2049000   0.93544124   -7.9313416    506.40179  0.020595485  0.020343463            3 
 2050000   0.93820348   -7.8779972    507.30715  0.020622242  0.020337563            1 
 2051000   0.91562063   -7.9237357     507.5743  0.020623042  0.020331686            3 
 2052000    0.9394609   -7.9380307    506.00133  0.020549112   0.02032592            4 
 2053000   0.91772226   -7.9018396    507.53388   0.02060131  0.020320054            2 
 2054000   0.93771926   -7.8957979    508.03994  0.020611812  0.020314194            2 
 2055000   0.90927765   -7.8777088    508.80426  0.020632776  0.020308389            1 
 2056000   0.91909541   -7.9107381    508.54433  0.020612205  0.020302532            3 
 2057000   0.91642208   -7.8786129    508.35792  0.020594633  0.020296744            2 
 2058000   0.94072502   -7.9181018    508.26525  0.020580873  0.020290913            1 
 2059000   0.92267323   -7.9070759      508.978  0.020599725  0.020285023            1 
 2060000   0.92031084    -7.908291    508.24169  0.020559939  0.020279127            1 
 2061000   0.92697854   -7.9200448    508.42377  0.020557325  0.020273215            3 
 2062000   0.92290584   -7.9317289    508.79438  0.020562334  0.020267343            3 
 2063000   0.92664874    -7.915284    507.06873   0.02048266  0.020261473            6 
 2064000   0.90523009   -7.9550348    508.05074  0.020512385  0.020255524            2 
 2065000   0.90799083   -7.8908759    509.66332  0.020567527  0.020249657            4 
 2066000     0.910535   -7.9022413    509.05883  0.020533189  0.020243846            1 
 2067000   0.93621794   -7.8975204    509.52606  0.020542092   0.02023806            2 
 2068000   0.89670967   -7.9456936    510.04491  0.020553067  0.020232212            2 
 2069000   0.91567241   -7.8999442    510.83271  0.020574863  0.020226408            2 
 2070000   0.93114553   -7.9323472      509.061  0.020493599  0.020220586            2 
 2071000   0.92807695   -7.9109822    510.43115  0.020538836  0.020214751            1 
 2072000   0.91585887   -7.9239884    509.60444  0.020495674  0.020208897            4 
 2073000    0.9307008   -7.9444017    509.89053  0.020497288  0.020203057            2 
 2074000   0.91252011   -7.9732705    508.49349  0.020431272  0.020197225            1 
 2075000   0.92085849   -7.8989491    510.58277  0.020505332  0.020191442            2 
 2076000   0.92404735   -7.9703749    508.62672  0.020416936  0.020185575            2 
 2077000     0.938398   -7.9125679    511.80549  0.020534645  0.020179722            3 
 2078000   0.92176538   -7.9640296     510.5753  0.020475429  0.020173891            2 
 2079000   0.90920755   -7.9264825    510.15889  0.020448889  0.020168013            2 
 2080000   0.92356791   -7.9480203    510.96945  0.020471533  0.020162172            1 
 2081000   0.92745758    -7.936171    509.94646  0.020420729  0.020156327            4 
 2082000    0.9097494    -7.896061    510.98916  0.020452656  0.020150475            4 
 2083000   0.92029371   -7.9188215    511.22893  0.020452429   0.02014469            3 
 2084000   0.91230944    -7.942647    510.88624  0.020428912  0.020138818            1 
 2085000    0.9073293   -7.9540238    511.38027   0.02043886  0.020132973            3 
 2086000   0.90874732   -7.9297206     510.3676  0.020388607  0.020127088            4 
 2087000   0.91599387   -7.9258341    511.22894   0.02041323  0.020121232            2 
 2088000   0.92119923   -7.9564072    511.45049  0.020412296  0.020115356            1 
 2089000   0.92382746    -7.917382    510.93035  0.020381775  0.020109465            2 
 2090000   0.92187614   -7.9392433    511.20218  0.020382862  0.020103531            3 
 2091000   0.89884988   -7.9379803    509.63246  0.020310556  0.020097631            2 
 2092000   0.90573467   -7.9340611    509.75666  0.020305794  0.020091716            2 
 2093000   0.91468098   -7.9327432    512.10284  0.020389506  0.020085786            4 
 2094000   0.91502501   -7.9633179    510.44615  0.020313839   0.02007988            1 
 2095000     0.904233   -7.9586073    510.95787  0.020324498  0.020073946            3 
 2096000   0.90806386   -7.9528498    511.71522  0.020344912  0.020068024            3 
 2097000   0.89275508   -7.9404362    511.04233  0.020308469   0.02006213            4 
 2098000   0.90224557   -7.9430092    510.72073  0.020286015  0.020056228            3 
 2099000   0.93980635   -7.9350626    511.67011  0.020314043  0.020050352            2 
 2100000   0.90473838   -7.9160835    512.11203  0.020321906  0.020044441            2 
 2101000   0.89666208     -7.94239    511.85636  0.020302093  0.020038517            3 
 2102000   0.90795808    -7.931705    511.35898  0.020272716  0.020032637            1 
 2103000   0.92232422    -7.939567    511.81435   0.02028112  0.020026716            5 
 2104000   0.92054049   -7.9314176    512.59756  0.020302502   0.02002082            2 
 2105000   0.92285242   -7.9431141    511.95522  0.020267428  0.020014957            3 
 2106000   0.91094489   -7.9484201    511.64625  0.020245578  0.020009044            4 
 2107000   0.89308497   -7.9367375    511.93329  0.020247322  0.020003161            2 
 2108000   0.91545498    -7.884171    513.53428  0.020301007  0.019997362            1 
 2109000   0.91141412   -7.9451277    512.78372  0.020261724  0.019991545            2 
 2110000   0.92478554   -7.9348362    513.78902  0.020291825  0.019985695            5 
 2111000   0.92344894   -7.9314832    512.85049  0.020245164   0.01997989            2 
 2112000   0.91360456   -7.9094389    513.81653  0.020273695    0.0199741            2 
 2113000    0.9122466   -7.9777962    512.43433  0.020209589  0.019968243            2 
 2114000   0.91148762   -7.9600899    514.09787  0.020265605  0.019962318            1 
 2115000   0.90289177   -7.9527685    513.03282  0.020214059  0.019956488            2 
 2116000   0.90920377   -7.9581008    514.08993  0.020246138  0.019950588            5 
 2117000   0.92523079   -7.9567189      513.648  0.020219178  0.019944738            5 
 2118000   0.91935871   -7.9420261    513.42529  0.020200869  0.019938893            2 
 2119000   0.92024067   -7.9864176    512.90024  0.020170687   0.01993302            2 
 2120000   0.90542027    -7.938744    514.79881  0.020235802  0.019927174            3 
 2121000   0.91977607   -7.9399398    514.58379  0.020217814  0.019921331            1 
 2122000   0.91507633   -7.9061237    514.30513  0.020197343  0.019915483            7 
 2123000   0.92012231   -7.9441244    513.70606  0.020164314  0.019909713            2 
 2124000   0.91482836   -7.9566045    514.41181   0.02018251  0.019903897            1 
 2125000   0.92686663   -7.9505207    513.26687  0.020128113  0.019898044            3 
 2126000   0.91026339   -7.9629213     514.8332  0.020180041  0.019892195            2 
 2127000   0.90722521   -7.9632292    513.36663  0.020113095  0.019886299            3 
 2128000   0.92786638   -7.9541569     514.9326  0.020164967  0.019880413            3 
 2129000   0.92098183   -7.9310247    515.04534  0.020159908  0.019874597            1 
 2130000    0.9292952   -7.9756709    514.08493  0.020112869  0.019868774            3 
 2131000   0.90073422    -7.967293    512.97484  0.020060021  0.019862929            5 
 2132000   0.92130455   -7.9482755    513.79961  0.020082849  0.019857057            4 
 2133000   0.91849372   -7.9343864    514.85656  0.020114727  0.019851181            3 
 2134000   0.90494322   -7.9405264    515.86318   0.02014461  0.019845286            4 
 2135000   0.91265484   -7.9482466    514.78979  0.020093278  0.019839389            2 
 2136000   0.90023287    -7.965636     513.8462  0.020047058  0.019833485            3 
 2137000   0.91094028   -7.9454598    515.91275  0.020118263   0.01982756            3 
 2138000   0.92237955   -7.9799935    514.48657  0.020053265  0.019821587            1 
 2139000   0.89979835   -7.9640444    514.44044  0.020042093  0.019815592            2 
 2140000   0.93325538   -7.9770773    512.68042  0.019964191  0.019809595            5 
 2141000   0.91286282   -7.9533421    514.75671  0.020035681  0.019803662            3 
 2142000   0.92740566   -7.9390726    515.69622  0.020062878  0.019797673            1 
 2143000   0.90863517   -7.9412447    514.73539  0.020016153   0.01979166            4 
 2144000   0.89389631   -7.9715827    514.23975  0.019987552  0.019785662            2 
 2145000   0.90207553   -7.9968937    513.99793  0.019968839  0.019779666            2 
 2146000   0.91774307   -7.9074975    516.99381   0.02007587  0.019773714            1 
 2147000   0.91328346   -7.9489578    515.74431  0.020018022  0.019767836            3 
 2148000   0.91797707   -7.9691458    513.69979  0.019929383  0.019761865            1 
 2149000   0.91467727   -7.9830245    515.65642  0.019995984  0.019755915            4 
 2150000    0.8945986   -7.9734985    516.14485  0.020005614  0.019749917            1 
 2151000   0.90133862   -7.9658238    516.44378  0.020007895  0.019743961            1 
 2152000   0.91164044    -7.973502    516.44662  0.019998707     0.019738            3 
 2153000    0.9039081   -7.9542381    515.41797  0.019949604  0.019732076            3 
 2154000   0.91683155   -7.9635406    513.90899  0.019881963    0.0197261            2 
 2155000   0.89203648   -7.9740757    516.00652  0.019953849  0.019720167            2 
 2156000   0.90394783   -7.9568998     516.1446   0.01994993  0.019714232            2 
 2157000   0.90631997   -7.9613423    517.13473  0.019978934    0.0197083            2 
 2158000    0.8993277   -7.9651304    516.04491  0.019927592   0.01970232            1 
 2159000   0.91405954   -7.9169699    516.86501  0.019950016   0.01969632            2 
 2160000   0.88848957   -7.9362133    517.13664  0.019951259  0.019690331            1 
 2161000   0.90167186   -7.9905583    515.72475  0.019887581  0.019684368            2 
 2162000   0.92764106   -7.9737255    515.19481  0.019857956  0.019678327            2 
 2163000   0.91514621   -7.9541878    515.09313  0.019844858  0.019672284            2 
 2164000   0.92116584   -7.9780282    514.97344  0.019831078  0.019666195            4 
 2165000    0.8959971   -7.9925033    515.01682  0.019823588  0.019660156            2 
 2166000   0.89746883   -7.9530385    516.54819  0.019873353  0.019654091            5 
 2167000    0.9126686   -8.0121595    516.53888  0.019863824  0.019648005            3 
 2168000   0.91380371   -7.9950988    514.86917  0.019790482   0.01964189            4 
 2169000   0.91577552   -7.9899093    515.77319   0.01981609  0.019635814            2 
 2170000   0.89292073   -7.9871454     515.1523  0.019783114  0.019629755            3 
 2171000   0.90334605   -7.9905005    515.49964  0.019787335  0.019623643            4 
 2172000   0.90414683   -7.9790636     516.9021  0.019832033  0.019617559            1 
 2173000   0.90291576   -7.9168098    516.86338  0.019821421   0.01961155            1 
 2174000   0.89399379   -7.9386851    518.18416  0.019862932  0.019605586            4 
 2175000   0.90839734   -7.9787809    516.52057   0.01979006  0.019599607            2 
 2176000   0.88506796   -7.9491464    516.41321  0.019776854  0.019593579            7 
 2177000   0.91010924   -7.9961587    516.68151   0.01977804  0.019587545            6 
 2178000   0.91139641   -7.9992368    516.71766  0.019770342  0.019581454            5 
 2179000   0.92313356   -7.9776391    515.87443  0.019729021  0.019575378            3 
 2180000   0.90035414   -8.0055224    517.05543  0.019765116  0.019569314            3 
 2181000   0.87824235    -7.940201    518.15089  0.019797909  0.019563256            2 
 2182000   0.91715691   -7.9778623    517.18478  0.019751939  0.019557206            1 
 2183000   0.88639187   -7.9862285    516.28013  0.019708358  0.019551143            5 
 2184000   0.89859292   -7.9329726    519.98251  0.019840603  0.019545144            4 
 2185000   0.91140201   -7.9828507    517.47706  0.019735967  0.019539156            4 
 2186000   0.88656984   -8.0130125    516.16097  0.019676768   0.01953306            2 
 2187000   0.89984746   -7.9790371    517.95343   0.01973607  0.019526959            3 
 2188000   0.90510881   -7.9758229    517.86365  0.019723631  0.019520901            5 
 2189000   0.90815371   -7.9812668    517.52601  0.019701767  0.019514824            3 
 2190000    0.9098412   -8.0038679    517.30618  0.019684406  0.019508748            1 
 2191000   0.90807026   -8.0054925    517.79349  0.019693956  0.019502676            3 
 2192000    0.8985229   -8.0266278    517.57286  0.019676584  0.019496536            4 
 2193000   0.90261977   -7.9519311    518.65226  0.019708628  0.019490502            5 
 2194000   0.90130984   -8.0097202    518.79502  0.019705067  0.019484513            2 
 2195000    0.9014345   -7.9640661    517.60009  0.019650725  0.019478525            4 
 2196000   0.90326477   -7.9665295    518.01041  0.019657347  0.019472523            2 
 2197000    0.9017387   -7.9897587    519.27769  0.019696468  0.019466541            2 
 2198000   0.91723645   -7.9801659    518.60762  0.019662103  0.019460514            1 
 2199000   0.89106274   -7.9791886    519.66689  0.019693303  0.019454455            3 
 2200000   0.89447823   -7.9670104    519.50476   0.01967821  0.019448468            1 
 2201000   0.88133941    -7.981011    520.01991  0.019688774  0.019442578            2 
 2202000   0.89684032   -7.9770762    519.16763  0.019647579  0.019436691            2 
 2203000   0.90421045   -7.9961441     519.9896  0.019669753  0.019430738            1 
 2204000   0.92031599   -8.0124793    519.21917  0.019631699  0.019424817            3 
 2205000   0.88664878   -7.9964262    518.73538  0.019604512  0.019418834            2 
 2206000   0.89492974   -7.9899593    520.84953  0.019675488  0.019412845            5 
 2207000    0.9212944   -8.0096734    518.91976  0.019593708  0.019406875            3 
 2208000   0.90020959    -7.995874    519.76188  0.019616617  0.019400906            2 
 2209000   0.90924631   -8.0109501    518.97253  0.019577959  0.019394943            2 
 2210000   0.89402032   -7.9998569     521.0651  0.019648005  0.019389011            1 
 2211000   0.88927771   -7.9858425    518.96957  0.019560138  0.019383077            3 
 2212000   0.89345207   -8.0143314    519.29346  0.019563497  0.019377087            6 
 2213000   0.89993711   -8.0345925    518.06473  0.019508387  0.019371069            3 
 2214000   0.86950763    -7.976844    519.80175  0.019564956  0.019365053            2 
 2215000   0.89724941   -7.9924636    520.33133  0.019576047  0.019359077            2 
 2216000   0.91034314   -7.9773247    521.29845  0.019603582  0.019353161            3 
 2217000   0.89446479   -7.9819275    520.74203  0.019573825  0.019347238            1 
 2218000   0.89294947   -7.9650842    522.55164  0.019632989  0.019341287            1 
 2219000   0.88994911   -7.9987528     519.7158  0.019517643  0.019335307            1 
 2220000    0.9128662   -7.9969029      520.731  0.019546959  0.019329312            2 
 2221000   0.88365873   -7.9741312    521.80969  0.019578632  0.019323363            4 
 2222000   0.90192038   -7.9875096     521.0945  0.019542998  0.019317407            2 
 2223000   0.90043412   -7.9772488    521.51433  0.019549945  0.019311451            2 
 2224000   0.89964049   -8.0038042    521.62293  0.019545224   0.01930553            5 
 2225000   0.88316188    -8.005725    521.65381  0.019537596  0.019299604            1 
 2226000   0.90674752   -7.9817537    522.21898  0.019549977  0.019293694            2 
 2227000   0.88493559   -7.9948274    522.53747  0.019553116  0.019287786            2 
 2228000   0.89195318   -7.9942505    521.37357  0.019500807  0.019281852            3 
 2229000   0.89582538   -7.9681818    522.00784  0.019515771  0.019275876            1 
 2230000   0.90436106   -8.0278736    521.35323  0.019482557  0.019269901            2 
 2231000   0.89197084   -8.0102611    520.70881  0.019449754   0.01926394            2 
 2232000   0.90246509   -7.9705052      522.897  0.019522737   0.01925798            2 
 2233000   0.91476521   -7.9697662    523.59991  0.019540227  0.019252028            3 
 2234000   0.88755428   -7.9866056     522.2801  0.019482248  0.019246047            4 
 2235000    0.8777334   -7.9759609    523.77453  0.019529252  0.019240075            4 
 2236000   0.90544326   -8.0074148    521.35162  0.019430218  0.019234077            2 
 2237000   0.91226174   -7.9688004    521.99289  0.019445421  0.019228114            2 
 2238000   0.88679138   -8.0152189    521.14615  0.019405204  0.019222147            1 
 2239000   0.89826194   -7.9885081    522.83968  0.019459568  0.019216156            9 
 2240000   0.88179103   -7.9986853    523.00062  0.019456868  0.019210217            4 
 2241000   0.87066312   -8.0270408    521.66332  0.019398458  0.019204247            3 
 2242000   0.90201856   -8.0075669    523.00785   0.01943978  0.019198248            2 
 2243000   0.89524236   -7.9932632    522.03033  0.019394796  0.019192277            5 
 2244000   0.91659038    -7.997356    520.96059  0.019346427  0.019186297            2 
 2245000   0.90703037   -8.0260862    522.11941  0.019380824  0.019180272            1 
 2246000   0.89215088   -8.0047489     521.4034  0.019345629  0.019174254            5 
 2247000   0.92423425   -8.0412817    521.89729  0.019355336  0.019168204            2 
 2248000   0.89497025   -8.0152709     521.5064  0.019332236  0.019162153            1 
 2249000    0.8989015   -7.9856285    523.37927  0.019393036  0.019156091            1 
 2250000   0.88643205   -7.9997036    521.97162  0.019332282  0.019150056            1 
 2251000   0.90207398   -8.0210444    522.55038   0.01934512  0.019143976            3 
 2252000   0.90760424   -8.0160955    521.34181  0.019291808  0.019137898            3 
 2253000   0.91626318   -7.9826649     523.4825  0.019362424  0.019131843            3 
 2254000   0.87908903   -8.0394136    521.42072  0.019277607  0.019125806            5 
 2255000   0.90352016   -7.9788025    524.02116  0.019365157  0.019119797            1 
 2256000   0.89464016   -8.0049144    523.03742  0.019320236  0.019113809            5 
 2257000   0.88005217   -7.9986447    522.98445   0.01930972  0.019107831            1 
 2258000   0.88471748   -8.0221101    522.54626  0.019284996  0.019101836            3 
 2259000   0.89136288   -7.9511335    525.32506  0.019378968  0.019095853            2 
 2260000   0.87744638   -7.9721525    525.16644  0.019364544  0.019089878            2 
 2261000   0.89132126   -8.0047845    522.38158  0.019253339   0.01908385            5 
 2262000   0.89200379   -8.0235277     523.4892  0.019285632  0.019077836            3 
 2263000   0.90693534   -8.0172416    523.64246  0.019282754   0.01907181            6 
 2264000   0.88673402   -7.9977546    525.01388  0.019324716  0.019065788            3 
 2265000   0.89637437   -8.0139111    523.31411  0.019253646  0.019059764            2 
 2266000   0.88892802    -8.035818     523.3866  0.019247815  0.019053704            4 
 2267000   0.88831411   -8.0072083    523.49488  0.019243305  0.019047687            4 
 2268000   0.90622544   -8.0246223     524.5352  0.019273045    0.0190417            2 
 2269000   0.90136251   -8.0163463     522.9848   0.01920761  0.019035727            2 
 2270000   0.88296545   -8.0447517    523.37547   0.01921349  0.019029722            4 
 2271000   0.87627521   -8.0114935    524.18233  0.019234637  0.019023699            2 
 2272000   0.89870494   -8.0014798    524.29283  0.019230224  0.019017723            2 
 2273000   0.89847134   -8.0416012    522.74626  0.019165063  0.019011692            5 
 2274000   0.90171685   -8.0649949    522.33129  0.019141428  0.019005611            3 
 2275000   0.88676062   -8.0833636    522.29729  0.019131769  0.018999502            2 
 2276000    0.9004023   -8.0507491    523.79067  0.019178042  0.018993435            3 
 2277000   0.88978871    -8.027895     523.4344   0.01915658  0.018987374            2 
 2278000   0.86396844   -8.0398472    524.09285  0.019172258  0.018981339            3 
 2279000    0.8986395   -8.0194717    524.35287  0.019173353  0.018975326            2 
 2280000   0.89121547   -8.0218478    524.38186  0.019166004   0.01896931            1 
 2281000   0.88786905   -7.9804294    525.68072  0.019205053  0.018963361            4 
 2282000   0.88641839   -8.0215942    522.96652  0.019097521  0.018957391            2 
 2283000   0.87249896   -7.9988983     524.8362  0.019157403  0.018951358            2 
 2284000   0.89531147   -7.9997424    525.02653  0.019155959  0.018945297            2 
 2285000   0.86613334   -8.0125526    524.32951  0.019122156  0.018939204            2 
 2286000   0.89785833   -8.0344609    524.59239  0.019123374  0.018933157            1 
 2287000   0.88461105   -8.0629606    525.41669  0.019145048  0.018927079            3 
 2288000   0.87722237   -7.9909201    524.54732  0.019105016  0.018921064            3 
 2289000   0.89507264   -7.9953562     526.2162  0.019157427  0.018915049            5 
 2290000   0.85850152   -8.0464848     524.3684   0.01908182  0.018908976            2 
 2291000   0.88007799   -8.0105722    525.87394  0.019128253  0.018902889            3 
 2292000   0.89813732   -8.0480448    524.85049  0.019082697  0.018896817            2 
 2293000    0.8779353   -8.0600347    525.67987  0.019104516  0.018890783            1 
 2294000   0.88223903   -8.0295477    525.39761  0.019085935  0.018884731            2 
 2295000   0.88643633   -8.0605432    525.61159  0.019085388  0.018878666            4 
 2296000   0.89171846   -8.0523512    523.95004   0.01901677   0.01887261            1 
 2297000   0.90178321   -8.0525478    525.29105  0.019057142  0.018866515            2 
 2298000   0.88112096   -8.0513443    525.74945  0.019065472  0.018860431            2 
 2299000   0.86627139   -8.0522499    525.60264  0.019051857  0.018854365            1 
 2300000   0.88463375   -8.0455649    525.51755  0.019040491  0.018848334            2 
 2301000   0.86326475   -8.0560452     524.8549  0.019008217  0.018842265            2 
 2302000   0.89790739   -8.0434226    525.35415  0.019018033  0.018836235            2 
 2303000     0.876585   -8.0407057    525.57388  0.019017726  0.018830168            4 
 2304000   0.87108522   -8.0064583    526.36762  0.019038181  0.018824166            4 
 2305000   0.87954162    -8.013699    524.82544  0.018974166   0.01881819            2 
 2306000    0.8849465   -8.0173466    526.93303  0.019042101  0.018812187            4 
 2307000   0.88609275    -7.997736    527.20707  0.019043746  0.018806177            4 
 2308000   0.89121454   -8.0534761    525.79831   0.01898463  0.018800176            4 
 2309000   0.88279156   -8.0296965    525.85331  0.018978393  0.018794183            1 
 2310000    0.8666974   -8.0261979    528.09432  0.019051022  0.018788258            1 
 2311000   0.89024702    -8.042279    527.44527  0.019019374  0.018782325            3 
 2312000   0.89817993   -8.0197024    526.74303  0.018985836   0.01877637            3 
 2313000   0.88521813   -8.0404717    526.69894  0.018976039   0.01877037            4 
 2314000   0.88761375   -8.0696706    526.18845  0.018949454  0.018764367            3 
 2315000   0.88403563    -8.059423    526.53303  0.018953673  0.018758323            1 
 2316000   0.89421739   -8.0664888    526.21887  0.018934185  0.018752253            1 
 2317000   0.89417375   -8.0759272    526.18236    0.0189247  0.018746212            2 
 2318000   0.87382991   -8.0522134    525.84061   0.01890425  0.018740137            2 
 2319000   0.89427356   -8.0828428    525.73797  0.018892409  0.018734013            5 
 2320000   0.88250256    -8.032126      525.757   0.01888495  0.018727923            3 
 2321000   0.88346604   -7.9944021    527.35258  0.018934101   0.01872191            3 
 2322000   0.90223896   -8.0413073    526.36731  0.018890587  0.018715914            4 
 2323000   0.85022108   -8.0490208    527.17887  0.018911568  0.018709887            3 
 2324000   0.89102956   -8.0249265    527.68042  0.018921415  0.018703846            1 
 2325000   0.88644053   -8.0561336    526.95512   0.01888728   0.01869783            3 
 2326000   0.89108621   -8.0532527    527.17403  0.018887003  0.018691777            1 
 2327000   0.87164374   -8.0431634    527.26976  0.018882315  0.018685777            4 
 2328000   0.86789826     -8.05856    526.62216  0.018851022  0.018679776            7 
 2329000   0.88264397   -8.0507965    526.77159  0.018848275  0.018673745            2 
 2330000   0.87150143    -8.022844    528.01703  0.018884729  0.018667773            1 
 2331000   0.89957997    -8.017381    528.70889  0.018901362  0.018661774            3 
 2332000   0.87530676   -8.0149901    527.49939  0.018850035  0.018655768            1 
 2333000   0.89473235   -8.0360838    527.75251  0.018850997  0.018649745            1 
 2334000   0.86707806   -8.0760001    527.60844  0.018837776  0.018643675            5 
 2335000   0.87201379   -8.0285754    527.28317    0.0188181  0.018637611            4 
 2336000   0.88514196   -8.0637256    528.42576  0.018850805  0.018631576            6 
 2337000   0.88562651   -8.0703559    528.58653  0.018848471  0.018625534            8 
 2338000   0.88038897   -8.0191009    529.70816  0.018880388  0.018619547            2 
 2339000   0.87627991   -8.1036031    528.04724  0.018813141   0.01861351            1 
 2340000   0.87716046   -8.0567235    528.77652  0.018831073  0.018607478            8 
 2341000   0.88936369   -8.0635739    527.72893  0.018785737  0.018601486            2 
 2342000   0.87493012    -8.081986    528.29669  0.018797918  0.018595479           11 
 2343000   0.84740988   -8.0329754    528.68982  0.018803878  0.018589466            2 
 2344000   0.88036241    -8.028847    528.91298  0.018803789  0.018583528            1 
 2345000   0.87889743   -8.0194206    529.27603  0.018808672   0.01857757            4 
 2346000     0.874805   -8.0306418    527.16831  0.018725785  0.018571597            2 
 2347000   0.86421684   -8.0150177    530.20367  0.018825581  0.018565634            3 
 2348000   0.88969691   -8.0629473    527.73256  0.018729861  0.018559651            1 
 2349000    0.8652626   -8.0073421       529.45  0.018782815  0.018553668            2 
 2350000   0.89057555    -8.045949    529.56069  0.018778748  0.018547699            2 
 2351000     0.870362   -8.0436504    529.82133  0.018779999  0.018541734            4 
 2352000   0.88653535   -8.0574895     529.5235  0.018761462  0.018535731            2 
 2353000    0.8659277   -8.0498453    529.14702  0.018740155  0.018529713            4 
 2354000   0.85831521   -8.0618648    528.83612  0.018721188  0.018523691            3 
 2355000   0.87201961   -8.0574801     529.1655  0.018724894  0.018517684            2 
 2356000   0.86450872   -8.0568879    528.73806  0.018701827  0.018511676            1 
 2357000   0.87458518   -8.0695681    529.84445   0.01873301  0.018505685            4 
 2358000   0.88524973   -8.0723295    530.20613  0.018737847  0.018499717            4 
 2359000   0.87051158   -8.0588124    529.86973  0.018718021   0.01849378            4 
 2360000   0.87262002   -8.0631816    529.07195  0.018681919  0.018487844            2 
 2361000   0.86493822   -8.0579382    529.65652  0.018694639  0.018481929            1 
 2362000   0.88192884   -8.0795879    529.18407  0.018670056  0.018476032            3 
 2363000    0.8737277    -8.074466    529.85817  0.018685928  0.018470093            6 
 2364000   0.88202974   -8.0534045    530.81835  0.018711871   0.01846421            1 
 2365000   0.86811249   -8.0748529    530.22326   0.01868299  0.018458255            4 
 2366000   0.88336626   -8.0781999    529.98021  0.018666533  0.018452311            3 
 2367000   0.87729468   -8.0448879    529.86966  0.018654755  0.018446366            5 
 2368000   0.86797707   -8.0433676    531.65616  0.018709747  0.018440468            2 
 2369000    0.8710705   -8.0210214    531.13063  0.018683362  0.018434581            2 
 2370000   0.86622183   -8.0694093    531.76276  0.018697706  0.018428695            4 
 2371000   0.86630962   -8.0759453    530.83659  0.018657268  0.018422813            3 
 2372000   0.88302988   -8.0487028    529.99279  0.018619758  0.018416866            3 
 2373000   0.87199582   -8.0399012    530.25062  0.018620966  0.018410934            2 
 2374000   0.87063681   -8.0690834    530.39346  0.018618136  0.018404979            5 
 2375000   0.85670609   -8.0675265    529.07401     0.018564  0.018399023            2 
 2376000   0.86674903    -8.057195    530.54174  0.018607665  0.018393057            2 
 2377000   0.88118068   -8.0769065      532.019  0.018651627  0.018387113            2 
 2378000   0.87705612   -8.0759335    531.51984  0.018626291  0.018381158            2 
 2379000   0.88109929   -8.0707288    531.03329  0.018601418  0.018375193            2 
 2380000   0.86875201   -8.0308749    531.89859    0.0186239  0.018369274            3 
 2381000   0.87243018   -8.0594008    530.59604   0.01857049  0.018363369            2 
 2382000   0.85116843    -8.055009    531.13046   0.01858139  0.018357452            3 
 2383000   0.84689354   -8.0646245    531.36695  0.018581863  0.018351543            3 
 2384000   0.87145189   -8.0579741    531.57375  0.018581297  0.018345647            4 
 2385000    0.8599523   -8.0858381    531.33417  0.018565135  0.018339698            1 
 2386000   0.86535906   -8.0654343    530.09548  0.018514092  0.018333796            1 
 2387000   0.87084947   -8.0599288    531.98847  0.018572422  0.018327869            6 
 2388000   0.87542004   -8.0632311    531.63387  0.018552271  0.018321863            4 
 2389000   0.84814543   -8.0839542    531.30512  0.018533038  0.018315864            1 
 2390000   0.86682304     -8.08681    530.77792  0.018506901  0.018309862            3 
 2391000   0.86666799   -8.0604656     531.9433  0.018539778  0.018303893            3 
 2392000   0.85867281     -8.07518     531.1071  0.018502895  0.018297959            1 
 2393000   0.86311943   -8.0734607     530.9261   0.01848886  0.018291982            1 
 2394000   0.86592973   -8.0813181    532.30569  0.018529159  0.018286071            3 
 2395000   0.87705279   -8.0470952    533.27909  0.018555292  0.018280183            1 
 2396000   0.86718307   -8.0799529     531.9895  0.018502695  0.018274279            1 
 2397000   0.90148005   -8.0980261    530.90446  0.018457254  0.018268411            1 
 2398000   0.88244851   -8.1150556    531.69192  0.018476923  0.018262517            1 
 2399000   0.89634079   -8.1153666    532.10166  0.018483453  0.018256612            2 
 2400000   0.85486191   -8.0915494    532.91817  0.018504103  0.018250697            3 
 2401000   0.87674213   -8.0775859    533.13639   0.01850397   0.01824482            2 
 2402000   0.85248073   -8.0663405    533.19971  0.018498464  0.018238928            2 
 2403000   0.87831131   -8.0804317    532.88847  0.018479972  0.018233069            1 
 2404000   0.86108375   -8.0928942    533.75922  0.018502469  0.018227208            2 
 2405000   0.85449024   -8.0749838    533.00351   0.01846859  0.018221331            5 
 2406000   0.84410427   -8.0219099    533.48373  0.018477547  0.018215493            2 
 2407000    0.8802558    -8.081225    535.19048   0.01852896   0.01820964            1 
 2408000   0.85716514   -8.0889725    533.11056  0.018449286  0.018203783            2 
 2409000   0.84897507   -8.1150601    532.61498  0.018424484  0.018197872            2 
 2410000   0.86492039   -8.0927733    533.12058  0.018434322  0.018191993            1 
 2411000   0.85741798    -8.073245    533.71193  0.018447115  0.018186183            4 
 2412000   0.86275756   -8.0954385    533.26753  0.018424113  0.018180384            7 
 2413000   0.87138007   -8.0890828       533.73  0.018432449  0.018174598            4 
 2414000   0.85778816   -8.0989043     534.2222  0.018441805  0.018168793            3 
 2415000   0.85958705   -8.0832983    535.03726  0.018462293  0.018162946            2 
 2416000   0.87265473   -8.1065051    533.52261  0.018402408  0.018157091            3 
 2417000   0.86962385   -8.0554459    535.05507   0.01844763  0.018151299           11 
 2418000   0.86493781   -8.0792411    534.84366  0.018432715  0.018145532            4 
 2419000   0.87368199   -8.0954371    534.57261  0.018415757   0.01813977            2 
 2420000   0.86423618   -8.0498271    534.80027  0.018415987  0.018134016            4 
 2421000   0.85677809   -8.0841199    535.00052  0.018415273  0.018128289            1 
 2422000     0.861533   -8.1058344    534.82619  0.018401672  0.018122517            4 
 2423000   0.87096694    -8.079906    535.97097  0.018433449  0.018116751            2 
 2424000   0.88380536   -8.0362355    537.63127  0.018482923  0.018111075            3 
 2425000   0.86445917   -8.0847933    535.31762  0.018395795  0.018105371            6 
 2426000   0.86706526   -8.1058874    534.97115  0.018376311   0.01809959            2 
 2427000   0.85130649    -8.053426    535.55405  0.018388753  0.018093821            2 
 2428000   0.86552012   -8.1003832    535.58805  0.018382347  0.018088035            3 
 2429000   0.84653343   -8.1172107    535.48245  0.018371156  0.018082272            2 
 2430000   0.87274006   -8.0933715    536.33268  0.018392753  0.018076526            2 
 2431000   0.86161898   -8.1074826    536.23435  0.018381817  0.018070787            2 
 2432000   0.83582521   -8.1095022     535.3603  0.018344309  0.018065015            3 
 2433000   0.84993316    -8.082083    536.51958  0.018376476  0.018059225            1 
 2434000   0.87010792   -8.1133625    534.92146  0.018314211  0.018053438            2 
 2435000   0.86336463   -8.1072668    535.28826  0.018319242  0.018047735            3 
 2436000    0.8615965   -8.0738908    535.20226   0.01830878  0.018042001            3 
 2437000   0.87966502   -8.0858825     536.4728  0.018344714  0.018036261            1 
 2438000    0.8582245   -8.0693157    536.77182   0.01834741  0.018030481            1 
 2439000   0.86154451   -8.1230595    534.82692  0.018273436  0.018024717            1 
 2440000   0.84332348   -8.1170784    536.29994  0.018316255   0.01801895            3 
 2441000   0.87699493   -8.0799937    538.75986   0.01839273  0.018013221            4 
 2442000   0.85918062   -8.0849042    537.49518  0.018342041  0.018007472            2 
 2443000   0.85823738   -8.0851443    537.31252  0.018328303  0.018001776            2 
 2444000   0.86799556   -8.1209399    537.30748  0.018320632  0.017996113            1 
 2445000   0.85997679   -8.0717358    537.93922   0.01833467  0.017990418            3 
 2446000   0.86278273   -8.0992026    536.29332    0.0182711   0.01798473            1 
 2447000   0.84594955   -8.1226294    536.54483  0.018272198  0.017979032            4 
 2448000   0.84989206    -8.104925    536.53522  0.018264407  0.017973333            2 
 2449000   0.87358549   -8.0733893    537.21656  0.018280133  0.017967622            3 
 2450000   0.86899452   -8.1132439    537.29559   0.01827536  0.017961915            1 
 2451000   0.85410457   -8.1154957    537.23269  0.018265765  0.017956157            2 
 2452000   0.85484942   -8.0816113    538.34229  0.018296027  0.017950461            5 
 2453000   0.84497956   -8.0766461    538.17107  0.018282751  0.017944746            3 
 2454000   0.86400718   -8.0758502     537.5028  0.018252608  0.017939033            1 
 2455000   0.88406143   -8.1077393    537.85186  0.018257022  0.017933326            2 
 2456000   0.84376119   -8.1044823    537.17976  0.018226783  0.017927678            1 
 2457000   0.84726758   -8.0997415    537.30345   0.01822356  0.017922041            4 
 2458000   0.85282585   -8.1107592    537.43451   0.01822059  0.017916383            1 
 2459000   0.85097531   -8.0990396    539.18902  0.018272639  0.017910725            7 
 2460000   0.85842215   -8.1375226    538.75715  0.018250581  0.017905116            3 
 2461000   0.85059945    -8.084449    539.01322  0.018251836  0.017899495            2 
 2462000   0.88066652    -8.094944    538.17347  0.018215999  0.017893871            2 
 2463000   0.86088075   -8.1361846    537.89767  0.018199271  0.017888238            2 
 2464000   0.87630377   -8.0870412    538.94502  0.018227307  0.017882586            1 
 2465000   0.84585665   -8.1062876    538.20872  0.018195021  0.017876957            3 
 2466000   0.84992172   -8.1000789    539.30148   0.01822457  0.017871335            3 
 2467000   0.85563566   -8.0827916    537.43581  0.018154162  0.017865721            4 
 2468000   0.84793105   -8.1198791    538.28965  0.018175637  0.017860098            6 
 2469000   0.84691352   -8.0948372     538.3591  0.018170619   0.01785444            2 
 2470000   0.86480368   -8.1316741     538.0349  0.018152324  0.017848797            2 
 2471000   0.86655735   -8.1005697     537.1493  0.018115112  0.017843145            2 
 2472000   0.85562976   -8.0869365    539.21993  0.018177587  0.017837491            2 
 2473000   0.85739808   -8.0917904    538.05046  0.018130828  0.017831865            2 
 2474000   0.86080904   -8.1336254    538.35068  0.018133612  0.017826218            3 
 2475000   0.86669233   -8.1255497    538.60812  0.018134954  0.017820527            4 
 2476000   0.85694781   -8.1233758     539.0293  0.018141805  0.017814825            4 
 2477000   0.84331774    -8.097889    540.71719  0.018191266  0.017809144            2 
 2478000   0.85767374   -8.1084285    538.89721   0.01812272   0.01780346            2 
 2479000   0.84958545   -8.1434458    537.95398  0.018083702   0.01779777            2 
 2480000   0.86595785   -8.1351404    538.14117  0.018082701  0.017792074            3 
 2481000   0.85520071   -8.1189273    538.18627  0.018076927  0.017786388            1 
 2482000   0.84497239   -8.0847326    538.28045  0.018072806  0.017780717            3 
 2483000   0.88028658   -8.1188625    539.32983  0.018100746  0.017775058            2 
 2484000   0.85540306   -8.0983651    539.06727  0.018084651  0.017769373            1 
 2485000   0.85019696   -8.1018223    539.50598  0.018092085  0.017763685            4 
 2486000   0.84526073   -8.1209538    539.61719  0.018088536  0.017757983            2 
 2487000   0.85599772   -8.0882296    539.54594  0.018078875  0.017752293            3 
 2488000   0.83271054   -8.0781343    540.49465  0.018103385  0.017746582            2 
 2489000   0.85506607   -8.0945051    538.86574  0.018041574  0.017740915            3 
 2490000   0.86605359   -8.0713638     540.3496  0.018083989  0.017735245            2 
 2491000   0.84522551   -8.1149931     539.8806   0.01806104   0.01772959            2 
 2492000   0.84602822   -8.0870236     541.1538  0.018096369  0.017723923            4 
 2493000   0.84115084   -8.1722818    539.50453  0.018033979  0.017718255            3 
 2494000   0.86846604   -8.0951055    540.48845  0.018059625  0.017712565            2 
 2495000   0.84916669   -8.0955262    539.96185  0.018034798  0.017706906            2 
 2496000   0.86368867   -8.1005859    540.36618  0.018041072  0.017701251            3 
 2497000   0.85408533   -8.1545862    539.64134  0.018009656  0.017695616            2 
 2498000   0.84298522   -8.1250387    540.33829  0.018025697  0.017689977            2 
 2499000   0.86506365    -8.142061     540.7613   0.01803259  0.017684333            2 
 2500000   0.83243859   -8.1259665    540.64736  0.018021579  0.017678666            2 
 2501000   0.84995935   -8.0991249    540.75344  0.018017907  0.017673028            3 
 2502000   0.84102487   -8.0978623    541.41804  0.018032842  0.017667426            4 
 2503000   0.83837829    -8.101471    541.00336  0.018011831   0.01766185            4 
 2504000   0.85334526   -8.1243705    541.24829  0.018012789  0.017656247            8 
 2505000   0.84532598   -8.1134941    540.82064  0.017991372  0.017650647            3 
 2506000   0.83820353   -8.1183648    541.60788  0.018010371  0.017645051            3 
 2507000   0.85870556   -8.1065916    540.49396   0.01796616  0.017639436            4 
 2508000   0.83655747   -8.1327518    541.53856  0.017993705  0.017633806            1 
 2509000   0.85338358   -8.1252137    541.13193  0.017973028  0.017628165            4 
 2510000   0.85555398   -8.1357366    541.20141  0.017968174  0.017622545            1 
 2511000   0.86295955   -8.0983764     541.4923  0.017970672  0.017616937            3 
 2512000   0.85778209   -8.0905174    541.74815  0.017972006  0.017611352            6 
 2513000   0.85666131   -8.1227148    541.06993  0.017942364  0.017605779            3 
 2514000   0.84927638    -8.136324    542.74008  0.017990589  0.017600208            5 
 2515000   0.84487348   -8.1216291    542.40599  0.017972366  0.017594632            4 
 2516000   0.86099045   -8.1235107    541.95605   0.01795032  0.017589047            3 
 2517000   0.85511901   -8.1262231    541.38384  0.017924243  0.017583511            5 
 2518000   0.84407444   -8.1029683    543.98704  0.018003278  0.017577991            2 
 2519000   0.84159112   -8.1212802    541.83513  0.017924941  0.017572418            4 
 2520000    0.8435799   -8.1344752    541.63533  0.017911221   0.01756686            2 
 2521000   0.85590504   -8.1507993    542.40646  0.017929607   0.01756127            1 
 2522000    0.8452957   -8.1098968    542.67309  0.017931308  0.017555704            2 
 2523000   0.84892445   -8.1315988    543.79644  0.017961304  0.017550147            2 
 2524000   0.86427433   -8.1132484    543.64713  0.017949258  0.017544571            8 
 2525000   0.85472287   -8.1247738    541.56465  0.017873421  0.017539002            3 
 2526000   0.83943005   -8.1256906    542.00783  0.017880966  0.017533449            3 
 2527000   0.83602768   -8.1077231    543.54397  0.017924547  0.017527856            7 
 2528000   0.85348657   -8.1362331    542.78095  0.017892304  0.017522277            1 
 2529000   0.85726012    -8.119488    543.78857  0.017918432  0.017516683            2 
 2530000   0.84744915   -8.1192429    542.81958  0.017879433  0.017511108            1 
 2531000   0.85200211   -8.1378817    541.69479  0.017835335  0.017505509            3 
 2532000   0.84947291   -8.1714208    542.78022  0.017864015  0.017499909            7 
 2533000    0.8609702   -8.1555436    541.28462  0.017807758  0.017494293            2 
 2534000   0.85351762   -8.1924736     541.1183  0.017795261  0.017488634            6 
 2535000   0.85171093   -8.1172555    542.99563  0.017849955  0.017482996            3 
 2536000    0.8414272   -8.1392257    541.64835  0.017798645  0.017477355            2 
 2537000   0.84732002   -8.1331809    542.60113  0.017822925  0.017471712            5 
 2538000    0.8294315   -8.1498083    541.97741  0.017795423  0.017466093            2 
 2539000   0.83344646   -8.1496939    542.09914   0.01779241   0.01746044            4 
 2540000    0.8383591   -8.1080159    542.78681  0.017807966  0.017454829            2 
 2541000   0.83112313   -8.1459881    543.84514  0.017835666  0.017449234            2 
 2542000   0.84903141   -8.1083261    544.89932  0.017863209  0.017443666            2 
 2543000   0.83956584   -8.1302246    543.71832  0.017817483  0.017438086            5 
 2544000   0.85417911   -8.0850938    543.19299  0.017793271  0.017432525            1 
 2545000   0.85934743   -8.1075454    545.68063  0.017867735  0.017427003            4 
 2546000   0.87321758   -8.0930348    543.42098  0.017786756  0.017421473            2 
 2547000   0.82847806   -8.1122902    544.08112  0.017801372  0.017415927            2 
 2548000   0.85386125   -8.1194091    542.35166  0.017737823  0.017410365            2 
 2549000    0.8363832   -8.1103785    544.39938  0.017797809  0.017404806            2 
 2550000   0.84200201   -8.1625879    542.43125  0.017726511  0.017399215            5 
 2551000   0.84349821    -8.122791    541.84735  0.017700488  0.017393612            2 
 2552000   0.84759132   -8.1572926    544.42082  0.017777587  0.017388029            3 
 2553000   0.85160494   -8.1500212    544.86127     0.017785  0.017382447            6 
 2554000   0.85022587   -8.1449739    543.10161  0.017720622  0.017376888            6 
 2555000   0.85402062   -8.1162759    543.37087  0.017722468  0.017371364            1 
 2556000   0.84656363   -8.1502788    544.07014  0.017738333  0.017365819            2 
 2557000   0.83128683   -8.1426573    542.91798  0.017693846  0.017360276            4 
 2558000   0.85502271   -8.1266818    543.19531  0.017695964  0.017354725            3 
 2559000   0.83896219   -8.1173098    544.49749  0.017731454   0.01734921            3 
 2560000   0.83602007   -8.1576075    544.38292  0.017720798  0.017343652            3 
 2561000   0.84412086   -8.1741204    543.81321  0.017695341  0.017338091           11 
 2562000   0.85597052   -8.2032246    542.86233  0.017657505  0.017332507            6 
 2563000   0.82928769    -8.183617    544.51522  0.017704357  0.017326931            3 
 2564000   0.84192839   -8.1395533    545.19652  0.017719596  0.017321405            3 
 2565000   0.85219592   -8.1463945    544.06593  0.017675956  0.017315857            2 
 2566000   0.82602843    -8.152136    544.09278   0.01766994  0.017310295            6 
 2567000   0.85139882   -8.1276698    544.96795  0.017691467  0.017304741            2 
 2568000   0.83982436   -8.1650416    544.93327  0.017683452  0.017299218            2 
 2569000   0.82398667   -8.1526768    545.62417  0.017698981  0.017293711            3 
 2570000   0.84076324    -8.149235    545.43165  0.017685851  0.017288194            1 
 2571000   0.84750393   -8.1672077    545.29684  0.017674603  0.017282669            1 
 2572000   0.82966892   -8.1271212    545.18519  0.017664113  0.017277126            5 
 2573000   0.83068134   -8.1165372    545.29969  0.017660957  0.017271633            3 
 2574000   0.83170494   -8.1315104    545.29832  0.017654051  0.017266143            3 
 2575000   0.84707142    -8.162898    544.54507  0.017622818  0.017260615            3 
 2576000   0.83271613   -8.1450594    545.03851  0.017631939  0.017255087            3 
 2577000   0.83794883   -8.1211816    545.09023   0.01762677  0.017249571            1 
 2578000   0.83250012   -8.1524712    543.56915  0.017570764  0.017244047            6 
 2579000   0.85432974   -8.1307535     546.0489  0.017644077  0.017238549            5 
 2580000   0.82907478   -8.1672498     546.7673  0.017660443  0.017233084            4 
 2581000   0.83276409   -8.1529568    545.15698  0.017601607  0.017227582            3 
 2582000   0.82494209   -8.1893354    544.62684   0.01757768  0.017222086            3 
 2583000   0.84122955   -8.1799241    544.70465  0.017573385  0.017216583            1 
 2584000   0.84571042   -8.1608112     544.4337  0.017557846  0.017211039            5 
 2585000   0.82810191   -8.1558069    546.44452  0.017615878  0.017205501            8 
 2586000   0.84125904   -8.1537321    544.55543   0.01754819  0.017199941            3 
 2587000   0.84133353   -8.2215065    544.29461  0.017533005  0.017194385            3 
 2588000   0.85055276   -8.1590005    546.05891  0.017583041  0.017188855            2 
 2589000   0.83683763   -8.1648232    546.15513  0.017579346  0.017183342            2 
 2590000   0.83112307   -8.1692521    546.06947  0.017569803   0.01717782            2 
 2591000   0.84364424   -8.1567168    547.14768    0.0175977  0.017172327           11 
 2592000   0.82441417   -8.1809076    546.59274  0.017573069  0.017166875            6 
 2593000     0.848645    -8.195275    546.81476  0.017573427  0.017161392            2 
 2594000     0.836709   -8.1898728    546.38625  0.017552886  0.017155865            1 
 2595000   0.83889406   -8.1789511    546.81664  0.017559944  0.017150351            1 
 2596000   0.85907915   -8.1780867    545.14712  0.017499586  0.017144834            2 
 2597000   0.80865924   -8.1399246    546.12977   0.01752438  0.017139337            4 
 2598000   0.81170051   -8.1337447    546.86159  0.017541108  0.017133852            2 
 2599000   0.83628626   -8.1945766    545.84306  0.017501701  0.017128352            4 
 2600000   0.83364147   -8.2010133    546.11462  0.017503674  0.017122842            2 
 2601000     0.831048   -8.2150199     545.5594  0.017479156  0.017117335            2 
 2602000   0.85084438   -8.1972915    546.55159  0.017504214  0.017111843            4 
 2603000   0.84700648   -8.1458014    546.34165  0.017490769  0.017106355            5 
 2604000   0.84902206   -8.1895464     546.4024  0.017485996  0.017100873            4 
 2605000   0.81979391   -8.1521815    546.42703  0.017480071  0.017095401            1 
 2606000   0.84204889   -8.1616668    547.56593  0.017509783  0.017089924            3 
 2607000   0.83754845   -8.1399038     546.8227  0.017479309  0.017084477            2 
 2608000   0.82293938   -8.1727104    547.37268   0.01749018   0.01707903            2 
 2609000   0.83206574   -8.1733114    546.48154  0.017455013  0.017073532            4 
 2610000   0.83347887   -8.1847651     546.8889  0.017461332  0.017068041            2 
 2611000   0.83205942   -8.2042222    547.23624   0.01746573   0.01706256            3 
 2612000   0.83601811   -8.1900498    547.45477  0.017466015  0.017057051            4 
 2613000   0.83626491   -8.1788232    547.18767  0.017450812  0.017051579            1 
 2614000   0.83579844   -8.1708722    547.10484  0.017441496  0.017046152            2 
 2615000   0.83031179   -8.1749572    547.20833  0.017438124  0.017040686            2 
 2616000   0.83093202   -8.1712929    547.59906  0.017443905  0.017035246            5 
 2617000   0.84062254   -8.1352956    548.24058  0.017457667  0.017029821            4 
 2618000   0.83330997   -8.1589726    547.39228  0.017423997  0.017024373            6 
 2619000   0.82389469   -8.1802871    547.19824   0.01741117  0.017018921            5 
 2620000   0.83514797   -8.1646123    547.24797  0.017406106  0.017013442            3 
 2621000   0.84197542   -8.1836356    547.48276   0.01740693  0.017007978            4 
 2622000   0.84765243   -8.1886341    548.44833  0.017430979   0.01700252            4 
 2623000   0.81593085   -8.1898388    547.27432  0.017387035  0.016997081            6 
 2624000   0.83462024   -8.1941779    548.25843  0.017411663  0.016991606            2 
 2625000   0.83300732   -8.1889312    547.38597  0.017377332  0.016986143            4 
 2626000   0.81859195    -8.189339     547.0478  0.017359984  0.016980691            7 
 2627000   0.82830461   -8.2085826    546.85484  0.017347254  0.016975235            4 
 2628000    0.8125233   -8.1736135    547.23183  0.017352608  0.016969761            1 
 2629000   0.82973578   -8.1546825    547.92006  0.017367822  0.016964314            1 
 2630000   0.82630288    -8.209466    546.36608   0.01731198   0.01695885            3 
 2631000    0.8258108   -8.2049386    547.43143  0.017339143  0.016953374            5 
 2632000   0.81665774   -8.1969677    547.29018  0.017328083  0.016947878            4 
 2633000   0.81866436   -8.1972463    546.59805  0.017299597  0.016942379            3 
 2634000   0.81891468   -8.1926947    547.64376  0.017326112  0.016936889            1 
 2635000   0.84287615   -8.1805573    547.35272  0.017310333  0.016931399            2 
 2636000   0.83867481   -8.1941743    548.03583  0.017325361  0.016925889            3 
 2637000   0.85821057   -8.1645405     546.7936  0.017279535  0.016920403            2 
 2638000   0.82247811   -8.1585107    547.63536  0.017299575  0.016914946            6 
 2639000   0.82602886    -8.172399    549.06057  0.017338025  0.016909553            3 
 2640000   0.83237138   -8.1807559    548.81575  0.017323729  0.016904134            4 
 2641000   0.84298103   -8.1407902    549.85905   0.01735009  0.016898727            1 
 2642000   0.82375793   -8.2267121    547.74277  0.017276772  0.016893298            3 
 2643000   0.81864042   -8.1614528    549.13038  0.017313986  0.016887877            3 
 2644000   0.82185115   -8.1597883    549.31852  0.017313367  0.016882451            2 
 2645000   0.84374553   -8.1687424    549.89454   0.01732497  0.016877053            4 
 2646000   0.83687644    -8.146319    549.78536  0.017314984  0.016871687            2 
 2647000    0.8187069   -8.1398426    549.63312  0.017303649  0.016866301            1 
 2648000    0.8335787   -8.1775949     549.9934  0.017308453  0.016860887            2 
 2649000   0.82792413   -8.1596933    548.31636  0.017249162  0.016855442            6 
 2650000   0.81467949   -8.1581508    549.85509  0.017291041  0.016850023            8 
 2651000   0.82955346    -8.170453    549.78361  0.017282271  0.016844581            2 
 2652000   0.83858878   -8.1444003    549.68207  0.017272564  0.016839183            6 
 2653000   0.82756111   -8.1479608    548.71958   0.01723582  0.016833798            2 
 2654000   0.84660152   -8.1808624    549.97847  0.017268854  0.016828386            2 
 2655000   0.81796054   -8.2021301    549.62796  0.017251349  0.016822943            3 
 2656000   0.84675258   -8.1913299    548.17053  0.017199125  0.016817503            2 
 2657000    0.8310734   -8.1733997    548.23612  0.017194709  0.016812062            1 
 2658000   0.84112696   -8.1728494    548.61991  0.017200273  0.016806617            2 
 2659000   0.81747533   -8.1949781    548.86557  0.017201503  0.016801183            4 
 2660000   0.81435579    -8.181671    550.20799  0.017237092   0.01679575            1 
 2661000   0.83351437    -8.194296    548.27104  0.017169956  0.016790317            1 
 2662000   0.80998715   -8.1743649    550.24184  0.017225202  0.016784893            5 
 2663000   0.81027074   -8.2004962    548.32394  0.017158716  0.016779473            6 
 2664000   0.82921616   -8.1951224    549.19249  0.017179445  0.016774036            2 
 2665000   0.83135208   -8.2050907    550.17866  0.017203835  0.016768591            2 
 2666000   0.82663955   -8.2184735    548.69571  0.017151029  0.016763142            2 
 2667000   0.81234113   -8.2031431    548.54998  0.017140044  0.016757723            2 
 2668000   0.82266251   -8.2108023    548.36269   0.01712777   0.01675228            3 
 2669000   0.83728411   -8.2290887    549.81466  0.017166687   0.01674683            4 
 2670000   0.83201913   -8.1849202    549.53669  0.017151582  0.016741377            3 
 2671000   0.80092711   -8.1866248    550.46996  0.017174278  0.016735965            2 
 2672000   0.81448335   -8.1999606    550.74096  0.017176302  0.016730591            7 
 2673000   0.82604289   -8.1818545     550.2928  0.017155905  0.016725172            2 
 2674000   0.82916882   -8.1996469    549.81409   0.01713457  0.016719732            4 
 2675000   0.82269449   -8.1833989    551.20901   0.01717162  0.016714286            3 
 2676000   0.80650831   -8.1970992    549.88466  0.017123962  0.016708883            3 
 2677000   0.82563237   -8.1810844    548.50589  0.017074645  0.016703473            1 
 2678000   0.82834495    -8.186237    550.59676  0.017133332  0.016698096            5 
 2679000   0.82082906   -8.2051625    550.12034  0.017112117  0.016692688            2 
 2680000   0.81971997   -8.1920365    549.85962  0.017097625  0.016687295            5 
 2681000   0.82776921   -8.1902933    549.44059  0.017078223  0.016681905            2 
 2682000   0.81381378   -8.1839703    550.19136  0.017095183  0.016676494            2 
 2683000   0.81782011   -8.1718951    550.09941  0.017085955  0.016671097            2 
 2684000   0.80985338   -8.1754276    550.12036   0.01708024  0.016665693            2 
 2685000   0.82907264   -8.2030583    549.90388   0.01706716  0.016660293            2 
 2686000   0.82979222   -8.1973839    551.32463  0.017104884   0.01665488            5 
 2687000   0.82659042   -8.1603362    550.27399  0.017065934  0.016649494            3 
 2688000   0.82294458   -8.1767524    550.50658  0.017066796  0.016644077            3 
 2689000   0.82014368   -8.2152747    549.78482  0.017038082  0.016638653            2 
 2690000    0.8372742   -8.2166207    548.77216  0.017000377  0.016633215            2 
 2691000   0.83037984   -8.2080915    551.33644  0.017073468  0.016627802            2 
 2692000   0.84907528   -8.2038664    549.45798  0.017008977  0.016622335            4 
 2693000   0.81712808   -8.2498324    549.15769  0.016993368  0.016616902            1 
 2694000   0.82494635   -8.2166787    548.87036  0.016978172  0.016611435            2 
 2695000   0.82399234   -8.2466289    549.78575  0.017000178  0.016605938            2 
 2696000   0.82361789   -8.2150731    549.58351  0.016987621  0.016600449            4 
 2697000   0.81466998   -8.1982392    549.22947  0.016970383  0.016595005            2 
 2698000   0.80673061   -8.1992267    550.07109  0.016990088  0.016589604            1 
 2699000   0.80055393   -8.1750382    550.70274  0.017003296  0.016584204            2 
 2700000   0.81382547   -8.1997945    550.96434  0.017005072  0.016578829            3 
 2701000   0.82293037   -8.2219757    550.57594  0.016986793  0.016573424            5 
 2702000   0.82513324   -8.1951124    551.30198  0.017002899     0.016568            7 
 2703000   0.81140324   -8.1873338    549.84816  0.016951787   0.01656261            2 
 2704000   0.83011585   -8.1924574    549.67736  0.016940254  0.016557233            2 
 2705000   0.82164019   -8.1656535    551.22815  0.016981767  0.016551844            2 
 2706000   0.82698827   -8.2298729    550.17101  0.016942936  0.016546431            2 
 2707000   0.82214229   -8.2127809     551.4619  0.016976416  0.016541011            5 
 2708000   0.81841628   -8.1753795    550.58401  0.016943132  0.016535559            4 
 2709000   0.82173083   -8.2114297    549.21228  0.016894681  0.016530067            2 
 2710000    0.7895163   -8.2129295    549.18732  0.016887679  0.016524611            5 
 2711000   0.82443967   -8.2031522    549.67439  0.016896422  0.016519154            2 
 2712000   0.80837955   -8.2164014    549.82883  0.016894937  0.016513695            4 
 2713000   0.82139674   -8.1862621    552.20887  0.016961815  0.016508282            3 
 2714000   0.83009029   -8.2026979     549.7977  0.016881531   0.01650286            5 
 2715000   0.83954446   -8.2210706    550.32008  0.016891347  0.016497417            3 
 2716000   0.81620729   -8.2225441    549.94304  0.016873559  0.016491954            1 
 2717000   0.81329141   -8.2050316     550.1052  0.016872323  0.016486476            2 
 2718000   0.83119465   -8.2198745    549.11449   0.01683574  0.016480993            6 
 2719000   0.80350935   -8.2067209    550.56574  0.016874027    0.0164755            4 
 2720000   0.83114901   -8.2075866    549.56163   0.01683706  0.016470027            2 
 2721000    0.8075861   -8.1987429    550.24113  0.016851682  0.016464563            1 
 2722000   0.80509086    -8.218064    550.73845  0.016860717  0.016459131            6 
 2723000   0.79918783   -8.2303809    550.36778  0.016843181  0.016453699            2 
 2724000   0.81523255   -8.2281394     551.0386   0.01685752  0.016448286            2 
 2725000   0.80410211   -8.2087889    551.58327   0.01686799  0.016442849            3 
 2726000   0.82666002   -8.2430812    551.09859  0.016846985  0.016437421            2 
 2727000   0.79996566   -8.2150286    549.70688  0.016798279  0.016431976            2 
 2728000   0.82001336   -8.2155093    550.94511  0.016829946   0.01642656            5 
 2729000   0.82876421   -8.2137201    551.27572  0.016833874  0.016421145            2 
 2730000   0.83937146   -8.2250724    550.80527  0.016813348  0.016415708            2 
 2731000   0.82145858   -8.2364457    549.99307  0.016782408  0.016410287            2 
 2732000   0.80934596    -8.219028    550.28061  0.016785036  0.016404847            4 
 2733000   0.80733914   -8.2246881    552.28201   0.01683992  0.016399421            2 
 2734000   0.81399188   -8.2411699    551.35997  0.016805656  0.016393995            6 
 2735000   0.81143745   -8.2266143    551.77241  0.016812078   0.01638857            1 
 2736000   0.80776636   -8.2203398    551.74134  0.016804987  0.016383142            5 
 2737000   0.78849063   -8.2260546    550.58962  0.016763781  0.016377714           10 
 2738000   0.81748774   -8.2205142    552.80542  0.016825098  0.016372284            3 
 2739000   0.82956191   -8.2104973     550.7445  0.016756252  0.016366858            2 
 2740000   0.82111214   -8.1704142    550.97915  0.016757273  0.016361454            1 
 2741000   0.82323533   -8.2260654     550.1556  0.016726122  0.016356041            3 
 2742000    0.8039741   -8.2205588     551.4559   0.01675954   0.01635061            4 
 2743000   0.81625579    -8.218287    552.96024  0.016799132  0.016345226            4 
 2744000    0.8112586   -8.2371689    550.29885  0.016712186   0.01633983            3 
 2745000   0.79903813   -8.2370658    549.78074  0.016690369  0.016334431            7 
 2746000   0.81870124   -8.2243886     551.9097  0.016748898  0.016329001            2 
 2747000   0.81275505   -8.2403976    552.56307  0.016762622  0.016323579            3 
 2748000   0.82230051   -8.2156155    552.33954  0.016749743  0.016318191            3 
 2749000   0.81422794   -8.2552013    551.48379  0.016717709   0.01631279            3 
 2750000   0.81040705   -8.2243046    551.91799  0.016724788  0.016307373            2 
 2751000   0.79324078   -8.2211232     551.2504  0.016698485  0.016301978            3 
 2752000   0.81180186   -8.2250486    551.80334  0.016709161  0.016296603            3 
 2753000   0.79046036    -8.228252    551.41754  0.016691414  0.016291208            6 
 2754000   0.81455165   -8.2585997    551.56289  0.016689751   0.01628581            7 
 2755000   0.78895086   -8.2375181    551.47287   0.01668097  0.016280417            5 
 2756000   0.79407401   -8.2420545     551.9079  0.016688072  0.016275004            3 
 2757000   0.82661753   -8.1904054    551.94728  0.016683209  0.016269613            2 
 2758000   0.81080383   -8.2364345    552.01567  0.016679226   0.01626423            2 
 2759000   0.79197078    -8.230643    551.67598  0.016662921  0.016258824            1 
 2760000   0.80867437   -8.2109695    552.13552  0.016670758  0.016253406            2 
 2761000   0.79712083   -8.2717457    551.14556  0.016634841  0.016247975            4 
 2762000   0.79179258   -8.2635116    551.55324  0.016641119  0.016242536            2 
 2763000    0.8200397   -8.2588735    552.53027  0.016664564  0.016237116            2 
 2764000   0.81177888   -8.2465924     550.9161  0.016609868  0.016231696            1 
 2765000   0.80613006   -8.2118028    551.90457  0.016633652  0.016226287            3 
 2766000     0.805887   -8.2136375    552.23679  0.016637647  0.016220891            5 
 2767000   0.80769246   -8.2265781    551.54344  0.016610753  0.016215542           10 
 2768000   0.80092414   -8.2379199    552.95887  0.016647365  0.016210172            8 
 2769000   0.79555222   -8.2058974    552.98523  0.016642146  0.016204832            5 
 2770000   0.80894657   -8.1946175    552.58636  0.016624139   0.01619951            4 
 2771000   0.81794102    -8.229185    551.84252  0.016595769  0.016194177            2 
 2772000   0.82219463   -8.2215219    553.11715  0.016628101   0.01618882            2 
 2773000   0.81900664   -8.2080249    553.23586  0.016625672   0.01618346            2 
 2774000   0.81227302   -8.2078581    553.22662  0.016619401  0.016178101            4 
 2775000   0.79640266   -8.2615798    550.90317  0.016543639  0.016172721            7 
 2776000   0.79121483   -8.2289299    551.72502   0.01656235  0.016167365            4 
 2777000   0.81605248   -8.2360276    552.89276  0.016591428   0.01616202            1 
 2778000   0.80422071   -8.2784188    551.43684  0.016541782  0.016156652            4 
 2779000   0.80202893   -8.2535082    551.44783  0.016536159  0.016151279            3 
 2780000   0.81782801   -8.2213602    551.64561  0.016536139  0.016145889            5 
 2781000   0.80804078   -8.2438856    553.23939  0.016577951  0.016140523            3 
 2782000   0.80808865   -8.2467318    553.40678  0.016577006  0.016135156            7 
 2783000   0.82050216    -8.226864    552.13439   0.01653295    0.0161298            3 
 2784000   0.79558903   -8.2094452    552.84906  0.016548403  0.016124442            7 
 2785000   0.79917484   -8.2383448    552.34401  0.016527349  0.016119091            6 
 2786000   0.82821838   -8.2430133    552.99364  0.016540848  0.016113721            3 
 2787000   0.82267822    -8.215796    553.68897  0.016555704  0.016108353            5 
 2788000   0.79333259   -8.2097937    553.06428  0.016531094  0.016103015            2 
 2789000   0.82163208   -8.2376167    552.46099  0.016507141  0.016097656            2 
 2790000   0.81125857   -8.2428433    552.39974  0.016499395  0.016092307            2 
 2791000   0.79607257   -8.2213688    553.22616  0.016518159  0.016086948            1 
 2792000   0.79320579   -8.1908242    554.29073  0.016544017  0.016081646            3 
 2793000   0.80709516   -8.2365962     552.7647  0.016492562  0.016076343            3 
 2794000   0.80873725   -8.2310595    552.54268  0.016480037  0.016071007            4 
 2795000   0.80350191   -8.2178328     555.3895  0.016559019  0.016065671            2 
 2796000   0.81927009   -8.2332792     554.3126     0.016521  0.016060335            2 
 2797000   0.80124547   -8.2458534    551.93311  0.016444199  0.016054997            6 
 2798000   0.80102673   -8.2425957    552.24119  0.016447498  0.016049642            2 
 2799000   0.78800163   -8.2725707    552.23059  0.016441306   0.01604429            2 
 2800000   0.79815412   -8.2661941    552.14216  0.016432802  0.016038937            2 
 2801000   0.82298471   -8.2210378    553.91081  0.016479555  0.016033605            3 
 2802000   0.80965207    -8.248943    553.14128  0.016450788  0.016028286            2 
 2803000   0.82381228   -8.2230636    554.80445  0.016494365  0.016022974            3 
 2804000   0.79702213   -8.2603384    553.49873  0.016449677  0.016017665            3 
 2805000   0.79887224   -8.2277846    553.54449  0.016445172  0.016012352            3 
 2806000   0.81485253   -8.2449506    555.27087  0.016490582  0.016007044            2 
 2807000   0.79677076   -8.2203286    554.76298  0.016469629  0.016001771            4 
 2808000    0.7950156   -8.2671175    554.14474  0.016445416  0.015996495            3 
 2809000   0.80073228   -8.1995335    553.97196  0.016434436  0.015991202            3 
 2810000   0.79794756    -8.245169    553.12541  0.016403482  0.015985904            4 
 2811000   0.80493846   -8.2318175    554.98386  0.016452741  0.015980576            3 
 2812000   0.80210758   -8.2546475    554.49105  0.016432286  0.015975292            3 
 2813000   0.81015071   -8.2686685    554.25116  0.016419338  0.015969992            3 
 2814000   0.80458894   -8.2382887    554.80489  0.016429901  0.015964678            3 
 2815000   0.80585353   -8.2624413    553.69803  0.016391298  0.015959369            5 
 2816000   0.78698821   -8.2650622    553.96505  0.016393379   0.01595403            4 
 2817000   0.79813549   -8.2593326    554.47392  0.016402613  0.015948724            3 
 2818000   0.79722188   -8.2368606    555.18234  0.016417741  0.015943424            2 
 2819000   0.81569974   -8.2355577    554.64206  0.016395946   0.01593814            3 
 2820000   0.79406214   -8.2664115    554.32716  0.016380826  0.015932845            1 
 2821000   0.80285673   -8.2525927    554.43264  0.016378135  0.015927537            2 
 2822000   0.80317429   -8.2419158    554.02491  0.016360292   0.01592224            3 
 2823000   0.79792825   -8.2398108    555.05211  0.016384819  0.015916926            2 
 2824000   0.78703132   -8.2712219    554.08473   0.01635047  0.015911608            2 
 2825000   0.78442437   -8.2640493    552.81552  0.016307242  0.015906288           10 
 2826000   0.80093978   -8.2838735    552.72917  0.016298926  0.015900937            2 
 2827000   0.79846477   -8.2406909    554.81392  0.016354614  0.015895615            3 
 2828000   0.79638547   -8.2680502    553.04004  0.016296559  0.015890305            4 
 2829000   0.78876253   -8.2848904    553.53385  0.016305345  0.015885003            3 
 2830000   0.79278474   -8.2761963    552.80303  0.016278063  0.015879688            4 
 2831000   0.82306822   -8.2774618    555.09642  0.016339822  0.015874343            3 
 2832000   0.79388883   -8.2907894    553.99792  0.016301728  0.015869037            1 
 2833000   0.78223446    -8.253035    553.80136  0.016290192  0.015863742            2 
 2834000    0.7980103   -8.2765275    554.51935  0.016305556  0.015858475            3 
 2835000   0.80619375   -8.2662884    555.88428  0.016339926  0.015853202            2 
 2836000   0.80912183   -8.2197278    554.51775   0.01629401  0.015847903            3 
 2837000   0.80124985   -8.2398353    554.84006  0.016297734   0.01584258            2 
 2838000   0.80529903   -8.2281731    554.85807   0.01629252   0.01583731            3 
 2839000   0.80336127    -8.252527    554.28695  0.016270017  0.015832047            5 
 2840000   0.79275411   -8.2459686    554.67509  0.016275678  0.015826776            5 
 2841000   0.80621486   -8.2733693    555.83449  0.016303957  0.015821485            2 
 2842000   0.78444783   -8.2624483    554.42901  0.016257008  0.015816209            1 
 2843000    0.8053253    -8.272458    554.35311  0.016249065  0.015810931            3 
 2844000   0.78153185   -8.2715394    554.22693  0.016239654  0.015805634            3 
 2845000   0.77236315   -8.2630212    554.84028  0.016251912  0.015800335            2 
 2846000   0.77232824   -8.2637998    555.62426  0.016269157  0.015795064            4 
 2847000   0.81687997   -8.2527958    555.74373   0.01626694  0.015789772            2 
 2848000   0.78642934   -8.2786047    554.55289  0.016226384  0.015784487            3 
 2849000   0.78778496   -8.2542708    555.30824  0.016242782  0.015779188            2 
 2850000   0.80658909   -8.2502219     554.5837  0.016215898  0.015773912            2 
 2851000   0.79394009   -8.2833886    554.28283  0.016201416   0.01576863            4 
 2852000   0.78364033   -8.3039908    553.41122  0.016170267  0.015763329            1 
 2853000   0.78999451   -8.2624323    555.69459  0.016231294  0.015758018            1 
 2854000   0.79735456   -8.2755445     554.9036  0.016202511  0.015752721            2 
 2855000   0.78508945   -8.2627042    555.61978   0.01621774  0.015747445            6 
 2856000   0.80612256   -8.2575007    555.04125  0.016195181  0.015742146            4 
 2857000   0.80076858   -8.2671101    555.04954  0.016189754  0.015736856            2 
 2858000   0.79030806   -8.2527261    556.04968  0.016213252  0.015731575            4 
 2859000   0.78207264   -8.2826965    555.23015  0.016183693  0.015726307            3 
 2860000   0.79973298   -8.2765633    555.13498  0.016175262  0.015721046            3 
 2861000   0.77649738   -8.2727156     554.8565  0.016161496   0.01571575            1 
 2862000   0.79573806   -8.2825884    554.15174  0.016135329  0.015710455            2 
 2863000   0.80232223   -8.2707277    555.22281  0.016160869  0.015705172            3 
 2864000    0.7939375   -8.2759126    554.43763   0.01613238  0.015699933            5 
 2865000   0.78373972    -8.240703      556.356  0.016182548  0.015694699            2 
 2866000   0.79463853   -8.2659895    555.42856  0.016149935  0.015689458            3 
 2867000   0.77570579   -8.2534535    556.56692   0.01617739  0.015684198            4 
 2868000   0.81200622   -8.2874442    554.66187  0.016116395  0.015678946            9 
 2869000   0.77989191   -8.2724898    555.17126  0.016125574  0.015673661            7 
 2870000    0.7958422    -8.250972    555.93558  0.016142148  0.015668392           11 
 2871000   0.78836749   -8.2942539    555.40257  0.016121055  0.015663118            8 
 2872000   0.79515292   -8.3021193    554.00957  0.016075022  0.015657826            5 
 2873000   0.79387832   -8.3100397    555.29074  0.016106588  0.015652542            2 
 2874000   0.79703039   -8.2922498    555.70234  0.016112919  0.015647263            3 
 2875000   0.78189603   -8.3155915    556.09181  0.016118603  0.015641991            5 
 2876000   0.78398213   -8.2823772    556.27853  0.016118409  0.015636712            3 
 2877000   0.78597221    -8.274089     555.9967  0.016104643  0.015631459            4 
 2878000   0.78471733   -8.2922061    556.61712  0.016117012  0.015626206            3 
 2879000   0.78827901   -8.2788498    555.83852  0.016088877  0.015620965            2 
 2880000   0.80481446     -8.28455    555.20662  0.016065006  0.015615726            3 
 2881000   0.77352589   -8.2921782      555.567  0.016069854  0.015610448            2 
 2882000   0.77679218   -8.2902009    554.39597  0.016030418  0.015605186            4 
 2883000   0.79470856   -8.2673103    555.53562  0.016057799  0.015599915            2 
 2884000   0.79177929   -8.2719033    555.78702  0.016059496  0.015594671            4 
 2885000   0.78170464   -8.2752603    554.91528  0.016028749  0.015589449            2 
 2886000   0.79839072   -8.2748182    556.93271  0.016081448  0.015584238            8 
 2887000   0.78632886   -8.2681448    556.18857  0.016054398  0.015579013            3 
 2888000   0.78113342   -8.3056129     555.3963  0.016025978  0.015573781            3 
 2889000   0.78457522   -8.2828171    554.97965  0.016008413  0.015568535            5 
 2890000   0.79439853   -8.2997948    555.78545  0.016026109  0.015563311            4 
 2891000   0.77906236   -8.2750158    556.27534  0.016034686  0.015558101            5 
 2892000    0.7941622   -8.2683761    557.16593  0.016054804  0.015552893            3 
 2893000    0.7859493   -8.2603592    556.58915  0.016032641   0.01554768            5 
 2894000   0.79089601   -8.2921079    555.91606  0.016007719  0.015542451            4 
 2895000   0.77382175   -8.2844588    556.39974  0.016016112  0.015537213            4 
 2896000   0.79399388   -8.3128539    555.20703  0.015976261  0.015531976            1 
 2897000   0.77585115   -8.3107464    556.44641  0.016006398  0.015526743            3 
 2898000   0.78942627   -8.3046171    557.07064  0.016018824  0.015521523            3 
 2899000   0.79329924   -8.2922968    554.75238  0.015946659  0.015516282            3 
 2900000   0.79916574   -8.3268705    554.79756  0.015942459  0.015511053            3 
 2901000   0.79248302   -8.2725914    555.94007  0.015969782  0.015505814            5 
 2902000   0.78544236   -8.2741724    557.32617  0.016004082  0.015500596            7 
 2903000   0.76711063   -8.2963992    556.05945  0.015962207  0.015495352            3 
 2904000   0.78117323   -8.2690771    556.56234  0.015971142  0.015490126            5 
 2905000   0.78389516   -8.3001914    554.79493  0.015914944  0.015484879            4 
 2906000   0.78685937   -8.3088512    555.18407  0.015920626  0.015479644            2 
 2907000   0.78466453   -8.3093838    554.90988  0.015907289  0.015474402            2 
 2908000   0.79538371    -8.291843     555.3979  0.015915804  0.015469171            2 
 2909000   0.79071539    -8.282937    555.41501  0.015910823  0.015463927            2 
 2910000   0.79245313   -8.3086666    555.31284   0.01590243  0.015458701            2 
 2911000   0.76905818   -8.3046731    555.94656  0.015915108  0.015453482            4 
 2912000   0.79263027   -8.2713903    556.21697  0.015917381  0.015448263            2 
 2913000   0.77325644    -8.300159    556.10596  0.015908741  0.015443044            3 
 2914000   0.77647468   -8.2978096    556.09291  0.015902909  0.015437807            4 
 2915000    0.7842792    -8.317094    556.18149  0.015899985  0.015432565            7 
 2916000   0.78625004   -8.3467941    555.23442  0.015867468  0.015427292           12 
 2917000   0.77951407    -8.279794    556.41498  0.015895754  0.015422023            3 
 2918000   0.79466921   -8.3287619    556.67163  0.015897636  0.015416773            2 
 2919000     0.773523   -8.3401753    555.66258  0.015863383   0.01541152            3 
 2920000    0.8009374   -8.3226037    556.24028  0.015874437  0.015406259            3 
 2921000   0.78989793   -8.3295169    555.85657  0.015858056     0.015401            2 
 2922000    0.7959506   -8.3214271    555.95172  0.015855342  0.015395728            5 
 2923000   0.78465323   -8.3284776    555.79623  0.015845485  0.015390461            4 
 2924000   0.78803075   -8.3355508    555.79482  0.015840026  0.015385203            2 
 2925000   0.78431129   -8.3336361    557.27973  0.015876915  0.015379953            2 
 2926000   0.77478969   -8.3086088    555.19874  0.015812222  0.015374714            2 
 2927000   0.76893385   -8.3155532    555.23655  0.015807896  0.015369491            4 
 2928000    0.8054084   -8.3212113    556.26522  0.015831774   0.01536425            3 
 2929000   0.76516749   -8.3231555    556.78973  0.015841292  0.015359022            1 
 2930000   0.79821898   -8.3080784    557.69901  0.015861747  0.015353799            3 
 2931000   0.77462424   -8.3011637    557.17129  0.015841331  0.015348601            2 
 2932000   0.77889488   -8.2921093    556.79341  0.015825188  0.015343378            3 
 2933000   0.78929011   -8.3170748    556.48162  0.015810934  0.015338158            3 
 2934000   0.79695127   -8.3314189    555.22002  0.015769712  0.015332908            2 
 2935000   0.78194085    -8.344665    555.62582  0.015775861  0.015327682            5 
 2936000   0.78317792   -8.3273719    556.69771  0.015800911  0.015322457            4 
 2937000   0.78960896   -8.3109736    556.82313   0.01579909  0.015317219            2 
 2938000    0.7867904     -8.28229    557.39624  0.015809968  0.015312007            5 
 2939000   0.78452838   -8.2973062    555.03139  0.015737535    0.0153068            1 
 2940000   0.78424496   -8.3253718    555.48739  0.015745108  0.015301575            5 
 2941000   0.78046197   -8.3255337    555.82957  0.015749449  0.015296344            2 
 2942000   0.78214156   -8.3454554    554.94822  0.015719132  0.015291115            3 
 2943000    0.7738241   -8.3327689    555.94456  0.015742003  0.015285881            3 
 2944000   0.76631835   -8.3209832    556.68307   0.01575756  0.015280648            3 
 2945000   0.77071878    -8.324418    557.24115  0.015768001  0.015275428            6 
 2946000   0.79679908   -8.3457195    555.23983  0.015706037  0.015270205            3 
 2947000   0.78856785   -8.3209603    554.26064  0.015673019  0.015264964            4 
 2948000   0.80964043   -8.3389707    555.35537  0.015698648  0.015259751            4 
 2949000   0.78989487    -8.334792     555.1823  0.015688434  0.015254529            2 
 2950000   0.78300818    -8.308303    556.17402  0.015711131  0.015249291            3 
 2951000   0.77775663   -8.3830834    554.87553  0.015669138  0.015244041            2 
 2952000   0.78216007   -8.3275815     555.3737  0.015677894   0.01523881            3 
 2953000   0.81477321   -8.3033142    557.08314  0.015720825  0.015233618            3 
 2954000   0.75700531   -8.3387952    556.03691  0.015685988  0.015228418            3 
 2955000   0.77160398   -8.3358759    556.16435  0.015684274  0.015223207            3 
 2956000   0.76432353   -8.3263983    557.01308  0.015702895  0.015218008            3 
 2957000   0.78016413   -8.3321177    555.86938  0.015665353  0.015212811            2 
 2958000   0.78261003   -8.3048338    556.34933  0.015673578  0.015207613            3 
 2959000   0.78485616   -8.3450595    556.10681  0.015661451  0.015202426            7 
 2960000   0.77208728   -8.3502624    555.60361  0.015641994  0.015197211            2 
 2961000   0.78788251   -8.3727696    555.34135   0.01562933  0.015191992           11 
 2962000   0.78027728   -8.3740996     554.8468  0.015610139  0.015186763            4 
 2963000   0.76329901   -8.3342192     556.6041  0.015654295  0.015181561            1 
 2964000   0.76884733   -8.2949812    558.18408  0.015693434   0.01517639            2 
 2965000   0.79976707     -8.34347    556.17573  0.015631696  0.015171213            2 
 2966000   0.77855082   -8.3202276    557.39471  0.015660674  0.015166025            2 
 2967000   0.78006201   -8.3262759    556.45482  0.015628997  0.015160849            4 
 2968000   0.77418265   -8.3409369    556.06924  0.015612906  0.015155631            4 
 2969000   0.79052806   -8.3401989    556.56858  0.015621662  0.015150416            2 
 2970000    0.7559167   -8.3469329    556.31839  0.015609382  0.015145198            3 
 2971000   0.77959127    -8.361593    556.14459  0.015599254  0.015139993            2 
 2972000   0.76880107   -8.3233043    556.56064  0.015605671  0.015134769            4 
 2973000   0.77714383   -8.3064109    556.94989  0.015611332  0.015129557            9 
 2974000   0.78236046   -8.3341132    556.87174  0.015603893  0.015124345            1 
 2975000   0.79536421   -8.3481612    556.24198  0.015581008  0.015119139            2 
 2976000   0.78582782   -8.3345213    555.09979  0.015543789  0.015113929            1 
 2977000    0.7721844   -8.3182782    556.66765  0.015582456  0.015108733            3 
 2978000   0.78213529   -8.3455911    555.57066  0.015546526  0.015103534            5 
 2979000   0.77205419   -8.3181488    557.02603  0.015582019  0.015098346            4 
 2980000   0.79515351   -8.3288381    556.08916  0.015550592  0.015093166            4 
 2981000   0.77874701   -8.3701194    555.28069  0.015522774  0.015087971            2 
 2982000   0.77988331   -8.3458851    556.25143  0.015544697  0.015082763            2 
 2983000   0.78151155   -8.3297924    556.59722  0.015549146  0.015077578            2 
 2984000   0.76199586   -8.3341138    556.06894  0.015529182  0.015072384            3 
 2985000   0.76884994   -8.3202295    556.88427  0.015546741  0.015067183            3 
 2986000    0.7663797   -8.3524255    556.14785  0.015520983  0.015061988            4 
 2987000   0.78804419    -8.334757    558.25365  0.015574536  0.015056802            3 
 2988000   0.77581549    -8.366363    556.54056  0.015521546  0.015051617            3 
 2989000   0.75891732   -8.3262318    556.44223  0.015513612  0.015046416            2 
 2990000    0.7708723   -8.3453088     556.2013  0.015501708  0.015041221            3 
 2991000   0.75677405   -8.3770566    556.10803  0.015493927  0.015036006            3 
 2992000   0.76924898   -8.3408825    557.09279  0.015516176  0.015030792            3 
 2993000   0.75252462   -8.3605882    556.28532   0.01548851  0.015025576            2 
 2994000   0.77177623   -8.3681304    556.72165  0.015495481  0.015020376            3 
 2995000    0.7617571   -8.3504813    556.76489  0.015491511  0.015015191            4 
 2996000   0.80119723   -8.3367889     557.5022  0.015506848  0.015009996            5 
 2997000   0.77396804   -8.3341182    558.06273   0.01551726  0.015004824            1 
 2998000   0.77599461   -8.3537548       557.26  0.015489771  0.014999641            4 
 2999000   0.76198316   -8.3753792    557.35108  0.015487137  0.014994436            2 
 3000000   0.77582153   -8.3872474    555.12791   0.01542022  0.014989224            4 
 3001000   0.77576746   -8.3778306    555.92744  0.015437283  0.014984028            2 
 3002000   0.76501898   -8.3424077    556.74615  0.015454867   0.01497884            4 
 3003000   0.77337383   -8.3628365    555.46164  0.015414076  0.014973661            2 
 3004000   0.76138855   -8.3537291    557.31078  0.015460241  0.014968477            3 
 3005000   0.76821136   -8.3926161    556.10722   0.01542172  0.014963288            5 
 3006000   0.78347048    -8.363083    556.03876  0.015414692  0.014958094            2 
 3007000   0.77270511   -8.3412822    557.27535  0.015443835  0.014952928            4 
 3008000   0.77799962   -8.3358855    557.56293  0.015446668  0.014947749            1 
 3009000   0.78124151   -8.3516023    557.30259  0.015434325  0.014942579            1 
 3010000   0.75413935   -8.3678652    556.56966  0.015408905  0.014937411            1 
 3011000    0.7845718   -8.3397172    557.62345  0.015432953  0.014932261            2 
 3012000   0.78034081   -8.3618966    558.36626   0.01544838  0.014927126            3 
 3013000    0.7758606   -8.3768533     556.3747  0.015388171  0.014921966            2 
 3014000    0.7549929   -8.3679752    557.76364  0.015421468  0.014916796            2 
 3015000   0.77692625   -8.3869178    556.87411  0.015391766  0.014911622            3 
 3016000   0.75576361   -8.3625622    556.47066  0.015375516  0.014906436            2 
 3017000   0.76923609   -8.3724284    557.33454  0.015394281  0.014901259            5 
 3018000   0.77882281   -8.3834845    556.66348  0.015370651  0.014896083            3 
 3019000   0.78103473   -8.3700775    556.94728  0.015373393  0.014890913            1 
 3020000   0.76060902   -8.3451794    556.59513  0.015358585  0.014885739            6 
 3021000    0.7659689   -8.3611952    556.67857  0.015355803  0.014880554            3 
 3022000   0.75870349   -8.3388498    557.52792  0.015374143  0.014875399            5 
 3023000   0.76768253   -8.3528787    556.55649  0.015342278  0.014870245            3 
 3024000   0.78670019   -8.3473266    556.81169  0.015344237  0.014865102            2 
 3025000   0.76783982   -8.3776361    556.58748  0.015332989  0.014859956            2 
 3026000      0.75405   -8.3569593    556.23385  0.015318183    0.0148548            2 
 3027000   0.76786259   -8.3345153    558.44888  0.015374102  0.014849654            6 
 3028000   0.77548916    -8.359295      556.656  0.015319683  0.014844531            1 
 3029000   0.76708633     -8.32129    557.82153  0.015346691  0.014839395            3 
 3030000   0.74796117    -8.338324     558.7232  0.015366425  0.014834266            1 
 3031000   0.77926111   -8.3600159    557.38897  0.015324672  0.014829146            1 
 3032000   0.76979989   -8.3721199    558.76804  0.015357521  0.014824016            4 
 3033000   0.78262083   -8.3827873    557.98898  0.015331052  0.014818871            3 
 3034000   0.75830722   -8.3357104    558.06423  0.015328066  0.014813736            3 
 3035000   0.77548087   -8.3309474    558.60828  0.015337954  0.014808617            2 
 3036000   0.75341224   -8.3827823    557.31861  0.015297502  0.014803503            2 
 3037000   0.74978045   -8.3782012    557.40049  0.015294712  0.014798382            2 
 3038000   0.76854737   -8.3810008    557.39727  0.015289589  0.014793266            2 
 3039000    0.7728362   -8.3509246    557.95327  0.015299804  0.014788146            3 
 3040000   0.75977657   -8.3539035    558.20587  0.015301696  0.014783031            3 
 3041000   0.76669728    -8.391396    556.93515  0.015261842  0.014777918            7 
 3042000   0.75887875   -8.3669534    556.29472  0.015239281  0.014772797            3 
 3043000   0.76050044   -8.3866369    557.69205  0.015272539  0.014767669            2 
 3044000   0.75102554   -8.3738926    557.64407  0.015266209  0.014762547            3 
 3045000   0.75493614   -8.3347812    557.43499  0.015255473  0.014757432            3 
 3046000   0.75591533   -8.3738813    556.46432  0.015223909   0.01475233            2 
 3047000   0.75426576   -8.3452734    558.50899  0.015274833   0.01474724            1 
 3048000   0.77893683   -8.3320718    558.48539  0.015269176  0.014742169            3 
 3049000    0.7524888   -8.3641581    558.72728  0.015270779  0.014737098            3 
 3050000   0.78274266    -8.379738    558.07921  0.015248066  0.014732015            1 
 3051000   0.74594166   -8.3797584    557.25172  0.015220467  0.014726932            5 
 3052000   0.75195937   -8.3860576    558.79104   0.01525751  0.014721848            3 
 3053000   0.76436722   -8.3652215    557.70632  0.015222904  0.014716752            2 
 3054000   0.75567453   -8.3430714    558.57752  0.015241692  0.014711675            4 
 3055000   0.77767298   -8.3665581    558.30968  0.015229397  0.014706629            3 
 3056000   0.75459612   -8.3567494    559.38718  0.015253795  0.014701561            1 
 3057000   0.77219709   -8.3863913    559.38731  0.015248809  0.014696503            2 
 3058000   0.76132855   -8.3593451    558.65838  0.015223959  0.014691416            2 
 3059000   0.76562683    -8.366231    558.29543  0.015209094  0.014686337            2 
 3060000   0.76475492   -8.3803594    558.41449  0.015207366  0.014681245            4 
 3061000    0.7607966   -8.3680546    558.52449  0.015205393  0.014676177            4 
 3062000   0.75836311   -8.3711815     558.6906  0.015204948  0.014671123            3 
 3063000   0.76583229   -8.3825472    558.44723  0.015193363  0.014666041            2 
 3064000   0.76436189    -8.400752    557.80698  0.015170991  0.014660976            3 
 3065000    0.7440252   -8.3655229    559.28195  0.015206143  0.014655906            2 
 3066000   0.75521669   -8.3687457    559.76114  0.015214208   0.01465085            1 
 3067000   0.76556197   -8.3766864    557.92357  0.015159319  0.014645796            2 
 3068000   0.76984669   -8.3610586    559.12666  0.015187056  0.014640755            3 
 3069000   0.73518411   -8.3732868    558.69223  0.015170311   0.01463571            2 
 3070000   0.76837202    -8.374101    558.14973  0.015150644  0.014630651            6 
 3071000   0.76440995   -8.3720377    559.28559  0.015176533  0.014625605            1 
 3072000   0.75242034   -8.3608166    558.46829  0.015149422  0.014620548            2 
 3073000    0.7599546   -8.3954586    558.38083   0.01514212  0.014615506            3 
 3074000    0.7623317   -8.3856876    558.25743  0.015133849   0.01461045            2 
 3075000   0.76313085   -8.3864441    560.11897  0.015179376  0.014605406            7 
 3076000   0.75844488   -8.3699805    559.32572  0.015152951  0.014600355            2 
 3077000   0.76572424   -8.3789665    558.82668  0.015134511  0.014595327       -1e+20 
 3078000   0.75351566   -8.3814028    558.11672  0.015110373  0.014590292            3 
 3079000   0.75993176    -8.385038    558.51334    0.0151162  0.014585257            1 
 3080000   0.75693024    -8.382082    558.88107  0.015121241  0.014580219            3 
 3081000   0.75183041   -8.3831632    558.10422  0.015095321  0.014575178            2 
 3082000   0.76158892   -8.3773652    557.96976  0.015086788  0.014570121            3 
 3083000    0.7513405    -8.360296    558.50164  0.015096271  0.014565069            3 
 3084000   0.77492365   -8.4134271    557.26896  0.015058067  0.014560012            3 
 3085000   0.74970624   -8.4238104    557.51951  0.015059954  0.014554938            3 
 3086000   0.74867127   -8.3999637     558.8642  0.015091386  0.014549884            2 
 3087000   0.74882922   -8.3883294    558.18761  0.015068233  0.014544842            2 
 3088000   0.75003101   -8.4107612    558.41759  0.015069559  0.014539791            3 
 3089000   0.75275397   -8.3692616    558.79066  0.015074745  0.014534744            4 
 3090000   0.75133358   -8.3842141     558.6717  0.015066659  0.014529692            3 
 3091000   0.77502605   -8.3777116    558.74326  0.015063714  0.014524657            4 
 3092000   0.75521056   -8.3923363    559.40472  0.015076669   0.01451963            8 
 3093000   0.75241454   -8.3918531    558.90974  0.015058458  0.014514584            4 
 3094000   0.77634049   -8.4366097    557.81991  0.015024238  0.014509534            5 
 3095000   0.75814684   -8.3761515    559.75612  0.015071517  0.014504497            3 
 3096000   0.73930918   -8.3845871    558.47494  0.015032164  0.014499454            2 
 3097000   0.74278067    -8.384589    559.51729  0.015055357  0.014494417            2 
 3098000   0.75148111   -8.3580615    558.41747  0.015020913  0.014489403            2 
 3099000   0.74969226   -8.3925608    557.51301  0.014991745  0.014484373            3 
 3100000   0.75285597   -8.4049599    558.29068  0.015007814  0.014479357            1 
 3101000   0.74537543    -8.387892    558.94131  0.015020459  0.014474327            4 
 3102000   0.76121996   -8.4255175     559.1327  0.015020758  0.014469279            3 
 3103000   0.76275044   -8.4143942    559.14327  0.015016201   0.01446424            5 
 3104000   0.75998163   -8.3916238    558.59808  0.014996727  0.014459208            4 
 3105000   0.75769459    -8.382241    559.39059  0.015013167  0.014454179            4 
 3106000   0.75323051   -8.4041442    558.89505  0.014995038  0.014449158            3 
 3107000   0.75530844   -8.4273013    557.29746  0.014947362  0.014444123            2 
 3108000    0.7552712   -8.4253507    558.27409  0.014968739  0.014439085            1 
 3109000   0.76462634   -8.4095168    558.68082  0.014974826  0.014434037            3 
 3110000   0.75089473   -8.3815424    559.82508  0.015000672     0.014429            2 
 3111000   0.73998967   -8.3991504    558.50456  0.014960478  0.014423981            3 
 3112000   0.74849001   -8.3861061    558.87609  0.014965619  0.014418972            2 
 3113000   0.74597906   -8.4194426    558.56504  0.014952485  0.014413954            1 
 3114000   0.75596213   -8.3930816    560.21545   0.01499185  0.014408961            2 
 3115000   0.74681017   -8.3978212    559.18587  0.014959494  0.014403976            2 
 3116000   0.74672109   -8.4168024     558.6974  0.014941629  0.014398966            2 
 3117000   0.75480417   -8.4068982     558.9876  0.014944594  0.014393978            3 
 3118000   0.73938119   -8.4027151    558.99651  0.014940039  0.014388994            2 
 3119000   0.74129789   -8.3627574    559.57921  0.014950818  0.014383998            2 
 3120000   0.75999186    -8.415335    558.30377   0.01491196  0.014378999            3 
 3121000   0.74827493   -8.3881651    558.63359  0.014915988  0.014374019            3 
 3122000    0.7578193   -8.3947404    559.74687  0.014940926  0.014369044            5 
 3123000   0.74319999   -8.3956314    560.36799  0.014952716  0.014364068            2 
 3124000   0.75161885   -8.4088416     559.5512  0.014926142  0.014359093            4 
 3125000   0.73326724   -8.4054485    559.31261  0.014915003  0.014354112            1 
 3126000   0.75153821   -8.3908292    561.12609  0.014958576  0.014349125            2 
 3127000   0.73929792   -8.4079839    559.73445  0.014916705  0.014344162            5 
 3128000   0.75354914   -8.4108095    560.51145  0.014932637  0.014339186            4 
 3129000   0.75322551   -8.3934771    560.12839  0.014917662  0.014334204            4 
 3130000   0.73671478    -8.416009    559.93826  0.014907834   0.01432921            2 
 3131000   0.76887818   -8.4117445    558.26062  0.014858422  0.014324206            6 
 3132000   0.73700631   -8.4155192    559.60585   0.01488947  0.014319212            6 
 3133000   0.75358846   -8.3885635    558.28399  0.014849558  0.014314226            3 
 3134000   0.75863647    -8.393833    560.44325  0.014902235  0.014309247            3 
 3135000    0.7637645   -8.3946443    558.32502  0.014841176  0.014304272            4 
 3136000   0.75352753   -8.4257394    558.37742  0.014837835  0.014299284            2 
 3137000   0.74399581   -8.3996935     558.7524  0.014843067  0.014294293            4 
 3138000   0.74770263   -8.3974127    560.00097  0.014871494  0.014289311            2 
 3139000   0.74880536   -8.4436598    559.48754  0.014853126  0.014284327            3 
 3140000   0.75594477   -8.4371472      558.422  0.014820117  0.014279347            2 
 3141000   0.75605738   -8.4182486    559.62983  0.014847443  0.014274377            2 
 3142000   0.74430408   -8.4097208    558.51642  0.014813187  0.014269391            3 
 3143000   0.77680849   -8.4306517    559.05751  0.014822821  0.014264423            4 
 3144000   0.72659575   -8.4613466    558.52254  0.014803926  0.014259443            6 
 3145000   0.76700352    -8.415528    558.83284  0.014807442  0.014254466            3 
 3146000   0.75649179   -8.3872686    559.20649  0.014812632  0.014249516            1 
 3147000   0.74926551    -8.411814    560.58672  0.014844474  0.014244554            1 
 3148000   0.73022622   -8.4025329    559.23002  0.014803844  0.014239602            2 
 3149000   0.73958492   -8.4169288    559.41609  0.014804067  0.014234661            5 
 3150000   0.75212211   -8.4239702    559.50576   0.01480174  0.014229701            6 
 3151000   0.73748605   -8.4109167    558.47393  0.014769754  0.014224756            3 
 3152000    0.7474721   -8.3994416    560.15638  0.014809549  0.014219827            1 
 3153000   0.76043767   -8.3976701     559.0064  0.014774458    0.0142149            3 
 3154000   0.74712904   -8.3848574      559.485  0.014782419   0.01420998            6 
 3155000   0.73758412   -8.4368306    559.11853  0.014768054  0.014205043            3 
 3156000   0.74226873    -8.365603    559.18676  0.014765176  0.014200123            3 
 3157000   0.73708374   -8.3889999    560.53079  0.014795977  0.014195214            3 
 3158000   0.73963894   -8.4082687    559.89129  0.014774417  0.014190288            4 
 3159000   0.75084928   -8.3695167    559.40319  0.014756864  0.014185375            2 
 3160000   0.74895157   -8.3976667    560.54174  0.014782219  0.014180451            3 
 3161000   0.76579997   -8.4129802    558.92804     0.014735  0.014175521            4 
 3162000   0.74438068   -8.4219611    559.57543  0.014747402  0.014170577            4 
 3163000   0.74553816   -8.4173734    559.79772  0.014748596  0.014165643            6 
 3164000   0.74072758   -8.4007916    560.54021   0.01476349   0.01416071            3 
 3165000    0.7441812    -8.411531    558.31168  0.014700149  0.014155778            2 
 3166000   0.73485035   -8.4338984    559.54382  0.014727938  0.014150835            1 
 3167000   0.73338089    -8.427595    559.79745  0.014729961  0.014145914            6 
 3168000   0.74788128   -8.4037433    559.45768  0.014716374  0.014141002            2 
 3169000   0.73470772   -8.4249715    560.94413  0.014750819  0.014136089            3 
 3170000   0.75283749   -8.4147343    559.46974  0.014707406  0.014131179            6 
 3171000   0.75592158   -8.4257739    559.19096  0.014695442  0.014126253            3 
 3172000   0.73755215   -8.4159456    559.44092  0.014697376  0.014121319            6 
 3173000    0.7467693   -8.4203126    560.18685  0.014712335  0.014116391            7 
 3174000    0.7376979   -8.4242395    560.29408  0.014710515  0.014111472            2 
 3175000   0.74607241   -8.4692969     558.7645  0.014665735  0.014106526            6 
 3176000   0.74555716   -8.4361105    559.79456  0.014688144  0.014101583            5 
 3177000   0.76465273   -8.4367475     559.2191  0.014668427  0.014096656            6 
 3178000   0.75240037   -8.4178628    559.90068  0.014681683  0.014091732            5 
 3179000   0.74634431   -8.4342407    559.23992  0.014659744  0.014086812            4 
 3180000   0.74650319   -8.4138416    558.76995  0.014642818  0.014081894            3 
 3181000   0.73712503   -8.4323693    558.45637      0.01463  0.014076964            6 
 3182000   0.75192803   -8.4326254    558.18935   0.01461841  0.014072038            7 
 3183000   0.74542827   -8.4192341    559.56851  0.014649924  0.014067111           10 
 3184000   0.72233013   -8.4542257    558.04066  0.014605336  0.014062177            8 
 3185000   0.74665794   -8.4342578      560.386  0.014662114   0.01405725            2 
 3186000   0.74743632   -8.4386578    559.52562  0.014635008  0.014052326            5 
 3187000   0.74627995   -8.4790723    557.99422  0.014590373  0.014047395            3 
 3188000   0.75479645   -8.4476718    558.73277  0.014605102   0.01404246            3 
 3189000   0.74989636   -8.4478945    559.74132  0.014626877  0.014037528            2 
 3190000   0.73506151    -8.452154    558.80838   0.01459792  0.014032597            1 
 3191000   0.73324581   -8.4433596    559.81566  0.014619651  0.014027656            4 
 3192000   0.71973099    -8.441748    559.76309  0.014613698  0.014022712            2 
 3193000   0.73703694   -8.4210039    560.30461  0.014623254  0.014017788            2 
 3194000   0.73573089   -8.4350676    559.81445  0.014605887  0.014012865            3 
 3195000   0.72269485   -8.4471815    559.26994  0.014587114  0.014007948            3 
 3196000   0.75125145   -8.4290479    560.21397  0.014607165  0.014003049            5 
 3197000   0.73169693   -8.4446314    558.83346  0.014566611  0.013998141            4 
 3198000   0.72540221   -8.4048242    561.18414   0.01462331  0.013993233            3 
 3199000   0.75375753   -8.4427911    559.00975  0.014562096  0.013988315            3 
 3200000   0.73303538   -8.4437758    559.06113  0.014558884  0.013983382            2 
 3201000   0.74438576   -8.4154632    560.47642   0.01459118   0.01397847            2 
 3202000   0.73240381   -8.4448451    559.29795  0.014555953  0.013973564            3 
 3203000   0.74207691    -8.429873    558.83624  0.014539396  0.013968638            4 
 3204000   0.72142917   -8.4633343    559.38393  0.014549103  0.013963699            2 
 3205000   0.74054884   -8.4296831    558.67086  0.014526023  0.013958771            3 
 3206000   0.74264195   -8.4511195    558.52157  0.014517612  0.013953852            2 
 3207000   0.74496952   -8.4294816    560.87025  0.014574115  0.013948939            2 
 3208000   0.74510346   -8.4569569    559.26971  0.014527995  0.013944029            4 
 3209000   0.72813796   -8.4402687    558.95814  0.014515377  0.013939106            2 
 3210000   0.75478091   -8.4517821    558.73498  0.014505062  0.013934186            1 
 3211000   0.73221706   -8.4352726    558.65651  0.014498508  0.013929276            4 
 3212000   0.74255788   -8.4327982    558.84185  0.014498803  0.013924347           10 
 3213000   0.74534207   -8.4636183    559.44996  0.014510062  0.013919432            5 
 3214000   0.73312049   -8.4421051    560.03011   0.01452059  0.013914501            3 
 3215000   0.73368367   -8.4576945    559.25785  0.014496056  0.013909585            2 
 3216000   0.73099095   -8.4638828    557.96277  0.014457991  0.013904672            3 
 3217000   0.73121998   -8.4297998    559.19813  0.014485497  0.013899753            2 
 3218000    0.7413536   -8.4491407    558.36226   0.01445935  0.013894849            3 
 3219000    0.7460448   -8.4564461    558.49764  0.014458363   0.01388993            4 
 3220000   0.72495499   -8.4511395    558.38663     0.014451  0.013885019            4 
 3221000     0.741806   -8.4862861    558.28614  0.014443913  0.013880098            3 
 3222000   0.73302419   -8.4345182    559.64885  0.014474675  0.013875184            7 
 3223000   0.75301607   -8.4258694    559.17961  0.014458052  0.013870276            5 
 3224000    0.7265466    -8.446429    559.22997  0.014454869  0.013865374            5 
 3225000   0.74114052   -8.4437476    559.19143  0.014449391  0.013860473            3 
 3226000   0.74052927   -8.4474923     559.3294  0.014448476  0.013855575            5 
 3227000   0.74594234   -8.4207611    559.31488  0.014443623  0.013850704            8 
 3228000   0.73851822   -8.4382988    560.75818  0.014476409  0.013845827            5 
 3229000   0.73910538   -8.3985029    559.99703  0.014452282  0.013840943            4 
 3230000   0.75680657   -8.4627709     558.4036  0.014406698  0.013836058            6 
 3231000   0.72990892   -8.4453183    558.36552  0.014401256  0.013831147            5 
 3232000   0.72107601   -8.4328001    559.15294  0.014417104   0.01382625            3 
 3233000   0.73212997   -8.4244756    559.98793  0.014434167  0.013821356            4 
 3234000   0.73541469   -8.4363386     560.2597  0.014436706  0.013816473            2 
 3235000   0.74359616   -8.4286233    559.37651  0.014409493    0.0138116            1 
 3236000   0.72851951   -8.4064138    558.89104  0.014392538  0.013806743            4 
 3237000   0.74902467   -8.4265146    559.27084  0.014397869  0.013801871            3 
 3238000   0.73694378   -8.4517549    559.18329   0.01439117  0.013796992            3 
 3239000   0.71737226   -8.4637595    558.56532  0.014370827  0.013792102            3 
 3240000   0.73294656   -8.4550925     558.0303  0.014352631   0.01378722            4 
 3241000   0.74430687   -8.4597171    559.32653  0.014381532  0.013782338            4 
 3242000   0.73091652   -8.4619938    559.53794   0.01438253   0.01377747            6 
 3243000   0.74533832   -8.4597357    558.96685   0.01436342   0.01377261            5 
 3244000   0.70793895   -8.4375673    559.08647  0.014362065  0.013767742            5 
 3245000   0.73739311   -8.4355255    559.90398  0.014378633  0.013762879            3 
 3246000   0.72861049   -8.4812834    557.66072  0.014316613  0.013758015            2 
 3247000    0.7175577   -8.4563228    559.02066  0.014347107  0.013753134            4 
 3248000   0.72654061   -8.4749827    557.98668  0.014316161  0.013748255            4 
 3249000   0.73853821   -8.4243737    560.22068  0.014369054  0.013743393            1 
 3250000   0.73820138   -8.4648225    560.84445  0.014380627  0.013738561            2 
 3251000   0.73657986   -8.4786937    558.50158  0.014316148  0.013733706            2 
 3252000   0.74296841    -8.434732    559.16907  0.014328851  0.013728866            2 
 3253000   0.72319062   -8.4611598    559.61588  0.014335892  0.013724019            3 
 3254000   0.73254036    -8.459476    560.46922   0.01435334  0.013719169            4 
 3255000   0.73213465   -8.4699687    559.38427  0.014321154  0.013714327            5 
 3256000   0.72968615   -8.4639874    559.40579  0.014317306  0.013709479            8 
 3257000   0.73551322   -8.4612985    558.55561  0.014291158   0.01370464            3 
 3258000   0.72374291   -8.4866699    559.14561  0.014301862  0.013699795            3 
 3259000   0.72593511   -8.4803535      558.366  0.014277539  0.013694942            2 
 3260000   0.72295467   -8.4359968    560.80188  0.014335426  0.013690091            4 
 3261000   0.73409741   -8.4745309    559.27079  0.014291904  0.013685242            5 
 3262000   0.72386121   -8.4532099    558.80174   0.01427554  0.013680383            4 
 3263000   0.74711599   -8.4769116    559.14258   0.01427987  0.013675521           14 
 3264000   0.73744319   -8.4665743    559.04879    0.0142731  0.013670656            3 
 3265000   0.72565948   -8.4781785    558.44848  0.014253407  0.013665819            4 
 3266000    0.7349951   -8.4655397    558.60871  0.014253131  0.013660967            8 
 3267000   0.74099761   -8.4925412     560.3637  0.014293534  0.013656121            3 
 3268000   0.73859994   -8.4854454    558.23446  0.014234865  0.013651271            2 
 3269000   0.73455382    -8.487207     559.9313  0.014273766  0.013646415            6 
 3270000   0.73458049   -8.4360963    560.01194  0.014271456  0.013641583            2 
 3271000    0.7217712   -8.4570959    559.89588  0.014264136  0.013636764            3 
 3272000   0.72959932   -8.4711823    560.01281  0.014262755  0.013631928            6 
 3273000    0.7247981   -8.4925628    558.81298  0.014227849  0.013627119            5 
 3274000    0.7196906   -8.4326508    560.32674  0.014262033  0.013622297            1 
 3275000   0.73580024   -8.4653607    559.31441  0.014231919  0.013617466            4 
 3276000   0.73667253   -8.4738666    559.46635   0.01423144  0.013612627            9 
 3277000   0.73198891   -8.4816156    559.37735  0.014224833  0.013607794            5 
 3278000   0.72155918   -8.4722864    559.16955  0.014215211  0.013602965            3 
 3279000   0.71191546   -8.4631534    558.62321  0.014196991   0.01359814           13 
 3280000    0.7256516   -8.4738145    559.28346  0.014209437  0.013593308            8 
 3281000   0.72703306   -8.4639921     559.4408  0.014209103   0.01358848            5 
 3282000   0.73281538   -8.4408094    559.42401  0.014204347  0.013583658            3 
 3283000   0.72841475   -8.4856381    559.74317  0.014208122  0.013578857            5 
 3284000   0.72982834   -8.4766077    559.69489   0.01420257  0.013574032            2 
 3285000   0.73143738   -8.4554317     560.4509  0.014217425  0.013569216            7 
 3286000   0.72275148   -8.4672119    560.34926  0.014210521   0.01356441            6 
 3287000    0.7183046   -8.4547849    559.79859  0.014192237  0.013559611            6 
 3288000   0.72364526   -8.4510627    559.60804  0.014183091  0.013554812            2 
 3289000   0.73458452   -8.4661146    558.55325  0.014152054  0.013550017            2 
 3290000   0.71188948   -8.4767337    558.33482  0.014142219  0.013545215            4 
 3291000   0.72710983   -8.4716375    559.74894   0.01417373  0.013540399            5 
 3292000   0.72709788   -8.4985068    559.45045  0.014161868  0.013535586            6 
 3293000   0.72643561   -8.4850611    559.00672  0.014146339  0.013530771           11 
 3294000   0.74027965   -8.4763065    559.50453  0.014154638  0.013525968            4 
 3295000   0.72176288   -8.4843842    559.93694  0.014161278  0.013521156            3 
 3296000   0.71871686   -8.4866146    560.09234  0.014160911  0.013516355            3 
 3297000   0.73586063   -8.4975714    558.06912  0.014105478  0.013511544            3 
 3298000   0.73639187   -8.4822299    559.49589  0.014137252  0.013506733            3 
 3299000   0.70333492   -8.5012278    557.45062  0.014081303  0.013501911            3 
 3300000   0.69961572   -8.4820964    558.74665  0.014109764  0.013497109            3 
 3301000   0.71911522    -8.475489     559.0661  0.014113554  0.013492306            4 
 3302000   0.72890929    -8.488575    559.78553  0.014127436  0.013487497            1 
 3303000   0.72211855   -8.4938056    560.63672  0.014144634  0.013482693            2 
 3304000   0.72016295   -8.4892123    559.22557  0.014104761  0.013477887            2 
 3305000   0.71526956   -8.4890783    559.19825  0.014099805  0.013473088            3 
 3306000   0.72357525   -8.4622465    559.42838   0.01410134  0.013468282            2 
 3307000   0.72512265   -8.4992782    558.21062   0.01406639  0.013463467            6 
 3308000   0.73278419   -8.5037214     558.4111  0.014067188  0.013458663            4 
 3309000    0.7146424   -8.4814789    559.52864  0.014091081  0.013453879            2 
 3310000   0.73217209   -8.4612241    559.95906   0.01409766  0.013449094            5 
 3311000   0.72435095   -8.4815284    559.49528   0.01408173    0.0134443            2 
 3312000   0.72669432   -8.4537424    559.24213  0.014071108  0.013439508            3 
 3313000    0.7272846   -8.5104827    557.28856  0.014017722  0.013434708            4 
 3314000    0.7140032   -8.5037417    558.34133  0.014039965  0.013429904            3 
 3315000   0.72950599   -8.4920762     558.4146  0.014037572  0.013425114           10 
 3316000   0.72730231   -8.4659211    559.30633  0.014055748  0.013420336            4 
 3317000   0.70524782   -8.4742135    559.47454  0.014055737  0.013415562            4 
 3318000   0.72369792   -8.4955514    559.41127  0.014049911  0.013410774            4 
 3319000   0.71518334   -8.4764999    559.04017  0.014036361  0.013405998           16 
 3320000   0.71776138   -8.4885341    558.57573  0.014020475  0.013401214            5 
 3321000   0.72302888   -8.4899878    559.65186  0.014043257  0.013396442            8 
 3322000   0.72527835   -8.4866997    559.82504  0.014043374  0.013391656            4 
 3323000   0.71515866   -8.4752193    559.60417  0.014033608  0.013386876            3 
 3324000   0.72353221   -8.4869581    558.82056  0.014009741  0.013382095            2 
 3325000   0.71943556   -8.4892708    558.74364    0.0140036  0.013377325            3 
 3326000   0.73050162   -8.5075018    558.80409  0.014000904  0.013372562            4 
 3327000    0.7253821   -8.5019226    558.43168  0.013987368  0.013367793            2 
 3328000   0.72811206   -8.4886283    560.15896  0.014026416  0.013363018            6 
 3329000   0.71898532   -8.5141124    559.40887  0.014003426  0.013358243            2 
 3330000   0.71520076   -8.4861569    559.74335  0.014007591  0.013353469            2 
 3331000   0.71875826   -8.4898914    558.90121  0.013982318  0.013348702            5 
 3332000   0.71007678   -8.4861455    558.72634  0.013973748  0.013343934            3 
 3333000   0.71711082   -8.4880614    558.92198  0.013974447  0.013339169            4 
 3334000    0.7080607   -8.4905209    560.89132  0.014019479    0.0133344            6 
 3335000   0.71448515   -8.4887365    559.10196  0.013970564  0.013329635            6 
 3336000   0.73373777    -8.508555    557.94017  0.013937354  0.013324886            5 
 3337000     0.713592    -8.523228    557.95087  0.013933445  0.013320125           10 
 3338000   0.71986251   -8.4825991    558.29679  0.013937907  0.013315355           11 
 3339000   0.71831199   -8.5087196    558.29063  0.013933579  0.013310608            6 
 3340000   0.71054378   -8.4811028    559.94032  0.013970567  0.013305871            3 
 3341000   0.73164056   -8.4810985    560.50228  0.013980402  0.013301136            5 
 3342000    0.7141013   -8.4559297    559.70837  0.013956423  0.013296415            4 
 3343000   0.72619164   -8.5038479    559.79739  0.013954467  0.013291686            2 
 3344000   0.72901322   -8.4891317    559.80981  0.013950603  0.013286968            4 
 3345000   0.71360843   -8.5093043    558.42477  0.013911928  0.013282228            6 
 3346000   0.70631346   -8.5169027    559.70043  0.013939541  0.013277498            8 
 3347000   0.71585088   -8.4801378    559.13368  0.013921265  0.013272763            5 
 3348000   0.70130707   -8.4970812    559.92328   0.01393676  0.013268025            8 
 3349000   0.71895432   -8.4478843     560.1417  0.013938034  0.013263315            3 
 3350000   0.70376458   -8.5016909    558.42899  0.013891268  0.013258594            7 
 3351000   0.69639167   -8.4731938    559.14076  0.013904823  0.013253878            9 
 3352000   0.70769554   -8.4621914    559.83359  0.013917899  0.013249165            7 
 3353000   0.71385566   -8.4811787    559.70873  0.013910645  0.013244449            5 
 3354000   0.71321647    -8.460075    559.95334  0.013912576  0.013239743            8 
 3355000   0.72188721   -8.4763625    559.72322  0.013902713  0.013235041            5 
 3356000    0.6921485     -8.49043    559.11415  0.013883446  0.013230344            4 
 3357000   0.70461759   -8.4920921     560.8041  0.013921261  0.013225642            4 
 3358000   0.71220666   -8.4799068    560.81758   0.01391745  0.013220939            5 
 3359000   0.71419742   -8.4950865    559.95665  0.013891948  0.013216247            5 
 3360000   0.71845146   -8.4770885    559.81236  0.013884235   0.01321155            2 
 3361000   0.71695639   -8.4913188    560.59767  0.013899575  0.013206852            1 
 3362000   0.70229211   -8.5104939    559.64102  0.013871729   0.01320216            2 
 3363000   0.69519236   -8.4840329     559.2915  0.013858943  0.013197466            3 
 3364000   0.71641558   -8.5115197    558.83717  0.013843568   0.01319277            4 
 3365000   0.72671228   -8.4908903     559.0405   0.01384449  0.013188071            2 
 3366000   0.72358435   -8.4899354    558.94891  0.013838109  0.013183379            3 
 3367000   0.71469767   -8.4945745    560.47022  0.013871652  0.013178678            3 
 3368000   0.70980875   -8.4939246    560.30637  0.013863479  0.013173991            3 
 3369000   0.70273366   -8.4998676    559.15245  0.013830822  0.013169302           11 
 3370000   0.71770553    -8.502623    558.79943  0.013817988  0.013164602            7 
 3371000   0.71014169   -8.5062196    559.20107  0.013823817  0.013159912            5 
 3372000   0.70572299   -8.5263319     558.1414   0.01379353  0.013155208            4 
 3373000   0.71388456   -8.4966234    560.51765  0.013848148  0.013150516            9 
 3374000    0.7021884   -8.5121038    560.05369  0.013832585   0.01314581            7 
 3375000   0.73381352   -8.4963772    559.58056  0.013816804  0.013141119            8 
 3376000   0.72149583   -8.5045482    559.46175  0.013809779  0.013136433            7 
 3377000   0.69555536   -8.5025315    559.30925  0.013801926   0.01313175            7 
 3378000   0.70970355   -8.5289515    558.51214  0.013778176  0.013127068            6 
 3379000   0.70534404   -8.5124388    559.31884  0.013793993  0.013122376            3 
 3380000   0.70972946   -8.4929056     559.5514  0.013795646  0.013117685            3 
 3381000   0.71141421   -8.5253816    560.82036  0.013822842  0.013112997            4 
 3382000   0.71191941   -8.5445986    560.06876  0.013800236  0.013108298            4 
 3383000   0.69795889   -8.4988294    559.32757  0.013777899    0.0131036            4 
 3384000   0.69942176   -8.5229542     559.4323  0.013776406    0.0130989            3 
 3385000   0.72801858   -8.5143975     559.8118  0.013781679  0.013094211            2 
 3386000   0.71069323   -8.5091676    559.59692   0.01377232  0.013089522            4 
 3387000    0.7166314    -8.518439    558.87767  0.013750558  0.013084827            2 
 3388000   0.71481551   -8.5227566     559.3533  0.013758198  0.013080152            3 
 3389000   0.70137028   -8.5145132    558.84022  0.013741522  0.013075475            2 
 3390000   0.72513927    -8.538301    558.73375  0.013734851   0.01307078            2 
 3391000   0.71317805    -8.552045    557.80318  0.013707932  0.013066081            4 
 3392000    0.7040826    -8.525598     558.5833  0.013723057  0.013061393            1 
 3393000   0.71858894   -8.5239685    557.87318  0.013701571  0.013056706            2 
 3394000   0.71608932   -8.5449463    558.68275  0.013717412   0.01305202            2 
 3395000   0.69927122   -8.5276349    559.91063  0.013743511  0.013047341            3 
 3396000   0.69904339   -8.5329661     559.5863  0.013731505  0.013042655            1 
 3397000   0.70644606   -8.5254225     559.8107  0.013732968  0.013037992            3 
 3398000   0.72551466   -8.5265825    560.15335  0.013737329  0.013033327            4 
 3399000   0.70896421   -8.5221887    558.91077  0.013702824  0.013028668            4 
 3400000   0.69050799   -8.5158546    559.88294  0.013722621  0.013024004            4 
 3401000   0.69910096   -8.5233124    559.20966  0.013702089  0.013019331            3 
 3402000   0.70219806   -8.5377479    558.25476  0.013674671  0.013014659            2 
 3403000   0.70029067   -8.5533348    557.94386  0.013663039  0.013009973            3 
 3404000     0.708007   -8.5622293    558.95484  0.013683775  0.013005297            3 
 3405000   0.71162652   -8.5268358    559.15628  0.013684686  0.013000634            2 
 3406000   0.70644936   -8.5542712    559.57761  0.013690977  0.012995964            2 
 3407000   0.70874744   -8.5340838    559.30118  0.013680197  0.012991298            2 
 3408000   0.71041437   -8.5454231    560.41691  0.013703465  0.012986618            4 
 3409000    0.7080382   -8.5356764     559.7113  0.013682197  0.012981953            4 
 3410000   0.68787127   -8.5556514    558.56057  0.013650063  0.012977289            5 
 3411000   0.69332488   -8.5468632    558.35481  0.013641034  0.012972627            3 
 3412000   0.70469827   -8.5637408    558.31342  0.013636025  0.012967966            3 
 3413000   0.71134904   -8.5118683     560.1745  0.013677471  0.012963322            4 
 3414000   0.70828675   -8.5477636     558.3277  0.013628386  0.012958668            2 
 3415000   0.70666374   -8.5217076     558.7201   0.01363397  0.012954019            1 
 3416000   0.70349295    -8.534151    560.38291  0.013670543   0.01294937            3 
 3417000   0.70739348   -8.5690783    558.62138  0.013623583  0.012944723            3 
 3418000   0.71847323   -8.5397064    558.60966  0.013619311  0.012940076            3 
 3419000   0.72480388   -8.5591609    558.42729  0.013610882  0.012935434            5 
 3420000   0.71561206   -8.5448667    558.74655  0.013614682  0.012930792            4 
 3421000   0.67993287   -8.5484039     559.6047  0.013631606   0.01292614            8 
 3422000   0.69749302    -8.519888    558.37756  0.013597739   0.01292149            3 
 3423000   0.70512656    -8.531058    558.92921  0.013607197  0.012916857            5 
 3424000   0.71987279   -8.5393432    559.11979  0.013607861  0.012912229            4 
 3425000    0.7091174   -8.5391861    559.02935  0.013601687  0.012907606            3 
 3426000   0.69470624   -8.5356243    558.28541  0.013579622  0.012902977            4 
 3427000   0.70172993   -8.5237406    558.38672  0.013578123  0.012898358            3 
 3428000   0.69258571   -8.5594687    558.17145  0.013568929  0.012893729            3 
 3429000   0.69725857   -8.5503407    559.27432  0.013591774    0.0128891            3 
 3430000   0.70682207   -8.5466223    559.21522  0.013586376  0.012884494            2 
 3431000   0.70851745    -8.560259    559.35198  0.013585737  0.012879885            7 
 3432000    0.6910366   -8.5559035    559.80026  0.013592664  0.012875263            8 
 3433000   0.69153784   -8.5583268    558.27756  0.013551742  0.012870634            1 
 3434000   0.71303675   -8.5565224    559.03128  0.013566086  0.012866018            7 
 3435000   0.69635458   -8.5473355    559.75051  0.013579585  0.012861402            2 
 3436000    0.6900831   -8.5532913    558.98532  0.013557075  0.012856774            2 
 3437000   0.70472582    -8.555722    559.57328  0.013567386  0.012852166            4 
 3438000   0.70411114   -8.5680939    559.28139  0.013556365  0.012847548            6 
 3439000   0.69077306   -8.5682501    558.78891  0.013540489  0.012842936            2 
 3440000   0.71004096   -8.5331533     559.6546  0.013557524   0.01283833            3 
 3441000   0.69942413   -8.5381945    560.27315  0.013568564  0.012833725            3 
 3442000   0.69876813   -8.5442892    558.95189  0.013532633   0.01282911            3 
 3443000   0.70078719   -8.5442785    559.26915  0.013536382  0.012824496            3 
 3444000   0.69911752    -8.526443    558.96398  0.013525067  0.012819878            6 
 3445000   0.69287908   -8.5537228    559.22247  0.013527394  0.012815269            6 
 3446000   0.70568608   -8.5437565    560.75175  0.013560451  0.012810669            1 
 3447000   0.71058351    -8.525536    558.55064  0.013503303   0.01280608            2 
 3448000   0.69928726   -8.5397587      560.103  0.013536905  0.012801483            4 
 3449000   0.68590071   -8.5353587    559.26121  0.013512641  0.012796873            6 
 3450000   0.70167379   -8.5541966    559.26684  0.013508861   0.01279227            9 
 3451000   0.69656917   -8.5361201    559.80396  0.013517916  0.012787667            2 
 3452000   0.70480809   -8.5776745    558.91684  0.013492585   0.01278306            3 
 3453000    0.6890577   -8.5668559    558.55098  0.013479848  0.012778461            4 
 3454000   0.68248336   -8.5512695    559.73309  0.013504465  0.012773865            3 
 3455000   0.70741141   -8.5570521    559.05125  0.013484111  0.012769262            6 
 3456000   0.68352532   -8.5339621    560.39659  0.013512649  0.012764679            4 
 3457000   0.68097945    -8.563378    558.95838  0.013474072  0.012760083            6 
 3458000   0.71818382   -8.5522576     558.7598   0.01346539   0.01275549            2 
 3459000   0.69345585   -8.5420846    558.69208  0.013459865  0.012750897            1 
 3460000   0.70385805   -8.5528816     558.1055  0.013441847  0.012746313            5 
 3461000   0.69251608   -8.5285033    559.49335   0.01347138  0.012741723            3 
 3462000   0.68899188   -8.5472059     558.9578  0.013454598  0.012737138            3 
 3463000   0.68634415   -8.5562273    558.70331  0.013444588  0.012732563            1 
 3464000   0.72595209   -8.5710628    558.11924  0.013426656  0.012727989            4 
 3465000   0.69231414   -8.5459344    560.01321  0.013468331  0.012723406            2 
 3466000   0.68320594   -8.5634427    558.66289   0.01343198  0.012718821            2 
 3467000   0.70483137   -8.5780406     559.8959  0.013457742   0.01271423            5 
 3468000   0.69318975   -8.5559244     558.1511  0.013411935  0.012709648            3 
 3469000   0.68128023   -8.5601413    559.21744  0.013433685  0.012705067            4 
 3470000   0.69236515   -8.5505595     558.3211  0.013408288  0.012700483            4 
 3471000   0.68757317   -8.5660732    558.94561  0.013419418  0.012695903            6 
 3472000    0.7002931   -8.5957304    556.42111  0.013354961  0.012691304            5 
 3473000   0.70177505   -8.5585165    559.41901   0.01342305  0.012686721            6 
 3474000   0.71005576   -8.5625529    557.56367   0.01337468  0.012682133            5 
 3475000   0.67494108   -8.5906971    557.51868  0.013369753   0.01267754            4 
 3476000   0.69016362   -8.5774216    558.22868  0.013382928  0.012672948            7 
 3477000   0.68948951   -8.5656698     558.4791  0.013385081   0.01266837            6 
 3478000   0.68905154    -8.583834    558.12385   0.01337272  0.012663795            5 
 3479000   0.68124038   -8.5841819    559.39119  0.013399233  0.012659221            5 
 3480000   0.69939654   -8.5688024     558.8306  0.013381959  0.012654642            3 
 3481000   0.70286932   -8.5795753    557.75204  0.013352294  0.012650056            3 
 3482000   0.69737427   -8.5677483    558.88334  0.013375535  0.012645477            8 
 3483000   0.68752258   -8.5678795    558.27979  0.013357254  0.012640904            3 
 3484000   0.69409229   -8.5751607    557.79754  0.013341885  0.012636337            4 
 3485000   0.70474554   -8.5659627    558.70746  0.013359815  0.012631766            6 
 3486000   0.68702643   -8.5815984    559.32027  0.013370632  0.012627208            3 
 3487000   0.70579785   -8.5558679    559.35293  0.013367578  0.012622652            2 
 3488000   0.70013865   -8.5489674    557.92035  0.013329519  0.012618089            5 
 3489000   0.70003216   -8.5904587    558.09548  0.013329881  0.012613531            5 
 3490000    0.7025524   -8.5763407    558.96435  0.013346809  0.012608984            1 
 3491000   0.68643718   -8.5858037     558.4823  0.013331479   0.01260443            2 
 3492000   0.67767115   -8.5774025    558.14316  0.013319567  0.012599876            2 
 3493000   0.68176687   -8.5774012    558.18647  0.013316788  0.012595321            3 
 3494000   0.68648241   -8.5644759    558.00873  0.013308737  0.012590766            2 
 3495000   0.68899057   -8.5572894    558.48693  0.013316331  0.012586203            3 
 3496000   0.70998612   -8.5801262    557.89704  0.013298461  0.012581649            4 
 3497000   0.69276441   -8.6132678    558.61519  0.013311772  0.012577087            2 
 3498000   0.69357919   -8.5845031    558.15857  0.013297088  0.012572531            1 
 3499000   0.71516394   -8.5962113    557.99123  0.013289303  0.012567988            1 
 3500000    0.7004722   -8.5927515    558.44071  0.013296207  0.012563439            2 
 3501000   0.68218524   -8.6169627     558.0112  0.013282186  0.012558879            5 
 3502000   0.69311934   -8.5976254    558.19303   0.01328272  0.012554323            4 
 3503000   0.69013639   -8.5965546    557.68672  0.013266884  0.012549767            2 
 3504000   0.68474639   -8.6095889    558.64365  0.013285855  0.012545208            4 
 3505000   0.70493233   -8.5867048    558.25611  0.013272851  0.012540644            2 
 3506000   0.69644712   -8.5849713    557.69609  0.013255754   0.01253607            3 
 3507000   0.70742984   -8.5844451    557.22788  0.013240849   0.01253151            1 
 3508000    0.6969984    -8.615673    558.15615  0.013259125  0.012526965            2 
 3509000   0.68187046   -8.5820674    557.99797   0.01325159  0.012522415            3 
 3510000   0.69477882   -8.5833919    558.21791  0.013253037   0.01251786            5 
 3511000   0.68399298   -8.5909266    559.00141  0.013267858  0.012513316            3 
 3512000   0.68843482    -8.570998     558.4674   0.01325141  0.012508775            4 
 3513000   0.69796464   -8.6014291    557.93429  0.013234991  0.012504239            4 
 3514000   0.68708726   -8.6143642    557.97893  0.013232283  0.012499701            4 
 3515000   0.69912091   -8.5879264    558.59774   0.01324319  0.012495172            3 
 3516000   0.70148728   -8.6206365    556.83618  0.013197672   0.01249064            4 
 3517000   0.68223039   -8.5647584    558.74613  0.013239175  0.012486107            4 
 3518000   0.68692704   -8.5883379    558.31101  0.013225104  0.012481574            2 
 3519000    0.6936857   -8.6085368    557.96737  0.013213208  0.012477041            2 
 3520000   0.68711097   -8.6002908    557.13618  0.013189777  0.012472505            2 
 3521000   0.68096433   -8.5699855    559.00335  0.013230222  0.012467969            1 
 3522000   0.66709282   -8.5771924    558.63543   0.01321776  0.012463435            3 
 3523000   0.69313834   -8.6017251    557.95421  0.013197895  0.012458906            2 
 3524000   0.68264271   -8.5830089      558.177  0.013199418   0.01245438            5 
 3525000   0.69665717   -8.6070359    557.44476  0.013178363  0.012449855            3 
 3526000   0.67200648   -8.6166054    558.46052  0.013198632  0.012445329            2 
 3527000   0.68961279   -8.5912625    558.44089  0.013194426  0.012440805            3 
 3528000   0.68969351   -8.5990535    557.62022  0.013171302  0.012436277            4 
 3529000   0.70025737   -8.6074015    557.38556  0.013162028  0.012431744            2 
 3530000   0.69735884   -8.5985934    558.60044  0.013186979  0.012427217            3 
 3531000    0.6942189   -8.6062628    557.48601  0.013156943  0.012422706            2 
 3532000   0.67567561   -8.6020287    558.06262  0.013166823  0.012418185            3 
 3533000   0.69395711   -8.5849371    557.83972  0.013157838  0.012413662            2 
 3534000   0.69441701   -8.5949544     557.2581    0.0131404  0.012409151            4 
 3535000   0.68335981   -8.5957512    558.57374  0.013167698  0.012404627            7 
 3536000   0.68784524   -8.5999854    557.79962   0.01314573  0.012400113            5 
 3537000   0.68806448   -8.5712844    557.59711  0.013137242  0.012395605            4 
 3538000   0.67531755   -8.5979852     558.8718  0.013163553  0.012391104            4 
 3539000    0.7072158   -8.5971489    558.02281  0.013139842  0.012386602            4 
 3540000   0.68192808   -8.5958905    557.62306   0.01312672  0.012382103            6 
 3541000   0.68085184   -8.5974717    557.24671  0.013114156  0.012377598            5 
 3542000   0.68196017   -8.5962905    558.03408  0.013128978  0.012373091            2 
 3543000   0.69301217   -8.6123276    557.53977  0.013113646   0.01236857            3 
 3544000   0.67508978   -8.6142051    557.16735  0.013101189  0.012364059            1 
 3545000   0.68083847   -8.6246872    558.43502  0.013127292   0.01235955            8 
 3546000   0.68652935   -8.6172774    556.83135  0.013085903  0.012355035            3 
 3547000   0.68585469   -8.6316121    557.02901  0.013086858  0.012350529            4 
 3548000   0.67511604   -8.5927896    558.02431  0.013106546  0.012346025            2 
 3549000   0.66194134   -8.5963365    558.65308  0.013117617  0.012341522            4 
 3550000   0.68490632   -8.5941598      558.824  0.013117934  0.012337036            3 
 3551000   0.69674774    -8.599149    558.81796  0.013114098  0.012332541            5 
 3552000   0.69126239   -8.6197332    557.89299  0.013088706  0.012328047            3 
 3553000    0.6848788   -8.6194319    558.18318  0.013091828  0.012323558            8 
 3554000   0.68233786   -8.6203324    557.27034   0.01306674  0.012319062            1 
 3555000    0.6811247   -8.6495868    557.01744  0.013057136  0.012314578            7 
 3556000   0.67366534   -8.6048512    558.11321  0.013079143  0.012310093            2 
 3557000   0.68461348   -8.6005495    558.34351  0.013080862  0.012305616            5 
 3558000   0.68155629   -8.6241811    557.91802   0.01306722  0.012301136            4 
 3559000   0.67520493    -8.614145     557.0652   0.01304358  0.012296658            3 
 3560000   0.68126551   -8.6027656    557.39669  0.013047675  0.012292189            4 
 3561000   0.66016408   -8.6069495     558.3837  0.013067109  0.012287721            2 
 3562000   0.66483459   -8.6117728    557.49632   0.01304268  0.012283249            3 
 3563000   0.69058467   -8.6176729    559.22513  0.013079454  0.012278771            3 
 3564000    0.6886025   -8.6436964    557.28935  0.013030522  0.012274304            3 
 3565000   0.68161245     -8.62893    558.71086  0.013060095  0.012269831            5 
 3566000   0.66413625    -8.599064    556.77441   0.01301118  0.012265356            3 
 3567000   0.68077148   -8.6207208    556.59323  0.013003299  0.012260892            3 
 3568000   0.67615301    -8.611441      558.118  0.013035267  0.012256432            5 
 3569000   0.68824176   -8.6077619    556.50182  0.012993878   0.01225198            3 
 3570000   0.66216437   -8.6257592    557.66687  0.013017434  0.012247524            2 
 3571000   0.66913214   -8.6330885    558.05227  0.013022782  0.012243062            5 
 3572000   0.67382542    -8.627184    556.69141  0.012987388    0.0122386            3 
 3573000   0.68090668   -8.6284641    557.52748  0.013003253  0.012234139            8 
 3574000   0.68192913    -8.647137     557.8876  0.013008012  0.012229679            3 
 3575000   0.68948045   -8.6481338    557.12404  0.012986574   0.01222522            3 
 3576000   0.69223858    -8.621092    558.23691  0.013008876  0.012220765            4 
 3577000   0.68201195    -8.610151     558.0523  0.013000939  0.012216313            3 
 3578000   0.67696716   -8.6148297    558.23951  0.013001665   0.01221186            3 
 3579000   0.68390439   -8.6441572    557.84271  0.012988794   0.01220741            3 
 3580000   0.67666639   -8.6156897    556.75487  0.012959843   0.01220295            2 
 3581000   0.68361307   -8.6450764    557.62247  0.012976414  0.012198504            4 
 3582000   0.67779117   -8.6248245    557.21398  0.012963288  0.012194052            5 
 3583000   0.66882385   -8.6250202    557.65898   0.01297002  0.012189605            4 
 3584000   0.67018352   -8.6348078    557.37265  0.012959743  0.012185163            4 
 3585000   0.67336916   -8.6191899    557.36427  0.012955934  0.012180723           10 
 3586000   0.69527893   -8.6327266    557.59981  0.012957794  0.012176285            8 
 3587000   0.68081037   -8.6361883      557.524  0.012952421  0.012171847            8 
 3588000   0.67660532     -8.60321    557.66342  0.012952049  0.012167408            4 
 3589000   0.69279604   -8.6215595    557.56822   0.01294623  0.012162974            2 
 3590000   0.66896518   -8.6441168    556.05612  0.012907524  0.012158528            6 
 3591000   0.68594653   -8.6453957    557.85439   0.01294566  0.012154094            2 
 3592000   0.67807687   -8.6542972    556.77177   0.01291694  0.012149663            4 
 3593000   0.66784559   -8.6357007    557.87797  0.012939001  0.012145229            4 
 3594000    0.6788731   -8.6166644    557.58509   0.01292861    0.0121408            6 
 3595000   0.69502622    -8.652388    557.91604  0.012932685  0.012136386           12 
 3596000   0.68906197   -8.6382649    556.74501  0.012901952  0.012131963            2 
 3597000   0.67922368    -8.629707    557.29382  0.012911079  0.012127549            4 
 3598000   0.68150216   -8.6601059     557.0083  0.012900878  0.012123125            6 
 3599000   0.68722959   -8.6287073    557.82446  0.012916191  0.012118701            3 
 3600000   0.68910919   -8.6472172    557.39702  0.012902709  0.012114284            3 
 3601000    0.6646393   -8.6400479    557.64479   0.01290486  0.012109874            3 
 3602000   0.67434948   -8.6242419    557.22866   0.01289165  0.012105451            2 
 3603000   0.67566879   -8.6314022    557.61615  0.012897034  0.012101043            3 
 3604000   0.70269377   -8.6289776     558.4594  0.012912953   0.01209663            3 
 3605000   0.69136345   -8.6180005    556.90845  0.012873519  0.012092215            4 
 3606000   0.68374716   -8.6372248    557.58098  0.012885491  0.012087807            4 
 3607000   0.67572616   -8.6218397    557.55346  0.012881283    0.0120834            2 
 3608000   0.67556224   -8.6419372    556.45587  0.012852362   0.01207899            6 
 3609000    0.6722557   -8.6444996    557.53257  0.012873662   0.01207458            4 
 3610000   0.69204546   -8.6559555    557.26336  0.012863882  0.012070175            3 
 3611000   0.68126975   -8.6535794    556.68129  0.012846887  0.012065769            2 
 3612000   0.67852205   -8.6340866    557.85314  0.012870366   0.01206136            3 
 3613000   0.67510817   -8.6354736    556.26306  0.012830129  0.012056952            5 
 3614000   0.67102596   -8.6597959    556.54131  0.012832995  0.012052549            6 
 3615000   0.66660405   -8.6243674    556.98567  0.012839688  0.012048151            8 
 3616000    0.6762298   -8.6489004    556.61381  0.012827567  0.012043752            3 
 3617000   0.67735445   -8.6479315    557.11268  0.012835515  0.012039353            4 
 3618000   0.65831237   -8.6536035    557.46186   0.01284001  0.012034966            5 
 3619000   0.66585402    -8.672159    556.30878   0.01280991  0.012030572            3 
 3620000   0.67002686   -8.6443725    557.38533  0.012831154  0.012026187            4 
 3621000   0.68083608   -8.6372196    558.43933  0.012851867  0.012021803            2 
 3622000   0.68178149   -8.6150627    556.85141  0.012811785  0.012017423            3 
 3623000   0.67539943    -8.670336     557.7819  0.012829651  0.012013047            2 
 3624000   0.68177814   -8.6495111    557.30107  0.012815054  0.012008668            2 
 3625000   0.68438625   -8.6460416    556.71445  0.012798033  0.012004289            3 
 3626000   0.68090558   -8.6485247    557.20736  0.012805832   0.01199991            5 
 3627000   0.66684438   -8.6573186    556.74673  0.012791718  0.011995526            3 
 3628000   0.67799731    -8.672748    557.57071  0.012807119  0.011991142            3 
 3629000   0.66426513     -8.64816    555.76549  0.012762136  0.011986763            4 
 3630000   0.65932528   -8.6444767    557.50914  0.012798649  0.011982382            6 
 3631000   0.66352377    -8.629562    556.14214   0.01276375  0.011978018            2 
 3632000   0.66703107   -8.6648376     556.9303   0.01277832  0.011973654            1 
 3633000   0.67416501   -8.6485411    557.07401  0.012778099  0.011969286            3 
 3634000   0.67832464   -8.6319443    556.58219  0.012763305  0.011964924            3 
 3635000   0.66639799   -8.6245881     556.6914  0.012762297  0.011960562            4 
 3636000   0.67631919   -8.6568772    557.48667  0.012777014  0.011956196            3 
 3637000    0.6763352   -8.6350028    559.00823  0.012808364  0.011951837            2 
 3638000   0.67845686   -8.6390501    556.88318  0.012756166  0.011947472            3 
 3639000   0.67088702   -8.6613172    556.66406  0.012747643  0.011943118            3 
 3640000   0.66976182    -8.649886    557.17118   0.01275575  0.011938765            5 
 3641000   0.66441974   -8.6243975    557.20355  0.012752988  0.011934421            2 
 3642000   0.66314873   -8.6524505     555.8881  0.012719387  0.011930079            8 
 3643000   0.66448651   -8.6345404    557.33987  0.012749105  0.011925747            3 
 3644000   0.67515975   -8.6246869    558.98715  0.012783277  0.011921417            5 
 3645000   0.66756039    -8.637101    557.40755  0.012743657  0.011917079            4 
 3646000   0.67460475    -8.635301    557.70597  0.012746982  0.011912736            1 
 3647000   0.66548614   -8.6509471    557.66568  0.012742567  0.011908395            5 
 3648000   0.67372403   -8.6506237    556.57025   0.01271405   0.01190406            2 
 3649000   0.67178071   -8.6467592     556.6964  0.012713446  0.011899722            1 
 3650000   0.67106931   -8.6335306    557.39298  0.012725867   0.01189538            5 
 3651000   0.66355239    -8.665144    556.84666  0.012709912   0.01189104            3 
 3652000   0.66648782   -8.6312764    557.93106  0.012731176    0.0118867            5 
 3653000   0.66392279   -8.6334049     557.9057  0.012727112  0.011882374            4 
 3654000   0.66433919   -8.6558393    556.22564  0.012685314  0.011878044            5 
 3655000   0.65780078   -8.6584675    556.86904  0.012696513  0.011873714            5 
 3656000   0.65808722   -8.6616494    556.94457  0.012694761  0.011869375            3 
 3657000   0.66727535   -8.6187013    557.83523  0.012711586   0.01186504            2 
 3658000   0.66433654   -8.6504512    557.03944  0.012689982  0.011860704            2 
 3659000   0.65380647   -8.6690506    557.19417  0.012690038  0.011856365            3 
 3660000   0.67719811   -8.6698844    557.44963  0.012692387  0.011852038            5 
 3661000   0.68913366   -8.6513326    556.81596  0.012674496  0.011847709            3 
 3662000   0.65958475   -8.6679249    557.44262  0.012685295   0.01184338            2 
 3663000    0.6686166   -8.6578913    556.69094  0.012664732  0.011839051            3 
 3664000   0.66370339   -8.6763512    557.33467  0.012675916  0.011834724            3 
 3665000   0.66265019   -8.6562865    557.06041  0.012666221  0.011830402            3 
 3666000   0.66042287   -8.6734583    556.04435   0.01263967  0.011826083            5 
 3667000   0.65489721   -8.6550482    557.22918  0.012663148  0.011821763            3 
 3668000   0.67197302   -8.6794141     555.7942  0.012627095  0.011817444            6 
 3669000   0.66421498   -8.6655166    556.54983  0.012640816  0.011813121            6 
 3670000    0.6577543   -8.6643377    556.15867  0.012628489  0.011808796            2 
 3671000   0.67610981   -8.6687232    556.63358   0.01263583  0.011804468            2 
 3672000   0.66598289   -8.6616549    555.81996  0.012613924  0.011800159            2 
 3673000   0.66209418   -8.6508207    557.05311  0.012638468  0.011795846            3 
 3674000   0.66244237   -8.6765955    556.21856  0.012616099  0.011791526            6 
 3675000   0.66507351    -8.657523    556.31716  0.012614902  0.011787217            4 
 3676000   0.65021207   -8.6704177    557.21929  0.012631921  0.011782899            3 
 3677000   0.65534484    -8.662556    556.15194  0.012604296  0.011778584            3 
 3678000   0.65241694    -8.672175    557.12224  0.012622853  0.011774269            4 
 3679000   0.66630485   -8.6807085    556.60348  0.012607672  0.011769959            5 
 3680000   0.65202034   -8.6669857    556.45699  0.012600928   0.01176565            5 
 3681000   0.65936429   -8.6979736    557.37757  0.012618346  0.011761341            3 
 3682000   0.65968478   -8.6569273    556.62721  0.012597936  0.011757023            2 
 3683000   0.65913521   -8.6600463    555.83138  0.012576509  0.011752714            2 
 3684000   0.67238828   -8.6819354    556.37918  0.012585486  0.011748411            3 
 3685000   0.68149675   -8.6588505    556.59979   0.01258706  0.011744113            2 
 3686000   0.66191895   -8.6644908    556.52926  0.012582051  0.011739821            5 
 3687000   0.65920783   -8.6766279    555.29495   0.01255074  0.011735522            3 
 3688000    0.6642477   -8.6778113    556.99409  0.012585731  0.011731221            4 
 3689000   0.65364999   -8.6769142    555.27009  0.012543374  0.011726929            1 
 3690000   0.66738007   -8.6721655     556.6217  0.012570499  0.011722634            4 
 3691000   0.66261578   -8.6599653    556.63914  0.012567487  0.011718348            4 
 3692000   0.65480952   -8.6718398    556.66536  0.012564675  0.011714061            2 
 3693000   0.67659346   -8.6703667    556.34967  0.012554149  0.011709776            3 
 3694000   0.68214096   -8.6574596    557.36295  0.012573609  0.011705499            2 
 3695000   0.67047626   -8.6550629    556.26409  0.012545424  0.011701224            2 
 3696000   0.65199092   -8.6620006    557.71443   0.01257473  0.011696961            3 
 3697000   0.66161959    -8.677068    557.61962  0.012569192  0.011692687            6 
 3698000   0.65835065   -8.6610997    557.50327  0.012563171  0.011688404            2 
 3699000    0.6502321   -8.6605602    556.52619  0.012537762  0.011684126            5 
 3700000   0.65671669    -8.695502    556.94714  0.012543854  0.011679857            2 
 3701000   0.66331856    -8.663174    556.38546  0.012527818  0.011675592            3 
 3702000   0.65608735   -8.6768941    556.07054  0.012517345  0.011671324            3 
 3703000    0.6477934   -8.6657505    555.89367  0.012509984  0.011667054            5 
 3704000   0.66936854    -8.669651    556.50202  0.012520294  0.011662785            4 
 3705000    0.6683923   -8.6786928    557.62202  0.012542106  0.011658525            4 
 3706000   0.66387182   -8.6304096    557.07689  0.012526464  0.011654266            2 
 3707000   0.65600322   -8.6708933    556.37426  0.012507289  0.011650002            2 
 3708000   0.64595503   -8.6421829    557.25859  0.012523791  0.011645742            4 
 3709000   0.65258971   -8.6532102    555.81924  0.012488075  0.011641481            4 
 3710000   0.66255786    -8.649281    557.09872  0.012513448  0.011637217            2 
 3711000   0.65805823   -8.6601435    556.75521  0.012502363  0.011632958            2 
 3712000   0.64793007   -8.6895719     555.9518  0.012480958  0.011628698            5 
 3713000   0.65057436   -8.6817644    557.44184  0.012511039  0.011624443            3 
 3714000   0.65726838   -8.6601853    557.01825  0.012498166  0.011620193            3 
 3715000   0.65154376   -8.6671859    556.23918  0.012477326  0.011615937            2 
 3716000   0.65826873   -8.6753433    556.60177  0.012482099  0.011611688            3 
 3717000   0.67412955   -8.6495902     557.8151  0.012505943  0.011607449            4 
 3718000   0.65156313   -8.6623647    556.89902  0.012482047  0.011603213            3 
 3719000   0.65155572   -8.6486294    556.86174  0.012477856  0.011598979            2 
 3720000   0.65648772   -8.6575281    557.25452    0.0124833   0.01159475            1 
 3721000   0.65820026   -8.6734357    557.09668   0.01247641  0.011590524            2 
 3722000   0.65225044   -8.6696246    556.72266  0.012464684    0.0115863            6 
 3723000   0.64458705   -8.6615216    558.45342  0.012500077  0.011582078            3 
 3724000   0.64742824   -8.6650763    556.80967  0.012459937  0.011577854            3 
 3725000   0.65799776     -8.67989    556.65516  0.012453136  0.011573624            4 
 3726000    0.6574235   -8.6788231    557.10344  0.012459819  0.011569395            8 
 3727000   0.65938088   -8.6892132    557.39743   0.01246305  0.011565163            5 
 3728000   0.64990469   -8.6677919    556.26619  0.012434419  0.011560933            4 
 3729000   0.64981748   -8.6794777    555.80085  0.012420686  0.011556701            2 
 3730000   0.63991231   -8.6707446    555.98619  0.012421497  0.011552476           14 
 3731000   0.66017217     -8.65866    557.17928  0.012444815  0.011548254            2 
 3732000    0.6491959   -8.6847469    555.02623  0.012393405  0.011544036            4 
 3733000   0.66122946   -8.6734089    556.66066  0.012426571   0.01153981            8 
 3734000   0.65636615   -8.6681726    556.74437  0.012425111  0.011535587            7 
 3735000   0.65277925   -8.6543562    555.94304  0.012403905  0.011531373            4 
 3736000   0.65117523   -8.6689611     556.7791  0.012419234  0.011527151            4 
 3737000   0.65563497   -8.6731857     556.1257   0.01240134  0.011522929            3 
 3738000   0.65363896   -8.6526649    557.14516   0.01242075  0.011518717            2 
 3739000   0.67045382   -8.6551508    556.35209  0.012399752  0.011514506            6 
 3740000   0.64256021   -8.6711414    555.72292  0.012382418  0.011510291            5 
 3741000   0.64137778   -8.6765097      556.598  0.012398601  0.011506083            4 
 3742000   0.65304025   -8.6779003    555.74043   0.01237619  0.011501878            2 
 3743000   0.66409381   -8.6644508    556.30913  0.012385545  0.011497673            1 
 3744000   0.64706258   -8.6838531     556.2341  0.012380567   0.01149347            4 
 3745000   0.65311179   -8.6680027    557.13858  0.012397387  0.011489269            3 
 3746000   0.64312422   -8.6437512    557.70145  0.012406599  0.011485078            2 
 3747000   0.64348342   -8.6854225    556.25409  0.012371099  0.011480878            5 
 3748000   0.64938531   -8.6538549    556.51173  0.012373526   0.01147668            4 
 3749000   0.65146664   -8.6904937    556.11437  0.012361393  0.011472486            5 
 3750000   0.63889136   -8.6727378     555.8996  0.012353324  0.011468292            2 
 3751000   0.64664022   -8.6756624    556.50163  0.012363406  0.011464101            3 
 3752000   0.63994843   -8.6524961    555.59188  0.012339905  0.011459917            3 
 3753000   0.65420049   -8.6670524    557.44768  0.012377824  0.011455741            3 
 3754000   0.65549418   -8.6969633    555.46899  0.012330603  0.011451558            8 
 3755000    0.6601272   -8.6793289    557.48548   0.01237207  0.011447386            4 
 3756000   0.65201076   -8.6547132    556.81817  0.012353971  0.011443209            6 
 3757000   0.66113674   -8.6646048     556.7156  0.012348407  0.011439038            8 
 3758000    0.6552954   -8.6865255     556.7048  0.012344882   0.01143487            5 
 3759000   0.65424874   -8.6942535    555.45941  0.012313989  0.011430692            6 
 3760000   0.64585445   -8.6590629    558.19425  0.012371326  0.011426515            7 
 3761000   0.66267126   -8.6702603    557.00124  0.012341603  0.011422348            4 
 3762000   0.64151882   -8.6868402    556.32152  0.012323266  0.011418176            2 
 3763000   0.65024343   -8.6787475    555.66895   0.01230554  0.011414006            1 
 3764000   0.64798909     -8.68353    556.03061  0.012310277  0.011409835            3 
 3765000   0.65900477   -8.6728011    555.60831  0.012297661  0.011405661            4 
 3766000   0.65280423    -8.688535    556.33462  0.012310467  0.011401498            4 
 3767000   0.65137489    -8.694005    556.49165  0.012310673  0.011397328            2 
 3768000   0.65547599   -8.6760616    556.51108  0.012307835   0.01139317            1 
 3769000   0.65673264   -8.6653243    556.88632  0.012312866  0.011389014            2 
 3770000   0.63566211   -8.6875799     556.7152  0.012305818   0.01138486            5 
 3771000   0.65124819   -8.6917709    556.42721  0.012296191  0.011380698            2 
 3772000    0.6460153   -8.6927542    556.77843   0.01230069  0.011376544            4 
 3773000   0.67244558   -8.6828502    555.82404   0.01227635  0.011372388            3 
 3774000   0.64394132   -8.6693729    556.10023  0.012279196  0.011368239            3 
 3775000   0.65652333   -8.6921151    555.76259   0.01226849  0.011364084            5 
 3776000   0.64722746   -8.6994387    555.65613  0.012262891  0.011359928            6 
 3777000   0.65676939   -8.6792657    554.79107  0.012240558  0.011355771            2 
 3778000   0.64622306   -8.6782968    555.34195   0.01224947  0.011351621            3 
 3779000   0.64615791   -8.6776819    557.14159  0.012285913  0.011347475            2 
 3780000   0.64523504   -8.6865168    556.61066  0.012270958  0.011343329            4 
 3781000    0.6390959   -8.6728707    555.90823  0.012252231  0.011339192            3 
 3782000   0.64421199   -8.6827925    556.46125  0.012261177  0.011335055            1 
 3783000   0.64596841     -8.68022    556.18576  0.012251867  0.011330921            6 
 3784000   0.66235869    -8.669655    556.37111  0.012252711  0.011326793            4 
 3785000   0.65313745   -8.6767575    556.31954  0.012248339  0.011322655            2 
 3786000   0.64723896   -8.7014252    555.65855  0.012230554  0.011318504            5 
 3787000   0.64673575    -8.696933    556.03737  0.012235661  0.011314369            3 
 3788000   0.64079169   -8.6856698    556.10197  0.012233852  0.011310236            3 
 3789000    0.6374786   -8.6940514    556.52934  0.012240022  0.011306106            1 
 3790000   0.65189056   -8.6796446    555.50284  0.012214222  0.011301978            5 
 3791000   0.64095879   -8.7045868    556.69043  0.012237106   0.01129785            2 
 3792000   0.64009805     -8.70625    557.54653  0.012252693  0.011293721            3 
 3793000   0.64508298   -8.7047292     555.6862   0.01220859  0.011289596            3 
 3794000   0.63648682   -8.6738939    555.50139  0.012201313  0.011285477            4 
 3795000    0.6314003   -8.6865044    555.41489  0.012196199  0.011281358            2 
 3796000   0.64917153   -8.6847392    555.96624   0.01220509  0.011277245            3 
 3797000   0.64214397   -8.6712076    556.15611  0.012206042  0.011273125            2 
 3798000   0.63231283   -8.7273289    555.70285  0.012192883  0.011269004            4 
 3799000   0.64541228   -8.6957876    556.87686  0.012215427  0.011264882            3 
 3800000   0.64120689    -8.700123    555.88742  0.012190514  0.011260767            3 
 3801000   0.64662168   -8.6754514    555.53097  0.012179492  0.011256662            4 
 3802000   0.63926356   -8.6893931    555.89424   0.01218425  0.011252555            2 
 3803000   0.64478111   -8.7014194    555.92666  0.012181757  0.011248445            3 
 3804000   0.65307587   -8.6902634    557.00393  0.012202154  0.011244338            1 
 3805000   0.63929613   -8.6896372    555.73492  0.012171155  0.011240232            3 
 3806000   0.63920515   -8.6919233    555.79615  0.012169297  0.011236127            2 
 3807000   0.63313823   -8.6810861    555.59013  0.012161591  0.011232024            2 
 3808000   0.63793396   -8.6705567    557.01636  0.012189609   0.01122792            1 
 3809000   0.63136923   -8.7060897    555.01763   0.01214268  0.011223825            4 
 3810000   0.63806518   -8.6983955    555.04378  0.012140065  0.011219731            4 
 3811000   0.63530452   -8.7030088     555.2462  0.012141306  0.011215638            4 
 3812000   0.63632798   -8.6893762    556.41609  0.012163696  0.011211544            6 
 3813000   0.63616116    -8.688324    554.99326  0.012129409   0.01120745            2 
 3814000   0.65104674   -8.7022403    555.93907  0.012146895  0.011203352            1 
 3815000   0.64214654   -8.6885392    556.69654  0.012160256  0.011199259            1 
 3816000   0.63391623   -8.6994882    555.72516  0.012135857  0.011195165            3 
 3817000   0.64750265   -8.7071743    555.18468  0.012120878  0.011191081            6 
 3818000   0.63130764    -8.710865     555.4711  0.012123955  0.011186993            2 
 3819000    0.6479246   -8.6829318    555.50569  0.012121535  0.011182908            2 
 3820000    0.6433735    -8.694622    556.34637  0.012136701  0.011178829            6 
 3821000   0.62879085   -8.7140969    555.60046  0.012117257   0.01117475            3 
 3822000   0.64913289   -8.6975336    556.90663  0.012142566   0.01117067            3 
 3823000   0.63866841   -8.7111897    556.85674  0.012138302  0.011166596            3 
 3824000   0.64809796   -8.7069677    555.97297  0.012115868  0.011162521            3 
 3825000   0.62945574   -8.6959148    555.20983  0.012096075  0.011158449            3 
 3826000   0.64386134   -8.7017439    555.04772  0.012089382  0.011154373            3 
 3827000    0.6454053   -8.7105743    555.59266   0.01209809  0.011150303            2 
 3828000   0.64686824   -8.6764556    556.99006   0.01212535  0.011146235            1 
 3829000   0.64462489   -8.7138527    556.69658  0.012115796  0.011142164            1 
 3830000    0.6469812   -8.6931059    555.75943  0.012092242  0.011138095            3 
 3831000   0.63537416   -8.7055735    555.34436  0.012080057  0.011134023            3 
 3832000   0.63759835   -8.6936588    555.48825  0.012080033  0.011129951            4 
 3833000   0.63030148   -8.7162522     556.5772  0.012100557  0.011125877            1 
 3834000   0.64857066   -8.7068671    554.85196  0.012059902  0.011121801            6 
 3835000   0.65076352   -8.7097633    555.69403  0.012075055  0.011117733            2 
 3836000   0.64202743   -8.7204753    555.87897  0.012075925  0.011113661            2 
 3837000   0.63931306   -8.7051361    555.91561  0.012073573   0.01110959            3 
 3838000   0.63920397   -8.7238163    555.92819  0.012070701  0.011105513            2 
 3839000   0.64842629   -8.7032996    555.36532  0.012055338  0.011101444            2 
 3840000   0.65463302   -8.7326616    554.97504  0.012043729  0.011097376            1 
 3841000   0.63243085    -8.742412    554.80005  0.012036797  0.011093312            2 
 3842000   0.64507413   -8.7313261    555.27632  0.012043995  0.011089247            4 
 3843000   0.64154489   -8.7362855    555.21212  0.012039468  0.011085188            2 
 3844000   0.64660021   -8.7027868    555.34891  0.012039302   0.01108113            4 
 3845000   0.63627398   -8.7144499    555.19922  0.012032926  0.011077071            2 
 3846000   0.62348083   -8.7149968    554.57196  0.012016207   0.01107301            2 
 3847000   0.62672216   -8.7079371    554.57127  0.012013068  0.011068955            4 
 3848000   0.62940876   -8.7167489    555.12514  0.012021941  0.011064903            2 
 3849000   0.64551798   -8.7206627    554.65514  0.012008642  0.011060856            2 
 3850000   0.61747764   -8.7217116    554.59446  0.012004209  0.011056803            1 
 3851000   0.63754593   -8.6869935    555.08177  0.012011637  0.011052752            2 
 3852000   0.64004714   -8.7260637    554.15849  0.011988545  0.011048706            2 
 3853000   0.63683553   -8.7079995    555.53637  0.012015234  0.011044658            5 
 3854000   0.62835675   -8.7446604    555.69478  0.012015542   0.01104061            6 
 3855000    0.6366382   -8.7256896    555.37246  0.012005458  0.011036569            3 
 3856000   0.64105032   -8.7180873     554.9162  0.011992484  0.011032528            2 
 3857000   0.62900526   -8.7163997    554.70478  0.011984806  0.011028493            6 
 3858000   0.65462707   -8.7251468    555.61948  0.012001458  0.011024462            3 
 3859000   0.64289327   -8.7246402    555.35163  0.011992564  0.011020432            3 
 3860000   0.61855594   -8.6937699    556.13612  0.012006393  0.011016412            2 
 3861000   0.62510819   -8.7168308    555.25352  0.011984234  0.011012388            2 
 3862000   0.64605171   -8.7283081    555.96089  0.011996394  0.011008369            5 
 3863000   0.63135644   -8.7314425    555.77571  0.011989294  0.011004349            2 
 3864000   0.62821832   -8.7191133    555.42142   0.01197855  0.011000334            1 
 3865000   0.64406682      -8.7113    554.69967  0.011959889  0.010996312            2 
 3866000   0.64923873   -8.7347276    555.42284  0.011972384  0.010992297            2 
 3867000   0.63037452   -8.7259428    555.25101  0.011965585   0.01098828            3 
 3868000   0.63032144   -8.7249572    554.83608  0.011953552  0.010984266            3 
 3869000    0.6390889   -8.7109705    555.05825  0.011955248   0.01098025            5 
 3870000   0.63723476   -8.7314083     555.0697  0.011952405  0.010976237            3 
 3871000   0.64096194   -8.7191012    555.53531  0.011959341  0.010972223            3 
 3872000   0.63123817   -8.7193069    554.93791  0.011943395  0.010968207            2 
 3873000    0.6275317   -8.7377216    555.21482  0.011946269  0.010964197            2 
 3874000   0.63515837   -8.7305525     555.1612  0.011942032   0.01096019            2 
 3875000   0.61667461   -8.7389935    554.25982  0.011919566   0.01095619            3 
 3876000   0.62200691   -8.7135447    555.31446  0.011939165  0.010952189            2 
 3877000   0.62231683   -8.7306824    555.73116  0.011945043  0.010948188            3 
 3878000   0.63742766   -8.7461713     555.2426  0.011931464  0.010944184            1 
 3879000    0.6388069   -8.7225659    554.97966  0.011922739   0.01094019            2 
 3880000   0.63634993   -8.7382841    555.42622  0.011929257  0.010936193            4 
 3881000   0.61731026   -8.7227339    556.25307  0.011943938    0.0109322            4 
 3882000   0.64292147   -8.7217566    555.13158  0.011916787  0.010928212            4 
 3883000   0.64300655   -8.7167122    555.19489  0.011915076  0.010924225            2 
 3884000   0.63160623   -8.7276152    555.42473   0.01191694  0.010920239            5 
 3885000   0.63085915    -8.733929    553.59147  0.011874549  0.010916253            4 
 3886000   0.62809697    -8.719007    554.87475  0.011899012  0.010912263            2 
 3887000   0.63834296   -8.7218322    555.65585  0.011912697  0.010908282            1 
 3888000   0.62139719   -8.7307791    554.66789  0.011888458  0.010904304            1 
 3889000   0.63513202   -8.7348051    555.69455    0.0119074   0.01090032            1 
 3890000   0.63325264   -8.7307752    555.04716   0.01189047  0.010896335            1 
 3891000   0.61798659    -8.726326     553.8822  0.011862465  0.010892347            2 
 3892000   0.64277743   -8.7337259     554.6905  0.011876724  0.010888366            2 
 3893000     0.626506   -8.7271019    554.73517  0.011874629  0.010884385            3 
 3894000   0.62907225   -8.7334361    555.29476  0.011883555  0.010880411            2 
 3895000   0.61367746   -8.7507603     554.7707  0.011869292  0.010876436            3 
 3896000    0.6337914   -8.7498743    554.84997  0.011867941  0.010872462            2 
 3897000   0.62107566   -8.7522523    555.37642  0.011876153   0.01086849            2 
 3898000   0.62909193   -8.7468125    555.27103  0.011870853  0.010864522            2 
 3899000   0.62357838    -8.741218    555.52176  0.011873167   0.01086055            2 
 3900000   0.62830296   -8.7332844    554.54883  0.011849334  0.010856583            3 
 3901000   0.62672603   -8.7493267    554.79737  0.011851606  0.010852617            2 
 3902000   0.63281728   -8.7572242    554.43841  0.011840902  0.010848653            2 
 3903000   0.63339408   -8.7467032    554.94608  0.011848708  0.010844686            2 
 3904000   0.62764898   -8.7557312    554.31081  0.011832113  0.010840721            4 
 3905000   0.62657204    -8.738311    555.24762  0.011849074  0.010836755            1 
 3906000   0.63042597   -8.7465225    554.73457  0.011835095  0.010832788            3 
 3907000   0.62324433   -8.7399221    554.53174  0.011827739  0.010828823            2 
 3908000   0.63068102   -8.7596234    554.20413  0.011817727  0.010824857            2 
 3909000    0.6285383   -8.7665252    555.96823  0.011852311  0.010820895            1 
 3910000   0.64182622   -8.7240781    554.72948  0.011822879  0.010816933            3 
 3911000   0.61052251   -8.7685572    554.51046  0.011815189  0.010812975            2 
 3912000   0.62169262   -8.7662115    554.56876  0.011813411  0.010809021            2 
 3913000   0.63194258   -8.7412869    555.31238  0.011826228  0.010805064            4 
 3914000   0.63338689   -8.7520678    554.49059   0.01180571  0.010801111            3 
 3915000   0.62617987    -8.756535    555.55498  0.011825351  0.010797154            4 
 3916000   0.62642752   -8.7519894    555.04209  0.011811417  0.010793202            2 
 3917000    0.6370725    -8.758613    554.56555  0.011798263  0.010789251            3 
 3918000   0.63602835   -8.7540853    554.29644  0.011789528  0.010785303            2 
 3919000    0.6265065   -8.7558868    553.29005   0.01176512  0.010781354            2 
 3920000   0.62422851   -8.7637939    555.14257    0.0118015  0.010777406            2 
 3921000   0.63199101    -8.751358    554.97068  0.011794837  0.010773463            1 
 3922000   0.63659826    -8.744855    555.85948  0.011810715  0.010769523            4 
 3923000   0.62726684   -8.7276665    555.22253  0.011794174   0.01076559            2 
 3924000   0.62658772   -8.7484053     555.2297   0.01179132  0.010761651            2 
 3925000   0.62898476   -8.7488561     554.9497  0.011782371  0.010757719            2 
 3926000   0.63609595   -8.7441542    555.23818  0.011785494   0.01075379            3 
 3927000   0.63495165   -8.7616791     554.3362  0.011763352  0.010749861            1 
 3928000   0.63063952   -8.7287108     554.6853  0.011767763  0.010745931            6 
 3929000   0.63171557   -8.7404364    554.81607  0.011767542  0.010742004            2 
 3930000   0.61233154   -8.7603946    555.15693  0.011771776  0.010738078            2 
 3931000   0.62296581   -8.7467379    554.36846  0.011752066  0.010734154            4 
 3932000   0.61493755   -8.7402088     555.6928  0.011777145  0.010730233            5 
 3933000   0.61936428    -8.753102    554.24272  0.011743426  0.010726308            5 
 3934000    0.6369764   -8.7461226    554.61639  0.011748356  0.010722389            3 
 3935000   0.62407875   -8.7561408    553.70889  0.011726152  0.010718462            1 
 3936000   0.62530667    -8.775147     554.6761   0.01174365  0.010714538            2 
 3937000   0.61538322   -8.7506841    555.07143  0.011749036  0.010710621            3 
 3938000   0.61616565   -8.7780743    553.88899   0.01172103  0.010706702            4 
 3939000   0.62402206   -8.7735216    554.05912  0.011721654  0.010702783            3 
 3940000   0.63590916   -8.7719832     554.3075  0.011723932  0.010698871            3 
 3941000   0.64321247   -8.7379628    554.02912  0.011715071  0.010694961            4 
 3942000   0.61576959    -8.747188    554.52684  0.011722621  0.010691055            2 
 3943000   0.62343774   -8.7616352    554.03476  0.011709248  0.010687149            2 
 3944000   0.62377564   -8.7657912    554.64627  0.011719199  0.010683242            3 
 3945000   0.61502514   -8.7350503    554.57956   0.01171482  0.010679335            2 
 3946000   0.61625938   -8.7494346    554.48175  0.011709785  0.010675434            2 
 3947000    0.6279454   -8.7459076    554.05257  0.011697757  0.010671534            3 
 3948000   0.62322051   -8.7158097    554.67858  0.011708008  0.010667644            3 
 3949000   0.62436484   -8.7548075     554.3211  0.011697499  0.010663758            1 
 3950000   0.63380912   -8.7352573    554.63497   0.01170116  0.010659862            3 
 3951000   0.61149608   -8.7461141    554.28873  0.011690895  0.010655964            1 
 3952000   0.61337612   -8.7579505    554.89098  0.011700636   0.01065207            3 
 3953000   0.62638518   -8.7611117    555.35866  0.011707536  0.010648178            3 
 3954000   0.61024565   -8.7590518    554.76758  0.011692117  0.010644291            1 
 3955000   0.61454112   -8.7425683    554.03941  0.011673818  0.010640397            2 
 3956000   0.61994091   -8.7344701    554.67399  0.011684235  0.010636511            2 
 3957000   0.63242664   -8.7438107    554.66653  0.011681125  0.010632623            3 
 3958000   0.60873461    -8.771001    553.95231  0.011663136  0.010628739            2 
 3959000   0.62044094   -8.7596499    555.03774  0.011683037  0.010624857            4 
 3960000   0.62417613   -8.7608499     553.8758  0.011655636  0.010620979            3 
 3961000   0.61718439   -8.7760627    553.60821  0.011647063  0.010617098            1 
 3962000    0.6158499   -8.7980892    554.31821  0.011659057  0.010613218            5 
 3963000   0.62920822   -8.7621676    554.80972   0.01166645  0.010609339            4 
 3964000   0.61537462   -8.7672107     554.2962  0.011652712  0.010605461            3 
 3965000   0.62537016   -8.7736431    553.89682  0.011641379  0.010601584            2 
 3966000   0.61850362    -8.756036    553.62489   0.01163273  0.010597706            3 
 3967000   0.62305009   -8.7462972    554.06594  0.011639063  0.010593832            3 
 3968000   0.62386808    -8.785524    554.40899  0.011643334  0.010589964            3 
 3969000   0.62680861   -8.7898212    552.94174  0.011609594  0.010586093            2 
 3970000   0.62640099   -8.7881676    553.26279  0.011613409  0.010582224            1 
 3971000   0.62204049   -8.7767206     553.5638  0.011616801  0.010578351            4 
 3972000   0.61559502   -8.7851884    553.95371  0.011622057  0.010574484            1 
 3973000   0.61417692   -8.7617663    554.88781  0.011638724  0.010570614            2 
 3974000   0.60416228   -8.7780578    552.79084  0.011591823  0.010566744            2 
 3975000   0.61875314   -8.7784345    554.96614   0.01163451  0.010562882            1 
 3976000   0.61773365   -8.7490927     553.7384  0.011605852  0.010559019            1 
 3977000   0.62597142   -8.7764394     553.4036  0.011595918  0.010555156            3 
 3978000   0.62258306   -8.7833098    553.39428  0.011592808  0.010551291            2 
 3979000   0.60246487   -8.7684552    553.91823  0.011600868  0.010547433            4 
 3980000   0.62250536   -8.7740285    553.55445  0.011590336  0.010543583            3 
 3981000   0.61384066   -8.7798702    553.63608  0.011589133  0.010539731            4 
 3982000   0.60925291   -8.7732791    554.02266  0.011594313  0.010535881            3 
 3983000   0.61121292   -8.7656137    553.74881  0.011585673  0.010532033            2 
 3984000   0.60178926   -8.7948765    552.88053  0.011564603  0.010528183            1 
 3985000   0.62024034   -8.7774944    554.26328  0.011590617  0.010524333            2 
 3986000   0.60982829   -8.7854066    554.19845  0.011586353  0.010520487            3 
 3987000   0.61611014    -8.756222    554.37362  0.011587108  0.010516643            2 
 3988000   0.61520286   -8.7851003    553.28876  0.011561534  0.010512804            3 
 3989000   0.61244454   -8.7794771     553.6606  0.011566404  0.010508965            3 
 3990000   0.62463448   -8.7493341    555.18197  0.011595279  0.010505135            1 
 3991000   0.61340007   -8.7648097    553.52067  0.011557685  0.010501301            3 
 3992000   0.61013337   -8.7807124    554.01279  0.011565063  0.010497466            5 
 3993000   0.62226924   -8.7811371    553.98891  0.011561669  0.010493628            3 
 3994000   0.61843591   -8.7759403    553.34979  0.011545439  0.010489797            2 
 3995000    0.6239856   -8.7954203    554.54175  0.011567412  0.010485969            3 
 3996000   0.60472898   -8.7485522    554.98664  0.011573795  0.010482144            4 
 3997000   0.61142626   -8.7969377    553.43058  0.011538457  0.010478315            2 
 3998000   0.61678315   -8.7814701    553.08018  0.011528268  0.010474488            4 
 3999000   0.60603424   -8.8012529     553.4624   0.01153335  0.010470661            3 
 4000000   0.61464134   -8.7703696    554.35346   0.01154903   0.01046684            2 
 4001000   0.59967996   -8.7834905    553.97346  0.011538229  0.010463015            3 
 4002000   0.60677034   -8.7767736    553.78513  0.011531424  0.010459196            2 
 4003000   0.61840401   -8.7868536     553.0215  0.011512647  0.010455378            1 
 4004000   0.60816678   -8.7860642    555.13193  0.011553695  0.010451562            2 
 4005000   0.61170482    -8.761653      555.014  0.011548356  0.010447749            1 
 4006000   0.60308179   -8.7596649    554.49754   0.01153473  0.010443937            2 
 4007000   0.60935106   -8.7946869    553.99237  0.011521345  0.010440132            6 
 4008000   0.59592732   -8.7650265    554.04002  0.011519461  0.010436316            4 
 4009000   0.61882156   -8.7735414    554.14608  0.011518793  0.010432506            2 
 4010000   0.61043669   -8.7789555    553.21574  0.011496586  0.010428696            4 
 4011000   0.61176357   -8.7836633    554.01715   0.01151037  0.010424892            1 
 4012000   0.61117721   -8.7849056    554.22181  0.011511753  0.010421092            4 
 4013000   0.60000462   -8.7850735    553.74668  0.011499017   0.01041729            2 
 4014000    0.6154128   -8.7812184    552.56335  0.011471586  0.010413489            2 
 4015000   0.60059594   -8.7875605    553.90114  0.011496495    0.0104097            2 
 4016000   0.59197179   -8.7965912    554.26255  0.011501132  0.010405902            1 
 4017000   0.60945408   -8.7948957    553.80963  0.011488873  0.010402106            4 
 4018000   0.61789078   -8.7761931     553.2073  0.011473521  0.010398315            2 
 4019000   0.60051572   -8.7823049    554.58108  0.011499152  0.010394525            2 
 4020000   0.61667714   -8.7859728    553.13685  0.011466353  0.010390734            2 
 4021000   0.60971733   -8.7695375    553.63249  0.011473773  0.010386948            2 
 4022000   0.60408896   -8.7961655    553.98046   0.01147813  0.010383162            2 
 4023000   0.60724657   -8.7838783    554.13526  0.011478483  0.010379381            2 
 4024000   0.60636414   -8.7617234    553.26625  0.011457634  0.010375598            4 
 4025000   0.60920523   -8.7843963    553.17779  0.011452956  0.010371818            3 
 4026000   0.61237907   -8.8092703    553.76764  0.011462321  0.010368033            6 
 4027000   0.59846341   -8.8018057    552.94316  0.011442413   0.01036425            4 
 4028000   0.61527422    -8.778251      553.643  0.011454051  0.010360468            4 
 4029000    0.6162203   -8.7862079    553.68896  0.011452158   0.01035669            6 
 4030000    0.6040091   -8.7681703    553.04977    0.0114361  0.010352916            8 
 4031000   0.60790179   -8.7935929    553.55438  0.011443694  0.010349136            7 
 4032000   0.61909261   -8.7892237     553.3668  0.011436979   0.01034536            2 
 4033000   0.60305537   -8.7854339    553.20552  0.011430811  0.010341587            6 
 4034000   0.61266598   -8.7981261     553.4998  0.011434056  0.010337816            5 
 4035000   0.62009297   -8.8083686    553.61939  0.011433692  0.010334048            2 
 4036000   0.62192482   -8.7922953     552.6469   0.01141078  0.010330285            3 
 4037000   0.60860625   -8.7799009    553.24051  0.011420207   0.01032652            8 
 4038000   0.60199002   -8.7785576    554.35284  0.011440334  0.010322765            7 
 4039000   0.58688303   -8.7923336    554.35344  0.011437514   0.01031901            5 
 4040000   0.60833451   -8.7978179    554.25942  0.011432744  0.010315255            4 
 4041000   0.60669763   -8.7884251    553.85882  0.011421654  0.010311498            3 
 4042000   0.60508402   -8.8050801    553.93728  0.011420445  0.010307738            4 
 4043000   0.59669908   -8.8051753    554.41306  0.011427427  0.010303982            2 
 4044000   0.61217591   -8.7933304    553.96619  0.011415393  0.010300225            3 
 4045000   0.62243131   -8.8172218    553.37561  0.011400404  0.010296467            6 
 4046000   0.59868946   -8.7999135    553.00475  0.011389948  0.010292716            5 
 4047000   0.60107076    -8.797118    553.15989  0.011390328  0.010288964            5 
 4048000   0.61124961   -8.7931958    553.51339  0.011394791  0.010285216            4 
 4049000   0.61120168   -8.8012871    552.67198   0.01137466  0.010281463            4 
 4050000   0.60475088   -8.8134903    553.34942   0.01138579  0.010277715            8 
 4051000   0.60831108   -8.8010275    552.94458  0.011374652  0.010273967            4 
 4052000   0.60243745   -8.8140468    553.63079  0.011385957  0.010270218            4 
 4053000   0.61437992   -8.8136804    552.60915  0.011362142   0.01026647            8 
 4054000   0.61145709   -8.8094209    553.84591  0.011384762   0.01026273            3 
 4055000   0.60321672   -8.7944191    553.52952  0.011375452  0.010258991            3 
 4056000   0.60257837   -8.7933005     553.1906  0.011365685   0.01025525            5 
 4057000   0.60766908   -8.8037482    553.31682  0.011365476  0.010251512            5 
 4058000    0.5934294   -8.8131227    552.98832  0.011355929  0.010247777            7 
 4059000   0.60036346   -8.8148022    552.93179  0.011351971  0.010244039            4 
 4060000    0.5975529    -8.804289    553.72009  0.011365355  0.010240303            5 
 4061000    0.6039183    -8.832536    553.74317   0.01136303  0.010236571            7 
 4062000   0.58957298   -8.8178389    552.76265  0.011340117  0.010232837            7 
 4063000   0.61219416   -8.8245455     551.5485  0.011312423    0.0102291            5 
 4064000   0.60950552   -8.8052972    552.62569  0.011331728  0.010225368            8 
 4065000   0.58988642   -8.8218404    552.68955  0.011330249  0.010221636            7 
 4066000   0.61592934   -8.8073128    553.03492  0.011334541  0.010217907           12 
 4067000   0.59696103   -8.7908505     553.4801  0.011340876  0.010214179            8 
 4068000   0.59780477   -8.8114466    553.49754  0.011338445  0.010210452            3 
 4069000   0.60549008   -8.8261166    552.16214   0.01130831  0.010206723            1 
 4070000   0.60917142   -8.7996113    553.33139  0.011329472  0.010203001            5 
 4071000   0.60952663   -8.8098594    552.43655  0.011308371   0.01019928            4 
 4072000   0.59171962   -8.7944862    553.58378  0.011329072   0.01019556            6 
 4073000   0.59088362   -8.8222429    553.21715  0.011318789  0.010191841            4 
 4074000   0.59117618   -8.8275605    552.46025  0.011300529   0.01018812            3 
 4075000   0.59299262   -8.8204653    553.35657  0.011316085  0.010184405            7 
 4076000   0.59638989   -8.8207828    552.63332  0.011298522  0.010180695            3 
 4077000   0.60741523   -8.8140428    553.01501  0.011303553  0.010176988            8 
 4078000    0.6127356   -8.8065215    553.27075  0.011306007  0.010173287            2 
 4079000   0.61763226   -8.8066832    553.07413  0.011299218  0.010169581            4 
 4080000   0.59841238    -8.824547    552.36768   0.01128202  0.010165875            6 
 4081000    0.6141604   -8.7996667    552.59668  0.011283931  0.010162177            3 
 4082000   0.61117027   -8.8147942    553.32244  0.011295983  0.010158476            5 
 4083000   0.59063306   -8.8050058    553.09366  0.011288547  0.010154777            5 
 4084000   0.59770149    -8.828063    553.27936  0.011289572  0.010151083            6 
 4085000   0.61556926   -8.8173717    553.18187   0.01128482  0.010147392            5 
 4086000   0.61036645   -8.8045975    553.93622  0.011297443  0.010143699            3 
 4087000   0.58930548   -8.8027871    553.91135  0.011294172  0.010140008            4 
 4088000    0.5983857   -8.8212892    552.29993   0.01125856  0.010136316            4 
 4089000   0.59918372   -8.8185694    553.44663  0.011279177   0.01013263            3 
 4090000   0.59628097   -8.8228496    553.13757  0.011270122  0.010128945            3 
 4091000   0.59364685   -8.8236006    552.22903   0.01124886   0.01012526            2 
 4092000   0.59963931   -8.8261596    552.60191  0.011253705  0.010121577            4 
 4093000   0.59529806   -8.8173433    552.10984  0.011240937  0.010117894            2 
 4094000   0.57702237   -8.8229806     553.4633   0.01126574  0.010114212            3 
 4095000   0.58830799   -8.8086818     552.9376  0.011252291  0.010110529            7 
 4096000   0.58560592   -8.8456762    553.49035   0.01126079  0.010106854            5 
 4097000   0.59937854    -8.819358    553.94344  0.011267257  0.010103183            3 
 4098000   0.59485841   -8.8045489    552.56377  0.011236452  0.010099513            3 
 4099000   0.60026108   -8.8213267    552.22113  0.011226745  0.010095839            5 
 4100000   0.59173966   -8.8246996    552.61169  0.011231945  0.010092173            2 
 4101000   0.60849743   -8.8185192    552.58865  0.011228738  0.010088505            2 
 4102000   0.60310241   -8.8343883    552.33409  0.011220829  0.010084842            5 
 4103000   0.60139573   -8.8113793     553.0003  0.011231625  0.010081176            3 
 4104000   0.60511816   -8.8240164    552.47609  0.011218244  0.010077513            3 
 4105000   0.59642278   -8.8214697    553.46689  0.011235625  0.010073848            9 
 4106000   0.58104192   -8.8201944    552.50948  0.011213458  0.010070188            5 
 4107000   0.60371732    -8.819908    551.77447  0.011195813  0.010066532            4 
 4108000   0.60040965   -8.8159842    552.56712  0.011209167  0.010062874            6 
 4109000   0.59716923   -8.8292648    554.53152  0.011246279  0.010059218            3 
 4110000   0.60201544    -8.808929    552.52824  0.011202925  0.010055562            3 
 4111000    0.6046494   -8.8291059    552.65567  0.011202783   0.01005191            5 
 4112000   0.59489264   -8.8255859    553.08897  0.011208839  0.010048257            4 
 4113000   0.58923278   -8.8152849    553.51209  0.011214687  0.010044603            3 
 4114000   0.58101166   -8.8095652    553.02174  0.011202029  0.010040958            4 
 4115000   0.59116414   -8.8181109    553.38812  0.011206726  0.010037309            3 
 4116000   0.60042013   -8.8261136    552.35411  0.011183068  0.010033665            3 
 4117000   0.59177057   -8.8243117    552.38649  0.011181007  0.010030019            5 
 4118000   0.57931091   -8.8022819    552.72932   0.01118523  0.010026382            3 
 4119000   0.59165676   -8.8252522    552.39238  0.011175697   0.01002274            3 
 4120000    0.5972224   -8.8260604    552.82957  0.011181828  0.010019101            4 
 4121000   0.60323608   -8.8313254    552.46303  0.011171703  0.010015463            2 
 4122000   0.58595957   -8.8283603    552.51904  0.011170125  0.010011825            3 
 4123000   0.58532194   -8.8282438    552.55111  0.011168064  0.010008187            5 
 4124000    0.5905207   -8.8245567     552.9641  0.011173701  0.010004555            3 
 4125000   0.59926262   -8.8208998    553.38406  0.011179476  0.010000924            5 
 4126000   0.60502702   -8.8180641    552.73931  0.011163744 0.0099972909            6 
 4127000    0.5821959   -8.8166161     553.1278  0.011168884 0.0099936617            5 
 4128000   0.58053037   -8.8255405    552.57335  0.011154985 0.0099900324            4 
 4129000   0.58729492   -8.8272454    553.09726  0.011162857 0.0099864037            5 
 4130000   0.58737343   -8.8347897    552.72711  0.011152686 0.0099827764            2 
 4131000   0.58540614    -8.824391    553.20834  0.011159694 0.0099791468            3 
 4132000   0.58609247   -8.8308914    553.48722  0.011162617 0.0099755194            8 
 4133000   0.60619595   -8.8326062    553.55466  0.011161276 0.0099718977            5 
 4134000    0.5809509   -8.8486125     552.0609  0.011128465 0.0099682738            8 
 4135000   0.60370144   -8.8358966    552.52796  0.011135187 0.0099646543            4 
 4136000   0.58434214   -8.8403544     553.0082   0.01114217 0.0099610323            3 
 4137000   0.58139915    -8.827791     552.7922  0.011135126 0.0099574154            3 
 4138000    0.5964918   -8.8393893    553.02252  0.011137074 0.0099538002            5 
 4139000   0.59839746    -8.820081    553.43608  0.011142709 0.0099501859            5 
 4140000     0.590913   -8.8453313     553.2257  0.011135783 0.0099465721            3 
 4141000   0.58812538   -8.8497957    551.64946  0.011101374 0.0099429589            8 
 4142000    0.5928357   -8.8198915     552.5283  0.011116375 0.0099393499            5 
 4143000   0.59216406   -8.8345031    552.58514  0.011114835 0.0099357383            4 
 4144000   0.59681499   -8.8206541    552.72926  0.011115051 0.0099321297            4 
 4145000   0.59551024    -8.842483     552.1781  0.011101289 0.0099285187            5 
 4146000   0.58670586   -8.8561766     552.0874  0.011096788 0.0099249114            4 
 4147000   0.59818761   -8.8600676    551.84233  0.011089188 0.0099213032            2 
 4148000   0.59816509   -8.8567736    552.99689  0.011109709 0.0099177005            6 
 4149000   0.58815443   -8.8185534    552.54876  0.011098031 0.0099140998            5 
 4150000    0.5849313   -8.8378822    552.38592  0.011092087 0.0099105019            5 
 4151000   0.56592172   -8.8523609    552.31048    0.0110879 0.0099069028            5 
 4152000   0.59416429   -8.8358938    552.18245   0.01108266 0.0099032994            5 
 4153000   0.59628515    -8.847496    552.76748   0.01109173 0.0098997062            4 
 4154000   0.60024963   -8.8537204    552.01074  0.011073879 0.0098961119            3 
 4155000   0.57219354   -8.8443913    551.12575  0.011053465 0.0098925162            4 
 4156000   0.58468981   -8.8315008    552.62556  0.011080878 0.0098889198            2 
 4157000   0.59307954   -8.8493873    551.91557   0.01106398 0.0098853295            6 
 4158000   0.59698757   -8.8505666    552.09997  0.011065015 0.0098817399            4 
 4159000   0.58892246   -8.8250472    551.61017   0.01105254 0.0098781541            8 
 4160000   0.58384829   -8.8403519    552.18296  0.011061357 0.0098745651            3 
 4161000    0.5945823   -8.8552462    551.82708  0.011051572 0.0098709841            3 
 4162000   0.57840052   -8.8383818     552.1996  0.011056375  0.009867398            3 
 4163000   0.58518894   -8.8422346    552.76106  0.011064958 0.0098638136            6 
 4164000   0.60151193   -8.8535925    552.64389  0.011059956 0.0098602373            3 
 4165000   0.59298627   -8.8471513    553.06414  0.011065709 0.0098566572            4 
 4166000   0.58666389   -8.8442575    551.84361  0.011038638 0.0098530815            5 
 4167000   0.58990562    -8.836476    551.68785  0.011032874  0.009849507            4 
 4168000   0.58518164   -8.8286508    552.07376  0.011037943 0.0098459389            5 
 4169000   0.58381915   -8.8347153    552.76728  0.011049158 0.0098423703            3 
 4170000   0.59360663   -8.8326798    552.36796  0.011038528 0.0098388037            2 
 4171000   0.58085298   -8.8412981    552.90276  0.011046567 0.0098352389            8 
 4172000   0.58617037   -8.8420446    551.64196  0.011018735 0.0098316759            3 
 4173000   0.59676137   -8.8365499    552.12723  0.011025785  0.009828109            3 
 4174000   0.57908154    -8.860044    552.18696  0.011024336 0.0098245438            8 
 4175000   0.59596398   -8.8455088    551.76391  0.011013252 0.0098209797            4 
 4176000   0.57728395   -8.8431841    552.37706   0.01102285 0.0098174213            7 
 4177000   0.59179767   -8.8361432    552.30754  0.011018824 0.0098138643            2 
 4178000   0.57618273   -8.8517522    552.49158  0.011019858 0.0098103052            4 
 4179000   0.58065549   -8.8398838     552.1631  0.011010671 0.0098067511            4 
 4180000   0.58746506     -8.83142    552.52634  0.011015278 0.0098031958            5 
 4181000   0.59112486   -8.8294306    551.70166  0.010996206 0.0097996393            4 
 4182000   0.58165935   -8.8513373    551.06118  0.010980814 0.0097960853            6 
 4183000   0.58562429   -8.8467364    552.15964  0.011000073 0.0097925387            3 
 4184000   0.57217544   -8.8461939    551.35633  0.010981444 0.0097889909            3 
 4185000   0.57289587    -8.866623    553.09964  0.011013533 0.0097854414            3 
 4186000    0.5792879   -8.8600038    551.60604  0.010981168  0.009781893            4 
 4187000   0.58813012   -8.8536572    552.20805  0.010990527 0.0097783458            3 
 4188000   0.58142226   -8.8343839    552.39043  0.010991532 0.0097748022            2 
 4189000   0.57956896   -8.8577763    551.69585  0.010975091 0.0097712622            3 
 4190000   0.59332567   -8.8466182    551.83866  0.010975312   0.00976772            6 
 4191000   0.58479732    -8.842503    551.88575  0.010973629 0.0097641836            2 
 4192000   0.58589514   -8.8566132    552.53757  0.010983969 0.0097606447            3 
 4193000   0.58227846   -8.8376308    552.37956  0.010978209 0.0097571069            3 
 4194000    0.5698996   -8.8647118    552.93203  0.010986569 0.0097535713            2 
 4195000   0.58816744   -8.8411197    552.14242  0.010968264 0.0097500363            2 
 4196000   0.59150142   -8.8461059    552.76863  0.010978087 0.0097465023            2 
 4197000   0.57855308    -8.837248    552.75197   0.01097514 0.0097429712            3 
 4198000    0.5848291   -8.8402313    551.58927  0.010949446 0.0097394393            5 
 4199000   0.57576516   -8.8372069    551.86056  0.010952222 0.0097359089            7 
 4200000   0.58217054   -8.8534282    551.91634  0.010950721 0.0097323818            5 
 4201000   0.58145792   -8.8438401    552.29084  0.010955543 0.0097288579            1 
 4202000   0.56839787   -8.8431722    551.75019  0.010942214 0.0097253346            6 
 4203000   0.58940369   -8.8476135    551.31781  0.010931037 0.0097218097            5 
 4204000   0.57778041   -8.8443585    552.31946  0.010948292 0.0097182913            2 
 4205000   0.56393871   -8.8457341    552.89326   0.01095706 0.0097147713            6 
 4206000   0.58493555   -8.8557953    551.70127  0.010930838 0.0097112507            6 
 4207000    0.5825276   -8.8613577    552.06476   0.01093544 0.0097077296            6 
 4208000   0.57288521   -8.8676328    552.18041  0.010935132 0.0097042113            4 
 4209000   0.55853483   -8.8671554    552.24415  0.010933796 0.0097006947            5 
 4210000   0.58677198   -8.8649382    552.45291  0.010935331 0.0096971803            4 
 4211000   0.58067487   -8.8664837    551.85768  0.010920955 0.0096936654            7 
 4212000   0.57735215   -8.8593088    551.28316  0.010906995 0.0096901542            3 
 4213000   0.58737595   -8.8748969     551.6206  0.010911081 0.0096866462            4 
 4214000   0.57596838   -8.8645914     551.0036   0.01089629  0.009683141            7 
 4215000   0.57504247   -8.8659112    552.32819  0.010919893 0.0096796344            4 
 4216000   0.56963386   -8.8600703    551.56858  0.010902288 0.0096761302            5 
 4217000   0.58009392   -8.8673209    551.94723  0.010907186 0.0096726271            3 
 4218000   0.58466837   -8.8680708    550.34941  0.010873032 0.0096691257            2 
 4219000   0.58151827   -8.8655248    551.51361   0.01089345 0.0096656261            5 
 4220000   0.57052396   -8.8827383    551.72086  0.010894962 0.0096621257            4 
 4221000   0.59289417   -8.8553047     551.9164  0.010896241 0.0096586294            5 
 4222000   0.57570399   -8.8562029      551.911  0.010893554 0.0096551379            4 
 4223000   0.57810925   -8.8669236    551.53711  0.010883596 0.0096516471           11 
 4224000   0.57182006   -8.8577638    552.55778  0.010901156 0.0096481554            5 
 4225000   0.56384388   -8.8576789    552.33176  0.010894118 0.0096446671            5 
 4226000   0.57487684   -8.8407901    550.92448  0.010863789  0.009641181            5 
 4227000   0.59452186    -8.862112     552.4392  0.010891081 0.0096376931            9 
 4228000    0.5804684   -8.8385245    552.26454  0.010885063 0.0096342128            5 
 4229000   0.57837559   -8.8660883    551.33682  0.010864208 0.0096307309            6 
 4230000   0.57241875   -8.8532224    552.09169  0.010876511  0.009627253            7 
 4231000   0.57592809   -8.8646747    552.26769  0.010877407  0.009623774            8 
 4232000   0.56490166   -8.8618115    552.06088  0.010870764 0.0096202952            4 
 4233000    0.5785967   -8.8779038    551.82275  0.010863508 0.0096168183            2 
 4234000   0.57067041   -8.8699871    552.01204  0.010864668 0.0096133467            3 
 4235000   0.57280185   -8.8725516    551.95987  0.010861076 0.0096098756            8 
 4236000   0.56567512   -8.8742725    551.76504  0.010854679 0.0096064002            6 
 4237000   0.57849628   -8.8713194    551.25002  0.010841988 0.0096029319            6 
 4238000   0.57730598   -8.8620816     552.1356  0.010856843 0.0095994594            4 
 4239000   0.56518669   -8.8675073    550.76113  0.010827261 0.0095959887            5 
 4240000   0.57444209   -8.8721977    551.15151   0.01083238 0.0095925185            5 
 4241000   0.58524252   -8.8754404    551.51057  0.010836881 0.0095890505            6 
 4242000   0.57642566   -8.8773386     551.8357  0.010840714 0.0095855871            5 
 4243000   0.57204324    -8.848571    551.32198  0.010828069 0.0095821215            3 
 4244000    0.5781566   -8.8657106    551.23785  0.010823866  0.009578657            5 
 4245000   0.58058718   -8.8610701    551.52693  0.010826991 0.0095751939            4 
 4246000   0.56195665    -8.874958    551.70405  0.010827918 0.0095717341            6 
 4247000   0.57622723   -8.8789033    551.94403  0.010830077 0.0095682729            5 
 4248000   0.57120753    -8.864494    551.69849  0.010822711 0.0095648183            5 
 4249000   0.56246985   -8.8738278    551.69421  0.010820079 0.0095613601            8 
 4250000    0.5666354   -8.8566563     552.3789  0.010830959 0.0095579069            4 
 4251000   0.57455325   -8.8723675    551.78284  0.010816726 0.0095544473           10 
 4252000   0.57317708   -8.8724979    551.14328  0.010801648 0.0095509928            4 
 4253000    0.5644859   -8.8656956    551.13315   0.01079891 0.0095475408            5 
 4254000   0.56784548   -8.8854427    550.93417  0.010792473 0.0095440917            4 
 4255000   0.58750554   -8.8724364     550.9423  0.010790096 0.0095406416            4 
 4256000   0.57201574   -8.8729598    551.97758  0.010807832 0.0095371938            2 
 4257000   0.56572468   -8.8955599    551.24796   0.01079101 0.0095337473            4 
 4258000   0.56432829   -8.8667495    550.97773  0.010783187 0.0095303043            4 
 4259000   0.56053761   -8.8958152    550.50399  0.010771386 0.0095268604            8 
 4260000   0.57819404   -8.8710294    551.55572  0.010789431 0.0095234178            6 
 4261000   0.56360125   -8.8627966    551.42856  0.010784412 0.0095199786            4 
 4262000   0.56717107   -8.8845865    551.34558  0.010780259  0.009516543            8 
 4263000   0.56889593   -8.8782251    550.51001  0.010761397 0.0095131039            4 
 4264000   0.58002816   -8.8514358    552.01531  0.010788292 0.0095096672            9 
 4265000   0.57737117    -8.875833     551.1283  0.010768431 0.0095062329            9 
 4266000   0.57032285   -8.8879614    551.29027  0.010769071 0.0095028026            8 
 4267000   0.57199813   -8.8793713    551.41086  0.010768902 0.0094993733            4 
 4268000   0.58878154   -8.8723021    551.56599  0.010769408 0.0094959473            9 
 4269000   0.56865589   -8.8919544    551.38764  0.010763404 0.0094925207            4 
 4270000   0.57874797   -8.8895475    551.68044  0.010766597 0.0094890958            3 
 4271000   0.56840484   -8.8559668    550.99379  0.010750679 0.0094856736            2 
 4272000   0.56505659   -8.8685184    551.25576  0.010753272 0.0094822515            3 
 4273000   0.57244452   -8.8895833    551.21819  0.010750023 0.0094788295            5 
 4274000   0.57144605   -8.8905258    551.07299  0.010744677 0.0094754058            9 
 4275000   0.57558825   -8.9015152    550.57949  0.010732544  0.009471983            3 
 4276000   0.56070988   -8.8847949    550.91406  0.010736554  0.009468564            4 
 4277000   0.55853697    -8.872932    550.01252  0.010716478 0.0094651471            4 
 4278000   0.57178436   -8.8700189    551.34371  0.010739904 0.0094617282            4 
 4279000   0.55664627   -8.8867733     551.4711  0.010739875 0.0094583138            4 
 4280000   0.57293476   -8.8713773    550.99625   0.01072812 0.0094549011            6 
 4281000   0.56348634   -8.8850032    551.51142  0.010735642 0.0094514884            6 
 4282000   0.57757031    -8.882459    550.71216  0.010717581  0.009448078            7 
 4283000   0.58356247   -8.8883017    551.37968  0.010728066 0.0094446717            6 
 4284000   0.56929062    -8.869243    550.95711  0.010717342 0.0094412653            8 
 4285000   0.56849664   -8.8869973    550.64241  0.010708721  0.009437858            2 
 4286000   0.57070535   -8.8851554    551.38496  0.010720659 0.0094344537            4 
 4287000   0.56275577   -8.8788743    550.10973   0.01069337   0.00943105            5 
 4288000   0.56989214   -8.8883785    551.06429  0.010709427  0.009427653            8 
 4289000   0.57106228   -8.8964148    550.93369  0.010704393  0.009424259            5 
 4290000   0.56396413   -8.8884255    551.92218  0.010721099 0.0094208597            6 
 4291000   0.56118751   -8.9035523    551.35765  0.010707637  0.009417463            5 
 4292000   0.57017511   -8.8621926    550.97201  0.010697655 0.0094140693            4 
 4293000   0.56202471   -8.8581899    551.40597  0.010703587 0.0094106756            4 
 4294000    0.5615384   -8.8711538    551.54637  0.010703819 0.0094072862            4 
 4295000   0.57003321   -8.8868288    550.36697  0.010678443 0.0094038986            7 
 4296000   0.57516541   -8.8887246    551.25263  0.010693138 0.0094005078            4 
 4297000   0.56618972   -8.8805685     550.8682  0.010683194  0.009397121            4 
 4298000   0.55457009   -8.8828957    552.02878   0.01070321 0.0093937353            7 
 4299000   0.56557366   -8.8883298    550.87763  0.010678406 0.0093903517            4 
 4300000   0.57115871   -8.8878903    551.22832  0.010682719 0.0093869722            5 
 4301000   0.57185607   -8.8860426     550.0105   0.01065664 0.0093835903            2 
 4302000    0.5555396   -8.8879696    551.86838  0.010690151 0.0093802113            6 
 4303000   0.57657503   -8.9035746    550.29316  0.010657161 0.0093768273            3 
 4304000   0.56738743   -8.8809094    550.54848  0.010659628 0.0093734498            4 
 4305000   0.55940438   -8.8998404    550.87862  0.010663543 0.0093700709            3 
 4306000    0.5750503   -8.8908757    551.08478  0.010665056 0.0093666965            3 
 4307000   0.58164751    -8.889299     550.6276  0.010653734 0.0093633236            3 
 4308000   0.56156747   -8.8901489    551.61066  0.010670277 0.0093599512            8 
 4309000   0.55553241   -8.8821704     550.0392   0.01063741 0.0093565799            8 
 4310000    0.5564626   -8.8949928    550.92737  0.010652115 0.0093532115            8 
 4311000   0.57240909   -8.9046447    550.95453  0.010650169 0.0093498405            2 
 4312000   0.55880215   -8.8812026    551.97711  0.010667461 0.0093464766            3 
 4313000   0.54737269   -8.9053461    550.49949  0.010636438 0.0093431093            4 
 4314000    0.5684085   -8.9157211    551.11336  0.010645831 0.0093397453            4 
 4315000   0.58141099   -8.8813391     550.7063  0.010635502  0.009336385            5 
 4316000    0.5487033   -8.8789868    550.45428  0.010628172  0.009333026            5 
 4317000   0.56920438   -8.8673084    550.95648  0.010635404 0.0093296661            3 
 4318000   0.55952215   -8.8998332      549.419  0.010603269 0.0093263109            5 
 4319000   0.56381254   -8.8702391     551.1577  0.010634362 0.0093229563            5 
 4320000   0.56758356   -8.8822794    551.21734   0.01063305 0.0093195992            3 
 4321000   0.55780497   -8.8907027    551.30345   0.01063225   0.00931625            7 
 4322000   0.55163773   -8.8901629    550.78888  0.010619869  0.009312898            4 
 4323000   0.54920909   -8.8784953    550.59202  0.010613618 0.0093095503            5 
 4324000     0.550967   -8.8882628    551.41229  0.010626971 0.0093062006            3 
 4325000   0.55997641   -8.8849218    551.72987  0.010630633 0.0093028557            7 
 4326000   0.55976224   -8.8964536    550.25422   0.01059975 0.0092995097            4 
 4327000   0.55975905   -8.8851335    551.91706  0.010629325  0.009296166            8 
 4328000   0.56050242   -8.8984006    551.17749  0.010612629  0.009292823            4 
 4329000   0.55538379   -8.8766033    551.27121  0.010611981 0.0092894778            6 
 4330000   0.55719901   -8.8962019    550.27326  0.010590324 0.0092861359            6 
 4331000   0.55548854   -8.8936388    551.48459  0.010611187 0.0092827926            4 
 4332000   0.55668419   -8.9113814     550.1964  0.010583957 0.0092794509            3 
 4333000   0.54491517   -8.8955393    551.79596  0.010612277 0.0092761131            6 
 4334000   0.55460895   -8.8773442    550.91821  0.010592951 0.0092727774            6 
 4335000   0.55710258   -8.8905274    550.50752  0.010582613 0.0092694432            5 
 4336000     0.552168   -8.9193224     551.0803   0.01059118 0.0092661125            6 
 4337000   0.55539911   -8.9029698    550.46223  0.010576862 0.0092627801            7 
 4338000    0.5465317   -8.9073916    550.20665  0.010569515 0.0092594481            5 
 4339000   0.55543373   -8.8889612    550.12613  0.010565532 0.0092561187            4 
 4340000   0.56076171   -8.8912308    550.52861  0.010570826 0.0092527913            3 
 4341000    0.5626284   -8.8953979     550.1846  0.010561787 0.0092494652            7 
 4342000   0.55080155   -8.8948376    550.80384  0.010571239 0.0092461425            4 
 4343000   0.55242351   -8.8955953    549.84545  0.010550415 0.0092428208            5 
 4344000   0.55970153   -8.8827482    551.15533  0.010573115 0.0092394995            5 
 4345000   0.56166833   -8.8974232    550.44483  0.010557055 0.0092361809            5 
 4346000   0.55879123   -8.8950681    550.21873   0.01055029 0.0092328663            8 
 4347000   0.56524439     -8.90628    551.51836  0.010572777 0.0092295561            8 
 4348000     0.564922   -8.9098486    550.07049  0.010542596 0.0092262426            5 
 4349000   0.55154524   -8.9028339    550.80063  0.010554162 0.0092229293            4 
 4350000   0.54630189   -8.8989137    550.47396  0.010545478  0.009219615            6 
 4351000   0.55988586    -8.906969    550.09671  0.010535829 0.0092163078            8 
 4352000   0.55298844   -8.8735216    551.45286  0.010559376 0.0092130033            6 
 4353000   0.54314892   -8.8999618    551.32376  0.010554479 0.0092096979            4 
 4354000   0.54981848   -8.8664479    551.20575  0.010549796 0.0092063965            5 
 4355000   0.54597866   -8.9026665    550.16683  0.010527494 0.0092030911            5 
 4356000   0.54421063   -8.9026705    550.80816  0.010537346 0.0091997913            4 
 4357000    0.5508798    -8.918192    550.86889  0.010536089 0.0091964936           10 
 4358000    0.5423527   -8.8986091    550.16176   0.01052015 0.0091931943            4 
 4359000   0.55984492   -8.9114155    550.16816  0.010517859    0.0091899            3 
 4360000   0.55080611   -8.9179985    550.75313  0.010526627 0.0091866028            3 
 4361000    0.5557086   -8.8878646    550.79607  0.010525034 0.0091833087            3 
 4362000    0.5557592   -8.8945547    550.73776  0.010521507 0.0091800154            5 
 4363000   0.54914878   -8.9173098    549.95345  0.010504115 0.0091767234            5 
 4364000   0.55278566   -8.8974256    551.53833  0.010531972 0.0091734362            5 
 4365000    0.5588036   -8.9128848    549.85237  0.010497373  0.009170145            6 
 4366000   0.54091902   -8.9146515    550.58074   0.01050887 0.0091668546            3 
 4367000   0.56062643   -8.9195228    550.55703  0.010506012 0.0091635678            4 
 4368000   0.55075421   -8.9049391    550.74859  0.010507261 0.0091602852            8 
 4369000   0.54376032   -8.8950964    550.42158  0.010498619  0.009157001            6 
 4370000   0.56109567   -8.8947842    550.80678  0.010503562  0.009153722            6 
 4371000   0.54632327    -8.911358      550.426  0.010493899 0.0091504425            6 
 4372000   0.55237943   -8.9053983    549.95497  0.010482521 0.0091471624            6 
 4373000   0.54770983    -8.920806    550.34034  0.010487467 0.0091438841            5 
 4374000   0.54870688   -8.9197046    550.27068  0.010483743 0.0091406096            6 
 4375000   0.55374581   -8.9271773    550.55004  0.010486668 0.0091373387            8 
 4376000   0.55753601   -8.9168333    549.96464  0.010473123 0.0091340669            8 
 4377000   0.54961397   -8.9119588    550.87016   0.01048797 0.0091308002            9 
 4378000   0.55291222   -8.9223225    551.37656  0.010495214 0.0091275348            2 
 4379000   0.55218237   -8.9043607    550.81084  0.010482052 0.0091242672            6 
 4380000   0.55974336    -8.935692    549.52811  0.010455253  0.009121001            6 
 4381000   0.54931497   -8.8816582     551.2781  0.010486154 0.0091177388            5 
 4382000   0.55546814   -8.8989232    551.09692  0.010480316 0.0091144805            4 
 4383000   0.54962757   -8.9117488    549.93453  0.010455824 0.0091112206            6 
 4384000   0.55082013   -8.8954413    550.69559  0.010467906 0.0091079622            7 
 4385000   0.56345283   -8.8921033    550.76927  0.010466919 0.0091047033            7 
 4386000    0.5448853   -8.9448166    549.60162  0.010442347 0.0091014437            3 
 4387000   0.55787564   -8.9101235      549.947  0.010446528 0.0090981857            8 
 4388000   0.55615109   -8.9029283    550.08866  0.010446837 0.0090949312            3 
 4389000   0.55772089   -8.9125954    551.44267  0.010470165 0.0090916797            7 
 4390000   0.55201713   -8.9223227    550.38237  0.010447653 0.0090884311            5 
 4391000   0.55059671   -8.8981101     550.6425  0.010450211 0.0090851812            8 
 4392000   0.54868637   -8.9193517    551.11993   0.01045689  0.009081934            6 
 4393000   0.55066336   -8.8992292    550.40685  0.010440983 0.0090786866            6 
 4394000   0.55930249   -8.9217232    551.02777  0.010450382 0.0090754454            6 
 4395000   0.54935541   -8.9279996    550.18927  0.010432106 0.0090722009            6 
 4396000   0.53764439   -8.9061144    550.36187  0.010433005 0.0090689583            3 
 4397000   0.54553285   -8.9222896    550.09203  0.010425518 0.0090657185            4 
 4398000   0.55837011   -8.9198066    550.62458  0.010433238 0.0090624794            8 
 4399000   0.55018412   -8.9276247    550.73276  0.010432916 0.0090592412            8 
 4400000   0.53542172   -8.9041437    550.14918  0.010419492  0.009056002            6 
 4401000    0.5355054   -8.9244674     549.4453  0.010403797 0.0090527628            3 
 4402000   0.55220845   -8.9156007    551.70664  0.010444242 0.0090495279            6 
 4403000   0.54466509   -8.9257981    549.69545  0.010403805  0.009046293            7 
 4404000   0.55646844    -8.922399    550.49175  0.010416511 0.0090430643            4 
 4405000   0.54610515   -8.9175492    551.19377  0.010427427 0.0090398364            6 
 4406000   0.53954118   -8.9043524    550.64168  0.010414618 0.0090366072            4 
 4407000   0.55686005   -8.8871073    550.06924   0.01040143  0.009033381            6 
 4408000   0.56200099   -8.9216146    550.15751  0.010400739 0.0090301535            5 
 4409000   0.54560118   -8.9073793    550.34925  0.010402004 0.0090269308            9 
 4410000   0.54740849   -8.9171876    550.11851  0.010395286 0.0090237104            6 
 4411000   0.55179628   -8.9108195    549.97254  0.010390171 0.0090204866           10 
 4412000   0.54927742    -8.908488    549.16122  0.010372492 0.0090172657            4 
 4413000   0.52620593   -8.9321203    550.40587  0.010393645 0.0090140485            3 
 4414000    0.5337904   -8.9138946    549.93711  0.010382441 0.0090108281            5 
 4415000   0.54612235   -8.9187149    549.86221  0.010378675  0.009007611            6 
 4416000   0.55487752   -8.9058129    550.41608  0.010386777 0.0090043942            5 
 4417000   0.54882821   -8.9133208    551.19686  0.010399156 0.0090011809            6 
 4418000   0.55151444   -8.9135601    550.74809  0.010388337 0.0089979676            6 
 4419000   0.56146389   -8.9016885    550.13076  0.010374345  0.008994759            6 
 4420000   0.55022382   -8.9193829    550.84546  0.010385472 0.0089915526            8 
 4421000    0.5409388   -8.9370084    549.79073  0.010363242 0.0089883452            7 
 4422000   0.53348707   -8.9140734    550.29917   0.01037048 0.0089851368            9 
 4423000   0.53919946   -8.9097592    550.78932  0.010377371 0.0089819307            5 
 4424000   0.54587076   -8.9136824    550.14549  0.010362897 0.0089787246            7 
 4425000   0.54430498   -8.9237513     550.6584  0.010370215 0.0089755223            4 
 4426000   0.52790796   -8.9084279     548.5277  0.010327755 0.0089723195            7 
 4427000   0.53376164   -8.9103904    550.22745  0.010357418 0.0089691211            8 
 4428000    0.5429655   -8.9326342    549.92825  0.010349448 0.0089659248            5 
 4429000   0.53856994    -8.910354    549.76452   0.01034403 0.0089627248            3 
 4430000   0.54853874    -8.930006    549.68997  0.010340293 0.0089595239            7 
 4431000   0.52998434    -8.911652    550.09744  0.010345623 0.0089563317            5 
 4432000   0.55176044   -8.9236821    550.67985  0.010354239  0.008953139            6 
 4433000    0.5459446   -8.9242274    550.56403  0.010349726 0.0089499496            4 
 4434000   0.55510347    -8.911379    549.94454  0.010335749 0.0089467585            4 
 4435000   0.53317361   -8.8962805    549.32989  0.010321869 0.0089435715            2 
 4436000   0.53396088    -8.911661    549.99257  0.010331991 0.0089403853            4 
 4437000   0.55172941   -8.9144874    549.78453  0.010325756 0.0089371943            3 
 4438000   0.54189191   -8.9291534    549.81599   0.01032402 0.0089340102            4 
 4439000   0.55427713   -8.9422284    549.81007  0.010321583  0.008930826            4 
 4440000   0.53682598   -8.9292805    549.17213  0.010307285 0.0089276453            4 
 4441000   0.54918065   -8.9328816    549.85443  0.010317767 0.0089244609            6 
 4442000   0.53517521   -8.9375441     551.0633  0.010338123 0.0089212848            3 
 4443000   0.55350115   -8.9395945    549.89973  0.010313972 0.0089181111            4 
 4444000   0.54291868   -8.9362029    550.07112  0.010314865 0.0089149354            7 
 4445000   0.54864189   -8.9096471    550.96226  0.010329251 0.0089117592            7 
 4446000   0.52959364   -8.9226526    549.34272  0.010296572 0.0089085855            2 
 4447000   0.53316128   -8.9198787     549.6941  0.010300841 0.0089054123            6 
 4448000   0.54147283   -8.9214603    550.01388  0.010304517 0.0089022448            4 
 4449000   0.54029251   -8.9260512    549.76834  0.010297601 0.0088990739            5 
 4450000   0.53516851   -8.9196881    549.75361  0.010295011 0.0088959066            2 
 4451000   0.53746031   -8.9296221       549.77  0.010293005 0.0088927415           11 
 4452000    0.5326425   -8.9192527    551.31919  0.010319691 0.0088895782            5 
 4453000   0.54126486   -8.9310872    549.52005  0.010283705 0.0088864159            4 
 4454000   0.53643768   -8.9513129      549.706  0.010284875 0.0088832552            7 
 4455000   0.54675357   -8.9294221    549.42646  0.010277337 0.0088800935            3 
 4456000   0.54185531   -8.9065745    550.01958  0.010286123 0.0088769375            6 
 4457000   0.53629087   -8.9139812    549.61783  0.010276304 0.0088737837            5 
 4458000   0.53715305   -8.9179051    549.61991  0.010274038 0.0088706259            4 
 4459000   0.54006332   -8.9308841    550.27066  0.010283895 0.0088674702            7 
 4460000    0.5421748   -8.9114414    550.38417   0.01028371 0.0088643168            6 
 4461000    0.5402715   -8.9405998    549.88883  0.010272152 0.0088611662            4 
 4462000   0.53515471   -8.9269608    550.78098  0.010286512 0.0088580169            7 
 4463000   0.54434714   -8.9442708    549.87231   0.01026724 0.0088548668            4 
 4464000   0.53074862   -8.9387176    549.15063  0.010251468 0.0088517198            8 
 4465000   0.53919381   -8.9167885    550.78036  0.010279589 0.0088485742            5 
 4466000   0.53453397   -8.9238871    549.52033  0.010253775 0.0088454277            4 
 4467000   0.53481282   -8.9513547    549.86378  0.010257887 0.0088422829            7 
 4468000   0.54294401   -8.9392484    550.23759  0.010262563 0.0088391394            4 
 4469000   0.52667192   -8.9276645    550.17397  0.010259081 0.0088359975            3 
 4470000   0.53148924   -8.9163339    550.24356  0.010258083 0.0088328572            6 
 4471000   0.53227923   -8.9223812    549.86868  0.010248801 0.0088297201            7 
 4472000    0.5353916   -8.9126041    548.99439  0.010230218 0.0088265836            7 
 4473000   0.53627604   -8.9283422    550.45206  0.010255087 0.0088234532            6 
 4474000   0.54139848   -8.9391357    549.42456  0.010233657 0.0088203163            4 
 4475000   0.54287158   -8.9419448     548.8828  0.010221281  0.008817183            5 
 4476000   0.53389103   -8.9329927    549.86995  0.010237376 0.0088140487            8 
 4477000   0.53504772   -8.9249798    550.12421  0.010239822 0.0088109166            9 
 4478000   0.54372419   -8.9487822    548.86957  0.010214187 0.0088077845            4 
 4479000   0.53830951   -8.9399004    549.95218  0.010232049 0.0088046568            4 
 4480000   0.52523179   -8.9177826    549.60205  0.010223252 0.0088015286            6 
 4481000   0.52736048   -8.9332582    548.72037  0.010204574 0.0087984015            4 
 4482000   0.53321962   -8.9104256    550.13205  0.010228545 0.0087952781            7 
 4483000   0.54251628   -8.9338641    549.04176  0.010205996 0.0087921542            4 
 4484000   0.53484081   -8.9096354    549.93896  0.010220394  0.008789034            6 
 4485000   0.53800156   -8.9397124    550.34742  0.010225705 0.0087859139            5 
 4486000   0.52034496   -8.9378217    549.10015  0.010200255  0.008782796            8 
 4487000   0.52880431   -8.9536024    550.00813  0.010214845 0.0087796785            4 
 4488000   0.52178543   -8.9372145    549.37908  0.010200889 0.0087765632            6 
 4489000   0.52652194   -8.9377203    548.62751  0.010184664 0.0087734486            5 
 4490000   0.53056786    -8.944823     549.8841  0.010205718 0.0087703322            9 
 4491000     0.540094   -8.9298142    549.54993  0.010197245 0.0087672183            5 
 4492000   0.53844875   -8.9431014    549.35467  0.010191353 0.0087641064            5 
 4493000   0.53156911   -8.9382467    548.26373   0.01016885 0.0087609979            4 
 4494000   0.52564783    -8.928098    550.43539  0.010206857 0.0087578906            5 
 4495000   0.52357519   -8.9395588    549.29913  0.010183521 0.0087547856            6 
 4496000   0.52409536   -8.9248323    549.85658  0.010191589  0.008751681            7 
 4497000   0.52400589   -8.9331826    550.34434  0.010198361 0.0087485783            5 
 4498000    0.5203361   -8.9575031    549.55354  0.010181442 0.0087454743            6 
 4499000   0.53350692   -8.9468012    549.66961  0.010181329 0.0087423712            5 
 4500000   0.52684138   -8.9512912    549.99871  0.010185161 0.0087392727            5 
 4501000   0.53481381   -8.9162392    549.46315  0.010172983 0.0087361752            6 
 4502000   0.53115203   -8.9442348    549.56128   0.01017254 0.0087330779            9 
 4503000   0.52588115   -8.9355424    549.12484  0.010162204   0.00872998            5 
 4504000   0.53041411   -8.9468651    548.93771  0.010156485 0.0087268844            4 
 4505000   0.53259414   -8.9399411    549.44284  0.010163575 0.0087237888            6 
 4506000   0.53752481   -8.9287635    549.60851  0.010164383 0.0087206975            7 
 4507000   0.52456644   -8.9397776    549.44443  0.010159094 0.0087176078           10 
 4508000   0.52531421   -8.9375919     549.6512  0.010160663 0.0087145192            4 
 4509000   0.53259687   -8.9423388    549.40504   0.01015386 0.0087114307            8 
 4510000   0.53237971   -8.9531339    549.41053   0.01015171 0.0087083437            6 
 4511000   0.53402941   -8.9308224    549.62021  0.010153333 0.0087052587            5 
 4512000   0.52533592   -8.9524335    549.40128  0.010147039 0.0087021749            3 
 4513000   0.53762868    -8.932978    549.71584  0.010150599 0.0086990917            5 
 4514000   0.51754836   -8.9422057    549.45896  0.010143608 0.0086960098            8 
 4515000   0.54642167   -8.9484538    549.42098   0.01014066 0.0086929269            7 
 4516000   0.52171122   -8.9302518    549.93539  0.010147907  0.008689849            6 
 4517000   0.53491575     -8.93852    549.18422  0.010131802 0.0086867744            7 
 4518000   0.52731044   -8.9430749    550.43324  0.010152598 0.0086836994            6 
 4519000   0.51850752   -8.9393669    549.69262  0.010136693 0.0086806247           10 
 4520000   0.52794789    -8.942303    549.00409  0.010121757 0.0086775507            5 
 4521000   0.53565137   -8.9487664    550.39755  0.010145203 0.0086744796            6 
 4522000   0.53087772   -8.9331346    549.28697  0.010122493 0.0086714066            5 
 4523000   0.53078902   -8.9452179    549.11338  0.010117057 0.0086683358            4 
 4524000   0.53253748   -8.9424993    549.18407  0.010116123 0.0086652691            4 
 4525000   0.53118406   -8.9341019    550.44258  0.010137064 0.0086622016            3 
 4526000   0.53951557   -8.9315495    550.42945  0.010134583 0.0086591392            7 
 4527000   0.53501153   -8.9476378    549.38102  0.010113044 0.0086560769            4 
 4528000   0.52400336   -8.9407004     549.2833  0.010109012 0.0086530138            4 
 4529000   0.53120349   -8.9370962     548.7929  0.010097757 0.0086499542            9 
 4530000   0.53292763   -8.9452922    549.47689   0.01010811  0.008646896            6 
 4531000   0.53203825   -8.9366284    549.37663  0.010104036 0.0086438375            4 
 4532000    0.5296337   -8.9580476    548.21033  0.010080361 0.0086407814            2 
 4533000     0.524782   -8.9416224    548.70918  0.010087307 0.0086377241            4 
 4534000   0.53688213   -8.9589098    548.35008  0.010078483  0.008634669            5 
 4535000   0.53664851   -8.9549212    549.30936  0.010093887 0.0086316158            4 
 4536000   0.51657023   -8.9515038    548.98014  0.010085614 0.0086285645            6 
 4537000   0.51804609   -8.9424521    549.30326  0.010089326  0.008625514            4 
 4538000    0.5141914   -8.9496468    548.23639  0.010067511 0.0086224644            3 
 4539000    0.5356358   -8.9522997    549.36342  0.010085985 0.0086194153            6 
 4540000   0.52355295   -8.9381545    549.21559   0.01008105 0.0086163698            7 
 4541000   0.51361159   -8.9632691    548.03472  0.010057159  0.008613321            6 
 4542000   0.53187081   -8.9443262    549.22851  0.010076848 0.0086102782            4 
 4543000    0.5240664   -8.9390065    548.91194  0.010068823 0.0086072338            5 
 4544000   0.52339764   -8.9567541    548.92097  0.010066772 0.0086041947            4 
 4545000   0.52484117   -8.9383911    549.33713  0.010072188 0.0086011542            5 
 4546000   0.52082823    -8.944296    548.64593  0.010057302 0.0085981171            8 
 4547000   0.51561516   -8.9544607    549.23302   0.01006585 0.0085950817            4 
 4548000   0.53774595   -8.9551642    550.18199  0.010081025 0.0085920465            7 
 4549000   0.52154902   -8.9368904    549.04318  0.010057946 0.0085890116            6 
 4550000   0.52706766   -8.9632695    549.32481  0.010060894 0.0085859781            6 
 4551000     0.528451   -8.9393692    549.64397  0.010064527 0.0085829447            5 
 4552000   0.52631033   -8.9515367    550.06331  0.010069993  0.008579916            5 
 4553000   0.52218419   -8.9473226    549.54602  0.010058314 0.0085768883            3 
 4554000    0.5152443   -8.9730411    549.20411  0.010049848 0.0085738607            6 
 4555000   0.52868032   -8.9549668    549.45035  0.010052147 0.0085708345            7 
 4556000   0.51221659   -8.9403016    549.49529  0.010050763 0.0085678131            4 
 4557000   0.51270981   -8.9717436    549.68766  0.010052075 0.0085647905            4 
 4558000   0.52722414   -8.9548574    549.33924  0.010043499 0.0085617684            5 
 4559000   0.52209763   -8.9463877    549.28577  0.010040319 0.0085587489            4 
 4560000   0.52971851   -8.9582495    549.23464  0.010037183   0.00855573            4 
 4561000   0.52894574   -8.9522627    548.35124  0.010018842 0.0085527158            7 
 4562000   0.51888851   -8.9557474    548.95562  0.010027686  0.008549697            2 
 4563000   0.52826403   -8.9664034    549.40031  0.010033609 0.0085466831            7 
 4564000   0.52235788   -8.9619286    548.95966  0.010023365 0.0085436689            4 
 4565000    0.5206017   -8.9661743    548.49798  0.010012742 0.0085406574            6 
 4566000   0.52702308   -8.9686544    549.15501   0.01002254 0.0085376468            6 
 4567000   0.51695304   -8.9605757    549.35793  0.010024048 0.0085346358            5 
 4568000   0.51807255   -8.9679848    548.73179  0.010010431 0.0085316279            7 
 4569000   0.52047984   -8.9473209    549.67681  0.010025476 0.0085286204            4 
 4570000   0.52120079   -8.9542074    548.91477  0.010009387 0.0085256147            3 
 4571000   0.51783815   -8.9743797    549.30295  0.010014274 0.0085226075            4 
 4572000   0.51476942   -8.9723225    548.53615 0.0099981071 0.0085196031            5 
 4573000   0.53004845   -8.9651404    549.51895   0.01001383  0.008516602            5 
 4574000   0.52024615   -8.9642706    548.50569 0.0099931805  0.008513601            7 
 4575000   0.52207611   -8.9442117    549.03844    0.0100007 0.0085106017            4 
 4576000   0.52579689   -8.9637788    548.75676 0.0099933851 0.0085076065            8 
 4577000   0.52256787   -8.9419393    548.39957 0.0099846983 0.0085046114            3 
 4578000   0.50736836   -8.9633537    549.05195 0.0099943926 0.0085016147            4 
 4579000   0.51279852   -8.9481825    549.63411  0.010002805 0.0084986246            4 
 4580000   0.50489712   -8.9841576    548.34695 0.0099772007 0.0084956329            5 
 4581000   0.51951017   -8.9519713    548.79975 0.0099832596 0.0084926403            5 
 4582000   0.52165894    -8.965174    548.41608 0.0099741029 0.0084896495            5 
 4583000   0.52598403   -8.9563187    548.57204 0.0099747625 0.0084866604            8 
 4584000   0.52125961   -8.9729613    548.88604 0.0099782948 0.0084836733            4 
 4585000   0.50968657   -8.9606462     549.2882 0.0099834278 0.0084806885            3 
 4586000   0.51632132     -8.96673    548.53941 0.0099676445 0.0084777036            3 
 4587000   0.51079348   -8.9632347    549.47016 0.0099823806 0.0084747191            6 
 4588000   0.51356966   -8.9478062    548.97357 0.0099711852 0.0084717376            3 
 4589000   0.52419077   -8.9654983    549.11098 0.0099715077 0.0084687577            5 
 4590000    0.5193678   -8.9597213     547.9575 0.0099483933 0.0084657787            6 
 4591000   0.50578438   -8.9562575    548.71071 0.0099598982 0.0084628046            9 
 4592000   0.51577987   -8.9582638    548.42718 0.0099525839 0.0084598309            3 
 4593000   0.51536618   -8.9726627    549.51163 0.0099700926 0.0084568573            3 
 4594000   0.52623041   -8.9572098      548.882 0.0099565013 0.0084538848            5 
 4595000   0.51135956   -8.9644895    549.01221 0.0099566959 0.0084509136            5 
 4596000   0.53100983   -8.9675863     549.1309 0.0099566815 0.0084479449            5 
 4597000   0.51421323   -8.9657214    548.32442 0.0099398959 0.0084449779            5 
 4598000    0.5167748   -8.9749407     549.0321   0.00995056 0.0084420135            8 
 4599000   0.51565672   -8.9665141     549.0039 0.0099478854 0.0084390476            5 
 4600000   0.51117138   -8.9493737    548.71266 0.0099404468 0.0084360851            6 
 4601000   0.51773029    -8.975863     548.8914 0.0099415236 0.0084331215            7 
 4602000    0.5065177   -8.9728868    548.13162 0.0099256052 0.0084301597            4 
 4603000   0.51839906   -8.9599003    549.05433 0.0099401538 0.0084271994            6 
 4604000   0.51170589   -8.9813274    548.77169 0.0099328789 0.0084242393            7 
 4605000   0.51161788   -8.9485611    548.54212 0.0099265674 0.0084212829            8 
 4606000   0.51796529   -8.9777518    549.09101  0.009934343  0.008418328            2 
 4607000     0.507772   -8.9569167    548.61051 0.0099234953  0.008415373            7 
 4608000   0.51747265   -8.9746176    548.85756 0.0099258095 0.0084124195            4 
 4609000   0.51305752   -8.9743007    548.58851 0.0099187913 0.0084094652            5 
 4610000   0.51755019    -8.969682    548.75681  0.009919682 0.0084065144            4 
 4611000   0.50756665   -8.9601275    548.96502 0.0099212936 0.0084035617            5 
 4612000   0.51348785   -8.9705638    549.36927 0.0099264467 0.0084006142            6 
 4613000   0.51937493   -8.9676862    549.45566 0.0099258556 0.0083976668            5 
 4614000   0.51166669   -8.9575884    548.78999 0.0099116816 0.0083947183            6 
 4615000   0.51244149   -8.9649226     548.3798 0.0099021271 0.0083917708            6 
 4616000   0.50684237   -8.9627988    548.44684 0.0099011922  0.008388827            9 
 4617000   0.51574462   -8.9533102    548.84125 0.0099061665 0.0083858841            6 
 4618000   0.50050095   -8.9747844    548.38741 0.0098958317 0.0083829411            4 
 4619000    0.5125963   -8.9633285    549.25457  0.009909334 0.0083800006            6 
 4620000   0.51381871   -8.9790312    548.61835 0.0098957134  0.008377063            4 
 4621000   0.51925793   -8.9557574    550.03567 0.0099191312 0.0083741252            5 
 4622000   0.51973732   -8.9784801    548.82015 0.0098950697 0.0083711882            4 
 4623000   0.51230639   -8.9530751    548.93502 0.0098950001 0.0083682511            5 
 4624000   0.51742161   -8.9695261    548.72744 0.0098891191 0.0083653168            5 
 4625000   0.51849412   -8.9658799    548.69665  0.009886426  0.008362385            3 
 4626000   0.51105153   -8.9544212    548.34118 0.0098778855 0.0083594513            3 
 4627000   0.50538143   -8.9516356    548.26454 0.0098743704 0.0083565217            4 
 4628000   0.51220918   -8.9756719    548.49405 0.0098763694 0.0083535942            4 
 4629000   0.52028332   -8.9694729    548.83253 0.0098803292 0.0083506681            6 
 4630000    0.5135114   -8.9765038    549.02207 0.0098816068 0.0083477418            3 
 4631000   0.51818195   -8.9824847    549.08026   0.00988052 0.0083448172            5 
 4632000   0.51336921   -8.9514155    547.96181 0.0098582651 0.0083418924            8 
 4633000   0.51316188   -8.9637893    548.78222  0.009870894 0.0083389707            2 
 4634000   0.50946238   -8.9746989    548.09344 0.0098563775 0.0083360496            4 
 4635000   0.52751052   -8.9649791    548.27568 0.0098575276 0.0083331287            5 
 4636000    0.5124568   -8.9779192    548.59771 0.0098611898 0.0083302105            6 
 4637000   0.50924983   -8.9600696     548.0271 0.0098488086 0.0083272926            6 
 4638000    0.5028341   -8.9566412    548.64259 0.0098577438 0.0083243746            4 
 4639000   0.51144878   -8.9730685    548.72294 0.0098570623  0.008321462            3 
 4640000   0.52075109    -8.965266    548.48077 0.0098505885 0.0083185506            3 
 4641000   0.51699988   -8.9848005    549.39515 0.0098648846 0.0083156388            3 
 4642000   0.50656596   -8.9556983    549.29225 0.0098609121 0.0083127301            3 
 4643000   0.52090082    -8.976614    548.52477 0.0098450134  0.008309823            3 
 4644000   0.50385499   -8.9852469    549.28453  0.009856527 0.0083069158            4 
 4645000   0.50640059   -8.9694931     548.7608 0.0098450089 0.0083040115            6 
 4646000   0.51209666   -8.9834246    549.63256 0.0098585263 0.0083011079            5 
 4647000   0.50399699   -8.9707676    547.83576 0.0098241833 0.0082982033            3 
 4648000   0.51957195   -8.9696418    548.03266 0.0098255998 0.0082953029            9 
 4649000   0.50463348   -8.9809238      548.962 0.0098401448 0.0082924029            9 
 4650000   0.51917945   -8.9681534    548.81437  0.009835383 0.0082895049            7 
 4651000   0.50874721   -8.9848767      548.432 0.0098264172 0.0082866074            6 
 4652000   0.50694753   -8.9674237    548.84174 0.0098316448 0.0082837098            3 
 4653000   0.50959081   -8.9878974    547.64719  0.009808138 0.0082808156            4 
 4654000   0.50322779   -8.9687636    547.92257 0.0098109614 0.0082779226            7 
 4655000   0.51262953   -8.9880354    547.96527 0.0098096182 0.0082750281            2 
 4656000   0.50217198   -8.9803518    549.24506  0.009830417 0.0082721361            7 
 4657000   0.50569241   -8.9902617    548.89418 0.0098220275 0.0082692448            7 
 4658000   0.51434563   -8.9752776    548.47283 0.0098123807 0.0082663555            5 
 4659000   0.51224846   -8.9627788    548.84046 0.0098168501 0.0082634691            6 
 4660000   0.50565754    -8.962911    548.20641 0.0098034051  0.008260583            4 
 4661000   0.50756552   -8.9787731    548.94203 0.0098144537  0.008257701            8 
 4662000   0.50092353   -8.9684674    548.66353 0.0098073705 0.0082548191            5 
 4663000   0.50453276   -8.9750331     548.6942 0.0098058152 0.0082519391            5 
 4664000   0.50381477   -8.9833305    548.12771 0.0097935911 0.0082490577            4 
 4665000   0.50464825   -8.9849219    549.17898 0.0098102712 0.0082461776            7 
 4666000   0.50188405   -8.9841768    548.45524 0.0097952428 0.0082433017            5 
 4667000    0.5092995   -8.9903474    548.94124 0.0098018221  0.008240424            8 
 4668000   0.49580238   -8.9760068    548.44853 0.0097909263 0.0082375454            4 
 4669000   0.49605864   -8.9820063    548.38032  0.009787612 0.0082346725            3 
 4670000     0.504858   -8.9917047    547.98347 0.0097784346 0.0082317996            4 
 4671000   0.50602269   -8.9645991    548.81468 0.0097911704 0.0082289289            6 
 4672000   0.49817848   -8.9747529    548.59897  0.009785227 0.0082260621            3 
 4673000     0.501686   -8.9610116    548.50497 0.0097814569 0.0082231954            6 
 4674000   0.48784912   -8.9636031    548.55652 0.0097802831 0.0082203267            2 
 4675000   0.50408179   -8.9809983    547.81328 0.0097649426 0.0082174618            5 
 4676000   0.50953841    -9.000065    548.65838 0.0097779152 0.0082145971            6 
 4677000   0.49998714   -8.9875229    549.05125 0.0097828247 0.0082117337            5 
 4678000   0.50873816   -8.9856255    547.97063 0.0097614834 0.0082088715            6 
 4679000   0.49714779   -8.9689539    548.56745 0.0097700265 0.0082060113            5 
 4680000   0.51604062   -8.9846972    548.26949 0.0097626333 0.0082031506            7 
 4681000   0.49361388   -8.9877728    548.31929 0.0097614343 0.0082002936            8 
 4682000   0.48658269   -8.9807839     548.8044 0.0097679837 0.0081974372            2 
 4683000   0.49119816   -8.9771742    548.72894 0.0097645552 0.0081945783            8 
 4684000   0.49755208   -8.9764302    547.69596 0.0097440927 0.0081917228            3 
 4685000   0.50464204   -8.9875892    548.54644 0.0097571405 0.0081888704            5 
 4686000   0.50513344   -8.9817235    547.79832 0.0097417541 0.0081860154            4 
 4687000   0.50055741   -8.9881775    548.31619 0.0097488833 0.0081831625            4 
 4688000    0.4934791    -8.958388     548.1055 0.0097430585   0.00818031            5 
 4689000   0.49908246   -8.9741624    549.45072  0.009764888 0.0081774597            5 
 4690000   0.50071086   -8.9967978    547.74337 0.0097324693 0.0081746107            5 
 4691000   0.51147363   -8.9825702    547.78601  0.009731152 0.0081717657            7 
 4692000   0.50111719   -8.9721876     547.9515 0.0097320172 0.0081689178            6 
 4693000    0.4959203    -8.983517    549.31004  0.009754067 0.0081660741            3 
 4694000   0.51846306   -8.9831497    547.86877 0.0097264019  0.008163234            4 
 4695000   0.49419463   -8.9858661    548.55088 0.0097364373 0.0081603923            4 
 4696000   0.49142217   -8.9955357    548.03094 0.0097251373 0.0081575516            7 
 4697000   0.49582379    -8.978444    548.23201 0.0097266341 0.0081547122            6 
 4698000   0.49555571   -8.9754785    548.83277 0.0097352202  0.008151877            3 
 4699000   0.49906763   -8.9925462     547.9419 0.0097173494 0.0081490402            4 
 4700000   0.50196248    -8.977659     548.3903 0.0097232323  0.008146206            7 
 4701000   0.50237141   -8.9893057    547.89211 0.0097123327 0.0081433751            6 
 4702000    0.4884601   -8.9849537    548.72455 0.0097250203 0.0081405461            5 
 4703000   0.50138036   -8.9860015    548.87863 0.0097256827 0.0081377154            4 
 4704000   0.49823583   -8.9676361    548.14521 0.0097106224 0.0081348851           11 
 4705000    0.5070024   -8.9846908    548.60747 0.0097167458 0.0081320594            4 
 4706000   0.50688295   -8.9850917    548.29088  0.009709075 0.0081292348            4 
 4707000    0.4986327   -8.9898984    548.14267 0.0097043883 0.0081264086            6 
 4708000   0.49808444   -8.9619625    549.00454 0.0097175825 0.0081235814            4 
 4709000    0.4946449    -8.993288    548.77554 0.0097114664  0.008120758            4 
 4710000   0.49963537   -8.9961573    548.38412 0.0097024792 0.0081179367            6 
 4711000   0.50127223   -8.9767331     548.5423 0.0097032177 0.0081151169            4 
 4712000   0.49200796    -9.003423    548.95981 0.0097085421 0.0081122978            5 
 4713000   0.49401082   -8.9817694    547.52053 0.0096810335 0.0081094777            3 
 4714000   0.49280247   -8.9844491    547.22592 0.0096737717 0.0081066601            6 
 4715000   0.50569392    -8.990924    548.14929 0.0096880397 0.0081038436            4 
 4716000   0.49038628   -8.9995608    547.88336 0.0096812864 0.0081010273            5 
 4717000   0.49580633   -8.9929444    548.21844 0.0096851537 0.0080982124            6 
 4718000   0.50423903   -8.9915926    546.83621 0.0096586868 0.0080954004            6 
 4719000   0.50437023   -8.9942736    548.35616  0.009683481  0.008092588            4 
 4720000   0.49233729   -8.9910369    547.86294 0.0096727214 0.0080897782            5 
 4721000   0.49130813   -8.9728108    548.08757 0.0096746375 0.0080869692            6 
 4722000   0.49082781   -8.9891155    547.86312 0.0096686278 0.0080841609            3 
 4723000    0.4963196   -8.9950348    548.27196 0.0096737943 0.0080813548            3 
 4724000   0.49789105    -9.016141    547.77029 0.0096628967 0.0080785489            7 
 4725000   0.49362885   -8.9902608    547.15967 0.0096500823 0.0080757466            4 
 4726000   0.49087044   -9.0001372    547.98762 0.0096626397 0.0080729441            6 
 4727000   0.49715918   -8.9888396    548.49416 0.0096695254 0.0080701407            7 
 4728000   0.49307199   -8.9917293    548.29407 0.0096639535 0.0080673417            4 
 4729000   0.49476301   -8.9863752    547.78163   0.00965288 0.0080645447            2 
 4730000   0.49334088   -8.9967008    548.23329 0.0096587966 0.0080617493            3 
 4731000   0.48805641   -8.9939722    549.03224 0.0096708279 0.0080589562            4 
 4732000   0.49407248   -8.9874585    548.12707 0.0096528436 0.0080561625            9 
 4733000   0.49862884    -8.997301     548.4359 0.0096562416  0.008053369            5 
 4734000   0.50119329   -8.9998548    547.04447 0.0096297084 0.0080505757            4 
 4735000   0.49682996   -8.9889514    549.03668 0.0096627363 0.0080477831            5 
 4736000   0.49361107   -8.9882066    547.94653 0.0096415141 0.0080449933            4 
 4737000   0.49557428   -8.9869117    547.72494 0.0096355806 0.0080422047            6 
 4738000   0.49850657   -8.9946705    548.83876 0.0096531371 0.0080394179            4 
 4739000   0.50515282   -8.9959562    548.22386 0.0096402874  0.008036632            5 
 4740000   0.49075394   -8.9986424    548.66866 0.0096460735 0.0080338442            5 
 4741000   0.49426088   -8.9889667    548.45147 0.0096402213 0.0080310608            6 
 4742000    0.4824065   -9.0064786    548.19532 0.0096336869 0.0080282767            2 
 4743000   0.49736166   -9.0100062    548.24481 0.0096325253 0.0080254945            5 
 4744000   0.49598739   -9.0031743    548.22207 0.0096300954 0.0080227131            5 
 4745000   0.47523989   -8.9744751    548.26877 0.0096288859 0.0080199348            6 
 4746000   0.50288533   -9.0015769    548.93502 0.0096385557 0.0080171576            6 
 4747000   0.49298157   -8.9909445    548.43339 0.0096277191 0.0080143792            3 
 4748000   0.48776491   -9.0023347    547.80822 0.0096147188 0.0080116038            5 
 4749000     0.501851   -9.0017016    546.96018 0.0095978132 0.0080088241            4 
 4750000   0.49137545   -9.0207631    547.49314 0.0096051427 0.0080060492            8 
 4751000   0.48703931   -8.9962377    547.11425 0.0095964753 0.0080032731           11 
 4752000   0.48688874   -9.0086874    548.16559 0.0096128926 0.0080005034            5 
 4753000   0.49588291   -9.0187136    547.82064 0.0096048223 0.0079977327            2 
 4754000   0.50454378   -8.9999007    547.11918 0.0095905059 0.0079949635            7 
 4755000   0.48150039   -9.0102709    547.99669 0.0096038677  0.007992195            8 
 4756000   0.48858591   -8.9838975    547.76712  0.009597826  0.007989427            4 
 4757000   0.48660291   -9.0139338    547.98651 0.0095996516 0.0079866598            5 
 4758000   0.50192339   -9.0020778    547.65636 0.0095918516 0.0079838978            3 
 4759000   0.49262394   -9.0151752    547.35321 0.0095845278 0.0079811334            7 
 4760000   0.48613056    -9.021561    548.25682 0.0095983337 0.0079783714            6 
 4761000   0.47798395   -9.0060763    547.65868 0.0095858482 0.0079756103            3 
 4762000   0.48737675   -8.9969283    548.50862 0.0095987088 0.0079728494            4 
 4763000    0.4892945   -8.9923476    547.81274 0.0095845184 0.0079700906            4 
 4764000   0.47930837   -8.9998093    548.32158 0.0095914074 0.0079673332            4 
 4765000   0.49053237   -9.0041855     546.9547 0.0095654898 0.0079645781            8 
 4766000   0.49073302   -9.0082132    547.62405 0.0095751863 0.0079618239            4 
 4767000   0.48260583    -9.009986    548.71314 0.0095922162 0.0079590695            7 
 4768000   0.49574087   -8.9972418     549.0733 0.0095964993 0.0079563202            7 
 4769000   0.49512963    -9.018206    547.48424 0.0095667198 0.0079535693            5 
 4770000   0.48242049   -8.9970777    548.44319 0.0095814673 0.0079508194            4 
 4771000   0.49455684    -8.995881    547.67733  0.009566082 0.0079480673            5 
 4772000    0.4802078   -9.0078933    547.54819 0.0095618222  0.007945319            5 
 4773000   0.48845216   -8.9806746    548.00268  0.009567754  0.007942573            7 
 4774000   0.49146071   -8.9871741    547.84838 0.0095630565   0.00793983            8 
 4775000   0.48817822   -8.9998983    547.93093 0.0095624943 0.0079370867            4 
 4776000    0.4964246   -9.0035556    547.07532 0.0095455633 0.0079343409            4 
 4777000   0.48231847   -8.9985488    547.44496 0.0095500133 0.0079315998            4 
 4778000   0.48311065   -9.0036165    548.36076  0.009563987 0.0079288606            5 
 4779000   0.48215388   -9.0196631     547.8787 0.0095535799 0.0079261194            7 
 4780000    0.4848749   -9.0234565    547.35746 0.0095424941 0.0079233816            8 
 4781000    0.4809777    -9.019915    547.70442 0.0095465457  0.007920645            4 
 4782000   0.49102865    -9.015201    547.09698 0.0095339638 0.0079179115            5 
 4783000   0.49151286   -9.0039849    548.14046 0.0095501508 0.0079151797            3 
 4784000   0.49038466   -8.9990116    547.97866 0.0095453361  0.007912448            3 
 4785000   0.48017197   -9.0126138    548.66539 0.0095553011 0.0079097132            5 
 4786000   0.49131397     -9.01162     547.8094 0.0095384002 0.0079069836            5 
 4787000   0.49245369   -9.0229577    547.83369 0.0095368305 0.0079042533            8 
 4788000   0.48581345   -9.0221714    547.06923 0.0095215336 0.0079015257            6 
 4789000   0.49511285   -9.0002988    547.53053 0.0095275723 0.0078988002            8 
 4790000   0.47899345   -9.0186394    548.57047 0.0095436755 0.0078960747            4 
 4791000    0.4794534    -8.996014     548.5402 0.0095411571 0.0078933518            7 
 4792000   0.50357343   -9.0140852    547.48519 0.0095208193 0.0078906276            4 
 4793000   0.48682036   -9.0069828    547.70541 0.0095226617 0.0078879067            3 
 4794000   0.48055743   -9.0155949    547.52926 0.0095176134 0.0078851851            5 
 4795000   0.48334031   -8.9991143    548.09875 0.0095255258 0.0078824654            5 
 4796000   0.47794113   -9.0087866    547.27069 0.0095091516 0.0078797488            3 
 4797000    0.4837878   -9.0149909    548.26836 0.0095245008 0.0078770302            4 
 4798000   0.48894573   -9.0030007    547.28231 0.0095053896  0.007874313            4 
 4799000   0.48343379   -9.0162165    547.64443 0.0095096969 0.0078715983            5 
 4800000   0.47992208    -9.022118    548.01323 0.0095141186 0.0078688845            3 
 4801000   0.47024124   -9.0093674    546.60082  0.009487621  0.007866171            9 
 4802000   0.48107161   -9.0122696     547.8859 0.0095079463 0.0078634586            5 
 4803000   0.47756522   -9.0114853    547.38439 0.0094972655 0.0078607478            5 
 4804000   0.47938642   -9.0057896    547.61193 0.0094992356 0.0078580374            5 
 4805000   0.49145496   -9.0170534    548.02491  0.009504421 0.0078553296            6 
 4806000   0.47689406   -9.0206182    547.27128 0.0094893757 0.0078526241            4 
 4807000   0.47941058   -9.0172563    548.18919 0.0095033144 0.0078499192            6 
 4808000   0.49153657   -9.0108864    547.40557 0.0094877559 0.0078472128            7 
 4809000   0.47904802   -9.0226522    547.18317 0.0094819292 0.0078445099            9 
 4810000   0.48866102   -9.0254058    547.38052 0.0094833771 0.0078418067            4 
 4811000   0.48463385   -9.0218416    547.15327 0.0094774696 0.0078391045            3 
 4812000   0.47454305   -9.0189195    547.93959 0.0094891173 0.0078364056            6 
 4813000   0.48173869    -9.002609    547.99496 0.0094881045 0.0078337089            5 
 4814000   0.48677494   -9.0256059    547.01285 0.0094691325 0.0078310099            5 
 4815000   0.48188293   -9.0128059    547.52782 0.0094760786 0.0078283117            8 
 4816000   0.49190745   -9.0285841     547.5984 0.0094753322  0.007825617            4 
 4817000   0.47524825   -9.0099513    547.57117  0.009472894 0.0078229232            4 
 4818000   0.49466427   -9.0308431    547.49227 0.0094695633  0.007820231            6 
 4819000   0.49242741   -9.0327402     547.5428 0.0094684721 0.0078175414            4 
 4820000   0.47634838   -9.0121234    547.70825  0.009469368 0.0078148522            4 
 4821000   0.47111778   -9.0283256    547.20252 0.0094586621 0.0078121624            4 
 4822000   0.47790004     -9.01677    547.88959 0.0094685744 0.0078094742            5 
 4823000   0.48202533   -9.0095362    547.34821  0.009457257 0.0078067865            4 
 4824000   0.48231277   -9.0035686     547.3643 0.0094555745 0.0078041003            3 
 4825000   0.48047085   -9.0396571    547.71402  0.009459655  0.007801417           10 
 4826000    0.4695563   -9.0246484    547.92079 0.0094612652 0.0077987341            5 
 4827000    0.4801761   -9.0219482    547.55284 0.0094529529  0.007796052            6 
 4828000   0.47633971   -9.0146383    547.11226 0.0094433903 0.0077933721            5 
 4829000   0.47789002   -9.0070504    547.00446 0.0094395745 0.0077906933            6 
 4830000   0.48362719   -9.0310118    547.75478 0.0094505655 0.0077880188            5 
 4831000   0.48003721    -9.008709    547.53697 0.0094448522 0.0077853436            8 
 4832000   0.47828371   -9.0205444    547.33451 0.0094394058 0.0077826686            5 
 4833000   0.47888912   -9.0259659    547.30722 0.0094369822 0.0077799935           10 
 4834000   0.47412608   -9.0293749    546.79254 0.0094261574 0.0077773194            4 
 4835000   0.46552477   -9.0261628     547.3286 0.0094334471 0.0077746467            5 
 4836000    0.4783497   -9.0200782    546.81704 0.0094226812 0.0077719753            4 
 4837000   0.48287103   -9.0314256    547.58082 0.0094338919 0.0077693061            6 
 4838000   0.47430481   -9.0326728    547.61489 0.0094325288 0.0077666375            8 
 4839000   0.47784171   -9.0349004    548.06312 0.0094382986 0.0077639714            4 
 4840000   0.47823926    -9.035084     547.2717  0.009422722 0.0077613048            6 
 4841000   0.47571807    -9.026215    547.74771 0.0094289697  0.007758641            4 
 4842000   0.47803613   -9.0176657    546.42505 0.0094042587 0.0077559784            5 
 4843000   0.49215243   -9.0345786    547.35984 0.0094184018 0.0077533154            5 
 4844000   0.46753454   -9.0234978    547.43147 0.0094176897 0.0077506582            2 
 4845000   0.47362583   -9.0321767    547.30848 0.0094136305 0.0077479988            5 
 4846000   0.48053387   -9.0288647    547.27491 0.0094111107 0.0077453424            5 
 4847000   0.47233785   -9.0177774     547.6358 0.0094153737 0.0077426833            6 
 4848000   0.47482624   -9.0235911    547.53864 0.0094117616 0.0077400271            4 
 4849000   0.46611114   -9.0297862    547.65647 0.0094118456 0.0077373728            4 
 4850000    0.4627531   -9.0368665    546.85715  0.009396171 0.0077347175            3 
 4851000   0.47270008   -9.0234912    548.09021 0.0094154163 0.0077320639            5 
 4852000   0.47057828   -9.0207184    547.25317 0.0093990995 0.0077294129            5 
 4853000   0.47224434   -9.0179784    546.22444 0.0093794979 0.0077267614            2 
 4854000   0.47700713   -9.0235231    547.78074 0.0094042841 0.0077241118            6 
 4855000    0.4810889   -9.0195909    547.27478 0.0093936625 0.0077214654            3 
 4856000   0.47769102   -9.0361955    548.13361 0.0094064663 0.0077188163            5 
 4857000   0.47095333   -9.0289201    546.38506 0.0093745292 0.0077161699            9 
 4858000   0.47671621   -9.0204626    547.59596  0.009393371 0.0077135244            6 
 4859000   0.47350683   -9.0320037     547.7047 0.0093933028 0.0077108787            7 
 4860000   0.48033567   -9.0077432    547.03566 0.0093798982 0.0077082354            6 
 4861000   0.47890393   -9.0355386    547.34066 0.0093831972 0.0077055941            5 
 4862000    0.4835173   -9.0039419    547.06887 0.0093766089 0.0077029551            4 
 4863000   0.46506121   -9.0161443    547.12573 0.0093756552 0.0077003174            9 
 4864000   0.46956281   -9.0247663    547.45167 0.0093793117   0.00769768            4 
 4865000   0.47459607   -9.0092283    547.33037 0.0093753061 0.0076950431            5 
 4866000   0.47284593   -9.0375112    547.41081 0.0093747571 0.0076924081            5 
 4867000   0.47486377   -9.0268165    546.79093 0.0093622171 0.0076897711            5 
 4868000   0.47351448   -9.0180558    546.68553 0.0093584896 0.0076871366            5 
 4869000   0.47324896   -9.0353205    547.67279 0.0093734646  0.007684501            3 
 4870000   0.47318429   -9.0254956    547.08621 0.0093615026 0.0076818684            8 
 4871000   0.47120606   -9.0285259    546.93023 0.0093569122 0.0076792375            6 
 4872000    0.4838651   -9.0165372     547.5613 0.0093657857 0.0076766071            7 
 4873000   0.46516366   -9.0213357    547.03326 0.0093548337 0.0076739792            3 
 4874000   0.47078125   -9.0185628    546.08105 0.0093366341 0.0076713506            9 
 4875000   0.46676669   -9.0501701    546.89383 0.0093486125 0.0076687247            3 
 4876000   0.47716507   -9.0344851    546.66673  0.009342814 0.0076660995            8 
 4877000   0.47559834   -9.0413561     547.2081 0.0093501487  0.007663476            6 
 4878000   0.47319973   -9.0359563    546.43492 0.0093350232 0.0076608542            5 
 4879000   0.46031433   -9.0469828    546.46336 0.0093335957 0.0076582348            9 
 4880000    0.4720722   -9.0127819    546.53874 0.0093329703 0.0076556147            5 
 4881000   0.47483848   -9.0162777    548.17957 0.0093590721 0.0076529967            7 
 4882000   0.46769514    -9.031143    546.55591   0.00932944 0.0076503778           10 
 4883000   0.46540958   -9.0258888    546.75027 0.0093308463 0.0076477612            7 
 4884000   0.46772107   -9.0427464    546.30536 0.0093213446  0.007645146            8 
 4885000    0.4670778   -9.0283724    546.88677 0.0093293546 0.0076425302            2 
 4886000   0.47420541   -9.0518018    547.25564 0.0093337366  0.007639916            7 
 4887000    0.4775146   -9.0330575     547.1687  0.009330344 0.0076373035            8 
 4888000   0.48149345   -9.0357116     547.4502 0.0093332344 0.0076346925            2 
 4889000   0.46715096   -9.0281663    546.51588 0.0093153998  0.007632082            3 
 4890000   0.46987462   -9.0288056    546.25716 0.0093090858 0.0076294712            7 
 4891000   0.47425472   -9.0470275    547.29215 0.0093248169 0.0076268652            6 
 4892000   0.46264151    -9.035741     546.6974 0.0093127794 0.0076242586            3 
 4893000   0.47070718    -9.040657    547.30853 0.0093212844 0.0076216522            5 
 4894000   0.46424192   -9.0352141    546.78821 0.0093105198 0.0076190458            6 
 4895000   0.47100802   -9.0307793     547.0888 0.0093137351 0.0076164415            4 
 4896000   0.47045411   -9.0314794    547.47519 0.0093184095 0.0076138379            4 
 4897000   0.47390752   -9.0307663    546.68524 0.0093030638 0.0076112365            4 
 4898000   0.46760532   -9.0302328    548.07456  0.009324802 0.0076086365            7 
 4899000    0.4516665   -9.0489359    546.51254 0.0092963282 0.0076060379            4 
 4900000    0.4595111   -9.0441708    547.01036 0.0093028972 0.0076034383            5 
 4901000   0.46617212   -9.0370309    546.74053 0.0092964111 0.0076008417            6 
 4902000   0.46895919   -9.0346443    546.58166 0.0092918138 0.0075982471            5 
 4903000   0.47655669    -9.022648    547.00157 0.0092970557 0.0075956517            3 
 4904000   0.47363965   -9.0363201    547.42951 0.0093024318 0.0075930589            5 
 4905000   0.47277682    -9.038871    546.81221 0.0092900477 0.0075904657            7 
 4906000   0.46117869   -9.0329293    547.29755 0.0092963982 0.0075878736            4 
 4907000    0.4616936   -9.0286117    546.67399 0.0092839139 0.0075852835            6 
 4908000   0.46181735   -9.0290682    546.63251 0.0092813182 0.0075826949            3 
 4909000   0.46971276   -9.0360257     547.6478 0.0092966626 0.0075801079            3 
 4910000     0.459276   -9.0339263    546.52676 0.0092757427 0.0075775208            4 
 4911000   0.46172194    -9.046891    547.35147 0.0092878483 0.0075749365            4 
 4912000   0.46968163   -9.0399126    546.90725 0.0092784211 0.0075723526            6 
 4913000   0.46505763    -9.036639    547.18724 0.0092812817  0.007569769            3 
 4914000    0.4621485   -9.0433394    546.73225 0.0092716769 0.0075671869            5 
 4915000   0.46280633   -9.0487774    547.13414 0.0092766046 0.0075646044            2 
 4916000   0.45841136   -9.0310413    546.63832 0.0092663128 0.0075620249            6 
 4917000   0.46388173   -9.0343174    547.09837 0.0092722252 0.0075594461            6 
 4918000   0.46102214    -9.029845    546.93679 0.0092676018  0.007556867            6 
 4919000   0.46515235   -9.0499439    547.14288 0.0092692092 0.0075542924            2 
 4920000   0.45917602   -9.0505469    547.96474 0.0092812457 0.0075517184            4 
 4921000   0.46401837   -9.0448174    546.96935 0.0092625034 0.0075491444            4 
 4922000   0.46094784    -9.046223    546.93592 0.0092600556 0.0075465712            4 
 4923000   0.46280841   -9.0201851    546.11053 0.0092442028 0.0075439996            8 
 4924000   0.46671541   -9.0466943    546.43257 0.0092477757 0.0075414282            9 
 4925000   0.46949709   -9.0424684    546.86833 0.0092532712 0.0075388601            5 
 4926000   0.46195599   -9.0384213    546.54421 0.0092459096 0.0075362919            6 
 4927000   0.45839309    -9.045756    547.02057 0.0092520901 0.0075337269            5 
 4928000   0.46953225   -9.0386039    547.52194 0.0092586908 0.0075311618            5 
 4929000   0.46483362   -9.0434843    546.88189 0.0092459912 0.0075285976            8 
 4930000   0.45181908   -9.0290479    546.58002 0.0092390131 0.0075260346            3 
 4931000    0.4701488   -9.0485465    546.95742 0.0092435175 0.0075234718            4 
 4932000     0.463881   -9.0470785    546.67799  0.009236922 0.0075209097            5 
 4933000   0.47012238    -9.048311    547.03696 0.0092411136 0.0075183483            4 
 4934000   0.45172928   -9.0318453    545.67653 0.0092162635  0.007515788            5 
 4935000   0.46509538   -9.0455217    546.84251  0.009234085 0.0075132291            4 
 4936000   0.46114576   -9.0447897    546.42705 0.0092252001  0.007510673            5 
 4937000   0.47228265   -9.0523588    545.94942 0.0092152695  0.007508117            5 
 4938000   0.45599495   -9.0343939    546.47749 0.0092223149 0.0075055607            9 
 4939000   0.45483759   -9.0509766    546.94382 0.0092283158 0.0075030053            8 
 4940000   0.46324415   -9.0445569    546.67144 0.0092218528 0.0075004517            3 
 4941000   0.45614849   -9.0388407     546.4721 0.0092166245 0.0074978983            6 
 4942000    0.4616079    -9.040086    546.78717 0.0092200723 0.0074953453            7 
 4943000   0.46337499   -9.0381603    546.34047 0.0092106762 0.0074927955            6 
 4944000   0.46356802   -9.0476196    545.82266 0.0092000853 0.0074902477            7 
 4945000   0.45486911   -9.0416935    547.11933 0.0092200763 0.0074877009            6 
 4946000   0.46378568   -9.0399472    546.14878 0.0092018597 0.0074851528            6 
 4947000   0.46271733   -9.0358436    546.71411 0.0092095229 0.0074826087            6 
 4948000   0.45963782   -9.0465624    546.80146 0.0092091327 0.0074800642            5 
 4949000   0.45321376   -9.0390352    547.26211 0.0092150284 0.0074775198            6 
 4950000      0.45548   -9.0454688    546.83879 0.0092060403 0.0074749784            6 
 4951000   0.45166399   -9.0425658    547.63751 0.0092176246 0.0074724373            6 
 4952000    0.4544132   -9.0592107    545.61266 0.0091816885 0.0074698954            4 
 4953000   0.44977625    -9.053025     546.8097 0.0091999748 0.0074673549            7 
 4954000   0.47003372    -9.045323    545.98708   0.00918428 0.0074648181            7 
 4955000   0.45271212   -9.0497974    546.65741 0.0091937002 0.0074622804            4 
 4956000    0.4519242   -9.0711178     546.5745 0.0091904509 0.0074597452            6 
 4957000   0.46236547   -9.0478835    546.39884 0.0091856439  0.007457211            7 
 4958000    0.4647811   -9.0472183    546.92192  0.009192583 0.0074546771            5 
 4959000   0.44992075    -9.056247      546.533 0.0091841938 0.0074521456            8 
 4960000   0.46252202   -9.0429027    546.04433  0.009174132 0.0074496154            7 
 4961000    0.4667705   -9.0690065    546.03518 0.0091721289 0.0074470852            5 
 4962000   0.46323553   -9.0562659     546.5362 0.0091786947  0.007444557            7 
 4963000   0.46133765   -9.0699577    546.62313  0.009178305 0.0074420298            6 
 4964000   0.45707516   -9.0603683    546.17725 0.0091689708 0.0074395043            5 
 4965000   0.46465337   -9.0667264      546.016 0.0091644176 0.0074369799            7 
 4966000   0.45163505   -9.0523326    546.80569 0.0091758237 0.0074344555            6 
 4967000   0.45246131   -9.0603957    545.72238 0.0091558013 0.0074319322            4 
 4968000   0.46111449    -9.062511    546.34155 0.0091643443 0.0074294117            3 
 4969000   0.45545354   -9.0502481    546.87977 0.0091715263 0.0074268907            5 
 4970000   0.46650359   -9.0555204    545.98358 0.0091546542 0.0074243718            6 
 4971000   0.44112917   -9.0583234    546.48513 0.0091612205 0.0074218521            7 
 4972000   0.45042154   -9.0659372    546.33808 0.0091569133 0.0074193348            6 
 4973000   0.47283509   -9.0628363     546.1978 0.0091527213 0.0074168192            5 
 4974000   0.46458075   -9.0556827    546.41291 0.0091544852 0.0074143038            5 
 4975000   0.46014452    -9.057583    545.73345 0.0091412638 0.0074117907            5 
 4976000    0.4549819   -9.0621665    546.08771 0.0091453595 0.0074092771            4 
 4977000   0.44659779   -9.0566084    546.55904 0.0091514138 0.0074067661            5 
 4978000   0.45164067   -9.0568168    546.18383 0.0091432943 0.0074042553            7 
 4979000   0.45217145   -9.0658063    547.17279 0.0091580101 0.0074017451            5 
 4980000   0.45002499   -9.0615087    545.97166 0.0091360719 0.0073992369            3 
 4981000   0.44314892    -9.066299    545.99553 0.0091346371 0.0073967274            5 
 4982000   0.44752641   -9.0618245    546.67162 0.0091441124  0.007394221            4 
 4983000   0.45566231   -9.0620984     545.7729 0.0091272476  0.007391715            4 
 4984000   0.44355523   -9.0588514    546.78028 0.0091422598 0.0073892104            5 
 4985000   0.44892393   -9.0484778    545.98771 0.0091271768  0.007386707            3 
 4986000   0.45023367   -9.0419771    546.86586  0.009140023 0.0073842053            5 
 4987000   0.44948417    -9.049671    546.29359 0.0091286276 0.0073817055            5 
 4988000   0.45119317   -9.0655727    546.71434 0.0091338268 0.0073792046            7 
 4989000   0.44513381   -9.0512279    545.64346 0.0091141087 0.0073767065            5 
 4990000   0.44910384   -9.0682016    546.27836 0.0091228851 0.0073742102            5 
 4991000   0.44447988   -9.0669505    546.07465 0.0091176559 0.0073717142            4 
 4992000   0.45213464   -9.0491819    545.85226  0.009112117 0.0073692181            6 
 4993000   0.45335278   -9.0387464    546.05516 0.0091136785 0.0073667242            5 
 4994000   0.44670031   -9.0603496    546.09183 0.0091124654  0.007364231            7 
 4995000   0.45761168   -9.0526034    546.15202 0.0091116453 0.0073617393            5 
 4996000   0.45585703   -9.0545754    546.70084 0.0091189759 0.0073592474            6 
 4997000   0.46305804   -9.0589152    545.64144 0.0090994837 0.0073567559            3 
 4998000   0.45416524   -9.0638699    545.93315 0.0091025269 0.0073542675            7 
 4999000   0.45475911   -9.0552092    546.59284  0.009111703 0.0073517802            6 
 5000000   0.45839198   -9.0590429    546.38737 0.0091064562 0.0073492933            6 
 5001000    0.4496055    -9.069214      546.248 0.0091023129  0.007346808            8 
 5002000   0.45081908   -9.0660847     546.2491 0.0091005114 0.0073443235            9 
 5003000   0.44791897   -9.0624717    546.52537 0.0091032943  0.007341841            5 
 5004000   0.44091573   -9.0594226    546.19352 0.0090959485 0.0073393599            5 
 5005000   0.46295667   -9.0721313    546.22608 0.0090946734 0.0073368798            7 
 5006000   0.44854091   -9.0577758    546.90279 0.0091041216 0.0073343995            7 
 5007000   0.45121414   -9.0547766     546.3812 0.0090936222 0.0073319206            6 
 5008000   0.45766119   -9.0679473    546.62074 0.0090957924 0.0073294441            5 
 5009000   0.44679071   -9.0547525    545.74473 0.0090794026 0.0073269688            5 
 5010000   0.45412005   -9.0646221    546.49412 0.0090900552 0.0073244925            3 
 5011000   0.45552084   -9.0655784    546.25661 0.0090842914 0.0073220192            3 
 5012000   0.45618866   -9.0673789    546.38801 0.0090846636 0.0073195469            3 
Loop time of 12407.6 on 48 procs for 5000000 steps with 4000 atoms

Performance: 69635.014 tau/day, 402.980 timesteps/s
99.4% CPU use with 48 MPI tasks x no OpenMP threads

MPI task timing breakdown:
Section |  min time  |  avg time  |  max time  |%varavg| %total
---------------------------------------------------------------
Pair    | 833.59     | 889.61     | 957.54     | 110.9 |  7.17
Neigh   | 82.446     | 85.451     | 88.72      |  18.4 |  0.69
Comm    | 788.42     | 859.82     | 919.73     | 118.8 |  6.93
Output  | 13.602     | 13.606     | 13.688     |   0.3 |  0.11
Modify  | 10420      | 10443      | 10459      |   8.5 | 84.17
Other   |            | 115.9      |            |       |  0.93

Nlocal:        83.3333 ave          88 max          79 min
Histogram: 1 7 4 5 8 7 6 6 3 1
Nghost:        2205.60 ave        2220 max        2188 min
Histogram: 1 3 2 4 9 10 6 8 2 3
Neighs:        14720.0 ave       16228 max       13598 min
Histogram: 4 6 4 10 9 5 3 2 3 2
FullNghs:      29438.5 ave       31329 max       27790 min
Histogram: 2 8 2 10 4 6 7 5 2 2

Total # of neighbors = 1413047
Ave neighs/atom = 353.26175
Neighbor list builds = 266872
Dangerous builds = 1

#clear
#
#next RN
#
#jump SELF
Total wall time: 3:26:51
