
units lj                  # Use reduced LJ style units
atom_style atomic         # Uncharged point particles
atom_modify map hash      # Needed for indexing of clusters etc
                          # Used to be able to find where atoms are in relation to each other.

lattice fcc 1.0 spacing 1 1 1
Lattice spacing in x,y,z = 1.5874011 1.5874011 1.5874011
region box block 0 10 0 10 0 10 units lattice
create_box 2 box
Created orthogonal box = (0.0000000 0.0000000 0.0000000) to (15.874011 15.874011 15.874011)
  3 by 4 by 4 MPI processor grid
create_atoms 1 box
Created 4000 atoms
  using lattice units in orthogonal box = (0.0000000 0.0000000 0.0000000) to (15.874011 15.874011 15.874011)
  create_atoms CPU = 0.002 seconds
set type 1 type/fraction 2 0.19 78393
Setting atom values ...
  784 settings made for type/fraction
mass 1 1.0
mass 2 1.0
pair_style lj/cut  3.5
pair_modify tail  yes
pair_coeff 1  1  1.0  1.0   # Intearaction between 1 and 1 set with epsilon = 1 and sigma = 1
pair_coeff 1  2  1.5  0.8
pair_coeff 2  2  0.5  0.88

write_data data.0
System init for write_data ...
Neighbor list info ...
  update every 1 steps, delay 10 steps, check yes
  max neighbors/atom: 2000, page size: 100000
  master list distance cutoff = 3.8
  ghost atom cutoff = 3.8
  binsize = 1.9, bins = 9 9 9
  1 neighbor lists, perpetual/occasional/extra = 1 0 0
  (1) pair lj/cut, perpetual
      attributes: half, newton on
      pair build: half/bin/atomonly/newton
      stencil: half/bin/3d
      bin: standard
WARNING: Not all mixed pair coeffs generated from mixing. Use write_data with 'pair ij' option to store all pair coeffs. (../write_data.cpp:312)


#############################
#   M E L T   S Y S T E M   #
#############################

velocity all create 2.4 2750902 mom yes dist gaussian # Assign velocities
                                                    # Temperature 2.4, random number seed, zero linear momentum
                                                                                # Gaussian distribution

timestep 0.002   # simulation timestep
thermo 1000       # output thermodynamic data every 1000 steps bf 100

# Define a fix  in this case with index 1 applied to all
# particles in the simulation. This fix is for simulations
# in the anisotropic NPT ensemble. Note that we use the MTK
# correction.
fix 1 all npt temp 2.4 2.4 0.1 iso 5.68 5.68 0.5 mtk yes tchain 5 pchain 5 # Use NPT ensemble
                                                                         # Set temperature and pressure and damping
                                                                         # Numbers of thermostats in chain and in barostat
run 10000          # run for 10000 steps
Per MPI rank memory allocation (min/avg/max) = 3.642 | 3.644 | 3.648 Mbytes
Step Temp E_pair E_mol TotEng Press Volume 
       0          2.4   -7.1181064            0   -3.5190064   -3.5570023         4000 
    1000    2.3736405   -4.8174429            0   -1.2578723    5.7863324    4504.1326 
    2000     2.374856    -4.858278            0   -1.2968845    5.5410988    4508.1406 
    3000    2.3711127   -4.8188097            0   -1.2630298    5.5398199    4523.5656 
    4000    2.4276749   -4.8062347            0   -1.1656327    6.1076126     4466.631 
    5000    2.3812073   -4.8216949            0    -1.250777    5.7612021    4494.7289 
    6000    2.4454027   -4.8156249            0   -1.1484379    5.6972372    4510.2946 
    7000    2.3988485   -4.8270336            0   -1.2296604    5.7190128    4498.6246 
    8000    2.3256611   -4.7943714            0   -1.3067519    5.4552404    4535.0887 
    9000    2.3839085   -4.7284279            0   -1.1534591    5.6762033    4561.6755 
   10000    2.3846718   -4.7350679            0   -1.1589545    5.7957724    4532.4388 
Loop time of 2.2705 on 48 procs for 10000 steps with 4000 atoms

Performance: 761066.563 tau/day, 4404.320 timesteps/s
99.6% CPU use with 48 MPI tasks x no OpenMP threads

MPI task timing breakdown:
Section |  min time  |  avg time  |  max time  |%varavg| %total
---------------------------------------------------------------
Pair    | 0.96645    | 1.025      | 1.0772     |   2.8 | 45.14
Neigh   | 0.19488    | 0.2029     | 0.20971    |   0.8 |  8.94
Comm    | 0.71695    | 0.77541    | 0.84366    |   3.6 | 34.15
Output  | 0.00024194 | 0.00024689 | 0.00031624 |   0.0 |  0.01
Modify  | 0.2334     | 0.2524     | 0.26993    |   2.4 | 11.12
Other   |            | 0.01454    |            |       |  0.64

Nlocal:        83.3333 ave          92 max          73 min
Histogram: 3 0 2 3 9 13 10 6 0 2
Nghost:        1514.48 ave        1553 max        1485 min
Histogram: 2 6 7 5 8 11 3 4 0 2
Neighs:        8406.12 ave        9470 max        7012 min
Histogram: 3 1 0 3 8 11 11 8 1 2

Total # of neighbors = 403494
Ave neighs/atom = 100.87350
Neighbor list builds = 906
Dangerous builds = 205

# Equilibrate just above the melting temperature to avoid step fn in T

fix 1 all npt temp 1.25 1.25 0.1 iso 5.68 5.68 0.5 mtk yes tchain 5 pchain 5
run 2000
Per MPI rank memory allocation (min/avg/max) = 3.642 | 3.645 | 3.649 Mbytes
Step Temp E_pair E_mol TotEng Press Volume 
   10000    2.3846718   -4.7350679            0   -1.1589545    5.7957724    4532.4388 
   11000    1.2485074   -6.4948619            0    -4.622569    5.6610522    3692.6059 
   12000    1.2826764   -6.5187929            0   -4.5952593    5.7279761    3682.4837 
Loop time of 0.498408 on 48 procs for 2000 steps with 4000 atoms

Performance: 693408.198 tau/day, 4012.779 timesteps/s
99.6% CPU use with 48 MPI tasks x no OpenMP threads

MPI task timing breakdown:
Section |  min time  |  avg time  |  max time  |%varavg| %total
---------------------------------------------------------------
Pair    | 0.21922    | 0.24258    | 0.27015    |   2.1 | 48.67
Neigh   | 0.03183    | 0.033805   | 0.035937   |   0.5 |  6.78
Comm    | 0.13478    | 0.16984    | 0.19045    |   2.7 | 34.08
Output  | 5.1804e-05 | 5.3175e-05 | 6.6746e-05 |   0.0 |  0.01
Modify  | 0.040808   | 0.047493   | 0.054289   |   1.6 |  9.53
Other   |            | 0.004631   |            |       |  0.93

Nlocal:        83.3333 ave          92 max          75 min
Histogram: 2 2 7 1 9 16 5 2 3 1
Nghost:        1735.00 ave        1769 max        1709 min
Histogram: 3 5 2 11 5 12 8 1 0 1
Neighs:        10371.2 ave       11585 max        9108 min
Histogram: 3 3 4 4 7 11 5 6 2 3

Total # of neighbors = 497817
Ave neighs/atom = 124.45425
Neighbor list builds = 141
Dangerous builds = 11

#############################
# L I N E A R  Q U E N C H  #
#############################

# Define solid atoms. This closely follows ten Wolde  Ruiz-Montero and Frenkel  Faraday Discuss  1996  104  93-110
# Compute components of the per-atom q6 vector
compute q6 all orientorder/atom degrees 1 6 components 6 nnn NULL cutoff 1.3 # compute the Q6 parameter.
                                                                             # Use all neighbours within 1.3 unit cell.

# get number of connections
compute coord_number all coord/atom orientorder q6 0.5

# An atom is solid if it has 8 or more connections (of a possible 14)
variable is_solid atom c_coord_number>=8
group solid dynamic all var is_solid    # Must be dynamic to update
dynamic group solid defined

# do clustering
compute cluster solid cluster/atom 1.3 # Create a cluster where all atoms within are solid and max 1.3 units from another member

# define chunks one chunk per cluster
compute clus_chunks solid chunk/atom c_cluster nchunk every compress yes  # Says which atoms are in which chunk

# count the size of each chunk
compute size_chunks solid property/chunk clus_chunks count


# Find the maximum entry in the vector of chunk sizes
variable max_n equal max(c_size_chunks)


# Thermo style which includes this variable
# thermo_style custom step temp pe vol v_max_n

thermo ${N}  # Print the thermo information every 100 steps
thermo 1000  

# Reset the npt fix at a lower temperature (below freezing)
fix 1  all npt temp  ${temp} ${temp}  0.1  iso  5.68  5.68  0.5  mtk yes tchain  5  pchain  5
fix 1  all npt temp  0.45 ${temp}  0.1  iso  5.68  5.68  0.5  mtk yes tchain  5  pchain  5
fix 1  all npt temp  0.45 0.45  0.1  iso  5.68  5.68  0.5  mtk yes tchain  5  pchain  5

dump dmp2 all dcd ${N} traj.dcd
dump dmp2 all dcd 1000 traj.dcd


compute msd all msd com yes
variable twopoint equal c_msd[4]/6/(step*dt+1.0e-6)
fix 9 all vector 10 c_msd[4]
variable fit equal slope(f_9)/6/(10*dt)
thermo_style custom step temp pe c_msd[4] v_twopoint v_fit v_max_n

fix 1 all npt temp 1.25 ${temp} 0.1 iso 5.68 5.68 0.5 mtk yes tchain 5 pchain 5
fix 1 all npt temp 1.25 0.45 0.1 iso 5.68 5.68 0.5 mtk yes tchain 5 pchain 5
run 2000000 # 5000000  # Run for this many steps
Neighbor list info ...
  update every 1 steps, delay 10 steps, check yes
  max neighbors/atom: 2000, page size: 100000
  master list distance cutoff = 3.8
  ghost atom cutoff = 3.8
  binsize = 1.9, bins = 9 9 9
  4 neighbor lists, perpetual/occasional/extra = 1 3 0
  (1) pair lj/cut, perpetual
      attributes: half, newton on
      pair build: half/bin/atomonly/newton
      stencil: half/bin/3d
      bin: standard
  (2) compute orientorder/atom, occasional
      attributes: full, newton on
      pair build: full/bin/atomonly
      stencil: full/bin/3d
      bin: standard
  (3) compute coord/atom, occasional
      attributes: full, newton on
      pair build: full/bin/atomonly
      stencil: full/bin/3d
      bin: standard
  (4) compute cluster/atom, occasional
      attributes: full, newton on
      pair build: full/bin/atomonly
      stencil: full/bin/3d
      bin: standard
Per MPI rank memory allocation (min/avg/max) = 9.770 | 9.777 | 9.783 Mbytes
Step Temp PotEng c_msd[4] v_twopoint v_fit v_max_n 
   12000    1.2826764   -6.5187929 3.9103835e-30 2.715544e-32 8.3333333e+20            1 
   13000    1.2475561   -6.5474049   0.51946297 0.0033298907   0.04224565            2 
   14000    1.2543412   -6.5272003    1.0583447 0.0062996705  0.043150204            3 
   15000    1.2646379   -6.5552191    1.5769868 0.0087610374  0.043812979            2 
   16000     1.250752   -6.5098371    2.0657764  0.010759252  0.043275844            1 
   17000    1.2454027   -6.4777057    2.6068925  0.012778884  0.042729668            2 
   18000    1.2576124   -6.4939367    3.1694809  0.014673522  0.043165568            1 
   19000     1.266651   -6.5622774     3.725441  0.016339653  0.043683781            5 
   20000    1.2428426   -6.5537422    4.2444269  0.017685111  0.044146755            1 
   21000    1.2552865   -6.5352448    4.6851756  0.018591966  0.043967101            1 
   22000    1.2477067   -6.5276159    5.1582574  0.019538853  0.043602691            4 
   23000    1.2281804   -6.5337085    5.6697408  0.020542539  0.043353669            1 
   24000    1.2560369    -6.488747     6.097774  0.021172826  0.042974788            2 
   25000    1.2693369   -6.4995909    6.5890269  0.021963423  0.042581448            2 
   26000    1.2490203   -6.5184325    7.0649605  0.022644104  0.042274844            2 
   27000    1.2552531   -6.5399435    7.5291864  0.023238229  0.042058775            3 
   28000    1.2311828   -6.5182022    8.0551739  0.023973732  0.041866932            2 
   29000     1.250553   -6.5156647    8.5775642  0.024648173  0.041759807            1 
   30000    1.2349151   -6.5345996    9.0911704  0.025253251   0.04170118            1 
   31000    1.2584845   -6.5527152    9.5003522  0.025538581  0.041597427            3 
   32000    1.2240089   -6.5589994    9.9769842  0.025981729  0.041477297            1 
   33000    1.2463378   -6.5495927    10.420678  0.026314843  0.041310699            1 
   34000    1.2567842   -6.5487431    10.886856   0.02668347  0.041205095            1 
   35000    1.2188511   -6.5253463    11.353248  0.027031543  0.041083801            2 
   36000    1.2438085    -6.548969    11.711161  0.027109168  0.040960697            1 
   37000    1.2567799   -6.5167594    12.297566  0.027697221   0.04080617            2 
   38000    1.2449149   -6.5144788    12.997804  0.028503956  0.040803214            1 
   39000    1.2330601   -6.5213758    13.567715  0.028990843  0.040878975            2 
   40000    1.2370579   -6.5688257    13.966165  0.029096177  0.040971319            3 
   41000    1.2119237   -6.5676709    14.465077  0.029400562  0.041012717            2 
   42000    1.2143977   -6.5147333    15.147014  0.030053598  0.041084323            2 
   43000    1.2498925    -6.556925    15.705986  0.030437958  0.041200281            1 
   44000    1.2593536   -6.5504218    16.397966  0.031056753  0.041356013            1 
   45000    1.2292174   -6.5552243    16.932318  0.031356143  0.041533891            1 
   46000    1.2401839   -6.5174569    17.545608  0.031785521   0.04171933            1 
   47000    1.2450809   -6.5423356    17.983782  0.031886138  0.041869003            2 
   48000    1.2091368   -6.5815556    18.449122  0.032029725  0.041992294            2 
   49000    1.2465033   -6.5128982     19.07506  0.032440577  0.042111439            5 
   50000    1.2262433   -6.5841527    19.475471  0.032459118  0.042226432            2 
   51000    1.2293504   -6.5761885    19.831077   0.03240372  0.042298569            3 
   52000    1.2370331   -6.5928485    20.360639   0.03262923  0.042331426            2 
   53000    1.2421799     -6.50415    20.916743  0.032887961  0.042369254            2 
   54000    1.2330387   -6.5177689    21.617063  0.033359665  0.042417752            1 
   55000    1.2411631   -6.5697676    22.075494  0.033447717  0.042470184            2 
   56000    1.2413321   -6.5530191    22.496335  0.033476689   0.04250764            1 
   57000    1.2180492   -6.5442233    23.062532  0.033717151  0.042536839            2 
   58000    1.2476538   -6.5311731    23.673414  0.034013526  0.042580045            1 
   59000    1.2439244   -6.5373155     24.08839  0.034023149    0.0426047            3 
   60000     1.223767   -6.5528323    24.479895  0.033999854  0.042623002            2 
   61000     1.233171   -6.5195149    25.046675  0.034216769  0.042628103            3 
   62000    1.2280591    -6.552894    25.586067  0.034389875  0.042645452            2 
   63000    1.2157598    -6.568162    26.199861    0.0346559  0.042669937            1 
   64000    1.2255435   -6.5673334    26.630299  0.034674868  0.042698587            1 
   65000    1.1990081   -6.5519242    27.286671  0.034982911   0.04273199            2 
   66000    1.2251732   -6.5385121    27.845037  0.035157875  0.042774083            2 
   67000    1.2181715   -6.5643536    28.304166  0.035204187  0.042796788            3 
   68000    1.2562447   -6.5568748    28.611948  0.035063661  0.042803745            2 
   69000    1.2326477   -6.5787654    29.236631   0.03530994  0.042799639            2 
   70000    1.2378644   -6.5810979    29.718227  0.035378841  0.042812396            2 
   71000    1.2354321   -6.5541763    30.259706  0.035516086  0.042812892            3 
   72000     1.224846   -6.5728195    30.668637  0.035496107  0.042806436            1 
   73000    1.1896996   -6.5786957    31.177995  0.035591318   0.04279455            2 
   74000    1.2363999   -6.5869204    31.674797  0.035669817  0.042792263            1 
   75000    1.2187473   -6.5884854    32.162775  0.035736416   0.04278511            1 
   76000    1.2000459    -6.563167    32.990488  0.036173781  0.042794788            2 
   77000    1.2172929   -6.5651481    33.598544  0.036362061  0.042821365            1 
   78000    1.2400745   -6.5856535    34.129862  0.036463527  0.042858767            2 
   79000    1.2282054    -6.548362    34.540235  0.036434847  0.042888859            2 
   80000    1.2202997   -6.6158916    34.956144  0.036412649   0.04290439            1 
   81000    1.2104705   -6.5720202    35.308407  0.036325521  0.042907443            2 
   82000    1.2185213   -6.5931628     35.71832  0.036299106  0.042895852            1 
   83000    1.2273571   -6.5505733    36.390225  0.036536371  0.042891675            2 
   84000    1.2014622   -6.5597847    36.904562  0.036611668  0.042891549            3 
   85000    1.2355886   -6.5926539    37.504704  0.036769318  0.042893378            2 
   86000    1.2081682   -6.5547961    37.815492  0.036642919  0.042894905            2 
   87000    1.2099186   -6.5746427    38.401426  0.036782975  0.042893735            2 
   88000    1.2165143   -6.5670232    38.927564  0.036863223  0.042892699            1 
   89000    1.2319469   -6.5754325    39.407639  0.036898539  0.042889081            4 
   90000    1.2165971   -6.5525453    39.962912  0.037002696  0.042883337            1 
   91000    1.2236321   -6.5804701    40.420709  0.037015301  0.042876415            1 
   92000    1.2129955   -6.6107231     40.88507  0.037033578  0.042869523            1 
   93000    1.2282801   -6.5892939    41.420969  0.037115564  0.042858241            1 
   94000    1.2116816   -6.5800919    41.661032  0.036933538  0.042835892            2 
   95000      1.20014   -6.5781331    42.300309  0.037105534  0.042819408            4 
   96000    1.2101056   -6.6084348    42.734476  0.037095899  0.042805232            2 
   97000    1.2147875   -6.5899642    43.277675  0.037180133  0.042789518            2 
   98000     1.208392   -6.5824735    43.535593  0.037020062  0.042762983            1 
   99000    1.2121221   -6.6285362    44.102214  0.037123076  0.042736117            2 
  100000    1.1898704   -6.5325615    44.567475  0.037139562  0.042713387            1 
  101000     1.211537   -6.5905636    45.137711  0.037242336  0.042688007            2 
  102000    1.2337508   -6.5540822     45.73803  0.037367671  0.042663944            2 
  103000    1.2251105   -6.5604357    46.113715  0.037308831  0.042641186            2 
  104000    1.1960396   -6.5842666    46.507105  0.037265308  0.042615194            2 
  105000    1.1986706   -6.5989111    46.755885  0.037107845  0.042578942            1 
  106000    1.2195111   -6.5651699    47.210904  0.037115491  0.042534903            1 
  107000    1.2042028    -6.612575    47.673204  0.037128663  0.042483538            4 
  108000    1.2171331   -6.5622762    48.141428  0.037146164  0.042438832            3 
  109000     1.205185   -6.5875494    48.334479  0.036952965  0.042396037            4 
  110000    1.2201655   -6.6119312      48.7886  0.036961061  0.042344631            1 
  111000    1.2061071   -6.5925955    49.557515  0.037205342  0.042296707            2 
  112000    1.1926039    -6.597279    49.882556  0.037114997  0.042253827            4 
  113000    1.2343504   -6.6195938    50.163096  0.036993434  0.042207069            6 
  114000    1.1732537   -6.6217418    50.666192   0.03703669  0.042157113            2 
  115000    1.2184303   -6.6184101    51.041732  0.036986762   0.04210389            1 
  116000    1.2185212    -6.573606    51.593441  0.037064254  0.042052424            1 
  117000    1.2027505   -6.5846371    52.610676  0.037471991  0.042015315            1 
  118000    1.2224571   -6.5790811    53.198019  0.037569222   0.04198955            2 
  119000    1.2099153   -6.6091006    53.581318  0.037521931  0.041969802            2 
  120000    1.2169869   -6.6168334     53.95617  0.037469562  0.041946185            3 
  121000     1.191369   -6.5887662    54.490095  0.037527613  0.041916937            3 
  122000    1.2025404   -6.5687362     54.91698  0.037511598  0.041892662            1 
  123000    1.1769094   -6.5935381    55.271166   0.03744659  0.041861813            2 
  124000    1.1931099   -6.6132369    55.429749  0.037251175  0.041823793            1 
  125000    1.1879785   -6.6223015    56.071893  0.037381262  0.041779248            3 
  126000    1.1975048   -6.6226656    56.410263  0.037308375  0.041736987            1 
  127000    1.1901734   -6.5882782    56.750396  0.037237793  0.041692166            4 
  128000    1.2181202   -6.6224727    57.144024  0.037203141  0.041646318            1 
  129000    1.1945993   -6.5918444    57.812334  0.037346469  0.041607136            2 
  130000    1.2358208   -6.6038881    58.381137  0.037423806  0.041573104            2 
  131000    1.1939775   -6.6534275    58.721845  0.037354863  0.041539519            1 
  132000    1.2293555   -6.6069505    59.282574  0.037425867  0.041506067            2 
  133000    1.1826982   -6.6014345    59.670209  0.037387349  0.041478568            2 
  134000    1.2196027   -6.6150444    60.125044  0.037391196  0.041445029            2 
  135000    1.2151854   -6.6081535    60.599834  0.037407305  0.041415553            3 
  136000    1.2238168   -6.6490089    61.149169  0.037468853  0.041387767            4 
  137000    1.1947827   -6.6519947    61.644768  0.037496817  0.041356839            3 
  138000    1.2029738   -6.5864815    61.971388  0.037422336  0.041323281            2 
  139000    1.2115795    -6.657774    62.131164  0.037248899  0.041286828            2 
  140000    1.1872682   -6.6153374    62.541147  0.037226873  0.041252365            1 
  141000    1.1814621   -6.6262107    63.173791  0.037336756  0.041213963            2 
  142000     1.183081   -6.6180632    63.531381  0.037283674  0.041174001            2 
  143000    1.1801166    -6.641692    64.042368  0.037320727  0.041133978            2 
  144000    1.1833406   -6.6322392    64.593104  0.037380268  0.041098672            1 
  145000    1.1889916   -6.6312082    65.158081  0.037447173  0.041067818            2 
  146000    1.1823347   -6.6388323    65.737111  0.037521182  0.041038594            1 
  147000    1.2025724   -6.6198759    66.390438  0.037636303  0.041012171            2 
  148000    1.1890978   -6.6183978    66.824826  0.037626591  0.040986802            1 
  149000    1.1929361   -6.6110792    67.573088  0.037792555  0.040964648            2 
  150000    1.2003699   -6.6194636    67.616552  0.037564751  0.040946554            1 
  151000    1.1700501   -6.6202452    68.231043  0.037655101  0.040926884            1 
  152000     1.200017   -6.6448964     68.54486  0.037579419  0.040904427            2 
  153000     1.190838   -6.6193428    68.951263  0.037555154  0.040882857            1 
  154000    1.1871677   -6.6049163    69.483383  0.037599233  0.040860175            2 
  155000    1.1884185   -6.6454857    69.665566  0.037454605  0.040833525            2 
  156000    1.1844437   -6.6269874    70.388535  0.037600713   0.04080781            2 
  157000    1.1957085   -6.6346329    70.828033  0.037594497  0.040783936            2 
  158000    1.2081341   -6.6028748    71.492807  0.037707177  0.040764487            4 
  159000    1.1711364   -6.6095416    72.369635  0.037929578  0.040747522            2 
  160000    1.1899901   -6.6309385    72.549386  0.037786138  0.040731605            3 
  161000    1.1741537   -6.6284128    73.167713  0.037871487  0.040720289            4 
  162000    1.1616928    -6.598218    73.679324  0.037900887  0.040708781            3 
  163000    1.2054772   -6.6716536    73.768195  0.037713801  0.040696522            2 
  164000    1.1977474   -6.6554566    74.615271  0.037914264  0.040681335            1 
  165000    1.1848359   -6.6214226    75.045996  0.037902018  0.040667144            1 
  166000    1.2031034   -6.6272259    75.165973  0.037733922  0.040652522            3 
  167000    1.2093951   -6.6383035    75.400077  0.037624789  0.040634092            2 
  168000    1.1675848   -6.6396477    76.010348  0.037703545  0.040615988            3 
  169000    1.1954447   -6.6910648    76.245723   0.03759651  0.040599537            2 
  170000    1.1822251   -6.6768575    77.301654  0.037892967  0.040586205            2 
  171000    1.1656787   -6.6252177    78.076483  0.038048968  0.040578871            1 
  172000    1.2122151   -6.6316037    78.427715  0.037997924  0.040573313            2 
  173000    1.1900267   -6.6340358    79.088869  0.038096758  0.040566481            1 
  174000    1.2008999   -6.6279177    79.143846  0.037904141  0.040559425            4 
  175000    1.2049395   -6.6560118    79.852913  0.038025197  0.040547631            1 
  176000    1.2079864   -6.6488607    80.278886  0.038010836  0.040538711            3 
  177000    1.1588792   -6.6759096    80.961524  0.038117478  0.040530653            2 
  178000    1.1783148   -6.6868816    81.057453  0.037948246  0.040521251            2 
  179000    1.1871798   -6.6645882    81.924129  0.038139725  0.040512352            1 
  180000    1.1775108   -6.6616098    82.268452  0.038087246  0.040505262            2 
  181000    1.1934531   -6.6456971    82.764213   0.03810507  0.040499204            1 
  182000    1.1761918    -6.663409    83.369728  0.038172952  0.040491798            3 
  183000    1.1582677   -6.6902007    83.672569  0.038102263  0.040484126            2 
  184000     1.190333   -6.6593792    84.147486  0.038110274  0.040477762            2 
  185000    1.1914704   -6.6277298    85.164219  0.038362261  0.040475001            1 
  186000    1.1928738   -6.6147267    85.256916  0.038197543  0.040471979            1 
  187000    1.1755655   -6.6567162    85.450703  0.038079636   0.04046515            1 
  188000    1.1624906   -6.6521423    85.567707  0.037928948  0.040455633            2 
  189000    1.1746574   -6.6197767    86.339057  0.038068367  0.040442878            3 
  190000    1.1825696   -6.6450432    86.912911  0.038119698  0.040434349            2 
  191000    1.1936927   -6.6115388    87.273164  0.038077297  0.040424792            1 
  192000    1.1791312   -6.6499523    87.603603  0.038022397   0.04041261            2 
  193000    1.1860173   -6.6672423     87.57959  0.037815022  0.040397133            2 
  194000    1.1740768   -6.6481936    87.880506  0.037749358  0.040377634            3 
  195000    1.1974909   -6.6625993    88.318432   0.03774292  0.040356897            2 
  196000    1.1749377   -6.6768514    88.664461  0.037697475  0.040334565            2 
  197000    1.1674852   -6.6694745    89.518489  0.037867381  0.040311665            1 
  198000    1.1693293   -6.7047561    89.578388  0.037701342  0.040288533            3 
  199000    1.1609905    -6.679743    90.167164  0.037758444   0.04026671            1 
  200000    1.1648175   -6.6561509    90.944597  0.037893582  0.040248609            2 
  201000    1.1780723   -6.7206306    91.065176  0.037755048  0.040230966            2 
  202000    1.1469248   -6.6520622    91.877477   0.03790325  0.040215977            2 
  203000    1.1820102   -6.6540916    92.201039  0.037849359  0.040199903            2 
  204000    1.1487277   -6.7022681    92.290586  0.037700403  0.040183138            2 
  205000    1.1609459   -6.6800349      93.2209  0.037894675  0.040164779            3 
  206000    1.1514957   -6.6490106    93.416775  0.037789958   0.04014818            3 
  207000    1.1493689   -6.6584577    94.188944  0.037918254  0.040133507            2 
  208000    1.1785414   -6.6799963    94.358759   0.03780399  0.040117535            3 
  209000    1.1793159   -6.7324321     94.33891  0.037615195  0.040097972            3 
  210000    1.1845295   -6.6642185    94.819962  0.037626969  0.040076859            2 
  211000     1.182057   -6.6731258    95.137832  0.037574183   0.04005494            1 
  212000    1.1723343   -6.6552903    95.804128  0.037658855  0.040034832            5 
  213000    1.1715057   -6.6847088    96.338065  0.037690949  0.040015592            3 
  214000    1.1843829   -6.6707359    96.829565  0.037706217  0.039995154            2 
  215000    1.1834327   -6.6989621    97.046655  0.037614982  0.039974965            5 
  216000    1.1884966   -6.6703532    97.555403  0.037637115  0.039953925            2 
  217000    1.1706364   -6.7156238    97.913279  0.037601106  0.039935263            3 
  218000    1.1665074   -6.6602983    98.469844  0.037641378  0.039916094            2 
  219000    1.1823512   -6.6627076    98.586042  0.037513715  0.039896982            2 
  220000     1.192333   -6.7012702     99.10793  0.037540883  0.039876131            1 
  221000    1.1812029   -6.7226859    99.477847    0.0375105  0.039853781            3 
  222000    1.1435575   -6.6983961    99.721448  0.037432976  0.039831856            1 
  223000    1.1809759   -6.6754957    100.66291  0.037616932   0.03981203            2 
  224000    1.1610797     -6.70877    101.20406  0.037650318   0.03979271            3 
  225000     1.177211   -6.7033226     101.2538  0.037501409  0.039772005            3 
  226000    1.1801523   -6.6519728    102.20134   0.03768486  0.039754815            3 
  227000    1.1741719   -6.7362384    102.73332  0.037714139   0.03973889            2 
  228000    1.1645999   -6.6932096    103.15058  0.037701235  0.039722698            3 
  229000      1.18326   -6.6336592    103.45413  0.037647064  0.039707212            2 
  230000    1.1735193   -6.6942493    103.84871  0.037626344  0.039689481            6 
  231000    1.1539431   -6.6879403      104.249  0.037607865  0.039673134            2 
  232000    1.1688905    -6.696914    104.68233  0.037601412  0.039656867            2 
  233000    1.1386826   -6.6876462    105.42617   0.03770607  0.039641616            2 
  234000    1.1591761   -6.7115407    106.03002  0.037759979  0.039627371            2 
  235000    1.1827722   -6.6663783    106.45149  0.037748755  0.039613785            2 
  236000     1.176121   -6.6874166    106.74382  0.037692027  0.039602457            2 
  237000    1.1398561     -6.73845    106.83783  0.037566046  0.039588676            3 
  238000    1.1470355   -6.6804522    107.49593   0.03763863  0.039573519            2 
  239000    1.1417806   -6.7343416    107.97047  0.037646608   0.03955773            4 
  240000    1.1539532   -6.6831068    108.12398  0.037543049  0.039541268            3 
  241000    1.1337285   -6.7065841    108.55122     0.037535  0.039523136            4 
  242000    1.1671104   -6.6837193    108.77724  0.037457727  0.039504065            2 
  243000    1.1764716   -6.7021866    109.07232  0.037404773  0.039484051            1 
  244000    1.1511868   -6.7154319    109.65656   0.03745101   0.03946359            3 
  245000    1.1852448   -6.6988012    109.92179  0.037388363  0.039443824            3 
  246000    1.1058936   -6.7032475    110.05175  0.037280403  0.039422945            2 
  247000    1.1821625    -6.676631    110.60967  0.037317704  0.039400871            2 
  248000     1.139319   -6.6527539    111.40241  0.037433604  0.039379538            2 
  249000    1.1219562   -6.6559906    111.49912  0.037315636  0.039357428            1 
  250000    1.1543395   -6.6994389    111.90852  0.037302839  0.039336546            1 
  251000    1.1555554   -6.7425672     112.1282  0.037227157  0.039316482            1 
  252000    1.1485174   -6.7060794    112.62355  0.037243239  0.039295395            2 
  253000    1.1640825   -6.6833806     113.1733  0.037277109  0.039274288            2 
  254000    1.1883912   -6.6860946    113.61073  0.037273861  0.039253878            2 
  255000    1.1596933   -6.6972095    113.88611  0.037217683  0.039232863            2 
  256000    1.1445481    -6.697077    114.50785  0.037274689   0.03921167            3 
  257000    1.1248494   -6.7407533     114.4838  0.037121856  0.039188324            1 
  258000    1.1520859   -6.6700499    115.01709  0.037150222  0.039165758            2 
  259000    1.1436916   -6.7654631    115.29371   0.03709579  0.039142455            3 
  260000    1.1616084   -6.6939164    115.68118  0.037077302    0.0391179            1 
  261000    1.1412364   -6.7357342    115.98187  0.037031247  0.039094464            4 
  262000    1.1315897    -6.703091    116.65179  0.037102987  0.039070453            5 
  263000    1.1227266   -6.7337852    117.10091  0.037104216  0.039047546            2 
  264000    1.1435293   -6.7055767    117.56701  0.037110799  0.039025426            2 
  265000    1.1569022   -6.7080908    118.13371  0.037148966  0.039004309            1 
  266000    1.1656515   -6.7105487    118.62706  0.037163867  0.038983314            2 
  267000    1.1514589   -6.6914696    118.80618  0.037080581  0.038963001            2 
  268000    1.1484066   -6.6840452    119.24755  0.037079461  0.038942885            3 
  269000     1.140777   -6.7092621    119.47317  0.037011515  0.038922046            3 
  270000    1.1204896   -6.7458247    119.99215  0.037034615  0.038900576            1 
  271000     1.124426   -6.7416469    120.37357  0.037015244  0.038879772            3 
  272000    1.1416506   -6.7190067    120.90909  0.037043226   0.03885936            4 
  273000    1.1409876   -6.7156214    121.28974   0.03702373  0.038839665            1 
  274000    1.1502695   -6.7109345    121.40448  0.036923503  0.038818525            4 
  275000    1.1267379   -6.6923829    122.10029  0.037000087  0.038798144            2 
  276000    1.1499317   -6.7173835    122.80016  0.037077344  0.038776813            2 
  277000    1.1662971   -6.7275774    122.27892  0.036786678  0.038755021            2 
  278000    1.1338161   -6.6933421    122.84387  0.036823703   0.03873303            1 
  279000    1.1525314   -6.7514194    123.24634  0.036811928  0.038711455            4 
  280000     1.143617   -6.6982325     124.2367  0.036975207  0.038690759            2 
  281000    1.1356004   -6.7384787    124.47123  0.036913177  0.038670854            3 
  282000    1.1383294   -6.7429787    124.81583  0.036884112  0.038650204            2 
  283000    1.1751902   -6.7354294    125.75761    0.0370311  0.038631135            4 
  284000    1.1396866   -6.7484483    125.58499  0.036850057  0.038611808            4 
  285000    1.1493874   -6.7384699    126.24335   0.03691326  0.038592103            2 
  286000    1.1234715    -6.749231    126.40962  0.036832639  0.038572225            2 
  287000    1.1567553   -6.7315502    126.53956  0.036742034  0.038551156            4 
  288000    1.1139027   -6.7450707    126.93611  0.036729198  0.038529673            2 
  289000    1.1509103    -6.747008    127.29886  0.036706706  0.038507635            1 
  290000    1.1213775    -6.715117    127.95109  0.036767554  0.038487484            1 
  291000     1.152555   -6.7159278    128.69697  0.036854803   0.03846778            2 
  292000    1.1503126   -6.6904441    129.26932  0.036891929  0.038448706            2 
  293000    1.1343214   -6.7172783    129.61953  0.036865622  0.038429011            3 
  294000    1.1324586    -6.684364     129.6489  0.036748554  0.038410323            1 
  295000    1.1319091   -6.7375806     129.9784  0.036717063  0.038390515            1 
  296000    1.1323174   -6.7284951    129.88742  0.036567405  0.038370381            2 
  297000    1.1513815   -6.7476553    130.67813  0.036666142  0.038349688            2 
  298000    1.1430739   -6.7307024    131.51841  0.036778079  0.038329443            2 
  299000    1.1615967   -6.7155978    132.06692  0.036807948  0.038310555            2 
  300000     1.163806   -6.7793337    132.20657  0.036724047  0.038290953            5 
  301000    1.1045326   -6.7410617    132.02974  0.036553084  0.038271483            2 
  302000    1.1251743   -6.7076644    132.67349  0.036609683  0.038250146            2 
  303000    1.1085512   -6.7326748    133.15232  0.036620551  0.038229122            1 
  304000    1.1373178   -6.7566562    133.08419  0.036481411   0.03820793            2 
  305000    1.1046959   -6.7608695     133.8984  0.036584263  0.038185224            3 
  306000    1.1141935   -6.7930504    134.18797  0.036543565  0.038163165            3 
  307000    1.1283054   -6.7385572    134.12648   0.03640784  0.038141501            2 
  308000    1.1344218   -6.7477665    135.31621  0.036611529   0.03812085            3 
  309000    1.1681313   -6.7224903    134.93839  0.036391152  0.038100141            2 
  310000    1.1377183   -6.7346179    135.86087  0.036521739  0.038080024            2 
  311000    1.1240677   -6.7196316    136.17436  0.036488306   0.03805929            5 
  312000    1.1205562   -6.7328139    136.29915  0.036404687  0.038037109            2 
  313000    1.1262121   -6.7396228    136.91841  0.036453251  0.038015632            2 
  314000    1.1368085   -6.7282773    137.38455  0.036460868  0.037995079            4 
  315000    1.1141861   -6.7288493    138.09632  0.036533417   0.03797452            4 
  316000    1.1350069   -6.7918643    138.36094  0.036487589  0.037955522            6 
  317000    1.1248092   -6.7555089    138.76307    0.0364782  0.037936216            3 
  318000    1.1216383   -6.7786379    139.15178  0.036465352  0.037917297            2 
  319000    1.1203066   -6.7379256    139.42665  0.036422844  0.037896464            2 
  320000    1.1184436   -6.7850389    140.24964  0.036523343  0.037877001            3 
  321000    1.1136495   -6.7333355    140.26429  0.036413366  0.037858127            2 
  322000    1.1086154   -6.7818996    140.33438   0.03631842  0.037836397            3 
  323000    1.1186592   -6.7467401    140.74653  0.036312313  0.037814878            2 
  324000    1.1264367   -6.7589421    141.04775  0.036277713  0.037794179            2 
  325000    1.0991849   -6.7445689     141.7276  0.036340409  0.037772991            2 
  326000    1.1516507   -6.7288208    141.84583   0.03625916  0.037751311            2 
  327000    1.0946658   -6.7171885    142.26989  0.036256342  0.037730807            1 
  328000    1.1058174    -6.764257    142.52299  0.036210109  0.037709783            3 
  329000    1.1203258   -6.7155727    142.70015  0.036144922  0.037687008            1 
  330000    1.1315294   -6.7696513    143.17437  0.036155144   0.03766386            3 
  331000    1.1136808   -6.8287404    142.77965  0.035946537  0.037639772            2 
  332000    1.1181213   -6.7922927    143.43454  0.036002646  0.037616298            2 
  333000    1.1430141   -6.6900954    144.19421  0.036084638  0.037592811            4 
  334000    1.1090264    -6.755921    144.35005  0.036015481  0.037569797            2 
  335000     1.142596   -6.7681512    144.68304  0.035990805  0.037548099            3 
  336000    1.1059293   -6.7653839    145.26841   0.03602887  0.037524874            3 
  337000    1.1106014   -6.8095126    145.15065  0.035892841  0.037502406            1 
  338000    1.1174428   -6.7543154    145.85183  0.035959525  0.037479257            2 
  339000    1.1293793   -6.7688893    146.20178  0.035939475  0.037456277            4 
  340000    1.1374551   -6.7943802    146.50105   0.03590712  0.037433572            1 
  341000    1.1198848   -6.7622488    147.42876  0.036028534  0.037411479            2 
  342000    1.1142046   -6.7471089    147.94673  0.036049398  0.037389932            2 
  343000    1.1106163   -6.8124048    147.81543  0.035912398  0.037368312            2 
  344000    1.1125544   -6.7722968    148.10706  0.035878647  0.037346005            2 
  345000     1.148291   -6.7629423    148.45672  0.035859111   0.03732514            1 
  346000    1.1030483   -6.7403574    149.04851  0.035898002  0.037303647            3 
  347000    1.0934453   -6.7994443    148.79294  0.035733176  0.037280737            1 
  348000    1.1239437   -6.7908492    149.73943  0.035857143  0.037258255            1 
  349000    1.1270005   -6.7576988     149.6932  0.035743362  0.037235644            2 
  350000    1.0985717     -6.78449    149.91412  0.035693838  0.037212029            2 
  351000    1.1129624   -6.7776506    149.97913   0.03560758  0.037188727            1 
  352000    1.1320379   -6.7332457    150.54204  0.035639688  0.037165248            1 
  353000    1.0983574   -6.7627596    150.50679  0.035530404  0.037141826            1 
  354000    1.1451904   -6.7900293    151.21017  0.035595615  0.037118158            3 
  355000    1.1066976   -6.7737695     152.0296  0.035687699  0.037095685            2 
  356000    1.1079699   -6.7829475    152.60102  0.035721212  0.037073207            2 
  357000    1.1028386    -6.789465    152.58752  0.035618003  0.037051336            2 
  358000    1.1227287   -6.7456796    153.50896  0.035732998  0.037029991            2 
  359000    1.1238771   -6.7661333    153.91454   0.03572761  0.037008861            4 
  360000    1.1075788   -6.7884855     154.0437  0.035658264  0.036987525            1 
  361000    1.0972228    -6.783031    154.27141  0.035612053  0.036966441            3 
  362000    1.1170984   -6.7860145    154.56725   0.03558178  0.036946747            2 
  363000    1.0920869   -6.7370422    155.77302  0.035760565  0.036926165            1 
  364000    1.1119159   -6.7774355    155.40783  0.035578715  0.036904186            1 
  365000    1.1000879   -6.8142132    155.78886  0.035568234  0.036882325            2 
  366000    1.1074569   -6.8013807    156.00817  0.035520986  0.036860656            2 
  367000    1.1090397   -6.7895407     156.4348  0.035521073  0.036839007            3 
  368000    1.1074359   -6.8359095    156.75933  0.035498036  0.036817512            3 
  369000    1.1226712   -6.7651601     157.0882  0.035476106  0.036796223            2 
  370000    1.1135749   -6.7766005    156.77865  0.035310507  0.036773756            2 
  371000    1.0725587   -6.8232373    157.01951  0.035269431  0.036750111            1 
  372000    1.1529303   -6.8008627    157.57313  0.035298639  0.036726779            2 
  373000    1.0848254   -6.7494519    158.09619  0.035320865  0.036703839            2 
  374000    1.1263619   -6.7747399    158.73253   0.03536821   0.03668159            1 
  375000    1.1256833   -6.8515109    158.56449  0.035236553   0.03665948            2 
  376000    1.1356326   -6.7748273    159.35379  0.035317773  0.036636403            3 
  377000    1.1106616   -6.7914888    158.95355   0.03513562  0.036612842            3 
  378000    1.1060427    -6.793504    159.71635  0.035210836  0.036589534            3 
  379000    1.0844389   -6.8381981    160.08839  0.035199733  0.036566179            3 
  380000    1.1081248   -6.8209982    160.70594  0.035242531  0.036543428            2 
  381000    1.1105328    -6.781811    161.09618  0.035235385  0.036520984            3 
  382000    1.1087899   -6.8133944    161.66535  0.035267311  0.036498378            2 
  383000    1.0987961   -6.7979354     161.6159  0.035164469  0.036475468            3 
  384000     1.109399   -6.8394793    162.08795  0.035175336  0.036452498            1 
  385000    1.1022459   -6.8395403     162.5652  0.035187272  0.036429959            3 
  386000    1.1111697   -6.8237974     163.0214  0.035194603  0.036407922            2 
  387000     1.109193   -6.8333916    163.25133  0.035153172  0.036385882            2 
  388000    1.1300139   -6.8213039    163.57701  0.035132519   0.03636368            4 
  389000    1.0980487   -6.8020961    163.59515  0.035046089  0.036342147            3 
  390000    1.1048611   -6.8344639    164.20688  0.035086941  0.036320417            3 
  391000    1.1100302   -6.8191883    164.45208  0.035049462  0.036298321            1 
  392000    1.0877653    -6.813078    165.08688     0.035095  0.036277036            1 
  393000    1.1195383   -6.7826934    165.38964  0.035069898  0.036255625            2 
  394000    1.1112626   -6.7880325    166.11765  0.035134866  0.036233807            1 
  395000    1.0879844   -6.8045784    166.05459  0.035032615  0.036211293            2 
  396000    1.1140391   -6.8221805    166.20373  0.034975532  0.036189805            2 
  397000    1.1117201   -6.8477305    166.85057   0.03502321  0.036167992            3 
  398000    1.0930885   -6.8702166    166.68887  0.034901354  0.036145933            3 
  399000     1.110283   -6.8061503     167.2423  0.034929469  0.036124605            2 
  400000    1.0800816   -6.8151584    168.12346  0.035025722  0.036103739            3 
  401000    1.0919343   -6.7967027    167.79846  0.034870835  0.036082732            4 
  402000      1.10249   -6.8372396    168.35894  0.034900278  0.036061163            4 
  403000    1.0914865    -6.832534    168.30121  0.034801739  0.036040009            2 
  404000    1.0839177    -6.766577    169.28269  0.034918047  0.036018539            3 
  405000    1.1081726   -6.8388297    168.99141  0.034771894  0.035997197            1 
  406000    1.1180919   -6.8170397    169.55982  0.034802918  0.035975947            1 
  407000    1.1091773   -6.8147194    170.33219   0.03487555  0.035954991            2 
  408000    1.0928988   -6.8326532    169.95217  0.034712454  0.035933081            2 
  409000    1.1014485   -6.8140063    170.69566  0.034779067  0.035910925            4 
  410000    1.0961596   -6.8082065    170.72182  0.034699557  0.035889785            2 
  411000    1.0769631   -6.8751992    170.61733  0.034593945  0.035867235            4 
  412000    1.0895701    -6.836722    171.57733  0.034704153  0.035844895            2 
  413000    1.0861221   -6.8185853    171.72425  0.034649768  0.035823458            2 
  414000    1.0881676   -6.8080041     172.3112  0.034684218  0.035802413            1 
  415000     1.095918     -6.85798    172.50673  0.034639906  0.035780508            2 
  416000     1.084138   -6.8396479    173.09899  0.034675279  0.035759171            4 
  417000    1.1071711   -6.8524136    173.67475  0.034707184  0.035737883            2 
  418000     1.101348   -6.7915568    173.52981  0.034595257  0.035715542            4 
  419000    1.1024428   -6.8267813     173.5103  0.034508811  0.035693187            2 
  420000    1.0956603   -6.8915034    173.54793  0.034434113  0.035670564            2 
  421000    1.0808196   -6.8428589    174.21113  0.034483596  0.035647232            3 
  422000    1.0778838   -6.8108512    174.55134  0.034469064  0.035624365            3 
  423000     1.080718   -6.8098385    174.63562  0.034404181  0.035600743            2 
  424000    1.0811124   -6.8184627    174.73119  0.034341821  0.035577525            1 
  425000    1.0843437   -6.8353589    175.44907  0.034401778   0.03555492            2 
  426000    1.1009706   -6.8231013    175.82295  0.034394161  0.035531367            2 
  427000    1.1103425   -6.8206912    176.11292  0.034370203  0.035508248            2 
  428000     1.075397   -6.8005293    176.42159  0.034349999  0.035484925            8 
  429000    1.0771216   -6.8251173    176.72809  0.034329465  0.035462096            2 
  430000    1.0880528   -6.8302078    177.25001  0.034350778  0.035439142            3 
  431000    1.1085307   -6.8502212    176.85788  0.034195259  0.035416099            6 
  432000    1.0635355   -6.8297635    177.63433  0.034265882  0.035394042            2 
  433000    1.0793984   -6.8711577    177.57114  0.034174583   0.03537196            1 
  434000    1.0632398    -6.867594    178.65645  0.034304234  0.035350271            2 
  435000    1.0959009   -6.8620726    178.09706  0.034118211  0.035328272            1 
  436000    1.0860789   -6.8162796    178.97656  0.034208057  0.035306161            5 
  437000    1.0795364   -6.8506677     179.8044  0.034287643  0.035284783            2 
  438000    1.0845814   -6.8686662     180.2044  0.034285464  0.035263311            3 
  439000    1.1004295   -6.8808949     180.2825   0.03422219  0.035242193            3 
  440000    1.0756492   -6.8797274    180.33656  0.034154651  0.035220815            1 
  441000    1.0831413   -6.8338642    181.06135  0.034214162  0.035199881            2 
  442000    1.0891775   -6.8556935    181.60637  0.034239511   0.03517925            1 
  443000    1.0782109   -6.9044478    181.55922  0.034153353  0.035159088            1 
  444000     1.055507   -6.8009054    182.37986  0.034230454  0.035138053            3 
  445000    1.0608726   -6.8600303    181.60895  0.034009166  0.035116879            5 
  446000    1.0860417   -6.8382602    182.72222  0.034140923   0.03509592            2 
  447000    1.0736187   -6.8561586    183.20245  0.034154074  0.035074859            2 
  448000    1.0660947   -6.8323178    183.46222  0.034126157  0.035054159            3 
  449000    1.0655395   -6.8982766    184.05214  0.034159639  0.035033768            2 
  450000    1.0483081     -6.87742    184.23945  0.034118416  0.035013788            1 
  451000    1.0728393   -6.8726283    184.40176  0.034072758  0.034994044            2 
  452000    1.0876402   -6.8188896    185.54712   0.03420854  0.034974827            2 
  453000    1.0762816   -6.8577837    185.18776  0.034066917  0.034954953            1 
  454000    1.0683607   -6.9086926     185.1564  0.033986123   0.03493541            2 
  455000     1.071892   -6.9046358    184.82773  0.033851233  0.034915365            4 
  456000    1.0464353   -6.8599712    186.64441  0.034108993   0.03489567            2 
  457000    1.0663092   -6.8802896    186.15536  0.033945178  0.034876021            3 
  458000    1.0387985   -6.8531645    186.97106  0.034019479  0.034856471            1 
  459000    1.0702577   -6.8530287    187.87181  0.034108898  0.034837011            4 
  460000    1.0818935   -6.8481136     188.1324  0.034081956  0.034818318            1 
  461000     1.050832   -6.8571985    187.94121  0.033973466  0.034798714            1 
  462000    1.0533541   -6.8498215    188.56676  0.034012763  0.034779537            5 
  463000    1.0872386   -6.8214861    189.17813  0.034049339  0.034761384            1 
  464000    1.0648906   -6.8768558    189.21234  0.033982101  0.034743495            4 
  465000    1.0834163   -6.8255029    189.77018  0.034008993  0.034725048            2 
  466000    1.0864403   -6.8435098    189.72768  0.033928411  0.034706758            2 
  467000    1.0743557   -6.8618359    190.94825  0.034073563  0.034688359            3 
  468000    1.0987576   -6.8947651    191.03979  0.034017057  0.034670224            4 
  469000    1.0675829   -6.8426685    191.14633  0.033963456  0.034651855            3 
  470000    1.0768217   -6.9049345    191.32478  0.033922834  0.034633848            3 
  471000    1.0484676   -6.8856529    191.28705  0.033844134  0.034615522            2 
  472000    1.0770917   -6.8708011    192.07163  0.033910951  0.034597141            2 
  473000    1.0782307   -6.8613409    192.43086  0.033902547  0.034579017            1 
  474000    1.0820397   -6.8944171     191.9162  0.033740542  0.034560762            2 
  475000    1.0732919   -6.8772331    192.72034  0.033810586  0.034542377            6 
  476000    1.0225644   -6.8511138    193.65665  0.033903476  0.034523987            2 
  477000    1.0546198   -6.8543463    193.04395  0.033725358  0.034505074            1 
  478000    1.0585711   -6.8664717     193.8927  0.033802772  0.034485581            5 
  479000    1.0645548   -6.9194915    193.49546  0.033663093  0.034465712            4 
  480000    1.0453085   -6.8796949    193.53427  0.033599699  0.034445978            2 
  481000    1.0578385    -6.902528    194.21391  0.033647593  0.034426718            2 
  482000    1.0547083    -6.938317    194.19195  0.033573988  0.034407372            1 
  483000    1.0458574   -6.8789264    195.13448  0.033667094  0.034388457            4 
  484000    1.0450621   -6.9300396    195.48116  0.033657224  0.034369742            2 
  485000    1.0521734   -6.8225525    196.56487  0.033774033  0.034351606            2 
  486000    1.0514722   -6.8745337    196.13081  0.033630111  0.034333639            2 
  487000     1.074178   -6.9065381     196.2111  0.033574795  0.034315656            1 
  488000    1.0408373   -6.8460092    197.50875  0.033727587  0.034298404            2 
  489000    1.0354476   -6.8761748    197.34684  0.033631022   0.03428074            4 
  490000    1.0610239   -6.9190672    197.01166  0.033505384   0.03426267            3 
  491000    1.0699681   -6.8990715    198.47407  0.033685348  0.034244914            3 
  492000    1.0461642   -6.8893388    198.14539  0.033561211  0.034227566            1 
  493000    1.0475279   -6.9015831     198.1072   0.03348668  0.034209634            3 
  494000    1.0725192   -6.9109612    198.87541  0.033548483  0.034191148            1 
  495000    1.0523339   -6.9049063    199.46907  0.033580651  0.034173478            2 
  496000    1.0526395    -6.902178    199.79433  0.033567595  0.034156439            2 
  497000    1.0642118    -6.906808    199.66627  0.033478584  0.034138758            4 
  498000    1.0460152   -6.8872471    200.50219  0.033551236  0.034121709            2 
  499000    1.0570157   -6.8892066    200.11888  0.033419986  0.034104314            1 
  500000    1.0680383   -6.8908677    201.30352  0.033550586  0.034087085            2 
  501000    1.0529434   -6.8940061    201.27205  0.033478385  0.034070085            2 
  502000    1.0436625   -6.8812932    201.81266  0.033501438  0.034051868            2 
  503000    1.0715016   -6.8766417    201.35755  0.033359434  0.034033757            2 
  504000    1.0595837   -6.9101031    201.34463  0.033291109  0.034015874            3 
  505000    1.0585589   -6.9095876    201.72627  0.033288164  0.033997568            3 
  506000    1.0586211   -6.9090005    203.08451  0.033446066  0.033979264            4 
  507000    1.0548609   -6.9435366    202.15366  0.033227098  0.033960371            2 
  508000    1.0617386    -6.890564    202.54514  0.033225908  0.033941681            2 
  509000    1.0281464   -6.9199499    202.72679  0.033190372  0.033922996            3 
  510000    1.0680881   -6.9216434    202.76337   0.03313127  0.033903531            2 
  511000    1.0663385   -6.9199584    202.85513  0.033081398  0.033883871            2 
  512000    1.0552824   -6.9041232    203.88335  0.033184139  0.033865143            3 
  513000    1.0343178   -6.9123858    204.70298  0.033252596  0.033846529            1 
  514000    1.0618253   -6.9082377    204.35759  0.033131905  0.033827789            1 
  515000    1.0421247   -6.8924365    204.38233  0.033071574  0.033808984            1 
  516000    1.0421565   -6.9055724    204.72153  0.033062263   0.03379018            2 
  517000    1.0445106   -6.9310751    204.94587  0.033034473  0.033771228            4 
  518000     1.017463   -6.8923859    205.69107  0.033090584  0.033752133            2 
  519000    1.0121333   -6.8988938    205.42167  0.032983569  0.033732549            2 
  520000    1.0454719   -6.9187818    204.58788  0.032786519   0.03371262            3 
  521000    1.0675331   -6.9312699    206.20539  0.032982308  0.033692469            3 
  522000    1.0322749   -6.9072282    206.36817  0.032945111  0.033672844            1 
  523000    1.0444855   -6.9791322    205.98357  0.032820837   0.03365349            3 
  524000    1.0461668   -6.9232447    206.94557  0.032911191  0.033634241            4 
  525000    1.0619916   -6.9531865    207.77181  0.032979653  0.033615559            2 
  526000    1.0308586   -6.9040063    207.86147  0.032931158  0.033596442            2 
  527000    1.0389695    -6.914988    207.71683  0.032845799  0.033577295            2 
  528000    1.0279027   -6.8884879    208.72183  0.032942207  0.033558641            1 
  529000    1.0578242   -6.9240579    208.50986  0.032846544  0.033539582            3 
  530000    1.0594941   -6.9080042    209.67184  0.032967271  0.033520707            3 
  531000    1.0315833   -6.9269543    209.86137  0.032934929  0.033502159            3 
  532000    1.0234661    -6.894153    209.96018    0.0328885  0.033483471            3 
  533000    1.0361063   -6.9370145    209.48599  0.032752656  0.033464374            7 
  534000    1.0543095   -6.9166213    209.90023  0.032755966  0.033444769            3 
  535000    1.0598781    -6.884019    210.73139  0.032824204  0.033425133            1 
  536000     1.039649   -6.9266885    209.60487  0.032587822  0.033405227            2 
  537000    1.0658421    -6.937741    210.09929  0.032603863   0.03338508            1 
  538000    1.0247532   -6.9295353    210.64349  0.032627554  0.033365291            4 
  539000     1.029167   -6.9399984    210.92701  0.032610855  0.033345258            2 
  540000    1.0422761   -6.9550795    210.94984  0.032553987  0.033325799            3 
  541000    1.0288919     -6.91118    211.37007  0.032558544  0.033306174            3 
  542000      1.05014   -6.9003273    211.88988  0.032578395  0.033286689            1 
  543000    1.0508165   -6.9506901    211.93879  0.032525904  0.033267008            3 
  544000    1.0342115   -6.9362047    211.97722  0.032472001  0.033247545            3 
  545000    1.0337707   -6.9548616    212.39461  0.032476241  0.033227474            4 
  546000    1.0399206   -6.9454186    212.90227  0.032494242  0.033207266            2 
  547000    1.0213207   -6.9354109    213.09833  0.032464706  0.033187264            1 
  548000    1.0263986    -6.965759    213.77316  0.032508083  0.033167328            2 
  549000    1.0233579   -6.9316555    213.66762   0.03243285  0.033147428            4 
  550000    1.0237212   -6.9373936    214.17693  0.032451051  0.033127815            2 
  551000    1.0216642   -6.9489734    213.52472  0.032293515   0.03310764            3 
  552000    1.0461855   -6.9441697    214.77315  0.032423483  0.033087729            7 
  553000    1.0373843   -6.9564341    214.99229  0.032397874  0.033068203            2 
  554000    1.0360812   -6.9579712    214.81811  0.032313194  0.033048239            2 
  555000    1.0309482    -6.902336    215.09168  0.032296049  0.033028459            1 
  556000    1.0251381    -6.937116       215.64  0.032320144  0.033008363            1 
  557000    1.0201515   -6.9521325    215.66677  0.032266124  0.032988345            2 
  558000    1.0298368   -6.9054277    216.62656  0.032351636  0.032968388            3 
  559000    1.0300981   -6.9643292    215.40483  0.032111632  0.032947818            3 
  560000    1.0190222   -6.9722937    216.24426  0.032179205  0.032927359            1 
  561000    1.0174043   -6.9355285    217.00443  0.032234764  0.032907061           10 
  562000    1.0312878   -6.9585225     216.8643  0.032156628   0.03288667            4 
  563000    1.0210528   -6.9458491    217.76717  0.032233151  0.032866533            3 
  564000    1.0180612   -6.9610968    217.52271   0.03213988  0.032846652            1 
  565000    1.0310175   -6.9152564    218.90923  0.032287497  0.032827187            1 
  566000    1.0195214   -6.9364664    218.54416  0.032176702  0.032808044            6 
  567000    1.0329428   -6.9666816    218.72072  0.032145902  0.032788882            4 
  568000    1.0429749    -6.985759    218.91645  0.032118024  0.032769636            1 
  569000    1.0322758   -6.9604267    219.06577  0.032083446  0.032750382            4 
  570000    1.0532301   -6.9512542    219.74251  0.032126098  0.032731084            3 
  571000    1.0130452    -6.931828    219.41096  0.032021447  0.032711986            2 
  572000    1.0350125   -6.9427877    220.17265  0.032076434   0.03269324            3 
  573000    1.0309439   -6.9379663    221.02586  0.032144541  0.032674297            3 
  574000    1.0372768   -6.9602948    221.22126  0.032116908  0.032655472            2 
  575000    1.0358039   -6.9731216    221.12674  0.032047353  0.032636341            2 
  576000    1.0187113   -6.9841705    221.06848  0.031983287  0.032617454            2 
  577000    1.0185236   -6.9509732    221.59449  0.032003826  0.032598092            3 
  578000    1.0425001   -6.9452515    221.66789  0.031959038  0.032579112            3 
  579000    1.0220853   -6.9671811    221.76788  0.031918233  0.032559633            4 
  580000    1.0166271   -6.9520933    222.36901  0.031949571  0.032540178            2 
  581000    1.0015913   -6.9572468    222.06117  0.031850425  0.032521276            2 
  582000    1.0232697   -6.9499337    223.13123  0.031948916  0.032502573            3 
  583000    1.0170109   -6.9380856    223.68429  0.031973169  0.032483228            5 
  584000    1.0240624   -6.9345316    224.18636  0.031990063  0.032464512            2 
  585000    1.0165084   -6.9682253     223.3597  0.031817621  0.032445748            4 
  586000     1.015968   -6.9711969    223.95971  0.031848651  0.032426802            3 
  587000    1.0202556   -6.9506784    223.74564  0.031764003  0.032407784            4 
  588000    1.0207245   -6.9972159    224.26256  0.031783242  0.032388325            1 
  589000   0.99762936   -6.9909175    224.21844  0.031723038  0.032368784            2 
  590000     1.032488    -6.991405    224.37943   0.03169201  0.032349115            2 
  591000    1.0149387   -6.9694569    224.67316  0.031679802  0.032329252            1 
  592000    1.0050135   -6.9937727     225.2304   0.03170473  0.032309446            3 
  593000    1.0121058   -6.9531396    225.70112  0.031717415  0.032290018            3 
  594000    1.0021004   -6.9804531    225.27127  0.031603714  0.032270699            4 
  595000     1.029679   -6.9782125    225.92999  0.031642855  0.032251391            2 
  596000    1.0434218   -6.9730838    226.01494  0.031601642  0.032232368            3 
  597000   0.99506537   -6.9601969    226.53476  0.031621267  0.032213846            4 
  598000    1.0205101   -6.9911832    226.66621  0.031586707  0.032194707            2 
  599000    1.0369977   -6.9864636    227.08945  0.031592856  0.032175456            3 
  600000    1.0185889   -6.9785573    227.47948  0.031594373  0.032156445            2 
  601000    1.0463512   -7.0020315    227.19439  0.031502273  0.032137692            2 
  602000    1.0139338   -6.9542076    228.34442  0.031609139  0.032118502            3 
  603000    1.0124169   -6.9837198    228.55777  0.031586204  0.032099797            6 
  604000    1.0033037   -6.9870039    228.71203  0.031555192  0.032081243            3 
  605000    1.0196496   -6.9955411    228.89143  0.031527744  0.032062837            2 
  606000     1.031452   -6.9833991    229.18918  0.031516663  0.032044494            5 
  607000    1.0120825   -6.9596499    229.96378  0.031571085  0.032026174            4 
  608000    1.0100369   -6.9912242    229.95512  0.031517971  0.032007926            6 
  609000    1.0001042   -6.9543275    230.48333  0.031538496  0.031989599            4 
  610000    1.0204101   -7.0120151    230.83585  0.031534953  0.031971385            3 
  611000    1.0169391   -6.9990037    230.27148  0.031406366  0.031953357            2 
  612000    1.0077478   -6.9910754    230.44452  0.031378612  0.031934756            2 
  613000    1.0038376   -7.0298697    230.73073  0.031366331  0.031915964            3 
  614000    1.0119939   -7.0266247     231.2055  0.031379683  0.031896884            2 
  615000     1.016416   -6.9962631    231.41591   0.03135717  0.031877715            1 
  616000   0.98444991    -7.005318    231.30175  0.031290822  0.031858289            6 
  617000   0.99791355   -7.0053356    231.65552  0.031287887  0.031839164            6 
  618000    1.0088008   -7.0184759    231.28283  0.031187005  0.031819652            3 
  619000    1.0003796   -7.0017064    231.86393  0.031214854  0.031800404            9 
  620000    1.0116746   -6.9724238    232.01042  0.031184196  0.031781242            1 
  621000    1.0202552    -6.996993    232.48432  0.031197573  0.031762323            3 
  622000   0.99665472   -7.0322113    231.84414  0.031061647  0.031742674            5 
  623000    1.0015858   -7.0216474    232.69073  0.031125031  0.031723137            3 
  624000    1.0022395    -7.051107    232.79051  0.031088476  0.031703866            2 
  625000    1.0184202    -7.016512    233.37863   0.03111715  0.031684568            1 
  626000   0.99378184   -7.0411491     233.4884  0.031082055  0.031665404            2 
  627000    1.0129214    -6.972565    234.63132  0.031184386  0.031646761            3 
  628000    1.0157451   -6.9835737    234.72752  0.031147495  0.031627915            2 
  629000    1.0021601   -7.0038288    234.79382   0.03110676   0.03160889            3 
  630000    1.0047645   -6.9864409    234.47991  0.031015861  0.031589578            8 
  631000    1.0026141   -7.0312752    234.32847  0.030946707  0.031570278            4 
  632000    1.0078514   -7.0026911    234.77754  0.030956954  0.031550872            5 
  633000    1.0037175    -7.049869     235.4053  0.030990693  0.031531797            3 
  634000   0.98536366   -6.9880115    235.57891  0.030964631  0.031512729            3 
  635000    1.0098609   -7.0297133    235.14081  0.030858375  0.031493372            2 
  636000   0.99547084   -7.0390665    235.74804  0.030889418   0.03147391            2 
  637000   0.99060378   -7.0307165    235.96429  0.030869216  0.031454559            3 
  638000    1.0008423   -7.0473436    236.64465  0.030909698  0.031435196            2 
  639000   0.99395836   -7.0059759    237.00347   0.03090812  0.031415993            3 
  640000    1.0013095   -7.0257251    237.03712  0.030864208  0.031397181            3 
  641000   0.96980016   -7.0220397    237.58614  0.030887433  0.031378086            2 
  642000    1.0177441   -7.0361229    237.72374  0.030857184  0.031359375            3 
  643000    1.0146609   -7.0162783    238.86592  0.030957221  0.031340916            3 
  644000    1.0404255   -7.0236364    238.99571  0.030925946  0.031322678            2 
  645000   0.97244163   -7.0183597    238.77372  0.030849318  0.031304511            2 
  646000   0.99436687   -7.0078329    239.06057  0.030838567   0.03128633            6 
  647000   0.98179198   -7.0277049    239.14649  0.030801969  0.031268063            3 
  648000   0.98710905   -7.0029902    239.22961  0.030765124  0.031249704            3 
  649000   0.99203821    -7.030613    239.60748   0.03076624  0.031231028            2 
  650000   0.98913305   -7.0470327    239.59045  0.030716724  0.031212503            6 
  651000   0.98724444   -7.0365198    240.51225  0.030787538  0.031193825            5 
  652000     1.000313   -6.9826637    240.75335  0.030771133  0.031175378            2 
  653000   0.97203834   -7.0001823    241.22412  0.030784089  0.031157439            2 
  654000   0.98391758   -7.0230622    240.06306  0.030589075  0.031139422            2 
  655000   0.95866747   -7.0201758    241.81697  0.030765518  0.031121602            5 
  656000   0.99761077   -7.0385546    241.37751  0.030662793   0.03110374            4 
  657000    1.0073581   -7.0142663    241.81215  0.030671252  0.031085444            4 
  658000    1.0139342    -7.039035    242.33355  0.030690672  0.031067652            3 
  659000    1.0081894   -6.9962417    242.07546  0.030611465  0.031049327            4 
  660000    1.0137008   -7.0254892    241.93635  0.030547519  0.031031005            4 
  661000    1.0027001   -7.0001483     242.6675  0.030593482   0.03101225            7 
  662000    1.0158988   -7.0186931    242.69989  0.030551345  0.030993634            2 
  663000   0.98561021    -7.044173    242.68792   0.03050376  0.030974759            4 
  664000   0.99416286   -7.0579807    242.40372  0.030422154  0.030955775            3 
  665000   0.98245715   -7.0693394    242.79361  0.030425264  0.030936763            2 
  666000    0.9774706   -7.0644027     243.6675  0.030488927  0.030917811            4 
  667000    1.0042547   -7.0197148    243.99738   0.03048443  0.030899051            4 
  668000    1.0112316   -7.0467569    243.71903  0.030404071  0.030880104            3 
  669000   0.97584848    -7.024398    244.09956  0.030406024   0.03086128            4 
  670000   0.99085906   -7.0332957    244.15788  0.030367895  0.030842334            3 
  671000   0.97869447   -7.0441567    244.10135  0.030315617  0.030823302            2 
  672000   0.96807647   -7.0657723     244.0249  0.030261024  0.030804191            2 
  673000   0.97755797   -7.0243378    244.20102  0.030237867   0.03078524            3 
  674000   0.98113207    -7.026833    244.61577  0.030244284  0.030766142            2 
  675000   0.97294385   -7.0880029    243.90846  0.030112156   0.03074679            4 
  676000   0.98748117   -7.0121474    244.83209  0.030181471  0.030727566            1 
  677000    0.9784881   -7.0570083    245.65378  0.030238033  0.030708268            3 
  678000   0.96785896   -7.0740878     245.2493  0.030143719  0.030688924            4 
  679000    1.0013575   -7.0580654    246.11006  0.030204965  0.030669626            2 
  680000   0.98394964   -7.0210175      246.505  0.030208947  0.030650853            4 
  681000   0.95617676   -7.0739905    245.94202  0.030095695  0.030631749            1 
  682000   0.98254332   -7.0938349     246.4338  0.030111656  0.030612648            5 
  683000   0.97302211   -7.0940252     246.7599  0.030107357   0.03059356            2 
  684000   0.96282698   -7.0348931    247.26173   0.03012448  0.030574439            2 
  685000   0.95820562   -7.0615997    247.37386  0.030094144  0.030555145            4 
  686000   0.98949442   -7.0804768    247.46102  0.030060863  0.030535982            3 
  687000   0.95978336   -7.1140654    247.38168  0.030007481  0.030516568            4 
  688000   0.97559117   -7.0594209    247.57739  0.029987571  0.030497372            4 
  689000   0.98217389   -7.0830671     247.6218  0.029949419  0.030478365            4 
  690000   0.97471205   -7.0569418    248.73151  0.030040037  0.030459246            6 
  691000   0.96773051   -7.0836279    247.97286  0.029905072  0.030440436            3 
  692000   0.98435877   -7.0570641    249.63281  0.030061754  0.030421856            3 
  693000   0.98734742   -7.0771135     249.1738  0.029963179  0.030403249            2 
  694000   0.97162704   -7.0065723     249.3797  0.029944729  0.030384349            2 
  695000   0.97943533   -7.0415318    249.49855  0.029915894  0.030365484            3 
  696000   0.97725356   -7.0438627    250.09472  0.029944291  0.030346456            4 
  697000   0.97774611   -7.0837678    249.51204  0.029831664  0.030327197            1 
  698000   0.98275911   -7.0582775    249.38659  0.029773948  0.030308044            4 
  699000   0.96314063    -7.078263    249.59153  0.029755786  0.030288589            2 
  700000   0.97287309   -7.0807102    250.47462  0.029818407  0.030269349            2 
  701000   0.97574766   -7.0979808    250.74263  0.029807731  0.030250057            2 
  702000   0.95620901   -7.0503537    250.48375  0.029734538  0.030230846            3 
  703000   0.99001336   -7.0650969    250.94741  0.029747203  0.030211683            2 
  704000   0.96169279   -7.0507649    250.66313  0.029671299  0.030192664            4 
  705000    0.9658825   -7.0140699    250.75276  0.029639806  0.030173462            3 
  706000   0.96536705   -7.0618311    251.32877  0.029665813  0.030154364            4 
  707000   0.96488117   -7.0520093    251.48568  0.029642348   0.03013518            4 
  708000   0.94468444   -7.0870277    251.83606  0.029641721  0.030115788            5 
  709000   0.98194909   -7.0543355    252.00675  0.029619975  0.030096502            4 
  710000   0.96648217   -7.1010343     251.2152  0.029485352   0.03007719            5 
  711000   0.98326191   -7.0598982    253.03528  0.029657206  0.030057818            5 
  712000   0.97410806   -7.0787456    252.36708  0.029537346  0.030038448            3 
  713000   0.96598734   -7.0746013    252.85317  0.029552732  0.030018886            3 
  714000   0.97431885    -7.106987     252.6043  0.029482295  0.029999607            2 
  715000   0.95824376   -7.0282893    254.23471  0.029631086   0.02998031            4 
  716000   0.98157213   -7.0997766    252.88433  0.029432534   0.02996118            2 
  717000   0.95000771   -7.0683227    254.15931  0.029539669  0.029942297            3 
  718000   0.97848448   -7.0954856    253.38423  0.029408569  0.029923072            4 
  719000   0.95528267   -7.0896199    253.61027  0.029393865  0.029903817            3 
  720000   0.98453034   -7.0551383    254.25568  0.029427741  0.029884515            4 
  721000   0.96370049   -7.0556579    254.24677  0.029385895    0.0298652            3 
  722000   0.97951607   -7.0828753    253.73735  0.029286398  0.029845826            4 
  723000   0.95809053   -7.0896204    254.76373  0.029364192  0.029826291            2 
  724000   0.95314784   -7.0637541    254.42589  0.029284748  0.029806998            2 
  725000   0.98879794    -7.062267    255.48723  0.029366348  0.029787848            5 
  726000   0.96736283   -7.0719271    255.11666  0.029283364   0.02976848            3 
  727000   0.97788616   -7.0806586     255.6069  0.029299277  0.029749361            5 
  728000   0.95676263   -7.0755992     255.7561   0.02927611  0.029730002            3 
  729000   0.94368191   -7.0943433    255.80603  0.029241659  0.029710622            5 
  730000   0.96464775   -7.1112096    255.81429  0.029202545  0.029691471            2 
  731000   0.95266995   -7.1003076    256.53394  0.029244636   0.02967229            7 
  732000   0.94672104   -7.0923289    256.52334  0.029203477  0.029652929            3 
  733000   0.97106799   -7.1011588    257.20198  0.029240789  0.029633657            5 
  734000   0.96764311   -7.0854511    256.78651  0.029153781  0.029614358            7 
  735000   0.94538089   -7.0771966    256.83756  0.029119905  0.029595251            4 
  736000   0.94943758   -7.1247358    256.90937   0.02908847  0.029576217            5 
  737000   0.95068735   -7.1210113    258.24676  0.029200222  0.029557364            2 
  738000   0.94702036   -7.0847306    258.72803  0.029214999   0.02953885            4 
  739000   0.94869122   -7.0661532    259.36631  0.029247441  0.029520469            4 
  740000   0.94753723   -7.1111308    258.66561  0.029129011  0.029502002            2 
  741000   0.96315659   -7.0574136    259.03412  0.029131143  0.029483631            5 
  742000    0.9712708   -7.1024066    260.00511  0.029200933  0.029465362            7 
  743000   0.95839068   -7.0777371    259.43973   0.02909822  0.029447308            2 
  744000   0.95810587   -7.1045289    260.29171  0.029154538  0.029429411            2 
  745000   0.97113203   -7.1020986    259.86022  0.029067139  0.029411508            2 
  746000    0.9511439   -7.0963024    260.28463  0.029075584  0.029393304            4 
  747000   0.95866343   -7.1248483    260.74968   0.02908854  0.029375127            1 
  748000   0.96117405   -7.1274229    260.28882  0.028998309  0.029356652            4 
  749000   0.94315484   -7.1665727    260.49392  0.028982413  0.029338054            3 
  750000   0.95903235   -7.1138558    261.16594  0.029018438  0.029319576            5 
  751000    0.9483105   -7.1105031    260.25657  0.028878892  0.029301109            4 
  752000   0.96932713   -7.1030056    261.43558  0.028971142    0.0292824            4 
  753000   0.95283504   -7.0977351      261.504  0.028940239  0.029263653            2 
  754000   0.96580829   -7.1220054    261.39472  0.028889779  0.029245056            4 
  755000   0.96498671   -7.0977349    261.76833  0.028892752  0.029226613            2 
  756000   0.93840267   -7.1204951    260.88806  0.028757502  0.029207757            4 
  757000   0.96572891   -7.1243903    261.79504  0.028819357  0.029188636            2 
  758000   0.94778598   -7.1354701     260.8784  0.028680563  0.029169629            2 
  759000   0.95650533   -7.0862013    262.94085  0.028869219  0.029150942            5 
  760000    0.9484738    -7.084977    262.77071  0.028812578  0.029132518            2 
  761000   0.95688678   -7.1345058    262.19949  0.028712165  0.029114001            6 
  762000   0.93470268   -7.1189144    262.35249  0.028691217  0.029095107            4 
  763000   0.94575443   -7.1388113    263.12001  0.028737441  0.029076321            4 
  764000   0.94160553   -7.1174385    263.03581  0.028690643  0.029057723            4 
  765000    0.9610913   -7.1447764    262.33189  0.028576459   0.02903898            5 
  766000   0.93722831   -7.1581726     263.5956  0.028676632  0.029020325            6 
  767000   0.94155301   -7.0907707    264.67966  0.028757025  0.029001878            1 
  768000   0.95389405   -7.1349678     263.1259  0.028550987  0.028983733            2 
  769000   0.95170534   -7.1255411    264.25981  0.028636737  0.028965178            5 
  770000   0.94301832   -7.0989544    264.88743  0.028667471  0.028946725            2 
  771000   0.94531107   -7.1244281    264.02613  0.028537195  0.028928127            4 
  772000   0.94728721   -7.1090465     263.1627  0.028407027  0.028909373            3 
  773000   0.94258718   -7.0865937    264.65949  0.028531639  0.028890597            3 
  774000   0.94829804   -7.1333056    264.96805  0.028527999  0.028872095            2 
  775000    0.9475083   -7.1475672    264.51189  0.028442139  0.028853502            2 
  776000   0.94590281   -7.1415385    265.34289  0.028494726  0.028834612            2 
  777000   0.93937118   -7.1344112    265.44006  0.028468475  0.028815794            3 
  778000   0.92659176   -7.0910022    266.13849  0.028506694  0.028797198            2 
  779000   0.94976701   -7.0923188    266.11099  0.028467158  0.028778636            3 
  780000   0.95647052   -7.1351404     266.2012  0.028440299  0.028759891            3 
  781000    0.9515242   -7.1574818    265.72031  0.028352573  0.028741358            3 
  782000   0.92321982   -7.1496194     266.4306  0.028392008  0.028722865            5 
  783000   0.91790222   -7.1310998    267.29764  0.028448025  0.028704245            2 
  784000   0.94386021   -7.1202892    267.38315  0.028420828  0.028685963            3 
  785000   0.92582615   -7.1236066    266.48336  0.028289104  0.028667453            2 
  786000   0.92345696   -7.1838159    266.49655  0.028254511  0.028648797            3 
  787000   0.95440989   -7.1592967    267.16907  0.028289821  0.028630103            2 
  788000   0.96251855   -7.1666272    267.71303  0.028311446  0.028611672            2 
  789000   0.94412499   -7.1221728    267.86229  0.028291328  0.028593287            2 
  790000   0.94512824   -7.1578149    267.83613  0.028252757  0.028574752            2 
  791000   0.94112033   -7.1618371    268.85722  0.028324612  0.028556222            6 
  792000   0.94402994   -7.1373983    267.80716  0.028178362  0.028537748            2 
  793000   0.95151187   -7.1431844    268.72591  0.028239377  0.028519393            5 
  794000    0.9345929   -7.1541259     268.2447  0.028153306  0.028500801            2 
  795000   0.92553979   -7.1171929    268.81088  0.028177241  0.028482374            2 
  796000    0.9088496   -7.1641088    269.32864  0.028196047  0.028464146            5 
  797000   0.93741733   -7.1174782    269.35703  0.028163638  0.028445654            3 
  798000   0.91287608    -7.167476    269.08491  0.028099928   0.02842703            5 
  799000   0.93067201   -7.1545669    268.66805  0.028021282  0.028408341            3 
  800000    0.9432854   -7.1677855    269.16161  0.028037667  0.028389427            4 
  801000   0.92381461   -7.1315097    269.23259  0.028010049  0.028370511            3 
  802000   0.95648084    -7.150137    270.02638  0.028057604   0.02835179            1 
  803000   0.93280843   -7.1464714    270.36476  0.028057779  0.028333257            3 
  804000   0.92131778   -7.1343101    269.58816  0.027942388  0.028314532            4 
  805000   0.93470826   -7.1664225    269.94503   0.02794462  0.028295574            4 
  806000   0.91719339   -7.1562158    269.49847  0.027863779  0.028276634            4 
  807000   0.91627775   -7.1555555    270.01437  0.027882524  0.028257721            3 
  808000   0.94762248   -7.1670998    270.16019  0.027863056  0.028238896            2 
  809000   0.92000977   -7.1755065    270.53596  0.027867321  0.028219982            3 
  810000   0.94118027   -7.1505136    271.48318  0.027930368  0.028201414            5 
  811000   0.93325959   -7.1892485    270.81052  0.027826811  0.028182703            4 
  812000   0.91655338   -7.1352395    271.87225  0.027901503  0.028164107            2 
  813000   0.93001649   -7.1718158    271.85499  0.027865416  0.028145471            6 
  814000   0.92463366   -7.1491379    271.69289  0.027814587  0.028126758            3 
  815000   0.93658011   -7.1576474    271.92423  0.027804114  0.028108192            3 
  816000   0.95388753   -7.1818531    271.94471  0.027772131  0.028089616            3 
  817000   0.91679277   -7.1617354    272.29688   0.02777406  0.028071125            4 
  818000   0.92883074   -7.1420186    272.81101  0.027792483  0.028052527            5 
  819000   0.89723842   -7.1705448    272.50691  0.027727606  0.028033725            3 
  820000   0.93159136   -7.1635025    271.84845  0.027626875   0.02801483            4 
  821000   0.90603004   -7.1384254    272.63478  0.027673039  0.027995958            2 
  822000   0.92434483   -7.1337655     272.0767  0.027582796   0.02797709            2 
  823000   0.92355649   -7.1860108    272.92048  0.027634718  0.027958192            2 
  824000   0.92086692   -7.1703931    272.78827  0.027587811  0.027939502            6 
  825000   0.92642188   -7.1530363    273.56755  0.027633086  0.027921003            3 
  826000   0.93680691   -7.1895226    273.27754  0.027570374  0.027902365            5 
  827000    0.9152649   -7.1428028    273.35481  0.027544821  0.027883671            4 
  828000   0.89280154   -7.1925908    273.68644  0.027544931  0.027864721            2 
  829000   0.91981348      -7.1749    273.27465   0.02747031  0.027845972            2 
  830000   0.91382127   -7.1470252    273.65184  0.027475084  0.027827319            5 
  831000   0.91868804     -7.17818    274.13445  0.027490418  0.027808448            1 
  832000   0.92075556   -7.1711277     274.4204  0.027486017  0.027789485            3 
  833000   0.93337821   -7.1549192    274.44415  0.027455397  0.027770603            6 
  834000   0.91803359   -7.1895219    273.64677  0.027342803  0.027751584            4 
  835000   0.91184561    -7.156778    274.54281  0.027399482  0.027732773            5 
  836000   0.91762469   -7.1813134    274.89058  0.027401374   0.02771404            3 
  837000   0.90946945   -7.1997476    275.06634  0.027386135  0.027695209            5 
  838000   0.94438604   -7.1782093    274.56248  0.027303349  0.027676283            5 
  839000   0.93257049   -7.1461036    275.99173  0.027412766  0.027657433            2 
  840000   0.94454231   -7.1675919    275.79503  0.027360618  0.027638706            4 
  841000   0.91571714   -7.1596715    275.87661  0.027336168  0.027619868            3 
  842000    0.9377391   -7.1949386    274.58434  0.027175806  0.027600827            4 
  843000   0.94060414   -7.1662425    275.72561  0.027256387  0.027581775            1 
  844000   0.90508192   -7.1982613    275.39004   0.02719096  0.027562632            4 
  845000   0.89413966   -7.1828934    275.55473  0.027175023  0.027543557            5 
  846000   0.90060548   -7.2135878     274.7106  0.027059752   0.02752443            6 
  847000   0.92909548    -7.195677    275.88686  0.027143532  0.027505123            4 
  848000   0.91083542   -7.1961556    276.58995  0.027180616  0.027485971            4 
  849000   0.90647389   -7.2030126    275.24268   0.02701636  0.027466482            4 
  850000    0.9006824   -7.1971094    275.85622  0.027044728  0.027447197            3 
  851000   0.92131257   -7.2045473    275.97712  0.027024787  0.027427869            3 
  852000   0.91931204   -7.2003805    276.88839  0.027082198  0.027408582            3 
  853000   0.92495769   -7.1786616    276.55156  0.027017542  0.027389415            3 
  854000   0.91227949   -7.1801247    276.58035  0.026988715  0.027370368            3 
  855000   0.91784049   -7.1754833    277.25383  0.027022791  0.027351197            2 
  856000   0.92797668   -7.1983445    276.94517  0.026961173  0.027332081            4 
  857000   0.91438713    -7.182923    277.33517  0.026967636  0.027313004            5 
  858000   0.90897548   -7.1668239    277.53949   0.02695605  0.027294009            3 
  859000   0.91705836   -7.1718752    278.05645   0.02697482  0.027275008            4 
  860000   0.91977059   -7.2100696    278.10813  0.026948463  0.027255829            2 
  861000   0.92445279   -7.2289289    277.90605  0.026897604  0.027236656            4 
  862000   0.92757616    -7.206809    276.96808  0.026775723  0.027217244            3 
  863000   0.91196319   -7.1912049    277.25511  0.026772413  0.027197967            2 
  864000   0.90704955   -7.1892415    278.08089  0.026821073  0.027178643            2 
  865000   0.90653058   -7.2177752    277.99071  0.026781378  0.027159409            2 
  866000   0.91475223    -7.187819    278.47292  0.026796855  0.027140184            5 
  867000   0.90151543   -7.2037444     278.2232  0.026741946  0.027121008            5 
  868000   0.90788985   -7.1944764    278.77525  0.026764137  0.027101783            9 
  869000   0.91003042   -7.2045527    279.25336  0.026779187  0.027082727            4 
  870000   0.89969731   -7.1956065    278.19751  0.026647272  0.027063606            3 
  871000   0.91150138   -7.1896889    279.55945  0.026746981  0.027044647            3 
  872000   0.88889307   -7.2168006    279.38262   0.02669941  0.027025758            3 
  873000   0.92057075   -7.2489055    279.58668  0.026688305  0.027006842            2 
  874000   0.88747007     -7.27375    279.22943  0.026623706  0.026987715            2 
  875000   0.93222284    -7.232269    279.88499  0.026655714  0.026968584            7 
  876000   0.89674352   -7.2183285    280.28413  0.026663255  0.026949656            1 
  877000   0.91843414   -7.2016262    280.20879  0.026625693  0.026930785            7 
  878000   0.90221627    -7.218307     279.7904  0.026555656  0.026911979            3 
  879000   0.90287985    -7.232367    279.69992  0.026516867  0.026892899            7 
  880000    0.9011793   -7.2407555    280.17228  0.026531466  0.026873869            7 
  881000   0.90936945   -7.2210022    279.76287  0.026462625  0.026854572            3 
  882000   0.90176826   -7.2422997    280.27414  0.026480928  0.026835443            3 
  883000    0.9034783   -7.2578181    280.61312  0.026482929  0.026816194            4 
  884000   0.90241708   -7.2416338    280.29698  0.026423169  0.026796863            3 
  885000   0.88384004   -7.2566034    280.74907  0.026435882  0.026777678            5 
  886000   0.92307559   -7.2412115    280.91238  0.026421405  0.026758478            3 
  887000   0.89786204    -7.231597    281.50196  0.026447008  0.026739364            3 
  888000   0.87873163    -7.220953    282.14464  0.026477537  0.026720356            2 
  889000   0.89425934   -7.2132554    281.70324  0.026406378  0.026701455            7 
  890000   0.88490655   -7.2108816    281.82971   0.02638855  0.026682919            3 
  891000   0.89571341   -7.2259057    282.47548   0.02641933  0.026664446            2 
  892000   0.91107731   -7.2277978    283.25928  0.026462937  0.026645928            8 
  893000   0.88472409   -7.2188141    282.01877  0.026317541   0.02662738            4 
  894000   0.90449119   -7.2601966    282.85457  0.026366012  0.026608653            2 
  895000   0.89692635   -7.2256258    282.56171  0.026309284  0.026590064            5 
  896000   0.90331143   -7.2507577    283.59693  0.026376202  0.026571449            4 
  897000   0.89305728   -7.2337165     283.6485  0.026351589  0.026552929            3 
  898000   0.88848674   -7.2607578    282.92357  0.026254971  0.026534412            2 
  899000    0.8983124   -7.2458576    283.25403  0.026256399  0.026515639            2 
  900000   0.90102923   -7.2666955    282.95595  0.026199625  0.026496796            3 
  901000   0.92355263   -7.2417147    282.83081  0.026158972  0.026477981            5 
  902000   0.89892606   -7.2383481    283.14508  0.026159006  0.026459362            4 
  903000   0.90002741    -7.235437    284.16383  0.026224053   0.02644067            6 
  904000   0.90595431   -7.2583621    283.92685  0.026173197   0.02642186            4 
  905000   0.89174672   -7.2240972    284.29847  0.026178496  0.026403165            5 
  906000   0.89634761   -7.2381377    283.27465  0.026055432  0.026384407            3 
  907000   0.89396156   -7.2357122    283.81597   0.02607644  0.026365551            3 
  908000   0.89221244   -7.2306627    284.09703  0.026073516  0.026346788            2 
  909000   0.90252831   -7.2400045    284.39527  0.026072174  0.026327972            6 
  910000   0.89173016   -7.2415116    284.21946  0.026027423  0.026309199            2 
  911000   0.90688589   -7.2632629    284.29124  0.026005419  0.026290439            2 
  912000   0.90130839   -7.2529479    284.65787  0.026010405  0.026271807            4 
  913000   0.89368505   -7.2374535    285.10222  0.026022473  0.026253154            8 
  914000    0.8827581   -7.2431855    285.81069  0.026058596  0.026234684            3 
  915000   0.88851873   -7.1858598    285.77538  0.026026901  0.026216402            4 
  916000   0.88229489   -7.2609729    286.45432  0.026060255   0.02619821            2 
  917000   0.87714106   -7.2189868    286.50586  0.026036519  0.026180105            4 
  918000   0.87812359   -7.2703703    285.91552  0.025954568  0.026161935            5 
  919000   0.88666837    -7.267962    285.70518  0.025907253  0.026143678            3 
  920000   0.89162472   -7.2370367    286.66962  0.025966451  0.026125462            3 
  921000   0.89106458   -7.2296766    286.68353  0.025939516  0.026107268            6 
  922000    0.8675489   -7.2646074    286.57893  0.025901928  0.026089061            3 
  923000   0.86991326   -7.2628779    286.45579  0.025862748  0.026070715            4 
  924000   0.87637867   -7.2577949    286.85938  0.025871156  0.026052411            4 
  925000    0.8964555   -7.2571427    287.96561  0.025942848  0.026034363            4 
  926000   0.89299531   -7.2450201    287.70274  0.025891175  0.026016242            2 
  927000   0.86637808   -7.2584307    288.26997  0.025914237  0.025998139            2 
  928000   0.91587048   -7.2712938    287.61377  0.025827386  0.025980034            4 
  929000   0.87677085    -7.255013    287.07932  0.025751643  0.025962051            3 
  930000   0.87430529   -7.2992358    288.66301  0.025865861  0.025944081            3 
  931000   0.88373288   -7.2780373    287.57937  0.025741082  0.025926152            7 
  932000   0.89595169   -7.2610742    288.38748  0.025785719  0.025908318            3 
  933000   0.89891579   -7.2809929    288.45492  0.025764105  0.025890525            4 
  934000   0.88633626   -7.2468513     289.3225  0.025813927  0.025872803            3 
  935000   0.88037932   -7.2595547    288.52124  0.025714906  0.025855045            3 
  936000   0.89156167   -7.2749227    289.12005  0.025740745   0.02583743            3 
  937000   0.87167993   -7.2534769    288.93525  0.025696838  0.025819859            3 
  938000   0.87501257   -7.2363732     289.2194  0.025694687  0.025802363            5 
  939000   0.87718332    -7.256189    289.81045  0.025719777  0.025784737            3 
  940000   0.86607947   -7.2564095    290.08821   0.02571704  0.025767169            3 
  941000   0.85814866   -7.2620075    289.53278  0.025640522  0.025749607            4 
  942000   0.88433242   -7.2696059    290.11989  0.025665242  0.025731997           11 
  943000   0.88155074   -7.2867965    290.41354  0.025663975  0.025714413            3 
  944000   0.87277197    -7.255092    289.88817   0.02559041   0.02569697            4 
  945000   0.90671504   -7.2577535    290.59469  0.025625634  0.025679501            4 
  946000      0.88464    -7.295056    291.01484  0.025635557  0.025662091            3 
  947000   0.86877607   -7.2935164    290.90419   0.02559875  0.025644733            3 
  948000    0.8584123   -7.2870353    291.49124  0.025623351  0.025627317            4 
  949000   0.89042771    -7.334363    290.41171  0.025501555  0.025609809            2 
  950000   0.89147117   -7.2570393    291.53704  0.025573425  0.025592202            4 
  951000   0.88933509   -7.2473998     291.5529  0.025547923  0.025574899            5 
  952000   0.88010612   -7.3092819    290.90544  0.025464411  0.025557459            5 
  953000   0.88358656   -7.2833669    291.03371  0.025448908  0.025539888            8 
  954000   0.86501825   -7.3014933    291.74241  0.025484138  0.025522522            2 
  955000   0.86054936   -7.2743043    292.05291  0.025484547  0.025505143            4 
  956000   0.87559606   -7.3301368    291.09678  0.025374545  0.025487786            5 
  957000   0.87625795   -7.2672151    292.03937  0.025430109  0.025470325            4 
  958000    0.8960026   -7.2586776    292.52105  0.025445463  0.025452863            3 
  959000   0.86765112   -7.2404946    292.94447  0.025455724  0.025435625            3 
  960000   0.86152778   -7.2965796    292.74193  0.025411626  0.025418489            3 
  961000   0.88356931   -7.2600868    292.45349  0.025360171  0.025401394            6 
  962000   0.86174112    -7.286279    292.64225   0.02535016  0.025384148            4 
  963000   0.88113024   -7.2791643    292.72131  0.025330678  0.025367004            2 
  964000   0.87298534   -7.2848231    293.20416  0.025346141   0.02534982            5 
  965000   0.88706275   -7.2866077     293.5383  0.025348731  0.025332794            2 
  966000   0.85912478    -7.290084    293.00394  0.025276393  0.025315871            3 
  967000   0.85778588   -7.2636727    293.87989   0.02532574   0.02529887            2 
  968000   0.84974243   -7.2104821     294.9165  0.025388817  0.025281953            2 
  969000   0.88635757   -7.2931918    294.06904  0.025289735  0.025264984            2 
  970000   0.88108178   -7.2910692    293.51044  0.025215674  0.025247783            3 
  971000   0.85188207   -7.3109395    293.30971  0.025172477  0.025230553            4 
  972000   0.88339616   -7.3174819    293.38313  0.025152874  0.025213279            2 
  973000   0.86738095   -7.3182521    294.19134  0.025196243  0.025196018            4 
  974000   0.84756362   -7.2969766    294.43995  0.025191646  0.025178881            6 
  975000   0.88689666   -7.2913171    294.18855   0.02514432  0.025161769            4 
  976000   0.88417237   -7.3025263    294.38746  0.025135541  0.025144627            3 
  977000   0.86397961   -7.3086689    294.30786  0.025103025  0.025127369            8 
  978000   0.87315276   -7.3138479    294.73411  0.025113677  0.025110016            4 
  979000    0.8668316    -7.294733    294.85814  0.025098582  0.025092647            2 
  980000   0.85137212   -7.3299557    294.20827   0.02501771  0.025075323            5 
  981000   0.85815175   -7.3335716    294.54119  0.025020488  0.025057996           18 
  982000   0.84685081   -7.3072156    295.27722  0.025057469  0.025040849            5 
  983000   0.86193282    -7.324253    294.75501  0.024987708  0.025023725            3 
  984000   0.87670904   -7.3130288    295.16741   0.02499724  0.025006474            3 
  985000   0.85123506   -7.3316775    295.14576   0.02497003  0.024989255            4 
  986000   0.83446847   -7.3395611    295.22332  0.024951261  0.024971952            4 
  987000   0.86961798   -7.2983255    295.99826   0.02499141  0.024954928            3 
  988000   0.86695191   -7.3374404    295.35298  0.024911688  0.024937964            6 
  989000   0.86409727   -7.3176525    296.10961  0.024950253   0.02492088           10 
  990000   0.82887661   -7.3059845    296.11195  0.024925248  0.024903748            3 
  991000   0.86837508   -7.3279982    295.06696  0.024812224  0.024886636            4 
  992000   0.82985433   -7.3221407    296.13138  0.024876628  0.024869378            3 
  993000    0.8493346   -7.3128101    295.92001  0.024833838  0.024852194            2 
  994000   0.85423973   -7.3081706    295.92398  0.024809187  0.024834992            7 
  995000   0.85128789   -7.3247103    295.58453  0.024755823  0.024817744            6 
  996000   0.85328023   -7.2826077    296.41682  0.024800604  0.024800409            3 
  997000   0.87085886   -7.3157103    295.48443  0.024697796  0.024783152            5 
  998000   0.85769966    -7.287009    296.98444    0.0247983  0.024765969            3 
  999000   0.85243214    -7.260331    296.37108  0.024722312  0.024748769            6 
 1000000   0.84672715   -7.3116407    296.66773  0.024722311  0.024731465            4 
 1001000   0.88086346   -7.3000805    296.26192  0.024663829  0.024714189            4 
 1002000   0.85925595   -7.3357533    296.32017   0.02464406  0.024697054            6 
 1003000   0.85683271   -7.3204262    297.55193  0.024721829  0.024679894            3 
 1004000   0.85809952   -7.3270073    296.78479  0.024633532  0.024662856            2 
 1005000   0.84005005   -7.3561269    296.44692  0.024581005  0.024645708            3 
 1006000   0.83220507   -7.3361134    296.90566  0.024594571  0.024628573            6 
 1007000   0.87139084   -7.3340301     297.5111   0.02462025  0.024611373            5 
 1008000   0.87007235   -7.3430734      296.895  0.024544891   0.02459412            5 
 1009000   0.84599521   -7.3289514    297.09304  0.024536921  0.024576861            4 
 1010000   0.84740284   -7.3378073    296.72841  0.024482542  0.024559602            5 
 1011000   0.83637058   -7.3464954    298.01653  0.024564502    0.0245424            3 
 1012000   0.85040692   -7.3461371    298.14428  0.024550748  0.024525146            2 
 1013000   0.84644296   -7.3210134    297.44482  0.024468972  0.024507864            5 
 1014000    0.8592866   -7.3210897    297.81104  0.024474938   0.02449053           13 
 1015000   0.84602441   -7.3319248    298.48142  0.024505863  0.024473196            7 
 1016000   0.85432913   -7.3508926    297.91312  0.024435131  0.024456102            9 
 1017000   0.86292314   -7.3057143    297.55525   0.02438178  0.024438781            5 
 1018000   0.84225094   -7.3381085    298.98684  0.024475019  0.024421584            5 
 1019000   0.84152758   -7.3431061    297.63934  0.024340803   0.02440447            3 
 1020000   0.85677433   -7.3205801    298.27401  0.024368792  0.024387302            5 
 1021000    0.8565259   -7.2810227    299.06384  0.024409389  0.024370256            3 
 1022000   0.86134626   -7.3435619    299.31694  0.024406143  0.024353269            3 
 1023000   0.86174065   -7.3421707    298.74798  0.024335938  0.024336259            4 
 1024000   0.83340251   -7.3349249    298.83823  0.024319517  0.024319078            6 
 1025000   0.84671838   -7.3297016    299.00079  0.024309007   0.02430187            5 
 1026000    0.8246323   -7.3422424    299.83037  0.024352694  0.024284787            3 
 1027000   0.84832809   -7.3718107    298.78478   0.02424414  0.024267621            7 
 1028000   0.87523061   -7.3413283    299.80614  0.024303351  0.024250516            2 
 1029000   0.84814404   -7.3296775    299.49652  0.024254659   0.02423342            3 
 1030000   0.84460182   -7.3474991    299.66395  0.024244656  0.024216238            2 
 1031000   0.83847302   -7.3451161    299.06773   0.02417295  0.024198988            3 
 1032000   0.85479277   -7.3347877    298.93766  0.024139023  0.024181665            2 
 1033000   0.85708435   -7.3269168    299.62303  0.024170944  0.024164396            3 
 1034000   0.84601262   -7.3389275    299.67924  0.024152099  0.024147224            3 
 1035000   0.84300355   -7.3420176    299.64913  0.024126339  0.024129979            7 
 1036000   0.85419815   -7.3296732    299.62731  0.024101296  0.024112804            4 
 1037000   0.83259957   -7.3822921    299.84875  0.024095849  0.024095468            3 
 1038000   0.83505891   -7.3533123    299.96047  0.024081605  0.024078257            8 
 1039000   0.83786792   -7.3484856    299.64788  0.024033356  0.024061091            3 
 1040000   0.84455062    -7.365091    299.83864  0.024025532  0.024043998            5 
 1041000   0.84359505   -7.3481814    300.06759  0.024020781  0.024026848           10 
 1042000   0.82145882   -7.3309879    300.46806  0.024029755  0.024009658            6 
 1043000   0.83082163   -7.3441672    300.47132  0.024006977  0.023992591            6 
 1044000   0.82258748   -7.3681284    299.84816   0.02393424   0.02397547            5 
 1045000   0.83596184   -7.3566189    300.76239  0.023984242  0.023958307            6 
 1046000   0.83326188   -7.3356933    300.07292  0.023906383   0.02394094            4 
 1047000   0.83780345   -7.3851454    299.34267  0.023825427  0.023923583            4 
 1048000    0.8417636   -7.3770286    300.32076  0.023880467   0.02390611            8 
 1049000   0.81577242    -7.322652    300.52007  0.023873536  0.023888761            6 
 1050000   0.81675792   -7.3857651      300.749  0.023868968  0.023871354            1 
 1051000    0.8243451   -7.3782848    301.27008  0.023887574  0.023854066            3 
 1052000   0.82022533   -7.3595734    300.35491  0.023792373  0.023836906            4 
 1053000   0.81916682   -7.4015097    301.09746  0.023828542  0.023819698            3 
 1054000   0.82748577   -7.4194992    300.85202  0.023786529  0.023802408            3 
 1055000   0.82205661   -7.4035677    300.61225  0.023745043  0.023785024            4 
 1056000   0.84689344    -7.347059    301.18567  0.023767809  0.023767772            5 
 1057000   0.82389844   -7.3655489    301.33747   0.02375729    0.0237506            4 
 1058000    0.8282144   -7.3546788    301.90779  0.023779757  0.023733522            2 
 1059000   0.85210065   -7.3585954    302.35569  0.023792547  0.023716444            3 
 1060000    0.8326163   -7.3578931    302.28507   0.02376455  0.023699357            3 
 1061000    0.8411971   -7.3446826    301.97272  0.023717619  0.023682307            2 
 1062000   0.84422902   -7.3669534    303.03415  0.023778575  0.023665213            6 
 1063000   0.82936245   -7.3680206    302.53207  0.023716845  0.023648173            3 
 1064000   0.84695122   -7.3833546    302.11912  0.023662211  0.023631234            4 
 1065000   0.82849084   -7.3863152    302.24931  0.023650181  0.023614321            3 
 1066000   0.84187376   -7.3706252    303.28489   0.02370895  0.023597423            3 
 1067000    0.8280564   -7.3887356    301.95276   0.02358269  0.023580523            3 
 1068000   0.82770886   -7.4171884    302.12621  0.023574143  0.023563541            3 
 1069000    0.8478201   -7.3788102    302.14333  0.023553424  0.023546611            3 
 1070000   0.82049363   -7.3899218     303.3197   0.02362303   0.02352971            3 
 1071000   0.82865052   -7.3685794    302.55437  0.023541423  0.023512854            2 
 1072000   0.83347116   -7.3433118    303.16884  0.023567229  0.023495996            5 
 1073000   0.83008601   -7.3537272    303.58344  0.023577465  0.023479098            3 
 1074000    0.8089493   -7.4029227     303.3725  0.023539145  0.023462261            6 
 1075000   0.82917016   -7.4179026    303.44287  0.023522703  0.023445421            5 
 1076000    0.8237869   -7.3819976    303.24664  0.023485644  0.023428545            2 
 1077000   0.82222375   -7.4101691    302.38469  0.023397144  0.023411596            7 
 1078000   0.82723024   -7.3857079    303.26662  0.023443616   0.02339459            7 
 1079000   0.80605882   -7.3684226    302.96584  0.023398659  0.023377504            9 
 1080000    0.8168168   -7.3865712    302.76654  0.023361616  0.023360338            5 
 1081000   0.84001302   -7.3816598    302.22455  0.023298223  0.023343243            5 
 1082000   0.81513755   -7.4010019    302.71523  0.023314481   0.02332603            6 
 1083000   0.81728197    -7.385021    302.68672   0.02329076  0.023308935            8 
 1084000   0.81579923   -7.3873529    303.44161  0.023327307  0.023291892            2 
 1085000   0.79368099   -7.3692211    303.27865  0.023293291  0.023274849            6 
 1086000   0.81717771   -7.4094724    302.83471  0.023237777  0.023257646            5 
 1087000   0.83716715   -7.4154463    303.29068  0.023251356  0.023240419            4 
 1088000   0.82129458   -7.4196638    304.00583   0.02328476  0.023223188            2 
 1089000   0.81238238   -7.3683466    303.64834  0.023236023  0.023206101            3 
 1090000   0.80826534   -7.4130449    303.30555  0.023188497  0.023189055            9 
 1091000   0.80479623   -7.3917758    304.12505  0.023229839  0.023172083            3 
 1092000   0.81919283   -7.3984969    304.14421  0.023210028  0.023155087            4 
 1093000   0.82101238     -7.41295    304.01546  0.023178977  0.023138236            4 
 1094000   0.79551562   -7.3765966    304.24703  0.023175429  0.023121244            3 
 1095000   0.80521449   -7.4013267    304.40411  0.023166219  0.023104368            5 
 1096000   0.83022987   -7.3799777    304.24614   0.02313307  0.023087411            4 
 1097000   0.82984342    -7.413794     304.8449  0.023157467   0.02307046            3 
 1098000   0.81007459   -7.3970412    304.58934  0.023116981  0.023053524            2 
 1099000   0.79740172   -7.3805407     304.5903  0.023096019  0.023036729            4 
 1100000   0.80442222   -7.4016195    304.80595   0.02309136  0.023019982            4 
 1101000   0.80256227   -7.4055659    305.25309   0.02310423  0.023003311            7 
 1102000   0.80421424   -7.3753161    305.93685   0.02313497  0.022986641           11 
 1103000    0.8144097   -7.4304221    305.51023  0.023081764  0.022969939            3 
 1104000   0.79707457   -7.4002921    305.49543  0.023059739  0.022953329            8 
 1105000   0.83957041   -7.4440843    306.31821  0.023100921  0.022936808            9 
 1106000   0.80080176   -7.4105556    305.31592  0.023004514  0.022920246            3 
 1107000   0.81403498   -7.4393528    305.90604  0.023028157  0.022903609            5 
 1108000   0.81922462   -7.4293085    305.52994  0.022979087  0.022886852            3 
 1109000   0.80229348   -7.4429081    305.60021  0.022963646  0.022870197            3 
 1110000   0.80742833   -7.4449903    305.28742  0.022919476  0.022853417            3 
 1111000   0.80803546   -7.4615934    305.23906  0.022895219  0.022836753            7 
 1112000   0.80840385   -7.4175925    305.19077  0.022871011   0.02282011            6 
 1113000   0.79583156    -7.413843    306.84635   0.02297442  0.022803477            3 
 1114000   0.79548395   -7.4330131    306.86252  0.022955006  0.022786964           10 
 1115000   0.79579798   -7.4338545     306.7634   0.02292701  0.022770514            4 
 1116000   0.81706009   -7.4336473    306.80519  0.022909587  0.022754103            7 
 1117000   0.81306863   -7.4083775    306.85424  0.022892737   0.02273767            3 
 1118000   0.82090139   -7.4387127    306.72694  0.022862771  0.022721216            3 
 1119000   0.80701675   -7.4238564    306.66409   0.02283766  0.022704757            3 
 1120000    0.8224789    -7.399235    306.81139  0.022828228  0.022688247            4 
 1121000   0.80035332    -7.449274    306.95691  0.022818682  0.022671887            6 
 1122000   0.81900065   -7.4392428    306.63803  0.022774661  0.022655397            5 
 1123000   0.80294973   -7.4727902    306.36796  0.022734339  0.022638882            3 
 1124000   0.79574556   -7.4305079      307.252  0.022779656  0.022622464            4 
 1125000    0.7984782   -7.4538039     306.9548  0.022737393  0.022605974           18 
 1126000   0.79781014   -7.4640172    306.95877  0.022717493  0.022589458            6 
 1127000   0.81275807   -7.4231454    307.36762  0.022727567  0.022573076            4 
 1128000   0.80398774   -7.3891553    307.76554  0.022736816  0.022556752            5 
 1129000   0.79398596   -7.4314075    308.24851  0.022752326  0.022540358            5 
 1130000    0.8156589   -7.4246014    307.99071  0.022713179  0.022523916            7 
 1131000   0.82286911   -7.4149493    307.59157  0.022663687  0.022507558            7 
 1132000   0.80605897   -7.4213716    307.67365  0.022649709  0.022491242            5 
 1133000   0.81070717   -7.4214194     308.4332  0.022685584  0.022474947            3 
 1134000    0.8102391   -7.4027287    308.44308  0.022666305  0.022458614            2 
 1135000   0.80359056    -7.450047    308.01701  0.022615052  0.022442351            4 
 1136000    0.8040443   -7.4393273    308.35102  0.022619647   0.02242602            2 
 1137000   0.78640874   -7.4443025    307.90738  0.022567237  0.022409629            4 
 1138000   0.80020153   -7.4511489    307.86077  0.022543993   0.02239325            7 
 1139000   0.77664852   -7.4235847    308.26969  0.022554118  0.022376871            5 
 1140000   0.79551339   -7.4415773    307.68054  0.022491268   0.02236054            4 
 1141000    0.7894559   -7.4513331    308.56381  0.022536066  0.022344305            2 
 1142000   0.79465816   -7.4190319    308.83407  0.022536053  0.022328135            4 
 1143000    0.7971654    -7.426376     309.3487  0.022553857  0.022311956            6 
 1144000   0.78524158   -7.4426033    309.19362  0.022522845  0.022295705            9 
 1145000   0.81102098   -7.4486353    309.33827  0.022513702  0.022279546           13 
 1146000   0.80681141    -7.458456    308.46171  0.022430316  0.022263363           10 
 1147000   0.80005931   -7.4547654    308.56365  0.022418167  0.022247148            3 
 1148000   0.79254048   -7.4526801    309.00135  0.022430411  0.022230863            3 
 1149000   0.78684433   -7.4457189    308.44171  0.022370301  0.022214686            5 
 1150000   0.80878255   -7.4508205    308.75255  0.022373373  0.022198559            4 
 1151000    0.8004625   -7.4537395    308.55957  0.022339963  0.022182355            3 
 1152000   0.78620709   -7.4636413    308.77772  0.022336351   0.02216625            8 
 1153000   0.78111862   -7.4688826    309.41853  0.022363294  0.022150066            4 
 1154000   0.78235779   -7.4619325     309.6595  0.022361316   0.02213396            5 
 1155000   0.81660861   -7.4435577    308.98437  0.022293245  0.022117875            3 
 1156000   0.81789248   -7.4844366    309.15513   0.02228627  0.022101653            7 
 1157000   0.79905003   -7.4211067    308.68092  0.022232852  0.022085496            7 
 1158000   0.79094128   -7.4821431    309.26112  0.022255406  0.022069308            6 
 1159000   0.77403207    -7.472166    308.69947   0.02219582  0.022053116            7 
 1160000   0.78034534   -7.4921153    309.94107  0.022265881  0.022036934            4 
 1161000   0.78551175   -7.4789617    309.78473  0.022235482  0.022020793            2 
 1162000   0.78909888   -7.4604388    309.87737   0.02222299  0.022004726            6 
 1163000   0.79214461   -7.4666676    310.15743  0.022223949  0.021988687           10 
 1164000    0.7820925   -7.4786705    309.41854  0.022151957  0.021972585            6 
 1165000   0.78022649   -7.4555171    309.88283  0.022166154  0.021956489            3 
 1166000   0.79302189   -7.4949231    309.74966  0.022137626  0.021940438            9 
 1167000   0.79022352   -7.5007147    308.71587  0.022044835  0.021924301            6 
 1168000   0.77750242   -7.4810133    310.15636  0.022128736  0.021908157            5 
 1169000   0.78188899    -7.468093    309.73576  0.022079823  0.021892002            6 
 1170000   0.78610768   -7.4652282     310.0408  0.022082678  0.021875825            4 
 1171000   0.79536366   -7.4856393     310.7537  0.022114553  0.021859684            5 
 1172000   0.79262718    -7.475977    310.93064  0.022108265   0.02184358            4 
 1173000   0.79101118   -7.4805529    310.40777  0.022052271   0.02182749            3 
 1174000   0.77120644   -7.4923595     310.2706   0.02202375  0.021811503            6 
 1175000   0.79643894   -7.4650617    311.68959  0.022105644  0.021795554            8 
 1176000   0.79845616   -7.4597007    310.71833  0.022018022  0.021779638            5 
 1177000   0.78354081   -7.4802275    310.44506  0.021979968  0.021763771            3 
 1178000   0.79533946   -7.4439132    311.44024  0.022031709  0.021747896            5 
 1179000    0.7771373   -7.4809943    310.62936  0.021955708  0.021732021            3 
 1180000   0.78385853   -7.5066981    310.52762  0.021929916  0.021716098            3 
 1181000   0.76497305   -7.4763907    311.06078  0.021948968  0.021700075            7 
 1182000   0.78437683   -7.4868732    310.10611  0.021863093   0.02168407            5 
 1183000   0.80219643   -7.5014974    310.60216  0.021879555  0.021668066            4 
 1184000   0.78765937   -7.5164816    310.38812  0.021846011   0.02165205            5 
 1185000   0.78551554   -7.5050806    310.96096  0.021867859  0.021636029            5 
 1186000   0.77439018   -7.4779895    311.42468  0.021882004  0.021620115            5 
 1187000   0.78128014   -7.4820148    311.77088  0.021887874  0.021604323            5 
 1188000   0.78110068   -7.5001699    311.30471   0.02183675  0.021588421            5 
 1189000   0.76676558   -7.4827728    311.31841  0.021819345  0.021572612            3 
 1190000   0.76773626   -7.4939332    311.28997  0.021799018  0.021556786            6 
 1191000   0.77664613   -7.5000067    311.72652  0.021811259  0.021540995            7 
 1192000   0.77963315   -7.5058487    311.93846  0.021807778  0.021525145            6 
 1193000   0.79304819   -7.5158067    311.82912  0.021781861  0.021509322            6 
 1194000   0.76891685   -7.5169937    312.43237  0.021805721  0.021493504            4 
 1195000   0.75581513   -7.5042139    311.98486  0.021756267  0.021477646            5 
 1196000   0.77192037   -7.4911529    312.03007  0.021741225  0.021461814            3 
 1197000   0.75635458   -7.4903177     312.0378  0.021723601   0.02144608            3 
 1198000   0.78128892   -7.5276908    311.49719  0.021667862  0.021430322            2 
 1199000   0.77843713   -7.4929998    312.03923  0.021687464  0.021414536            5 
 1200000   0.76231586   -7.5056285    312.49929  0.021701339  0.021398814            6 
 1201000   0.75841582   -7.4935423    311.93149  0.021643873  0.021383162            7 
 1202000   0.77064511   -7.4853599    312.64217  0.021675136  0.021367541            4 
 1203000      0.75952   -7.5129551    312.30282  0.021633612  0.021351844            3 
 1204000   0.78571938   -7.5266088     313.0595  0.021668017  0.021336221            4 
 1205000   0.77637287   -7.5286302    312.25071  0.021594101  0.021320566            6 
 1206000   0.76412623   -7.5267692      311.814   0.02154602   0.02130477            8 
 1207000   0.76829514   -7.5139264    312.77991  0.021594857  0.021289029            3 
 1208000   0.77898301   -7.5214734    312.45183  0.021554348    0.0212733            4 
 1209000   0.75803936   -7.5074351     313.2111  0.021588854  0.021257584            3 
 1210000   0.77364563   -7.5414904    312.67447  0.021534055  0.021241856            6 
 1211000    0.7472011   -7.5133739    311.56388  0.021439848  0.021226151            6 
 1212000   0.76946886   -7.5216896    312.61269  0.021494272  0.021210498            3 
 1213000   0.77283537   -7.5262971    312.65704  0.021479599  0.021194836            3 
 1214000   0.76589838   -7.5013478    313.44164  0.021515763  0.021179236            3 
 1215000    0.7546219   -7.4747514    313.93396  0.021531821  0.021163654            6 
 1216000   0.75855982   -7.5016596     312.5985  0.021422595  0.021148054            7 
 1217000   0.75249675   -7.4973446      313.233  0.021448439  0.021132412            3 
 1218000   0.76412103   -7.5066572    313.24033  0.021431331  0.021116795            3 
 1219000   0.77661348     -7.52849    313.12497  0.021405864  0.021101171            3 
 1220000   0.78551987    -7.508059    313.70218  0.021427744  0.021085601            3 
 1221000   0.77432486   -7.4929124    313.70364  0.021410295  0.021070075            3 
 1222000   0.76758508   -7.4982539    312.98959   0.02134408  0.021054578            5 
 1223000   0.76621405   -7.5178011    313.65077  0.021371679  0.021039037            5 
 1224000   0.76407204   -7.5105904    313.36463  0.021334738  0.021023537            6 
 1225000   0.75626601   -7.5278135    313.02425  0.021294166   0.02100802            4 
 1226000   0.76122034   -7.5429072    313.33594  0.021297984  0.020992484            5 
 1227000   0.77161604   -7.5302206    313.73427  0.021307679  0.020976906            3 
 1228000   0.76047432   -7.5252682    313.25176  0.021257584  0.020961305            6 
 1229000   0.76839051   -7.5329056     312.9027  0.021216619  0.020945702            4 
 1230000    0.7593248   -7.5353069    313.71096   0.02125413  0.020930094            3 
 1231000   0.75673542   -7.5713047    313.49384  0.021222166  0.020914499            2 
 1232000   0.77365338   -7.5331466    313.67817  0.021217409  0.020898877            6 
 1233000   0.75506369   -7.5228687    314.13312  0.021230949  0.020883336            5 
 1234000   0.73292834   -7.5127807     314.2206  0.021219651   0.02086785            2 
 1235000    0.7618462   -7.5554882    313.46963  0.021151797  0.020852346            4 
 1236000   0.75833368   -7.5149286     314.2591  0.021187911  0.020836888            7 
 1237000   0.77486759   -7.5307617    313.82142  0.021141297  0.020821431            4 
 1238000   0.76143996   -7.5337019    313.57149  0.021107397  0.020805987            3 
 1239000   0.76408885   -7.5549936     314.1806  0.021131329  0.020790423            3 
 1240000   0.75195732   -7.5489375    314.09176  0.021108317  0.020774921            5 
 1241000   0.75628796   -7.4990345    314.31536  0.021106323  0.020759524            9 
 1242000   0.74953555   -7.5358344    314.09102  0.021074276  0.020744115            7 
 1243000   0.75028414   -7.5214759    314.50476   0.02108506   0.02072866            3 
 1244000    0.7554796   -7.5327886    313.35548  0.020991123  0.020713168            6 
 1245000   0.75178136   -7.5614598    313.64559  0.020993681  0.020697595            3 
 1246000   0.75788153   -7.5428748    313.94819   0.02099707  0.020682061            3 
 1247000   0.76024633   -7.5433972    313.87586  0.020975398  0.020666679            8 
 1248000   0.75556821   -7.5441202    314.08855  0.020972793  0.020651292            7 
 1249000   0.74327499   -7.5488962    313.74033  0.020932768  0.020635857            1 
 1250000   0.74584126   -7.5297892    314.47352  0.020964901   0.02062045            4 
 1251000   0.75579238    -7.540726    314.89395  0.020976149  0.020605059            3 
 1252000   0.74032524   -7.5455824    314.99265  0.020965965  0.020589669            4 
 1253000    0.7651429   -7.5317823    314.68847  0.020929002  0.020574346            9 
 1254000   0.76348598    -7.539636    314.12678  0.020874985  0.020559022            7 
 1255000   0.76515481    -7.525012    314.71685  0.020897533  0.020543692            3 
 1256000   0.76186747   -7.5518479    314.55051  0.020869858  0.020528341            5 
 1257000   0.73820131   -7.5611478    315.26514  0.020900632  0.020512934            3 
 1258000   0.75815544   -7.5628718    314.65934  0.020843889  0.020497558            3 
 1259000   0.73580924   -7.5502002    314.40401  0.020810432  0.020482155            4 
 1260000   0.74584571   -7.5672194    314.49996  0.020800262  0.020466773            4 
 1261000   0.75617824   -7.5423634     314.5613  0.020787821  0.020451364           11 
 1262000   0.75464815   -7.5559303    314.27198  0.020752244  0.020436089           10 
 1263000   0.74445986   -7.5595903    315.11942  0.020791727  0.020420828            7 
 1264000   0.74762024    -7.568506    314.81001  0.020754879  0.020405577            5 
 1265000   0.73799984   -7.5356029    315.07869  0.020756172  0.020390328            3 
 1266000   0.74528972   -7.5340455    315.21067  0.020748465  0.020375134            4 
 1267000   0.74130867   -7.5348126    315.27223  0.020736137  0.020359978            3 
 1268000   0.74774502   -7.5680661     315.0183  0.020703096  0.020344741            6 
 1269000   0.73681318   -7.5666641    314.50853  0.020653305  0.020329501           16 
 1270000   0.74576977   -7.5739689    314.95286  0.020666198  0.020314205           13 
 1271000   0.74436407   -7.5886182    315.31676  0.020673797  0.020298892            3 
 1272000   0.74328054   -7.5815771    315.33686  0.020658861   0.02028354           12 
 1273000   0.74492487   -7.5720177    315.18347  0.020632591  0.020268263            7 
 1274000   0.74378253   -7.5599437    315.52965  0.020639041  0.020253081            5 
 1275000   0.72603974    -7.559284    316.09182  0.020659596  0.020237857            3 
 1276000   0.73320097   -7.5550824    315.19021  0.020584523  0.020222605            5 
 1277000   0.75109737   -7.5907406    315.00556  0.020556354  0.020207408            4 
 1278000   0.74086984   -7.5731413    315.40437  0.020566274    0.0201922            6 
 1279000   0.72882384   -7.5708998    315.79732  0.020575796   0.02017707            4 
 1280000   0.73771883   -7.5726589    315.67983  0.020552072  0.020162023            3 
 1281000   0.73905227   -7.5530764     316.2811  0.020575143  0.020146992            9 
 1282000   0.72873301   -7.5691845    315.80441  0.020528108  0.020131957            5 
 1283000   0.73690184   -7.5729895    315.87869  0.020516932  0.020116872           12 
 1284000   0.74503134   -7.5385157    315.96946  0.020506844  0.020101778            4 
 1285000   0.72733608   -7.5927125    315.55429  0.020463962  0.020086638            5 
 1286000   0.74898814   -7.5743223    316.04653  0.020479946  0.020071441            5 
 1287000   0.74446555   -7.5987866    316.37578  0.020485352  0.020056334            4 
 1288000   0.75469184   -7.5929158    315.84347  0.020435007  0.020041235            6 
 1289000   0.74843669    -7.588812    315.90482   0.02042312  0.020026095            8 
 1290000   0.73608859   -7.5643145    315.12699  0.020357041   0.02001091            7 
 1291000   0.73078983   -7.5984595    315.08825  0.020338772  0.019995678           10 
 1292000   0.72899962   -7.6036642    314.87965  0.020309575   0.01998041            6 
 1293000   0.74755035   -7.6259672    315.08302  0.020306975   0.01996517            7 
 1294000   0.73501692   -7.5941637    315.75165  0.020334341  0.019950029            5 
 1295000    0.7316703    -7.602181    315.76967  0.020319799  0.019934866            4 
 1296000   0.73649032   -7.5798872    315.82976  0.020307983  0.019919684            5 
 1297000   0.74615617   -7.6104456    315.72342  0.020285493  0.019904579            4 
 1298000   0.72951438   -7.5777801    315.39411  0.020248723  0.019889477            5 
 1299000    0.7201071   -7.5785353    315.61999  0.020247626  0.019874333            4 
 1300000    0.7289781   -7.5651324    316.03918  0.020258922  0.019859205            5 
 1301000   0.73849244   -7.5690782    316.00804  0.020241355  0.019844073            5 
 1302000   0.73091097   -7.6020308    315.50701  0.020193741  0.019828974            3 
 1303000   0.74587545   -7.5871388    316.38553  0.020234429  0.019813946            9 
 1304000   0.73964009   -7.5610786    316.22588  0.020208709  0.019798907            5 
 1305000   0.71444079   -7.6025365     315.9034  0.020172631  0.019783784            4 
 1306000   0.72867202   -7.6063135     316.4699  0.020193332  0.019768711            2 
 1307000   0.70234562   -7.6275482    315.80656  0.020135588  0.019753635            4 
 1308000   0.72602252   -7.6037463    316.25337   0.02014866  0.019738554            4 
 1309000   0.72420103   -7.6150689    316.51712  0.020150058  0.019723508            4 
 1310000    0.7287731   -7.6279546    316.44898  0.020130342  0.019708478            7 
 1311000   0.73131328   -7.5859959    316.65414  0.020128028   0.01969351           12 
 1312000    0.7252212   -7.5918572    316.21684  0.020084911  0.019678549            5 
 1313000   0.73259774   -7.5762826    316.94986  0.020116137  0.019663643            5 
 1314000    0.7242756   -7.6162094    316.55371  0.020075705   0.01964871            3 
 1315000   0.71165048   -7.6126969    316.19583  0.020037758   0.01963373            5 
 1316000   0.71703572   -7.6180586    316.06861  0.020014476  0.019618764            6 
 1317000    0.7279242   -7.5906528    317.03235   0.02006026  0.019603826            3 
 1318000   0.73090035   -7.6125535    316.38037  0.020003817   0.01958891            4 
 1319000   0.72408687   -7.6148258    317.06861  0.020032134  0.019573991            4 
 1320000   0.73784832   -7.5936646    316.62811  0.019989148  0.019559157            9 
 1321000   0.75197186   -7.5900406    317.08352  0.020002745  0.019544382            5 
 1322000   0.73273769    -7.583082    317.18438  0.019993973  0.019529617            4 
 1323000    0.7129989   -7.5864556    317.15675   0.01997712  0.019514792            5 
 1324000   0.73542685   -7.5983784      317.311   0.01997174  0.019500082            6 
 1325000   0.74894938   -7.5929633    317.32503  0.019957549  0.019485386           10 
 1326000   0.72133739   -7.5941488    318.29198  0.020003267   0.01947067            5 
 1327000   0.71586549   -7.6466679    317.32023  0.019927168  0.019455891            4 
 1328000   0.71483628    -7.611814    316.51319   0.01986152  0.019441121            5 
 1329000   0.71739975   -7.6250886    317.03914  0.019879555   0.01942635            7 
 1330000   0.72053619   -7.6377756    317.20421   0.01987495  0.019411541            6 
 1331000   0.72872332   -7.6234138    316.94634  0.019843873  0.019396752            3 
 1332000   0.72774195   -7.6391169    317.30314  0.019851298  0.019381967            5 
 1333000   0.72169947   -7.6116296    317.44439  0.019845236  0.019367188            4 
 1334000   0.70497067   -7.6098114    317.89244  0.019858349  0.019352432            2 
 1335000   0.72912289   -7.6250887    317.14977  0.019797114  0.019337684            5 
 1336000   0.71365762   -7.6162905    316.22011  0.019724308   0.01932293            8 
 1337000   0.72538176   -7.6180167    317.86365  0.019811995  0.019308232            3 
 1338000   0.71270264   -7.6139338    316.71166   0.01972544  0.019293545            4 
 1339000   0.71918923   -7.6004554    316.98809  0.019727912  0.019278778            4 
 1340000   0.71089349   -7.6313701    317.02922  0.019715747  0.019264095            6 
 1341000   0.71834705   -7.6180959    317.64782  0.019739487  0.019249385            6 
 1342000   0.71286291   -7.6259945    317.72507  0.019729575  0.019234721            6 
 1343000    0.7072932   -7.6370128     317.4721  0.019699187  0.019220081            3 
 1344000   0.71726504   -7.6530319    317.43863  0.019682454  0.019205461            7 
 1345000   0.72279054    -7.619836    317.55254  0.019674878  0.019190833            3 
 1346000   0.70599466   -7.6551234    317.37542  0.019649296  0.019176213            4 
 1347000   0.73571579    -7.659638    317.91707  0.019668218  0.019161602            4 
 1348000   0.71024078   -7.6644663    317.50157  0.019627941  0.019146996            2 
 1349000   0.73443385   -7.6737336    318.41346  0.019669722  0.019132377           11 
 1350000   0.72142669    -7.645629    318.05601  0.019633087  0.019117763            5 
 1351000    0.7069029   -7.6404443    318.15401    0.0196246   0.01910323            3 
 1352000   0.71059735   -7.6463379     318.2595  0.019616587  0.019088682            4 
 1353000   0.72604889   -7.6421906    317.77053  0.019571972  0.019074157            9 
 1354000   0.71270106   -7.6413865    317.73587  0.019555383  0.019059589            5 
 1355000   0.70123211   -7.6346842    318.45161   0.01958497  0.019045029            5 
 1356000   0.71274137   -7.6373126     318.2706  0.019559403  0.019030514            5 
 1357000    0.6998152   -7.6487599    317.37354    0.0194899  0.019015959            5 
 1358000   0.70236618   -7.6434206    317.76359  0.019499484  0.019001457            7 
 1359000   0.71313807   -7.6263025    318.32102  0.019519317  0.018986953           10 
 1360000   0.71757128   -7.6363035    318.42815  0.019511529  0.018972462            7 
 1361000   0.72017796   -7.6493983    317.87836   0.01946353  0.018958027            7 
 1362000   0.70881872   -7.6656168    317.34136  0.019416383  0.018943549           11 
 1363000   0.71195438   -7.6404084    317.44208  0.019408296  0.018929071           15 
 1364000   0.71342842   -7.6587995    318.05572  0.019431557  0.018914575           16 
 1365000   0.69522484   -7.6574727    317.69031  0.019395013  0.018900139            9 
 1366000   0.69667089   -7.6520522    317.68165  0.019380286  0.018885611            7 
 1367000   0.70587536   -7.6645403    317.80732   0.01937377   0.01887113            6 
 1368000   0.71468595   -7.6384337    318.50165  0.019401904  0.018856725            4 
 1369000   0.70587386   -7.6319236    318.18396  0.019368393  0.018842375            5 
 1370000   0.71034628   -7.6636032    318.68647  0.019384822  0.018828016            5 
 1371000   0.69591415   -7.6677531    318.47507  0.019357833  0.018813634            3 
 1372000   0.70904429   -7.6488147    318.62121    0.0193526  0.018799316            6 
 1373000   0.70613642    -7.649914     317.8502  0.019291709  0.018784941            3 
 1374000   0.69615702   -7.6497919    317.96265  0.019284488  0.018770568            6 
 1375000    0.7015139   -7.6529989    317.96885   0.01927084  0.018756237            5 
 1376000    0.6984141   -7.6555667    318.76261  0.019304906  0.018741918            6 
 1377000   0.69966932   -7.6521483    318.26586  0.019260824  0.018727604            6 
 1378000   0.70781899    -7.671984    318.42439  0.019256434  0.018713278           11 
 1379000   0.69168336    -7.641008    318.65536  0.019256427  0.018698946            4 
 1380000   0.69890256   -7.6726273    319.21851   0.01927648  0.018684638            5 
 1381000   0.70795454   -7.6533033    318.51705  0.019220194  0.018670376            9 
 1382000   0.71048509   -7.6758809    318.49806  0.019205141  0.018656105            6 
 1383000   0.70490271   -7.7080498    318.88095  0.019214326  0.018641818            4 
 1384000    0.6879642   -7.6617721    318.57487  0.019182013  0.018627577            5 
 1385000   0.69725274   -7.6758813    319.32542  0.019213322  0.018613373            3 
 1386000   0.69393328   -7.6815937    319.58015  0.019214776  0.018599159            5 
 1387000    0.7023549   -7.6561294    319.11717  0.019173106  0.018584932            4 
 1388000   0.70571767   -7.6683484    318.75225  0.019137383  0.018570727            5 
 1389000   0.69508237   -7.6812675    319.03595  0.019140626  0.018556489            3 
 1390000   0.70663389   -7.6726136    318.76536  0.019110633  0.018542234            4 
 1391000   0.68964919   -7.6478793    318.94903  0.019107897  0.018528017            4 
 1392000   0.72504741   -7.6481453    318.74891   0.01908219  0.018513868            4 
 1393000   0.69762772   -7.7012005    318.45845  0.019051115  0.018499678            6 
 1394000   0.68911792   -7.7016833    318.96851   0.01906794  0.018485489           11 
 1395000   0.70269452   -7.6936712    318.22355   0.01900977  0.018471254            3 
 1396000   0.70911145   -7.6651881    319.29962  0.019060388  0.018457019            9 
 1397000   0.70727382   -7.6975678    317.66775  0.018949401  0.018442747            5 
 1398000   0.68760424   -7.6889885    318.20599   0.01896793  0.018428482            3 
 1399000   0.71463451   -7.6987546    318.80312  0.018989941  0.018414272            7 
 1400000   0.68554632   -7.6875877    318.42297  0.018953748   0.01840013            7 
 1401000   0.70109419   -7.6708417    319.17914  0.018985198  0.018386057            4 
 1402000   0.69325359   -7.7135746    319.20836  0.018973393  0.018371935            6 
 1403000   0.67882439   -7.6886738    319.24107  0.018961812  0.018357856            6 
 1404000   0.68868277   -7.7111045      319.506  0.018964031  0.018343873            4 
 1405000   0.67168056   -7.6924549    319.45251  0.018947361   0.01832989            7 
 1406000   0.69285377   -7.6811593    319.63206  0.018944527  0.018315915            6 
 1407000   0.69664482   -7.7037868    319.40885  0.018917843  0.018301916            4 
 1408000   0.68934088   -7.7159734    319.93049   0.01893528  0.018287924            5 
 1409000   0.69812553     -7.69698    319.70241  0.018908351  0.018273966            7 
 1410000   0.70391443   -7.6984263    319.20642  0.018865628  0.018259996            9 
 1411000   0.68406032   -7.6926328    318.57127  0.018814745  0.018245957            9 
 1412000   0.69879195   -7.7102301    318.84026  0.018817296  0.018231939            6 
 1413000   0.71155511   -7.6999933    319.24019  0.018827565  0.018217936           13 
 1414000   0.70745572   -7.6817713    319.51244  0.018830295  0.018203984           11 
 1415000   0.67958594   -7.7062141     319.5845  0.018821231   0.01819005            5 
 1416000   0.67703543   -7.6982912     319.4905  0.018802407  0.018176074            4 
 1417000    0.6867611   -7.7196167    318.86524  0.018752367  0.018162093            7 
 1418000   0.69313399   -7.7035914    319.60358  0.018782533  0.018148116            5 
 1419000   0.66681176   -7.7025028    319.55915  0.018766687  0.018134169            4 
 1420000   0.68371283   -7.6753206    319.71217  0.018762451  0.018120231            3 
 1421000   0.68501268    -7.706568    319.54459   0.01873942  0.018106302            3 
 1422000    0.6829182   -7.7320888    319.00364  0.018694541  0.018092357            4 
 1423000   0.68022975   -7.7132531    319.73056  0.018723973  0.018078466            6 
 1424000   0.68242622   -7.7391353     318.9003  0.018662237  0.018064524            5 
 1425000   0.69731936   -7.7097317    319.26873  0.018670686  0.018050596            8 
 1426000   0.68654757    -7.720192    319.60381  0.018677175  0.018036658            5 
 1427000   0.68581609   -7.7271185    319.59965  0.018663843  0.018022784            4 
 1428000    0.6657524   -7.6988084    319.55354  0.018648082  0.018008944            5 
 1429000   0.68254403   -7.7050179    319.14436  0.018611171  0.017995119            4 
 1430000   0.67153331   -7.7112285    319.08434  0.018594659  0.017981229            3 
 1431000   0.67943174   -7.7148353    318.67878  0.018558047  0.017967332            4 
 1432000   0.67695405   -7.7016513     319.4556  0.018590293   0.01795345            3 
 1433000   0.67824753   -7.7206377    319.00194  0.018550939  0.017939571            4 
 1434000   0.69762904   -7.7027746     320.3542  0.018616586  0.017925702            5 
 1435000   0.67116547   -7.7002431    319.50233  0.018554142  0.017911863            7 
 1436000   0.67702192   -7.7226756    319.18744  0.018522948  0.017898006            5 
 1437000   0.67127046   -7.7222436    319.35809  0.018519954  0.017884169            4 
 1438000   0.66497378   -7.7507623    319.67506  0.018525444  0.017870279            4 
 1439000   0.68865427    -7.713337    319.53381   0.01850439  0.017856426            5 
 1440000   0.67954077   -7.7154375     319.1424  0.018468889  0.017842602           12 
 1441000   0.67832865   -7.7263718    319.27449  0.018463711  0.017828748            9 
 1442000   0.67147039   -7.7371575    319.14296  0.018443305  0.017814909            6 
 1443000   0.68032625   -7.7281117    319.41557  0.018446268    0.0178011           10 
 1444000   0.70098275   -7.7190588    319.74924  0.018452749  0.017787308            8 
 1445000   0.68741421   -7.7236984    319.83591  0.018444977  0.017773527            6 
 1446000   0.67733787   -7.7432099    319.37439  0.018405624  0.017759728            6 
 1447000   0.67044304   -7.7350031    319.38022   0.01839324  0.017745916            4 
 1448000   0.66511593    -7.727103    319.20231  0.018370299  0.017732123            9 
 1449000   0.66965728   -7.7268121    318.85786  0.018337811  0.017718361           12 
 1450000   0.67814801   -7.7383463    319.56015  0.018365526  0.017704567            8 
 1451000   0.67491409    -7.724469    319.35255  0.018340946  0.017690865            4 
 1452000   0.68256069   -7.7273039    319.64987  0.018345378  0.017677153           14 
 1453000   0.68389341   -7.7293726    320.04737   0.01835555  0.017663446            9 
 1454000   0.66845761   -7.7344104     320.0003  0.018340228  0.017649753           11 
 1455000   0.67950572   -7.7384669    319.20203  0.018281903  0.017636112            8 
 1456000   0.67494441   -7.7291978    319.11913  0.018264602  0.017622424            4 
 1457000   0.68468708   -7.7600923    319.08275  0.018249986  0.017608723            5 
 1458000   0.65851079   -7.7331897    319.40112  0.018255665  0.017595003            7 
 1459000   0.67154597     -7.76233     319.3912  0.018242586  0.017581305            9 
 1460000   0.68380027   -7.7765279    319.21112  0.018219813  0.017567606            7 
 1461000    0.6908007   -7.7321498    319.10146  0.018201087  0.017553902            7 
 1462000   0.65613282   -7.7700209    320.06599  0.018243616  0.017540219            9 
 1463000   0.66053141   -7.7538694    319.86993  0.018219978  0.017526546            9 
 1464000   0.67213847   -7.7425419    319.52638  0.018187977  0.017512918           10 
 1465000   0.66652705   -7.7553036    319.22423  0.018158375  0.017499288            7 
 1466000   0.66404812   -7.7552898    319.40741  0.018156401  0.017485598           14 
 1467000   0.67002119   -7.7533097    318.83062   0.01811126  0.017471933            7 
 1468000   0.65988851   -7.7579103    319.62869  0.018144227  0.017458303           19 
 1469000   0.64999362   -7.7334357    319.58703  0.018129512  0.017444671           14 
 1470000   0.66214029   -7.7597403    319.29123   0.01810041  0.017431073           15 
 1471000   0.66384479   -7.7747003    319.96357  0.018126194  0.017417475           11 
 1472000   0.66800196   -7.7817356     319.3793  0.018080803  0.017403893           11 
 1473000   0.65219238   -7.7634143    319.47137  0.018073737  0.017390275            6 
 1474000   0.66430038   -7.7496691    318.99088   0.01803431  0.017376652            8 
 1475000   0.67271039   -7.7407123    319.59303  0.018056103  0.017363062            7 
 1476000   0.65802877   -7.7711607    319.09297  0.018015637  0.017349457            6 
 1477000   0.65641739   -7.7757999    319.19869  0.018009405  0.017335862            9 
 1478000   0.66010295   -7.7536719    319.33705  0.018005021  0.017322267            6 
 1479000   0.66312633   -7.7253649    319.31517  0.017991614  0.017308722            6 
 1480000   0.66173157   -7.7601297     319.8813  0.018011335  0.017295175            5 
 1481000   0.66062058   -7.7580382    318.55029  0.017924279   0.01728162            4 
 1482000   0.67126963   -7.7680092    319.13292  0.017944946  0.017268042            4 
 1483000   0.65518223   -7.7654909    319.85115  0.017973205  0.017254462            8 
 1484000    0.6576621   -7.7951256    319.67973  0.017951467  0.017240917            5 
 1485000   0.66785115   -7.7850015    319.44932  0.017926449  0.017227372            5 
 1486000    0.6644326    -7.802556    319.14416  0.017897272  0.017213836            3 
 1487000   0.66086111   -7.7680323    319.91971  0.017928699  0.017200296            2 
 1488000   0.66128419   -7.7908773    318.91829  0.017860567  0.017186808           12 
 1489000   0.64842729   -7.8052031    319.15434  0.017861783  0.017173311            5 
 1490000    0.6599975   -7.7721124    318.96397  0.017839148  0.017159804            4 
 1491000   0.66989757   -7.7744852    319.94424  0.017881972  0.017146318            7 
 1492000   0.67065219   -7.7923066    319.41961  0.017840684  0.017132839            7 
 1493000   0.64978978   -7.7933881    318.73866  0.017790727  0.017119366           11 
 1494000   0.65683089   -7.7451213    319.46274  0.017819207  0.017105927            6 
 1495000   0.66095529   -7.7693284    319.72463  0.017821886  0.017092474            4 
 1496000     0.670183   -7.7823045    319.63594  0.017805032  0.017079034            3 
 1497000   0.65101017   -7.8000187    319.89591   0.01780761  0.017065602            7 
 1498000   0.64444349   -7.8122218     319.8705  0.017794309  0.017052177            5 
 1499000   0.63684884   -7.8026641    319.39214  0.017755845  0.017038733            7 
 1500000    0.6606579   -7.8099263    319.09394  0.017727441  0.017025262            8 
 1501000   0.65497112   -7.7798363    319.50577  0.017738495  0.017011774            6 
 1502000   0.66868779   -7.7924627    319.28498  0.017714435  0.016998325            5 
 1503000   0.64575671    -7.795276    319.30947  0.017704007  0.016984897           10 
 1504000   0.64064165   -7.8117837    318.89493  0.017669267   0.01697147           15 
 1505000   0.65578724   -7.7809629    319.06813  0.017667117  0.016958066           12 
 1506000   0.65326846   -7.8142951    319.65628  0.017687931  0.016944684           13 
 1507000   0.66504768    -7.801357    319.21436  0.017651756  0.016931319            7 
 1508000   0.65194148   -7.7876901    319.64291  0.017663733  0.016917937            7 
 1509000   0.65558891   -7.8181127    319.86396  0.017664234  0.016904592           11 
 1510000   0.65833936   -7.8035764    318.91087  0.017599937  0.016891223            4 
 1511000    0.6477761   -7.7957533    319.27788  0.017608531  0.016877877           15 
 1512000   0.64868856   -7.8034255    318.86726  0.017574254  0.016864571            5 
 1513000   0.63710505   -7.8021624    319.27074  0.017584861  0.016851227            7 
 1514000   0.64109408   -7.8161048    319.34214  0.017577176  0.016837936            9 
 1515000   0.64535727   -7.7891276    319.48781  0.017573587  0.016824661            8 
 1516000   0.65168197   -7.7837212     318.8375  0.017526248  0.016811381            6 
 1517000   0.65356622   -7.7993902    319.45101  0.017548397  0.016798108           11 
 1518000   0.63428917    -7.798246    319.81102    0.0175566  0.016784847           10 
 1519000   0.64097071   -7.8165129     319.6639  0.017536971  0.016771584            7 
 1520000   0.65163422   -7.7859572    319.08258  0.017493563  0.016758361            7 
 1521000   0.65365288   -7.7810153     319.4657  0.017503051  0.016745132            5 
 1522000   0.65059073   -7.7951241    319.28571  0.017481697  0.016731901            6 
 1523000   0.64194044   -7.8044501    319.17834  0.017464343  0.016718672            8 
 1524000    0.6266828   -7.7995198    319.70381  0.017481617  0.016705474            9 
 1525000   0.64756586   -7.8139428    319.57986   0.01746338  0.016692292            7 
 1526000   0.64099569   -7.8063554    318.93373  0.017416652   0.01667908            5 
 1527000   0.64826672    -7.808521    319.49367  0.017435804  0.016665875           13 
 1528000   0.64717517   -7.8628126    319.16541   0.01740649  0.016652648           14 
 1529000   0.63582847   -7.8021569    319.17312  0.017395526  0.016639463           13 
 1530000   0.63541702   -7.8090427    319.06691  0.017378372   0.01662629           10 
 1531000   0.65488528    -7.838203    319.44141  0.017387405   0.01661312            7 
 1532000   0.64152822   -7.8296467    319.66726  0.017388341  0.016599947            7 
 1533000   0.64474862   -7.8288356    319.66407  0.017376825  0.016586789            7 
 1534000   0.63621733   -7.8060841     319.7756  0.017371556  0.016573655           10 
 1535000    0.6161252   -7.8204184    319.74511  0.017358584  0.016560544            9 
 1536000   0.63843795   -7.8045389    319.92748  0.017357177  0.016547476            7 
 1537000   0.64213045   -7.8145911    319.66781  0.017331805  0.016534402            9 
 1538000   0.63654291   -7.7991296    319.75777   0.01732541  0.016521324           10 
 1539000   0.64365777   -7.8077491    319.23753  0.017285983  0.016508236            4 
 1540000    0.6237769   -7.8406287    318.99009  0.017261369  0.016495178            6 
 1541000   0.64531568   -7.8015142    319.08258  0.017255169   0.01648211            6 
 1542000   0.65521567   -7.8130108    319.22675   0.01725177  0.016469027            5 
 1543000   0.62837063   -7.8348925    319.57745  0.017259529  0.016455972            6 
 1544000   0.63794455   -7.8121703    319.84914  0.017263015  0.016442955            3 
 1545000   0.64328143   -7.8567524     319.2434  0.017219169   0.01642993            5 
 1546000   0.64252655   -7.8398245    319.26235  0.017209053  0.016416898            6 
 1547000   0.63718496   -7.8209307    319.53966  0.017212867  0.016403908            5 
 1548000   0.63793688    -7.820179    319.59306  0.017204622  0.016390899            7 
 1549000   0.63126361   -7.8235921    319.53913  0.017190614  0.016377873            7 
 1550000   0.63210598   -7.8206244     319.3321  0.017168392   0.01636485            8 
 1551000   0.63554701   -7.8285972    319.91574  0.017188681  0.016351859           11 
 1552000   0.63385919   -7.8381448    318.90461  0.017123314  0.016338865            5 
 1553000   0.62828462   -7.8239769    319.51254   0.01714491  0.016325898            9 
 1554000   0.62818159   -7.8248971    319.58215   0.01713761  0.016312952            6 
 1555000   0.65039626   -7.8340284    319.48287  0.017121269  0.016299985            5 
 1556000   0.64124928   -7.8493039    319.80069  0.017127286  0.016287012            6 
 1557000    0.6397997   -7.8281518    319.84605  0.017118714  0.016274041            9 
 1558000   0.63687481   -7.8339545    319.63924  0.017096664  0.016261111            9 
 1559000   0.62344456   -7.8307756    318.55679  0.017027838  0.016248174            9 
 1560000   0.63419484   -7.8362627    319.87811  0.017087506  0.016235224            3 
 1561000   0.64620529   -7.8470546    320.03075  0.017084708   0.01622232            6 
 1562000    0.6362956     -7.85434    319.70327  0.017056299  0.016209404            8 
 1563000    0.6259317   -7.8499738     319.7678  0.017048827  0.016196475            5 
 1564000   0.62246968   -7.8263165    320.18428  0.017060117   0.01618355            9 
 1565000   0.61580364   -7.8572237    319.77209  0.017027268  0.016170662            5 
 1566000   0.61195586   -7.8253492    319.21838  0.016986929  0.016157759            8 
 1567000   0.63039274   -7.8381542    319.29774   0.01698031  0.016144874            8 
 1568000   0.61035314   -7.8691017    318.98741  0.016952987  0.016131979            5 
 1569000   0.61271975   -7.8523012      319.174  0.016952093  0.016119085           10 
 1570000   0.63078251   -7.8303292    319.94383  0.016982156  0.016106224            6 
 1571000   0.63671554   -7.8689415     319.3767  0.016941264  0.016093372            4 
 1572000   0.63111332   -7.8401624    319.46188  0.016935002  0.016080542            3 
 1573000   0.63382777   -7.8650845    319.59946  0.016931525  0.016067739            9 
 1574000   0.62511838   -7.8557215    318.51949   0.01686359  0.016054916            5 
 1575000   0.62135899     -7.83235     319.5079   0.01690518   0.01604209            7 
 1576000   0.62810577   -7.8623348    318.13321  0.016821765   0.01602928           13 
 1577000   0.62983935   -7.8523515    319.29504  0.016872492  0.016016477            4 
 1578000   0.62426035   -7.8405687    318.88955  0.016840386  0.016003706            6 
 1579000   0.62153911   -7.8789832    319.02761  0.016837007  0.015990947            5 
 1580000   0.61768155   -7.8332539    319.30034  0.016840735  0.015978164            8 
 1581000   0.61889638     -7.84764    319.44965  0.016837953  0.015965391            8 
 1582000   0.61999461   -7.8613405    318.77558  0.016791803  0.015952632            5 
 1583000   0.61870825   -7.8652702    319.10695  0.016798639   0.01593986            8 
 1584000   0.62411624   -7.8613487    318.88044  0.016776117  0.015927139           10 
 1585000   0.62831251   -7.8603536    319.44922  0.016795437  0.015914434            4 
 1586000   0.61039867   -7.8700273    318.89521  0.016755738  0.015901748            4 
 1587000   0.62187068   -7.8513837    319.49603  0.016776729  0.015889068            7 
 1588000   0.62002677   -7.8578683     319.1631  0.016748694  0.015876386            6 
 1589000   0.62589777     -7.85075    319.22713  0.016741511  0.015863704            6 
 1590000   0.63479113   -7.8493476     319.0357  0.016720949  0.015851068            7 
 1591000   0.62093494   -7.8360149    319.25881  0.016722125  0.015838425            5 
 1592000   0.60547145   -7.8525948    318.89608  0.016692634  0.015825791            6 
 1593000   0.62513036   -7.8537616    319.81507   0.01673023  0.015813177            4 
 1594000   0.63345186   -7.8786703    318.98637   0.01667641  0.015800531            9 
 1595000   0.60685571   -7.8685922    319.48499  0.016692006  0.015787924            9 
 1596000   0.61979563   -7.8531669    319.07935  0.016660367   0.01577533            4 
 1597000    0.6139664   -7.8724031    319.57413  0.016675753  0.015762739            9 
 1598000   0.62137931    -7.857956    319.10911  0.016641068  0.015750167           13 
 1599000   0.62386075   -7.8680923    318.76581  0.016612769  0.015737597           14 
 1600000   0.61192732   -7.8837788    318.99953  0.016614559   0.01572501           12 
 1601000    0.6088361   -7.8731145    319.42491  0.016626323  0.015712455            9 
 1602000    0.6171373   -7.8705787    319.09362  0.016598711  0.015699919           13 
 1603000   0.60007229   -7.8754575    318.82524  0.016574404  0.015687368           14 
 1604000   0.60590694   -7.8687221    319.21157  0.016584142  0.015674828           14 
 1605000   0.62385997   -7.8780661    319.06357  0.016566125  0.015662289           12 
 1606000   0.62922344   -7.8869149    319.39382  0.016572946  0.015649768           12 
 1607000   0.60121925   -7.8997102    318.85967  0.016534934  0.015637258            8 
 1608000   0.61992527   -7.8903022    318.98631  0.016531214  0.015624758            7 
 1609000   0.61732283   -7.8994001    319.11837  0.016527779  0.015612281            6 
 1610000   0.61708642   -7.8858949    319.11724  0.016517456  0.015599836            4 
 1611000   0.60393022   -7.8511195    319.56117  0.016530166  0.015587419            9 
 1612000   0.60686273   -7.8760287    319.30721  0.016506783  0.015574973            5 
 1613000    0.6161923    -7.890389    319.00485  0.016480929  0.015562537            7 
 1614000   0.60914423   -7.8735074    318.98197  0.016469536  0.015550081            6 
 1615000   0.60850629    -7.892862    319.00211  0.016460377   0.01553764            6 
 1616000   0.60802619   -7.8873286    318.68271  0.016433721  0.015525203           13 
 1617000    0.6133484   -7.8994923    319.09764  0.016444941  0.015512767           13 
 1618000   0.61665884   -7.8817485    319.06582  0.016433139  0.015500381            6 
 1619000   0.60781958   -7.8975353    319.05261  0.016422309  0.015487991            7 
 1620000   0.59390192   -7.8932497    319.61889  0.016441301  0.015475596            9 
 1621000    0.6158499   -7.8987018    319.15234  0.016407174   0.01546317            5 
 1622000   0.61756663    -7.893635    318.33314   0.01635497  0.015450758            3 
 1623000   0.61241207   -7.8857663    319.20055  0.016389431  0.015438365            4 
 1624000   0.60410502   -7.8966962    318.76599   0.01635704   0.01542598            3 
 1625000   0.60782138   -7.9085669    318.61225   0.01633909  0.015413593            8 
 1626000    0.6180701   -7.8927826    319.45879  0.016372427  0.015401244            4 
 1627000   0.59688815   -7.8983085    319.18824  0.016348506  0.015388909            4 
 1628000   0.60398297   -7.8976849    318.98007  0.016327808  0.015376593            7 
 1629000   0.60082247   -7.9217109    318.78594  0.016307854    0.0153643            5 
 1630000   0.59160242   -7.9067017    318.62839  0.016289795  0.015351994            3 
 1631000   0.59319118   -7.8822499    319.34376  0.016316358  0.015339699            3 
 1632000   0.60935635   -7.9061757      319.448  0.016311683   0.01532742            5 
 1633000   0.60705899   -7.9128172    318.54195  0.016255458  0.015315137           10 
 1634000   0.61377054   -7.9069887    319.08213  0.016273058  0.015302887            4 
 1635000   0.60538041   -7.9002486    318.77284  0.016247342  0.015290648            2 
 1636000   0.61919577   -7.9006997    319.51174  0.016275048  0.015278396            3 
 1637000   0.59184119   -7.9306273    318.71233  0.016224411  0.015266159            3 
 1638000   0.59986777   -7.9087782    318.95489  0.016226846  0.015253898            5 
 1639000   0.59345882    -7.893498    318.73944  0.016205991  0.015241647            4 
 1640000   0.60303103   -7.9013281    318.87157  0.016202824  0.015229416            4 
 1641000   0.59758783   -7.9142181    318.38845  0.016168416    0.0152172            5 
 1642000   0.59250589   -7.8935043    318.42006  0.016160174  0.015205026            4 
 1643000   0.59663387   -7.9011356    318.18958  0.016138648  0.015192834            8 
 1644000   0.59302694   -7.9175925    318.59367  0.016149314  0.015180655            5 
 1645000   0.58600925   -7.9189444    318.82587   0.01615126  0.015168465            4 
 1646000   0.59831943   -7.9147617    319.30586  0.016165748  0.015156301            6 
 1647000   0.58327568   -7.9272678    318.11603  0.016095731  0.015144123            6 
 1648000   0.60584648   -7.9071686    319.18762   0.01614015   0.01513197            4 
 1649000   0.60775405   -7.9291904    318.11908  0.016076363  0.015119823            4 
 1650000   0.59444025   -7.8901863    318.92036  0.016107089  0.015107671            5 
 1651000    0.5943409   -7.9172599    318.49045  0.016075633  0.015095567            4 
 1652000   0.59745682   -7.9230656    318.44818   0.01606377  0.015083452            3 
 1653000   0.59901578    -7.912261     319.5818  0.016111202   0.01507136            4 
 1654000    0.6014188   -7.9225959    318.71173  0.016057625  0.015059265            5 
 1655000   0.58371127   -7.9012108    318.41847  0.016033156  0.015047167            4 
 1656000   0.60418347   -7.9178358    318.23552  0.016014267  0.015035107            4 
 1657000   0.57542207   -7.9257368    319.04897  0.016045513  0.015023076            3 
 1658000   0.59643215   -7.9358587    318.73834  0.016020222  0.015011035            8 
 1659000    0.5862078    -7.938978    318.63282  0.016005265  0.014999003            5 
 1660000    0.5945666   -7.9200887    319.43595  0.016035941  0.014986984            7 
 1661000   0.59327273   -7.9032426    318.57049  0.015982866  0.014974964            8 
 1662000   0.59286382   -7.9279238    318.73556  0.015981526  0.014962945            5 
 1663000   0.59259316   -7.9321238    318.63854  0.015967055  0.014950937            6 
 1664000   0.59106831   -7.9367927    318.60174  0.015955616   0.01493893            5 
 1665000   0.60816792   -7.9438947    318.32027  0.015931946  0.014926943            7 
 1666000   0.59625219   -7.9430293    318.54686  0.015933717  0.014914962           10 
 1667000   0.58938993   -7.9293289    318.51821  0.015922726  0.014903012            4 
 1668000   0.58602348   -7.9426545    318.44792  0.015909668  0.014891048           12 
 1669000   0.59203578   -7.9445083    318.78901  0.015917166  0.014879094            6 
 1670000    0.5816384   -7.9408004    318.24477  0.015880477  0.014867117            8 
 1671000   0.59175567   -7.9309675     317.8951  0.015853536   0.01485516            7 
 1672000   0.59248487   -7.9643778    318.33932  0.015866194  0.014843203            5 
 1673000   0.58023057   -7.9084622    318.27482  0.015853498  0.014831279            6 
 1674000   0.59544102   -7.9290952    319.18685  0.015889429   0.01481938            5 
 1675000   0.58935927   -7.9508761    318.88159  0.015864755  0.014807478            6 
 1676000   0.57536345   -7.9349621    318.41458   0.01583207  0.014795585            8 
 1677000    0.5827001   -7.9584049    318.58195  0.015830946  0.014783687            4 
 1678000   0.58438214   -7.9402103    318.29949  0.015807484  0.014771795            6 
 1679000   0.58106531   -7.9417129    318.37934  0.015802032  0.014759931            6 
 1680000   0.58156649   -7.9505789    318.36053  0.015791693  0.014748076           11 
 1681000   0.57584998    -7.952179    318.62156  0.015795239  0.014736217            4 
 1682000    0.5667907   -7.9558554    318.91874  0.015800572  0.014724365            4 
 1683000   0.58806456   -7.9743095    318.54511  0.015772683   0.01471252            7 
 1684000   0.56778597   -7.9548314    317.97017  0.015734866  0.014700673            4 
 1685000   0.59049369   -7.9513281    318.49894  0.015751678  0.014688838            3 
 1686000   0.59860196   -7.9276077     318.6109   0.01574787  0.014677022            7 
 1687000   0.59081527   -7.9539902     317.9326  0.015705029  0.014665217            5 
 1688000   0.58743776   -7.9660049    318.35358  0.015716508   0.01465342            4 
 1689000    0.5685014   -7.9509757    318.66402  0.015722519  0.014641632            6 
 1690000   0.58461991   -7.9575274     317.8846  0.015674783  0.014629857            4 
 1691000   0.58466861   -7.9559572    318.50867  0.015696268  0.014618098            3 
 1692000   0.57920106   -7.9534836    317.55785  0.015640162   0.01460633            3 
 1693000   0.56673889   -7.9501574    318.31549  0.015668217  0.014594576            4 
 1694000   0.57018851   -7.9506105    318.82423  0.015683994   0.01458282            4 
 1695000   0.57221262   -7.9388333    318.33529  0.015650703  0.014571088            4 
 1696000   0.57062944   -7.9567822    318.74099  0.015661409  0.014559359            9 
 1697000   0.58423984   -7.9578357    318.26616  0.015628863  0.014547649           11 
 1698000   0.57942622   -7.9450892    318.22615  0.015617695   0.01453594            7 
 1699000    0.5786238   -7.9483716    318.24124  0.015609243  0.014524229           12 
 1700000    0.5668016   -7.9558134    318.07592  0.015591957  0.014512541            5 
 1701000   0.56815213    -7.954957    318.10323  0.015584129  0.014500842            4 
 1702000   0.56253664   -7.9635088    318.10656  0.015575135  0.014489171            6 
 1703000   0.57495402   -7.9668984    317.52254  0.015537412  0.014477512            8 
 1704000   0.56976041   -7.9653705    318.12409  0.015557712   0.01446584           11 
 1705000   0.57016039   -7.9745936    317.66265  0.015526034  0.014454199            3 
 1706000   0.56526585   -7.9699514    318.18355  0.015542377  0.014442561            6 
 1707000   0.57835244   -7.9751512    318.29205  0.015538569  0.014430914            6 
 1708000    0.5739769   -7.9793366     317.6864  0.015499922  0.014419289            5 
 1709000    0.5674174   -7.9715829    318.07552  0.015509827  0.014407666            6 
 1710000   0.58163432   -7.9538239     318.2093  0.015507276  0.014396058            9 
 1711000   0.57492304   -7.9775705    318.30574  0.015502909  0.014384468            6 
 1712000   0.56982178    -7.973519    317.92403  0.015475274  0.014372876            4 
 1713000   0.56643402    -7.964001    317.93886  0.015466962  0.014361286            5 
 1714000   0.57138241   -7.9979131    317.95858  0.015458896  0.014349711            2 
 1715000   0.56847854   -7.9735434    318.16424  0.015459876  0.014338171            5 
 1716000   0.57307918   -7.9659945    318.04524  0.015445088  0.014326643            4 
 1717000    0.5683488    -7.974748    317.62273  0.015415586  0.014315124            5 
 1718000   0.57040714   -7.9672117    318.34556  0.015441674  0.014303625            3 
 1719000   0.56292866   -7.9934487     317.7224  0.015402482  0.014292141            5 
 1720000   0.57136537    -7.961033    318.49622  0.015431018  0.014280641            8 
 1721000   0.56534098   -7.9793098    317.86388  0.015391433  0.014269168            6 
 1722000    0.5607078   -7.9586949    318.36769  0.015406876  0.014257713            7 
 1723000   0.55514896   -7.9572127    317.91976   0.01537627  0.014246247           13 
 1724000   0.56360659   -7.9725546    318.31568  0.015386489  0.014234804            6 
 1725000   0.55771407   -7.9597345    318.07769  0.015366072   0.01422338            3 
 1726000    0.5628099   -7.9651497    318.23375  0.015364704  0.014211976            4 
 1727000    0.5631172   -7.9764803    317.98873  0.015343984  0.014200568            5 
 1728000   0.56796514   -7.9602145    318.19905  0.015345248  0.014189176            7 
 1729000      0.55799   -7.9743523    318.26466  0.015339535  0.014177785            7 
 1730000   0.53841535   -7.9648908    317.65853   0.01530147  0.014166394            6 
 1731000   0.57341433   -7.9798357    317.29489  0.015275125  0.014154993            7 
 1732000   0.57858948   -7.9932536    317.76636  0.015288989  0.014143615            3 
 1733000   0.55728707   -7.9666741    317.41043  0.015263052  0.014132248            6 
 1734000    0.5589375   -7.9677172    318.32848   0.01529837  0.014120876           10 
 1735000   0.56403729   -7.9809213    318.08233   0.01527773  0.014109529            5 
 1736000   0.56111279   -7.9883393    317.90413  0.015260375  0.014098189            7 
 1737000    0.5494278   -7.9732234    318.26303  0.015268808  0.014086866            8 
 1738000   0.55983787   -7.9758348    318.36284  0.015264808  0.014075544            9 
 1739000   0.54757181   -7.9842351    317.66705  0.015222688  0.014064226           10 
 1740000   0.56176886   -7.9955603    317.90515  0.015225342  0.014052927            5 
 1741000   0.55994304   -7.9783379     318.3542  0.015238091   0.01404163           17 
 1742000   0.55480834   -8.0011211    317.71774  0.015198897  0.014030356            4 
 1743000   0.55730451   -7.9864764    317.82176   0.01519515  0.014019102            9 
 1744000    0.5475088   -7.9737202    317.78749    0.0151848  0.014007849            6 
 1745000   0.55732032   -7.9876729    317.83196  0.015178221  0.013996597           11 
 1746000   0.55463078   -7.9873433    317.70882  0.015163651  0.013985354            9 
 1747000   0.55750804   -7.9838214    318.09622   0.01517345  0.013974124            7 
 1748000   0.57047933   -7.9780387    317.83522  0.015152327   0.01396291            6 
 1749000   0.55691753   -7.9998361    318.10045  0.015156301  0.013951701           10 
 1750000   0.55701394   -7.9811539    317.67621  0.015127439  0.013940494            6 
 1751000   0.55177619   -7.9805061     317.5939  0.015114882  0.013929299           11 
 1752000   0.54614396   -7.9725646    317.95232  0.015123303  0.013918123            6 
 1753000   0.56165648   -8.0054197    317.96154  0.015115114  0.013906952            7 
 1754000   0.54916993   -8.0040206    317.82655  0.015100083  0.013895786            8 
 1755000   0.57701464   -7.9884003    318.01553  0.015100452  0.013884628           10 
 1756000    0.5591699    -7.984875     317.9211  0.015087372  0.013873488           12 
 1757000   0.55448973   -7.9940962    317.67648  0.015067183  0.013862344           14 
 1758000   0.54551711   -7.9968985     317.7268  0.015060998  0.013851208            7 
 1759000   0.56090051   -7.9921012     317.6522  0.015048901  0.013840064           12 
 1760000   0.55233593   -7.9960978    317.55842   0.01503591  0.013828938           11 
 1761000    0.5485595   -8.0008152    317.48717     0.015024  0.013817813           10 
 1762000    0.5622088   -7.9936777    317.59249  0.015020455  0.013806712            5 
 1763000   0.54498035   -8.0089906    317.40516   0.01500308  0.013795618            8 
 1764000   0.55293517   -8.0099442    317.41091  0.014994846  0.013784526            5 
 1765000   0.54831217   -7.9982756    317.11228  0.014972251  0.013773437            6 
 1766000   0.54546127   -8.0093577    318.03808  0.015007459  0.013762372            5 
 1767000   0.53919682   -8.0112825    317.44434  0.014970965  0.013751317            8 
 1768000   0.54163746   -8.0044545    317.47486  0.014963936   0.01374027            4 
 1769000   0.55104029   -8.0070714    317.53213  0.014958175  0.013729231            5 
 1770000   0.55643209   -8.0333388      317.349  0.014941102  0.013718201           11 
 1771000   0.54507016   -8.0119923    317.89768  0.014958483   0.01370718            7 
 1772000   0.54938441   -8.0019523    317.38814  0.014926079  0.013696166            6 
 1773000   0.55745881   -8.0011641    317.07436  0.014902912  0.013685165           10 
 1774000   0.56356986    -8.003586    316.98501  0.014890314  0.013674168            7 
 1775000   0.54671547   -8.0118466    316.90414  0.014878128  0.013663171            8 
 1776000    0.5350765   -8.0012945    317.13362  0.014880519   0.01365219            7 
 1777000   0.53769829   -8.0213934    317.27438  0.014878746  0.013641226           10 
 1778000   0.55432908   -8.0121257    317.88914  0.014899191  0.013630264            7 
 1779000   0.53714832   -7.9768099    317.74469  0.014884049  0.013619323            5 
 1780000    0.5444075   -8.0017136    317.29723  0.014854739  0.013608406            4 
 1781000    0.5375973   -8.0099881    317.33572  0.014848199  0.013597482            5 
 1782000   0.55556064    -8.017722    317.03482  0.014825796  0.013586562            8 
 1783000   0.52804467   -8.0278724    317.61355  0.014844529  0.013575648            5 
 1784000   0.54398671   -8.0181585    317.25743  0.014819574  0.013564753            5 
 1785000    0.5464275   -8.0351347    317.28118   0.01481238  0.013553866           10 
 1786000   0.53473226   -8.0091591    317.54713  0.014816495  0.013542981            5 
 1787000   0.53734505   -8.0211937    317.70087  0.014815374  0.013532115            8 
 1788000   0.54149869   -8.0057254    316.92826  0.014771078  0.013521255           11 
 1789000   0.54240457   -8.0333452    317.23893  0.014777293    0.0135104            6 
 1790000   0.53994045   -8.0125769    316.60639   0.01473959  0.013499545           11 
 1791000   0.52194256   -8.0196057    316.34414  0.014719158  0.013488698            4 
 1792000   0.52800915   -8.0451398    317.22007  0.014751677  0.013477867           14 
 1793000   0.54245585   -8.0379868    317.20101  0.014742564  0.013467052            7 
 1794000   0.54065985    -8.033251    317.53626  0.014749919  0.013456249            9 
 1795000   0.52891687   -8.0381075    317.41152  0.014735911  0.013445456            4 
 1796000   0.54370445   -8.0208531    316.92479  0.014705122  0.013434662            6 
 1797000   0.53071952    -8.031826    317.09493  0.014704829  0.013423884            5 
 1798000   0.54069392   -8.0220137    317.27609  0.014705047  0.013413109            6 
 1799000   0.54763402   -8.0352827    316.82113  0.014675798  0.013402347           14 
 1800000   0.53558476   -8.0107959    317.35961  0.014692575  0.013391593            8 
 1801000   0.53131219   -8.0226225    317.21729  0.014677831  0.013380857            6 
 1802000   0.52697371    -8.034036    316.77625   0.01464929  0.013370133            6 
 1803000   0.53737871   -8.0459618    317.11825  0.014656972  0.013359416            7 
 1804000   0.51971796   -8.0455938    316.47089  0.014618944  0.013348704            3 
 1805000   0.53589156   -8.0441651    317.13085  0.014641313  0.013337999            5 
 1806000   0.52473192   -8.0339542    317.11232  0.014632352  0.013327314            5 
 1807000   0.53916375   -8.0340536    317.57954    0.0146458  0.013316646            7 
 1808000   0.54449535   -8.0401168    317.78848   0.01464733  0.013305985            7 
 1809000   0.53025966   -8.0299388    317.39429  0.014621075  0.013295334            4 
 1810000   0.53749837   -8.0283837    317.20241  0.014604163  0.013284689            6 
 1811000   0.53456604   -8.0460073    316.75219  0.014575382  0.013274045            9 
 1812000   0.53331666    -8.036509    316.59357  0.014560043  0.013263412            5 
 1813000   0.53587909    -8.035472    316.51673   0.01454848  0.013252783            5 
 1814000    0.5409129   -8.0435797    317.72679  0.014596049  0.013242186           10 
 1815000   0.51175602   -8.0374535    317.02316    0.0145557   0.01323159            6 
 1816000   0.52948004   -8.0296088    317.05568  0.014549178  0.013221002            8 
 1817000   0.53041927   -8.0288977    317.51831  0.014562388  0.013210424           11 
 1818000   0.51779364   -8.0410313    317.22399  0.014540887  0.013199853            5 
 1819000   0.53359321   -8.0608909    317.06952  0.014525816  0.013189295            9 
 1820000   0.52011743   -8.0499021    317.10582  0.014519497   0.01317874            7 
 1821000   0.52530071   -8.0460403    317.37482  0.014523834  0.013168188            7 
 1822000   0.51933412   -8.0573392    316.92527  0.014495301  0.013157645            8 
 1823000    0.5291149   -8.0599433    317.30335  0.014504633  0.013147117            5 
 1824000   0.52777526   -8.0420641    316.92856  0.014479558  0.013136595           11 
 1825000   0.53224495    -8.048397    316.75663  0.014463773  0.013126084            5 
 1826000   0.52508256   -8.0586208    316.76088  0.014456046   0.01311559            5 
 1827000   0.52131969   -8.0489281    316.87941   0.01445354  0.013105107           23 
 1828000   0.52057669   -8.0476945    316.89649  0.014446412   0.01309462            7 
 1829000   0.52967478   -8.0479829     317.1204  0.014448715  0.013084143           13 
 1830000   0.52397466   -8.0543601    316.42365  0.014409092  0.013073682            7 
 1831000   0.52649723   -8.0480795    316.70371  0.014413968  0.013063217            7 
 1832000   0.52266267   -8.0502625    317.36214  0.014436051  0.013052766            5 
 1833000   0.52094335   -8.0369592    316.90009  0.014407169  0.013042329            6 
 1834000   0.52850557   -8.0572431     316.9437  0.014401295  0.013031896            8 
 1835000   0.52148141   -8.0625454      316.567   0.01437634  0.013021464            8 
 1836000   0.51752065   -8.0495181    316.40165  0.014361005  0.013011037           14 
 1837000   0.51573793    -8.038176    316.54544   0.01435971  0.013000608            7 
 1838000   0.51182295   -8.0457216     316.6217  0.014355354  0.012990198            8 
 1839000   0.51969828   -8.0610025    316.86768  0.014358695  0.012979787            6 
 1840000   0.51363863   -8.0595354    316.75358  0.014345724  0.012969408            8 
 1841000   0.52742856   -8.0470921    316.48233  0.014325653  0.012959029            8 
 1842000    0.5242104   -8.0557746    316.14747  0.014302727  0.012948655            4 
 1843000   0.52294503   -8.0757975    316.58901  0.014314931  0.012938288            7 
 1844000   0.51705276   -8.0565976    316.83185  0.014318142  0.012927935            7 
 1845000   0.50800959   -8.0469254    316.74739  0.014306567  0.012917586           11 
 1846000   0.51029992   -8.0621979    317.45104  0.014330581  0.012907254           16 
 1847000   0.51156395   -8.0780666    316.59283  0.014284102  0.012896915            4 
 1848000   0.50747277   -8.0669308    316.50367  0.014272352  0.012886603            5 
 1849000   0.51962585   -8.0512026    316.80389  0.014278163  0.012876297            6 
 1850000   0.51133657   -8.0614744     316.5615  0.014259527  0.012866005            8 
 1851000   0.50797344   -8.0625483    316.24922  0.014237764  0.012855737           19 
 1852000    0.4952805   -8.0623167    316.49275  0.014241034  0.012845459            9 
 1853000   0.52065487   -8.0581168     316.6108  0.014238658  0.012835197            9 
 1854000   0.51227693    -8.051036    316.64814  0.014232657  0.012824951            8 
 1855000   0.51131781   -8.0707547    316.44405  0.014215815  0.012814712           10 
 1856000   0.52248568   -8.0841397     316.8876  0.014228071  0.012804481            7 
 1857000   0.50896917   -8.0425099     316.4946  0.014202773  0.012794283            6 
 1858000   0.51964903   -8.0732008    316.78532  0.014208168  0.012784086            4 
 1859000   0.49411082   -8.0575038    316.37614  0.014182183  0.012773881            7 
 1860000   0.51584638   -8.0680316    316.97086  0.014201203  0.012763706            7 
 1861000   0.52387992   -8.0647707    316.94901  0.014192594   0.01275353            7 
 1862000   0.51027754   -8.0629844    316.35527  0.014158399  0.012743359            5 
 1863000   0.50689737   -8.0735067    316.16463  0.014142272  0.012733185           12 
 1864000   0.50984965    -8.056835    316.62915  0.014155452   0.01272302            4 
 1865000    0.5165301   -8.0712197    316.51112  0.014142588   0.01271286            6 
 1866000   0.50793441   -8.0645363    316.05816   0.01411478  0.012702723           11 
 1867000   0.50586161   -8.0725378    316.40087  0.014122517  0.012692591           16 
 1868000   0.49800371   -8.0640428    316.66343   0.01412667  0.012682463            7 
 1869000   0.50362214     -8.07374    316.44815  0.014109513  0.012672345            9 
 1870000   0.49843675   -8.0852591    316.60709   0.01410905   0.01266224           14 
 1871000   0.50114429   -8.0675094    316.19837  0.014083305  0.012652142           12 
 1872000   0.51008698   -8.0911287    317.01463  0.014112118  0.012642055           10 
 1873000   0.49615542   -8.0643554    316.10355  0.014064048  0.012631974           10 
 1874000   0.50314744   -8.0839934     316.5547  0.014076606  0.012621903           12 
 1875000   0.50942632   -8.0898823    315.96191  0.014042751  0.012611853           10 
 1876000   0.50547091   -8.0625327    316.56654  0.014062124  0.012601809            8 
 1877000   0.49053449   -8.0774895    316.10697  0.014034229  0.012591769            7 
 1878000   0.49315655   -8.0719707    316.33373  0.014036818  0.012581733            6 
 1879000   0.51107985   -8.0980514    316.66255  0.014043931  0.012571717           10 
 1880000   0.50967169    -8.075404    316.43036  0.014026168  0.012561698           12 
 1881000    0.4931643   -8.0824141    316.62239  0.014027219  0.012551701           14 
 1882000   0.50329271   -8.0701505    316.27908  0.014004564  0.012541706            9 
 1883000   0.49662436   -8.0944425    316.06894  0.013987827  0.012531729           14 
 1884000    0.4929837   -8.0884207    316.73556  0.014009889  0.012521761           23 
 1885000   0.51379313   -8.0961118    316.16476  0.013977222  0.012511785           15 
 1886000   0.50564774   -8.0799962    316.46403  0.013983034  0.012501824           10 
 1887000   0.50488286   -8.0788891     316.1793   0.01396305  0.012491878           12 
 1888000   0.49327201   -8.0986318    315.87273  0.013942123  0.012481938           23 
 1889000   0.50140153   -8.0963383    316.03058  0.013941705  0.012472008            8 
 1890000    0.5067271   -8.0961102    315.86691  0.013927112  0.012462089           11 
 1891000   0.49461199   -8.0800826    316.00066  0.013925642  0.012452168           18 
 1892000   0.50572558    -8.092121    316.07975  0.013921765  0.012442264            8 
 1893000   0.49938122   -8.1004054    316.26218  0.013922441  0.012432379           12 
 1894000   0.49457853   -8.0944655    315.65288  0.013888282  0.012422497           14 
 1895000   0.50198453   -8.0887371    316.33427  0.013910918   0.01241262           14 
 1896000   0.50362733   -8.1076923    316.44766  0.013908564  0.012402754           11 
 1897000    0.4890266   -8.1012979    316.56191  0.013906252  0.012392889           11 
 1898000   0.49856222   -8.0835963     316.4035  0.013891969  0.012383044           16 
 1899000   0.49442044   -8.0937682    316.19857  0.013875661  0.012373199           14 
 1900000   0.48623616   -8.1064953    316.12258  0.013865026  0.012363378           20 
 1901000   0.49684603   -8.1106308    316.33291  0.013866952  0.012353554            9 
 1902000    0.5020982   -8.0941194    315.74252  0.013833794  0.012343735           17 
 1903000   0.49251885   -8.1068165    316.20128  0.013846614  0.012333933           21 
 1904000   0.49880754    -8.096115    315.24976  0.013797696  0.012324145           16 
 1905000   0.49726094   -8.0962425    315.94219  0.013820743  0.012314348           16 
 1906000   0.48717711   -8.1034285    316.06114  0.013818693  0.012304577            9 
 1907000   0.49506594   -8.1041947    316.17121  0.013816256  0.012294795           12 
 1908000   0.49807964   -8.0938551    316.06707  0.013804467  0.012285041           19 
 1909000   0.48704865   -8.1039096     316.0701  0.013797368  0.012275298           14 
 1910000   0.49205048   -8.1119162    315.88924  0.013782253  0.012265557            6 
 1911000   0.49621645    -8.106834    316.14281  0.013786099  0.012255827           12 
 1912000   0.48419954   -8.0953444    315.90834  0.013768669  0.012246104            9 
 1913000   0.49777705   -8.1080939    315.65187  0.013750299  0.012236387           11 
 1914000   0.48906634   -8.1092999    316.07183    0.0137614  0.012226691           14 
 1915000   0.49459767   -8.1028875    315.75003   0.01374021  0.012216999           17 
 1916000   0.48023687   -8.1140057    315.97862  0.013742981  0.012207318           16 
 1917000   0.49382097   -8.1048155    315.77317  0.013726881  0.012197638           21 
 1918000   0.49044711   -8.1007592     315.9817  0.013728784   0.01218798           11 
 1919000   0.48395445   -8.1074323    316.53761  0.013745771  0.012178329           14 
 1920000   0.48648526   -8.1142144    315.64143  0.013699715  0.012168678           11 
 1921000   0.47777574   -8.1043539    315.67971  0.013694244  0.012159041           17 
 1922000   0.48003676   -8.1271083    316.49599  0.013722511  0.012149411           11 
 1923000   0.48731137   -8.1160673    316.04998  0.013696047  0.012139786           12 
 1924000   0.48683472   -8.1185247    316.12684  0.013692258  0.012130168           16 
 1925000   0.48049496   -8.1268631    315.67121   0.01366542  0.012120549           14 
 1926000   0.48845409   -8.1087818    315.93287  0.013669646  0.012110947           12 
 1927000    0.4700175    -8.121953    316.15955  0.013672355  0.012101359           26 
 1928000   0.48482341   -8.1264555    315.54913   0.01363888  0.012091774           19 
 1929000   0.47999943   -8.1206905    315.58645  0.013633422  0.012082203           15 
 1930000    0.4837858   -8.1202316    315.87596  0.013638858  0.012072639           12 
 1931000   0.48050792   -8.1286753    315.66576  0.013622724  0.012063089           11 
 1932000   0.48694785    -8.139837    315.99537   0.01362989  0.012053531           10 
 1933000   0.48333404   -8.1215744    315.23083  0.013589879  0.012043996           17 
 1934000   0.47403779   -8.1273466    315.55123  0.013596657  0.012034472           17 
 1935000   0.48279667   -8.1222792    315.82744  0.013601526  0.012024951           12 
 1936000   0.47994025   -8.1222878     315.7229  0.013590001  0.012015435           20 
 1937000   0.48879431    -8.112185    315.97553  0.013593854  0.012005936           20 
 1938000   0.48155171   -8.1283761    315.85314  0.013581576  0.011996444           14 
 1939000   0.48387632   -8.1306089    315.28129  0.013549995  0.011986968           13 
 1940000    0.4772159   -8.1409314    315.76138  0.013563633   0.01197749            9 
 1941000   0.48537493   -8.1237689      315.546  0.013547398  0.011968022           14 
 1942000   0.49645678   -8.1320231    316.09069  0.013563795  0.011958572           11 
 1943000   0.48322476    -8.139551    315.09644  0.013514172  0.011949127           24 
 1944000   0.47769258    -8.116047    315.38798  0.013519718  0.011939688           11 
 1945000   0.48348656   -8.1270927    315.52818  0.013518774  0.011930257            8 
 1946000   0.48623253   -8.1181133    315.73029  0.013520482  0.011920833           11 
 1947000   0.47277701   -8.1466511    315.52079  0.013504571  0.011911419            8 
 1948000   0.46380778   -8.1396266    316.07403  0.013521305  0.011902013            6 
 1949000   0.47167388   -8.1400124    315.33823  0.013482907   0.01189262           15 
 1950000   0.47305678   -8.1322477    315.61095  0.013487648  0.011883243            7 
 1951000    0.4651253   -8.1315205    315.66541   0.01348306  0.011873869           19 
 1952000   0.46531866   -8.1401919    315.55048  0.013471247  0.011864502           27 
 1953000   0.46909563   -8.1435879    315.05632  0.013443263  0.011855145           10 
 1954000   0.47082269   -8.1284684    316.19845  0.013485093  0.011845796            5 
 1955000   0.48236465   -8.1352109    315.57181  0.013451484  0.011836455            7 
 1956000   0.47094144   -8.1287589    315.66901  0.013448748  0.011827121           12 
 1957000   0.47195879   -8.1394097    315.40411  0.013430596  0.011817791            9 
 1958000   0.45683755   -8.1308426    314.95938  0.013404809  0.011808469            9 
 1959000   0.47737306    -8.130728    315.39564  0.013416524  0.011799161           12 
 1960000   0.46641656   -8.1396615    315.82422    0.0134279  0.011789859           10 
 1961000   0.46537613   -8.1452621    315.15686  0.013392693  0.011780571            8 
 1962000   0.47714046   -8.1563501    315.40555   0.01339643  0.011771284            6 
 1963000   0.46490643   -8.1460395    315.41542  0.013390024  0.011762005           13 
 1964000   0.48608325   -8.1467483    315.77633   0.01339852  0.011752741            8 
 1965000   0.46908503   -8.1478402    315.27403    0.0133704  0.011743484           15 
 1966000   0.46483194   -8.1513413    315.66523  0.013380181   0.01173424           11 
 1967000   0.46554843    -8.141473     315.6682  0.013373505  0.011724995            9 
 1968000   0.46487252   -8.1364884    315.71357   0.01336863  0.011715758            8 
 1969000   0.46340858   -8.1538146    315.38829  0.013348074   0.01170653           10 
 1970000   0.46778172   -8.1447279    315.21676  0.013334042  0.011697321           12 
 1971000   0.47387417    -8.138648    315.69251  0.013347392  0.011688118           13 
 1972000    0.4664636   -8.1553466    314.88766  0.013306612  0.011678923           13 
 1973000   0.46386318   -8.1579774    315.08756   0.01330831  0.011669718           15 
 1974000   0.46536437   -8.1452503    314.97068  0.013296635   0.01166054           17 
 1975000   0.45671502    -8.151981    315.76594  0.013323458  0.011651365            9 
 1976000   0.45840983   -8.1581383    315.11036  0.013289067  0.011642192            8 
 1977000   0.46443685   -8.1499198    315.05541  0.013280029  0.011633037           15 
 1978000   0.45839987   -8.1483505    315.19611  0.013279243  0.011623889           12 
 1979000    0.4748709    -8.155926    315.96112  0.013304746  0.011614752           15 
 1980000   0.46308815   -8.1564141    315.25018  0.013268105  0.011605622           11 
 1981000   0.45679629    -8.154066    314.95351  0.013248928    0.0115965            9 
 1982000    0.4519677   -8.1559974    315.32191  0.013257732  0.011587386           13 
 1983000   0.45122007   -8.1610765    315.46321  0.013256985  0.011578279           12 
 1984000    0.4644368   -8.1482718    315.21874  0.013240034  0.011569197           11 
 1985000   0.45541405   -8.1618303    315.29129   0.01323641  0.011560118            9 
 1986000   0.46223684   -8.1605159    315.71694  0.013247606  0.011551045            6 
 1987000   0.46868849   -8.1610906    315.32183  0.013224368  0.011541984            9 
 1988000   0.45981588   -8.1551018    315.12644  0.013209525  0.011532925           17 
 1989000   0.44734695   -8.1637504    315.17315  0.013204841   0.01152387            8 
 1990000   0.45989536   -8.1579123    315.62449  0.013217106  0.011514828            9 
 1991000   0.46217402   -8.1689982    315.14381  0.013190349   0.01150579            8 
 1992000   0.46503868   -8.1625705    314.85845  0.013171789  0.011496767           10 
 1993000   0.46114951   -8.1657006    315.27106  0.013182433  0.011487745            7 
 1994000   0.45455149   -8.1476637    315.46719  0.013184018  0.011478748            9 
 1995000   0.45670143   -8.1653094    315.41892  0.013175394  0.011469754            8 
 1996000   0.45556014   -8.1722196    314.68844  0.013138295  0.011460772            9 
 1997000   0.45753732   -8.1696227    315.30988  0.013157648  0.011451793            6 
 1998000   0.44624446   -8.1592252    315.12308  0.013143271  0.011442829            6 
 1999000   0.46331629   -8.1583493     314.9702  0.013130323  0.011433875           11 
 2000000   0.45385646   -8.1874176    314.89057   0.01312044  0.011424918            7 
 2001000   0.45899149   -8.1654761    315.46761  0.013137915  0.011415971            7 
 2002000   0.45192492   -8.1590978    315.12988  0.013117294  0.011407038            8 
 2003000   0.44912979   -8.1785701     315.0082  0.013105683  0.011398107            6 
 2004000   0.45047966   -8.1575558    314.83152  0.013091796  0.011389175            8 
 2005000   0.46062605   -8.1574565    315.53045  0.013114316   0.01138026            7 
 2006000   0.44850994   -8.1697306    315.24827  0.013096056  0.011371355            7 
 2007000    0.4595081   -8.1655786    315.33796  0.013093255  0.011362458            9 
 2008000   0.45145028   -8.1716785    315.03127  0.013074007  0.011353566            6 
 2009000   0.45296786   -8.1821554    315.18361  0.013073818  0.011344686            9 
 2010000   0.45380612   -8.1694659     314.6781  0.013046356  0.011335814            7 
 2011000    0.4488289   -8.1535571    314.89051   0.01304867  0.011326947           12 
 2012000   0.45207026   -8.1764843    315.37057  0.013062068   0.01131809           11 
Loop time of 4543.8 on 48 procs for 2000000 steps with 4000 atoms

Performance: 76059.704 tau/day, 440.160 timesteps/s
99.4% CPU use with 48 MPI tasks x no OpenMP threads

MPI task timing breakdown:
Section |  min time  |  avg time  |  max time  |%varavg| %total
---------------------------------------------------------------
Pair    | 276.95     | 297.19     | 323.73     |  62.4 |  6.54
Neigh   | 29.248     | 30.155     | 31.202     |   8.7 |  0.66
Comm    | 265.35     | 293.09     | 313.78     |  69.4 |  6.45
Output  | 4.2289     | 4.2311     | 4.2671     |   0.3 |  0.09
Modify  | 3869       | 3875.6     | 3888       |   6.6 | 85.29
Other   |            | 43.56      |            |       |  0.96

Nlocal:        83.3333 ave          89 max          76 min
Histogram: 3 3 0 7 5 4 13 5 5 3
Nghost:        1913.73 ave        1932 max        1895 min
Histogram: 2 4 5 7 4 9 4 7 4 2
Neighs:        12062.9 ave       13506 max       10315 min
Histogram: 3 0 4 3 10 9 7 4 7 1
FullNghs:      24126.0 ave       26111 max       21749 min
Histogram: 3 3 1 5 7 6 9 8 5 1

Total # of neighbors = 1158049
Ave neighs/atom = 289.51225
Neighbor list builds = 107428
Dangerous builds = 0

#clear
#
#next RN
#
#jump SELF
Total wall time: 1:15:46
