
units lj                  # Use reduced LJ style units
atom_style atomic         # Uncharged point particles
atom_modify map hash      # Needed for indexing of clusters etc
                          # Used to be able to find where atoms are in relation to each other.

lattice fcc 1.0 spacing 1 1 1
Lattice spacing in x,y,z = 1.5874011 1.5874011 1.5874011
region box block 0 10 0 10 0 10 units lattice
create_box 2 box
Created orthogonal box = (0.0000000 0.0000000 0.0000000) to (15.874011 15.874011 15.874011)
  3 by 4 by 4 MPI processor grid
create_atoms 1 box
Created 4000 atoms
  using lattice units in orthogonal box = (0.0000000 0.0000000 0.0000000) to (15.874011 15.874011 15.874011)
  create_atoms CPU = 0.009 seconds
set type 1 type/fraction 2 1.0 78393
Setting atom values ...
  4000 settings made for type/fraction
mass 1 1.0
mass 2 1.0
pair_style lj/cut  3.5
pair_modify tail  yes
pair_coeff 1  1  1.0  1.0   # Intearaction between 1 and 1 set with epsilon = 1 and sigma = 1
pair_coeff 1  2  1.5  0.8
pair_coeff 2  2  0.5  0.88

write_data data.0
System init for write_data ...
Neighbor list info ...
  update every 1 steps, delay 10 steps, check yes
  max neighbors/atom: 2000, page size: 100000
  master list distance cutoff = 3.8
  ghost atom cutoff = 3.8
  binsize = 1.9, bins = 9 9 9
  1 neighbor lists, perpetual/occasional/extra = 1 0 0
  (1) pair lj/cut, perpetual
      attributes: half, newton on
      pair build: half/bin/atomonly/newton
      stencil: half/bin/3d
      bin: standard
WARNING: Not all mixed pair coeffs generated from mixing. Use write_data with 'pair ij' option to store all pair coeffs. (../write_data.cpp:312)


#############################
#   M E L T   S Y S T E M   #
#############################

velocity all create 2.4 5300450 mom yes dist gaussian # Assign velocities
                                                    # Temperature 2.4, random number seed, zero linear momentum
                                                                                # Gaussian distribution

timestep 0.002   # simulation timestep
thermo 1000       # output thermodynamic data every 1000 steps bf 100

# Define a fix  in this case with index 1 applied to all
# particles in the simulation. This fix is for simulations
# in the anisotropic NPT ensemble. Note that we use the MTK
# correction.
fix 1 all npt temp 2.4 2.4 0.1 iso 5.68 5.68 0.5 mtk yes tchain 5 pchain 5 # Use NPT ensemble
                                                                         # Set temperature and pressure and damping
                                                                         # Numbers of thermostats in chain and in barostat
run 10000          # run for 10000 steps
Per MPI rank memory allocation (min/avg/max) = 3.642 | 3.644 | 3.648 Mbytes
Step Temp E_pair E_mol TotEng Press Volume 
       0          2.4   -2.7016284            0   0.89747158   -1.6956087         4000 
    1000    2.3784349   -1.4953564            0    2.0714041    5.5452889    4220.0584 
    2000    2.4048576   -1.4408684            0    2.1655161     5.711418    4247.5513 
    3000    2.3930253   -1.4291562            0    2.1594844    5.8739814    4224.9159 
    4000    2.3949641   -1.4463433            0    2.1452047    5.6493583    4261.1978 
    5000    2.4112861   -1.4388571            0    2.1771678    5.4690109    4306.9579 
    6000    2.4204842   -1.4431451            0    2.1866735    5.8504906    4222.9132 
    7000    2.3939017   -1.4213755            0    2.1685794    5.6094264    4295.0224 
    8000    2.4088709   -1.4469441            0    2.1654589    5.7604369    4238.1494 
    9000    2.4655192    -1.450942            0    2.2464122    5.7489512     4241.756 
   10000    2.3633061   -1.4288395            0    2.1152334    5.5377232    4299.1959 
Loop time of 2.36125 on 48 procs for 10000 steps with 4000 atoms

Performance: 731814.515 tau/day, 4235.038 timesteps/s
99.7% CPU use with 48 MPI tasks x no OpenMP threads

MPI task timing breakdown:
Section |  min time  |  avg time  |  max time  |%varavg| %total
---------------------------------------------------------------
Pair    | 1.0384     | 1.0835     | 1.1603     |   2.7 | 45.89
Neigh   | 0.20183    | 0.20829    | 0.21959    |   0.8 |  8.82
Comm    | 0.74559    | 0.81658    | 0.86807    |   3.4 | 34.58
Output  | 0.00024351 | 0.00024724 | 0.00030931 |   0.0 |  0.01
Modify  | 0.22193    | 0.23809    | 0.25789    |   2.1 | 10.08
Other   |            | 0.01457    |            |       |  0.62

Nlocal:        83.3333 ave          91 max          74 min
Histogram: 1 2 5 4 8 9 5 7 4 3
Nghost:        1557.58 ave        1592 max        1520 min
Histogram: 1 3 4 8 10 3 5 9 3 2
Neighs:        8871.42 ave       10197 max        7538 min
Histogram: 1 1 8 4 12 6 9 3 1 3

Total # of neighbors = 425828
Ave neighs/atom = 106.45700
Neighbor list builds = 906
Dangerous builds = 197

# Equilibrate just above the melting temperature to avoid step fn in T

fix 1 all npt temp 1.25 1.25 0.1 iso 5.68 5.68 0.5 mtk yes tchain 5 pchain 5
run 2000
Per MPI rank memory allocation (min/avg/max) = 3.643 | 3.645 | 3.649 Mbytes
Step Temp E_pair E_mol TotEng Press Volume 
   10000    2.3633061   -1.4288395            0    2.1152334    5.5377232    4299.1959 
   11000    1.2587772   -2.2131275            0  -0.32543373    5.8167746    3335.1015 
   12000    1.2445935   -2.2170772            0  -0.35065367    5.7356117    3340.4464 
Loop time of 0.558191 on 48 procs for 2000 steps with 4000 atoms

Performance: 619142.765 tau/day, 3583.002 timesteps/s
99.6% CPU use with 48 MPI tasks x no OpenMP threads

MPI task timing breakdown:
Section |  min time  |  avg time  |  max time  |%varavg| %total
---------------------------------------------------------------
Pair    | 0.25375    | 0.26994    | 0.28443    |   1.4 | 48.36
Neigh   | 0.037976   | 0.039455   | 0.041193   |   0.4 |  7.07
Comm    | 0.1837     | 0.19948    | 0.21792    |   1.9 | 35.74
Output  | 5.0523e-05 | 5.2032e-05 | 7.1683e-05 |   0.0 |  0.01
Modify  | 0.040914   | 0.04476    | 0.048507   |   0.9 |  8.02
Other   |            | 0.0045     |            |       |  0.81

Nlocal:        83.3333 ave          92 max          76 min
Histogram: 4 6 2 8 4 8 11 1 2 2
Nghost:        1850.38 ave        1885 max        1821 min
Histogram: 1 3 8 7 10 9 4 4 0 2
Neighs:        11443.5 ave       12519 max       10019 min
Histogram: 3 1 3 6 8 5 3 5 10 4

Total # of neighbors = 549289
Ave neighs/atom = 137.32225
Neighbor list builds = 143
Dangerous builds = 19

#############################
# L I N E A R  Q U E N C H  #
#############################

# Define solid atoms. This closely follows ten Wolde  Ruiz-Montero and Frenkel  Faraday Discuss  1996  104  93-110
# Compute components of the per-atom q6 vector
compute q6 all orientorder/atom degrees 1 6 components 6 nnn NULL cutoff 1.3 # compute the Q6 parameter.
                                                                             # Use all neighbours within 1.3 unit cell.

# get number of connections
compute coord_number all coord/atom orientorder q6 0.5

# An atom is solid if it has 8 or more connections (of a possible 14)
variable is_solid atom c_coord_number>=8
group solid dynamic all var is_solid    # Must be dynamic to update
dynamic group solid defined

# do clustering
compute cluster solid cluster/atom 1.3 # Create a cluster where all atoms within are solid and max 1.3 units from another member

# define chunks one chunk per cluster
compute clus_chunks solid chunk/atom c_cluster nchunk every compress yes  # Says which atoms are in which chunk

# count the size of each chunk
compute size_chunks solid property/chunk clus_chunks count


# Find the maximum entry in the vector of chunk sizes
variable max_n equal max(c_size_chunks)


# Thermo style which includes this variable
# thermo_style custom step temp pe vol v_max_n

thermo ${N}  # Print the thermo information every 100 steps
thermo 1000  

# Reset the npt fix at a lower temperature (below freezing)
fix 1  all npt temp  ${temp} ${temp}  0.1  iso  5.68  5.68  0.5  mtk yes tchain  5  pchain  5
fix 1  all npt temp  0.45 ${temp}  0.1  iso  5.68  5.68  0.5  mtk yes tchain  5  pchain  5
fix 1  all npt temp  0.45 0.45  0.1  iso  5.68  5.68  0.5  mtk yes tchain  5  pchain  5

dump dmp2 all dcd ${N} traj.dcd
dump dmp2 all dcd 1000 traj.dcd


compute msd all msd com yes
variable twopoint equal c_msd[4]/6/(step*dt+1.0e-6)
fix 9 all vector 10 c_msd[4]
variable fit equal slope(f_9)/6/(10*dt)
thermo_style custom step temp pe c_msd[4] v_twopoint v_fit v_max_n

fix 1 all npt temp 1.25 ${temp} 0.1 iso 5.68 5.68 0.5 mtk yes tchain 5 pchain 5
fix 1 all npt temp 1.25 0.45 0.1 iso 5.68 5.68 0.5 mtk yes tchain 5 pchain 5
run 5000000 # 5000000  # Run for this many steps
Neighbor list info ...
  update every 1 steps, delay 10 steps, check yes
  max neighbors/atom: 2000, page size: 100000
  master list distance cutoff = 3.8
  ghost atom cutoff = 3.8
  binsize = 1.9, bins = 8 8 8
  4 neighbor lists, perpetual/occasional/extra = 1 3 0
  (1) pair lj/cut, perpetual
      attributes: half, newton on
      pair build: half/bin/atomonly/newton
      stencil: half/bin/3d
      bin: standard
  (2) compute orientorder/atom, occasional
      attributes: full, newton on
      pair build: full/bin/atomonly
      stencil: full/bin/3d
      bin: standard
  (3) compute coord/atom, occasional
      attributes: full, newton on
      pair build: full/bin/atomonly
      stencil: full/bin/3d
      bin: standard
  (4) compute cluster/atom, occasional
      attributes: full, newton on
      pair build: full/bin/atomonly
      stencil: full/bin/3d
      bin: standard
Per MPI rank memory allocation (min/avg/max) = 9.810 | 9.816 | 9.822 Mbytes
Step Temp PotEng c_msd[4] v_twopoint v_fit v_max_n 
   12000    1.2445935   -2.2170772 3.4475194e-30 2.3941106e-32 8.3333333e+20            1 
   13000    1.2657788   -2.2064317    1.2325322 0.0079008472   0.10563195            2 
   14000    1.2399125   -2.2337628    2.4842413   0.01478715   0.10531622            1 
   15000    1.2418321   -2.2415322    3.8969547  0.021649748   0.10800792            1 
   16000     1.254008   -2.2232413    5.2892415  0.027548132   0.11106113            1 
   17000    1.2556429    -2.233731    6.5522602  0.032118922   0.11119517            2 
   18000    1.2140821    -2.215883    7.9511674  0.036810959   0.11159647            2 
   19000    1.2579783   -2.2115943     9.398781  0.041222723   0.11308888            2 
   20000    1.2549001     -2.23553    10.929902  0.045541257   0.11400453            2 
   21000    1.2407189   -2.2142537    12.359974  0.049047515   0.11529797            1 
   22000    1.2533246    -2.226649    13.631641  0.051635002   0.11574734            3 
   23000    1.2364788   -2.2338692    14.974719  0.054256227   0.11574182            1 
   24000    1.2193638   -2.2298531    16.472339   0.05719562   0.11572371            3 
   25000    1.2636189   -2.1918923    17.800762  0.059335872   0.11581676            1 
   26000    1.2483364   -2.2363957    19.416313   0.06223177   0.11599386            1 
   27000     1.265304   -2.2305996    20.657231  0.063756884   0.11622446            1 
   28000    1.2645953    -2.220718    22.123994  0.065845219   0.11625753            1 
   29000    1.2492662   -2.2309796    23.479964   0.06747116   0.11630253            1 
   30000     1.241639    -2.230237    25.019167  0.069497685   0.11647863            1 
   31000    1.2270047   -2.2247808    26.076132  0.070097128   0.11647619            1 
   32000    1.2750683   -2.2326081     27.44878  0.071481196   0.11631751            2 
   33000    1.2533855    -2.226829     28.85072  0.072855352   0.11605893            1 
   34000    1.2353873   -2.2047614    30.255242  0.074155004   0.11588264            1 
   35000    1.2574705   -2.2442945    31.525013  0.075059553   0.11564091            4 
   36000    1.2638733   -2.2501568    32.830941  0.075997549   0.11539728            1 
   37000    1.2249817   -2.2517052    33.993146  0.076561139   0.11515035            1 
   38000      1.21468   -2.2111292    35.018459  0.076794866   0.11483453            2 
   39000    1.2684768   -2.2226569    36.507046  0.078006507   0.11443587            4 
   40000    1.2484181   -2.2498676    37.873789  0.078903727   0.11407373            1 
   41000    1.2565824   -2.2178152    39.498732  0.080281974    0.1138614            1 
   42000    1.2636305    -2.238391    40.648408  0.080651603   0.11380552            1 
   43000    1.2432364   -2.2495838     42.09453  0.081578546   0.11370943            2 
   44000    1.2818746   -2.2182399    43.587242  0.082551594   0.11361881            1 
   45000    1.2269436   -2.2345284    44.856313  0.083067245   0.11358827            1 
   46000    1.2295274    -2.255704    46.004388  0.083341281   0.11351095            2 
   47000    1.2699395   -2.2087544    47.816987   0.08478189   0.11346099            1 
   48000    1.2443365   -2.2105166    49.012994  0.085092002   0.11349643            1 
   49000    1.2098419    -2.201986    50.687946  0.086203989   0.11354726            2 
   50000    1.2313895   -2.2263706    52.140653  0.086901088    0.1136446            1 
   51000    1.2190692   -2.2267201    53.573635  0.087538618   0.11371357            1 
   52000    1.2433665   -2.2549333    54.522657  0.087376053   0.11375165            1 
   53000     1.251446   -2.2325661    56.145673  0.088279359   0.11378512            2 
   54000    1.2572731   -2.2402916    57.449238   0.08865623   0.11382021            1 
   55000    1.2157592   -2.2089708    58.999937  0.089393842   0.11384509            1 
   56000    1.2539676   -2.2386648     60.00934  0.089299613   0.11384406            3 
   57000    1.2310864   -2.2227904    61.169341   0.08942886   0.11380429            1 
   58000    1.2110727   -2.2085717    62.354545  0.089589863   0.11372522            1 
   59000    1.2525915   -2.2139513    64.306975   0.09082906   0.11369907            1 
   60000    1.2325091    -2.220046    64.909626  0.090152257    0.1136856            5 
   61000    1.2115727   -2.2243988    66.414133  0.090729689   0.11360803            1 
   62000     1.235178   -2.2299909    67.042595  0.090111014   0.11349124            1 
   63000     1.253512   -2.2330706    68.483463   0.09058659   0.11333534            3 
   64000     1.240752   -2.2551433    69.620052  0.090651109   0.11316499            2 
   65000    1.2660811   -2.2298925    71.464173  0.091620734   0.11299293            1 
   66000    1.2445389   -2.2505774    72.573812  0.091633601   0.11284321            2 
   67000    1.2439284   -2.2252303    73.602663    0.0915456   0.11268998            3 
   68000    1.2516453   -2.2389815     75.54972  0.092585441    0.1125573            2 
   69000    1.2425534   -2.2111326    76.159268  0.091979792   0.11245822            1 
   70000     1.239822   -2.2226941    77.593789  0.092373558   0.11233936            1 
   71000    1.2286581   -2.2006484    79.366676  0.093153374   0.11223862            1 
   72000    1.2341671   -2.2077074    80.611243   0.09330005   0.11216406            2 
   73000    1.2770834   -2.2400886    81.729369  0.093298366   0.11205725            1 
   74000    1.2535363   -2.2310743    83.326437  0.093836077    0.1119607            2 
   75000    1.2510742    -2.228445    84.819166  0.094243518    0.1119063            1 
   76000    1.2479115   -2.2530481    85.695546  0.093964414   0.11186606            1 
   77000    1.2413931   -2.2791292    86.798385  0.093937646   0.11179785            1 
   78000    1.2444954   -2.2143367    88.666368  0.094729025   0.11175972            1 
   79000    1.2194264   -2.2575417    89.507297  0.094416979    0.1116965            2 
   80000    1.2350689   -2.2295849    90.535538  0.094307852   0.11161161            2 
   81000    1.2398981   -2.2276936    91.868672  0.094515094   0.11149223            1 
   82000    1.2316556   -2.2560021    93.325571   0.09484306   0.11142362            3 
   83000    1.2336789   -2.2414543    94.845199  0.095226103   0.11138026            1 
   84000    1.2557323   -2.2192246    96.668271  0.095901062   0.11133613            1 
   85000    1.2178821    -2.228829    97.699809  0.095784126   0.11130179            2 
   86000    1.2207692   -2.2136377    98.985242  0.095915932   0.11126138            2 
   87000      1.22635   -2.2409811    100.26799   0.09604214   0.11121911            1 
   88000    1.2342086    -2.244839    100.86407  0.095515219   0.11115761            1 
   89000    1.2445906   -2.2164401    103.06362  0.096501516    0.1111049            1 
   90000    1.2100208   -2.2214218    104.46222  0.096724277   0.11107542            1 
   91000    1.2288116   -2.2374393    105.91654  0.096993169   0.11108149            1 
   92000    1.2368283   -2.2493488    107.22738  0.097126253   0.11110382            5 
   93000    1.2326081   -2.2337136    108.34922  0.097087112   0.11112525            1 
   94000     1.236272   -2.1949026     110.8689  0.098288032   0.11114986            1 
   95000    1.2235104   -2.2299517    111.38224  0.097703721   0.11117188            1 
   96000    1.2444485   -2.2400731    113.12589  0.098199555   0.11117886            1 
   97000    1.2477362   -2.2554216    113.96315  0.097906488   0.11119751            2 
   98000     1.253018   -2.2352012    115.62083  0.098317035   0.11119154            1 
   99000    1.2081714   -2.2406767    117.36805  0.098794651   0.11120265            1 
  100000    1.2125301    -2.236953    118.39344    0.0986612   0.11121643            2 
  101000    1.2372863   -2.2496994    119.56177  0.098648326    0.1112546            2 
  102000    1.2181783   -2.2695798    120.64645  0.098567358   0.11129782            2 
  103000    1.2291492   -2.2418265    123.07705  0.099576902   0.11134473            2 
  104000    1.2290649   -2.2296637    124.91613   0.10009305   0.11140291            1 
  105000     1.235649   -2.2838729    126.03092   0.10002454   0.11146814            1 
  106000    1.2490183   -2.2448947    127.37749   0.10013953   0.11153463            2 
  107000    1.2426884   -2.2183615    128.86422   0.10036154   0.11159978            1 
  108000    1.2414582   -2.2202306    129.38487  0.099834004   0.11164115            2 
  109000    1.2264594   -2.2702109    131.12926   0.10025173   0.11168239            2 
  110000    1.2244869    -2.260499    131.64424  0.099730488   0.11171617            4 
  111000    1.2331391   -2.2584305    133.58729   0.10029076   0.11174699            2 
  112000    1.2269398   -2.2188041    135.75662   0.10100939   0.11178748            1 
  113000    1.2308531   -2.2416235    136.78969   0.10087735   0.11183014            1 
  114000    1.2215462   -2.2172295    139.06457   0.10165539   0.11189384            2 
  115000    1.2487387   -2.2398341    139.60655   0.10116417   0.11193703            2 
  116000    1.2205005   -2.2498682    140.11325   0.10065607   0.11195484            3 
  117000    1.2341703   -2.2278328    142.31548    0.1013643   0.11198941            1 
  118000    1.2285295   -2.2574688    142.48602   0.10062572   0.11203054            1 
  119000    1.2379064   -2.2358725    143.70299   0.10063234   0.11204459            1 
  120000    1.2318605   -2.2482134    145.07309    0.1007452   0.11204317            1 
  121000    1.2257675   -2.2243162    146.52287   0.10091107   0.11203176            4 
  122000    1.2258526   -2.2299958    148.30537   0.10130148    0.1120175            2 
  123000     1.262001   -2.2548233    149.43956   0.10124632   0.11201705            1 
  124000    1.2327035   -2.2225271    150.51857   0.10115495   0.11201181            1 
  125000    1.2332122   -2.2505817    152.13413   0.10142275   0.11198939            2 
  126000    1.2352738   -2.2465627    153.01115   0.10119785   0.11197933            1 
  127000    1.2357059   -2.2534516    153.85602   0.10095539   0.11195274            1 
  128000     1.257603   -2.2301468    155.99755    0.1015609   0.11192795            1 
  129000    1.2223012   -2.2418063    156.42258   0.10104818   0.11189629            1 
  130000    1.2482319   -2.2793676    158.19315   0.10140586   0.11187919            1 
  131000     1.231735   -2.2229105    160.25083   0.10194073   0.11187756            1 
  132000    1.2391014   -2.2558048    161.53986   0.10198224   0.11188333            2 
  133000    1.2173976   -2.2737231     162.9074   0.10207231   0.11188312            1 
  134000    1.2566708   -2.2731365    164.18605   0.10210575    0.1118876            2 
  135000    1.2311138   -2.2579882    165.59486   0.10221905   0.11191621            2 
  136000    1.2315297   -2.2245743    167.51077    0.1026414   0.11193682            1 
  137000    1.2437877   -2.2483665    168.95868   0.10277292   0.11196217            3 
  138000    1.2146178   -2.2100118     169.9771   0.10264317   0.11198461            1 
  139000      1.26011   -2.2353298    171.68345   0.10292773   0.11199937            1 
  140000    1.2080217   -2.2476675     174.6914   0.10398298   0.11203181            2 
  141000      1.23837   -2.2796542    173.86008   0.10275418   0.11206327            1 
  142000      1.23157   -2.2679054    175.71492   0.10311909   0.11208545            2 
  143000    1.1994648   -2.2438451     177.2195   0.10327476   0.11210525            1 
  144000    1.1992444   -2.2483238    178.34349   0.10320804   0.11213484            2 
  145000    1.2343377   -2.2443975     179.3015   0.10304684   0.11215504            1 
  146000    1.2537922   -2.2425752    180.50784   0.10302959   0.11216692            1 
  147000     1.235533   -2.2206552    182.72784   0.10358721   0.11218068            2 
  148000    1.2264148   -2.2437023    184.23672   0.10373689   0.11220902            2 
  149000    1.2140496   -2.2428264     185.5179   0.10375721    0.1122489            1 
  150000    1.2399293   -2.2535032    187.10548   0.10394749   0.11228486            2 
  151000    1.2017683   -2.2684533    187.92855   0.10371333   0.11231028            3 
  152000    1.2304354   -2.2263175    189.42941   0.10385384   0.11233017            2 
  153000    1.2261051   -2.2596273    191.45585   0.10427878   0.11234406            2 
  154000    1.2267128   -2.2269885    191.55653   0.10365613   0.11236168            1 
  155000    1.2597519   -2.2534036    193.18459   0.10386268   0.11236705            1 
  156000     1.240573   -2.2327834    195.18213   0.10426396   0.11238021            1 
  157000    1.2107925   -2.2335118    196.26036   0.10417216   0.11239379            1 
  158000    1.2025007   -2.2364442    197.29783   0.10406003   0.11239969            1 
  159000    1.2360525   -2.2520702     198.3441   0.10395393   0.11239831            1 
  160000    1.2353241   -2.2557592    199.57945   0.10394763   0.11239603            1 
  161000    1.2369468   -2.2678505    200.54194   0.10380017    0.1123914            1 
  162000    1.2590426   -2.2596023    201.40957   0.10360575   0.11238881            1 
  163000    1.2289788   -2.2412927    203.99962   0.10429429   0.11239244            2 
  164000    1.2248636   -2.2397879    204.49096   0.10390801   0.11238983            2 
  165000    1.2437138   -2.2480961    206.75553   0.10442199   0.11239083            1 
  166000    1.2473581   -2.2470834    207.22252   0.10402737   0.11239012            3 
  167000     1.205421   -2.2687277    209.31637   0.10444929     0.112383            1 
  168000    1.2102773   -2.2497384    209.67565   0.10400578   0.11237275            1 
  169000    1.2200045   -2.2372955    211.02269   0.10405458   0.11236642            1 
  170000     1.214572   -2.2469525    213.32075     0.104569   0.11236107            2 
  171000    1.1959741   -2.2668486    214.12588   0.10434984   0.11235702            3 
  172000    1.2260663   -2.2359432    216.11672   0.10470771   0.11236061            1 
  173000    1.2163997   -2.2386366    216.93583   0.10449703   0.11236189            1 
  174000    1.2240047   -2.2585523    217.81631   0.10431815   0.11236483            2 
  175000    1.2414542   -2.2609211    220.04845   0.10478498   0.11236675            1 
  176000    1.2160362   -2.2423605    220.65194   0.10447535   0.11236739            1 
  177000    1.1871095    -2.279614    222.35279   0.10468587   0.11236488            1 
  178000     1.199301    -2.246971    222.23366   0.10404197   0.11235229            2 
  179000    1.2234629   -2.2636654    223.97394   0.10427092   0.11232954            2 
  180000    1.2123515   -2.2454368    226.08178   0.10466749   0.11231601            1 
  181000    1.2313489   -2.2618952    225.80932   0.10396377   0.11228692            1 
  182000    1.2491341   -2.2453732     227.0316    0.1039522   0.11225473            1 
  183000    1.2469371   -2.2068189    228.79182   0.10418571   0.11223229            1 
  184000    1.2225097   -2.2537728    229.27855   0.10383992   0.11219579            1 
  185000    1.2267396   -2.2531316    230.65942   0.10390064   0.11216156            1 
  186000    1.2256874   -2.2541377    233.54975   0.10463698   0.11212335            1 
  187000    1.2209822   -2.2445779    232.89503   0.10378566   0.11208589            1 
  188000    1.2435663   -2.2701998    234.30654   0.10385928   0.11204219            2 
  189000    1.2695805   -2.2698002    234.59544   0.10343714   0.11200346            2 
  190000    1.2209509   -2.2585154    236.79088   0.10385565   0.11196362            1 
  191000    1.2057664   -2.2649671    239.14596   0.10433942   0.11193251            2 
  192000    1.2114616   -2.2543433    240.70797   0.10447394   0.11190327            1 
  193000    1.2022602   -2.2532961     240.9563   0.10403985   0.11186649            1 
  194000    1.2287543   -2.2489713    242.08149   0.10398689    0.1118243            2 
  195000    1.2319494   -2.2375151    244.12109   0.10432525   0.11178712            3 
  196000    1.2295405   -2.2617084    244.16938   0.10381351   0.11175126            2 
  197000    1.2454249   -2.2653748    246.18691   0.10413998   0.11171546            2 
  198000    1.1941251   -2.2644943    247.07791   0.10398902    0.1116802            1 
  199000    1.2029452   -2.2452062    248.80814   0.10419101   0.11163986            1 
  200000    1.2129835   -2.2498013    250.57569   0.10440654   0.11160036            2 
  201000    1.2150659   -2.2739943    250.96895   0.10405014    0.1115691            1 
  202000    1.2269423   -2.2735438    251.63178   0.10380849   0.11152215            1 
  203000    1.2341549   -2.2559004    253.54612   0.10408297   0.11147655            2 
  204000    1.2298203   -2.2904274    254.82963   0.10409707    0.1114278            2 
  205000    1.2545791   -2.2307431    255.40804   0.10382441   0.11138777            5 
  206000     1.230931   -2.2616647    255.87074   0.10350758   0.11134721            4 
  207000    1.1850956   -2.2553185    257.19116   0.10353911   0.11130297            2 
  208000    1.2327006   -2.2494451    260.09606   0.10420515   0.11127208            1 
  209000     1.181267   -2.2685699    260.62439   0.10391722   0.11123353            3 
  210000    1.2018785   -2.2887083    261.30457   0.10369229   0.11119356            1 
  211000     1.211687   -2.2315406    263.37804   0.10401976   0.11116161            1 
  212000    1.2166755   -2.2746309    265.51748   0.10437008    0.1111278            1 
  213000    1.2211762   -2.2565143    267.20061   0.10453858   0.11109849            1 
  214000    1.2281617   -2.2442288    266.12003   0.10362929   0.11106248            1 
  215000    1.2165943   -2.2762614    266.70806   0.10337522   0.11102386            3 
  216000    1.2028927   -2.2576573    268.82868   0.10371477   0.11097635            2 
  217000    1.1911108      -2.2395    270.91112   0.10403653   0.11093015            2 
  218000    1.2018575   -2.2811703    270.90691   0.10355769   0.11088235            1 
  219000    1.2385153   -2.2477175        274.9   0.10460426   0.11083315            1 
  220000    1.2009524    -2.273345    274.40041   0.10393955   0.11078977            2 
  221000    1.2327178    -2.247696    275.65417   0.10394199   0.11074298            1 
  222000    1.2113494   -2.2173792    277.54142   0.10418222   0.11069876            1 
  223000    1.2111314   -2.2359736    277.98504   0.10388081   0.11066131            2 
  224000     1.217683   -2.2450115    279.42711   0.10395354   0.11061915            1 
  225000    1.2093103   -2.2685501    279.37475   0.10347213    0.1105793            3 
  226000     1.238839   -2.2511169    282.44523   0.10414647   0.11053394            1 
  227000    1.1965036   -2.2785278    282.94334   0.10387054   0.11049205            1 
  228000    1.1948787   -2.2720228    284.59549   0.10401882   0.11044952            3 
  229000    1.2135744   -2.2506883    286.30603   0.10418706   0.11040951            2 
  230000     1.229844   -2.2434186    286.13504   0.10367211   0.11036783            1 
  231000    1.1695603   -2.2782825    286.51083   0.10335889   0.11032019            1 
  232000    1.1851498   -2.2749169    287.48522   0.10326337    0.1102766            1 
  233000    1.2073583   -2.2367842    289.15563   0.10341761   0.11022824       -1e+20 
  234000    1.2054045   -2.2610209    290.75738   0.10354607   0.11019017            1 
  235000    1.2034828   -2.2965481     292.1741   0.10360784   0.11014825            1 
  236000    1.2189914    -2.275561    293.06318   0.10348276   0.11010883            1 
  237000    1.2258149   -2.2747434    294.75025   0.10363933    0.1100805            3 
  238000    1.2130867   -2.2472375     296.3605   0.10376768   0.11004744            2 
  239000    1.2047766   -2.2565923    297.62821   0.10377553   0.11001355            1 
  240000    1.2007064   -2.2676229    301.14074   0.10456276   0.10998501            2 
  241000    1.2126403   -2.2827651    302.14104   0.10447477   0.10996305            3 
  242000    1.2014132   -2.2646804     303.6672   0.10456859   0.10994114            1 
  243000    1.2316592    -2.281662    304.09963   0.10428657   0.10992424            2 
  244000    1.2211785   -2.2497779    306.55188   0.10469668   0.10990649            2 
  245000    1.2108416   -2.2750945    307.25841   0.10450966   0.10988645            1 
  246000    1.2278045   -2.2720965    308.59559    0.1045378   0.10987076            2 
  247000    1.1966847   -2.2888265    310.27048   0.10467965   0.10984849            2 
  248000    1.2019202   -2.2559547    312.01755   0.10484461   0.10983162            1 
  249000    1.1965612   -2.2594719    311.29361   0.10418126   0.10981037            2 
  250000    1.2375681    -2.262009    313.77607   0.10459202   0.10978894            1 
  251000     1.216939   -2.2762868    313.70238   0.10415086   0.10976326            3 
  252000    1.2151612   -2.2303822    314.35655   0.10395389   0.10973997            1 
  253000     1.222034   -2.2843655    317.01933   0.10442007   0.10971654            1 
  254000    1.2176192    -2.297453    318.41164   0.10446576   0.10970036            1 
  255000    1.2001394   -2.2474755    319.37242   0.10437007   0.10968021            2 
  256000    1.2007929   -2.2372981    321.74722   0.10473542   0.10966398            1 
  257000    1.2060171   -2.2818393     321.7734   0.10433638   0.10964947            3 
  258000    1.2038019    -2.240052    324.10318   0.10468449   0.10962964            1 
  259000    1.2038092   -2.2862448    324.12887   0.10428857   0.10960863            3 
  260000    1.2086291   -2.2689898    326.47174   0.10463838   0.10958951            1 
  261000    1.1962291   -2.2826608    326.14568   0.10413336   0.10956762            2 
  262000    1.1862013   -2.2431064    328.60067   0.10451675    0.1095486            1 
  263000    1.1970537    -2.237214     329.8738   0.10452275   0.10953316            2 
  264000    1.2079243   -2.2657443     331.9649    0.1047869   0.10951249            1 
  265000    1.1959759   -2.2423013    332.39661   0.10452724    0.1094939            1 
  266000    1.2342514   -2.2850471    334.73422   0.10486661   0.10948034            1 
  267000    1.2117347   -2.2868215    334.92832   0.10453443   0.10946598            3 
  268000    1.2086976   -2.2821561    337.52233   0.10495097   0.10945191            2 
  269000    1.2483498   -2.2541123    335.42585   0.10391135   0.10943927            2 
  270000     1.185982   -2.2351643      340.059   0.10495648   0.10942297            3 
  271000    1.2041556   -2.2357761    338.55279   0.10410602   0.10940151            4 
  272000    1.2138532   -2.2821685    340.78457   0.10440704   0.10938228            1 
  273000    1.2074615   -2.2614013    340.64777   0.10398284   0.10936082            2 
  274000    1.1897122   -2.2547993    342.96586   0.10430835   0.10933598            1 
  275000    1.2116912   -2.2525897    343.86876   0.10420265   0.10931307            2 
  276000    1.2174276   -2.2949705    345.28819   0.10425368   0.10929156            2 
  277000    1.2151207   -2.2493089    346.40217   0.10421245   0.10926791            2 
  278000    1.1985824   -2.2737327    347.47191   0.10415825   0.10924782            2 
  279000    1.1893579   -2.2610233    349.16277   0.10428996   0.10922673            2 
  280000    1.1811823   -2.2272673    350.64011   0.10435717   0.10920607            1 
  281000    1.2103361   -2.2661653     350.3901   0.10391165   0.10918733            3 
  282000    1.2018193    -2.290439    353.12622   0.10435172   0.10916709            2 
  283000    1.2254643   -2.2756594    353.81568   0.10418601   0.10914803            1 
  284000    1.1989248   -2.2692034    354.91292   0.10414111    0.1091291            3 
  285000    1.1863089   -2.2607481    356.30424   0.10418253   0.10910638            4 
  286000    1.2158859   -2.2605738    357.60242   0.10419651   0.10908474            1 
  287000    1.2032792   -2.2631215    358.98697   0.10423547   0.10906433            1 
  288000     1.181846   -2.2592655    360.56307   0.10432959   0.10904411            1 
  289000    1.1936264   -2.2395252    361.23089   0.10416116   0.10902407            3 
  290000    1.2136317   -2.2918401    361.63339   0.10391764   0.10900279            3 
  291000    1.1913664   -2.2990059    363.83914   0.10419219   0.10898134            1 
  292000    1.2189998   -2.2858317    365.99541   0.10445074   0.10896224            2 
  293000    1.2091088   -2.2708911    366.54308   0.10425002   0.10893956            1 
  294000     1.209127   -2.2787321    369.52465   0.10474055   0.10892183            3 
  295000    1.1952137   -2.2618224    370.11026   0.10455092   0.10890018            2 
  296000    1.1576013   -2.2575881    370.00697   0.10416863   0.10888003            1 
  297000    1.2246203   -2.2639833    372.64892   0.10455918    0.1088581            2 
  298000    1.2214719   -2.2659808    374.80157   0.10481028   0.10884239            1 
  299000    1.1884341   -2.2764059    374.95817   0.10450339   0.10882136            1 
  300000    1.2156448    -2.260065    374.22634   0.10395176   0.10880476            2 
  301000    1.2040014   -2.2448688    377.49197   0.10451051   0.10878568            1 
  302000    1.2137165   -2.2417695    378.73591    0.1045077   0.10876108            1 
  303000    1.1895902   -2.2961619    379.55274   0.10438744   0.10873258            1 
  304000    1.1999836     -2.26422    381.01627   0.10444525    0.1087068            3 
  305000    1.1856429   -2.2521813    380.13572   0.10386222   0.10868284            2 
  306000    1.1893481   -2.2656747    381.41796   0.10387199   0.10865486            2 
  307000     1.210722   -2.3113101    384.52869   0.10437804   0.10862622            1 
  308000    1.2012158   -2.2708037    385.99081   0.10443474   0.10859908            1 
  309000    1.1944359   -2.2888879    386.18533   0.10414923   0.10857359            1 
  310000    1.1692183   -2.2653251    389.42075     0.104683   0.10854744            1 
  311000    1.1780713   -2.2654147    386.48569   0.10355994     0.108522            1 
  312000    1.1978864   -2.2694398    388.60039   0.10379284    0.1084926            1 
  313000    1.2111452   -2.3166319    388.88677   0.10353748    0.1084601            2 
  314000    1.2325951   -2.2821472    392.91175   0.10427594   0.10842964            3 
  315000    1.1772299   -2.2378641    391.84886   0.10366372   0.10840052            2 
  316000    1.1848267   -2.2756383    394.68165   0.10408271   0.10836982            3 
  317000    1.1926626   -2.2757496    394.37238   0.10367308   0.10833886            1 
  318000    1.1968051   -2.2606109    397.51888   0.10417162    0.1083113            1 
  319000    1.2481622   -2.2735229    397.80539    0.1039199   0.10828277            1 
  320000    1.2325291   -2.2837492    398.14275   0.10368301   0.10825221            2 
  321000    1.2184503   -2.2989316    399.32668   0.10366736   0.10821806            3 
  322000    1.1695237   -2.2780679    399.09297   0.10328493   0.10818365            2 
  323000    1.1971448   -2.2927751    399.86753     0.103165   0.10815097            2 
  324000    1.2030664   -2.2600626    400.41434   0.10298723   0.10811432            2 
  325000    1.2027478   -2.2578247    402.86752   0.10329937    0.1080748            2 
  326000    1.2084048   -2.3177586    401.83879   0.10271953   0.10803406            1 
  327000    1.2113744   -2.2464158    404.00462   0.10295735   0.10799497            1 
  328000    1.2242675    -2.278349    404.21509   0.10269692   0.10795304            2 
  329000    1.1920602   -2.2959262    406.52971   0.10297105   0.10791188            2 
  330000    1.1792032   -2.2882591    407.74471   0.10296583   0.10787218            1 
  331000    1.2192324   -2.2832028    410.46564   0.10333979   0.10784014            1 
  332000    1.1851181   -2.2859577    413.16157   0.10370521   0.10780599            3 
  333000    1.1930362   -2.2765487    412.75637   0.10329238   0.10777887            1 
  334000    1.2076425   -2.2720997    416.15669   0.10383151   0.10774585            3 
  335000    1.1907571   -2.2791331    416.80825   0.10368364   0.10771592            2 
  336000    1.2125953   -2.2584535    417.13888   0.10345706   0.10768749            2 
  337000    1.1966499    -2.302223    417.20077   0.10316537     0.107658            2 
  338000    1.2001185   -2.2922787    418.37337   0.10314925   0.10762568            4 
  339000    1.1799084   -2.3114868    418.39963   0.10285143   0.10759496            1 
  340000     1.191916   -2.2754291    422.56965   0.10357099   0.10756391            2 
  341000    1.2140749   -2.3063954    423.70349   0.10354435   0.10753477            1 
  342000    1.1964478   -2.2885517    423.92059   0.10329449   0.10750083            2 
  343000    1.2021715    -2.296286    424.20529   0.10306251   0.10746937            1 
  344000    1.1992091   -2.2819479    428.72372   0.10385749   0.10743807            2 
  345000    1.1971461   -2.2809079    428.12472   0.10341177   0.10740696       -1e+20 
  346000    1.2240318   -2.2553809    426.46825   0.10271393   0.10737148            2 
  347000    1.1733902   -2.2813174    429.41487   0.10312557   0.10733318            1 
  348000     1.186816   -2.2735627    427.96063   0.10248099   0.10729679            3 
  349000    1.1828243   -2.2808295    428.97147   0.10242872   0.10725839            1 
  350000    1.1872272    -2.293879    430.60754    0.1025256   0.10721679            1 
  351000    1.2319228   -2.2802325    430.74187    0.1022654   0.10717422            2 
  352000    1.1809893   -2.2545311    433.99941   0.10274607   0.10713505            1 
  353000     1.213056   -2.2809827    435.01312   0.10269432   0.10709715            2 
  354000    1.2056153    -2.297572    435.27616   0.10246614   0.10705798            2 
  355000    1.1876197   -2.2764217    436.33998   0.10242723    0.1070197            1 
  356000    1.2024272   -2.2788324    439.13014   0.10279264   0.10698254            2 
  357000    1.2145518   -2.3067613    439.36638   0.10255985   0.10694485            1 
  358000    1.2095015   -2.2858487    440.37817   0.10250889   0.10691126            1 
  359000    1.1779244   -2.2575493    443.05096   0.10284377   0.10687773            1 
  360000     1.195323   -2.2869366    443.11208   0.10257224   0.10684465            1 
  361000    1.2184547   -2.2878103    444.08928   0.10251368   0.10680963            2 
  362000    1.1950928   -2.2999769    444.68912   0.10236858   0.10677465            1 
  363000    1.1829866     -2.29356    447.79245     0.102799   0.10674025            1 
  364000    1.1891708   -2.2899256    448.82795   0.10275365   0.10670437            2 
  365000    1.2063037   -2.2824918    448.10024   0.10230599   0.10666871            1 
  366000    1.1975439   -2.2925895      450.522   0.10257787   0.10663353            2 
  367000    1.1996387   -2.2737555    451.89763   0.10261072   0.10659818            2 
  368000    1.1725559   -2.2794231    453.13601   0.10261232   0.10656647            1 
  369000    1.1943565   -2.2768344    456.61512   0.10311995   0.10653691            1 
  370000    1.2068511   -2.2595088    454.45868   0.10235556   0.10650587            2 
  371000    1.2064728     -2.28402    456.44547   0.10252594   0.10647561            2 
  372000    1.1903101   -2.2574649    458.91422   0.10280336   0.10644494            2 
  373000     1.208946   -2.2655648       459.93   0.10275469   0.10641245            1 
  374000     1.189087   -2.2725443    459.96884    0.1024886   0.10638192            2 
  375000    1.1978146   -2.2556593    459.97529   0.10221673   0.10634915            1 
  376000    1.2022367   -2.2820297     463.9298   0.10282132   0.10631684            2 
  377000    1.2041725   -2.2730144    464.68907   0.10271642   0.10628487            3 
  378000    1.2007862   -2.2735388    463.55399   0.10219444   0.10625604            2 
  379000    1.1766353   -2.3053701    464.53082   0.10213958   0.10622609            1 
  380000    1.1806047    -2.267487    465.70585   0.10212847   0.10619573            1 
  381000    1.1690681    -2.261724    468.02943   0.10236864   0.10616241            2 
  382000    1.2227181   -2.2776351    470.66882   0.10267644   0.10613476            1 
  383000    1.1919268   -2.2778259    469.43197   0.10213925   0.10610094            2 
  384000    1.1435942    -2.311849    471.21705   0.10226065   0.10607082            1 
  385000    1.1785119   -2.2971865    472.32165   0.10223412   0.10604003            2 
  386000    1.2243587   -2.2771567    477.59335   0.10310737   0.10601153            1 
  387000    1.2008473   -2.2602109    475.90165   0.10247667   0.10598412            2 
  388000    1.1842149   -2.3159225    475.23294   0.10206893   0.10595532            2 
  389000    1.1829354   -2.2955598    479.19902   0.10265617   0.10592627            1 
  390000    1.1754387   -2.2821625    480.61214    0.1026949   0.10589679            1 
  391000     1.173622   -2.2671297    480.19947    0.1023443   0.10586788            2 
  392000    1.2017132   -2.2758754    482.50308   0.10257293   0.10583937            2 
  393000    1.1731506   -2.2602069    483.20536   0.10246085   0.10581121            3 
  394000    1.1945094   -2.2424965    487.11236   0.10302715   0.10578466            1 
  395000     1.201437     -2.28221    486.78791   0.10269787   0.10575775            1 
  396000    1.2119654    -2.267241    484.77277   0.10201447   0.10573189            1 
  397000    1.1790933   -2.2767409    487.48491   0.10232681   0.10570632            1 
  398000    1.1847356   -2.2923898     490.3252   0.10266441   0.10568008            1 
  399000    1.2065351   -2.2798205    489.99039   0.10233717   0.10565494            3 
  400000    1.1832248   -2.2745507    492.64317   0.10263399   0.10562892            4 
  401000    1.1866257   -2.2652589    495.46048   0.10296352   0.10560247            1 
  402000    1.1822562   -2.3017613    492.67239   0.10212943   0.10557895            2 
  403000    1.2079838    -2.266477    495.55429   0.10247194   0.10555574            2 
  404000    1.2092194   -2.2723327    497.04648   0.10252609   0.10553126            1 
  405000    1.2219126    -2.305407    497.57392   0.10238147   0.10550745            1 
  406000    1.1891553   -2.2933824    499.99823   0.10262689   0.10547966            2 
  407000    1.1943974   -2.2950658    499.80545   0.10233527   0.10545129            2 
  408000     1.183053   -2.3089398    498.61156    0.1018406    0.1054227            1 
  409000    1.1855503   -2.2742482    504.29203   0.10274899   0.10539667            1 
  410000    1.1821058   -2.2738191    502.82514   0.10220023   0.10537136            2 
  411000    1.1826505   -2.2829647    502.58443   0.10190276   0.10534787            3 
  412000    1.2001887   -2.3100928    508.62193    0.1028766   0.10532381            1 
  413000    1.1849484   -2.2579725     507.3475   0.10237036   0.10529987            2 
  414000    1.1703328   -2.3066417    506.46143   0.10194473   0.10527215            1 
  415000    1.1685134   -2.3275539    506.87553   0.10178224   0.10524373            3 
  416000    1.1601302   -2.3172581    507.29747   0.10162209   0.10521292            1 
  417000    1.1799953   -2.2785157    509.57533    0.1018336   0.10518103            1 
  418000    1.1870334   -2.2974256    509.69192   0.10161322   0.10514887            2 
  419000    1.1929943   -2.2816404    508.89291    0.1012118   0.10511656            1 
  420000    1.1817627   -2.3028513    512.92187   0.10177021   0.10508292            1 
  421000    1.1640049   -2.3069307    512.23097   0.10139172   0.10504795            4 
  422000    1.1893641   -2.2971153    512.63021   0.10123029   0.10501231            2 
  423000    1.1911157   -2.2819961    514.52578   0.10136442   0.10497757            4 
  424000    1.1926649   -2.2575404    515.84295   0.10138423   0.10494465            1 
  425000    1.1895658   -2.2820787    518.72287   0.10171037   0.10491334            3 
  426000    1.1619281   -2.3225615    520.17815   0.10175629   0.10488422       -1e+20 
  427000     1.200265   -2.2734538    519.84843   0.10145363   0.10485529            1 
  428000    1.1862811   -2.2613761    522.95901   0.10182224   0.10482616            1 
  429000    1.2137893   -2.3087057    523.53025   0.10169585   0.10479484            2 
  430000    1.1551213   -2.2931723    524.69409    0.1016849   0.10476653            1 
  431000    1.1975743   -2.2821452    525.84317   0.10167115    0.1047391            1 
  432000    1.1715426   -2.2941634    526.51399    0.1015652   0.10470754            1 
  433000    1.1414248   -2.2915061    526.77842   0.10138153   0.10467379            2 
  434000    1.1647348    -2.288768      528.011    0.1013846   0.10464352            1 
  435000    1.1667289   -2.2657102    530.76525   0.10167917   0.10461152            1 
  436000    1.2057654   -2.2940003    531.57589    0.1016009   0.10458131            1 
  437000    1.1797078   -2.2982683    531.06719   0.10127139   0.10455228            2 
  438000    1.1908782    -2.308247     530.9353   0.10101509   0.10452552            2 
  439000    1.1714189   -2.3023568    535.09586   0.10157476   0.10449596            1 
  440000    1.1687113   -2.2857045    534.33668   0.10120013   0.10446638            2 
  441000    1.1955543   -2.2799855    538.23401   0.10170711   0.10443607            2 
  442000    1.1909677   -2.2752967    537.77675   0.10139079   0.10440495            1 
  443000    1.1957281   -2.2519575    538.14781   0.10123172   0.10437497            2 
  444000    1.1901813   -2.3142037    535.27354   0.10046425   0.10434476            1 
  445000    1.1587877   -2.3117211    539.90785   0.10110634   0.10431295            2 
  446000    1.1812868    -2.285522    541.16174   0.10111393   0.10428098            2 
  447000    1.1843088   -2.3219643    540.54088   0.10077198    0.1042504            1 
  448000    1.1645341   -2.3135575    542.17391    0.1008508   0.10422238            1 
  449000    1.1821443   -2.3044344    544.69982   0.10109499   0.10419273            1 
  450000    1.1825286   -2.2929543    545.81343   0.10107656   0.10416355            1 
  451000    1.1556887   -2.2889128    545.93643   0.10087517   0.10413446            1 
  452000    1.1828644   -2.2897774    548.38053    0.1011026   0.10410314            1 
  453000    1.1499349   -2.3009464    549.84587   0.10114898   0.10407572            2 
  454000    1.1704713   -2.2825671     551.6614   0.10125943   0.10404768            1 
  455000    1.1571132   -2.2768147    551.40603   0.10099012   0.10402127            2 
  456000    1.1817466   -2.3003073    554.04086   0.10125016   0.10399249            1 
  457000    1.2006243   -2.2705335    557.20139   0.10160492   0.10396746            1 
  458000    1.1946279    -2.289908    558.13129   0.10155227   0.10394285            2 
  459000    1.1942272   -2.3077927    556.15019   0.10097135   0.10391668            2 
  460000    1.1985528   -2.2849008    558.10982   0.10110685   0.10388836            1 
  461000    1.2306186    -2.304651     558.3197   0.10092547    0.1038615            4 
  462000    1.1762868   -2.2912586    560.97356   0.10118571   0.10383161            2 
  463000    1.1707283   -2.3223991     558.4064   0.10050511   0.10380414            1 
  464000     1.189597   -2.3248907    560.94498   0.10074443   0.10377673            2 
  465000    1.2024175   -2.3200605    562.62132   0.10082819    0.1037486            3 
  466000    1.2086931   -2.3076591    562.71963    0.1006294   0.10372048            4 
  467000    1.1960091   -2.2959161     565.5454   0.10091817   0.10369071            2 
  468000     1.161254   -2.2865226    566.47769   0.10086854   0.10366052            2 
  469000     1.165861   -2.3210698    564.13978   0.10023806   0.10363148            5 
  470000    1.1954343   -2.3373424    564.22721   0.10004029   0.10360015            1 
  471000    1.1576288   -2.2996111     570.9082   0.10100994   0.10357094            3 
  472000    1.1549999    -2.283943    569.57476   0.10056052    0.1035415            1 
  473000    1.1893644   -2.3001385    571.37855   0.10066571   0.10351283            2 
  474000    1.1705687   -2.2838288    575.51959   0.10118136   0.10348474            1 
  475000    1.1634238   -2.3104846     575.0653   0.10088865   0.10345659            2 
  476000      1.16836   -2.2873264    575.80165   0.10080561   0.10343022            2 
  477000    1.1904576   -2.2817466    577.20298    0.1008391   0.10340141            1 
  478000    1.1687021   -2.3050552    576.84301   0.10056538   0.10337078            3 
  479000    1.1626321   -2.2933531    576.99561   0.10038198   0.10334464            1 
  480000    1.1519908   -2.2632634     580.2228   0.10073313   0.10331685            1 
  481000    1.1922062   -2.3065784    582.20858   0.10086774   0.10329175            1 
  482000    1.2128766   -2.2825717    580.72869   0.10040261   0.10326305            2 
  483000    1.1831116   -2.3176669    582.12501   0.10043565   0.10323402            2 
  484000    1.1697769   -2.3006979    582.15041   0.10023251    0.1032023            2 
  485000    1.1470862   -2.2808513    582.48659   0.10008361    0.1031709            1 
  486000    1.1891556   -2.2942467    586.11941   0.10050059   0.10314004            3 
  487000     1.176903   -2.2920134    586.85475   0.10042005   0.10311414            2 
  488000    1.1701565    -2.302023     585.4743  0.099978534   0.10308598            3 
  489000    1.1684431   -2.2946974    588.88237   0.10035487   0.10305578            3 
  490000    1.1621698   -2.2919497    588.78056   0.10013275   0.10302743            2 
  491000    1.1759191   -2.2984037    591.41677   0.10037623   0.10299923            1 
  492000    1.1850649   -2.3029103    591.91878   0.10025725   0.10297129            1 
  493000    1.1736607   -2.3164137    592.65994   0.10017917   0.10294264            1 
  494000    1.1735677   -2.3010683    590.93458   0.09968532   0.10291535            2 
  495000    1.1572031   -2.2709257    596.60358   0.10043831   0.10288611            1 
  496000    1.1903715    -2.289042    595.45828   0.10004339   0.10285674            2 
  497000    1.1805759   -2.3220648    598.85572   0.10041176   0.10282744            2 
  498000     1.186377   -2.3048122    597.80389   0.10003412   0.10279997            1 
  499000     1.173121   -2.3185774    597.64138   0.09980651   0.10277186            5 
  500000    1.1605181    -2.291043    601.02711   0.10017119   0.10274445            1 
  501000    1.1647636   -2.3040164    602.58269   0.10022999   0.10271875            1 
  502000    1.1834648   -2.3066808    602.47795   0.10001294   0.10269137            1 
  503000    1.1866366    -2.313798    604.72801   0.10018688   0.10266478            1 
  504000    1.1469205   -2.3285836    605.98869   0.10019654   0.10263733            1 
  505000    1.1719531   -2.2782047    608.64078   0.10043577   0.10261114            1 
  506000    1.1568425   -2.3053417    608.94623   0.10028759   0.10258414            1 
  507000    1.1862023   -2.3033171    611.24771   0.10046807   0.10255798            1 
  508000    1.1709967   -2.2973127    610.28694   0.10011269   0.10253281            2 
  509000    1.1774356   -2.2911092    610.51055  0.099952611   0.10250584            2 
  510000    1.1801068   -2.2707633    614.49109   0.10040704   0.10248083            2 
  511000    1.1628912   -2.3533813    615.21556   0.10032869   0.10245654            3 
  512000    1.1775566   -2.2894806    617.26676   0.10046659   0.10243391            2 
  513000    1.1666023    -2.299414    619.12594   0.10057276   0.10241259            2 
  514000    1.1604721   -2.2846068    616.68647  0.099981594     0.102391            1 
  515000    1.1573188    -2.309195    622.78947   0.10077499   0.10237136            1 
  516000    1.1748759   -2.3141819     621.3197   0.10034233   0.10235114            2 
  517000    1.1773297   -2.2776346    623.52226   0.10050327   0.10233063            2 
  518000    1.1685147   -2.3195457    623.77539   0.10034997   0.10230846            1 
  519000    1.1685468   -2.3309262    623.88759   0.10017463   0.10228768            1 
  520000    1.1508553   -2.3078209    624.39177   0.10006278   0.10226544            1 
  521000     1.169236   -2.3094275    624.29663  0.099855507   0.10224228            1 
  522000    1.1662898   -2.2971286    627.25724   0.10013685   0.10222069            1 
  523000    1.1808423   -2.2930282    629.91601   0.10036903   0.10219791            1 
  524000    1.1553714   -2.2883924    631.04186   0.10035653   0.10217723            2 
  525000    1.1664782    -2.292945    629.80472  0.099969004   0.10215293            1 
  526000    1.1811624   -2.3019974     631.6268   0.10006762   0.10213178            1 
  527000    1.1812967   -2.3242205    632.39504  0.099999215   0.10211026            3 
  528000    1.1658872   -2.3111853    635.35106   0.10027637   0.10208881            2 
  529000     1.195816   -2.2851741    638.42774   0.10057148   0.10206768            2 
  530000    1.1835429   -2.3367597    636.21299   0.10003349    0.1020467            1 
  531000    1.1724292   -2.3016004    639.60306   0.10037713   0.10202642            1 
  532000    1.1654732   -2.3309587    639.46403   0.10016667   0.10200985            1 
  533000    1.1860501   -2.3228076    641.09188   0.10023325   0.10199204            3 
  534000    1.1685937   -2.2949329     647.4714   0.10104111   0.10197473            1 
  535000    1.1648792   -2.3030171    643.73598    0.1002704   0.10195891            2 
  536000    1.1518665   -2.3192854     645.5254   0.10036154   0.10194252            1 
  537000    1.1582254   -2.2902124    646.12119    0.1002671   0.10192526            2 
  538000     1.165639   -2.3261964    648.47636   0.10044553   0.10190831            1 
  539000    1.1598235   -2.3126036    652.90344   0.10094364    0.1018905            5 
  540000    1.1550037   -2.3083475    648.87739    0.1001354   0.10187464            3 
  541000    1.1636135   -2.3202307    651.22496   0.10031192   0.10185753            2 
  542000    1.1788455   -2.3211617    653.84268   0.10052932   0.10184325            2 
  543000    1.1598936    -2.321093    652.01269   0.10006333   0.10182773            2 
  544000    1.1500307   -2.2913306    654.29615   0.10022919   0.10181296            2 
  545000    1.1328823   -2.2964046    655.53955   0.10023541    0.1017989            1 
  546000    1.1693949   -2.3037789    656.97744   0.10027128   0.10178312            2 
  547000    1.1741288   -2.3092483    658.98395   0.10039365   0.10176783            1 
  548000    1.1557564   -2.3016748    658.12099   0.10007923   0.10175062            2 
  549000    1.1753107   -2.3196815    657.69351  0.099832045   0.10173381            3 
  550000    1.1747784   -2.3005742    662.31033   0.10035005   0.10171735            4 
  551000    1.1867881   -2.3069508    663.23883   0.10030835   0.10170073            2 
  552000    1.1838982   -2.3208299    663.60078   0.10018128   0.10168336            2 
  553000    1.1510331   -2.3136964    665.07204   0.10022183   0.10166429            1 
  554000     1.166127   -2.3276262     665.8424    0.1001568   0.10164715            3 
  555000    1.1640089   -2.3178086    666.12706   0.10001908    0.1016283            3 
  556000     1.174006   -2.3218775    666.67729  0.099921656   0.10160913            2 
  557000    1.1493382   -2.2896265    669.51094   0.10016621   0.10159202            2 
  558000    1.1718661   -2.3100183     669.8282   0.10003408   0.10157488            2 
  559000    1.1664778   -2.2880255    672.14287   0.10020019   0.10156003            2 
  560000    1.1491533   -2.3219482    674.46904   0.10036742   0.10154296            1 
  561000    1.1813977   -2.2687839    674.52784   0.10019724   0.10152878            1 
  562000    1.1546705   -2.3001836    672.87871  0.099774423   0.10151387            1 
  563000    1.1263956    -2.330499    673.54133  0.099695283   0.10149889            1 
  564000    1.1582623   -2.3137009    677.32909   0.10007818   0.10148344            3 
  565000     1.164675   -2.3080668    679.90031   0.10028028   0.10146756            1 
  566000    1.1539956    -2.325458    677.08757  0.099688983   0.10144842            3 
  567000    1.1715714   -2.2931789    679.95727  0.099934931   0.10142807            1 
  568000    1.1405232   -2.3325573    676.86294  0.099305008   0.10140855            1 
  569000    1.1867981   -2.2970767    680.92216   0.09972498   0.10138745            2 
  570000    1.1631478   -2.3084032    680.72082  0.099520587   0.10136617            1 
  571000    1.1419375   -2.3228363    683.50456  0.099752563   0.10134756            2 
  572000    1.1580115   -2.3282825    683.52422  0.099581035   0.10132826            4 
  573000    1.1353257   -2.3231992    686.52224  0.099843257   0.10130852            1 
  574000    1.1375717   -2.3252683    690.27394   0.10021399    0.1012907            2 
  575000     1.174392   -2.3301153    686.20142  0.099449481   0.10127455            1 
  576000    1.1556308    -2.312562    691.08256  0.099983009   0.10125819            2 
  577000    1.1597627   -2.3263574    691.37314  0.099851696   0.10124084            1 
  578000    1.1492884    -2.364356    690.69301  0.099580884     0.101224            2 
  579000    1.1592988   -2.3315368    691.51869  0.099527733   0.10120663            3 
  580000    1.1687445   -2.3250231    693.21027  0.099599176    0.1011904            1 
  581000    1.1254098   -2.3036749    695.44208   0.09974786   0.10117442            1 
  582000    1.1657338   -2.3298647    694.25217  0.099406095   0.10115903            3 
  583000    1.1516383   -2.3115999    698.35412  0.099821915   0.10114575            1 
  584000     1.176862   -2.3262634    698.81348  0.099716535    0.1011314            1 
  585000    1.1307702   -2.3318475    703.20773   0.10017204   0.10111865            4 
  586000    1.1600063   -2.3450747    703.81838   0.10008794   0.10110575            2 
  587000    1.1656787   -2.3220574     700.6521   0.09946793   0.10109095            2 
  588000    1.1680461   -2.3185926    702.86102  0.099611823   0.10107539            1 
  589000    1.1688707   -2.3045661    705.39712  0.099801516   0.10106052            2 
  590000    1.1331135   -2.3160016    708.78789   0.10011128   0.10104563            2 
  591000    1.1436396   -2.3316119    708.30044  0.099873158   0.10103275            2 
  592000     1.139754   -2.3263891    709.06041  0.099811432   0.10101816            2 
  593000    1.1504482   -2.3078179    708.81534  0.099608676   0.10100597            1 
  594000    1.1437972   -2.3118462    713.39881   0.10008401   0.10099198            2 
  595000    1.1302151   -2.3173326    710.74819  0.099544564   0.10097888            3 
  596000    1.1734175   -2.3115586    713.08039  0.099703633   0.10096406            1 
  597000    1.1419325   -2.2915856    713.50667  0.099596129   0.10095114            1 
  598000    1.1589783   -2.3291548    718.72882    0.1001573    0.1009373            2 
  599000    1.1620295   -2.3312541    720.38907   0.10022107   0.10092526            1 
  600000    1.1543597   -2.3176376    718.80325  0.099833785   0.10091397            1 
  601000    1.1494581   -2.3270148    720.32456  0.099878614   0.10090051            1 
  602000    1.1658058   -2.3469547    719.67928  0.099623377   0.10088834            1 
  603000     1.160492   -2.2999996    721.02103  0.099643591   0.10087671            1 
  604000    1.1578869   -2.3149364    727.81171   0.10041552   0.10086482            2 
  605000    1.1406605   -2.3307054    724.31574  0.099768008   0.10085304            1 
  606000       1.1774   -2.3310131    727.26225   0.10000856   0.10084128            2 
  607000    1.1628674   -2.3325313    727.20802  0.099836357   0.10082814            1 
  608000    1.1559935   -2.3256221    729.41833    0.0999751   0.10081578            1 
  609000     1.159779   -2.2943308    733.01137    0.1003026   0.10080329            1 
  610000    1.1578605   -2.3459087    727.94233  0.099445674   0.10079087            2 
  611000    1.1294307   -2.3318746    736.36811   0.10043209   0.10077917            3 
  612000    1.1576845   -2.3214613    735.38765   0.10013448   0.10077167            1 
  613000    1.1453386   -2.3005815    737.29614   0.10023058   0.10076197            2 
  614000    1.1505754   -2.2987175    739.76846   0.10040289   0.10075224            3 
  615000    1.1299929   -2.2982912    740.98849   0.10040494   0.10074342            3 
  616000    1.1456772   -2.3195526    739.88007     0.100092   0.10073284       -1e+20 
  617000    1.1450012   -2.3240884    742.64958   0.10030383   0.10072412            5 
  618000    1.1547658   -2.3031038    743.42516   0.10024611   0.10071467            2 
  619000    1.1653466   -2.3326734    743.16568   0.10004923   0.10070468            2 
  620000    1.1653446   -2.3243578    742.58446   0.09980974     0.100693            1 
  621000    1.1451927   -2.3390931    743.73623  0.099803573   0.10068191            2 
  622000     1.128753   -2.3217526    750.61622   0.10056487   0.10067227            2 
  623000     1.161274   -2.2965213    753.20017   0.10074909   0.10066444            1 
  624000    1.1268013   -2.3377202    750.72037   0.10025646   0.10065594            1 
  625000    1.1426258   -2.3050305     748.6583  0.099821106   0.10064663            1 
  626000    1.1561102   -2.3003747    750.58843  0.099918588   0.10063855            1 
  627000    1.1593485    -2.336227    751.55213  0.099887312   0.10063025            3 
  628000     1.161808   -2.3263268    750.89907  0.099641596    0.1006217            1 
  629000    1.1367458   -2.3231142    757.13524   0.10030938   0.10061308            1 
  630000    1.1499103    -2.310486    753.06971  0.099612396   0.10060246            2 
  631000    1.1290791   -2.3463201    756.45943  0.099902196   0.10059059            2 
  632000    1.1294309   -2.2967546    756.21993  0.099712543   0.10058013            2 
  633000    1.1503217   -2.3248483    760.24201   0.10008452   0.10057204            1 
  634000    1.1513404   -2.3256266    764.48599   0.10048449   0.10056629            1 
  635000     1.145956   -2.3108548    766.56928   0.10059964   0.10055977            2 
  636000    1.1516145   -2.3372342    766.93698   0.10048965   0.10055302            2 
  637000    1.1495809   -2.3013121     767.5611   0.10041354    0.1005478            2 
  638000    1.1419473   -2.3364285    766.33477   0.10009597   0.10054231            3 
  639000    1.1396859   -2.3184912     771.9114   0.10066659   0.10053725            1 
  640000    1.1568239   -2.3401777    766.88529  0.099854855   0.10053282            4 
  641000    1.1214656   -2.3122431    771.57963   0.10030936   0.10052725            1 
  642000    1.1372493    -2.335334    775.84982    0.1007074   0.10052156            1 
  643000    1.1513354   -2.3316019    773.48274     0.100244   0.10051414            1 
  644000    1.1525771   -2.3268018    770.62006  0.099717917   0.10050834            1 
  645000    1.1556247   -2.3406184    775.23759   0.10015989   0.10050134            1 
  646000    1.1524942   -2.3343568    772.65579  0.099671799   0.10049324            3 
  647000    1.1382814   -2.3507926    774.80563  0.099794646   0.10048634            1 
  648000    1.1321905   -2.3164727    773.50295  0.099473116    0.1004783            2 
  649000    1.1392526   -2.3366126    777.39638  0.099819771   0.10047081            1 
  650000    1.1566593   -2.3142106    779.76741  0.099970181   0.10046401            2 
  651000    1.1617127   -2.3122349      784.159   0.10037878    0.1004603            2 
  652000    1.1475536   -2.3379217    783.55448   0.10014756   0.10045663            4 
  653000    1.1504456   -2.3254278    782.64739  0.099878431    0.1004507            1 
  654000    1.1358954   -2.3428999    786.42254   0.10020675   0.10044479            1 
  655000    1.1580335    -2.300573    786.78479   0.10009985   0.10043818            3 
  656000    1.1423999   -2.3303175    784.55698  0.099664251   0.10043139            2 
  657000    1.1330657   -2.3143116    788.64576   0.10003117    0.1004245            1 
  658000    1.1491828   -2.3255731    788.65201  0.099879941    0.1004163            3 
  659000    1.1342871   -2.3042934     790.9538   0.10001945   0.10040959            1 
  660000     1.142881   -2.3483734    788.70308  0.099583723   0.10040144            2 
  661000    1.1421208   -2.3208874    799.38882   0.10078023   0.10039452            1 
  662000    1.1411042   -2.3310621    794.56226   0.10002043   0.10038891            3 
  663000    1.1235915   -2.3312342    798.96935    0.1004235   0.10038431            2 
  664000       1.1559   -2.3354974    799.04575   0.10028185   0.10037984            1 
  665000    1.1667484   -2.3035723    805.12083   0.10089233   0.10037715            2 
  666000    1.1325113   -2.3396307    799.97026   0.10009638   0.10037375            1 
  667000    1.1400049   -2.3092301    806.14666   0.10071797   0.10037263            1 
  668000    1.1462312   -2.3089498    806.01557   0.10055084   0.10037025            1 
  669000    1.1268635    -2.337902    805.93916   0.10039103   0.10036633            1 
  670000     1.172516   -2.3390405    804.31443   0.10003911   0.10036349            1 
  671000    1.1473225   -2.3194462    807.99309   0.10034688    0.1003604            2 
  672000      1.13508    -2.305602    812.98171   0.10081618   0.10035679            1 
  673000    1.1351412   -2.3096228    812.26309    0.1005774   0.10035193            2 
  674000    1.1286864   -2.3250695    809.26203   0.10005713   0.10034744            1 
  675000    1.1193702   -2.3090221     811.0428   0.10012874   0.10034331       -1e+20 
  676000    1.1619236   -2.3265455     808.3174   0.09964465   0.10033764            1 
  677000    1.1440691   -2.3161882    813.69183   0.10015901   0.10033132            3 
  678000    1.1561365   -2.3440131    814.50362   0.10011106   0.10032636            2 
  679000    1.1488939    -2.315526    817.86009   0.10037556   0.10031892            1 
  680000    1.1335899   -2.3330369    815.88734  0.099986193   0.10031191            1 
  681000    1.1296689   -2.3363674    818.39449   0.10014617   0.10030642            2 
  682000    1.1208259   -2.2909735     820.0337   0.10019962    0.1003003            2 
  683000    1.1448555   -2.3291484    821.18111   0.10019291   0.10029449            2 
  684000    1.1739717    -2.307034    821.54702   0.10009101   0.10028942            2 
  685000    1.1301984   -2.3245499    822.14262   0.10001735   0.10028383            2 
  686000    1.1399699   -2.3414752    819.79366  0.099586208   0.10027774            1 
  687000    1.1448397   -2.3270445    824.21702  0.099977805   0.10027147            1 
  688000    1.1492664   -2.3248033    830.34939   0.10057527   0.10026419            3 
  689000    1.1529533   -2.3323587    825.87338  0.099887927     0.100256            1 
  690000    1.1324084   -2.3529743    827.33748  0.099919985   0.10024892            3 
  691000    1.1245621   -2.3142409    829.08788  0.099986479   0.10024287            4 
  692000    1.1557267   -2.3562589    830.48229   0.10000991   0.10023549            3 
  693000    1.1445594   -2.3416948      832.883   0.10015428    0.1002274            3 
  694000     1.122627   -2.3236411    828.80396  0.099520168   0.10022075            2 
  695000    1.1319488   -2.3507141     829.2149  0.099426247   0.10021386            1 
  696000    1.1372602   -2.3260273    838.53958   0.10039985   0.10020636            1 
  697000    1.1592457   -2.3481145     833.9479  0.099706827   0.10019914            2 
  698000    1.1313776   -2.3347713    833.43942  0.099503273   0.10019018            2 
  699000    1.1480007   -2.3234025    835.87026  0.099650723   0.10018157            6 
  700000    1.1284746   -2.3307586    839.10643  0.099893622   0.10017302            2 
  701000    1.1290269   -2.3520695    838.29895  0.099655129   0.10016413            5 
  702000    1.1463357   -2.2951883    839.44596   0.09964933   0.10015533            1 
  703000    1.1481922   -2.3228652    842.09538  0.099821643   0.10014698            3 
  704000    1.1719884   -2.3322872     843.7352  0.099873959   0.10013914            2 
  705000    1.1433868   -2.3517234    841.12493  0.099423751   0.10013054            3 
  706000    1.1469071   -2.3547164    843.21873  0.099530067   0.10012297            2 
  707000    1.1403239   -2.3404554    846.07895   0.09972642   0.10011469            2 
  708000    1.1667263   -2.3419212    849.56402  0.099995765   0.10010617            3 
  709000     1.140884   -2.3558839    847.88994  0.099657962   0.10009992            2 
  710000    1.1251531   -2.3099054    850.30142  0.099800636   0.10009318            1 
  711000    1.1203721   -2.3398841    851.13988  0.099758542   0.10008825            1 
  712000    1.1293112   -2.3352795    856.07797   0.10019639   0.10008216            1 
  713000    1.1511259   -2.3821646    851.01983  0.099464684   0.10007731            2 
  714000    1.1794671   -2.3508202    855.88366  0.099893051     0.100072            2 
  715000    1.1273871   -2.3486681    857.93285  0.099992173   0.10006636            2 
  716000    1.1271823   -2.3185019    857.89651  0.099848291   0.10006057            2 
  717000    1.1516445   -2.3233963    861.51512    0.1001296   0.10005492            1 
  718000    1.1407246    -2.331068    859.82452  0.099793932   0.10004909            1 
  719000    1.1050979    -2.327242    859.84059  0.099656999   0.10004213            2 
  720000    1.1468073   -2.3477026     860.4893  0.099593669   0.10003434            2 
  721000    1.1353222   -2.3321682    863.18134  0.099766683   0.10002747            3 
  722000    1.1303394   -2.3570865    863.88349  0.099709545   0.10001944            1 
  723000    1.1203774   -2.3526524    865.12851  0.099715134   0.10001314            2 
  724000    1.1395932   -2.3032318    866.84528  0.099775009   0.10000562            2 
  725000     1.157057   -2.3587832    867.59135  0.099723143  0.099997686            1 
  726000    1.1331042    -2.365997    866.98509  0.099516195  0.099990976            1 
  727000    1.1510912   -2.3191318    867.13872  0.099396919  0.099981674            3 
  728000    1.1269717   -2.3076786    870.47821  0.099642652   0.09997271            2 
  729000    1.1182879   -2.3425337    872.99011  0.099793108  0.099963528            1 
  730000    1.1557147     -2.31736    870.29033  0.099348211  0.099953991            3 
  731000    1.1286781   -2.3583829    867.92799  0.098942999  0.099943281            2 
  732000     1.145744   -2.3626148    870.67149   0.09912016   0.09993328            1 
  733000    1.1200542   -2.3352806    874.80519  0.099454887  0.099924078            1 
  734000    1.1430112   -2.3550251    872.02619  0.099003882  0.099914556            2 
  735000    1.1358873   -2.3200344    876.68263  0.099397124  0.099903975            1 
  736000    1.1143478   -2.3595128    878.22135  0.099436294  0.099895153            2 
  737000    1.1112292   -2.3589957    874.37394  0.098866343  0.099885032            2 
  738000    1.1418286   -2.3410155    881.71146  0.099560914  0.099875835            2 
  739000    1.1356546   -2.3103441    880.37729  0.099275744  0.099867303            3 
  740000    1.1129351   -2.3206032    878.74136  0.098957361  0.099858318            1 
  741000    1.1300295    -2.329768    883.81782  0.099394717  0.099849979            1 
  742000    1.1398258   -2.3567769    882.00918  0.099057635   0.09984115            2 
  743000    1.1393843   -2.3419372    886.68445  0.099448682  0.099833748            1 
  744000    1.1530975   -2.3440716    889.13557  0.099589558  0.099826322            1 
  745000    1.1504388   -2.3327185    891.21632  0.099688626  0.099819503            2 
  746000    1.1483756   -2.3289191    890.94096  0.099524236  0.099810558            3 
  747000    1.1617125   -2.3268473    891.60601  0.099465195  0.099802889            3 
  748000    1.1270041   -2.3486456    890.03785  0.099157514  0.099795056            3 
  749000    1.1245004   -2.3529411    895.18096  0.099597347  0.099787962            2 
  750000    1.1060545   -2.3179276    893.50324  0.099278138  0.099779686            1 
  751000    1.1592272    -2.356128    895.21817  0.099336237  0.099771418            2 
  752000    1.1053967   -2.3676871    897.80693  0.099491017  0.099763658            2 
  753000     1.110713   -2.3361767    901.16436  0.099730451  0.099757342            1 
  754000    1.0983002   -2.3509001    902.72702  0.099770891   0.09975079            2 
  755000    1.1563212   -2.3316458    902.47473  0.099610897  0.099745156            1 
  756000    1.1680509   -2.3454847    903.61602   0.09960494  0.099739728            1 
  757000    1.1276414   -2.3429862    903.75468  0.099488626  0.099732923            2 
  758000    1.1189941   -2.3348599    901.31888  0.099089586  0.099726382            4 
  759000    1.1291551   -2.3411415    904.45797  0.099303686  0.099719031            1 
  760000    1.1237182   -2.3396161    909.51056  0.099727035  0.099712292            3 
  761000    1.1249949   -2.3569587     903.6962  0.098959286  0.099703783            1 
  762000    1.1555392   -2.3576823    909.62807  0.099478135  0.099695124            1 
  763000    1.1266687   -2.3584872    910.55101  0.099448559  0.099688135            2 
  764000    1.1260185   -2.3346528    911.43814  0.099415155  0.099681046            3 
  765000    1.1470106   -2.3444011    913.51594  0.099511541  0.099673979            1 
  766000    1.1213343   -2.3342261    915.28565  0.099574157  0.099667403            2 
  767000    1.1126568   -2.3612839    912.70075  0.099163489  0.099660571            3 
  768000    1.1157663   -2.3334802    914.99505  0.099283317  0.099653664            1 
  769000    1.1190921   -2.3484309    913.40303  0.098981689  0.099645401            4 
  770000    1.1208163   -2.3522291    916.88407  0.099229877  0.099637373            5 
  771000    1.1255998   -2.3498395    918.12507  0.099235308  0.099630844            1 
  772000    1.1311519   -2.3470987    915.41354   0.09881407  0.099623154            1 
  773000    1.1413909   -2.3592392    920.69898  0.099256035  0.099614013            4 
  774000    1.1272539   -2.3118132    924.69991   0.09955856  0.099606357            3 
  775000    1.1062554   -2.3435466    921.77216  0.099115286  0.099597771            3 
  776000    1.1137925   -2.3378388    923.68851  0.099193354  0.099589374            3 
  777000    1.1228008   -2.3424912    926.40864  0.099357426  0.099581894            2 
  778000    1.1330928   -2.3444073    928.24991  0.099426939  0.099573285            2 
  779000     1.155198   -2.3635139    922.97314  0.098734824  0.099565655            2 
  780000    1.1261223   -2.3338399    928.06186  0.099151908   0.09955851            2 
  781000    1.1268066   -2.3739262    933.37224  0.099591575  0.099551835            1 
  782000    1.1176961   -2.3222175    933.28506  0.099454929  0.099546035            2 
  783000    1.1047298   -2.3432275    931.98671  0.099189731  0.099540109            2 
  784000    1.1231162   -2.3282903    936.72143  0.099566479  0.099533511            3 
  785000    1.1024901   -2.3547949     935.7254  0.099333906  0.099527221            2 
  786000    1.1257966   -2.3643275    936.10551  0.099247827  0.099519025            2 
  787000    1.1033934   -2.3428972    931.92702  0.098679269  0.099509645            5 
  788000    1.1137664   -2.3456216    936.81944  0.099071429  0.099502751            1 
  789000    1.1331085   -2.3519033    939.94013  0.099275468  0.099494818            1 
  790000    1.1063253   -2.3561233    939.89654  0.099145205  0.099485904            2 
  791000    1.1317351   -2.3683413    941.98448  0.099239831  0.099479027            2 
  792000    1.1416161   -2.3635313     944.7739  0.099408028  0.099472878            1 
  793000    1.1321583   -2.3480876    942.30834  0.099023575  0.099465228            1 
  794000    1.1160168   -2.3556161    944.26533  0.099104254  0.099458452            2 
  795000    1.0851169   -2.3381813    945.37028  0.099095417   0.09945037            1 
  796000     1.103981   -2.3553664    948.08625   0.09925526  0.099444435            5 
  797000     1.125098   -2.3520292    950.71908   0.09940601  0.099437454            1 
  798000    1.1359999   -2.3802398    947.78403   0.09897494  0.099430353            2 
  799000     1.134245   -2.3353348    952.68986   0.09936273  0.099424626            1 
  800000    1.1255361   -2.3600404    951.62591  0.099127699  0.099417876            2 
  801000    1.1214495   -2.3609858    955.68134  0.099425857  0.099411897            1 
  802000    1.1614048   -2.3452807    951.18627  0.098834816   0.09940512            1 
  803000    1.1128812   -2.3629412    953.21253  0.098922014  0.099398984            1 
  804000    1.1163187   -2.3561538    954.90248  0.098974137  0.099392208            2 
  805000    1.1468993   -2.3530139    956.93859  0.099061965  0.099385242            1 
  806000    1.0937762   -2.3703217    958.01714  0.099050573  0.099379332            2 
  807000    1.1061514   -2.3506874    961.15214  0.099251563  0.099372907            2 
  808000    1.1087832   -2.3644384    962.75644  0.099294188   0.09936775            2 
  809000    1.1438819   -2.3477341    960.47959  0.098936917  0.099363048            4 
  810000     1.110792   -2.3486143     964.9454  0.099274218  0.099357701            2 
  811000    1.1150044   -2.3385195     967.7765  0.099442714  0.099353595            2 
  812000    1.1157927   -2.3789575    970.50924  0.099600702  0.099348333            1 
  813000    1.1018215   -2.3213193    975.93383   0.10003422  0.099344953            2 
  814000    1.1317376   -2.3583935    969.92837  0.099296516  0.099340787            2 
  815000    1.1501483   -2.3697743    973.77109  0.099567596  0.099338891            2 
  816000    1.1203992   -2.3521958    972.01526  0.099266264   0.09933621            1 
  817000    1.1296606   -2.3277495    978.18195   0.09977376  0.099333864            2 
  818000    1.0908724   -2.3735629    977.78391  0.099611237  0.099331357            4 
  819000    1.1023791   -2.3216251    976.61898  0.099371081   0.09932811            4 
  820000    1.1228271   -2.3727429    979.49161   0.09954183  0.099325573            1 
  821000    1.1011988   -2.3372655    979.99171  0.099471347  0.099323597            3 
  822000    1.1280999    -2.352808    982.73172  0.099628114  0.099321149            1 
  823000    1.1073878   -2.3853564    980.13337  0.099243962  0.099317551            2 
  824000     1.128471   -2.3638342    986.34843  0.099752066  0.099313827            2 
  825000    1.1184466   -2.3753395    983.27323  0.099320528  0.099310087            2 
  826000    1.1292708   -2.3542561    987.48931  0.099625637  0.099305199            1 
  827000    1.1344321   -2.3690489    982.21692  0.098973894  0.099299975            3 
  828000    1.1061224    -2.358993     985.9647  0.099231552  0.099294436            2 
  829000    1.1346175   -2.3395584    983.71945  0.098886153  0.099288263            2 
  830000    1.1216908   -2.3336875    989.19329  0.099316595  0.099284207            2 
  831000    1.1344314   -2.3619793    987.30979  0.099008202  0.099278989            2 
  832000    1.0939294   -2.3823784     985.1531  0.098673187  0.099273686            2 
  833000     1.121467   -2.3420882    991.00081  0.099139737  0.099268118            1 
  834000    1.1297344   -2.3471461    994.86689  0.099407163  0.099262671            2 
  835000     1.107107   -2.3872471    994.32594  0.099234126  0.099257204            3 
  836000    1.1237704   -2.3573105    995.24205  0.099206744     0.099252            1 
  837000    1.1094652   -2.3712927    998.46167  0.099408768  0.099246597            2 
  838000    1.1240662   -2.3619936    999.86108  0.099429304  0.099241954            2 
  839000    1.1241727    -2.373999    997.02452  0.099029054  0.099236888            2 
  840000    1.1289661   -2.3575933    1001.4018  0.099345414  0.099231816            1 
  841000    1.1156434   -2.3501651    1004.3248  0.099516922  0.099226432            2 
  842000    1.1205339     -2.34582    1001.4897  0.099118138  0.099220374            5 
  843000    1.0955885   -2.3530786    1002.3716  0.099087739  0.099213855            2 
  844000    1.1026091   -2.3640886    1006.6071  0.099388538  0.099207758            2 
  845000    1.1279422    -2.339012    1001.4112  0.098758505  0.099200573            1 
  846000    1.1277658    -2.356383    1006.3017  0.099123494  0.099194809            2 
  847000    1.1193172    -2.349651    1005.2551  0.098903491  0.099187929            2 
  848000    1.1131092   -2.3546197    1008.8908   0.09914414  0.099182044            1 
  849000    1.1192082   -2.3463911    1012.9874  0.099429471  0.099175976            3 
  850000    1.1347578   -2.3532813    1011.4997  0.099166641  0.099171133            1 
  851000    1.1259652   -2.3439714    1015.1406   0.09940664  0.099166448            4 
  852000    1.0907469   -2.3659734    1012.2239  0.099004686  0.099160687            3 
  853000    1.1195925   -2.3716234    1010.4522   0.09871553   0.09915448            2 
  854000    1.1250009   -2.3833796    1017.6047  0.099297886    0.0991482            2 
  855000    1.1378746   -2.3608511    1010.7728  0.098515869  0.099142822            2 
  856000    1.1305442   -2.3547391      1015.18  0.098829828  0.099136637            3 
  857000    1.1149936   -2.3292186    1018.8687  0.099073194  0.099130172            2 
  858000    1.1021065   -2.3684364    1019.6381  0.099032451  0.099125077            2 
  859000    1.1378962   -2.3589655    1019.0154  0.098856751  0.099118754            1 
  860000    1.1196932   -2.3567241     1021.515  0.098984008  0.099112397            1 
  861000     1.111033   -2.3634012    1018.1469  0.098543056  0.099104616            4 
  862000    1.1292943   -2.3814515    1013.5734  0.097986599  0.099095354            1 
  863000    1.1021551    -2.353914    1019.8662  0.098480704  0.099086373            2 
  864000    1.1158609   -2.3342642    1024.8028  0.098842866  0.099077548            1 
  865000    1.1050455   -2.3532993    1026.3767  0.098880225  0.099070382            2 
  866000    1.0897482    -2.360862    1025.1383  0.098646875  0.099062914            1 
  867000    1.0948265   -2.3633138    1028.3539  0.098842162  0.099055769            1 
  868000    1.1195474   -2.3719634     1027.808   0.09867588  0.099048278            7 
  869000    1.1159322   -2.3345235    1033.9303  0.099149431  0.099040996            2 
  870000     1.108881    -2.353423    1029.9603  0.098655202  0.099033624            5 
  871000    1.1227932   -2.3488118     1032.435  0.098778704  0.099027334            1 
  872000    1.1145345    -2.351366    1032.1793  0.098640988  0.099020701            2 
  873000    1.0928701   -2.3868382    1033.8123  0.098683879  0.099013461            2 
  874000    1.1108355   -2.3746716    1041.3717  0.099291734  0.099007202            2 
  875000    1.0959515    -2.358349    1041.8238   0.09922131  0.099001412            1 
  876000    1.1026744   -2.3674183    1036.3426  0.098586625  0.098996281            3 
  877000    1.1372091   -2.3514211    1043.2902  0.099134378  0.098991186            2 
  878000    1.1092198   -2.3542958    1044.0034  0.099089158  0.098986166            1 
  879000    1.1009101   -2.3553774    1043.1166  0.098892356  0.098980639            1 
  880000    1.0996108   -2.3793651     1044.146  0.098877463  0.098975432            3 
  881000    1.1159934   -2.3490682    1046.8688  0.099022778  0.098969078            3 
  882000    1.1191607   -2.3931811     1041.593  0.098412041  0.098962883            1 
  883000    1.1247238   -2.3919511    1044.4894  0.098573934   0.09895628            1 
  884000     1.114136   -2.3745308    1049.7443  0.098957795  0.098950306            4 
  885000    1.1173582   -2.3678558    1045.6636  0.098461731  0.098944402            2 
  886000    1.1159172   -2.3655435    1050.8414  0.098837601  0.098938902            4 
  887000    1.1156427   -2.3693172    1052.5231  0.098884174  0.098933925            2 
  888000    1.0970986   -2.3588666    1052.6539  0.098785084    0.0989291            2 
  889000    1.1049528   -2.3747092    1050.5692  0.098478553  0.098924804            1 
  890000    1.0990727   -2.3688501    1057.0144  0.098971389  0.098921204            2 
  891000    1.1386431   -2.3680142    1057.4022  0.098896575  0.098916724            3 
  892000    1.0865863   -2.3890033    1054.8964  0.098551606  0.098910891            2 
  893000    1.1008327   -2.3419174    1060.7561  0.098988068  0.098905631            1 
  894000    1.1370791   -2.3925822    1065.5961    0.0993285  0.098901392            2 
  895000    1.1107618   -2.3758746    1060.9544  0.098785329    0.0988974            5 
  896000      1.10129   -2.3613986    1063.4411  0.098906351  0.098892863            2 
  897000     1.099577   -2.3667041    1064.3266  0.098878356   0.09888911            1 
  898000    1.0932116    -2.399753    1062.2636  0.098576801  0.098883965            2 
  899000    1.1143412   -2.3649163    1065.1609  0.098735718  0.098879672            3 
  900000    1.1256404   -2.3834663    1067.3957  0.098832936  0.098875452            1 
  901000     1.093532    -2.363286      1070.46  0.099006657  0.098871007            2 
  902000    1.1395685   -2.3708838    1069.5546  0.098813251   0.09886527            3 
  903000     1.120916   -2.3648572    1069.3101  0.098681256  0.098859136            1 
  904000    1.1175621   -2.3750561    1072.6392  0.098878986  0.098854203            2 
  905000    1.1023711   -2.3624619    1071.7624  0.098688985  0.098848541            3 
  906000    1.0931467   -2.3608726    1068.2399  0.098256065   0.09884252            5 
  907000    1.1019502   -2.3532834    1076.8245  0.098936463  0.098836526            3 
  908000    1.0998876   -2.3898204    1074.3808  0.098603234    0.0988311            3 
  909000    1.1186517   -2.3510228    1080.3018  0.099037573  0.098826386            1 
  910000    1.1011233   -2.3733774    1076.9422  0.098621078  0.098820686            1 
  911000    1.1258275   -2.3793708    1079.2465   0.09872361  0.098815143            2 
  912000    1.1065053   -2.3336556    1079.3816  0.098627706  0.098809424            2 
  913000    1.0994332   -2.3688269    1081.6946    0.0987308  0.098803687            2 
  914000    1.1030424    -2.342006    1081.0486   0.09856388  0.098797553            1 
  915000    1.0893798   -2.3609639    1081.2767  0.098476935  0.098791201            1 
  916000    1.1222251   -2.3865156    1080.7205   0.09831882  0.098784398            2 
  917000    1.1139763   -2.3884207    1082.6404  0.098386074  0.098777502            2 
  918000    1.1128587   -2.3508247    1089.0874  0.098864144  0.098770889            3 
  919000    1.0893505   -2.3823769    1088.7495  0.098725927  0.098764383            1 
  920000    1.1105656   -2.3679741    1092.7008  0.098976519   0.09875819            1 
  921000    1.0938774   -2.3685583    1089.6552  0.098593488  0.098753035            1 
  922000    1.1217866   -2.3424797    1089.8912  0.098507883  0.098747868            2 
  923000    1.1178543   -2.3932339    1095.9779  0.098950698  0.098742597            2 
  924000    1.1091367   -2.3588365    1090.1689  0.098319704  0.098736997            1 
  925000    1.0991372   -2.3833876    1090.5689  0.098249448  0.098730981            1 
  926000    1.0901258   -2.3584919    1096.1798  0.098648291   0.09872498            1 
  927000    1.1019062   -2.3665684    1098.4752  0.098748219  0.098720037            3 
  928000    1.0885359   -2.3691303    1101.9952  0.098957898  0.098714361            5 
  929000    1.0917545   -2.3497983    1099.1041  0.098592042  0.098710119            2 
  930000     1.131908   -2.3605931    1105.7334  0.099080056  0.098704652            1 
  931000    1.0948813   -2.3710509    1105.1713  0.098923321  0.098699417            2 
  932000    1.1023747     -2.36213    1099.8274  0.098339357  0.098693619            4 
  933000    1.1080599   -2.4041458    1104.0162  0.098608088  0.098687634            1 
  934000    1.1021766   -2.3868174    1105.6592  0.098649111   0.09868234            3 
  935000    1.1056476    -2.410724    1101.5501  0.098177373  0.098675848            4 
  936000    1.1171095   -2.3603113    1107.9852   0.09864541  0.098669566            1 
  937000    1.1061867    -2.371115    1105.7081  0.098337609  0.098664208            1 
  938000     1.087087   -2.3775019    1107.2684  0.098371391  0.098657485            2 
  939000    1.1097435   -2.3640081    1110.0811  0.098516246  0.098651215            4 
  940000    1.1232497   -2.3730745    1118.2047   0.09913162  0.098645767            5 
  941000     1.094795    -2.377519    1112.6131  0.098531092   0.09863937            1 
  942000    1.1106222   -2.3793003     1111.736  0.098348901  0.098632267            2 
  943000    1.1151292    -2.358588    1118.7277  0.098862467  0.098626451            3 
  944000    1.1377814   -2.3751682    1116.7623  0.098584239  0.098620677            1 
  945000    1.1081014   -2.3723414    1114.7319  0.098300872  0.098615687            3 
  946000    1.0971115   -2.3752964    1118.3699  0.098517436  0.098610554            1 
  947000    1.1117579   -2.3660184    1120.8039  0.098627589  0.098606118            2 
  948000    1.0906927   -2.3925335    1120.5408  0.098500419  0.098600661            2 
  949000    1.1014107   -2.3534726    1125.4429  0.098827087   0.09859527            2 
  950000    1.0856343   -2.3360007    1126.1687  0.098786728   0.09859025            2 
  951000     1.098814    -2.348432    1128.7057  0.098905164  0.098586063            1 
  952000    1.0785808   -2.3606946    1134.4867  0.099307312  0.098581095            3 
  953000    1.0831658   -2.3795186    1122.4037  0.098146525  0.098576848            1 
  954000    1.1112736    -2.392945    1129.2913  0.098645293  0.098571302            1 
  955000    1.1014573   -2.3770355    1128.8083   0.09849985  0.098566762            3 
  956000    1.0850712   -2.3833416    1125.6234  0.098119191  0.098561343            4 
  957000     1.071751    -2.353487    1130.3635  0.098429426  0.098556214            1 
  958000    1.0982925   -2.3667142    1130.8582  0.098369712  0.098550974            1 
  959000    1.0800443   -2.3708398    1130.4683  0.098233253  0.098544434            3 
  960000    1.0756859   -2.3675376    1134.3525  0.098468097  0.098538653            2 
  961000    1.0844632   -2.4040792    1135.3855   0.09845521  0.098532434            2 
  962000    1.0892396   -2.3607691    1135.1059  0.098328645  0.098526663            2 
  963000    1.1080737   -2.3461532    1137.2361  0.098410881  0.098521356            1 
  964000    1.1000125    -2.379331    1131.8172  0.097840354   0.09851516            1 
  965000     1.088153   -2.3877978    1137.0981  0.098194998  0.098509336            1 
  966000    1.0894322   -2.3980115    1138.6623  0.098228284  0.098503573            2 
  967000    1.1004383   -2.3857807     1141.189  0.098344446  0.098497746            2 
  968000    1.1073032   -2.3694049    1142.6848  0.098371622  0.098491855            2 
  969000    1.0975994   -2.3518409     1146.238  0.098575679  0.098486488            2 
  970000    1.0878801   -2.3841156    1140.9344  0.098018423  0.098480806            2 
  971000    1.1007387   -2.3787137    1147.5494  0.098485184  0.098473713            2 
  972000     1.108125   -2.4009847    1144.0253   0.09808173   0.09846732            1 
  973000     1.102021   -2.4002579    1144.4401  0.098016449  0.098461115            3 
  974000    1.0714953   -2.3903394    1150.1055  0.098400537   0.09845506            3 
  975000     1.094101   -2.3745239    1145.4565  0.097902265  0.098448423            1 
  976000    1.0760044   -2.3914837    1151.9423  0.098355728  0.098442224            4 
  977000     1.079365   -2.3841149    1153.9221  0.098423922  0.098436275            3 
  978000    1.1094578   -2.4053454    1155.0618  0.098420397  0.098431044            2 
  979000    1.1124561   -2.4050976    1151.8481   0.09804631   0.09842467            1 
  980000    1.1326137    -2.360108    1156.9205  0.098377589  0.098418356            3 
  981000    1.0967075   -2.3892302    1158.9198  0.098447146  0.098412498            1 
  982000    1.1029923   -2.3726313    1157.4627  0.098223245  0.098407403            2 
  983000    1.0772378   -2.3837136    1163.0062  0.098593266  0.098401327            2 
  984000    1.0809129    -2.365479    1160.6701  0.098295234  0.098395391            2 
  985000    1.1027251   -2.3688827    1157.3122  0.097911354   0.09838957            2 
  986000    1.1085659   -2.4219496    1154.3553  0.097562142  0.098383671            2 
  987000    1.0817777   -2.3977164    1163.1843  0.098208735  0.098377858            1 
  988000    1.0760047   -2.3676246    1163.0082   0.09809448  0.098371536            4 
  989000    1.0866761   -2.3934846    1162.7917  0.097977055   0.09836544            2 
  990000     1.124325   -2.3898592     1163.702   0.09795471  0.098359985            2 
  991000     1.085015   -2.3703706    1170.6982   0.09844418  0.098354242            2 
  992000    1.0874374    -2.394903    1169.4936  0.098243752  0.098349445            3 
  993000    1.1148098   -2.3970851    1170.7479  0.098250073  0.098344118            1 
  994000    1.0985211   -2.3845488    1180.4736  0.098966597  0.098339312            2 
  995000     1.074458   -2.3867703    1172.1785  0.098172405  0.098333298            2 
  996000    1.0738004   -2.3739071    1175.6106  0.098360994  0.098327781            3 
  997000    1.0999621   -2.3815551    1172.3513  0.097989913  0.098322039            2 
  998000    1.0794862   -2.3844076    1179.8159   0.09851502   0.09831604            1 
  999000    1.0907097   -2.3598333    1177.9302  0.098259111  0.098310931            1 
 1000000    1.1101826   -2.3911338    1180.6152  0.098384597  0.098305817            1 
 1001000    1.0805498   -2.3853581    1180.3246  0.098262121  0.098299618            1 
 1002000    1.1010212   -2.3765268    1179.0421  0.098057397   0.09829375            2 
 1003000    1.1012125   -2.3910286    1179.3012  0.097981153  0.098286731            1 
 1004000    1.1082832   -2.3923493    1184.6083   0.09832406  0.098280358            3 
 1005000    1.0961846   -2.4057447    1178.7717  0.097742262  0.098273246            2 
 1006000    1.1137259   -2.3937449    1186.1659  0.098257612  0.098266832            1 
 1007000    1.0649386   -2.3569937     1177.003  0.097401771  0.098259643            1 
 1008000    1.0864662   -2.3735286    1186.9417  0.098126791  0.098250989            2 
 1009000    1.0990203   -2.3778131    1181.3252  0.097565679  0.098242494            1 
 1010000    1.1009955   -2.3865201    1187.5245  0.097980567  0.098234692            1 
 1011000      1.07352   -2.3783082    1189.0488  0.098009298  0.098226093            1 
 1012000    1.0803608   -2.4053546     1187.017   0.09774514  0.098217501            2 
 1013000    1.0738146   -2.3733509    1189.9541  0.097890265  0.098208681            1 
 1014000    1.0951833   -2.3909888    1195.3057  0.098233541  0.098199911            2 
 1015000    1.0731815   -2.3988029    1193.3763  0.097978347  0.098192063            1 
 1016000    1.0915265     -2.36164    1193.6487   0.09790426  0.098184411            2 
 1017000    1.1074548   -2.3744782    1189.8667  0.097498094  0.098177072            1 
 1018000    1.1060312   -2.4017514     1191.096  0.097502945  0.098169167            2 
 1019000    1.0828359   -2.3904241    1193.7732  0.097626205  0.098161106            1 
 1020000    1.0971607   -2.3693518    1193.8659  0.097538064  0.098153703            2 
 1021000     1.086691   -2.3920316    1199.0856  0.097868561  0.098146308            4 
 1022000    1.0774206   -2.3797789    1200.6965  0.097904151  0.098138729            2 
 1023000    1.1022622   -2.3987562    1200.2985  0.097776027   0.09813155            1 
 1024000    1.0759034   -2.3710668    1204.5763  0.098028667  0.098124053            1 
 1025000    1.1074435   -2.3913812    1201.6156  0.097692328  0.098118408            3 
 1026000    1.0809893   -2.3646431    1203.7765  0.097772616  0.098112048            1 
 1027000    1.0959654   -2.3709699    1205.5952  0.097824991   0.09810548            5 
 1028000    1.0873393   -2.4137327    1206.7065  0.097819918  0.098099998            2 
 1029000    1.0841837    -2.409692    1210.8351  0.098059211   0.09809482            1 
 1030000    1.0976822   -2.4051776    1209.5808  0.097862524  0.098089495            2 
 1031000    1.0884918   -2.3742961    1211.2036  0.097898773  0.098084318            2 
 1032000    1.1182225   -2.3912436    1215.5113  0.098151753  0.098078918            1 
 1033000    1.1063099   -2.3639064    1215.9469  0.098091876  0.098073703            1 
 1034000    1.0718361   -2.3975909    1211.4143  0.097631717  0.098069098            2 
 1035000     1.072136   -2.3926164    1222.0549  0.098394114  0.098064315            2 
 1036000    1.1066929    -2.389467    1221.1676  0.098227767  0.098058499            3 
 1037000    1.0887396   -2.3930893     1226.548  0.098565413  0.098053522            3 
 1038000    1.0667477   -2.3656663    1220.4569  0.097981443  0.098048219            4 
 1039000    1.0948183    -2.374862    1230.2572  0.098673178  0.098043058            2 
 1040000    1.0871141   -2.3952483    1225.5156  0.098198366  0.098037999            1 
 1041000    1.0806515   -2.3964359    1226.0842  0.098149548  0.098033149            2 
 1042000    1.0605731   -2.3977694    1224.7418  0.097948003  0.098028304            2 
 1043000    1.0979207   -2.3980835    1226.9172  0.098027903  0.098023592            1 
 1044000     1.083614   -2.4089018    1231.2804  0.098282278  0.098019258            2 
 1045000    1.1018724   -2.3984312    1230.8236  0.098151806   0.09801416            2 
 1046000     1.087368   -2.4129899    1227.6234  0.097803013  0.098009433            2 
 1047000    1.0898152   -2.3999081    1231.9678  0.098055377  0.098004242            2 
 1048000    1.1313325   -2.4097133    1236.4874  0.098321202  0.097999767            2 
 1049000    1.1077683   -2.3980673    1238.6506  0.098399315  0.097994684            3 
 1050000    1.0826249   -2.4243728     1233.112  0.097866033  0.097988979            3 
 1051000    1.0726622   -2.4017183    1235.3641  0.097951479  0.097983715            1 
 1052000    1.0970995   -2.3957666    1240.8443  0.098292482  0.097978612            3 
 1053000    1.1046247   -2.3733891     1241.931   0.09828514  0.097974881            3 
 1054000    1.0805054   -2.3799477    1244.7978  0.098418551  0.097969679            1 
 1055000    1.0877144   -2.3926498    1236.9272  0.097703572  0.097964619            1 
 1056000    1.0498512    -2.367378    1247.6496  0.098457197  0.097959359            2 
 1057000     1.088942    -2.386978    1244.2908  0.098099242  0.097954872            1 
 1058000    1.0716609   -2.3792945    1243.6108  0.097952965    0.0979495            1 
 1059000    1.0636279   -2.4018054    1240.3066  0.097600458  0.097944861            2 
 1060000    1.0698839   -2.3861868    1246.2609  0.097976484  0.097939602            1 
 1061000    1.0786664   -2.3945054    1247.9521  0.098016972  0.097935045            1 
 1062000    1.0767139   -2.3963768    1254.5117  0.098439402  0.097930651            2 
 1063000    1.0727701   -2.3482844    1252.8298  0.098214943  0.097926245            1 
 1064000    1.0706121   -2.4243298    1247.5767  0.097711208  0.097920959            5 
 1065000    1.0762283   -2.3617191    1251.6782  0.097940392  0.097916766            1 
 1066000     1.062932   -2.3776449    1253.9576  0.098026701  0.097911798            4 
 1067000    1.0686824   -2.3829341    1255.1018  0.098024194  0.097907431            1 
 1068000    1.0709948   -2.3953425    1258.2907  0.098181232   0.09790289            4 
 1069000    1.0620598   -2.3657854    1255.3396  0.097859336  0.097897886            4 
 1070000    1.0695541   -2.3962233    1259.9807  0.098129335  0.097893665            2 
 1071000    1.1108421    -2.397775    1257.5529  0.097848807  0.097888764            2 
 1072000    1.0675196   -2.3949234    1262.5658  0.098147217  0.097884051            2 
 1073000    1.0683919    -2.390312    1256.4303   0.09757924  0.097879386            2 
 1074000    1.0663906   -2.4009368    1259.3289  0.097713294  0.097875021            3 
 1075000     1.088071   -2.4232719     1267.289   0.09823946  0.097870992            1 
 1076000    1.0616994    -2.398905    1264.6727  0.097945528  0.097867517            1 
 1077000    1.0659545   -2.3877809    1263.0112  0.097726032  0.097863837            2 
 1078000    1.0650774   -2.4064578    1265.0382  0.097792067  0.097859665            2 
 1079000    1.0614824   -2.3885689    1272.2192  0.098256038  0.097855151            2 
 1080000    1.1011032   -2.4079774    1270.1289   0.09800377  0.097851664            4 
 1081000    1.0791294   -2.3753419    1275.6451  0.098338351  0.097847981            1 
 1082000    1.0780523   -2.4126938     1273.999  0.098120688  0.097844196            2 
 1083000    1.0723802   -2.4024455    1269.4175  0.097677555  0.097839966            2 
 1084000     1.101517   -2.3850216    1276.4522  0.098128243  0.097835968            4 
 1085000    1.0826092   -2.4044977    1273.4869  0.097810052  0.097831876            3 
 1086000    1.0984197   -2.3797704    1275.8086  0.097898141  0.097827468            2 
 1087000    1.0630128   -2.4031003    1276.1146  0.097831542  0.097822921            4 
 1088000    1.0616874   -2.4208351    1273.6494  0.097552806  0.097817973            1 
 1089000     1.079506   -2.3689395    1278.1899  0.097810673   0.09781219            2 
 1090000    1.0612901   -2.4013944    1279.9005  0.097851723   0.09780671            1 
 1091000    1.0562933   -2.4108178     1280.777  0.097828977  0.097801289            2 
 1092000    1.0907857   -2.3918138    1284.6598  0.098035698  0.097796727            3 
 1093000    1.0826009   -2.3844005    1277.9219  0.097432292  0.097790662            1 
 1094000    1.0713397   -2.4113535    1287.5132  0.098073826  0.097784452            2 
 1095000    1.0469012   -2.3983342    1281.4187  0.097520448  0.097778509            3 
 1096000    1.0792075   -2.3926407    1283.6359   0.09760005  0.097772679            1 
 1097000    1.0873145   -2.3917856    1285.5504   0.09765652  0.097767256            3 
 1098000     1.093028   -2.4073542    1286.8488  0.097666118  0.097762023            1 
 1099000    1.0864326   -2.3913427    1290.4643  0.097851401  0.097756501            3 
 1100000    1.0528341   -2.4103017    1287.2507  0.097518992  0.097752338            4 
 1101000    1.0587838   -2.4179784    1290.8822   0.09770528  0.097746795            1 
 1102000    1.0991012   -2.3743637    1290.6388  0.097598216  0.097741585            3 
 1103000    1.0747617   -2.4266785    1293.0085  0.097688768  0.097735428            5 
 1104000    1.1076429    -2.401335    1298.0863  0.097983567  0.097729043            2 
 1105000    1.0809793   -2.3858407    1294.5818  0.097630602  0.097722693            4 
 1106000    1.0771504   -2.4133342    1290.7787  0.097255779  0.097716401            1 
 1107000    1.0425928   -2.4093774    1293.8796  0.097401357  0.097709023            1 
 1108000    1.0872454   -2.3994853    1293.8704  0.097312752   0.09770254            1 
 1109000    1.0462846   -2.3933711    1295.1031   0.09731764   0.09769518            1 
 1110000    1.0723217   -2.4271144    1296.9829  0.097371092  0.097688521            2 
 1111000    1.0871576    -2.398949    1301.0975  0.097592075  0.097681201            2 
 1112000    1.0890685   -2.3964699     1301.001  0.097497076  0.097674464            2 
 1113000    1.0565671   -2.3923139    1296.7782  0.097093309  0.097666753            2 
 1114000     1.085293   -2.3958563    1304.4315  0.097578661  0.097659295            2 
 1115000    1.0652194    -2.382415    1298.5896  0.097054531   0.09765217            1 
 1116000    1.0462128   -2.4141195    1301.2303  0.097164745  0.097644995            2 
 1117000    1.0771755   -2.3971391    1299.7657  0.096968498  0.097637143            2 
 1118000     1.084652   -2.4463325    1308.3652  0.097522748  0.097629516            2 
 1119000    1.0816963   -2.3828667     1305.841  0.097247619     0.097622            1 
 1120000    1.0667252   -2.3999441    1306.7632  0.097229405  0.097614676            1 
 1121000    1.0483155   -2.4027416    1299.8933  0.096631974  0.097606975            2 
 1122000    1.0775354   -2.3875849    1312.2038  0.097460176  0.097598572            2 
 1123000    1.0675974   -2.4003107    1307.6186   0.09703314  0.097590955            3 
 1124000    1.0731691   -2.4122595    1310.5489  0.097164063   0.09758352            3 
 1125000    1.0739064   -2.4005263    1309.5175  0.097001297  0.097575924            2 
 1126000    1.0521877   -2.4047436    1311.7999  0.097084064  0.097568596            2 
 1127000    1.0615678   -2.4021942    1312.4468  0.097045753  0.097560788            2 
 1128000    1.0709932   -2.4128129    1312.3053  0.096949269  0.097553056            2 
 1129000    1.0866242   -2.4007113    1313.6172  0.096960233  0.097544922            6 
 1130000    1.0776916   -2.4129609    1315.5291  0.097015421  0.097536477            3 
 1131000    1.0740429   -2.4431422    1315.8207   0.09695113  0.097528209            3 
 1132000    1.0627419   -2.4025795    1316.8457  0.096940934  0.097520507            1 
 1133000    1.0866185   -2.4407588    1321.6127  0.097205997  0.097511976            3 
 1134000    1.0573766   -2.4025645    1326.6097  0.097487487  0.097504185            1 
 1135000    1.0710811    -2.404958    1321.0868  0.096996094  0.097496714            1 
 1136000    1.0743519   -2.3980601    1326.1099  0.097279186  0.097488214            3 
 1137000    1.0549866   -2.3851026    1322.7813  0.096949671  0.097480536            2 
 1138000    1.0561571   -2.4072307    1326.5861  0.097143097  0.097473265            1 
 1139000    1.0670812   -2.4170877    1329.1083  0.097242341  0.097466173            1 
 1140000     1.075777   -2.4113069    1326.9417  0.096998659  0.097457995            1 
 1141000    1.0743652   -2.4362729    1327.0643  0.096922601  0.097450172            2 
 1142000    1.0601293   -2.3865763    1329.5288  0.097017574  0.097442017            3 
 1143000    1.0734987    -2.376082     1331.592  0.097083114  0.097433723            2 
 1144000    1.0558143   -2.3964424    1328.2392  0.096754022  0.097426087            3 
 1145000    1.0688413   -2.3906021    1336.1214  0.097243189   0.09741775            2 
 1146000    1.0697458   -2.4131072      1326.06  0.096426699  0.097409078            2 
 1147000    1.0697563   -2.3745558    1336.5632  0.097105722  0.097400928            1 
 1148000    1.0808753   -2.4123677    1337.0056  0.097053251  0.097393553            3 
 1149000    1.0635808   -2.4009354    1338.9766  0.097111735  0.097385538            2 
 1150000    1.0629874   -2.4147458    1341.4424  0.097205973    0.0973785            2 
 1151000      1.06735   -2.4042466     1334.758  0.096637562  0.097370415            1 
 1152000    1.0578777   -2.4139099    1347.2438  0.097456873  0.097362542            4 
 1153000    1.0732742   -2.3969201    1341.1468  0.096931684  0.097354475            1 
 1154000    1.0886939   -2.4218166    1339.3307  0.096716541  0.097345984            1 
 1155000    1.0652597   -2.4203712    1343.0747  0.096902938  0.097336931            2 
 1156000    1.0553468   -2.4105739    1341.9863  0.096740647  0.097328506            2 
 1157000    1.0589081   -2.4157425    1343.9362  0.096797477   0.09732069            3 
 1158000    1.0724966   -2.3853912    1350.6719  0.097198614  0.097312211            2 
 1159000    1.0680115   -2.4096984    1344.9497  0.096703315  0.097303513            1 
 1160000    1.0640302   -2.3980218    1345.7108  0.096674629  0.097295167            2 
 1161000    1.0825564   -2.4167149    1345.6942  0.096590167  0.097286796            1 
 1162000    1.0889226   -2.4088896     1352.799  0.097016565  0.097278585            3 
 1163000    1.0421469   -2.4253021    1349.5837  0.096702758  0.097270646            2 
 1164000    1.0771915   -2.3994138    1345.0897  0.096297943  0.097262526            2 
 1165000    1.0759199   -2.4319063    1353.5549  0.096820806  0.097254613            2 
 1166000    1.0721226   -2.4076687    1354.7906  0.096826083  0.097246374            3 
 1167000    1.0620261   -2.3987702    1354.1547  0.096697708  0.097237508            2 
 1168000      1.06148   -2.3848429    1352.5051  0.096497222  0.097229373            4 
 1169000    1.0771943   -2.4024072     1358.676  0.096854577  0.097221106            1 
 1170000    1.0515925   -2.4299011    1359.1724  0.096807149  0.097212227            2 
 1171000    1.0800261   -2.4091254    1358.2178  0.096656549  0.097203512            1 
 1172000    1.0947501    -2.420488    1355.1919  0.096358927  0.097194546            1 
 1173000    1.0797778   -2.3970473    1357.3314  0.096428769  0.097185762            1 
 1174000    1.0592021   -2.4374347    1358.2852   0.09641434  0.097176331            2 
 1175000    1.0414784   -2.4037293    1368.2185  0.097036772     0.097168            2 
 1176000    1.0484295   -2.4186892    1361.1892   0.09645615  0.097159156            3 
 1177000    1.0545535   -2.4207558    1364.6016  0.096615803  0.097150081            1 
 1178000    1.0791901   -2.3764932    1365.4323  0.096592553    0.0971417            3 
 1179000    1.0852923   -2.4231481    1367.1869   0.09663464  0.097132246            4 
 1180000    1.0609402   -2.4214485    1371.2161  0.096837296  0.097123526            2 
 1181000    1.0699094   -2.4028287    1370.6082  0.096712404  0.097113917            2 
 1182000     1.049655   -2.3955396    1365.9865  0.096304746  0.097104689            2 
 1183000    1.0649136   -2.4203385    1367.3079  0.096316419  0.097095926            1 
 1184000    1.0577338   -2.4200706    1370.0143  0.096425558  0.097086601            2 
 1185000    1.0473562    -2.399824    1369.5076  0.096308553  0.097077169            1 
 1186000    1.0746005   -2.4192858    1375.5132  0.096649325  0.097067352            2 
 1187000    1.0382635   -2.4023504    1370.0081  0.096181417  0.097057412            1 
 1188000     1.082788   -2.3919449    1374.7534  0.096433323  0.097047802            1 
 1189000    1.0831166   -2.3996658    1372.9054  0.096222694  0.097037708            1 
 1190000    1.0639937   -2.4342356    1375.9494  0.096354998  0.097028077            3 
 1191000    1.0440023   -2.3949997    1372.1602   0.09600897  0.097018369            2 
 1192000    1.0547789   -2.4227472    1373.6278  0.096031025  0.097007996            1 
 1193000    1.0640565   -2.4310703    1376.2753  0.096135461  0.096997891            2 
 1194000    1.0748892   -2.4100343    1378.0977   0.09618214  0.096987855            2 
 1195000    1.0533116   -2.4283436    1377.9285  0.096089855  0.096977923            2 
 1196000    1.0694837   -2.4248266    1384.3072  0.096453959  0.096968328            2 
 1197000    1.0505656   -2.4216188    1379.8298  0.096061666  0.096958609            2 
 1198000    1.0623609   -2.4164011    1379.8193  0.095980755  0.096948942            2 
 1199000    1.0625098   -2.4157167    1378.7491  0.095826323  0.096938635            2 
 1200000    1.0713516   -2.4112734     1385.209  0.096195068  0.096928579            4 
 1201000    1.0759197   -2.4313157    1391.6305  0.096560541  0.096919233            1 
 1202000    1.0541324   -2.4181034    1387.4766  0.096192224  0.096909389            2 
 1203000    1.0494649   -2.4340908    1382.3861  0.095759634  0.096899639            4 
 1204000     1.071228   -2.4166112    1389.8893  0.096199429  0.096889715            2 
 1205000    1.0499354   -2.4147846    1389.7735  0.096111581  0.096879604            3 
 1206000    1.0440563   -2.4215496    1385.3545  0.095726538  0.096869641            1 
 1207000    1.0661735    -2.427263    1392.4744  0.096138799  0.096859145            2 
 1208000    1.0529827   -2.4167154    1390.3013  0.095909305  0.096848942            1 
 1209000    1.0515193   -2.4343174     1394.629  0.096128277  0.096838464            1 
 1210000    1.0661349   -2.4094952    1389.5626  0.095699905  0.096828342            1 
 1211000     1.058906   -2.4221304    1397.6262  0.096175762  0.096817591            2 
 1212000    1.0627681   -2.3884003    1402.4924  0.096430999  0.096806943            2 
 1213000    1.0627395   -2.4351539    1397.8158  0.096030211  0.096796503            3 
 1214000    1.0633347   -2.4358667    1397.0151  0.095896148  0.096785836            2 
 1215000    1.0714559   -2.4237407    1405.5909  0.096405412  0.096775581            3 
 1216000    1.0371412   -2.3963171    1399.4426  0.095904782  0.096765499            2 
 1217000    1.0698112   -2.4350754    1403.3596  0.096094192  0.096754772            1 
 1218000    1.0402525   -2.4387876    1399.6699  0.095762859  0.096744197            2 
 1219000    1.0771325   -2.3990185    1406.1061  0.096124287  0.096734725            3 
 1220000    1.0649073   -2.4194869     1410.358  0.096335932  0.096725195            2 
 1221000    1.0574674   -2.4310521     1404.135  0.095832312  0.096715864            2 
 1222000    1.0543093   -2.4633006    1402.1604  0.095619231  0.096705573            2 
 1223000    1.0840625   -2.4349852    1407.7573  0.095922413  0.096695128            1 
 1224000     1.046636   -2.4221051    1412.1615  0.096143892  0.096685116            2 
 1225000    1.0824957   -2.4165771    1413.3044  0.096143153  0.096676043            2 
 1226000    1.0611697   -2.3854311    1408.5128  0.095739042  0.096666649            5 
 1227000    1.0718517   -2.4238605    1410.2396  0.095778294  0.096657225            2 
 1228000    1.0375815   -2.4420043    1413.9286   0.09595064  0.096647776            1 
 1229000    1.0575865   -2.3911022    1418.3388  0.096171604  0.096638656            3 
 1230000    1.0393967   -2.4266277    1420.3813  0.096231797  0.096629802            2 
 1231000    1.0528996   -2.4074211    1419.4806  0.096092651  0.096621653            1 
 1232000    1.0675666   -2.4274661    1410.9587  0.095438223  0.096612577            1 
 1233000    1.0518959   -2.4549328    1415.5522  0.095671274  0.096602697            2 
 1234000    1.0688691   -2.3987183    1426.0787  0.096304613  0.096593543            2 
 1235000    1.0495149   -2.4291334    1423.6782  0.096064658  0.096584807            2 
 1236000    1.0330229   -2.4178225    1419.4989  0.095705159  0.096575526            3 
 1237000     1.051734   -2.4095061    1427.1408  0.096142606  0.096566457            2 
 1238000    1.0589545   -2.4692463    1426.7266  0.096037059  0.096557708            3 
 1239000    1.0722032   -2.4458462      1426.37  0.095935568  0.096548856            4 
 1240000    1.0554475   -2.4282203    1430.1681  0.096113444  0.096539907            1 
 1241000     1.090688   -2.4214365    1431.0356  0.096094254  0.096531425            1 
 1242000    1.0773707   -2.4032791    1428.0935  0.095819477  0.096522982            1 
 1243000    1.0665321     -2.43691    1435.1768  0.096217267  0.096514868            2 
 1244000    1.0765382   -2.4000142    1433.6342  0.096036588  0.096506505            7 
 1245000    1.0410937   -2.4236473    1431.8808  0.095842087  0.096497908            2 
 1246000    1.0581824   -2.4326248    1437.3587  0.096131534  0.096489211            2 
 1247000    1.0429218   -2.4126593    1435.2926   0.09591637   0.09648053            4 
 1248000    1.0625558   -2.4325086    1433.2517  0.095703237  0.096472566            5 
 1249000    1.0343327   -2.4076483    1441.9397  0.096206281  0.096465035            2 
 1250000    1.0667918   -2.4373056    1443.6336  0.096242241  0.096457443            2 
 1251000    1.0340776   -2.4470731    1434.3709  0.095548291  0.096448711            1 
 1252000    1.0676463   -2.4606333     1439.994  0.095846247  0.096440186            1 
 1253000    1.0489638   -2.4186336     1443.296  0.095989359  0.096431587            2 
 1254000    1.0578515   -2.4232053     1441.686  0.095805823  0.096423348            2 
 1255000    1.0768788   -2.4180804     1444.488  0.095915541  0.096415139            2 
 1256000    1.0572934   -2.4365471    1446.2243  0.095954374   0.09640621            2 
 1257000    1.0542873   -2.4273754    1451.3303  0.096216539  0.096397095            8 
 1258000    1.0519802   -2.4304117    1447.2684  0.095870986  0.096388222            2 
 1259000    1.0456838   -2.4283422    1451.4668  0.096072727  0.096379508            4 
 1260000    1.0709307   -2.4521716    1443.8218  0.095490861  0.096370068            3 
 1261000    1.0471475    -2.441526    1451.4114   0.09591669  0.096362143            2 
 1262000    1.0428197   -2.4411351     1453.919  0.096006274  0.096353728            4 
 1263000    1.0565722   -2.4159871    1456.3837  0.096092881  0.096345047            3 
 1264000    1.0669847   -2.4314407     1451.155  0.095672139  0.096336898            4 
 1265000    1.0351427   -2.4434979    1450.1481  0.095530175  0.096328074            3 
 1266000    1.0666509   -2.4378208    1457.4665  0.095936448  0.096319029            2 
 1267000    1.0419927   -2.4240926    1457.0506  0.095833372  0.096310393            2 
 1268000    1.0585062   -2.4198621    1456.7625  0.095738862  0.096301595            3 
 1269000    1.0667371   -2.4314827     1454.232  0.095497242  0.096292022            2 
 1270000    1.0616792   -2.4550144    1458.3851  0.095694558  0.096282106            2 
 1271000    1.0588657   -2.4426509    1455.4727  0.095428315  0.096272324            2 
 1272000    1.0722102   -2.4489206    1456.8905  0.095446179  0.096261981            3 
 1273000     1.038293    -2.451599    1457.1021  0.095385057  0.096251478            3 
 1274000    1.0654288   -2.4446806    1462.1469   0.09564017  0.096241423            1 
 1275000    1.0358129   -2.4577248     1456.887  0.095221375  0.096230874            1 
 1276000     1.048293   -2.4329233    1458.0754  0.095224358   0.09621945            2 
 1277000    1.0373335   -2.4371469    1453.3021  0.094838298  0.096207896            2 
 1278000    1.0411643   -2.4384398    1459.9414  0.095197014   0.09619676            1 
 1279000    1.0395994   -2.4231387    1466.6487    0.0955596  0.096186393            3 
 1280000    1.0348213   -2.4223892    1470.2821  0.095721488  0.096176746            1 
 1281000    1.0497731   -2.4552087    1462.1514  0.095117838  0.096166927            3 
 1282000     1.030803   -2.4093469    1464.5127  0.095197136  0.096157117            1 
 1283000    1.0341736   -2.4343613    1467.7993  0.095336409  0.096146684            1 
 1284000    1.0539379    -2.418515    1475.0099  0.095730135  0.096136526            3 
 1285000    1.0411374   -2.4352859    1465.9612  0.095068821  0.096126543            1 
 1286000    1.0357442   -2.4345372    1474.8786  0.095572748  0.096115694            1 
 1287000    1.0422377   -2.4311922    1474.4374  0.095469919  0.096105653            3 
 1288000    1.0349793   -2.4304385    1472.6141  0.095277831  0.096094791            3 
 1289000    1.0432822     -2.42639    1476.1136   0.09543015  0.096084705            4 
 1290000    1.0448013    -2.452986    1475.3548  0.095307157  0.096074338            3 
 1291000    1.0318602   -2.4135735    1480.9558  0.095594873  0.096064005            2 
 1292000    1.0723826    -2.404414    1480.0231  0.095460725  0.096054544            1 
 1293000    1.0541948   -2.4412255    1489.6191  0.096005355  0.096044734            3 
 1294000    1.0349589    -2.450673    1478.9143  0.095241779  0.096034831            2 
 1295000      1.06192   -2.4164289    1483.6044  0.095470038  0.096025068            1 
 1296000    1.0502684   -2.4190454     1475.166  0.094853779  0.096015128            1 
 1297000    1.0421116   -2.4396392    1485.6577  0.095454747  0.096004693            2 
 1298000    1.0263507   -2.4450841    1481.8869  0.095139115  0.095994363            4 
 1299000    1.0415735   -2.4168402    1483.5029  0.095169549  0.095984033            2 
 1300000    1.0337354   -2.4466486     1490.864  0.095568205  0.095973909            3 
 1301000     1.007932   -2.4322287    1488.5391  0.095345832  0.095963929            2 
 1302000    1.0673193   -2.4424284    1483.2921   0.09493677  0.095953715            2 
 1303000    1.0482531    -2.426911    1488.9362  0.095224878  0.095943469            1 
 1304000    1.0566258   -2.4168901    1488.6538  0.095133807  0.095932879            2 
 1305000    1.0217852   -2.4326424    1488.2575  0.095035598   0.09592262            2 
 1306000    1.0485247   -2.4442581    1486.7876  0.094869041  0.095911714            3 
 1307000     1.033856   -2.4361971    1489.3849  0.094962057  0.095901222            1 
 1308000    1.0350515   -2.4271439    1484.6747  0.094589368  0.095890655            2 
 1309000    1.0587895   -2.4151611    1491.9483  0.094980159  0.095879532            1 
 1310000    1.0382097   -2.4354288    1488.0631    0.0946605  0.095868622            4 
 1311000    1.0303798   -2.4613088    1488.1289  0.094592478  0.095857834            1 
 1312000    1.0357306   -2.4328824    1494.4077  0.094919186  0.095847201            3 
 1313000    1.0392953   -2.4305474    1493.5783  0.094794256  0.095836144            3 
 1314000    1.0487672    -2.447855    1502.1227  0.095263996  0.095825668            3 
 1315000    1.0392604    -2.433787    1494.0968  0.094682937  0.095814834            1 
 1316000     1.034404   -2.4332324    1497.7155  0.094840138  0.095804012            1 
 1317000    1.0405611   -2.4518882    1499.6484  0.094890433  0.095793513            3 
 1318000    1.0159461   -2.4384768    1500.0622  0.094844599  0.095782921            4 
 1319000    1.0143666   -2.4578787     1497.356  0.094601717  0.095772002            1 
 1320000    1.0174403   -2.4289225    1499.3894  0.094658423  0.095761167            2 
 1321000    1.0311815   -2.4276992    1511.2449   0.09533465  0.095750409            3 
 1322000    1.0668098   -2.4402868    1501.2272  0.094631064  0.095739032            4 
 1323000    1.0406692   -2.4594384     1503.792  0.094721089  0.095728325            4 
 1324000    1.0493438   -2.4362288    1504.5705  0.094698547  0.095717031            3 
 1325000    1.0317676    -2.480865    1510.8235  0.095020348  0.095705915            4 
 1326000    1.0304386   -2.4412936    1499.8623  0.094259826  0.095694685            3 
 1327000    1.0612731    -2.441618    1504.9626  0.094509078  0.095683292            3 
 1328000    1.0444975   -2.4336204    1506.9084  0.094560014  0.095671456            2 
 1329000    1.0445999   -2.4227353    1510.7307  0.094728537  0.095659874            2 
 1330000    1.0425283   -2.4532167    1516.2543  0.095003399  0.095648293            4 
 1331000    1.0397629   -2.4523803    1509.3793  0.094501585  0.095636781            2 
 1332000     1.026903   -2.4378464    1510.9568   0.09452933  0.095624425            1 
 1333000    1.0378863   -2.4186298    1512.1848  0.094535181  0.095612403            1 
 1334000    1.0544529   -2.4629548    1513.6567  0.094556267  0.095600248            1 
 1335000    1.0331984    -2.463123    1508.6102  0.094170425   0.09558772            3 
 1336000    1.0060805   -2.4542683    1508.8961  0.094117773  0.095575451            2 
 1337000    1.0472931   -2.4383663    1512.8277  0.094292429  0.095562426            2 
 1338000    1.0406063   -2.4167128     1515.558     0.094392  0.095549868            3 
 1339000    1.0150643   -2.4386979    1509.0273  0.093915067  0.095537187            1 
 1340000    1.0601073    -2.449474     1509.476  0.093872886  0.095524255            3 
 1341000    1.0246356   -2.4342484    1518.4772  0.094362241  0.095510685            4 
 1342000    1.0466715   -2.4149061    1519.0205  0.094325662  0.095497167            2 
 1343000    1.0430445   -2.4452604    1518.2151  0.094205455  0.095484227            2 
 1344000    1.0430946   -2.4452141    1508.8616  0.093555404  0.095471169            2 
 1345000    1.0145788   -2.4197358    1521.1232  0.094245554  0.095457958            3 
 1346000    1.0346049   -2.4398256    1526.3629  0.094499929  0.095445276            1 
 1347000     1.027145   -2.4530024    1517.9971  0.093912216  0.095432469            1 
 1348000    1.0434155   -2.4541806    1525.0904  0.094281057  0.095419267            1 
 1349000    1.0210841    -2.455478    1519.9741  0.093895114  0.095406017            2 
 1350000    1.0193605   -2.4531159    1522.6698  0.093991962  0.095392571            2 
 1351000    1.0209115   -2.4131019    1530.0937  0.094380317  0.095379139            1 
 1352000    1.0288837   -2.4122452    1526.2749  0.094075126  0.095365821            2 
 1353000    1.0363609   -2.4444364    1523.1534  0.093813339  0.095352214            2 
 1354000    1.0419927   -2.4461657    1527.4577  0.094008969  0.095338814            3 
 1355000   0.99295945     -2.45237    1521.9469  0.093600673  0.095325015            3 
 1356000    1.0301351   -2.4538342     1524.197  0.093669926  0.095311143            3 
 1357000    1.0279896   -2.4287524    1528.3381    0.0938552  0.095297024            1 
 1358000    1.0265552    -2.491024    1528.5176  0.093797104   0.09528292            2 
 1359000    1.0293927   -2.4721057     1528.368  0.093718911  0.095269023            2 
 1360000    1.0542135   -2.4379191     1532.588  0.093908578   0.09525493            4 
 1361000    1.0602168    -2.447875    1533.1709  0.093875268  0.095241213            4 
 1362000    1.0466774   -2.4538426     1538.815  0.094151674  0.095227737            4 
 1363000    1.0327995   -2.4132119    1534.0786  0.093793017  0.095214587            2 
 1364000    1.0310631   -2.4478471    1535.6428  0.093819821   0.09520123            2 
 1365000    1.0478418   -2.4535439    1529.3351  0.093366003  0.095187932            2 
 1366000    1.0175013   -2.4393472    1538.4379   0.09385297  0.095174215            2 
 1367000    1.0655594   -2.4243774    1533.1109   0.09345958   0.09516077            2 
 1368000    1.0275563   -2.4448345    1532.4906   0.09335347  0.095146729            1 
 1369000    1.0376454   -2.4736879    1541.4678  0.093831741  0.095132555            3 
 1370000    1.0170815   -2.4486807    1536.6207  0.093468411  0.095118274            2 
 1371000    1.0375099   -2.4688908     1535.638  0.093340505  0.095103983            2 
 1372000    1.0231221   -2.4451008    1542.7709  0.093705717   0.09508979            3 
 1373000    1.0074043   -2.4537376    1542.6138   0.09362793  0.095075735            2 
 1374000    1.0299553   -2.4367422    1541.8978  0.093516365   0.09506131            3 
 1375000     1.028521   -2.4120721    1539.9323  0.093329227  0.095047282            4 
 1376000    1.0234105   -2.4486885    1542.5582  0.093420434  0.095032332            1 
 1377000    1.0284597   -2.4533794    1544.1426  0.093448476  0.095017479            6 
 1378000    1.0464247   -2.4564594    1542.4208  0.093276538  0.095002603            2 
 1379000    1.0550465    -2.461131    1538.6232  0.092979408  0.094987915            1 
 1380000    1.0273274   -2.4705523    1545.8808  0.093350291  0.094973244            2 
 1381000    1.0470815   -2.4584686    1548.0949  0.093416298  0.094957637            1 
 1382000    1.0218439   -2.4488251    1546.0524  0.093225544  0.094942211            2 
 1383000    1.0289031   -2.4493019    1541.3669  0.092875808  0.094927328            2 
 1384000    1.0408111   -2.4672229    1546.3065  0.093106124  0.094912398            2 
 1385000    1.0183078   -2.4565288    1552.6114  0.093418256  0.094897125            2 
 1386000    1.0254982   -2.4581835    1558.6658  0.093714878  0.094882446            4 
 1387000    1.0242891   -2.4503193    1553.3291  0.093326668  0.094867483            2 
 1388000    1.0234464   -2.4709299    1553.4215  0.093264982  0.094852569            3 
 1389000    1.0158121   -2.4406432    1551.5207  0.093083798  0.094837697            2 
 1390000    1.0174534   -2.4523244    1556.6501  0.093324345  0.094822843            1 
 1391000    1.0282373   -2.4410032    1549.7149  0.092841777  0.094807275            2 
 1392000    1.0253401   -2.4422448    1546.1033  0.092558865  0.094791931            1 
 1393000    1.0314624    -2.455495    1554.3541   0.09298601  0.094776339            2 
 1394000    1.0131771    -2.464867    1552.6725  0.092818774  0.094760934            3 
 1395000    1.0159527   -2.4736496    1553.0087  0.092772325  0.094745042            2 
 1396000    1.0268408   -2.4574503    1550.9747  0.092584448  0.094729324            2 
 1397000    1.0493302   -2.4411656    1555.1766  0.092768825  0.094713675            5 
 1398000    1.0397292   -2.4553716    1564.0965  0.093234176  0.094698173            1 
 1399000    1.0237336   -2.4371042    1563.7346  0.093145972  0.094682572            2 
 1400000    1.0169373   -2.4643975    1557.2025  0.092690624  0.094667007            1 
 1401000     1.007305   -2.4399571    1556.7282  0.092596255  0.094651648            1 
 1402000    1.0149823   -2.4476987    1564.6272  0.092999714  0.094635663            1 
 1403000    1.0428383   -2.4500735    1560.6813  0.092699058  0.094619742            2 
 1404000    1.0412372   -2.4384382    1564.6407  0.092868037  0.094603968            2 
 1405000     1.018392   -2.4522672    1565.6041  0.092859078  0.094588049            1 
 1406000    1.0299731   -2.4615606    1554.6257  0.092142347  0.094571777            1 
 1407000    1.0155556    -2.445549    1562.0857  0.092518699  0.094556065            2 
 1408000    1.0190687   -2.4567813    1565.0215  0.092626746  0.094540066            2 
 1409000    1.0257625   -2.4738297    1563.2271  0.092454879   0.09452387            4 
 1410000    1.0406904   -2.4814266    1561.7889  0.092304307  0.094507915            3 
 1411000    1.0137201   -2.4490695    1571.1014  0.092788887  0.094491926            2 
 1412000     1.000225   -2.4613908    1564.9228   0.09235852  0.094475544            1 
 1413000     1.017485   -2.4474779     1570.127  0.092600083  0.094459311            1 
 1414000    1.0291107   -2.4675878    1576.2987  0.092898319  0.094443737            3 
 1415000    1.0203185   -2.4562712    1563.6616  0.092088435  0.094427997            1 
 1416000    1.0210285   -2.4502758    1574.7869  0.092678135  0.094412474            2 
 1417000    1.0149966   -2.4639951     1571.534  0.092421432  0.094396962            2 
 1418000    1.0207505   -2.4667481      1573.94   0.09249765  0.094381424            1 
 1419000    1.0161559   -2.4580612    1574.4092  0.092460018  0.094365199            2 
 1420000    1.0261028    -2.446174    1578.0129  0.092606391  0.094349299            2 
 1421000    1.0424301   -2.4888683    1576.7587  0.092467672  0.094333436            3 
 1422000    1.0191821   -2.4646524    1576.5132  0.092388256  0.094317556            4 
 1423000    1.0123287   -2.4743619     1580.503  0.092556981   0.09430219            3 
 1424000    1.0010538   -2.4609062    1577.0105  0.092287598  0.094286095            2 
 1425000    1.0226915   -2.4396605    1581.2958  0.092473441  0.094270142            7 
 1426000    1.0194168   -2.4463066    1581.0001  0.092391307  0.094254674            2 
 1427000    1.0400485   -2.4620185    1578.9398   0.09220625  0.094239532            1 
 1428000    1.0127528   -2.4574621    1581.0272  0.092263491  0.094223191            1 
 1429000   0.99277099   -2.4490619    1583.7026  0.092354947  0.094206805            1 
 1430000    1.0159313   -2.4145528    1585.3385  0.092385692   0.09419104            1 
 1431000    1.0237499   -2.4455041    1581.4499  0.092094683  0.094174722            2 
 1432000   0.99912211   -2.4423674    1586.4295  0.092320154  0.094158321            3 
 1433000    1.0200265   -2.4629196    1581.2852  0.091956571  0.094142392            2 
 1434000    1.0136507   -2.4603937     1591.537  0.092488202  0.094126244            1 
 1435000    1.0351884   -2.4415087    1590.0528   0.09233756  0.094110674            1 
 1436000    1.0231185   -2.4806581    1585.4359  0.092005334  0.094094346            2 
 1437000     1.047711    -2.459606    1587.4983  0.092060907  0.094078539            3 
 1438000    1.0218531   -2.4527698    1586.5108  0.091939661  0.094062637            3 
 1439000    1.0105002   -2.4810802    1592.3739  0.092215307  0.094046549            3 
 1440000    1.0320747   -2.4524112    1594.6911  0.092285367  0.094030626            1 
 1441000    1.0127987   -2.4559419    1588.3404   0.09185406  0.094014812            1 
 1442000    1.0116168    -2.442889    1596.6279  0.092269293  0.093999034            4 
 1443000    1.0155389   -2.4589209    1590.7007  0.091863059   0.09398293            2 
 1444000    1.0050666   -2.4532711    1601.8703  0.092444038  0.093967507            2 
 1445000    1.0310857   -2.4487744    1593.3636  0.091889478  0.093951688            1 
 1446000    1.0073502   -2.4539184     1602.514  0.092353276  0.093935907            2 
 1447000    1.0423346   -2.4361438    1596.6924  0.091954178  0.093920294            1 
 1448000    1.0209501   -2.4784028    1597.4583  0.091934753  0.093904568            1 
 1449000    1.0261362   -2.4455585    1596.7356  0.091829747  0.093888635            2 
 1450000    1.0297491   -2.4794687    1600.7572   0.09199754  0.093872875            1 
 1451000    1.0349985   -2.4791698    1598.4806  0.091803386  0.093857214            2 
 1452000    1.0252667   -2.4572131     1605.482   0.09214199  0.093841204            2 
 1453000     1.003342   -2.4590488    1605.2529  0.092065433  0.093824867            2 
 1454000    1.0226326    -2.474622    1605.0774  0.091992055  0.093809131            4 
 1455000    1.0186585   -2.4593455    1606.2747  0.091997407  0.093793254            2 
 1456000   0.99612766    -2.453431    1612.4259   0.09228628  0.093777453            2 
 1457000    1.0183254   -2.4475001     1604.855  0.091789923  0.093761542            3 
 1458000    1.0177022   -2.4734594    1603.5944  0.091654918  0.093745691            2 
 1459000    1.0190185   -2.4672277    1609.0449   0.09190341  0.093729945            3 
 1460000    1.0066109   -2.4805788    1613.4686  0.092092955  0.093714252            2 
 1461000    1.0131148   -2.4658753    1615.3951  0.092139806  0.093698218            2 
 1462000    1.0127931   -2.4656697    1606.5164  0.091570702  0.093682355            4 
 1463000    1.0170422   -2.4455858    1617.7342  0.092147082  0.093666535            3 
 1464000     1.002067   -2.4561968    1611.8682   0.09175024  0.093650518            1 
 1465000    1.0157046   -2.4745865    1617.4709  0.092006306  0.093634246            2 
 1466000    1.0266277   -2.4694566    1612.0124  0.091633265  0.093618162            2 
 1467000   0.99851441   -2.4531544    1614.3293  0.091702414    0.0936017            2 
 1468000     1.044301   -2.4604231    1618.1642   0.09185764  0.093585655            3 
 1469000    1.0153018   -2.4613792    1618.2854  0.091801987  0.093569506            4 
 1470000    1.0202183   -2.4614421    1618.7963  0.091768497  0.093553544            2 
 1471000    1.0175914   -2.4510664     1617.628   0.09163993  0.093537835            1 
 1472000    1.0251911   -2.4651195    1627.2271  0.092121098  0.093522242            1 
 1473000    1.0167451   -2.4842083    1620.4637  0.091675927  0.093507068            2 
 1474000     1.002627   -2.4618381     1622.275  0.091716134  0.093492045            3 
 1475000    1.0019891   -2.4804696    1626.6406  0.091900597  0.093477197            2 
 1476000    1.0077086   -2.4228141    1625.8791   0.09179534  0.093462455            1 
 1477000    1.0310116   -2.4512261    1631.3169  0.092039995  0.093447475            3 
 1478000    1.0096916   -2.5005443    1621.7594  0.091438847  0.093432529            1 
 1479000    1.0076678   -2.4819997    1635.3432  0.092142394  0.093417893            1 
 1480000    1.0042371   -2.4565165    1631.5304  0.091865449  0.093403249            2 
 1481000    1.0237796   -2.4817755    1632.5221  0.091859221  0.093388294            3 
 1482000    1.0035563   -2.4385426    1633.5703   0.09185618   0.09337353            1 
 1483000    1.0012854   -2.4506185    1631.0021  0.091649926  0.093358753            3 
 1484000   0.99199424   -2.4874637    1630.1079  0.091537956  0.093343769            2 
 1485000    1.0211352    -2.461816    1634.6227  0.091729669   0.09332904            2 
 1486000    1.0175947   -2.4742419    1637.0052  0.091801546  0.093314321            3 
 1487000    1.0170409   -2.4824784    1636.7866  0.091727562  0.093299631            2 
 1488000    1.0145749   -2.4650334    1638.1618  0.091742934  0.093285434            2 
 1489000   0.99262609   -2.4822828    1642.9717  0.091950508  0.093270722            2 
 1490000    1.0184945   -2.4519225    1642.5848  0.091867161  0.093256216            3 
 1491000    1.0245474   -2.4653322    1639.0936  0.091610416  0.093241782            2 
 1492000    1.0423362    -2.479465    1636.4342  0.091400479  0.093227201            2 
 1493000    1.0274208    -2.428546    1649.8623  0.092088766  0.093212648            3 
 1494000   0.99339682   -2.4524856     1636.158  0.091262718  0.093197438            2 
 1495000    1.0234638   -2.4675734    1640.2759  0.091431209  0.093182583            4 
 1496000   0.99807849   -2.4492208    1647.0931  0.091749838  0.093167542            3 
 1497000    1.0087984   -2.4572945    1652.4012  0.091984033  0.093152774            2 
 1498000    1.0253234   -2.4860668    1646.6331   0.09160175  0.093137021            3 
 1499000   0.99333885   -2.4827072    1638.0149  0.091061537  0.093121191            1 
 1500000    1.0429286   -2.4773038    1644.9278  0.091384877  0.093105257            1 
 1501000    1.0049407    -2.464448     1640.962   0.09110382  0.093090038            2 
 1502000    1.0069978   -2.4594658    1643.8661   0.09120429  0.093074347            2 
 1503000    1.0218498   -2.4733825    1644.2774  0.091166411  0.093058313            2 
 1504000    1.0220107   -2.4771246    1647.0444  0.091259107  0.093042161            2 
 1505000    1.0134691    -2.467486    1646.1329  0.091148002  0.093026229            4 
 1506000    1.0072248   -2.4525079    1646.5444   0.09111025  0.093010342            5 
 1507000    1.0269351   -2.5001656    1646.1856  0.091029948  0.092994254            5 
 1508000    1.0174997   -2.4431877    1656.2858  0.091527731  0.092978381            2 
 1509000    1.0094648   -2.4666278    1638.2107  0.090468893  0.092961942            2 
 1510000    1.0125111   -2.4406295    1648.1915  0.090959795  0.092945907            3 
 1511000    1.0227017   -2.4847384    1654.5022  0.091247641  0.092929495            2 
 1512000    1.0007921   -2.4805088    1653.8279  0.091150126  0.092913835            2 
 1513000    1.0329956   -2.4608104    1654.8744  0.091147522  0.092898126            2 
 1514000    1.0304503   -2.4796684    1655.7485  0.091135428  0.092882238            5 
 1515000    1.0202258   -2.4825661    1650.9918  0.090813632  0.092866388            4 
 1516000    1.0047659   -2.4959887    1650.1372  0.090706749   0.09285049            1 
 1517000    1.0076491   -2.4861166    1659.9245  0.091184604   0.09283459            2 
 1518000    1.0155773   -2.4946603    1656.5707  0.090940421  0.092817988            2 
 1519000    1.0117381   -2.4544814    1662.8659  0.091225909  0.092802032            3 
 1520000    0.9940018   -2.4619108     1667.343   0.09141135  0.092786326            1 
 1521000    1.0276796    -2.464788    1659.0834   0.09089872  0.092770368            1 
 1522000    1.0076933   -2.4574044    1661.3015  0.090960443  0.092754212            1 
 1523000    1.0090833   -2.4701722    1664.7576  0.091089824  0.092738008            3 
 1524000   0.99688546   -2.4836677    1660.8047  0.090813907  0.092722228            1 
 1525000    1.0028218   -2.4503679    1664.9966  0.090983419  0.092705864            2 
 1526000    1.0166245   -2.4645604    1666.8358  0.091024236  0.092689721            2 
 1527000   0.99903731   -2.4824328     1667.489  0.091000275   0.09267375            2 
 1528000    1.0050872   -2.4985926    1664.7713  0.090792502  0.092658093            1 
 1529000    1.0083187   -2.4756839    1670.1814  0.091027982   0.09264202            2 
 1530000    1.0195559   -2.4838608    1676.0909  0.091290354  0.092626897            3 
 1531000    1.0104675   -2.4966502    1670.3864  0.090920225  0.092611582            2 
 1532000    1.0154044   -2.4623415    1676.7258  0.091205711  0.092596235            3 
 1533000    1.0021426   -2.4608917    1673.1791  0.090953417  0.092580739            3 
 1534000   0.99156046   -2.4663956    1672.5424  0.090859538  0.092565052            3 
 1535000    1.0080826   -2.4630031    1673.8006  0.090868652  0.092549546            1 
 1536000    1.0221246    -2.490095    1671.4298  0.090680869  0.092534111            3 
 1537000   0.98688917   -2.4733842    1676.4962  0.090896564  0.092518459            1 
 1538000    1.0383925   -2.4779002    1675.9522  0.090807984  0.092502879            2 
 1539000   0.97653184   -2.4874222    1678.5063  0.090887283  0.092487213            3 
 1540000    1.0207434   -2.5025504    1674.7201  0.090623381  0.092471188            1 
 1541000   0.99971274   -2.4728002    1666.5942  0.090125147  0.092455143            3 
 1542000    1.0120513   -2.5128508    1679.5201  0.090765247  0.092439186            3 
 1543000    1.0163718   -2.5055875    1680.0755  0.090736418  0.092423871            4 
 1544000    1.0006796   -2.4788737    1680.8098   0.09071728  0.092408786            2 
 1545000    1.0203407   -2.4951368    1688.6143  0.091079522  0.092393885            2 
 1546000   0.98678148   -2.4711369     1678.552  0.090478224  0.092378814            3 
 1547000   0.98057658   -2.4822213    1690.3824  0.091057013  0.092364145            1 
 1548000    1.0146886   -2.4700472    1692.3387  0.091103506  0.092349408            3 
 1549000    1.0312783   -2.4646355    1687.6868  0.090794424  0.092334361            4 
 1550000    1.0068497   -2.4464496     1691.926  0.090963766  0.092319829            2 
 1551000   0.99520819   -2.4599741    1689.9103  0.090796813  0.092304783            1 
 1552000    1.0027966   -2.5135089    1683.6116  0.090400107  0.092289688            2 
 1553000    1.0222016    -2.479231    1692.5773  0.090822993  0.092274402            2 
 1554000     1.006525   -2.4718663    1693.4565  0.090811696   0.09225923            1 
 1555000   0.99806438   -2.4900756      1687.09  0.090412113  0.092243917            1 
 1556000    1.0068342    -2.479305    1686.4424   0.09031932  0.092228186            1 
 1557000    1.0262002    -2.489589    1690.6381  0.090485878  0.092212728            5 
 1558000    1.0147147   -2.5021651    1692.8039  0.090543638  0.092197538            3 
 1559000   0.99604272   -2.4703496    1693.9539  0.090547035   0.09218296            4 
 1560000    1.0249401   -2.4847606    1700.4044  0.090833569  0.092168521            1 
 1561000   0.99811308   -2.4594507      1697.12  0.090600043  0.092153719            2 
 1562000   0.99446989    -2.500296    1693.6886  0.090358971  0.092139074            5 
 1563000   0.97782813   -2.4974691    1698.1281  0.090537862  0.092124457            1 
 1564000   0.97678344   -2.4776982    1700.9737  0.090631591  0.092109915            4 
 1565000   0.99194738   -2.4776519    1697.8039  0.090404891  0.092095416            1 
 1566000     1.020363   -2.4686834     1702.609  0.090602864  0.092081121            3 
 1567000   0.99082106   -2.4770346    1701.1099  0.090465321  0.092067041            1 
 1568000   0.99292086   -2.4517813    1708.4457  0.090797496  0.092052023            2 
 1569000   0.99742637   -2.4918136    1702.2606   0.09041112  0.092036946            1 
 1570000    1.0156245   -2.4769467    1707.1596  0.090613567  0.092021989            2 
 1571000    0.9977403    -2.455575    1712.6873  0.090849101  0.092007349            2 
 1572000    1.0130628   -2.4683364     1709.402  0.090617154  0.091992511            4 
 1573000    1.0115543   -2.4964158    1709.0968  0.090543376  0.091977913            3 
 1574000   0.98202199   -2.4727445    1707.3085  0.090391173  0.091963026            4 
 1575000    1.0124155   -2.4846158    1708.1578  0.090378718  0.091948259            1 
 1576000    1.0179336   -2.4991786    1703.4818  0.090074123  0.091932924            2 
 1577000   0.99419929   -2.4864095    1711.5269   0.09044213  0.091917515            1 
 1578000    1.0142688   -2.4897826    1708.3232  0.090215632  0.091902327            2 
 1579000   0.98125031   -2.4733221     1711.953  0.090350065  0.091887188            1 
 1580000     1.031817   -2.4908715     1712.584  0.090326158  0.091872161            2 
 1581000   0.99483912   -2.4876251    1716.4866  0.090474734  0.091856904            1 
 1582000     1.005115   -2.5046751    1710.7467  0.090115186  0.091842333            4 
 1583000   0.98545618   -2.5210397    1711.7904  0.090113203  0.091826847            3 
 1584000    1.0187564   -2.4748665    1727.5293  0.090884329  0.091811964            2 
 1585000   0.99094364   -2.4714452     1717.258   0.09028696  0.091796825            2 
 1586000   0.99519418   -2.4982532    1716.0056  0.090164231  0.091781543            2 
 1587000    1.0004477   -2.4612484    1720.3652  0.090336337  0.091766399            1 
 1588000    1.0205673   -2.4794444    1726.9728  0.090626196  0.091751231            2 
 1589000    1.0076626   -2.4858698    1719.5257  0.090178607  0.091736186            2 
 1590000      1.00642   -2.4856965     1719.853  0.090139045  0.091720951            3 
 1591000   0.99338795   -2.5001849    1717.7262  0.089970996  0.091705188            4 
 1592000   0.99093427   -2.4956658    1719.2253  0.089992948  0.091689312            3 
 1593000   0.99897636   -2.5027525    1716.5082  0.089794317  0.091673989            2 
 1594000   0.99770244   -2.4975456    1721.5518  0.090001661  0.091658144            2 
 1595000     1.012761   -2.4595402    1726.4546   0.09020139  0.091642798            4 
 1596000    1.0052098   -2.5034747    1723.3222  0.089981316  0.091626952            3 
 1597000    0.9865635   -2.5000211    1720.7578  0.089791159  0.091611793            3 
 1598000   0.99965815     -2.48425    1727.2398  0.090072998  0.091596747            4 
 1599000   0.99042423   -2.5223516    1725.2834  0.089914709  0.091581272            3 
 1600000    1.0052593   -2.4920845    1721.7096  0.089672375  0.091565833            1 
 1601000    1.0256793   -2.4931481    1725.3659   0.08980668   0.09154997            5 
 1602000    1.0239939    -2.472277    1732.1842  0.090105294  0.091534487            1 
 1603000   0.99083466    -2.496566    1729.2016  0.089894033  0.091519037            3 
 1604000    1.0083116   -2.4681665    1731.7123  0.089968426  0.091503379            2 
 1605000    1.0051667   -2.4830571    1737.8111  0.090229027    0.0914877            2 
 1606000   0.98732134   -2.4723984    1730.3519  0.089785798  0.091472463            2 
 1607000   0.99016824   -2.4615298    1737.7329  0.090112678  0.091457168            1 
 1608000   0.96352627   -2.4889829    1739.8771  0.090167758  0.091441771            2 
 1609000   0.99375084   -2.4922339    1732.4438  0.089726737  0.091426033            4 
 1610000   0.99296073   -2.5095744     1733.632  0.089732503  0.091410321            2 
 1611000     1.012715   -2.4858296    1734.0351  0.089697658  0.091394693            3 
 1612000   0.97001825   -2.4952015    1738.3701  0.089866114  0.091378689            2 
 1613000   0.97288759   -2.4940488     1734.179  0.089593872  0.091362968            1 
 1614000    1.0096405   -2.4863651    1740.7281  0.089876502  0.091347102            1 
 1615000   0.99496912   -2.4660471    1743.2154  0.089949194  0.091331155            3 
 1616000   0.99672564   -2.4751231    1739.8595  0.089720477  0.091315873            2 
 1617000   0.97120804   -2.5016995    1738.1862  0.089578757  0.091300292            2 
 1618000    1.0116945   -2.5147867    1740.6341  0.089649471  0.091284422            2 
 1619000   0.99386061   -2.4934519     1745.023  0.089820004  0.091268675            2 
 1620000     1.009754   -2.4992539    1741.2514  0.089570543  0.091252869            2 
 1621000   0.99429272   -2.4946101    1748.9708  0.089912131   0.09123723            2 
 1622000   0.98274529   -2.4921147     1747.857  0.089799477  0.091221157            3 
 1623000    1.0066343   -2.4907535    1745.5901  0.089627752  0.091205081            3 
 1624000   0.99998975   -2.5244676    1741.5558  0.089365547   0.09118893            4 
 1625000   0.97950439   -2.5113862    1741.3163  0.089298273  0.091172059            1 
 1626000    1.0070344   -2.4832064    1741.0384  0.089229112  0.091155626            3 
 1627000   0.99732535   -2.4876604    1748.2649  0.089544404  0.091139098            6 
 1628000   0.98903565   -2.4650523    1748.3504  0.089493775  0.091123351            3 
 1629000   0.99227072   -2.4874613    1743.0492  0.089167648  0.091107063            1 
 1630000   0.99311785   -2.4948215    1743.1216  0.089116645  0.091090757            3 
 1631000   0.99481476   -2.4713485    1753.8874  0.089612069  0.091074094            5 
 1632000   0.98190327   -2.4622503    1741.5603   0.08892771  0.091057633            2 
 1633000    0.9601819   -2.4789955    1745.0207  0.089049844  0.091040937            1 
 1634000   0.98949234   -2.4748776    1745.7409  0.089032073  0.091024361            2 
 1635000   0.97102562    -2.491602    1749.7676  0.089182855  0.091007418            2 
 1636000   0.97707202   -2.4895797    1751.3302  0.089207934  0.090990678            2 
 1637000   0.97405052   -2.5238028     1746.733  0.088919416  0.090974072            2 
 1638000    1.0072505   -2.5001092    1752.5161  0.089159348  0.090957554            3 
 1639000   0.99597235   -2.4777594    1748.5902  0.088905339  0.090940731            7 
 1640000   0.98175187   -2.5090113     1748.046  0.088823475  0.090923729            6 
 1641000   0.98830385   -2.4834294    1756.3564  0.089191367  0.090906661            2 
 1642000    1.0043933   -2.4837861    1753.7059  0.089002531  0.090890169            2 
 1643000   0.98974063   -2.4987369    1749.2562   0.08872267  0.090873641            3 
 1644000   0.97927158   -2.4578682    1754.1835  0.088918466  0.090857309            1 
 1645000    1.0016254   -2.5136308     1759.325  0.089124874  0.090840447            4 
 1646000   0.99248992   -2.4694386    1759.3052  0.089069725  0.090823786            2 
 1647000   0.99719615   -2.5124433    1759.1816  0.089009392  0.090806903            2 
 1648000   0.96767133   -2.4850102    1762.6902  0.089132796  0.090790048            1 
 1649000   0.99161312   -2.5085474    1756.3997  0.088760849  0.090773292            2 
 1650000   0.97558178   -2.4822695    1766.6393  0.089224209  0.090757462            3 
 1651000    1.0039148   -2.4938562    1761.8774   0.08892981  0.090741521            2 
 1652000   0.97668804   -2.4853258    1770.2023   0.08929592    0.0907257            2 
 1653000   0.96745924   -2.4908738    1767.5146  0.089106403  0.090709934            2 
 1654000   0.99566931   -2.4798819    1773.7968  0.089369042  0.090694328            4 
 1655000   0.97376342   -2.5254416    1765.6886  0.088906776   0.09067814            3 
 1656000   0.95183646   -2.4973601    1773.8889  0.089265746  0.090662354            2 
 1657000   0.99581829   -2.4984617    1774.0158  0.089218257  0.090646748            1 
 1658000   0.98470806   -2.4829817    1767.8477  0.088854426  0.090630783            2 
 1659000    0.9842244   -2.5123154    1772.6857  0.089043885  0.090614695            4 
 1660000   0.98916563   -2.5046419    1770.2385  0.088867396  0.090598787            2 
 1661000   0.99378827   -2.5018993    1767.8046   0.08869178  0.090583099            3 
 1662000   0.95367243   -2.4874058    1777.4315  0.089121116  0.090567467            6 
 1663000    1.0042472    -2.492336    1776.7327  0.089032506  0.090551498            1 
 1664000   0.97996059   -2.4891485    1775.8642  0.088935505   0.09053558            2 
 1665000   0.97819667   -2.5089237    1772.3083  0.088704118  0.090519587            3 
 1666000   0.99958303   -2.4864553    1775.9002  0.088830541  0.090503643            3 
 1667000   0.98076909   -2.5165815    1783.8294  0.089173635   0.09048749            2 
 1668000   0.99978197   -2.4833107    1780.2651  0.088942102  0.090471577            2 
 1669000   0.98352488   -2.4962475    1775.1274  0.088632283  0.090455369            2 
 1670000    1.0002752   -2.5052017    1778.7805  0.088761504  0.090439547            2 
 1671000   0.97983309   -2.4969691    1773.2223  0.088431192   0.09042351            4 
 1672000   0.95874949   -2.4801512     1784.967  0.088963666  0.090407386            2 
 1673000   0.97066427   -2.4912141    1778.8023  0.088603424  0.090390956            2 
 1674000   0.96668378   -2.4849589    1777.7431  0.088497766  0.090375031            2 
 1675000   0.98174001   -2.5188719    1786.5149   0.08888134  0.090359208            2 
 1676000    1.0058346   -2.5066302    1789.9408  0.088998646  0.090343665            2 
 1677000   0.97431733    -2.508035    1793.8492  0.089139794  0.090328304            2 
 1678000   0.97583493   -2.5042178    1788.9596  0.088843844  0.090312478            3 
 1679000   0.97427907   -2.4949105     1780.897  0.088390759  0.090297176            1 
 1680000    0.9724387   -2.5257394    1784.1958  0.088501776  0.090281119            1 
 1681000   0.97736756   -2.4919446    1786.5222  0.088564458  0.090265292            3 
 1682000    1.0042027    -2.512877    1787.8228  0.088576238  0.090249462            3 
 1683000   0.98650036   -2.5111871    1786.8749  0.088476676  0.090233445            4 
 1684000   0.97779013    -2.491049      1791.19  0.088637666  0.090217458            2 
 1685000    0.9903303   -2.5154493    1782.1481  0.088137888  0.090200936            1 
 1686000   0.98868897   -2.5221565    1789.5491   0.08845142  0.090184919            1 
 1687000    1.0002379   -2.5158453    1793.9058  0.088614199  0.090168534            5 
 1688000   0.95996334   -2.5247269    1793.9306  0.088562927  0.090152014            3 
 1689000   0.98608859   -2.5070206    1791.0564  0.088368678  0.090135573            1 
 1690000   0.97730515   -2.5103317    1799.0462  0.088710365  0.090119181            2 
 1691000    0.9721722    -2.488548    1803.7223  0.088888347  0.090102947            3 
 1692000   0.97001222   -2.5064284    1797.0115  0.088505297  0.090086982            3 
 1693000   0.97959191   -2.5028494    1791.2097   0.08816744  0.090070812            4 
 1694000   0.97612881   -2.5174032    1803.6759  0.088728646  0.090054899            3 
 1695000   0.95511805   -2.5023867    1802.6591  0.088626308  0.090039037            1 
 1696000   0.98636945   -2.4969397    1802.7968  0.088580816  0.090022982            2 
 1697000   0.97564714   -2.5165943    1797.8349  0.088284957  0.090007454            2 
 1698000   0.98257024    -2.528091    1799.9884  0.088338655  0.089990836            1 
 1699000   0.97768635   -2.5224034     1797.796  0.088179125  0.089974497            4 
 1700000   0.99112466   -2.5104898    1800.7779  0.088273428   0.08995845            2 
 1701000    0.9721106   -2.5225406    1798.6937  0.088119426   0.08994244            2 
 1702000   0.98402574   -2.5137225    1799.1983  0.088092357  0.089926447            2 
 1703000   0.96422142   -2.4998535      1807.31  0.088437562  0.089910867            2 
 1704000   0.99264891   -2.5140767    1805.4222   0.08829334  0.089895571            5 
 1705000    0.9779904   -2.5128847    1802.5556  0.088101447  0.089880007            2 
 1706000   0.97443233   -2.5432906    1808.5071  0.088340519  0.089864321            2 
 1707000   0.95801283   -2.5393344    1808.2373  0.088275594  0.089848652            3 
 1708000    0.9831493   -2.5000225    1810.3572  0.088327344  0.089832914            3 
 1709000    1.0188411   -2.4983837    1813.4582  0.088426866  0.089817173            2 
 1710000    0.9671138   -2.4992202    1808.6947  0.088143017  0.089801367            2 
 1711000    0.9676726   -2.5098081     1813.987  0.088349259  0.089785497            1 
 1712000   0.98448214   -2.5259107    1810.5392  0.088129826  0.089769711            5 
 1713000   0.96168034   -2.4833393    1809.3043  0.088018308  0.089753851            1 
 1714000   0.95160493   -2.5225701    1809.1366  0.087958801  0.089737882            2 
 1715000   0.99731886   -2.5141299    1809.8778  0.087943528  0.089721843            5 
 1716000   0.98718503   -2.5197234    1815.9104  0.088185238  0.089705678            3 
 1717000   0.98101197   -2.5352158    1806.6587  0.087684854   0.08968963            3 
 1718000   0.96876726   -2.4993355    1819.1969  0.088241993   0.08967391            3 
 1719000   0.98159845   -2.5046117      1816.56  0.088062828   0.08965778            2 
 1720000   0.98279859   -2.5099819    1825.2241  0.088431402  0.089641641            2 
 1721000   0.97280748   -2.5021851    1810.9725  0.087689933  0.089625468            1 
 1722000   0.96424252   -2.5060419    1818.7277  0.088014312  0.089609208            3 
 1723000    0.9883214   -2.5158559    1820.6869  0.088057987  0.089592752            3 
 1724000   0.98091093   -2.5412187    1814.6133  0.087713325  0.089576379            2 
 1725000   0.98846745   -2.5017786    1821.1817  0.087979794  0.089559939            2 
 1726000   0.97435982   -2.5306993    1822.1582  0.087975967  0.089543525            3 
 1727000   0.96660081   -2.4945709    1815.2146  0.087589971  0.089526877            1 
 1728000    1.0030227    -2.505295    1812.8389  0.087424718   0.08951028            2 
 1729000   0.97065759   -2.5263231    1819.4995  0.087695174  0.089493401            3 
 1730000   0.97030564   -2.5022304       1824.4  0.087880542  0.089476444            2 
 1731000   0.99573572   -2.5002162    1824.1687  0.087818637  0.089459837            1 
 1732000   0.96148392   -2.5478525    1819.9926  0.087567003  0.089442891            1 
 1733000    0.9719967   -2.5157157    1816.9528  0.087370301   0.08942597            2 
 1734000   0.97413753   -2.5093536    1823.9801  0.087657635  0.089409328            3 
 1735000   0.96308136   -2.5207571    1817.2613  0.087284406  0.089392134            1 
 1736000   0.97935498   -2.4878247     1822.929  0.087506194   0.08937518            3 
 1737000    0.9725649   -2.5383045    1828.7759  0.087736324  0.089358345            2 
 1738000   0.98199586   -2.5109698    1820.5281  0.087290378   0.08934173            5 
 1739000   0.94597911   -2.5354887    1827.5093  0.087574723   0.08932496            1 
 1740000   0.97042584   -2.5267875    1834.3601  0.087852494  0.089308216            2 
 1741000   0.96787663   -2.5236398    1824.9504  0.087351636  0.089291227            3 
 1742000   0.97623458   -2.5100801    1830.7168  0.087577346  0.089274566            2 
 1743000   0.98299372   -2.5399393    1823.1871  0.087167101  0.089257919            4 
 1744000   0.98755141    -2.532383    1833.8425  0.087626264  0.089241338            3 
 1745000   0.95282497   -2.5218762    1832.1263  0.087494093  0.089224936            3 
 1746000   0.98104525   -2.5156735    1834.3155  0.087548469  0.089208459            2 
 1747000   0.96058644   -2.5317326    1832.1005  0.087392695  0.089192064            2 
 1748000   0.97147666   -2.5044185    1839.5792  0.087699235  0.089175688            3 
 1749000   0.94624165   -2.4662246    1842.8524  0.087805052   0.08915988            1 
 1750000   0.97167074   -2.5180103    1841.7873  0.087704157  0.089143649            2 
 1751000    0.9599032   -2.5399101    1838.0375  0.087475609   0.08912772            2 
 1752000   0.99218096   -2.5353637    1838.2061  0.087433698  0.089111237            2 
 1753000   0.97559507   -2.5285053    1837.7066  0.087360079  0.089094793            2 
 1754000   0.96682047   -2.5290555    1840.9314  0.087463485  0.089078349            7 
 1755000   0.96671816   -2.5115135      1842.23  0.087475307  0.089062437            3 
 1756000   0.99611784   -2.5159572    1832.0344  0.086941645  0.089046108            5 
 1757000   0.96052706   -2.5296878    1842.6134  0.087393919  0.089029629            2 
 1758000   0.98232193    -2.531018    1838.2319  0.087136513   0.08901347            2 
 1759000   0.95286466   -2.5348889    1841.0803  0.087221922  0.088997153            3 
 1760000   0.95809387   -2.5155386    1840.0289  0.087122583  0.088980468            2 
 1761000   0.96815416   -2.5161805    1832.1933  0.086702315  0.088963311            3 
 1762000   0.96273855   -2.5146239    1842.6191  0.087146192  0.088946182            1 
 1763000    0.9761407   -2.5229485    1848.2683  0.087363786  0.088929682            3 
 1764000   0.96700822   -2.5292096    1840.6501   0.08695437  0.088913285            3 
 1765000   0.97173953   -2.5284912    1847.7911  0.087242263  0.088896543            3 
 1766000   0.97084504   -2.5280335     1842.989  0.086966259  0.088879901            2 
 1767000   0.96506066   -2.5232884    1845.0882  0.087016043  0.088863199            1 
 1768000   0.95266052   -2.4899005     1852.869  0.087333567  0.088846579            2 
 1769000   0.97936162   -2.5216465    1844.3667  0.086883676  0.088829607            3 
 1770000    0.9637675   -2.4977253    1841.3859  0.086694253  0.088812719            4 
 1771000   0.95397865   -2.5213701    1848.5391  0.086981889  0.088795852            4 
 1772000   0.92678993   -2.5198793    1846.1818  0.086821944  0.088778826            2 
 1773000   0.94578767   -2.5158985    1855.9646  0.087232777  0.088761777            4 
 1774000   0.98610762   -2.5291499    1853.4074  0.087063483  0.088744877            3 
 1775000   0.97667573   -2.5235176    1851.8443  0.086941045  0.088727949            2 
 1776000   0.96727806   -2.5396812    1849.5201  0.086783037  0.088710782            3 
 1777000   0.98379676    -2.534748    1855.7387  0.087025825  0.088694002            2 
 1778000   0.97690531   -2.5131396    1855.1939  0.086951344  0.088677684            2 
 1779000   0.99152974   -2.5109764    1855.9013  0.086935606  0.088660986            3 
 1780000   0.98945502   -2.5232711    1861.1699   0.08713342  0.088644578            1 
 1781000   0.96895266   -2.5418782    1857.6797  0.086921194  0.088628335            5 
 1782000    0.9693706   -2.5150197    1860.3105  0.086995442   0.08861216            2 
 1783000   0.95079154   -2.5468112    1858.3952  0.086857132  0.088595807            1 
 1784000   0.95953692    -2.513674    1858.1933  0.086799012  0.088579436            4 
 1785000   0.94143586   -2.5430118    1865.5822   0.08709534  0.088563469            2 
 1786000   0.95589073   -2.4972643    1864.9838  0.087018656  0.088546986            3 
 1787000   0.97436684   -2.5200212    1859.0255  0.086692104  0.088530517            2 
 1788000   0.97520232   -2.4998102    1864.5101  0.086899242  0.088514039            3 
 1789000   0.95756904   -2.5131237    1863.7147  0.086813615  0.088497834            4 
 1790000    0.9888414   -2.5169436    1861.5653  0.086665053  0.088481104            4 
 1791000   0.95153745   -2.5238089    1873.6864  0.087180645  0.088464416            1 
 1792000   0.94008747   -2.5367871    1860.0196  0.086496446  0.088447959            2 
 1793000   0.96341653   -2.5179723    1875.0005  0.087144473  0.088431511            2 
 1794000   0.97045606   -2.4893242    1869.9935  0.086863318  0.088415212            7 
 1795000   0.94549131   -2.5108777    1865.4313  0.086603123  0.088398917            4 
 1796000   0.96566503   -2.5355312    1870.3344  0.086782404   0.08838267            2 
 1797000   0.95872641   -2.5075628    1864.4843  0.086462822  0.088365806            4 
 1798000   0.94892667   -2.5198082    1866.6481  0.086515022  0.088349552            2 
 1799000   0.98045385   -2.5081183    1874.5411  0.086832553  0.088332908            2 
 1800000   0.96448598   -2.5389304    1879.2944  0.087004371  0.088316533            4 
 1801000   0.95711816   -2.5383685    1879.2638  0.086954648  0.088300263            2 
 1802000   0.95779776   -2.5180295     1864.616  0.086229005   0.08828378            1 
 1803000   0.97671742   -2.5183485    1885.2597  0.087135318  0.088267576            2 
 1804000   0.98407898    -2.511799    1881.5806  0.086917064  0.088251701            2 
 1805000   0.97865533   -2.5674655    1867.4289  0.086215555  0.088235389            1 
 1806000   0.95320605   -2.5289863     1879.679  0.086733067  0.088219223            1 
 1807000   0.95524298   -2.5042464    1881.5519  0.086771441  0.088203545            3 
 1808000    0.9784301     -2.50446    1886.4166  0.086947667  0.088187607            2 
 1809000   0.95160372   -2.5202656    1882.4172  0.086715366  0.088172034            2 
 1810000   0.94928038   -2.5252603     1889.076  0.086974035  0.088156473            1 
 1811000   0.98331713   -2.5248874    1883.3353  0.086661848  0.088140419            1 
 1812000   0.95512574   -2.5112157     1885.497   0.08671344  0.088125181            2 
 1813000   0.97841639   -2.5201654    1892.7685  0.086999841  0.088109715            3 
 1814000   0.97050693   -2.5056053    1889.0152  0.086779455  0.088094162            3 
 1815000   0.96685389   -2.5107669    1895.5657  0.087032402  0.088078465            4 
 1816000   0.97687032   -2.5444889    1889.3617  0.086699784     0.088063            3 
 1817000   0.95589436   -2.5266411    1885.1681  0.086459735    0.0880474            2 
 1818000   0.96077638   -2.5483324    1884.8707  0.086398548  0.088032092            2 
 1819000   0.96743761   -2.5179599     1891.422  0.086651182  0.088016606            4 
 1820000   0.97891369   -2.5364728     1892.286  0.086643131  0.088001152            4 
 1821000   0.97436701   -2.5311704    1892.6598  0.086612659  0.087985804            1 
 1822000   0.96814715   -2.5437988    1890.6423  0.086472847  0.087970079            3 
 1823000   0.94468297   -2.5573349    1892.6172   0.08651569  0.087954303            2 
 1824000    0.9541698   -2.5416166    1896.3395  0.086638316  0.087938645            1 
 1825000   0.95762103   -2.5233371    1896.2814  0.086588194  0.087923017            1 
 1826000   0.96907327   -2.5263925    1901.1581   0.08676333  0.087907069            2 
 1827000   0.94964542   -2.4952503    1901.0342   0.08671019  0.087891184            2 
 1828000   0.96416916   -2.5216645    1894.8021  0.086378652  0.087875334            1 
 1829000   0.96849712    -2.521539    1893.6111   0.08627716   0.08785926            1 
 1830000   0.95875491    -2.564533     1891.245  0.086122266  0.087843333            2 
 1831000   0.96729232   -2.5305238    1888.9114  0.085969024  0.087826871            2 
 1832000   0.96358632   -2.5064384    1901.7194  0.086504704   0.08781094            5 
 1833000   0.97630749   -2.5315798    1889.6621   0.08590935  0.087794536            4 
 1834000   0.94823315   -2.5233523    1894.6742  0.086090249  0.087778354            2 
 1835000   0.94516532   -2.5228343    1895.0719  0.086061392  0.087761971            3 
 1836000   0.95745506   -2.5105531    1895.3617  0.086027673  0.087745779            2 
 1837000   0.95630778   -2.5153244    1900.3644  0.086207783  0.087729416            3 
 1838000   0.94134769   -2.5184816    1901.9717  0.086233754  0.087713038            2 
 1839000   0.97579448    -2.524526    1897.0517  0.085963917  0.087696654            3 
 1840000    0.9571278   -2.5175775    1907.6223  0.086395939  0.087680136            3 
 1841000    0.9507851   -2.5320324    1903.2744  0.086152202  0.087663853            4 
 1842000   0.95427773   -2.5588806    1893.8944  0.085681069  0.087647305            1 
 1843000   0.95778452   -2.5457998    1905.2145  0.086146434    0.0876307            3 
 1844000   0.96042026   -2.5368939    1907.4842  0.086202288  0.087614491            4 
 1845000   0.97194742   -2.5366744    1907.8543  0.086172282  0.087598419            2 
 1846000   0.95044898   -2.5215522    1910.8975  0.086262978   0.08758236            3 
 1847000   0.94915392   -2.5245891    1911.6961  0.086252306  0.087566664            3 
 1848000   0.96111928   -2.5287359    1916.2779  0.086412244  0.087551316            2 
 1849000    0.9501284   -2.5352096    1917.6455  0.086427147  0.087535862            1 
 1850000   0.94250766   -2.5427273    1911.8215  0.086118086  0.087520562            3 
 1851000   0.98119249   -2.5656689    1920.5806  0.086465901  0.087504827            5 
 1852000   0.95743706   -2.5529843    1912.9396  0.086075395  0.087489258            2 
 1853000   0.97719441   -2.5310999    1919.2218  0.086311469   0.08747384            2 
 1854000    0.9770076   -2.5509761    1909.1791  0.085813515   0.08745836            3 
 1855000   0.95212722   -2.5575914    1925.6321  0.086506382  0.087442995            1 
 1856000   0.94630475   -2.5425446    1917.0739  0.086075518  0.087427784            3 
 1857000   0.96077188   -2.5268933    1918.4786  0.086092202  0.087412443            2 
 1858000   0.97833641   -2.5497711    1919.4879  0.086091134   0.08739698            4 
 1859000   0.92746946   -2.5333624    1916.4147  0.085907059  0.087380978            2 
 1860000   0.93625741   -2.5287158    1923.8885   0.08619572  0.087365688            2 
 1861000   0.95267189   -2.5522468    1919.5956  0.085957173  0.087350286            3 
 1862000   0.96982715   -2.5455888    1925.0397  0.086154661  0.087335222            3 
 1863000   0.96655208   -2.5361715    1921.2949  0.085940907  0.087320471            3 
 1864000    0.9629872   -2.5341659     1935.111  0.086512473  0.087305565            3 
 1865000   0.93465952   -2.5221548    1929.9935  0.086237421  0.087290496            2 
 1866000   0.94802003   -2.5162785    1930.3463  0.086206961  0.087275538            2 
 1867000   0.94305805   -2.5304618    1925.8979  0.085962236  0.087260307            1 
 1868000   0.97176317   -2.5333364    1926.0968  0.085925088  0.087245178            2 
 1869000   0.93942457   -2.5399936    1920.3337  0.085622155  0.087229768            2 
 1870000   0.93318715   -2.5372092    1936.7491  0.086307894  0.087214518            2 
 1871000   0.94911252   -2.5477108    1923.1056  0.085654087  0.087199501            6 
 1872000   0.95299619   -2.5607414    1922.9171  0.085599941  0.087184242            3 
 1873000   0.94717799   -2.5442691    1934.6016  0.086074107  0.087168983            2 
 1874000   0.97440697   -2.5630699    1932.8744   0.08595137  0.087153521            2 
 1875000   0.93781158   -2.5321843    1932.1444  0.085873085  0.087138086            1 
 1876000    0.9268808   -2.5821126    1926.5875  0.085580468  0.087122621            2 
 1877000   0.95488216   -2.5353188    1929.7373  0.085674716  0.087106894            4 
 1878000   0.94708251   -2.5136733    1935.0182  0.085863428  0.087091508            4 
 1879000   0.96462091   -2.5324938    1936.9553  0.085903642  0.087076233            3 
 1880000   0.95410862   -2.5421033    1940.6658  0.086022422  0.087060973            5 
 1881000   0.94841327   -2.5424703    1939.2501   0.08591397  0.087045339            2 
 1882000   0.92597556   -2.5661233    1929.1966  0.085423157  0.087029479            5 
 1883000   0.94954438   -2.5426084    1942.8981  0.085984159  0.087013869            3 
 1884000    0.9531851   -2.5504381    1936.3822  0.085650311  0.086998446            2 
 1885000   0.93432923   -2.5444984    1932.6085  0.085438041  0.086982612            4 
 1886000    0.9489162   -2.5765764    1931.4538  0.085341719  0.086966867            2 
 1887000   0.95356982   -2.5528627    1943.2609  0.085817918  0.086951131            2 
 1888000    0.9516766   -2.5894694    1933.5968  0.085345904  0.086935372            4 
 1889000   0.98403982   -2.5345496     1951.021  0.086069394  0.086919716            2 
 1890000   0.96801412   -2.5150082    1945.3273   0.08577281  0.086904484            2 
 1891000   0.95334384   -2.5464338    1941.8328  0.085573452   0.08688919            2 
 1892000   0.95383555   -2.5563113    1941.5392  0.085515293  0.086873984            3 
 1893000   0.97383819   -2.5283714    1960.0584  0.086285368  0.086858687            3 
 1894000   0.95205008   -2.4974085    1942.8902  0.085484432  0.086843566            4 
 1895000   0.95833383    -2.567444     1939.323  0.085282456  0.086828226            1 
 1896000   0.95135438   -2.5412231    1947.8641  0.085612876  0.086813071            3 
 1897000    0.9466162   -2.5574853    1947.7847  0.085564256  0.086797653            2 
 1898000   0.95235317    -2.518084      1949.05  0.085574729  0.086782663            4 
 1899000   0.95959031   -2.5761184      1943.77  0.085297962  0.086767411            3 
 1900000   0.95861918   -2.5413185    1949.6578  0.085511309   0.08675204            4 
 1901000   0.94010128   -2.5849235    1945.8882  0.085301076  0.086736512            1 
 1902000   0.96989056   -2.5583223    1947.4842  0.085326156   0.08672079            3 
 1903000   0.96010074   -2.5566584    1947.2025  0.085268984  0.086705278            4 
 1904000   0.92817426    -2.542333    1961.2618  0.085839541  0.086689908            3 
 1905000   0.94691448   -2.5475423    1957.3061  0.085621438  0.086674609            1 
 1906000   0.94668614    -2.555734    1949.1273  0.085218929  0.086659366            3 
 1907000   0.94775905    -2.558095    1959.2516   0.08561666  0.086643895            7 
 1908000   0.94996334    -2.532948    1949.9128  0.085163905  0.086628537            2 
 1909000   0.95468329   -2.5286775    1959.3348  0.085530594  0.086612882            1 
 1910000     0.926324   -2.5530508    1956.3651  0.085356241  0.086597202            1 
 1911000   0.94348462     -2.56811    1950.3142  0.085047714   0.08658168            4 
 1912000   0.95526654   -2.5038271     1963.959  0.085597934  0.086566125            7 
 1913000   0.92941383   -2.5196228    1961.6085  0.085450797  0.086550235            2 
 1914000   0.95054162   -2.5687733    1958.8541  0.085286228  0.086534865            2 
 1915000   0.94229677   -2.5530163    1952.9606  0.084985229  0.086519028            3 
 1916000   0.94234556   -2.5491186    1953.2361  0.084952856  0.086503441            1 
 1917000   0.94916882   -2.5613585    1961.6278  0.085273335  0.086487845            2 
 1918000   0.96211081   -2.5360371    1961.9594  0.085243281  0.086472004            3 
 1919000   0.94471135   -2.5730466    1959.7554  0.085103154  0.086456437            3 
 1920000   0.95717303   -2.5355818    1971.4682  0.085567197  0.086441239            2 
 1921000   0.95653293   -2.5456731     1959.687  0.085011583  0.086425775            2 
 1922000   0.95138941   -2.5375166    1964.3455  0.085169335  0.086410178            2 
 1923000   0.92794213   -2.5380733    1967.7134  0.085270991  0.086394457            3 
 1924000   0.94969119   -2.5626536    1962.3702  0.084995246  0.086378893            3 
 1925000   0.94469921   -2.5382382    1961.3442  0.084906674  0.086363729            5 
 1926000   0.92785015   -2.5238011    1967.2471  0.085117995  0.086347962            4 
 1927000   0.92789143   -2.5443032    1966.4722  0.085040315  0.086332141            4 
 1928000   0.94038783   -2.5680539    1969.0567  0.085107913  0.086316563            3 
 1929000   0.96070858   -2.5545074     1967.563  0.084999265  0.086300807            2 
 1930000   0.95868748   -2.5558959     1972.377  0.085163081  0.086284874            2 
 1931000   0.95462811   -2.5238135    1971.0442  0.085061462  0.086269436            2 
 1932000    0.9414999   -2.5520121    1977.2478  0.085285014  0.086254074            2 
 1933000   0.93328106   -2.5580569    1976.7227  0.085218256  0.086238681            2 
 1934000   0.92993646   -2.5188411    1978.4179  0.085247239  0.086223344            2 
 1935000   0.92508941   -2.5620915    1978.3276  0.085199295  0.086207602            1 
 1936000   0.97129771   -2.5354063    1983.9855  0.085398826  0.086192233            2 
 1937000   0.93606401   -2.5264099    1967.8308   0.08465973   0.08617709            3 
 1938000   0.94208948   -2.5373468    1978.3233  0.085067223  0.086161791            1 
 1939000   0.95550766   -2.5790801    1979.7799   0.08508595  0.086146358            3 
 1940000   0.93106804   -2.5464843    1977.8284  0.084958265  0.086131082            3 
 1941000   0.96349063   -2.5512991    1974.6093  0.084776286  0.086115851            1 
 1942000   0.94711237   -2.5504441    1977.3585  0.084850604  0.086100358            3 
 1943000   0.93957657   -2.5801008    1971.7452  0.084566188  0.086084825            3 
 1944000   0.94383317   -2.5529122    1978.5444  0.084814145   0.08606925            2 
 1945000   0.94636926   -2.5480718     1981.315  0.084889245  0.086053837            2 
 1946000   0.94771416   -2.5607766    1978.2344  0.084713704  0.086038132            4 
 1947000    0.9340121   -2.5553528    1975.0299   0.08453304  0.086022588            2 
 1948000   0.95041576   -2.5573588    1980.2192  0.084711638  0.086007174            3 
 1949000   0.93715546   -2.5230126    1985.5208  0.084894853  0.085991779            2 
 1950000    0.9235407   -2.5678985    1986.1825  0.084879595  0.085976271            3 
 1951000   0.94792927   -2.5530871    1981.1654  0.084621793  0.085960869            2 
 1952000    0.9242032   -2.5574753    1985.7982  0.084776222  0.085945274            3 
 1953000    0.9340945   -2.5572464    1987.1696  0.084791331   0.08592991            3 
 1954000    0.9470011   -2.5649049    1986.4756  0.084718338  0.085914803            2 
 1955000    0.9385983   -2.5501948    1980.7896  0.084432636  0.085899799            4 
 1956000   0.94884012   -2.5605404    1990.9359   0.08482174  0.085884226            2 
 1957000   0.95333033   -2.5376276    1989.7474   0.08472779  0.085868954            3 
 1958000   0.94894031   -2.5798227    1988.4998  0.084631418  0.085853757            2 
 1959000   0.91661575   -2.5635565    1979.3458  0.084198817  0.085838158            2 
 1960000   0.96877406   -2.5617408    1993.0118  0.084736898  0.085822551            4 
 1961000   0.94825586   -2.5693872    1984.3485  0.084325538  0.085806699            3 
 1962000   0.93302476   -2.5668259    1990.4323  0.084540957   0.08579098            2 
 1963000   0.95041426   -2.5283802    1997.1088  0.084781319   0.08577549            2 
 1964000   0.93047674   -2.5573935     1988.634  0.084378565   0.08576015            3 
 1965000    0.9315333   -2.5698854    1992.4545  0.084497647  0.085744472            2 
 1966000   0.94914065   -2.5285347     1999.751  0.084763946   0.08572951            1 
 1967000   0.95767721   -2.5606761    1998.9144   0.08468541  0.085714015            1 
 1968000   0.93586774   -2.5662704    1989.2191  0.084231838  0.085698573            1 
 1969000   0.93115667   -2.5605334    1996.7444  0.084507551  0.085683159            3 
 1970000   0.94997877   -2.5508897    2005.2739   0.08482546    0.0856681            4 
 1971000   0.93758404   -2.5595342    1993.9095  0.084301942   0.08565267            3 
 1972000   0.92602482   -2.5514933      2006.56  0.084793778  0.085637338            2 
 1973000   0.95949298   -2.5416476    1994.2988  0.084232929  0.085622032            1 
 1974000   0.93616016   -2.5655556    1997.7478  0.084335856  0.085606742            2 
 1975000   0.93369926   -2.5417787    1996.0868   0.08422307  0.085591434            2 
 1976000   0.92353458   -2.5647064    2001.1845  0.084395435  0.085576458            2 
 1977000   0.95041058   -2.5469755    2002.1704  0.084394301  0.085561438            2 
 1978000    0.9406613   -2.5835149    2006.0066  0.084513254  0.085546618            2 
 1979000   0.94350341   -2.5523061    2013.6955  0.084794321  0.085532073            4 
 1980000   0.94732799   -2.5426873     2016.107  0.084852988  0.085517267            2 
 1981000   0.93092584   -2.5537515    2008.7939  0.084502521  0.085502365            2 
 1982000   0.94774306   -2.5521036    2008.9971  0.084468428  0.085487603            3 
 1983000   0.92746957   -2.5838054    2009.6711  0.084454157  0.085472549            3 
 1984000   0.93656662   -2.5896723    2009.0445  0.084385271  0.085457094            2 
 1985000   0.94123535   -2.5657794     2008.375   0.08431465  0.085442023            3 
 1986000    0.9133867   -2.5534383    2017.5413  0.084656819  0.085426832            4 
 1987000   0.94096574   -2.5635279    2007.4295  0.084190131  0.085411787            1 
 1988000   0.91491789   -2.5815766    2017.7577  0.084580721   0.08539662            2 
 1989000   0.93659443   -2.5595895    2019.2258  0.084599708  0.085382059            3 
 1990000   0.92085361   -2.5363087    2010.5276  0.084192948  0.085367415            3 
 1991000   0.92242397   -2.5595123    2018.8959  0.084500917  0.085352807            2 
 1992000   0.94746292   -2.5533919    2017.4104  0.084396352  0.085338416            1 
 1993000   0.93236638    -2.564538    2017.4826  0.084357025  0.085323706            2 
 1994000   0.93346049   -2.5699439    2020.2631  0.084430921  0.085309335            1 
 1995000   0.93536084   -2.5425619    2016.8086  0.084244302  0.085294663            3 
 1996000    0.9054436   -2.5511566     2024.205  0.084510898  0.085280336            5 
 1997000   0.90595097   -2.5505566    2020.8147  0.084327103  0.085265828            3 
 1998000    0.9326722   -2.5690619    2020.4023  0.084267696  0.085251005            2 
 1999000   0.94060186   -2.5587599    2021.8948  0.084287761  0.085236138            2 
 2000000     0.931786   -2.5416496    2027.9991  0.084499964  0.085221594            4 
 2001000   0.94103616   -2.5556145    2017.7578  0.084031225  0.085206899            4 
 2002000   0.94638075   -2.5692917    2021.2179   0.08413328   0.08519232            2 
 2003000   0.91095959   -2.5511277    2028.6884  0.084402082  0.085177663            2 
 2004000   0.94207367   -2.5601591    2020.1277  0.084003979  0.085163012            2 
 2005000   0.92823626   -2.5911164    2027.3831  0.084263637  0.085148405            3 
 2006000   0.94490198    -2.556727    2030.8247  0.084364604  0.085133899            1 
 2007000   0.92332256   -2.5626335    2023.8629  0.084033504  0.085119421            1 
 2008000   0.91602517   -2.5710055    2033.8927  0.084407896  0.085104855            4 
 2009000   0.91244299   -2.5422808    2031.5217  0.084267533  0.085090238            5 
 2010000    0.9404559   -2.6026076    2029.5984  0.084145872  0.085075237            3 
 2011000   0.95586458   -2.5790755    2030.5967  0.084145397  0.085060389            2 
 2012000   0.95161095   -2.5595855     2019.547  0.083645917  0.085045215            4 
 2013000   0.94738775   -2.6018341    2019.9541  0.083621216  0.085030066            2 
 2014000   0.92728048   -2.5654531    2036.8195  0.084277537  0.085014885            2 
 2015000   0.91673491    -2.558175    2030.3272  0.083967213  0.085000213            3 
 2016000   0.90859977   -2.5755872    2034.4186  0.084094684  0.084985421            3 
 2017000   0.93192303   -2.5622128    2029.3942  0.083845404  0.084970386            4 
 2018000   0.92081515   -2.5333708    2038.9404  0.084198068   0.08495565            3 
 2019000   0.92469308    -2.543459    2031.7678  0.083860317  0.084940517            2 
 2020000   0.93194045   -2.5741288    2025.5508  0.083562328  0.084925206            4 
 2021000   0.94775372   -2.5689579    2039.6997   0.08410439  0.084910197            6 
 2022000   0.91772695   -2.5900009    2037.3231  0.083964849  0.084895165           10 
 2023000   0.91221646   -2.5881294    2029.2567  0.083591066  0.084880296            2 
 2024000   0.94803004   -2.5337294    2044.8059  0.084189968  0.084865232            2 
 2025000   0.91717416   -2.5535087    2043.2437  0.084084102  0.084850408            2 
 2026000   0.91499602   -2.5501794    2039.8688  0.083903782  0.084836056            2 
 2027000   0.90604803   -2.5661366    2040.3551  0.083882384  0.084821291            2 
 2028000   0.93341828   -2.5662523     2033.706  0.083567799  0.084806304            5 
 2029000   0.93273132   -2.5668144    2038.9469  0.083741864  0.084791489            5 
 2030000    0.9488315   -2.5573772    2045.9097   0.08398644  0.084776636            3 
 2031000   0.92327453   -2.5784398     2046.562  0.083971853  0.084762015            6 
 2032000   0.93456964   -2.5745038    2045.7888   0.08389882  0.084746805            2 
 2033000   0.93892975   -2.5480694    2040.1313  0.083625649  0.084731927            4 
 2034000   0.92314854   -2.5687716    2044.3008  0.083755361  0.084717088            2 
 2035000   0.93901623   -2.5569091     2045.147  0.083748855  0.084702177            3 
 2036000   0.92982179   -2.6043586    2043.1152  0.083624558  0.084687513            3 
 2037000    0.9256096   -2.5725246     2052.616  0.083972181  0.084673043            3 
 2038000   0.92569078   -2.5815906    2050.7661  0.083855337  0.084658315            1 
 2039000    0.9344813   -2.5671031    2050.7494  0.083813526  0.084643787            2 
 2040000   0.92710351   -2.5889396    2036.8772  0.083205767   0.08462896            3 
 2041000   0.91625348   -2.5669568    2055.0209  0.083905803  0.084614214            2 
 2042000   0.91513852   -2.5915368    2048.8682  0.083613621  0.084599474            3 
 2043000   0.91647797   -2.5751338    2056.4383  0.083881479  0.084584751            3 
 2044000   0.94829956   -2.5846141    2050.8468  0.083612475  0.084569872            3 
 2045000   0.92303029   -2.5673601    2045.8413  0.083367617  0.084554797            5 
 2046000   0.91274233   -2.5794433    2048.4508  0.083433154  0.084539915            2 
 2047000   0.92228576    -2.543317    2048.8161  0.083407267  0.084524759            1 
 2048000   0.92819653   -2.5955335    2043.4847  0.083149607  0.084509785            3 
 2049000   0.92234642   -2.5504636    2055.5995  0.083601739  0.084494948            3 
 2050000   0.93433815   -2.5435563     2051.695  0.083402238  0.084480098            2 
 2051000   0.93777269   -2.5959131    2048.4149  0.083228299  0.084465477            6 
 2052000   0.92106022   -2.5578925    2054.8204  0.083447874  0.084450449            3 
 2053000   0.92264285   -2.5570827    2064.0741  0.083782843  0.084435512            3 
 2054000   0.89673283   -2.5740191    2050.9296  0.083208765  0.084420824            2 
 2055000    0.9232774    -2.579021    2056.4211  0.083390961  0.084405765            3 
 2056000   0.92905391   -2.5747184    2057.1149   0.08337852  0.084390499            4 
 2057000    0.9344816   -2.5529074    2058.3443  0.083387794   0.08437512            3 
 2058000   0.92653565   -2.5559207    2061.0993  0.083458833  0.084359994            2 
 2059000   0.93483364    -2.571374    2053.5767  0.083113837  0.084344939            2 
 2060000   0.91567533   -2.5570462    2064.5304  0.083516604  0.084329818            2 
 2061000   0.92857117   -2.5720044    2064.4967  0.083474716   0.08431461            4 
 2062000   0.92163998   -2.5531911    2058.2152  0.083180375  0.084299347            4 
 2063000    0.9223642   -2.5816066    2057.3248  0.083104086  0.084284277            2 
 2064000   0.91745038   -2.5792296    2067.5452  0.083476468  0.084268899            3 
 2065000   0.91506535   -2.5924098    2055.9189  0.082966866  0.084253554            1 
 2066000   0.93998339   -2.5628575    2055.6551  0.082916068  0.084238276            3 
 2067000   0.93515802   -2.5832575    2060.0825  0.083054448  0.084222706            2 
 2068000   0.91834884   -2.5570235    2063.5663  0.083154672  0.084207225            2 
 2069000   0.89954282   -2.5780672    2062.7635  0.083082145  0.084192094            2 
 2070000   0.92709839   -2.5839861      2068.24   0.08326248  0.084176506            2 
 2071000   0.90292809   -2.5681825    2064.4472  0.083069661  0.084161179            2 
 2072000   0.92067115   -2.5667632    2063.2339  0.082980771  0.084145912            3 
 2073000   0.92579942   -2.5744018    2072.7798  0.083324481  0.084130799            2 
 2074000   0.90950806   -2.5649979    2071.3505  0.083226874  0.084115976            1 
 2075000   0.91752893   -2.5829442    2066.3566  0.082986209  0.084100696            2 
 2076000   0.92862843     -2.56458    2075.7697  0.083324088  0.084085475            4 
 2077000   0.92041215   -2.5808017    2066.9998  0.082932106  0.084070477            4 
 2078000   0.92389285   -2.5652451    2076.9702  0.083292034  0.084055233            1 
 2079000   0.90495626   -2.5687539    2066.5379  0.082833811  0.084040126            2 
 2080000   0.90931425   -2.5641095    2074.2727  0.083103873  0.084025179            1 
 2081000   0.91787271   -2.5586013    2075.8244  0.083126079  0.084010307            3 
 2082000   0.91157737   -2.5763058    2077.8038  0.083165378  0.083995588            3 
 2083000   0.91629808   -2.5552175    2074.1726   0.08298018   0.08398078            3 
 2084000   0.91805934    -2.590943    2074.8686  0.082968194  0.083965954            2 
 2085000    0.9506452   -2.5539597    2074.9033  0.082929786  0.083951051            1 
 2086000   0.91857067   -2.5744337     2073.694  0.082841722  0.083935921            3 
 2087000   0.92986386   -2.5563972    2075.0448  0.082855965  0.083920738            5 
 2088000   0.92910065   -2.5888165    2071.7161  0.082683433  0.083905455            3 
 2089000   0.92712774   -2.6079414    2077.8622  0.082889029  0.083889964            3 
 2090000   0.90677466    -2.565264    2076.4194  0.082791843  0.083874546            2 
 2091000   0.90996154   -2.5803509    2070.2621  0.082506859  0.083859268            1 
 2092000   0.92401795   -2.5910038    2075.9288   0.08269315  0.083843886            4 
 2093000   0.91239333   -2.5730715    2079.9613  0.082814195  0.083828271            4 
 2094000   0.92185919   -2.5615089    2078.0227  0.082697496   0.08381271            1 
 2095000   0.92573727   -2.5717048    2082.1964   0.08282404  0.083797301            2 
 2096000   0.90468906   -2.5735129     2083.019  0.082817231  0.083781718            4 
 2097000   0.91208432   -2.5763648     2076.359  0.082513072  0.083766159            2 
 2098000   0.89620743   -2.5778621    2079.7259  0.082607478  0.083750583            3 
 2099000   0.90774595    -2.573327    2080.7671  0.082609462  0.083735191            5 
 2100000   0.92007378   -2.5938574    2077.5489  0.082442415  0.083719763            4 
 2101000   0.91606304   -2.5747532    2080.0987  0.082504313   0.08370421            3 
 2102000   0.92282236   -2.5845847    2079.8021  0.082453304  0.083688851            4 
 2103000   0.92903079   -2.5732913    2090.8369  0.082851359  0.083673237            1 
 2104000   0.91428876   -2.5931874    2085.9156  0.082617062   0.08365774            2 
 2105000   0.91306214   -2.5722074    2082.2521  0.082432783  0.083642207            4 
 2106000   0.90384013    -2.582048    2086.7406  0.082571248   0.08362692            2 
 2107000   0.88798842   -2.5646388    2084.6121  0.082447878  0.083611803            2 
 2108000   0.92439217   -2.6052952    2091.7856  0.082692347  0.083596705            4 
 2109000    0.8967581   -2.5746106    2084.9693  0.082383805  0.083581478            5 
 2110000   0.90375294    -2.594411    2084.5513  0.082328252  0.083566084            2 
 2111000   0.91456325   -2.5989947    2092.8379   0.08261637  0.083550801            2 
 2112000   0.91158952   -2.5672116     2090.882  0.082500079  0.083535664            3 
 2113000   0.93617707   -2.5569884    2090.4642  0.082444559  0.083520599            4 
 2114000   0.92741459   -2.5641411    2094.3985  0.082560648  0.083505329            4 
 2115000   0.91084629   -2.5974367    2090.5564  0.082370228  0.083489892            3 
 2116000   0.89907625    -2.578802    2087.3226  0.082203948   0.08347433            3 
 2117000   0.90326779   -2.6136905    2097.0927  0.082549704  0.083459026            4 
 2118000   0.93042787   -2.5681216    2095.5313  0.082449294  0.083443878            3 
 2119000   0.91444165   -2.5615328    2092.5825  0.082294421  0.083428412            4 
 2120000    0.9033985   -2.5874158    2100.4536  0.082564999   0.08341304            1 
 2121000    0.9257154   -2.5836198    2095.7658   0.08234189  0.083397768            2 
 2122000   0.90365624   -2.5722049     2088.077  0.082001137  0.083382392            6 
 2123000   0.90590349   -2.5831003    2088.0195  0.081960259   0.08336687            2 
 2124000   0.90372443   -2.5999836    2098.2533  0.082323184  0.083351191            4 
 2125000   0.91181594   -2.5747515    2092.3176   0.08205167  0.083335554            2 
 2126000   0.90361656   -2.5965315    2097.4555  0.082214467  0.083320005            5 
 2127000   0.89427138   -2.5895445    2093.5791  0.082023941  0.083304341            5 
 2128000   0.91024786   -2.5785888    2092.5168  0.081943798  0.083288392            3 
 2129000   0.91090073   -2.5915062    2100.5653  0.082220341  0.083272413            5 
 2130000   0.92298652   -2.5827046    2097.5045  0.082061993  0.083256367            2 
 2131000   0.92237159   -2.5863223    2087.2942  0.081624205  0.083240002            2 
 2132000   0.92025437   -2.5878683    2094.1953  0.081855665  0.083223691            4 
 2133000   0.91003299   -2.5724315    2094.3856  0.081824722  0.083207246            2 
 2134000    0.9040322   -2.5738197     2090.375  0.081629762  0.083190787            2 
 2135000   0.92633368   -2.5827585    2089.8898   0.08157259  0.083174363            2 
 2136000   0.88209557   -2.5937913    2089.2694  0.081510199  0.083158026            3 
 2137000   0.90584492   -2.6024847    2099.8936   0.08188635  0.083141497            3 
 2138000   0.89440398   -2.5905753    2092.6345  0.081565113  0.083125226            2 
 2139000   0.92196686   -2.5990713    2094.0012  0.081580225  0.083109098            3 
 2140000   0.91806236   -2.6005056    2096.3618  0.081634027  0.083092762            5 
 2141000   0.91145824   -2.6097931    2095.2823  0.081553879  0.083076574            1 
 2142000   0.89458884   -2.5864609    2104.5034  0.081874548  0.083060448            3 
 2143000   0.91467861   -2.5767988     2099.304  0.081634158  0.083044109            2 
 2144000   0.90253762   -2.5723316    2097.8016  0.081537685  0.083027563            5 
 2145000   0.91592359   -2.6230779    2097.7367  0.081497152  0.083011196            2 
 2146000   0.89566872    -2.578275    2107.9586  0.081856113  0.082994896            2 
 2147000   0.91389327    -2.608194    2094.8349  0.081308604  0.082978498            3 
 2148000   0.90303228   -2.5727851    2109.6733  0.081846421  0.082962659            7 
 2149000   0.91232832   -2.5999617    2106.4176  0.081682086  0.082946563            3 
 2150000   0.89823518   -2.5768723    2107.9013  0.081701601  0.082930149            2 
 2151000   0.91983928    -2.600668    2098.0167  0.081280673  0.082913911            3 
 2152000   0.91826269   -2.5776974    2107.2369  0.081599942  0.082897842            1 
 2153000   0.90003077   -2.5954899    2109.0076  0.081630577  0.082881893            4 
 2154000   0.91728468   -2.5806847    2105.3218  0.081450084  0.082865747            1 
 2155000   0.90644838    -2.592839    2111.0742  0.081634733  0.082849735            4 
 2156000    0.9096876   -2.6149526    2108.2836  0.081489008  0.082834033            4 
 2157000   0.92027816    -2.568114    2111.9558  0.081593102  0.082818071            2 
 2158000   0.92407532    -2.587943     2107.729  0.081392069  0.082802154            3 
 2159000   0.92199529   -2.5739179    2106.6229  0.081311677   0.08278609            3 
 2160000   0.89847016   -2.5862598    2111.3329  0.081455744  0.082769871            3 
 2161000   0.90276369   -2.6097573    2111.4071  0.081420911  0.082753589            1 
 2162000   0.91596885   -2.5878172    2116.8324  0.081592368  0.082737245            8 
 2163000   0.88676655   -2.5775668    2111.0101  0.081330333  0.082721103            1 
 2164000   0.89615537   -2.5895141    2113.0931  0.081372963   0.08270497            1 
 2165000   0.90832388   -2.5841436    2109.6095   0.08120129  0.082688901            3 
 2166000   0.90444231   -2.5770483    2110.6655  0.081204429  0.082672633            6 
 2167000    0.9027742   -2.5546828    2112.2303  0.081227132  0.082656521            3 
 2168000   0.90481058   -2.5793455    2123.2877  0.081614689  0.082640159            3 
 2169000   0.89854037   -2.6015709    2114.7028  0.081247226  0.082623891            2 
 2170000   0.91533749   -2.6193132    2116.5138  0.081279334  0.082607571            4 
 2171000   0.89070473   -2.5898611    2114.1206  0.081150032  0.082591366            2 
 2172000   0.90858008   -2.5949105    2118.4711  0.081279586  0.082575254            2 
 2173000   0.92239632   -2.6032681    2112.2268  0.081002716  0.082559109            4 
 2174000   0.90909014   -2.6079174    2127.6007  0.081554765  0.082542809            1 
 2175000   0.90448703   -2.5707432    2119.0466  0.081189526  0.082526793            4 
 2176000   0.89583232    -2.574069    2121.1196  0.081231601  0.082510631            7 
 2177000   0.89679808    -2.601684    2125.4532  0.081360175  0.082494823            3 
 2178000   0.92528838   -2.6057248    2123.4698   0.08124693  0.082478969            3 
 2179000   0.90870747   -2.5858268     2119.087  0.081042031   0.08246308            3 
 2180000   0.89914415   -2.5908637    2123.8904  0.081188471  0.082447121            3 
 2181000     0.912905   -2.6109205    2128.6871   0.08133452   0.08243093            2 
 2182000   0.89460436   -2.6051006    2123.9847  0.081117656  0.082414712            2 
 2183000   0.89251094   -2.5934053    2122.0954  0.081008376  0.082398687            1 
 2184000   0.88815855    -2.595665    2124.9886  0.081081678  0.082382712            4 
 2185000   0.89736105   -2.5849067    2134.0909  0.081391722  0.082367005            3 
 2186000   0.90417141   -2.6050872    2123.7445  0.080960068  0.082351009            2 
 2187000   0.91763945   -2.5953473    2122.3428  0.080869639  0.082334757            3 
 2188000   0.89898938    -2.587549    2123.0031  0.080857827  0.082318823            3 
 2189000   0.90811909   -2.5950959    2134.2509  0.081249083  0.082302779            2 
 2190000   0.91441176   -2.5912941    2127.4506  0.080953218  0.082286727            3 
 2191000   0.91934824   -2.6018197    2125.6068  0.080846144   0.08227041            3 
 2192000   0.89092665   -2.6251559    2126.6489  0.080848878  0.082254174            2 
 2193000   0.89447561   -2.5859327    2131.3811  0.080991833  0.082237918            4 
 2194000   0.92559626   -2.6037963    2135.1337  0.081097451  0.082221638            2 
 2195000   0.91897836   -2.6092566    2135.6087  0.081078539  0.082205704            2 
 2196000   0.87459124   -2.5854245    2140.3544  0.081221705  0.082189837            2 
 2197000   0.88988677   -2.5895277     2136.885   0.08105314  0.082173897            1 
 2198000   0.90910771   -2.5867354    2143.3712  0.081262177  0.082158236            1 
 2199000    0.9129333   -2.6107328    2138.5795  0.081043639  0.082142487            2 
 2200000   0.91901147   -2.6214479    2137.9742  0.080983873   0.08212663            1 
 2201000   0.88524892   -2.5882437    2134.3601  0.080810243  0.082110881            3 
 2202000   0.87934744   -2.6324924    2135.6524  0.080822448  0.082095193            3 
 2203000   0.90982041   -2.5857635     2145.576  0.081161144  0.082079562            2 
 2204000   0.89833636   -2.6253283    2142.1344  0.080994194  0.082063993            3 
 2205000   0.90313492   -2.5899331    2147.3589  0.081154909  0.082048818            5 
 2206000   0.88804003   -2.6014981    2148.7792  0.081171775  0.082033367            3 
 2207000   0.88925464    -2.600187    2142.2592  0.080888807  0.082018147            2 
 2208000   0.90098133   -2.6294011    2147.2849  0.081041853  0.082002631            3 
 2209000   0.88316695   -2.6056127    2146.6521  0.080981293  0.081987384            4 
 2210000   0.90204183   -2.5926996    2143.7257  0.080834302  0.081972017            2 
 2211000   0.89456769   -2.5941209     2150.989    0.0810715  0.081956535            3 
 2212000   0.88602914   -2.6157324    2137.1233  0.080512482  0.081940856            2 
 2213000   0.88224787   -2.5873544    2153.1133  0.081078222  0.081925253            2 
 2214000   0.89113246   -2.5763476    2147.1199  0.080816015   0.08190962            2 
 2215000   0.90942135   -2.6072917    2146.6958  0.080763574  0.081894193            4 
 2216000   0.90048364   -2.6006796    2140.6184  0.080498584  0.081878619            2 
 2217000     0.901279   -2.6121729    2143.3028  0.080563178  0.081862846            5 
 2218000   0.87973221   -2.6074838    2154.0792   0.08093174  0.081847174            2 
 2219000   0.90259589   -2.5936126    2150.7636  0.080770752  0.081831676            3 
 2220000   0.89853545   -2.6077581    2152.7136  0.080807569  0.081816087            4 
 2221000   0.90916463   -2.5734627    2147.0615  0.080559115  0.081800605            2 
 2222000   0.89112603    -2.589706     2153.209  0.080753415  0.081784924            2 
 2223000   0.89311672    -2.627798    2156.1026  0.080825559  0.081769304            4 
 2224000   0.90884357   -2.6128068    2155.5318  0.080767827  0.081753871            4 
 2225000   0.87654575    -2.593107    2155.0069   0.08071187  0.081738285            2 
 2226000   0.90372855   -2.6042228    2146.5228  0.080357996   0.08172271            2 
 2227000   0.91442572   -2.6070014     2155.547  0.080659595  0.081706884            5 
 2228000    0.8970781    -2.592676    2156.6293  0.080663872  0.081691072            2 
 2229000   0.90100171   -2.5831908     2157.953  0.080677171  0.081675313            5 
 2230000   0.89289161   -2.6002279    2153.6269  0.080479331  0.081659487            7 
 2231000   0.90664807   -2.6141033    2158.0985  0.080610283   0.08164368            2 
 2232000   0.87460076    -2.613569    2153.5394  0.080403948  0.081627715            3 
 2233000   0.90334348    -2.617136    2169.2113  0.080952801   0.08161218            1 
 2234000   0.89627268   -2.6050081    2155.0119  0.080386898  0.081596695            2 
 2235000   0.90023217   -2.6082083    2156.6797  0.080413114  0.081581018            2 
 2236000   0.90311553   -2.6126193    2156.6847  0.080377338  0.081564957            2 
 2237000   0.88752083   -2.6031902    2156.3373  0.080328463  0.081549105            2 
 2238000   0.90608696   -2.6023068    2156.3058  0.080291399  0.081533195            3 
 2239000   0.90834065   -2.6111722    2172.0823  0.080842725  0.081517077            2 
 2240000   0.90267942   -2.6061444    2161.7039  0.080420534  0.081501321            8 
 2241000   0.90986289   -2.6242276    2159.2102  0.080291916  0.081485661            3 
 2242000   0.88861397   -2.6232599    2165.8014  0.080501094  0.081469396            1 
 2243000   0.90468288   -2.6018442    2164.1337  0.080403242  0.081453734            3 
 2244000   0.87787388   -2.6069611    2158.5778  0.080161091  0.081437791            4 
 2245000   0.90434992   -2.6085873    2161.0371  0.080216672  0.081422039            4 
 2246000   0.90133153   -2.6028204    2168.9947  0.080476204  0.081406493            3 
 2247000   0.87666554   -2.6084457    2166.0789  0.080332256  0.081390694            2 
 2248000   0.87007638   -2.6231302    2168.0549  0.080369769  0.081374903            8 
 2249000   0.89365303    -2.602867    2163.0354  0.080148045  0.081359085            2 
 2250000   0.89470307   -2.6244521     2175.838  0.080586593  0.081343438            3 
 2251000   0.88505296   -2.6250056    2168.7371  0.080287913  0.081328061            5 
 2252000   0.88112297   -2.6265849    2167.0943  0.080191471  0.081312762            3 
 2253000   0.89070291   -2.6141065    2166.9634  0.080151034  0.081297315            5 
 2254000   0.88111608   -2.6209112    2177.6851  0.080511871  0.081281887            1 
 2255000   0.88267009   -2.6242147    2164.8109  0.080000403  0.081266624            1 
 2256000   0.88048264   -2.6084948    2170.9827   0.08019292  0.081251434            1 
 2257000   0.91128435   -2.5973206    2177.7356  0.080406719  0.081236126            3 
 2258000   0.89888268    -2.628393    2163.8992  0.079860466   0.08122071            3 
 2259000   0.89891384   -2.6048592    2169.5109  0.080032127  0.081205441            3 
 2260000   0.87887225   -2.6054739    2180.4016  0.080398288  0.081190056            5 
 2261000   0.89621159   -2.6187254    2164.7601  0.079786234  0.081174685            4 
 2262000   0.88788463   -2.6277113    2181.0874   0.08035247  0.081159131            6 
 2263000   0.88729417   -2.6046976    2183.0095   0.08038774  0.081143738            4 
 2264000   0.87802072   -2.6088133    2185.3979  0.080440145  0.081128661            3 
 2265000   0.89139932    -2.592266    2177.8389  0.080126524  0.081113494            2 
 2266000   0.89014818   -2.6152892    2180.3085  0.080181985  0.081098105            1 
 2267000   0.89138912   -2.6228884    2178.6938  0.080087261   0.08108274            2 
 2268000    0.8611647   -2.5922747    2178.1097  0.080030484  0.081067397            1 
 2269000   0.89315779   -2.6352394    2178.6135  0.080013718  0.081052309            2 
 2270000    0.8817635   -2.6092202    2180.2582  0.080038847  0.081036987            2 
 2271000   0.88322568   -2.6273195    2183.6987  0.080129853  0.081021786            3 
 2272000   0.89079932   -2.6266666    2179.7885  0.079951162  0.081006348            2 
 2273000   0.88752527   -2.6309202    2179.5146  0.079905945  0.080991038            2 
 2274000   0.89082768   -2.6187033    2175.1814  0.079712011  0.080975798            2 
 2275000   0.89980291   -2.6227459    2187.7526  0.080137457  0.080960605            4 
 2276000   0.87719014   -2.6345733    2185.9927  0.080037812  0.080945732            3 
 2277000    0.8879154   -2.6078879     2190.519  0.080168313  0.080930701            3 
 2278000   0.88273463   -2.6099951    2187.0318  0.080005554  0.080915534            3 
 2279000   0.89798375   -2.6515349    2181.5601  0.079770372   0.08090034            4 
 2280000   0.86749435   -2.6166544    2188.4819  0.079988375  0.080885267           10 
 2281000   0.90401841   -2.6064421    2189.1102  0.079976259  0.080870412            2 
 2282000   0.89251868   -2.6226616    2188.2426  0.079909533  0.080855338            3 
 2283000   0.90393878   -2.6502588    2182.0406  0.079648144   0.08084025            4 
 2284000   0.88266685   -2.6290208    2194.2098  0.080057276  0.080825359            3 
 2285000   0.89827135   -2.6334971    2198.5327  0.080179893  0.080810495            3 
 2286000   0.89715471   -2.6341597     2172.841   0.07920826  0.080795294            2 
 2287000   0.87899788   -2.5934681    2198.3067  0.080101542   0.08078037            3 
 2288000    0.8773527   -2.6197526    2202.0635  0.080203361  0.080765457            4 
 2289000   0.88027006   -2.5899403    2200.7955  0.080122159   0.08075095            2 
 2290000   0.88464945   -2.5982808    2201.2055  0.080102092  0.080736007            3 
 2291000   0.91589316    -2.615176    2194.6113  0.079827271  0.080721165            5 
 2292000   0.88445889   -2.6068769    2197.3631  0.079892493  0.080706324            5 
 2293000   0.87059316   -2.6028843    2202.3506  0.080038907  0.080691634            2 
 2294000   0.88155897   -2.6314525    2200.1638  0.079924579  0.080676812            3 
 2295000   0.88200648   -2.6184565    2197.5759  0.079795786  0.080662179            4 
 2296000   0.89295903   -2.6108082     2203.641  0.079981162  0.080647884            3 
 2297000   0.87501135   -2.6198708    2212.9436  0.080283833  0.080633636            2 
 2298000   0.88031183   -2.6237523    2205.3928  0.079975081   0.08061943            4 
 2299000   0.88002399   -2.5991345    2202.9457  0.079851593  0.080605037            2 
 2300000   0.88111885   -2.6262541    2210.0645  0.080074802  0.080590456            5 
 2301000   0.86941639   -2.6223516    2202.7048  0.079773461  0.080575995            2 
 2302000   0.88552236   -2.6147476    2210.7345  0.080029486  0.080561821            2 
 2303000   0.88719412   -2.6202029    2207.6516   0.07988318  0.080547368            2 
 2304000   0.86062252   -2.6304151    2207.1334  0.079829767   0.08053279            3 
 2305000   0.89286006   -2.6047085    2209.5545  0.079882666  0.080518224            2 
 2306000   0.86828255   -2.6113842    2209.5192  0.079846748  0.080503775            9 
 2307000   0.87662545   -2.6192083    2206.0978  0.079688549  0.080489171            2 
 2308000   0.89346961   -2.6350656    2201.5432  0.079489571  0.080474503            5 
 2309000   0.88086799   -2.6176884    2208.2642  0.079697711  0.080460007            1 
 2310000   0.88187834   -2.6193012    2210.0321  0.079726988  0.080445428            2 
 2311000    0.8814391   -2.6147307    2202.4389  0.079418681  0.080430821            2 
 2312000    0.9068417   -2.6330608    2224.2592  0.080170819  0.080416142            3 
 2313000   0.85777383   -2.6168803    2213.9162  0.079763516  0.080401595            3 
 2314000   0.89851507   -2.6302014    2207.3639   0.07949308  0.080387208            4 
 2315000   0.86061637    -2.615321    2221.0463   0.07995127  0.080372543            2 
 2316000   0.88293864   -2.6278778     2211.961  0.079589847  0.080358394            2 
 2317000   0.87284419   -2.6413956    2212.3622  0.079569926  0.080343831            4 
 2318000   0.88701811    -2.636441    2210.6214  0.079473014  0.080329212            6 
 2319000   0.89982032   -2.6451899    2223.6147  0.079905658  0.080314868            2 
 2320000    0.8857096   -2.6308288    2217.2583  0.079642898  0.080300422            4 
 2321000   0.88925861   -2.6376471    2226.3298  0.079934287  0.080286144            1 
 2322000   0.89743477   -2.6241616    2215.0204  0.079493985  0.080271744            3 
 2323000   0.86785214   -2.6292113    2224.3933  0.079796001  0.080257546            1 
 2324000   0.86959176   -2.6224484    2216.0942  0.079464079   0.08024306            3 
 2325000   0.90410484   -2.6290752     2220.796  0.079598421  0.080228568            2 
 2326000   0.89003009   -2.6465187    2222.5897  0.079628463  0.080213938            3 
 2327000    0.8755612   -2.6170853    2212.9137  0.079247734   0.08019957            3 
 2328000    0.8687523   -2.6274592    2220.8205  0.079496724   0.08018505            3 
 2329000   0.88728663   -2.6651532    2215.6419  0.079277298  0.080170548            3 
 2330000   0.88306045   -2.6172889    2230.1954  0.079763784   0.08015596            3 
 2331000   0.88373707     -2.63039    2224.7699  0.079535603  0.080141678            1 
 2332000   0.87407963   -2.6310011    2225.6045  0.079531322  0.080126979            2 
 2333000   0.85856306    -2.656397    2225.4875  0.079493053  0.080112357            3 
 2334000   0.86802337   -2.5959076     2225.703  0.079466689  0.080097857            1 
 2335000   0.85117504   -2.6371825    2236.9042  0.079832413  0.080083249            2 
 2336000   0.86365917   -2.6154406    2224.5049  0.079355912  0.080068904            4 
 2337000   0.87052192   -2.6247226    2231.5655  0.079573722  0.080054609            5 
 2338000   0.87142454    -2.622123    2226.9738  0.079376027  0.080040327            4 
 2339000   0.87001246   -2.6427141    2226.5489  0.079326953  0.080025947            4 
 2340000   0.88866169   -2.6308274    2225.5158  0.079256259  0.080011433            2 
 2341000   0.85318428   -2.6222541    2224.3846  0.079182136  0.079997104            4 
 2342000   0.86420881   -2.6083661    2239.9569  0.079702424  0.079982663            2 
 2343000   0.86420406   -2.6539462    2226.6035  0.079193465  0.079968309            1 
 2344000    0.8737325   -2.6201828    2225.0591  0.079104775  0.079954079            6 
 2345000   0.86247098   -2.6449745    2237.3544  0.079507974  0.079939608            2 
 2346000    0.8934993   -2.6133953    2240.6313  0.079590484  0.079925207            5 
 2347000   0.88501883   -2.6292899    2225.3306  0.079013302  0.079910917            6 
 2348000   0.87854822   -2.6419568    2226.5363   0.07902244  0.079896588            3 
 2349000   0.86782627   -2.6301332    2233.2276  0.079226182  0.079882277            3 
 2350000   0.86702274   -2.6127957    2236.2444  0.079299447  0.079868145            2 
 2351000   0.88560877   -2.6220705    2242.3126  0.079480809  0.079853805            3 
 2352000   0.88262656   -2.6327219    2245.7594   0.07956914  0.079839499            6 
 2353000   0.89307144   -2.6419709    2235.1949  0.079161172  0.079825335            3 
 2354000   0.86388263   -2.6082194    2241.9896  0.079368084  0.079811176            2 
 2355000   0.88595934   -2.6193892    2242.7946  0.079362865  0.079796887            1 
 2356000   0.88452301   -2.6635438    2241.9967   0.07930096  0.079782754            3 
 2357000   0.88129831   -2.6207335    2239.5444  0.079180611  0.079768291            1 
 2358000   0.88401809   -2.6230666    2250.1796  0.079522885  0.079754101            4 
 2359000   0.88406767   -2.6334021    2244.2869  0.079281013  0.079740137            2 
 2360000   0.86670513   -2.6333894    2240.9135  0.079128301  0.079725723            3 
 2361000   0.86803811   -2.6330282    2246.6319  0.079296624  0.079711587           10 
 2362000   0.86522796   -2.6159487    2242.2446  0.079108262  0.079697474            2 
 2363000    0.8579187   -2.6507827    2238.4458  0.078940818  0.079683099            3 
 2364000   0.88383674   -2.6204177    2246.6185  0.079195519   0.07966893            4 
 2365000   0.83696612   -2.6373433    2251.6521  0.079339397  0.079654769            3 
 2366000    0.8755085   -2.6630433    2238.3184  0.078836234  0.079640258            3 
 2367000   0.86937517   -2.6427459     2250.731  0.079239931  0.079626015            3 
 2368000   0.89957564   -2.6184129    2251.2681  0.079225371  0.079611963            2 
 2369000    0.8759745   -2.6419848     2245.067  0.078973795  0.079597957            1 
 2370000   0.89466439   -2.6136844    2249.2635  0.079088028  0.079583746            3 
 2371000    0.8422659   -2.6438983    2250.7136  0.079105637  0.079569521            1 
 2372000   0.87162442   -2.6198001    2242.5146   0.07878424   0.07955537            2 
 2373000   0.87968053   -2.6446835    2252.5272  0.079102655  0.079541111            2 
 2374000    0.8702377   -2.6315486    2249.3406  0.078957476  0.079526892            6 
 2375000   0.87193551   -2.6420117    2244.5394  0.078755767  0.079512572            4 
 2376000   0.88202102   -2.6698867    2244.1405   0.07870863  0.079498118            2 
 2377000   0.87623583   -2.6589129    2238.3948  0.078474084  0.079483829            2 
 2378000   0.86740029   -2.6395839    2256.8176  0.079086685  0.079469584            5 
 2379000   0.85815373   -2.6374015    2251.9876   0.07888425  0.079455156            4 
 2380000   0.88086228   -2.6280233    2250.1085   0.07878531  0.079440922            2 
 2381000   0.87788922   -2.6324665    2257.6329  0.079015572  0.079426702            2 
 2382000    0.8952511    -2.636593    2255.9151  0.078922303  0.079412339            3 
 2383000   0.88292333   -2.6461217      2250.02  0.078683033  0.079398011            4 
 2384000   0.85569015     -2.62275    2253.5762  0.078774336  0.079383831            3 
 2385000   0.87465906   -2.6278594    2256.0436  0.078827519  0.079369671            3 
 2386000   0.87202374   -2.6213426    2258.4767  0.078879458  0.079355595           11 
 2387000   0.87128941    -2.627465    2270.9914  0.079283318  0.079341582            2 
 2388000   0.87005058   -2.6562359    2253.4559  0.078638186  0.079327314            3 
 2389000   0.87102931   -2.6356477    2244.4445  0.078290935  0.079312856            4 
 2390000   0.86378821   -2.6218052    2258.8818  0.078761571  0.079298646            5 
 2391000   0.86234758   -2.6230103    2266.7616  0.079003262  0.079284285            2 
 2392000   0.86244498   -2.6361727    2260.5134  0.078752556  0.079269964            8 
 2393000   0.87161672   -2.6250373    2260.1459  0.078706851  0.079255704            2 
 2394000   0.86587117   -2.6497263    2257.4926  0.078581612  0.079241236            2 
 2395000   0.86863806   -2.6287003    2254.7472  0.078453278  0.079226505            3 
 2396000    0.8809726    -2.625385    2258.2139  0.078541107  0.079212265            3 
 2397000   0.86293242   -2.6400472     2268.075  0.078851166  0.079197984            2 
 2398000   0.87484758   -2.6016839    2260.4662  0.078553871  0.079183635            2 
 2399000   0.88287212   -2.6407676    2268.4499  0.078798456  0.079169361            3 
 2400000   0.87140671   -2.6375371    2268.2821  0.078759794  0.079154965            4 
 2401000   0.88996094   -2.6403808    2253.0557  0.078198518  0.079140277            2 
 2402000   0.88603615   -2.6462471    2264.9119  0.078577292  0.079125848            3 
 2403000   0.87608418   -2.6396899    2258.1461  0.078309964  0.079111544            6 
 2404000   0.86767866   -2.6186707    2264.5283  0.078498625  0.079097426            5 
 2405000   0.85745226   -2.6257508    2270.2479  0.078664168  0.079083301            4 
 2406000   0.88474181   -2.6322366    2276.4327  0.078845688   0.07906926            2 
 2407000   0.86030327   -2.6391242     2272.699  0.078683665  0.079055213            3 
 2408000   0.86169598   -2.6456629    2270.1869  0.078564053  0.079041155            4 
 2409000   0.86406775   -2.6580565    2272.8887  0.078624902  0.079027136            3 
 2410000   0.86110932   -2.6295953    2264.9772  0.078318714  0.079013181            6 
 2411000   0.84907333   -2.6624304    2269.1935  0.078431961  0.078999256            5 
 2412000   0.85859097   -2.6526104     2273.433  0.078545917  0.078985455            3 
 2413000   0.87403896   -2.6390033    2272.0556  0.078465797  0.078971645            2 
 2414000   0.87324752   -2.6579452    2273.1226  0.078470125  0.078957874            4 
 2415000   0.86288085   -2.6426125    2283.4098  0.078792608  0.078943975            3 
 2416000   0.85149805   -2.6626764    2280.3105  0.078653095  0.078930125            3 
 2417000   0.84637075   -2.6473208    2274.2221  0.078410635  0.078916231            1 
 2418000   0.86032027    -2.625641    2281.4947  0.078628848  0.078902318            2 
 2419000   0.86867536   -2.6266734    2279.2755  0.078519895  0.078888699            2 
 2420000   0.84380579   -2.6217405    2271.0409  0.078203889  0.078874997            5 
 2421000    0.8714926   -2.6461918    2290.0017  0.078824237  0.078861238            1 
 2422000   0.86298213   -2.6620223    2269.4305  0.078083901  0.078847423            3 
 2423000   0.85745592   -2.6488046    2285.2233  0.078594832  0.078833629            3 
 2424000   0.89154048   -2.6517531    2271.7586  0.078099511  0.078819483            3 
 2425000   0.85306482   -2.6670159    2286.1968  0.078563464  0.078805467            2 
 2426000   0.87730453   -2.6405591    2284.7334  0.078480813   0.07879152            4 
 2427000   0.87448169   -2.6688603    2277.6289  0.078204537  0.078777445            4 
 2428000   0.86891433   -2.6369723    2283.0254  0.078357544  0.078763403            4 
 2429000   0.86694608   -2.6389758    2288.9208  0.078527542  0.078749173            2 
 2430000   0.85185856   -2.6531988    2278.9165  0.078152145  0.078734981            2 
 2431000   0.85576151   -2.6689012    2267.0393  0.077712852  0.078720509            3 
 2432000   0.86044641   -2.6594807    2274.5487  0.077938209  0.078706173            2 
 2433000   0.85495806   -2.6421384    2290.3906   0.07844878  0.078691743            4 
 2434000   0.84943019   -2.6456022    2276.6431  0.077945873  0.078677455            3 
 2435000   0.88599652   -2.6377734    2286.9305   0.07826593  0.078663284            2 
 2436000   0.86317803   -2.6381549    2280.7397  0.078022019  0.078648966            4 
 2437000    0.8663651    -2.633801     2284.429  0.078116162  0.078634463            2 
 2438000   0.85078441   -2.6522538    2282.4604  0.078016831  0.078620309            4 
 2439000   0.86567255   -2.6691675    2287.7461   0.07816544    0.0786059            3 
 2440000   0.86623346   -2.6453706    2273.8395  0.077658454  0.078591661            4 
 2441000   0.85225578   -2.6503284    2287.7059  0.078100026  0.078577392            5 
 2442000     0.851194   -2.6497547    2291.8328  0.078208872  0.078562962            4 
 2443000   0.86485894   -2.6513424    2287.3455  0.078023791   0.07854876            1 
 2444000   0.86948738   -2.6648424    2291.4908  0.078133212   0.07853431            2 
 2445000   0.84625843   -2.6541066    2283.2206  0.077819378  0.078519946            3 
 2446000    0.8691217   -2.6472262    2291.2959  0.078062683  0.078505562            3 
 2447000   0.87554196   -2.6437457    2286.0849  0.077853321  0.078491186            2 
 2448000   0.86501221   -2.6553285     2294.028   0.07809191  0.078476889            3 
 2449000   0.86010467   -2.6243804    2291.2593  0.077965814  0.078462528            2 
 2450000   0.84343001   -2.6202376    2291.8849   0.07795527   0.07844847            4 
 2451000   0.86466976   -2.6325888    2289.0783  0.077828038  0.078434178            3 
 2452000    0.8505443   -2.6558528    2299.6548   0.07815575  0.078420182            3 
 2453000   0.86031072   -2.6552915    2292.6517  0.077885979  0.078405876            5 
 2454000   0.85418442   -2.6259933    2295.1906  0.077940456  0.078391463            2 
 2455000   0.85012393   -2.6271178     2298.122  0.078008216  0.078377262            2 
 2456000   0.85388234   -2.6440423    2298.8506  0.078001172  0.078363255            3 
 2457000   0.86616072   -2.6483257    2289.9233  0.077666642  0.078349044            3 
 2458000   0.87932584    -2.653724     2295.153  0.077812348  0.078334827            5 
 2459000   0.85073869    -2.652666    2297.7368  0.077868265  0.078320463            3 
 2460000   0.85906408   -2.6507044    2301.4309  0.077961753  0.078306188            3 
 2461000   0.85961399   -2.6725472    2294.8694   0.07770789  0.078292174            1 
 2462000   0.85078709   -2.6276896    2302.1559  0.077922958  0.078278081            3 
 2463000   0.87887169   -2.6436552    2298.3306  0.077761896  0.078264132            4 
 2464000   0.86561082   -2.6609332    2289.2067  0.077421762  0.078250058            2 
 2465000   0.86822028   -2.6477549    2302.3811  0.077835737  0.078235997            2 
 2466000   0.86860287   -2.6426273    2308.1206  0.077998129  0.078222136            8 
 2467000    0.8399248    -2.651495     2301.564  0.077745035   0.07820833            2 
 2468000   0.85640525   -2.6672587    2297.1583  0.077564771  0.078194111            3 
 2469000   0.87249332   -2.6676235    2302.9025  0.077727234  0.078179733            3 
 2470000    0.8626007   -2.6707007      2301.14  0.077636303  0.078165514            3 
 2471000   0.84583286   -2.6693089    2302.1273  0.077638181  0.078151256            3 
 2472000   0.86650296   -2.6600891    2299.8259  0.077529192  0.078136959            4 
 2473000   0.84085119   -2.6434725     2302.812  0.077598462  0.078122985            2 
 2474000   0.88320349    -2.656367     2303.292  0.077583265  0.078108885            3 
 2475000   0.84894097     -2.63632    2301.2386  0.077482781  0.078094648            6 
 2476000   0.86259883   -2.6420765    2309.1404  0.077717433  0.078080452            3 
 2477000   0.88163539   -2.6686845    2302.5597  0.077464665  0.078066163            5 
 2478000   0.84665446   -2.6533556    2308.3273  0.077627363  0.078051824            2 
 2479000   0.85227849   -2.6518823    2305.8324  0.077512184  0.078037596            3 
 2480000   0.83346224   -2.6489835    2302.2392  0.077360187   0.07802326            2 
 2481000   0.85109587    -2.643912    2309.3056  0.077566359  0.078009211            3 
 2482000   0.87621972    -2.682953    2305.3827  0.077403396  0.077995046            3 
 2483000   0.86822794   -2.6885969    2314.7806   0.07768763  0.077980927            4 
 2484000   0.85540709   -2.6738941    2306.7838  0.077388076  0.077966885            2 
 2485000   0.84886077   -2.6864078     2312.973  0.077564488   0.07795252            3 
 2486000   0.85710385   -2.6652692    2315.5647  0.077620164  0.077938454            2 
 2487000   0.84975904   -2.6576393    2304.6325  0.077222641  0.077924425            2 
 2488000   0.83742201    -2.643985    2309.6916  0.077361052  0.077910633            2 
 2489000   0.83556012   -2.6391431    2320.0569  0.077677009  0.077896704            3 
 2490000   0.85267369   -2.6555222    2306.3662  0.077187624   0.07788281            2 
 2491000   0.86201653   -2.6525198    2311.2486  0.077319973  0.077868536            4 
 2492000   0.85062877   -2.6852474    2316.2975  0.077457782  0.077854502            4 
 2493000   0.86512333   -2.6622931    2312.0898  0.077286062  0.077840393            5 
 2494000    0.8677589   -2.6719255    2319.2265  0.077493535  0.077826478            5 
 2495000   0.83969541    -2.655386    2313.7443  0.077279368  0.077812321            4 
 2496000   0.86185435     -2.64424    2322.9973  0.077557335  0.077798007            4 
 2497000    0.8430338   -2.6615384    2318.2792  0.077368817  0.077783823            2 
 2498000   0.86046942   -2.6534568    2315.6852  0.077251306  0.077769961            4 
 2499000   0.85372771   -2.6941244    2324.8488   0.07752597  0.077756077            2 
 2500000   0.84748361   -2.6696122    2314.5308  0.077151026  0.077742042            3 
 2501000   0.86374147   -2.6613689    2322.5108  0.077386074  0.077728085            4 
 2502000   0.83674247   -2.6703605    2322.5482  0.077356388  0.077714182            3 
 2503000   0.85975612   -2.6742588    2315.2266  0.077081723  0.077700118            7 
 2504000   0.85793472   -2.6529993    2321.8096   0.07727002  0.077685806            3 
 2505000   0.84939723   -2.6679542    2319.0243  0.077146517  0.077671592            2 
 2506000   0.86162069   -2.6577627    2334.5796  0.077633001  0.077657281            5 
 2507000   0.86161607   -2.6820295    2315.0736   0.07695365  0.077643081            3 
 2508000   0.85401477   -2.6709855    2326.8626  0.077314681  0.077628774            1 
 2509000    0.8374778    -2.653287    2319.1135  0.077026487  0.077614482            3 
 2510000   0.84360909   -2.6588384    2318.3151  0.076969294  0.077600215            5 
 2511000   0.83128861   -2.6604219    2319.3382  0.076972593  0.077586089            5 
 2512000    0.8604223   -2.6546948    2319.1377  0.076935299  0.077571809            2 
 2513000    0.8608224   -2.6405836    2332.4146   0.07734496  0.077557582            1 
 2514000   0.85418292   -2.6370779    2333.0184  0.077334208  0.077543518            4 
 2515000   0.85025042   -2.6539241    2320.1781  0.076878002  0.077529495            2 
 2516000   0.83527891   -2.6721695    2327.5827  0.077092696  0.077515152            3 
 2517000   0.86251497   -2.6821658    2320.7478  0.076835778  0.077501049            3 
 2518000   0.84535704   -2.6659516     2327.604   0.07703217  0.077486721            3 
 2519000   0.85781472   -2.6630171    2330.7576  0.077105917  0.077472515            3 
 2520000   0.85742485   -2.6703576    2334.9634  0.077214399   0.07745839            2 
 2521000   0.85778738   -2.6563157    2323.5133  0.076805278  0.077444198            4 
 2522000   0.87273565   -2.7016721    2334.6952  0.077144304  0.077430184            4 
 2523000   0.84318562   -2.6898549    2333.0016  0.077057789  0.077415925            5 
 2524000   0.83172726   -2.6432942    2328.7571  0.076887119  0.077402116            5 
 2525000   0.86250369   -2.6635878    2339.8324   0.07722219  0.077388247            3 
 2526000   0.84961268   -2.6517637    2344.8609  0.077357511  0.077374467            4 
 2527000   0.83738896   -2.6755139    2340.1402  0.077171223  0.077360792            2 
 2528000   0.85291601   -2.6753691    2335.4075  0.076984689  0.077346868            3 
 2529000   0.83628374   -2.6496197    2341.1898  0.077144781  0.077333035            3 
 2530000   0.85227473   -2.6646748    2336.9926   0.07697604  0.077319177            2 
 2531000   0.83900547   -2.6654526     2336.783  0.076938726  0.077305213            5 
 2532000   0.83962626   -2.6576484    2335.0377  0.076850899  0.077291245            4 
 2533000   0.84608203   -2.6781871    2337.5554  0.076903388  0.077277193            7 
 2534000    0.8525342   -2.6752902    2342.5662  0.077037826  0.077263206            3 
 2535000   0.85153737    -2.666716    2338.2253  0.076864738  0.077249209            5 
 2536000   0.85024107   -2.6591396    2341.2021  0.076932245   0.07723495            3 
 2537000   0.85739223   -2.6512692    2345.7166  0.077050212  0.077220841            5 
 2538000   0.85216071   -2.6537699    2341.7124  0.076888377  0.077207022            4 
 2539000    0.8351997   -2.6672086    2346.9019  0.077028421  0.077192973            2 
 2540000   0.86282864   -2.6729502    2341.9138  0.076834443  0.077178933            2 
 2541000    0.8398075   -2.6587717    2332.3307  0.076489922  0.077164852            5 
 2542000   0.85483249   -2.6580041    2343.5796  0.076828601  0.077150606            2 
 2543000   0.85675956   -2.6667635    2340.7216  0.076704733   0.07713641            2 
 2544000   0.83731918   -2.6598085     2340.143  0.076655627  0.077122166            5 
 2545000   0.84217719   -2.6882152    2330.9715  0.076325198  0.077108005            3 
 2546000   0.84495472   -2.6795128    2337.4068  0.076505852  0.077093643            2 
 2547000   0.84872596   -2.6575496    2342.0977  0.076629294  0.077079661            1 
 2548000   0.83951469   -2.6669852    2354.5205   0.07700551  0.077065561            2 
 2549000   0.84461449   -2.6777361    2346.6372  0.076717576  0.077051373            6 
 2550000   0.86476206   -2.6758708    2336.4803  0.076355566  0.077036867            3 
 2551000   0.82168226    -2.675278     2335.092  0.076280283  0.077022677            3 
 2552000   0.83684237   -2.6687614    2343.5936  0.076528003  0.077008367            4 
 2553000    0.8268864   -2.7005002    2341.5046  0.076429842  0.076993987            5 
 2554000   0.83579101   -2.6617094    2346.4319  0.076560685  0.076979919            2 
 2555000   0.83520483   -2.6964289    2342.4396  0.076400508  0.076965516            2 
 2556000   0.84338549   -2.6730877    2337.9624  0.076224647  0.076951018            3 
 2557000   0.82961961    -2.666346    2338.4544  0.076210872  0.076936637            6 
 2558000   0.85705218   -2.6574052    2341.7505  0.076288458  0.076922098            7 
 2559000   0.83180778   -2.6992885    2344.5361  0.076349358  0.076907714            9 
 2560000    0.8415982   -2.6705361    2346.0664   0.07636935  0.076893363            3 
 2561000   0.82955059   -2.6913682    2347.8362  0.076397117     0.076879            2 
 2562000   0.84721958   -2.6570073     2344.134  0.076246877  0.076864873            3 
 2563000   0.83280587   -2.6457476    2348.8917  0.076371819  0.076850451            2 
 2564000   0.83554194   -2.6464809     2351.356  0.076422126  0.076836245            1 
 2565000   0.83271516   -2.6690025    2344.6579  0.076174719   0.07682192            5 
 2566000   0.84086168   -2.7003156    2348.2132  0.076260497  0.076807682            6 
 2567000   0.84645637   -2.6842247    2344.0952  0.076097104  0.076793454            2 
 2568000   0.84161237   -2.7087597    2351.8638  0.076319568  0.076779156            5 
 2569000     0.830386   -2.6667584    2362.1386  0.076623154  0.076764997            5 
 2570000   0.83991277   -2.6681744    2356.9511  0.076425132  0.076750859            2 
 2571000   0.85190711   -2.6746828    2353.1088  0.076270867  0.076736527            3 
 2572000   0.84133294   -2.6751836    2353.4769   0.07625314  0.076722237            9 
 2573000   0.85142055   -2.6623246    2352.2121  0.076182541   0.07670798            2 
 2574000   0.86310002   -2.6679429    2355.9535  0.076274071   0.07669368            3 
 2575000   0.83793262   -2.6816115    2364.3824  0.076517229   0.07667946            3 
 2576000   0.84301252   -2.6737972    2354.9441  0.076182196   0.07666524            7 
 2577000   0.86378384   -2.6647127    2358.5168  0.076268167  0.076651157            2 
 2578000   0.83749083   -2.6714169    2357.2992  0.076199225  0.076636926            3 
 2579000   0.82637406   -2.6404054    2358.5501  0.076210098  0.076622626            4 
 2580000   0.85008602    -2.683138    2358.6116  0.076182546  0.076608372            3 
 2581000   0.82496399   -2.6939137    2360.3776  0.076210048  0.076594287            1 
 2582000   0.82404047   -2.6810633    2354.9824  0.076006403  0.076580142            3 
 2583000   0.82591262   -2.6813327    2359.6346  0.076127067  0.076566064            7 
 2584000   0.82995823   -2.7027773    2359.1842   0.07608308  0.076552124            2 
 2585000   0.83540141   -2.6854004    2356.7635  0.075975611   0.07653797            3 
 2586000   0.83667549    -2.686086    2365.1467   0.07621638  0.076523844            1 
 2587000   0.85044278    -2.659597    2365.6386  0.076202765  0.076510063            3 
 2588000   0.83540256   -2.7036791    2363.6014  0.076107722  0.076496208            5 
 2589000    0.8189096   -2.6616416    2365.8488  0.076150664   0.07648239            5 
 2590000   0.83078189   -2.6755395    2365.3843  0.076106315  0.076468282            2 
 2591000   0.83023089   -2.6799421    2365.0579  0.076066444  0.076454389            7 
 2592000   0.85061709   -2.6798577    2368.5444   0.07614919  0.076440454            3 
 2593000   0.83642861    -2.691483    2369.8295  0.076161122  0.076426729            4 
 2594000   0.81959579   -2.6943001    2374.4175  0.076279155  0.076412838            2 
 2595000   0.84281127   -2.6877023    2360.8115   0.07581283  0.076398842            5 
 2596000   0.84217938   -2.6628358     2364.379  0.075898144  0.076385259            2 
 2597000   0.82891333   -2.6710668     2371.091  0.076084297   0.07637154            3 
 2598000   0.83210472    -2.705059    2378.2232  0.076283783  0.076357818            2 
 2599000   0.83321674   -2.6838747    2370.4623  0.076005589  0.076344282            2 
 2600000   0.84483909   -2.6911891    2371.6054  0.076012995  0.076330403            2 
 2601000   0.83299198   -2.6871719    2382.7022  0.076339298   0.07631659            2 
 2602000   0.84432243   -2.6721965    2375.9594  0.076094012  0.076303007            3 
 2603000   0.82391245   -2.6875875    2373.5633  0.075988069  0.076289169            2 
 2604000   0.83251392    -2.688543    2371.7149  0.075899734  0.076275211            3 
 2605000    0.8137891    -2.661305    2381.3836  0.076179899  0.076261411            3 
 2606000   0.84485543   -2.6992579    2366.3363  0.075669489  0.076247568            2 
 2607000   0.81377476    -2.682313    2377.4073   0.07599435  0.076233636            2 
 2608000   0.82621511   -2.6787803    2373.9734   0.07585549  0.076219821            3 
 2609000   0.84652442   -2.6900993    2371.3495  0.075742604  0.076205858            2 
 2610000   0.84071648   -2.6839196    2377.5916  0.075912887  0.076192017            2 
 2611000   0.83739702   -2.6778922    2384.2732  0.076097065  0.076178272            5 
 2612000    0.8246641   -2.6753578    2387.6921  0.076177006  0.076164444            4 
 2613000   0.83954348   -2.6763089    2375.1998  0.075749452  0.076150502           10 
 2614000   0.83909397   -2.6694181    2378.4789  0.075825009   0.07613644            3 
 2615000   0.84008664   -2.6598871    2380.0319  0.075845502  0.076122582            3 
 2616000   0.83166792   -2.7196732    2370.9131  0.075526029   0.07610865            3 
 2617000   0.84408266   -2.6923654    2375.1653  0.075632572  0.076094569            2 
 2618000    0.8272413   -2.6723692    2386.3212  0.075958784  0.076080595            1 
 2619000    0.8221291   -2.6814912    2379.4846  0.075712251   0.07606663            3 
 2620000    0.8271177   -2.6964763    2379.3509  0.075679101  0.076052714            2 
 2621000   0.83402283   -2.6910706    2382.3546  0.075745727  0.076038776            3 
 2622000   0.83916623   -2.6759592    2379.2497  0.075618157  0.076024743            2 
 2623000   0.80878044   -2.6774456    2393.1986  0.076032488  0.076010786            3 
 2624000   0.83559299   -2.7002069     2383.377  0.075691596  0.075996888            3 
 2625000   0.82261687   -2.6764484     2386.511  0.075762253  0.075983023            3 
 2626000   0.82938589   -2.6741202    2390.8691  0.075871702  0.075969231            4 
 2627000   0.83818721   -2.7038393    2384.3198  0.075635065  0.075955384            5 
 2628000   0.82514992   -2.6779939    2395.2726  0.075953595  0.075941701            4 
 2629000   0.84582851   -2.6860899    2390.8583  0.075784783  0.075927862            4 
 2630000   0.83059647   -2.6737878    2391.0881  0.075763249  0.075914217            4 
 2631000   0.83754459   -2.6943338    2387.1234  0.075608874  0.075900604            2 
 2632000   0.83539076   -2.6803703    2391.4059  0.075715739   0.07588678            2 
 2633000    0.8068408    -2.678631    2395.0692  0.075802924  0.075872979            5 
 2634000    0.8320409    -2.697028    2382.7314  0.075383809  0.075859175            3 
 2635000   0.81631505   -2.6773341    2391.5349  0.075633614  0.075845287            3 
 2636000   0.83036447    -2.706774    2391.9549    0.0756182  0.075831472            7 
 2637000   0.82031294   -2.6929982    2395.7082  0.075708135  0.075817577            3 
 2638000   0.81846703   -2.6814217     2386.841  0.075399323  0.075803558            3 
 2639000   0.80326167   -2.6952131    2393.4035  0.075577982  0.075789766            7 
 2640000   0.81961159   -2.6683375    2395.4012  0.075612413   0.07577563            2 
 2641000   0.82773368   -2.6750598    2394.0487  0.075541105  0.075761448            3 
 2642000   0.81554406    -2.711449    2389.8309  0.075379475  0.075747562            4 
 2643000   0.82296179   -2.6822226     2392.675   0.07544063  0.075733666            3 
 2644000   0.81157634   -2.6895882    2392.2211   0.07539779  0.075719506            2 
 2645000   0.83270331   -2.6933036    2389.6887  0.075289499  0.075705418            4 
 2646000   0.81739818   -2.7117395     2393.889  0.075393328  0.075691497            8 
 2647000   0.83709283   -2.6812647    2400.0738  0.075559557  0.075677619            2 
 2648000    0.8298749   -2.6793716    2396.8232  0.075428726  0.075663756            3 
 2649000   0.83774391   -2.7014417    2393.1321  0.075284135  0.075649747            8 
 2650000    0.8105602   -2.6912582    2401.3534  0.075514259  0.075636006            2 
 2651000   0.83486621    -2.681292     2402.175  0.075511598  0.075622232            2 
 2652000   0.83273826   -2.6819948    2394.4098  0.075239122  0.075608121            4 
 2653000   0.83164145   -2.6792763    2395.9689  0.075259734  0.075594401            6 
 2654000    0.8559148   -2.6813214     2392.343  0.075117528  0.075580612            8 
 2655000   0.82139413    -2.683861    2394.0075  0.075141477  0.075566832            3 
 2656000   0.81135495   -2.6990604    2408.0384  0.075553415  0.075553065            5 
 2657000    0.8328909   -2.6897949    2399.0226  0.075242209  0.075539237            7 
 2658000   0.85942519   -2.7109605     2394.136  0.075060698  0.075525417            3 
 2659000   0.83918803   -2.7059797    2401.0817  0.075250146  0.075511475            4 
 2660000   0.82044665   -2.6874183    2400.8691  0.075215198  0.075497639            3 
 2661000   0.82552837   -2.7044958    2400.8525  0.075186413  0.075483897            5 
 2662000   0.82603115    -2.687676    2404.4194  0.075269827  0.075469903            2 
 2663000   0.82933499   -2.6875276    2399.4136  0.075084916  0.075456015            3 
 2664000   0.82129769   -2.6957664    2410.2418  0.075395451  0.075442176            5 
 2665000   0.83292925   -2.6983355    2406.8729  0.075261817  0.075428427            3 
 2666000   0.83834633   -2.6871415     2403.057  0.075114309    0.0754147            4 
 2667000   0.81449428   -2.7072122    2405.3675  0.075158339  0.075400999            3 
 2668000    0.8161732   -2.6919633    2404.9715    0.0751178  0.075387174            4 
 2669000   0.82063561   -2.6822272    2406.2664  0.075130087   0.07537359            2 
 2670000    0.8279979   -2.6946349    2407.5812  0.075142985  0.075359967            4 
 2671000   0.84205375   -2.6970178    2405.4774  0.075049214  0.075346149            4 
 2672000   0.80517254   -2.6927682    2411.3228   0.07520343  0.075332402            8 
 2673000   0.82513074   -2.6798642    2418.0103  0.075383785  0.075318647            5 
 2674000   0.81258182   -2.6802987    2414.7299  0.075253364   0.07530508            5 
 2675000   0.82926083   -2.6857003    2410.7571  0.075101468  0.075291526            3 
 2676000   0.84649965   -2.7176527    2409.1369  0.075022948   0.07527785            3 
 2677000   0.83980003   -2.7210907    2411.2075  0.075059378  0.075264169            3 
 2678000   0.83326121    -2.705354    2408.1584  0.074936471  0.075250786            3 
 2679000    0.8176398    -2.695506    2410.0572  0.074967562   0.07523724            2 
 2680000   0.84372941    -2.670635    2416.4308  0.075137774  0.075223716            4 
 2681000   0.83285718     -2.71011    2415.5259  0.075081619  0.075210238            4 
 2682000   0.81105358   -2.7037344    2418.5138  0.075146464  0.075196853            2 
 2683000   0.84618553   -2.6880758    2417.4468  0.075085316  0.075183482            4 
 2684000   0.81421684   -2.6991663     2425.536  0.075308495  0.075169887            3 
 2685000   0.81708739   -2.6969787    2414.8172  0.074947771   0.07515621            3 
 2686000   0.83568409   -2.7140562    2408.4562  0.074722519  0.075142381            3 
 2687000   0.82278326   -2.7037669    2416.7764  0.074952747   0.07512876            4 
 2688000   0.82095082    -2.703662     2417.267  0.074940073  0.075115046            6 
 2689000   0.82356716   -2.6936964    2414.9846  0.074841473  0.075101201            2 
 2690000   0.81811017   -2.6989454    2419.7489  0.074961243  0.075087488            4 
 2691000   0.81656058   -2.6739453    2421.1209  0.074975874   0.07507382            3 
 2692000   0.83661261   -2.6933704    2417.7154  0.074842602  0.075060091            2 
 2693000   0.82539645   -2.6600685    2429.0174  0.075164545  0.075046462            2 
 2694000   0.81900193   -2.7034699    2414.6317  0.074691651  0.075033044            4 
 2695000   0.81967125   -2.7123021    2417.5016  0.074752677  0.075019452            2 
 2696000   0.82006794   -2.7124799    2427.0696  0.075020696  0.075005987            1 
 2697000   0.81022224   -2.6708214    2426.4071   0.07497241  0.074992569            3 
 2698000   0.80842057   -2.7011536    2435.0629  0.075211976  0.074979165            4 
 2699000   0.81957401   -2.6943105    2417.6197  0.074645537  0.074965595            2 
 2700000   0.82728183   -2.7199126     2418.962   0.07465932  0.074952159            3 
 2701000    0.8443506   -2.6731751    2424.5545  0.074804223  0.074938738            2 
 2702000   0.83104566   -2.7260049     2429.974  0.074943683  0.074925457            3 
 2703000   0.82404194   -2.6777587    2432.8828  0.075005634  0.074912176            4 
 2704000   0.82155937   -2.7025846    2425.8529  0.074761245  0.074898693            8 
 2705000   0.80262696   -2.7045908    2426.9269  0.074766693  0.074885272            4 
 2706000     0.840723   -2.6871304     2425.169  0.074684928  0.074871676            2 
 2707000   0.82381982   -2.7356827    2422.7215  0.074581994  0.074858122            2 
 2708000    0.8169829    -2.703874    2427.0244  0.074686867  0.074844702            5 
 2709000   0.81315573   -2.7162039    2425.8812  0.074624128  0.074831206            3 
 2710000   0.82730357   -2.7079158    2424.4696  0.074553186  0.074817903            2 
 2711000   0.80470974   -2.6994058    2435.9422  0.074878341  0.074804418            3 
 2712000   0.84034665   -2.7203462    2426.8261  0.074570615  0.074790982            3 
 2713000   0.80969055   -2.7175181    2436.1217  0.074828656  0.074777584            2 
 2714000   0.84156228    -2.700473    2431.8851  0.074670999  0.074764161            8 
 2715000   0.82070837   -2.6891199    2443.1568  0.074989466  0.074750762            4 
 2716000   0.81311871   -2.6969426     2440.366  0.074876229  0.074737423            7 
 2717000   0.84360973   -2.7119667    2429.0027  0.074500144   0.07472397            2 
 2718000   0.80305871   -2.7098385    2429.4822  0.074487436  0.074710475            3 
 2719000   0.81512235   -2.7209321    2428.9257  0.074442985  0.074697032            4 
 2720000   0.82833677   -2.7066274    2431.2843  0.074487875  0.074683734           11 
 2721000   0.81803582   -2.7026378     2443.105  0.074822523  0.074670405            6 
 2722000   0.82329566   -2.6921493    2437.4632  0.074622311  0.074656869            2 
 2723000   0.81632734   -2.6948352    2445.2466  0.074833108  0.074643648            3 
 2724000   0.81893154    -2.704308      2443.98  0.074766888  0.074630271            4 
 2725000   0.83259515   -2.7200269    2435.4097  0.074477361  0.074617026            3 
 2726000   0.80069651   -2.7039302    2435.0674  0.074439574  0.074603799            4 
 2727000   0.81475606   -2.7092646    2444.0295  0.074686149  0.074590538            3 
 2728000   0.81434036   -2.7150539    2440.0677  0.074537747  0.074577038            2 
 2729000    0.8314559   -2.6930881    2436.7588  0.074409393  0.074563706            5 
 2730000   0.80946187   -2.7073634    2440.7615  0.074504319  0.074550171            4 
 2731000   0.79783016   -2.7084913    2433.3823  0.074251869  0.074536687            4 
 2732000   0.79766351   -2.7203227    2444.3594  0.074559523  0.074523059            2 
 2733000   0.81244715   -2.7166953     2438.655  0.074358305  0.074509474            2 
 2734000     0.810253   -2.6962454     2433.615  0.074177489  0.074496045            1 
 2735000   0.81878799   -2.7203993    2437.4218  0.074266357  0.074482596            2 
 2736000   0.82164939   -2.7270119    2442.0978  0.074381635  0.074468989            5 
 2737000   0.82259596   -2.7357457    2446.8654  0.074499617  0.074455546            3 
 2738000   0.80771801   -2.7172086    2440.6988  0.074284721  0.074441999            4 
 2739000   0.81256308   -2.7069518    2447.9704  0.074478838  0.074428426            3 
 2740000   0.81030361   -2.7101282    2449.5244  0.074498916  0.074415057            4 
 2741000   0.81368165   -2.7175783    2441.4454  0.074226115   0.07440165            5 
 2742000   0.82242494   -2.7131135    2442.9796  0.074245672  0.074388076            2 
 2743000    0.8171238   -2.7277988    2453.5297  0.074539121  0.074374537            3 
 2744000   0.81725939   -2.6979057    2444.0343  0.074223588  0.074360854            3 
 2745000   0.79978925    -2.701745    2449.9933  0.074377453  0.074347197            2 
 2746000   0.81553586   -2.6825344    2446.3593  0.074240086  0.074333648            2 
 2747000   0.79342332   -2.6983381    2437.5732  0.073946523  0.074319836            4 
 2748000   0.79929993   -2.7312274    2442.2544  0.074061572  0.074306188            4 
 2749000   0.81635954   -2.7063844    2444.9867  0.074117459  0.074292729            2 
 2750000    0.8037281   -2.7305448    2446.6801  0.074141821  0.074279398            3 
 2751000   0.80054782    -2.698451    2454.0094  0.074336891  0.074265815            5 
 2752000   0.81061156   -2.7145499    2443.4334  0.073989624  0.074252396            3 
 2753000   0.80990224   -2.7170557    2440.6032  0.073877079  0.074238846            3 
 2754000   0.81040336   -2.7116173    2448.7159  0.074095737  0.074225537            6 
 2755000    0.8061316    -2.722416    2440.4629  0.073819204  0.074212001            8 
 2756000   0.81015917   -2.7037616    2449.2309  0.074057538  0.074198286            2 
 2757000    0.7958481   -2.7270789    2449.4823  0.074038275   0.07418468            3 
 2758000   0.80144388   -2.7175062    2455.2404  0.074185411  0.074171198            3 
 2759000   0.79810627   -2.6917228    2449.8175  0.073994729  0.074157757            4 
 2760000     0.816953   -2.6955697     2457.026  0.074185568  0.074144599            1 
 2761000   0.79637517   -2.7173333    2448.2982  0.073895274  0.074131318            4 
 2762000   0.78916523    -2.724249    2453.2062    0.0740166  0.074118054            6 
 2763000   0.81624638   -2.6964596    2457.7437  0.074126665  0.074104513            5 
 2764000   0.80983619   -2.7164232    2445.0529  0.073717225  0.074091091            3 
 2765000   0.80049986   -2.7174955     2452.189  0.073905635  0.074077409            3 
 2766000   0.79593622   -2.7331639    2448.0761  0.073755004  0.074063931            5 
 2767000   0.83645773   -2.7194393    2450.2479  0.073793756  0.074050533            5 
 2768000   0.82170315   -2.7067151    2457.4737  0.073984637  0.074037212            3 
 2769000   0.80058272   -2.7116767    2463.6168  0.074142795   0.07402373            9 
 2770000   0.81796799   -2.7209646    2459.8509  0.074002735  0.074010188            6 
 2771000   0.79839449    -2.713362    2458.5048  0.073935545  0.073996734            4 
 2772000   0.80659796   -2.7019688    2466.3925  0.074145998  0.073983311            3 
 2773000    0.8152744   -2.7431223    2445.9767   0.07350573  0.073969539            4 
 2774000   0.80624366   -2.7544689    2457.8605  0.073836232  0.073956001            4 
 2775000   0.83157834   -2.6976353    2460.0612  0.073875711  0.073942303            4 
 2776000   0.79636357   -2.7133538     2456.663  0.073747088  0.073928867            5 
 2777000   0.82281794   -2.7178136    2459.7778  0.073814002  0.073915363            4 
 2778000   0.78339266   -2.7104226    2457.8642  0.073730029  0.073901715            6 
 2779000   0.80847907   -2.7119678    2461.4735  0.073811728  0.073888065            3 
 2780000   0.79558316   -2.7356329    2461.9756  0.073800229  0.073874379            3 
 2781000   0.82808259   -2.7033717    2462.4528  0.073787991  0.073860936            3 
 2782000   0.80958739   -2.7324988    2461.8638  0.073743823  0.073847575            5 
 2783000     0.810985   -2.6908892    2457.4586  0.073585418  0.073833985            5 
 2784000   0.80406999   -2.7147647    2457.9676  0.073574223  0.073820442            4 
 2785000   0.81179067   -2.7048556    2457.6144  0.073537234  0.073807021            6 
 2786000   0.81141361   -2.7228255    2458.7595  0.073545091  0.073793651            2 
 2787000   0.80797644   -2.7372443    2464.0624  0.073677265  0.073780083            3 
 2788000   0.81564556   -2.7282159    2468.2029  0.073774595  0.073766526            6 
 2789000   0.80619358    -2.725773     2460.978  0.073532269  0.073753066            3 
 2790000   0.79326423   -2.7151417    2468.8247  0.073740283  0.073739752            4 
 2791000   0.80220027   -2.7488111    2458.0097   0.07339095  0.073726317            2 
 2792000   0.81143939    -2.719698     2463.402  0.073525609  0.073712845            4 
 2793000   0.80927364    -2.712545    2468.7536  0.073658956  0.073699349            7 
 2794000    0.8070505   -2.7148957     2479.491  0.073952845  0.073686001            4 
 2795000   0.79055368    -2.724671    2468.0586  0.073585528  0.073672619            6 
 2796000    0.7956496   -2.7179382    2471.3332  0.073656807  0.073659228            5 
 2797000    0.8033937   -2.7162257    2469.3286  0.073570747  0.073645934            2 
 2798000     0.823734    -2.722961    2468.2736  0.073513033  0.073632406            5 
 2799000   0.79818962   -2.7378663    2461.5542  0.073286717  0.073618817            2 
 2800000    0.8099751   -2.7219483     2471.835  0.073566517  0.073605223            2 
 2801000     0.819412   -2.6982216    2476.3738  0.073675289  0.073591767            4 
 2802000   0.78533375   -2.7303615    2465.8602  0.073336314  0.073578276            4 
 2803000   0.80636783   -2.7188198    2461.9842  0.073194915  0.073564776            6 
 2804000    0.7853844   -2.7202521    2466.3721  0.073299219  0.073551044            2 
 2805000   0.78672502   -2.7071145    2468.5719  0.073338441  0.073537345            3 
 2806000   0.81735594   -2.7261813    2467.6073  0.073283656  0.073523593            3 
 2807000   0.78885311   -2.7099195    2469.8717  0.073324775  0.073509918            2 
 2808000    0.7923303   -2.7111108    2462.4637  0.073078813  0.073496355            3 
 2809000   0.79194583    -2.733016    2471.6752  0.073326072  0.073482773            6 
 2810000   0.79488327   -2.7239686    2469.8272  0.073245173  0.073469037            2 
 2811000   0.79394277   -2.7266031    2468.8628  0.073190526  0.073455345            6 
 2812000   0.77872048   -2.7367574    2475.6162  0.073364633  0.073441771            2 
 2813000   0.80727986   -2.7042897    2475.5616  0.073336936  0.073428345            4 
 2814000   0.81767868   -2.7350982    2481.4357  0.073484829    0.0734148            2 
 2815000   0.81147087   -2.6930419     2476.042  0.073299054  0.073401461            3 
 2816000   0.78346652   -2.7050845    2480.8189  0.073414385  0.073388238            5 
 2817000   0.81610598   -2.7442047    2470.8025  0.073092016  0.073374824            4 
 2818000   0.78330324   -2.7364107    2478.1095   0.07328216   0.07336163            2 
 2819000   0.78178022   -2.6996074    2474.8946  0.073161127  0.073348562            4 
 2820000   0.80953319   -2.7038406    2482.8127   0.07336917  0.073335318            2 
 2821000   0.80908272   -2.7272824    2479.7845  0.073253707   0.07332208            4 
 2822000   0.79581832   -2.7421037    2484.0532  0.073353804  0.073308823            4 
 2823000   0.81377655   -2.7337488    2488.7527  0.073466546  0.073295746            5 
 2824000   0.81281285   -2.7119633    2480.4642  0.073195946  0.073282528            4 
 2825000   0.80485017   -2.7316083    2487.5728  0.073379728  0.073269334            2 
 2826000   0.80429179   -2.7412976     2483.164  0.073223757  0.073255969            2 
 2827000   0.78883393   -2.7222952    2479.5279   0.07309067  0.073242652            3 
 2828000    0.8018541   -2.7245662    2474.3813   0.07291317  0.073229325            4 
 2829000   0.81359424   -2.7487756    2481.7422  0.073104225  0.073216024            4 
 2830000   0.80417842   -2.7425055    2482.1972  0.073091791  0.073202804            2 
 2831000   0.79544889   -2.7219782    2490.9221    0.0733228  0.073189546            5 
 2832000    0.8073044   -2.7106963    2487.8065   0.07320523  0.073176269            3 
 2833000   0.79059479   -2.7418892    2488.3082  0.073194147  0.073162999            8 
 2834000   0.79430673   -2.7138112    2484.0015  0.073041681  0.073149654            3 
 2835000   0.81297568   -2.7210503    2492.6009  0.073268691  0.073136246            2 
 2836000   0.78747431   -2.7359316    2488.4346  0.073120435   0.07312279            2 
 2837000   0.80919597   -2.7276724    2481.9949  0.072905501  0.073109248            4 
 2838000   0.78183641   -2.7389701    2487.9763  0.073055448  0.073095707            9 
 2839000   0.78696412   -2.7385109    2487.2435  0.073008204  0.073082212            6 
 2840000   0.78343352   -2.7150064    2493.4436  0.073164426  0.073068809            5 
 2841000   0.79491987   -2.7059368    2484.9324  0.072889018  0.073055309            5 
 2842000   0.78746412   -2.7505865    2481.0922  0.072750767  0.073041731            4 
 2843000     0.784214   -2.7331622    2481.6779  0.072742346  0.073028306            2 
 2844000   0.80124525   -2.7264676    2486.3334  0.072853183  0.073014702            4 
 2845000   0.79928433   -2.7383633    2488.1452  0.072880644  0.073001255            6 
 2846000   0.78997229   -2.7542271    2491.9528  0.072966527  0.072987759            5 
 2847000   0.81343592   -2.7463885    2487.1025  0.072798927  0.072974197            5 
 2848000   0.79769874   -2.7317099    2485.1717   0.07271687  0.072960631            4 
 2849000   0.78416069   -2.7247402    2493.1122  0.072923605  0.072947259            3 
 2850000    0.7879601   -2.7117949    2496.3401    0.0729924  0.072933838            2 
 2851000   0.79151704   -2.7370625    2487.1472  0.072698094   0.07292039            4 
 2852000   0.80074185   -2.7268422    2488.9586  0.072725531   0.07290675            4 
 2853000   0.80486879   -2.7417548    2491.4437  0.072772627  0.072893175            5 
 2854000   0.80119632   -2.7352284    2494.7245  0.072842926  0.072879727            4 
 2855000   0.77817025   -2.7313636     2493.127  0.072770781  0.072866193            3 
 2856000   0.77873407   -2.7054429    2495.1372  0.072803958  0.072852624            5 
 2857000   0.80073277   -2.7364925    2494.4818  0.072759356   0.07283918            5 
 2858000   0.78352135   -2.7253602    2490.0382  0.072604333  0.072825591            3 
 2859000   0.79584192   -2.7416103    2499.1137  0.072843468  0.072811882            4 
 2860000   0.78405985   -2.7261021    2485.7888  0.072429742  0.072798301            4 
 2861000   0.78110285   -2.7229152    2494.7888  0.072666573  0.072784723            4 
 2862000   0.80557487   -2.7300382    2490.3239  0.072511179   0.07277114            4 
 2863000   0.78081647   -2.7311085    2502.7584  0.072847782  0.072757621            4 
 2864000   0.78713647   -2.7468261    2495.0898  0.072599214  0.072743979            4 
 2865000   0.79289873   -2.7147282    2503.5175  0.072819008  0.072730521            4 
 2866000   0.80293174   -2.7406748    2491.1723  0.072434646  0.072716943            4 
 2867000   0.78768754   -2.7327653    2496.0122  0.072550059  0.072703325            3 
 2868000   0.78874548   -2.7450703    2483.3437  0.072156663  0.072689825            7 
 2869000   0.78251977   -2.7356628    2502.4313  0.072685934  0.072675967            4 
 2870000   0.80057458   -2.7408648    2492.2963  0.072366328  0.072662141            2 
 2871000   0.79479818   -2.7320453    2498.8847  0.072532354  0.072648344            5 
 2872000   0.79944927   -2.7176523    2493.2283  0.072342975  0.072634606            2 
 2873000   0.79822257   -2.7289455    2504.3663   0.07264086  0.072620769            3 
 2874000   0.77960211   -2.7209012    2499.6944   0.07248012  0.072607033            3 
 2875000   0.80011004    -2.720045    2494.1875   0.07229529  0.072593257            3 
 2876000   0.79417305   -2.7458086    2506.9158  0.072638959  0.072579543            3 
 2877000    0.7997406   -2.7265633    2497.1107  0.072329704  0.072565802            2 
 2878000   0.80402765   -2.7381006    2497.9825  0.072329814  0.072551966            5 
 2879000   0.79516149   -2.7504812    2501.3907  0.072403343  0.072537977            3 
 2880000   0.77974707   -2.7651388    2491.0256  0.072078288  0.072524035            3 
 2881000   0.78965911   -2.7346135    2493.8727  0.072135621  0.072509949            4 
 2882000   0.79223834   -2.7249832    2501.7023  0.072336985  0.072495962            5 
 2883000   0.78230585   -2.7386907    2496.5469  0.072162878  0.072481841            4 
 2884000   0.78721973   -2.7265425    2504.0798  0.072355518  0.072467903            7 
 2885000   0.78880684   -2.7692502    2495.0437  0.072069432   0.07245383            3 
 2886000   0.76956566   -2.7484981    2494.3661  0.072024893  0.072439982            7 
 2887000   0.80310398   -2.7250898    2503.2678  0.072256894  0.072426125            6 
 2888000   0.78476617   -2.7437592    2502.0808  0.072197624  0.072412389            4 
 2889000   0.78699568   -2.7088317    2506.4047  0.072297356  0.072398647            2 
 2890000   0.79323075   -2.7211914    2500.2198  0.072093996  0.072385042            2 
 2891000   0.79064531   -2.7270289      2492.87    0.0718572  0.072371151            3 
 2892000   0.77611052   -2.7463148    2502.7135  0.072115997   0.07235738            2 
 2893000   0.80462845   -2.7356755     2505.233  0.072163643  0.072343586            5 
 2894000   0.77693568   -2.7337746    2502.9225  0.072072175  0.072329822            3 
 2895000    0.8032746   -2.7454112    2499.8009  0.071957425  0.072316011            4 
 2896000   0.79022334   -2.7477293    2501.9982  0.071995806  0.072302352            2 
 2897000   0.80289781   -2.7417281    2501.4741  0.071955878  0.072288543            2 
 2898000   0.79238655    -2.730533    2517.6956  0.072397505  0.072274712            5 
 2899000   0.79960858   -2.7253275     2505.464  0.072020926  0.072260975            2 
 2900000   0.78367793   -2.7384674    2509.2265  0.072104209  0.072247283            5 
 2901000   0.81631851   -2.7236735    2509.4203  0.072084922  0.072233751            2 
 2902000   0.77585972   -2.7388092    2512.0314  0.072135061  0.072220233            2 
 2903000   0.79125319   -2.7445036    2509.4649   0.07203654  0.072206369            4 
 2904000   0.78560786   -2.7243968    2513.6927  0.072133056  0.072192649            5 
 2905000   0.78706382   -2.7371479    2507.2691  0.071923957  0.072179045            2 
 2906000   0.79324749   -2.7585793    2510.3982  0.071988938  0.072165355            2 
 2907000   0.80917767   -2.7477344    2509.4243  0.071936253  0.072151791            5 
 2908000   0.77863281   -2.7542588    2516.5118   0.07211462  0.072138151            3 
 2909000   0.77472752   -2.7464808    2507.5588  0.071833356  0.072124548            5 
 2910000   0.78408249   -2.7551533    2513.4612  0.071977696  0.072110933            3 
 2911000   0.80259491   -2.7239585    2515.2203  0.072003328  0.072097139            5 
 2912000   0.77662251   -2.7557628    2512.3334  0.071895988  0.072083573            6 
 2913000   0.77915988    -2.746711    2506.0572  0.071691761   0.07206987            3 
 2914000   0.78353521   -2.7326674    2515.5584  0.071938869  0.072056108            4 
 2915000   0.78873804   -2.7410173    2513.6772  0.071860412  0.072042415            2 
 2916000   0.78954447   -2.7364066    2516.0419  0.071903347  0.072028714            5 
 2917000   0.79090505   -2.7587914    2515.5505  0.071864659  0.072014881            5 
 2918000   0.80224443   -2.7603779    2505.8424  0.071562782  0.072001187            2 
 2919000   0.78427765   -2.7431787     2514.758  0.071792795  0.071987425            3 
 2920000   0.75987749   -2.7424878    2512.8235  0.071713001  0.071973713            3 
 2921000   0.79687394   -2.7507022    2518.1894  0.071841532  0.071960162            2 
 2922000   0.78550981   -2.7423687     2517.522  0.071797911  0.071946436            5 
 2923000   0.76957959   -2.7524788     2511.583   0.07160403  0.071932844            2 
 2924000    0.7769212   -2.7429905    2512.3488  0.071601367  0.071919215            2 
 2925000   0.77279718   -2.7322733    2516.7221  0.071701483  0.071905531            2 
 2926000   0.76877275   -2.7543021    2508.6652  0.071447517  0.071891779            6 
 2927000   0.77969624   -2.7669911    2518.2288  0.071695387  0.071878035            4 
 2928000   0.77794605   -2.7626262    2521.2827  0.071757819  0.071864369            4 
 2929000   0.79413667    -2.717872    2521.2021  0.071731027  0.071850798            3 
 2930000   0.78168075   -2.7473964    2525.4687  0.071827892  0.071837196            6 
 2931000   0.78710983   -2.7493841    2524.2948   0.07177001  0.071823732            3 
 2932000   0.77638365   -2.7490134    2521.6913  0.071671536  0.071810104            6 
 2933000   0.76808602   -2.7439484    2529.1247  0.071858299  0.071796397            2 
 2934000   0.79852518   -2.7263428    2513.8172  0.071399034  0.071782786            6 
 2935000   0.77363051   -2.7536908    2522.0917  0.071609646  0.071769265            4 
 2936000   0.77828468   -2.7543531    2520.6443  0.071544173  0.071755484            8 
 2937000   0.77961308   -2.7333476    2527.1113  0.071703306  0.071741707            9 
 2938000   0.79218038   -2.7417278    2518.8713  0.071445182  0.071727854            7 
 2939000   0.78120234   -2.7494707      2523.11  0.071541058  0.071714056            5 
 2940000   0.79310991   -2.7650786    2519.2423  0.071407094  0.071700131            5 
 2941000   0.77751155   -2.7565616    2516.0342  0.071291913  0.071686315            4 
 2942000   0.78835275   -2.7415997    2513.9891  0.071209752  0.071672321            7 
 2943000   0.78184519    -2.762727    2520.0141  0.071356157   0.07165843            3 
 2944000   0.78513518   -2.7782266    2524.2217   0.07145102  0.071644454            3 
 2945000   0.79137848   -2.7541423    2522.1968  0.071369462  0.071630555            5 
 2946000   0.75144973   -2.7395641    2521.3134  0.071320247  0.071616579            3 
 2947000   0.76960497   -2.7547835     2515.523  0.071132309   0.07160273            4 
 2948000   0.79277103   -2.7657817    2516.2982  0.071130095  0.071588786           10 
 2949000   0.77759361   -2.7623092    2521.8457  0.071262737  0.071574763            5 
 2950000    0.7677674   -2.7561523    2514.2675  0.071024506  0.071560711            6 
 2951000   0.77837297   -2.7597426    2523.3159  0.071255956  0.071546782            8 
 2952000   0.78937483   -2.7554167    2525.0917  0.071281948  0.071532636            2 
 2953000   0.76516322   -2.7489846    2521.0784  0.071144552  0.071518718            4 
 2954000   0.78149577    -2.754208    2523.7031  0.071194513  0.071504669            5 
 2955000   0.77788404   -2.7642976     2519.121  0.071041202   0.07149062            4 
 2956000   0.78833525   -2.7286956    2522.6115   0.07111557   0.07147653            3 
 2957000   0.78847005   -2.7488622    2521.7463  0.071067137  0.071462615            5 
 2958000   0.77448051   -2.7475206    2525.6935  0.071154314  0.071448475            2 
 2959000   0.79199166    -2.751083    2526.7539  0.071160129  0.071434435            6 
 2960000    0.7741337    -2.761231    2518.6846  0.070908914  0.071420392            3 
 2961000   0.78052198   -2.7317007    2526.3616  0.071101024  0.071406364            5 
 2962000   0.77507477   -2.7618662    2524.6645  0.071029274  0.071392347            3 
 2963000   0.78338062   -2.7745932      2529.16  0.071131735  0.071378286            4 
 2964000   0.77743213    -2.757379    2523.8018  0.070957092  0.071364289            3 
 2965000   0.77058871   -2.7408194    2530.8818  0.071132147  0.071350292            2 
 2966000   0.75428545    -2.757749    2528.5508  0.071042672  0.071336125            3 
 2967000   0.77689609   -2.7789219    2525.5024  0.070933109  0.071321896            3 
 2968000   0.77225142   -2.7633415    2517.3582  0.070680543   0.07130756            5 
 2969000   0.77711201   -2.7583703    2521.6159  0.070776242  0.071293234            7 
 2970000    0.7605368    -2.749567    2529.5089  0.070973874  0.071278908            3 
 2971000   0.78164851   -2.7724609     2517.413  0.070610709  0.071264635            8 
 2972000   0.78154009   -2.7703213    2518.7892  0.070625539  0.071250452            2 
 2973000   0.77392826   -2.7602616    2532.9028  0.070997388   0.07123635            4 
 2974000   0.76973386   -2.7633651    2525.9961  0.070779985  0.071222256            3 
 2975000   0.77599076   -2.7429089    2533.5759  0.070968512   0.07120808            5 
 2976000   0.78658436   -2.7700004     2530.397   0.07085565  0.071194054            3 
 2977000   0.76607111   -2.7441729    2524.5781  0.070668966  0.071179881            2 
 2978000   0.76922392   -2.7690957    2522.7714  0.070594679  0.071165712            3 
 2979000   0.76528628   -2.7555547    2527.8382  0.070712716   0.07115162            5 
 2980000   0.76696331   -2.7594578    2527.0314  0.070666425  0.071137395            4 
 2981000   0.77673947   -2.7669114    2524.1988  0.070563536  0.071123269            5 
 2982000   0.76761812    -2.757153    2530.2641  0.070709371  0.071109111            5 
 2983000   0.77160595   -2.7620921    2523.2617  0.070490045  0.071094911            3 
 2984000   0.74579782   -2.7409729    2532.8753    0.0707349  0.071080739            3 
 2985000   0.77812505   -2.7554854    2532.4696  0.070699876  0.071066616            2 
 2986000   0.77621007   -2.7664089    2534.4932  0.070732675  0.071052318            7 
 2987000   0.77340677   -2.7567853    2533.1231  0.070670772  0.071038153            2 
 2988000   0.77752691   -2.7751354    2529.4525  0.070544748  0.071024056            5 
 2989000   0.78578181   -2.7568391    2526.7142  0.070444802  0.071009838            9 
 2990000   0.74937802   -2.7891865     2530.939  0.070538992  0.070995728            2 
 2991000   0.75199529   -2.7700551    2537.4698  0.070697365  0.070981546            3 
 2992000    0.7942024   -2.7645857    2529.3242  0.070446864   0.07096745            3 
 2993000   0.77903468   -2.7731264    2527.7553  0.070379645  0.070953425            3 
 2994000   0.75825249   -2.7633291    2537.9632  0.070640258  0.070939287            4 
 2995000   0.76725602   -2.7724381    2536.1373  0.070565869  0.070925164            4 
 2996000   0.78150077   -2.7668992    2532.5802  0.070443375  0.070911044            7 
 2997000   0.78798509     -2.75975     2534.833  0.070482509  0.070896951            8 
 2998000   0.77131639   -2.7555482    2542.7498  0.070679059  0.070882904            4 
 2999000    0.7777938   -2.7574087    2539.1876  0.070556508  0.070868933            7 
 3000000   0.77416021   -2.7731952     2544.971   0.07069364  0.070855029            3 
 3001000   0.77233603   -2.7911159    2539.5823  0.070520447  0.070841085            2 
 3002000   0.76730773   -2.7652837    2539.4634  0.070493654  0.070827105            4 
 3003000   0.77545669   -2.7746323    2538.6022  0.070446282  0.070813186            7 
 3004000   0.76521374   -2.7536231    2540.2209  0.070467734  0.070799169            5 
 3005000   0.78065023   -2.7793215    2533.7101  0.070263729  0.070785289            2 
 3006000   0.76529455   -2.7569783    2544.6764  0.070544366  0.070771334            6 
 3007000   0.77262083   -2.7510605    2544.5015  0.070516061  0.070757326            2 
 3008000   0.77613671   -2.7680133    2546.8482  0.070557629  0.070743248            4 
 3009000   0.76464867   -2.7671661    2537.7884  0.070283274  0.070729309           10 
 3010000   0.77160097   -2.7693362    2547.7219  0.070534935  0.070715467            3 
 3011000   0.76460384   -2.7839457    2547.4897  0.070505083  0.070701512            4 
 3012000    0.7635358   -2.7797577    2531.9901  0.070052847  0.070687409            3 
 3013000   0.77337276   -2.7653748    2539.7979  0.070245544  0.070673303            3 
 3014000   0.77008453   -2.7502381    2548.3396  0.070458406  0.070659427            6 
 3015000   0.76573075   -2.7506775    2543.7576  0.070308391  0.070645559            4 
 3016000   0.75556228   -2.7716725     2544.789  0.070313576  0.070631715            4 
 3017000   0.77235152   -2.7746319    2552.0938  0.070492039  0.070617816            5 
 3018000   0.76765592   -2.7662909    2545.1957  0.070278211  0.070604089            6 
 3019000   0.76639263   -2.7681658    2542.7424  0.070187214  0.070590263            7 
 3020000   0.76707285    -2.764132    2551.3153  0.070400531  0.070576457            5 
 3021000     0.774321   -2.7714343    2551.4372   0.07038059  0.070562637            3 
 3022000   0.76565963   -2.7981763    2535.8807  0.069928323  0.070548831            9 
 3023000    0.7710016   -2.7657517    2555.3566  0.070442071  0.070534924            2 
 3024000   0.75837317   -2.7933271    2541.5336  0.070037852  0.070521145            3 
 3025000   0.76436964   -2.7910485    2551.8669  0.070299362  0.070507303            5 
 3026000   0.75984191   -2.7828752    2550.7203  0.070244555   0.07049349            4 
 3027000   0.74889543   -2.7635312    2563.2267  0.070565651  0.070479815            3 
 3028000   0.76582769   -2.7664107    2551.1803  0.070210818  0.070466117            3 
 3029000   0.77209262   -2.7662212    2553.6909   0.07025671  0.070452512            7 
 3030000   0.76856167   -2.7778542    2555.9719  0.070296256  0.070438799            4 
 3031000   0.77611589   -2.7616282     2552.794  0.070185692  0.070425155            3 
 3032000   0.77775371   -2.7750315    2560.8028  0.070382664   0.07041146            2 
 3033000   0.77078511   -2.7904258     2553.164  0.070149577  0.070397741            4 
 3034000   0.76355139   -2.7716477    2550.3851   0.07005013  0.070384142            5 
 3035000   0.76283317   -2.7536382    2559.9364  0.070289301  0.070370436            3 
 3036000   0.76477101   -2.7752887    2555.3189  0.070139407  0.070356788            3 
 3037000   0.76007078    -2.759973     2555.621  0.070124603  0.070343181            7 
 3038000   0.77955154   -2.7688197    2561.0059   0.07024923  0.070329624            3 
 3039000   0.75930838   -2.7625221    2555.0326  0.070062316  0.070316124            5 
 3040000   0.77015242   -2.7817462    2562.9436  0.070256131   0.07030248            4 
 3041000   0.75837753   -2.7795237    2561.5427  0.070194637  0.070288851            2 
 3042000   0.78133672   -2.7949169    2553.6049  0.069954112  0.070275193            5 
 3043000   0.76451272   -2.7627033    2557.0302  0.070024926  0.070261606            3 
 3044000   0.75958343   -2.7559518    2568.0407  0.070303348  0.070248086            3 
 3045000   0.76078732   -2.7572852      2569.66  0.070324575  0.070234483            4 
 3046000   0.76091984   -2.7493005    2565.0246  0.070174671  0.070221024            5 
 3047000   0.75911065   -2.7726689    2564.9011  0.070148264  0.070207375            4 
 3048000    0.7638794   -2.7749984    2559.0285  0.069964689  0.070193935            3 
 3049000   0.76281419   -2.7962019    2558.0207  0.069914198  0.070180289            4 
 3050000   0.75816925   -2.7935598    2564.0318  0.070055513  0.070166743            5 
 3051000   0.76063461   -2.7775987    2571.7279   0.07024276  0.070153226            5 
 3052000     0.756683   -2.7735757    2563.4417  0.069993494  0.070139823            4 
 3053000    0.7633693   -2.7583734    2570.8612  0.070173087  0.070126395            5 
 3054000   0.75804466   -2.7753033    2569.7259  0.070119131  0.070112925            4 
 3055000    0.7549247   -2.7761269      2561.14  0.069861975  0.070099626            5 
 3056000   0.76071081   -2.7766432    2573.5167  0.070176612  0.070086134            4 
 3057000   0.75759824   -2.7592336    2567.7021  0.069995151  0.070072609            6 
 3058000   0.74994218   -2.7624946    2565.4967  0.069912162  0.070059197            2 
 3059000   0.77739615   -2.7972313    2572.8684  0.070090129  0.070045733            6 
 3060000   0.76494291    -2.767089    2570.3882  0.069999679  0.070032322            5 
 3061000   0.77003405   -2.7856154    2567.8041  0.069906459  0.070018863            4 
 3062000   0.75412379    -2.801847    2569.1255  0.069919593   0.07000536            5 
 3063000   0.73908575   -2.7991827    2571.2172  0.069953673  0.069991839            3 
 3064000   0.78628851     -2.78627    2569.0889  0.069872958  0.069978379            3 
 3065000    0.7623194   -2.7901561      2568.28  0.069828167  0.069964887            3 
 3066000   0.75025499   -2.7871212    2575.3016  0.069996239  0.069951323            5 
 3067000   0.75477091   -2.7851824    2568.9413    0.0698006  0.069937877            4 
 3068000   0.76746467   -2.7755848    2576.3113  0.069978034  0.069924467            3 
 3069000   0.75973205   -2.7961755    2571.8466  0.069834001   0.06991109            2 
 3070000   0.75640927   -2.7811258    2574.7819  0.069890932  0.069897861            6 
 3071000   0.74885303   -2.7616672     2565.517  0.069616765  0.069884454            2 
 3072000   0.75977388   -2.7916074    2567.9992  0.069661436  0.069871065            3 
 3073000   0.76374872   -2.7822005    2567.0285  0.069612445   0.06985766            4 
 3074000   0.76378115   -2.8055611    2574.7318  0.069798628  0.069844457            6 
 3075000   0.74954087   -2.7920954    2575.5681  0.069798593  0.069830992            4 
 3076000   0.73916315    -2.768388    2571.2205   0.06965812  0.069817642            4 
 3077000   0.74633558   -2.7655052    2574.5494  0.069725637  0.069804247            3 
 3078000   0.76096225   -2.7830604     2575.631  0.069732268  0.069790665            3 
 3079000   0.77061866   -2.7779038    2571.4078  0.069595317  0.069777357            7 
 3080000    0.7609584   -2.7776107    2565.9959  0.069426295  0.069763952            4 
 3081000   0.76936078   -2.7718856    2574.4665  0.069632869   0.06975043            5 
 3082000   0.75122515   -2.7784269    2582.5268  0.069828217  0.069736978            7 
 3083000   0.74873893   -2.7777098    2577.6094   0.06967265  0.069723482            5 
 3084000   0.76591588   -2.7909503    2575.3155  0.069588075  0.069710061            4 
 3085000   0.76486318   -2.7860342    2578.2633  0.069645145  0.069696483            4 
 3086000   0.74957268   -2.7844655    2573.0164  0.069480892  0.069682916            8 
 3087000   0.74628256   -2.7878022    2577.5755  0.069581456    0.0696693            3 
 3088000   0.76692503   -2.7833901    2581.0758  0.069653384  0.069655863            5 
 3089000   0.74757568   -2.7844198    2582.3835  0.069666113  0.069642436            3 
 3090000   0.74949506   -2.7749359    2573.4125  0.069401632  0.069628958            5 
 3091000   0.76823065   -2.7774154    2577.2453  0.069482512  0.069615499            4 
 3092000   0.74464024   -2.7836295    2576.6066  0.069442825  0.069602137            5 
 3093000   0.76168219   -2.8007469     2579.127  0.069488281  0.069588646            5 
 3094000   0.76283683   -2.7615663    2584.8859   0.06962093  0.069575154            7 
 3095000   0.74411438   -2.7806713    2589.7051  0.069728194  0.069561702            3 
 3096000   0.74931045   -2.7805912    2574.8322  0.069305346   0.06954811            3 
 3097000   0.74569003   -2.7912442    2587.7728  0.069631169  0.069534627            3 
 3098000     0.753604   -2.7838881    2583.8196  0.069502355   0.06952116           14 
 3099000   0.76008947   -2.7768219    2585.4439  0.069523607  0.069507596            5 
 3100000   0.75125729   -2.7781533    2583.2508  0.069442227  0.069494123            3 
 3101000    0.7681902   -2.8113455    2578.7344  0.069298464  0.069480647            8 
 3102000   0.77425199   -2.7844147    2586.0811  0.069473489  0.069467158            6 
 3103000   0.76689639   -2.8225297    2588.0278  0.069503377  0.069453777            2 
 3104000   0.78158218   -2.7671095    2592.6852  0.069606024  0.069440492            2 
 3105000   0.75589148    -2.762383    2591.6013  0.069554516  0.069427053            3 
 3106000   0.75635556   -2.7691721    2593.8854  0.069593405  0.069413985            6 
 3107000   0.74865693   -2.8095275    2585.9539  0.069358274  0.069400766            2 
 3108000   0.77168222   -2.7701477    2588.8726  0.069414215  0.069387646            4 
 3109000   0.76329846   -2.7850787    2594.2693  0.069536542  0.069374356            1 
 3110000   0.75733511   -2.7620535    2591.6348   0.06944359  0.069361237            5 
 3111000   0.74586318   -2.7866638    2594.9999  0.069511409  0.069348234            5 
 3112000   0.74752811   -2.7853407    2587.4175  0.069286029  0.069335028            4 
 3113000   0.74718204    -2.785598    2600.1361  0.069604243  0.069321874            2 
 3114000   0.76166461   -2.7816551    2594.8047  0.069439219  0.069308612            5 
 3115000   0.74801789   -2.7583151    2593.1002  0.069371326  0.069295348            4 
 3116000   0.75499466   -2.7948977    2592.3158  0.069328086  0.069282096            2 
 3117000    0.7478753   -2.7958539    2595.5037  0.069391072   0.06926873            2 
 3118000   0.75395384   -2.7822453    2591.0541  0.069249896  0.069255528            6 
 3119000   0.74199369   -2.7893453    2593.3568  0.069289217  0.069242239            2 
 3120000   0.76403665    -2.778364    2590.4821  0.069190227  0.069229005            6 
 3121000   0.75710001   -2.7849162    2592.1379  0.069212269  0.069215847            6 
 3122000   0.74604984   -2.7909346     2596.442  0.069304987  0.069202679            4 
 3123000    0.7582921   -2.7999125     2602.546  0.069445671  0.069189677            7 
 3124000   0.76300008   -2.8012734    2594.9887   0.06922185  0.069176562            6 
 3125000   0.75572709   -2.7961082    2602.0788  0.069388768  0.069163444            3 
 3126000   0.75112538   -2.8050855    2597.7639  0.069251542  0.069150322            2 
 3127000    0.7540495   -2.7952652      2601.44  0.069327364  0.069137384            5 
 3128000     0.734815   -2.7877169    2602.7728  0.069340708  0.069124336            5 
 3129000   0.76310001   -2.8009911    2602.7849   0.06931887  0.069111355            6 
 3130000   0.74840559   -2.7952751    2600.1231  0.069225856  0.069098473            2 
 3131000   0.74583424    -2.792417    2590.0759  0.068936333  0.069085486            6 
 3132000   0.74839566   -2.7937312    2603.5593  0.069273078  0.069072433            4 
 3133000    0.7702886   -2.7961577     2599.903  0.069153713  0.069059322            4 
 3134000   0.73996678   -2.8049524    2597.2615  0.069061409   0.06904636            3 
 3135000   0.73939991     -2.76804    2608.0222  0.069325416  0.069033352            4 
 3136000   0.75825396   -2.7813793    2609.1037  0.069332051  0.069020259            3 
 3137000   0.73612325   -2.8096901    2599.6568  0.069058993  0.069007316            5 
 3138000   0.75103613   -2.8016108    2608.0275  0.069259282  0.068994258            5 
 3139000   0.73080195   -2.7999698    2608.9329  0.069261254  0.068981243            4 
 3140000   0.76108989   -2.7930722    2604.1387  0.069111962  0.068968236            2 
 3141000   0.75174115    -2.807355    2594.7079   0.06883975  0.068955072            2 
 3142000   0.74885618   -2.8051148    2604.8372  0.069086494  0.068942102            5 
 3143000   0.77176777   -2.8063236    2603.3555  0.069025227  0.068929141            3 
 3144000   0.73731727   -2.8044086    2600.9549  0.068939646  0.068916076            3 
 3145000   0.75858198   -2.7912529    2611.9795  0.069209844  0.068903107            3 
 3146000   0.74841775   -2.7904366    2610.6084  0.069151525  0.068890236            7 
 3147000   0.75705735   -2.8046338    2608.8152  0.069082067  0.068877214           10 
 3148000   0.75918522   -2.7988634    2612.2501   0.06915105  0.068864166            5 
 3149000   0.74302237   -2.8109472    2612.2235  0.069128387  0.068851275            5 
 3150000   0.74709449    -2.795975    2612.2741   0.06910778   0.06883829            3 
 3151000   0.76158669   -2.8168182    2603.0187  0.068841074  0.068825279            3 
 3152000   0.73645877   -2.7944811    2612.8992  0.069080458  0.068812342            8 
 3153000   0.75096477   -2.7788248    2617.2531   0.06917362  0.068799356            6 
 3154000   0.75290326    -2.816841    2614.6416  0.069082688  0.068786442            2 
 3155000   0.75595258    -2.788815     2600.838  0.068696197  0.068773447            3 
 3156000   0.74426753    -2.794516     2617.031  0.069102002  0.068760511            4 
 3157000   0.74552266   -2.7902784    2612.5885  0.068962847  0.068747507            6 
 3158000   0.73738912    -2.788905    2606.4626   0.06877936  0.068734517            3 
 3159000   0.75519442   -2.7985834    2615.0394  0.068983841  0.068721513            2 
 3160000   0.75272758   -2.7899977     2609.938  0.068827478   0.06870839            7 
 3161000   0.74265163   -2.8017674    2614.5688  0.068927788  0.068695541            6 
 3162000   0.75830332   -2.8060586    2616.2559  0.068950451  0.068682669            4 
 3163000   0.72871858   -2.8028319    2614.1302  0.068872647  0.068669761            5 
 3164000   0.74326978   -2.7898116    2613.2223  0.068826968  0.068656821            5 
 3165000    0.7347471   -2.7953327    2613.0571  0.068800871  0.068643851           14 
 3166000   0.73708304   -2.7934023    2620.2415  0.068968243  0.068630896            5 
 3167000   0.72678445   -2.8160993    2605.7416  0.068564931  0.068617794            6 
 3168000   0.75089464   -2.8005095    2616.2641  0.068820078  0.068604769            6 
 3169000    0.7488967   -2.7944439    2615.5111  0.068778562  0.068591784            3 
 3170000   0.75045746   -2.7989928    2621.4836  0.068913869  0.068578851            2 
 3171000   0.74970766   -2.8088935    2619.1373  0.068830477  0.068565935            7 
 3172000   0.74604631   -2.7948114    2616.3991   0.06873684  0.068553054            4 
 3173000   0.75381722   -2.8114083    2613.8267  0.068647619  0.068540136            3 
 3174000   0.74263468   -2.7898178    2628.2152   0.06900376  0.068527261            2 
 3175000   0.74153497   -2.7955195    2613.3576  0.068592063  0.068514391            5 
 3176000   0.76304629   -2.7954236    2614.8166  0.068608747   0.06850146            3 
 3177000   0.74064131    -2.798286    2614.2341  0.068571872  0.068488536            3 
 3178000   0.75281432   -2.8155955    2624.6449  0.068823288  0.068475547            9 
 3179000   0.72889916   -2.7987661     2624.777  0.068805101  0.068462672            6 
 3180000   0.73645448   -2.7791559     2627.412  0.068852516  0.068449812            5 
 3181000    0.7364792   -2.8137026    2630.4416  0.068910238  0.068436941            2 
 3182000   0.75157274   -2.8124198    2621.1217  0.068644503  0.068424113            8 
 3183000   0.72913542   -2.8013553    2618.8976  0.068564708  0.068411016            2 
 3184000   0.74169869   -2.7816301    2627.7784  0.068775607  0.068398171            4 
 3185000   0.75037748   -2.8022871    2619.1614  0.068528556  0.068385249            3 
 3186000   0.75568155   -2.8016588    2623.6203  0.068623674  0.068372382            4 
 3187000   0.75223909   -2.8022916    2627.6764  0.068708199  0.068359477            4 
 3188000   0.74702137   -2.7826592    2623.9077  0.068588136  0.068346711            5 
 3189000   0.75385141   -2.8019759    2615.2034  0.068339172  0.068333829            6 
 3190000   0.73222339   -2.8119988    2623.0333  0.068522291  0.068321082            8 
 3191000   0.75477962   -2.7960428    2628.2365  0.068636701  0.068308198            8 
 3192000   0.73323919   -2.8037616    2627.5211   0.06859652  0.068295343            3 
 3193000   0.76289731   -2.8034743     2621.423  0.068415883  0.068282468            6 
 3194000   0.74295906   -2.8144424    2628.8311  0.068587745  0.068269599            3 
 3195000   0.74515873   -2.7932287    2614.1741  0.068183988   0.06825668            6 
 3196000   0.74166753    -2.811934    2632.1254   0.06863072  0.068243893            4 
 3197000    0.7397052   -2.7986812    2639.3545  0.068797689  0.068231293            4 
 3198000   0.73627274   -2.8117671    2628.9554  0.068505195  0.068218588            3 
 3199000   0.74396037   -2.8094686    2622.4614  0.068314615  0.068205945            5 
 3200000   0.74486035   -2.8350848    2629.8636  0.068486032   0.06819317            3 
 3201000    0.7397027   -2.8047623    2639.3395  0.068711327  0.068180535            5 
 3202000   0.75267761     -2.81523    2625.6436  0.068333426  0.068167829            9 
 3203000   0.73654966   -2.8017257    2634.1987  0.068534673  0.068155196            2 
 3204000    0.7340886   -2.8193607    2634.5049  0.068521246  0.068142522            6 
 3205000   0.73672154   -2.7914293     2636.919  0.068562637  0.068129934            4 
 3206000   0.72403775   -2.8159899    2635.2822  0.068498706  0.068117349            3 
 3207000   0.73930912   -2.8219723    2628.0252  0.068288776  0.068104746            3 
 3208000   0.74096979   -2.8401738    2640.4406  0.068589998  0.068092129            8 
 3209000   0.73414969   -2.8200164    2626.0099  0.068193878  0.068079515            6 
 3210000   0.74234927   -2.8294891    2644.1797  0.068644333   0.06806679            2 
 3211000   0.74379703   -2.8178703    2636.0155  0.068411073  0.068054231            5 
 3212000   0.73787102   -2.8039689    2638.3669  0.068450781   0.06804151            4 
 3213000   0.72050534   -2.7955323    2636.8202  0.068389362  0.068028847            4 
 3214000   0.73239899   -2.8210668    2638.3021  0.068406505  0.068016304            3 
 3215000   0.71483814   -2.8115172     2640.604  0.068444893  0.068003734            3 
 3216000   0.74092051   -2.7998568     2628.661  0.068114143  0.067991164            6 
 3217000   0.73336339   -2.8286889    2634.7686  0.068251182  0.067978356            5 
 3218000   0.72619444    -2.823447    2633.7581  0.068203805  0.067965661            4 
 3219000    0.7294682    -2.816679    2626.3521  0.067990891  0.067952892            7 
 3220000   0.73288395    -2.800205    2647.5762  0.068519053  0.067940268            3 
 3221000    0.7295149   -2.8243414    2634.2662  0.068153427  0.067927631            6 
 3222000   0.72817691   -2.8151898    2638.0666  0.068230566  0.067914953            4 
 3223000   0.73262399   -2.8084266    2639.9626  0.068258419  0.067902253            3 
 3224000   0.73968645   -2.8337502    2642.4249  0.068300892  0.067889551            3 
 3225000   0.73189422   -2.8309954    2642.2589  0.068275424  0.067877012            4 
 3226000    0.7413589   -2.8060628    2646.1021  0.068353538  0.067864353            4 
 3227000   0.72520231   -2.8106544    2641.2543  0.068207165  0.067851764           17 
 3228000    0.7238232   -2.8266254    2643.9508  0.068255649  0.067839293            7 
 3229000   0.75748023   -2.7880379     2650.572  0.068405388  0.067826707            4 
 3230000   0.72457383   -2.8097388    2647.2776  0.068299215  0.067814302            4 
 3231000   0.72022048   -2.8261559    2640.2993  0.068098095  0.067801586            4 
 3232000   0.71974233    -2.837532    2634.5199   0.06792801  0.067788868            4 
 3233000   0.72961459   -2.8320043    2643.4897  0.068138202  0.067776327            9 
 3234000   0.72553584   -2.8109547      2636.02  0.067924654  0.067763712            6 
 3235000   0.74175388    -2.830073    2646.0053  0.068160878  0.067750984            6 
 3236000   0.73429619   -2.8398089      2637.26  0.067914607  0.067738315            3 
 3237000    0.7345872   -2.8298111    2642.3911  0.068025722  0.067725561            2 
 3238000   0.72557598   -2.7955927     2647.658  0.068140262  0.067712905            2 
 3239000   0.73356579   -2.8144206    2644.2429  0.068031359  0.067700283            7 
 3240000   0.72489277   -2.8254594    2655.5157  0.068300301  0.067687723            4 
 3241000   0.74190838   -2.8090271    2651.5027  0.068176043  0.067675094            4 
 3242000    0.7370306   -2.8187865    2645.6045  0.068003406  0.067662642            9 
 3243000   0.74895173   -2.8187017    2640.4141  0.067849062  0.067650011            7 
 3244000   0.73536381   -2.8208524    2653.9777  0.068176575  0.067637376            5 
 3245000   0.72018288   -2.8171951    2645.8922  0.067947924   0.06762491            5 
 3246000   0.72965768   -2.8010864     2648.725  0.067999717   0.06761233            5 
 3247000   0.73826529   -2.8155968    2651.6056  0.068052705  0.067599665            5 
 3248000   0.73947427   -2.8098452    2649.3046  0.067972718  0.067587138            4 
 3249000   0.73557643   -2.8174866    2653.0455  0.068047744  0.067574487            4 
 3250000   0.72747124   -2.8150206    2652.8149  0.068020896  0.067561817            3 
 3251000   0.72158738   -2.7963727    2656.7551  0.068100971  0.067549273            4 
 3252000    0.7243323   -2.8328879    2654.6439  0.068025931  0.067536703            2 
 3253000   0.73461156   -2.8275165    2649.9614  0.067885065  0.067524141            9 
 3254000   0.74011647   -2.8245029    2656.2155  0.068024368  0.067511506            6 
 3255000   0.74858999   -2.8329469    2652.9988  0.067921115  0.067498932            5 
 3256000   0.72430646   -2.7923326     2652.896  0.067897624  0.067486257            3 
 3257000   0.74593103   -2.8096421    2656.7456  0.067975274   0.06747367            3 
 3258000   0.72685103   -2.8068958    2654.7156  0.067902487  0.067461141            4 
 3259000   0.71523446   -2.7958125    2652.6851  0.067829731   0.06744864            4 
 3260000    0.7187594   -2.8233289    2649.0294  0.067715475  0.067436037            2 
 3261000   0.72458572   -2.8406949    2655.5813  0.067862141  0.067423243            4 
 3262000    0.7392046   -2.8219478    2642.1995  0.067499476  0.067410594            6 
 3263000   0.71962131   -2.8248354    2661.3395  0.067967604  0.067397883            4 
 3264000   0.72954116   -2.8107361    2651.0371  0.067683749  0.067385152            5 
 3265000   0.73900767   -2.8303035    2654.3718  0.067748132  0.067372486            5 
 3266000   0.72413416   -2.8157493    2651.3014  0.067649045  0.067359748            4 
 3267000   0.73137757    -2.819953    2666.2546   0.06800976  0.067347096            4 
 3268000   0.72849094   -2.8405881    2648.9116  0.067546706  0.067334373            8 
 3269000   0.74082548   -2.8010878    2655.7554  0.067700505  0.067321807            6 
 3270000   0.72977444   -2.8465534    2652.1967  0.067589111  0.067309164            3 
 3271000   0.72824779   -2.8175251    2659.7953  0.067762033  0.067296475            4 
 3272000   0.73130967   -2.8248717    2657.0678  0.067671856  0.067283738            6 
 3273000   0.73079875    -2.818777    2648.7252  0.067438771  0.067271092           12 
 3274000   0.73008042   -2.8212149    2652.7865  0.067521546  0.067258479            6 
 3275000   0.72764372   -2.8282009    2662.4811   0.06774761  0.067246006            4 
 3276000   0.74313268   -2.8019904    2659.6534  0.067655001   0.06723348            5 
 3277000   0.72196058   -2.8331386    2658.5285   0.06760575  0.067220877            4 
 3278000   0.72881652   -2.8196215    2657.8242  0.067567221  0.067208302            5 
 3279000   0.71813323   -2.8132647    2659.7655  0.067595953  0.067195713            8 
 3280000   0.73013904   -2.8143355    2661.7602  0.067626021  0.067183043            5 
 3281000   0.73329486   -2.7981606    2669.0854  0.067791461  0.067170459            5 
 3282000   0.74698117   -2.8249063    2657.7675  0.067483433   0.06715791            7 
 3283000   0.74001596   -2.8360586    2663.8065  0.067616167  0.067145307            3 
 3284000   0.72997561    -2.815268    2663.3222  0.067583287  0.067132841            4 
 3285000   0.71149376   -2.8375868    2661.1972  0.067508807  0.067120215            9 
 3286000   0.72660519   -2.8445722    2664.4073  0.067569671  0.067107363            3 
 3287000   0.73662306   -2.8183144     2660.816  0.067458067  0.067094584            3 
 3288000   0.72143422    -2.821265    2665.3624  0.067552778  0.067081968            3 
 3289000   0.72497582   -2.8087423    2655.3469  0.067278477   0.06706925            2 
 3290000    0.7411817   -2.8172116    2667.0301  0.067553954  0.067056463            4 
 3291000   0.72648906   -2.8455384    2668.3796    0.0675676  0.067043721            4 
 3292000   0.72544843   -2.8330242    2662.6768  0.067402712  0.067031062            3 
 3293000   0.72266443   -2.8319708    2655.8011  0.067208248  0.067018378            8 
 3294000    0.7269165   -2.8130217    2664.1223  0.067398359  0.067005696            6 
 3295000   0.72320452    -2.828232    2665.0593  0.067401602  0.066993118            4 
 3296000   0.71284769   -2.8143399    2659.8207  0.067248704  0.066980537            5 
 3297000   0.71386954   -2.8413911     2657.153  0.067160879   0.06696779            2 
 3298000   0.72699685   -2.8287842    2657.5216  0.067149829  0.066955222            4 
 3299000   0.72826862   -2.8214372    2659.5196  0.067179943  0.066942563            6 
 3300000    0.7172053   -2.8557709    2664.8558  0.067294339  0.066929965            4 
 3301000   0.71709855   -2.8331566    2661.3708  0.067185974  0.066917306            5 
 3302000   0.70442245   -2.8528934    2663.2516  0.067213094  0.066904452            3 
 3303000   0.73233799   -2.8233038     2666.407  0.067272354  0.066891678            4 
 3304000     0.737397   -2.7969125    2669.8599  0.067339081   0.06687912            8 
 3305000   0.71943141   -2.8154269    2659.3428  0.067053524  0.066866576            3 
 3306000   0.72375217   -2.8305645    2663.2288  0.067131195  0.066853891            3 
 3307000   0.71662918   -2.8270382    2662.6719  0.067096863  0.066841117            3 
 3308000   0.71887704   -2.8313061    2663.7565  0.067103902   0.06682837            6 
 3309000    0.7123449   -2.8260693    2666.7546  0.067159127  0.066815746            5 
 3310000   0.74189911   -2.8351445    2667.6606  0.067161648  0.066803055            8 
 3311000   0.72114369    -2.809316    2678.4271   0.06741234  0.066790405            5 
 3312000   0.72411598   -2.8097341     2675.383  0.067315394  0.066777755            6 
 3313000   0.72832341   -2.8445042    2673.5575  0.067249156  0.066765276            8 
 3314000   0.73713041   -2.8523486     2665.323  0.067021802  0.066752594            4 
 3315000   0.73647283   -2.8387007    2670.7329   0.06713758  0.066739835            5 
 3316000   0.71873693   -2.8373337    2671.0871  0.067126233  0.066727205            6 
 3317000   0.72773795   -2.8390046    2670.1347  0.067082069  0.066714473            4 
 3318000   0.72289515   -2.8239134    2672.7995  0.067128781  0.066701849            2 
 3319000   0.71941489     -2.82929    2671.2344  0.067069259  0.066689202            4 
 3320000   0.72565003   -2.8190337    2676.2016  0.067173735  0.066676692            4 
 3321000    0.7069742   -2.8331637    2665.4401  0.066883472  0.066664104            6 
 3322000   0.72733521   -2.8194567    2664.9562  0.066851198  0.066651444            6 
 3323000   0.73107548   -2.8477976     2667.553  0.066896203  0.066638857            5 
 3324000   0.71957754   -2.8475883    2671.6428  0.066978611  0.066626269            7 
 3325000   0.71745268   -2.8286862    2678.7599   0.06713684   0.06661373            5 
 3326000   0.70477822   -2.8386953    2678.2313  0.067103409  0.066601136            4 
 3327000   0.72747036    -2.803166    2676.9794  0.067051883  0.066588635            3 
 3328000   0.72409545   -2.8526508     2674.463  0.066968725  0.066576072            5 
 3329000   0.71810557   -2.8360073    2671.5737  0.066876282  0.066563418            7 
 3330000   0.72400502   -2.8550633    2667.8651  0.066763392  0.066550838            4 
 3331000   0.73633106   -2.8218295    2664.5036  0.066659251  0.066538126            2 
 3332000   0.71301811   -2.8483942    2682.4384  0.067087794   0.06652557            8 
 3333000   0.73200298   -2.8284934    2679.1594  0.066985683  0.066513003            3 
 3334000   0.71372506   -2.8201576    2691.9487   0.06728526  0.066500538            3 
 3335000   0.73918112   -2.8392319    2676.1067  0.066869234  0.066488076            4 
 3336000   0.72215819    -2.843721    2675.6434  0.066837616   0.06647548            4 
 3337000     0.723143   -2.8533376    2680.8477  0.066947551  0.066462832            3 
 3338000   0.72229055   -2.8170714    2677.4366  0.066842336   0.06645022            3 
 3339000    0.7066336   -2.8091592     2674.921  0.066759534  0.066437628            8 
 3340000   0.71144692    -2.823706    2678.5183  0.066829298  0.066425085            3 
 3341000   0.71810336   -2.8397814    2687.3521  0.067029636  0.066412719            4 
 3342000   0.70804907    -2.842837    2678.6891  0.066793564  0.066400193            5 
 3343000   0.72395293   -2.8172415    2689.5285  0.067043786  0.066387703            2 
 3344000   0.72234118   -2.8324132    2686.7869  0.066955416  0.066375196            7 
 3345000   0.72001276   -2.8356732    2671.0484  0.066543309  0.066362632            8 
 3346000   0.70887623   -2.8216445    2679.3542   0.06673028  0.066350079            4 
 3347000   0.73338132   -2.8412982    2684.7868  0.066845602  0.066337615            6 
 3348000   0.70845465   -2.8522444    2676.5896  0.066621604  0.066325007            6 
 3349000   0.70114542   -2.8486039    2687.5329  0.066874016  0.066312388            3 
 3350000   0.72308964   -2.8440552    2686.1577  0.066819844  0.066299846            6 
 3351000   0.73480142    -2.849977    2685.0656  0.066772743  0.066287302           11 
 3352000   0.70729312   -2.8503833    2685.2255    0.0667568  0.066274756            4 
 3353000   0.73618806   -2.8480157    2681.4415  0.066642846    0.0662623            8 
 3354000   0.70812784   -2.8557902     2693.252  0.066916418  0.066249828            9 
 3355000   0.71338248   -2.8756792    2681.3973  0.066602019   0.06623739            6 
 3356000   0.72352106   -2.8422491    2683.3042  0.066629523   0.06622482            5 
 3357000   0.71265797   -2.8516145    2681.8059  0.066572484   0.06621241            5 
 3358000   0.71613175   -2.8431845    2691.8466   0.06680183  0.066199939            5 
 3359000   0.70511596    -2.851031    2693.6361  0.066826339  0.066187458            4 
 3360000   0.71185107   -2.8249518    2681.0247  0.066493667  0.066175146            3 
 3361000   0.71725461   -2.8374317    2684.3975   0.06655751  0.066162698            3 
 3362000   0.71948819   -2.8427866    2687.6096  0.066617331  0.066150314            6 
 3363000    0.7162422   -2.8521033    2695.5667  0.066794696  0.066137961            6 
 3364000   0.71410363    -2.823376     2683.638  0.066479339  0.066125635            5 
 3365000   0.71226568   -2.8588176    2683.8353   0.06646447  0.066113284            2 
 3366000   0.71529629   -2.8321111    2683.2434   0.06643007  0.066100913            7 
 3367000   0.71605786   -2.8331347    2700.8192  0.066845341  0.066088606            4 
 3368000   0.71126418   -2.8372387      2685.74  0.066452396  0.066076235           10 
 3369000   0.72414924    -2.846991     2693.724  0.066630157  0.066063894            4 
 3370000   0.69906581   -2.8549375    2691.8876  0.066564976  0.066051472            5 
 3371000   0.69605834   -2.8432134    2679.4938  0.066238846  0.066039106            5 
 3372000   0.70876686    -2.841524     2698.998  0.066701215  0.066026695            3 
 3373000   0.71729933   -2.8267847    2702.5657  0.066769585   0.06601444            2 
 3374000   0.72334426   -2.8472102    2699.5446  0.066675177  0.066002186            8 
 3375000   0.70643508   -2.8648782    2691.8063  0.066464353  0.065989964            6 
 3376000   0.72073899   -2.8364442    2706.5073  0.066807546  0.065977679            3 
 3377000    0.7164611   -2.8573819     2706.935  0.066798318  0.065965301            3 
 3378000   0.71193927   -2.8382429    2696.6803  0.066525566  0.065953022            3 
 3379000   0.71905662   -2.8487002    2696.6903  0.066506124   0.06594085            9 
 3380000   0.70812953   -2.8390985    2697.1605  0.066498039  0.065928663            3 
 3381000   0.70141847   -2.8457799    2696.5577  0.066463514  0.065916499            5 
 3382000   0.71133346   -2.8243925    2710.2122  0.066780313   0.06590431            2 
 3383000   0.71250182   -2.8418455    2695.9812   0.06641002  0.065892109            5 
 3384000    0.7188114    -2.872485    2697.6898  0.066432471  0.065879762            5 
 3385000   0.70289837   -2.8653828    2700.9049  0.066491995  0.065867434            7 
 3386000   0.70960559   -2.8489574    2700.8726  0.066471564  0.065855047            6 
 3387000   0.71078573   -2.8159005     2703.465  0.066515722  0.065842797            5 
 3388000   0.70751899   -2.8485495    2696.0359  0.066313358  0.065830502            5 
 3389000   0.70904942   -2.8412129    2698.4689  0.066353618  0.065818202            3 
 3390000   0.71925817   -2.8593901    2690.4795  0.066137648  0.065805862            3 
 3391000   0.71017269     -2.85541    2695.3664   0.06623824  0.065793472            3 
 3392000    0.6922183   -2.8586472    2705.6372   0.06647104  0.065780997            8 
 3393000    0.7209041   -2.8489164    2695.6213  0.066205454  0.065768588            4 
 3394000   0.72035813   -2.8571309     2705.395  0.066425924  0.065756249            6 
 3395000   0.72234014   -2.8612439    2701.3493  0.066307051  0.065743761            7 
 3396000   0.72378481   -2.8429573    2700.1231  0.066257439  0.065731344            4 
 3397000   0.69511777    -2.855033     2696.254  0.066143018  0.065718897           10 
 3398000   0.71639634   -2.8526565    2703.0824  0.066291014  0.065706378            3 
 3399000   0.71700146   -2.8322409    2703.2024  0.066274454  0.065693879            5 
 3400000   0.71050351   -2.8405316    2702.5457  0.066238865  0.065681532            5 
 3401000   0.70631529   -2.8495382    2702.5905  0.066220487  0.065669059            5 
 3402000   0.71198045   -2.8432657    2698.0078  0.066088766  0.065656645            3 
 3403000   0.70738735   -2.8497045    2700.2776  0.066124928  0.065644327            3 
 3404000   0.70334178   -2.8487738    2700.2539  0.066104923  0.065631974            5 
 3405000   0.70721484   -2.8491618    2706.3698  0.066235189  0.065619715            8 
 3406000   0.71386353   -2.8732157    2702.5929  0.066123334  0.065607406            7 
 3407000   0.71981583   -2.8516642    2701.4637  0.066076307  0.065595115            5 
 3408000   0.71847951   -2.8464584    2702.9103  0.066092289  0.065582751            5 
 3409000   0.70212484    -2.853355    2707.9838  0.066196925  0.065570497            4 
 3410000   0.70903623   -2.8486886    2710.6395  0.066242413  0.065558272            4 
 3411000   0.70294686    -2.820601    2698.9132   0.06593651  0.065546018            3 
 3412000   0.70001953   -2.8466236    2709.4774  0.066175199  0.065533712            2 
 3413000   0.70950027    -2.867525    2705.5282  0.066059386  0.065521283            6 
 3414000   0.71375639   -2.8644855    2703.1909  0.065982983  0.065508953            5 
 3415000    0.7147596   -2.8616338    2706.5903  0.066046614  0.065496679            6 
 3416000   0.70411207   -2.8466296    2709.1644  0.066090075  0.065484502            4 
 3417000   0.72797302   -2.8691092     2708.855  0.066063189  0.065472215            7 
 3418000    0.6912653   -2.8739081    2696.7668  0.065749143  0.065459831           10 
 3419000    0.7065789   -2.8496121    2698.8124   0.06577977  0.065447413            4 
 3420000   0.70967604   -2.8707077    2696.7446  0.065710152  0.065434938            5 
 3421000   0.69774161   -2.8706686    2702.8694  0.065840139  0.065422433            7 
 3422000   0.70999774   -2.8756676    2707.9867  0.065945517  0.065409926            5 
 3423000    0.7038398   -2.8405866      2707.45  0.065913185  0.065397464            2 
 3424000   0.69450539   -2.8415414    2701.9612  0.065760349  0.065385129           10 
 3425000   0.70499208    -2.857023    2707.0856  0.065865829  0.065372811            3 
 3426000   0.70787368   -2.8518788    2706.9929   0.06584435  0.065360514            5 
 3427000   0.70884879   -2.8631432    2709.9175  0.065896252  0.065348106            5 
 3428000    0.7300131   -2.8683207     2705.704  0.065774601  0.065335775            5 
 3429000   0.69036486   -2.8523546      2701.62  0.065656169  0.065323463           10 
 3430000   0.71386666   -2.8553794    2709.7278  0.065834009  0.065311087            5 
 3431000   0.69398733   -2.8605456    2703.7505  0.065669642  0.065298604            9 
 3432000   0.69538267   -2.8728139    2702.1808  0.065612393  0.065286153            2 
 3433000   0.69848729   -2.8636539    2709.2292  0.065764375  0.065273758            4 
 3434000   0.70345778   -2.8836465    2706.4507  0.065677799  0.065261358            5 
 3435000   0.69118963   -2.8603802    2711.1704  0.065773178  0.065248935            4 
 3436000   0.70363001   -2.8535373     2713.107  0.065801003  0.065236545            4 
 3437000   0.69769373   -2.8987872    2707.1078  0.065636403  0.065224014            6 
 3438000   0.69877323   -2.8640141    2705.9522  0.065589301   0.06521154            3 
 3439000   0.70423216   -2.8888676    2703.4685  0.065510044  0.065199047            3 
 3440000   0.69205319   -2.8651826    2706.6082  0.065567058  0.065186548            4 
 3441000   0.70774514   -2.8609563     2709.176  0.065610191  0.065174139            3 
 3442000   0.71626566   -2.8716662    2705.7009  0.065506994   0.06516171            3 
 3443000   0.71573108   -2.8710338     2709.536  0.065580793  0.065149261            2 
 3444000   0.70739278   -2.8749816    2704.2501  0.065433849  0.065136869            6 
 3445000   0.68438192   -2.8716683    2714.4752  0.065662197   0.06512441            3 
 3446000   0.71349366      -2.8289    2717.9744  0.065727763     0.065112           12 
 3447000   0.71066176   -2.8555039    2716.1297  0.065664096  0.065099576            4 
 3448000   0.69916694   -2.8680708    2709.9512  0.065495727  0.065087085            6 
 3449000   0.69525278   -2.8752892    2713.1233  0.065553381   0.06507459            4 
 3450000   0.69398812   -2.8578415    2707.5603  0.065400007   0.06506207            6 
 3451000   0.71375235   -2.8538613    2714.9213  0.065558807  0.065049542            7 
 3452000   0.70594327   -2.8514187    2708.8356  0.065392903  0.065037096            3 
 3453000   0.69767873   -2.8825769    2713.7774  0.065493229  0.065024546            7 
 3454000   0.69754951   -2.8511889     2710.317  0.065390779  0.065012103            6 
 3455000   0.69901952   -2.8652127    2716.5794  0.065522899  0.064999635            6 
 3456000   0.70156285   -2.8405548    2709.4791  0.065332732  0.064987106            4 
 3457000      0.68181   -2.8621841    2710.6589  0.065342274  0.064974587            3 
 3458000   0.70362782   -2.8764105    2711.5391   0.06534459  0.064961928            5 
 3459000   0.69122039   -2.8659907     2716.263  0.065439506  0.064949492            8 
 3460000   0.70712296   -2.8505135    2719.4029  0.065496217  0.064937013            3 
 3461000   0.68964255   -2.8789325    2709.6023  0.065241314  0.064924594            9 
 3462000   0.69741973   -2.8558015    2719.3305  0.065456637  0.064912181            6 
 3463000   0.70766972   -2.8939068    2709.9969  0.065213133  0.064899636            7 
 3464000    0.7074922   -2.8642977    2711.8302   0.06523841  0.064887157            6 
 3465000   0.70377644   -2.8360871    2728.1452  0.065611957  0.064874779            2 
 3466000   0.69953415   -2.8560478    2719.9238   0.06539536  0.064862338            4 
 3467000   0.69296628   -2.8622681    2715.6061  0.065272717  0.064849867            8 
 3468000   0.70064365   -2.8571705    2718.5013  0.065323464  0.064837351            7 
 3469000    0.6896223   -2.8577938    2715.1804  0.065224858  0.064824836            6 
 3470000   0.69707626   -2.8796422    2715.2947  0.065208806   0.06481224            5 
 3471000   0.69588596    -2.878499    2720.2473  0.065308923  0.064799771            8 
 3472000   0.68711671    -2.845334    2721.9311  0.065330529  0.064787223            5 
 3473000   0.69886313   -2.8645516    2710.5384  0.065038354  0.064774716            4 
 3474000   0.70470712   -2.8609515    2717.3091  0.065182044  0.064762129            3 
 3475000    0.6845414   -2.8553972    2716.2538  0.065137982  0.064749515            3 
 3476000   0.70556846   -2.8582327    2719.5881  0.065199179  0.064737074            4 
 3477000   0.70235737   -2.8731836    2716.8368  0.065114486  0.064724552            3 
 3478000   0.68098614   -2.8734629    2719.5647  0.065161125  0.064712044            3 
 3479000   0.70661445   -2.8764121     2725.231   0.06527812  0.064699497            2 
 3480000   0.69167361   -2.8502396    2722.4151  0.065191932  0.064686945            6 
 3481000    0.6856404   -2.8708653    2718.8511  0.065087885  0.064674474            6 
 3482000   0.68702988   -2.8670329    2718.7395   0.06506652  0.064661976            7 
 3483000    0.6802831   -2.8684139    2721.2247    0.0651073  0.064649667            4 
 3484000   0.69012673   -2.8777009    2714.4118  0.064925656  0.064637179            6 
 3485000   0.70000838   -2.8732962    2725.5408  0.065173142  0.064624768           10 
 3486000   0.69411044   -2.8754158    2722.5452  0.065082836  0.064612334            4 
 3487000   0.69173708   -2.8830521    2726.3406  0.065154876  0.064599893            4 
 3488000   0.71209494   -2.8888824    2723.4917  0.065068131  0.064587416            4 
 3489000   0.68681221   -2.8874988    2725.8963  0.065106915  0.064574836            8 
 3490000   0.69287512    -2.855535    2722.9523  0.065017964  0.064562208            2 
 3491000   0.69357483   -2.8548738    2721.7572  0.064970812  0.064549663            3 
 3492000   0.69468354   -2.8862438     2714.603  0.064781477  0.064537209            5 
 3493000   0.70205761   -2.8811928    2726.5664  0.065048344  0.064524682            6 
 3494000   0.70243344    -2.858224    2724.3318  0.064976431  0.064512237            6 
 3495000    0.6799963   -2.8647347    2724.5264  0.064962481  0.064499837            3 
 3496000   0.69255023   -2.8981381    2730.4941  0.065086148  0.064487416           14 
 3497000   0.69452707   -2.8636306    2727.2806  0.064990959   0.06447487            7 
 3498000   0.70461917   -2.8656069    2723.7958  0.064889361  0.064462347            5 
 3499000   0.68805279   -2.8549964    2728.1043  0.064973429  0.064449971            8 
 3500000   0.69461557   -2.8673315    2716.8299  0.064686427  0.064437539           10 
 3501000   0.71123257   -2.8799969    2726.4309  0.064896479  0.064425112            8 
 3502000   0.68942553   -2.8686405    2724.6147   0.06483473  0.064412586            8 
 3503000   0.69418769   -2.8643967    2719.6132   0.06469724  0.064400039            5 
 3504000   0.69238594   -2.8895172    2724.4509  0.064793828  0.064387406            7 
 3505000   0.69277145   -2.8858223     2722.648  0.064732478  0.064374886            7 
 3506000    0.6913741    -2.870724     2728.102  0.064843648  0.064362461            5 
 3507000   0.69574735   -2.8732313    2730.2763  0.064876824  0.064349891            7 
 3508000   0.68155488   -2.8782015    2726.5246  0.064769209  0.064337406            6 
 3509000   0.69909624   -2.8810819    2725.2948  0.064721546  0.064324891            4 
 3510000   0.69531648   -2.8597803    2721.2849  0.064607904   0.06431235           13 
 3511000   0.70484867   -2.8891136    2731.4587  0.064830976  0.064299905            8 
 3512000   0.69763669   -2.9032637    2720.1491   0.06454416  0.064287437            4 
 3513000   0.69250654    -2.866999    2722.0727  0.064571417  0.064274787            5 
 3514000    0.6970162   -2.8707817    2718.2579  0.064462576  0.064262032            3 
 3515000   0.67833499   -2.8839571    2732.4606  0.064780952  0.064249512           10 
 3516000   0.68629978   -2.8731588    2725.5128  0.064597857  0.064236937            8 
 3517000   0.70029259   -2.9048337    2730.3074  0.064693095  0.064224299           15 
 3518000    0.6963423   -2.8704511    2728.0801  0.064621947  0.064211672            7 
 3519000   0.69686533   -2.8739247    2725.3903  0.064539886  0.064199022            3 
 3520000   0.67384304   -2.8742018    2732.2999  0.064685131  0.064186375            3 
 3521000   0.69657141   -2.8600244     2723.118  0.064449446  0.064173804            4 
 3522000   0.68248825     -2.88228    2733.7034  0.064681607  0.064161262            4 
 3523000    0.7002524   -2.9329673     2730.369  0.064584374  0.064148707            3 
 3524000   0.68072559   -2.8824988    2724.0532  0.064416696  0.064136061            6 
 3525000   0.69282395   -2.8810204    2735.4415  0.064667647  0.064123388            3 
 3526000   0.70244806   -2.8606112    2733.6042  0.064605886   0.06411081            3 
 3527000   0.67967581   -2.8862488     2727.362  0.064440081  0.064098211            3 
 3528000   0.69501354   -2.8810092     2735.801  0.064621149  0.064085572            6 
 3529000    0.7067085   -2.9021152    2720.0181  0.064230144  0.064072895            7 
 3530000   0.68192947   -2.8670665    2731.4639   0.06448215  0.064060221            9 
 3531000     0.684702   -2.8678414    2725.6374  0.064326382  0.064047606            3 
 3532000   0.68690686   -2.8685796    2732.6722  0.064474145  0.064034881           10 
 3533000   0.68854362   -2.8804945     2723.741  0.064245235  0.064022217            6 
 3534000   0.68488776   -2.8747361    2724.4593  0.064243994  0.064009557           11 
 3535000   0.69262831    -2.878645    2728.7462  0.064326879  0.063996973            4 
 3536000   0.67957819   -2.8904659    2728.3805  0.064300068  0.063984311            4 
 3537000     0.698243   -2.8775496    2728.0052  0.064273046  0.063971661            2 
 3538000   0.68385339   -2.8781433    2729.6528  0.064293689  0.063959058            3 
 3539000   0.68213312   -2.8740079    2739.0353  0.064496452  0.063946465            6 
 3540000   0.68764368   -2.8838616    2726.9997  0.064194908  0.063933876            6 
 3541000   0.68355524   -2.8750571      2735.18  0.064369294  0.063921329            3 
 3542000   0.70516559    -2.891601    2730.9481  0.064251554  0.063908798            8 
 3543000   0.70519165   -2.8841961    2735.2142  0.064333761  0.063896204            3 
 3544000    0.7007977   -2.8754629    2728.0314  0.064146713  0.063883559            6 
 3545000   0.67295394   -2.8879657    2732.5629  0.064235141  0.063871024            7 
 3546000   0.65664182    -2.903186    2728.6818  0.064125819  0.063858518            2 
 3547000   0.67763018   -2.8944565    2731.4423  0.064172595  0.063845892            6 
 3548000   0.67088974   -2.8824948    2730.8476   0.06414054  0.063833327            8 
 3549000   0.67802312   -2.8862148    2739.4095  0.064323507  0.063820808           10 
 3550000   0.68235876   -2.8819994    2734.4587   0.06418917  0.063808194            4 
 3551000   0.68820365   -2.8893226    2731.3686  0.064098578  0.063795608            3 
 3552000   0.67662979   -2.8719013    2737.5246  0.064224957  0.063783076            6 
 3553000   0.68616822   -2.8815538    2739.1377  0.064244716  0.063770499            6 
 3554000   0.68637861   -2.8838296    2729.3336  0.063996755  0.063757873            4 
 3555000   0.67399707   -2.8741075    2739.8396  0.064225027   0.06374533            4 
 3556000   0.67892251   -2.8858474    2732.7976  0.064041937  0.063732751            6 
 3557000   0.69174383   -2.8843763    2744.1327  0.064289493  0.063720297            5 
 3558000   0.68782669   -2.8879835    2743.0681   0.06424649  0.063707671            2 
 3559000   0.67777881   -2.8810568    2739.8258  0.064152521  0.063695061            6 
 3560000   0.66986459   -2.8728772    2737.1613  0.064072128  0.063682445            5 
 3561000   0.68227992    -2.847591    2738.3593  0.064082171  0.063669914            3 
 3562000   0.68183384   -2.8999982    2739.3959  0.064088431  0.063657404            4 
 3563000   0.68972074   -2.8855171    2736.4791  0.064002224  0.063644874            5 
 3564000   0.68813012   -2.8909867    2732.6325  0.063894326   0.06363234            6 
 3565000   0.69025551   -2.8695837    2744.4387  0.064152377  0.063619774            4 
 3566000    0.6740836   -2.9171184    2735.5306  0.063926214  0.063607322            5 
 3567000   0.68724061   -2.8920157    2745.8436  0.064149229  0.063594689            3 
 3568000   0.68700094   -2.8719197    2751.2515  0.064257555  0.063582257            3 
 3569000   0.68054752   -2.8999284    2740.9731  0.063999559  0.063569777            3 
 3570000   0.66034783   -2.8884234    2747.9954  0.064145551   0.06355723            6 
 3571000   0.69603857   -2.8936609    2730.2853  0.063714303  0.063544679            6 
 3572000   0.68284058   -2.8892689    2741.7351  0.063963584  0.063532163            7 
 3573000    0.6754902   -2.8839387    2732.4617  0.063729398  0.063519488            7 
 3574000   0.67089323   -2.9052645    2738.0003  0.063840708  0.063506911            7 
 3575000   0.67459033   -2.8964583    2746.8988  0.064030276  0.063494419            2 
 3576000    0.6849717   -2.9083622    2734.9811  0.063734646  0.063481783            5 
 3577000   0.67805962   -2.8977701    2736.3628  0.063749016  0.063469151            5 
 3578000    0.6938797   -2.9139281    2741.7299  0.063856202  0.063456515           10 
 3579000   0.66798878   -2.8964819    2743.2855   0.06387458   0.06344386           12 
 3580000   0.66690011   -2.8818551    2740.9421  0.063802191  0.063431233            3 
 3581000   0.67954336   -2.9121802    2743.6841  0.063848181  0.063418645            4 
 3582000   0.68568838   -2.8897502    2736.8877  0.063672243  0.063406039            4 
 3583000   0.67421573   -2.8980441    2744.7636  0.063837651  0.063393308            5 
 3584000   0.68349085    -2.908068    2735.9176  0.063614156   0.06338063            7 
 3585000   0.67346393   -2.8855064    2754.0139   0.06401706  0.063367979            3 
 3586000   0.69585199   -2.9067657    2739.0701  0.063651935   0.06335535            9 
 3587000    0.6886337   -2.9038677    2746.1417  0.063798478   0.06334274            6 
 3588000   0.68260599   -2.8769835    2746.0376   0.06377828  0.063330204           11 
 3589000   0.67788774   -2.8907589    2738.8066  0.063592613  0.063317712            6 
 3590000   0.68375243   -2.8901318    2748.9408  0.063810139  0.063305144            4 
 3591000   0.69066539   -2.8735085    2749.7451  0.063811034  0.063292515            3 
 3592000   0.68091483   -2.9002081    2740.8624  0.063587194  0.063280031            7 
 3593000   0.66740675   -2.8962993    2744.8443  0.063661849  0.063267485            2 
 3594000   0.68313968   -2.8930698    2747.7202  0.063710819  0.063254874            4 
 3595000   0.67019972   -2.8989094    2743.2801  0.063590173  0.063242321            3 
 3596000   0.68903121   -2.9014732    2748.0888  0.063683926  0.063229783            6 
 3597000   0.67255788    -2.901482    2744.0432  0.063572497   0.06321721            3 
 3598000   0.67523538   -2.8772987     2749.373  0.063678271  0.063204742            8 
 3599000   0.68394594    -2.902595    2742.9432  0.063511698  0.063192105            6 
 3600000   0.69235593   -2.8790399    2751.3616  0.063688927  0.063179516            6 
 3601000   0.67920838   -2.8963887    2756.2505  0.063784376  0.063166928           13 
 3602000   0.67220528   -2.9007771    2740.5162  0.063402651  0.063154291            6 
 3603000    0.6810648   -2.9052936    2745.4274  0.063498644  0.063141667            3 
 3604000   0.67707528   -2.9067949    2740.1494  0.063358986  0.063129108            4 
 3605000   0.66805326   -2.8943716    2751.8116  0.063610995  0.063116518            3 
 3606000   0.66580432   -2.9020307    2740.5592  0.063333315  0.063103887            6 
 3607000   0.68036707   -2.8951524    2741.4035  0.063335262  0.063091241            6 
 3608000   0.66224056   -2.8961635    2748.6224  0.063484443  0.063078676            6 
 3609000   0.65805107   -2.8811779     2750.984  0.063521381  0.063066046            9 
 3610000   0.66904738   -2.9027328    2744.5327  0.063354863   0.06305339            7 
 3611000   0.68371912   -2.9040326    2739.6913  0.063225591   0.06304072            6 
 3612000   0.65761275   -2.9036181    2752.3255  0.063499574  0.063028104            5 
 3613000   0.69054216   -2.9073796    2752.4132   0.06348402  0.063015619            6 
 3614000   0.67254526   -2.8963796    2755.0969  0.063528337  0.063003051           11 
 3615000   0.68893721   -2.8986622    2746.3522  0.063309178  0.062990548            4 
 3616000   0.67908442    -2.890434    2755.8653  0.063510908   0.06297809            3 
 3617000   0.69044046    -2.888628    2753.8552  0.063447038  0.062965608            4 
 3618000   0.66431453   -2.8965892     2749.279  0.063324097  0.062953186            7 
 3619000   0.65936154   -2.8911123     2750.733  0.063340081  0.062940681            3 
 3620000   0.68112373   -2.8989681    2750.6964  0.063321741  0.062928177            3 
 3621000   0.67301205   -2.8868275    2755.0407  0.063404232  0.062915695            4 
 3622000    0.6786879   -2.9001847    2745.8392  0.063175023  0.062903264            8 
 3623000   0.66801922   -2.9024955    2752.9883  0.063322024   0.06289083            4 
 3624000   0.66930104   -2.9131808    2750.8069  0.063254389  0.062878387            7 
 3625000   0.68509055   -2.8974384    2753.9675  0.063309597  0.062865923            8 
 3626000   0.66118824   -2.9058935     2749.502   0.06318951  0.062853468            5 
 3627000   0.67301931   -2.9067389    2752.5602  0.063242353  0.062840915            6 
 3628000   0.67452266   -2.9130957    2760.5238  0.063407841  0.062828497            5 
 3629000   0.67123349   -2.8746435    2757.4527  0.063319846  0.062816027           14 
 3630000   0.65877846   -2.9081488    2757.7596  0.063309449  0.062803583            6 
 3631000   0.66672853   -2.8868752    2760.8728  0.063363463  0.062791141            8 
 3632000   0.67004203   -2.8853908    2752.2893  0.063149076  0.062778776            8 
 3633000   0.65835631   -2.9075394    2754.6047  0.063184803  0.062766342            7 
 3634000   0.67274899   -2.9176085     2748.723  0.063032539  0.062753869            2 
 3635000   0.66538714   -2.9119715    2765.5378  0.063400684  0.062741483            4 
 3636000   0.66931508    -2.892681    2755.7499  0.063158919  0.062729136            3 
 3637000   0.65977503   -2.9004076    2755.4211   0.06313402  0.062716748            9 
 3638000   0.67214218   -2.8977095    2754.9167   0.06310511  0.062704299            5 
 3639000   0.66748115   -2.8831149    2760.4357  0.063214155   0.06269196            6 
 3640000   0.66385089   -2.8865257    2761.6918  0.063225546  0.062679576            5 
 3641000   0.66517386   -2.9282144    2760.8668  0.063189298   0.06266721            4 
 3642000   0.67479214    -2.938739    2757.3235  0.063090872  0.062654677            6 
 3643000   0.65681324   -2.9031293    2756.8153  0.063061929  0.062642313            5 
 3644000   0.66373551   -2.9076205     2765.692  0.063247622  0.062629948            6 
 3645000   0.66625127    -2.894958    2757.0099  0.063031777  0.062617538            4 
 3646000   0.66524084   -2.9186264    2762.3121  0.063135676  0.062605194            9 
 3647000    0.6668451   -2.9274404    2758.4901  0.063031033   0.06259281            4 
 3648000   0.66200833   -2.9110926    2763.4538  0.063127143  0.062580398            4 
 3649000   0.67407343   -2.8947704     2770.592   0.06327286  0.062568062            4 
 3650000   0.67511524     -2.93686    2769.9029  0.063239793  0.062555732            6 
 3651000   0.67888641   -2.8766959     2773.009  0.063293367  0.062543368            5 
 3652000   0.67797219   -2.9179335    2763.1018  0.063049968  0.062530987            5 
 3653000   0.67896339   -2.8952808    2767.6383  0.063136196  0.062518672            3 
 3654000   0.66762995   -2.9195312    2763.4267  0.063022867  0.062506363            5 
 3655000   0.67050009   -2.8995096    2765.1424  0.063044742   0.06249399            7 
 3656000   0.67916036   -2.9284138    2764.6241  0.063015684  0.062481668            7 
 3657000   0.64651851   -2.9118594    2761.2436  0.062921421  0.062469241            4 
 3658000   0.66938107   -2.9017072    2760.1615  0.062879568  0.062456965            7 
 3659000   0.67036109   -2.9012349    2759.9916  0.062858513   0.06244448            6 
 3660000   0.65880555    -2.934802    2754.9405  0.062726331     0.062432           12 
 3661000   0.66804451   -2.9030689    2763.3373  0.062900331   0.06241962            5 
 3662000   0.65930178   -2.9176232    2766.8342   0.06296273  0.062407185            8 
 3663000    0.6689846   -2.8955399    2756.7899  0.062717034  0.062394672            8 
 3664000   0.66856479   -2.9192168     2765.392   0.06289556  0.062382126           10 
 3665000   0.66337384   -2.9284113    2761.0886  0.062780551  0.062369622            8 
 3666000   0.67130117   -2.8897908    2760.1945  0.062743102  0.062357152            6 
 3667000   0.66261577   -2.9180497    2761.4242  0.062753936  0.062344592            5 
 3668000   0.66236785   -2.9190047    2759.0202  0.062682211   0.06233208            5 
 3669000   0.67449179   -2.9150625    2765.8732  0.062820777  0.062319583            4 
 3670000    0.6683672   -2.9144189    2754.4311  0.062543848  0.062307062            6 
 3671000   0.66369327   -2.9229737    2758.4293  0.062617572  0.062294465            6 
 3672000   0.65720153    -2.906351     2769.012  0.062840685  0.062281832            6 
 3673000   0.65236064   -2.9246794    2755.5505  0.062518163  0.062269232            7 
 3674000   0.65961804   -2.9206167    2759.9424  0.062600763  0.062256728            7 
 3675000   0.66179866   -2.9281364    2758.1961  0.062544129  0.062244131            3 
 3676000    0.6699099   -2.9314071    2763.1242  0.062638834  0.062231616            4 
 3677000   0.68061654   -2.9148412     2763.743  0.062635822  0.062219086            3 
 3678000   0.65861696   -2.9179014    2760.5056  0.062545441  0.062206547            4 
 3679000   0.65037695   -2.9244309    2767.6926  0.062691234  0.062194007            4 
 3680000   0.66831515   -2.9146643    2767.9798  0.062680702  0.062181455            6 
 3681000   0.66597533   -2.9170134    2765.3435  0.062603992  0.062168976            8 
 3682000    0.6688762   -2.9214736    2763.4931   0.06254511  0.062156481            3 
 3683000   0.65931235   -2.9284308    2767.0844  0.062609385  0.062143965            4 
 3684000   0.67687979   -2.8940624    2763.3298   0.06250746   0.06213154            7 
 3685000   0.66323706   -2.9227878    2767.4786   0.06258432  0.062119095            5 
 3686000    0.6670048   -2.9180122    2766.2644  0.062539891  0.062106571            6 
 3687000   0.65510664   -2.8945849    2767.1835    0.0625437  0.062094026            7 
 3688000   0.66644721   -2.9103386    2761.3828   0.06239567  0.062081528            7 
 3689000    0.6540674   -2.9073929    2764.4152  0.062447258  0.062069043            5 
 3690000   0.65304591   -2.9268227    2762.2169  0.062380688  0.062056478            6 
 3691000   0.66245829   -2.9026594    2760.8756  0.062333505   0.06204402            7 
 3692000   0.66997768   -2.9231487    2769.0868  0.062501959  0.062031504            6 
 3693000   0.66550345   -2.8961255    2775.0502  0.062619601  0.062019022            3 
 3694000   0.66407223   -2.9208423     2771.293   0.06251789  0.062006396            3 
 3695000   0.66337535   -2.9393307    2757.5568  0.062191178    0.0619938            9 
 3696000   0.66000676   -2.9154359    2771.1599  0.062481057   0.06198123            8 
 3697000   0.66926511   -2.9142602    2769.0052   0.06241559  0.061968799            6 
 3698000     0.666046    -2.930558    2765.8282  0.062327118  0.061956317            4 
 3699000   0.66026508   -2.9196941    2766.8265  0.062332758  0.061943745            5 
 3700000   0.65579533   -2.9225093    2776.5944  0.062535909  0.061931211            8 
 3701000   0.65117381   -2.9303623    2767.7907  0.062320784  0.061918704            4 
 3702000   0.66736254    -2.933095    2765.6644  0.062256088  0.061906049            7 
 3703000   0.66603209   -2.9153315     2770.815  0.062355184  0.061893459            4 
 3704000   0.64963178   -2.9192317     2778.728  0.062516379  0.061880989            5 
 3705000   0.65102941   -2.9142003    2763.8961  0.062165903  0.061868518            4 
 3706000   0.65660331   -2.9212351    2770.7105  0.062302358   0.06185608           12 
 3707000   0.66311368   -2.9258658    2777.1369  0.062430018  0.061843621            4 
 3708000   0.66417775   -2.9402216    2770.6283  0.062266906  0.061831142           13 
 3709000   0.65873039   -2.9019486    2775.3892  0.062357086  0.061818635            7 
 3710000   0.64796837    -2.924672    2768.5981  0.062187738  0.061806178            5 
 3711000   0.64899419   -2.9301873    2778.4685  0.062392628  0.061793709            7 
 3712000   0.66890571   -2.9213495    2770.9603  0.062207262  0.061781239            3 
 3713000   0.65216728   -2.9129747    2776.9289  0.062324465  0.061768672            6 
 3714000   0.66353334   -2.9114584     2767.359  0.062092959  0.061756185            5 
 3715000   0.65002389   -2.9369767    2772.9935  0.062202637  0.061743655           13 
 3716000   0.65319706   -2.9247622    2764.0359  0.061985018  0.061731143           10 
 3717000   0.65784062   -2.9341743    2774.6849  0.062207088  0.061718659            5 
 3718000   0.65158365   -2.9306876    2781.1797  0.062335926  0.061706251            3 
 3719000   0.65423243   -2.9365664    2768.1577  0.062027375  0.061693735            6 
 3720000   0.65320743   -2.9287568    2777.4248  0.062218298  0.061681246            4 
 3721000   0.66109906   -2.9547511    2767.5272  0.061979916   0.06166884            7 
 3722000   0.66021564   -2.9323907    2765.0615  0.061908057  0.061656302            6 
 3723000   0.65693194   -2.9175909    2774.9787  0.062113409  0.061643787            5 
 3724000   0.64644132   -2.9317168     2773.731  0.062068809  0.061631323            4 
 3725000   0.64994765   -2.9312878    2770.2658  0.061974626  0.061618847            5 
 3726000    0.6488503   -2.9148098    2787.0928  0.062334335  0.061606381            5 
 3727000   0.64269312    -2.909109    2773.0578  0.062003797  0.061593998            4 
 3728000   0.65487887   -2.9227227     2782.326   0.06219434  0.061581647            6 
 3729000   0.65320956   -2.9278752    2776.9682  0.062057928  0.061569326            6 
 3730000   0.65189153   -2.9476526    2772.9513  0.061951549  0.061556919            8 
 3731000   0.65687796   -2.9248867    2784.2303  0.062186864  0.061544511           13 
 3732000   0.64869009   -2.9145342      2776.78  0.062003841  0.061532179            8 
 3733000   0.65457455   -2.9470608    2771.8277  0.061876678  0.061519898            7 
 3734000   0.64092391   -2.9238176    2788.2205  0.062225952  0.061507592           12 
 3735000   0.65391288   -2.9294527    2773.7383  0.061886174   0.06149524            5 
 3736000   0.64868833   -2.9377369    2775.2177  0.061902607  0.061482937            8 
 3737000   0.65077178   -2.9199191    2777.4018  0.061934747   0.06147058            6 
 3738000   0.65938774   -2.9363253    2776.9776  0.061908721  0.061458141           10 
 3739000   0.65988169   -2.9461791    2778.5092  0.061926298  0.061445765            3 
 3740000   0.66417683   -2.9388193    2791.2638  0.062193935  0.061433454            4 
 3741000   0.65983377   -2.9430606    2786.9524  0.062081271   0.06142111           13 
 3742000   0.66664404   -2.9309297     2783.904  0.061996793  0.061408827            4 
 3743000   0.64673848   -2.9276069    2777.7014  0.061842137  0.061396533           12 
 3744000    0.6655434   -2.9321505    2778.7395  0.061848724  0.061384216            6 
 3745000   0.66181198   -2.9450946     2775.293  0.061755518  0.061371834            7 
 3746000   0.66349871   -2.9364925    2783.1439  0.061913683  0.061359504           15 
 3747000   0.66167258   -2.9364955    2781.7912  0.061867076  0.061347153            7 
 3748000   0.64912122   -2.9370633    2777.4275  0.061753546   0.06133479            3 
 3749000   0.66038906   -2.9304892    2779.4685  0.061782441  0.061322337            4 
 3750000   0.65080124   -2.9309901    2781.4928  0.061810952  0.061310056            4 
 3751000   0.63597717   -2.9240575    2786.5957  0.061907841  0.061297617            3 
 3752000   0.64456367   -2.9220341    2778.9426  0.061721362  0.061285174            7 
 3753000   0.65566822   -2.9411164    2781.2437  0.061756011  0.061272706            7 
 3754000   0.67189023   -2.9323042    2773.6377  0.061570718  0.061260217            4 
 3755000   0.65267186   -2.9325529    2784.7404  0.061800718  0.061247707            5 
 3756000   0.64883334   -2.9369769    2773.2557  0.061529458  0.061235162            7 
 3757000   0.63385312   -2.9384109    2779.9078  0.061660628  0.061222592            5 
 3758000   0.64952773   -2.9594727    2780.8459  0.061665023  0.061209972           12 
 3759000   0.65131388   -2.9479691    2775.9594   0.06154029  0.061197399            9 
 3760000   0.67083066    -2.912622    2778.6006   0.06158246  0.061184761            7 
 3761000   0.63564689   -2.9259522    2781.1301  0.061622132  0.061172172            6 
 3762000   0.65107145   -2.9390113    2776.8582  0.061511124  0.061159572            3 
 3763000   0.64590967   -2.9327131    2777.4538  0.061507968  0.061146979            6 
 3764000   0.65439941   -2.9346133    2771.9046  0.061368771  0.061134324            7 
 3765000   0.64548481   -2.9338062    2774.6999  0.061414342  0.061121769            6 
 3766000   0.66737973   -2.9288298    2775.6383  0.061418797  0.061109206            4 
 3767000   0.64731588   -2.9276644    2773.8603  0.061363159  0.061096658            5 
 3768000   0.65145904   -2.9486755    2780.7877  0.061500083  0.061084132            7 
 3769000   0.64515803    -2.953727    2780.3152  0.061473317  0.061071625           14 
 3770000   0.64831216   -2.9406313    2782.7474  0.061510774  0.061059118            8 
 3771000   0.65611361    -2.941762    2783.5575  0.061512365   0.06104655           11 
 3772000    0.6604046   -2.9364674    2779.0052  0.061395485  0.061034117            5 
 3773000    0.6487266   -2.9178501    2788.1369  0.061580901  0.061021672            5 
 3774000   0.65205414   -2.9411273    2776.6828  0.061311667  0.061009172            7 
 3775000   0.64386248   -2.9308592    2777.9697  0.061323834  0.060996706            6 
 3776000   0.65753072   -2.9408814    2780.7597  0.061369167  0.060984196            3 
 3777000    0.6462495   -2.9329643     2785.014  0.061446782   0.06097169            5 
 3778000   0.65658387   -2.9385355    2782.0055  0.061364158  0.060959197            3 
 3779000   0.64076251   -2.9407694    2777.7527  0.061254139  0.060946693            5 
 3780000    0.6451664   -2.9323027    2777.1653  0.061224984  0.060934208            9 
 3781000   0.64227922   -2.9422017    2785.1981  0.061385835  0.060921633            9 
 3782000   0.64003694   -2.9317225    2776.4124  0.061176018  0.060909091            5 
 3783000   0.66022635   -2.9368008    2781.5382  0.061272759  0.060896471            7 
 3784000   0.64095486   -2.9383496    2784.9073  0.061330762  0.060883922            8 
 3785000   0.65495915   -2.9562179      2779.66   0.06119903   0.06087136            6 
 3786000   0.65254839   -2.9400432    2785.7513  0.061316943  0.060858743            5 
 3787000   0.64900351   -2.9373045    2783.0206  0.061240661  0.060846217           10 
 3788000   0.64701249   -2.9371772    2774.8833  0.061045479  0.060833649            8 
 3789000   0.63473415   -2.9499874    2777.0958  0.061078028  0.060821051            6 
 3790000   0.64073563   -2.9526776    2786.2742  0.061263725  0.060808427            9 
 3791000   0.64147268   -2.9583877    2778.7344  0.061081825   0.06079576            3 
 3792000   0.64588734   -2.9368039    2782.9545  0.061158458  0.060783099            7 
 3793000    0.6489159   -2.9439617    2775.4452  0.060977353   0.06077047            6 
 3794000    0.6534647   -2.9436726    2770.7145  0.060857374  0.060757798           14 
 3795000   0.64894038   -2.9216987    2784.8351  0.061151407  0.060745151            7 
 3796000   0.63626819    -2.957715    2778.5084  0.060996409  0.060732471            5 
 3797000    0.6365955     -2.92802    2790.0196  0.061232981  0.060719832            6 
 3798000   0.64309138   -2.9453461    2786.3676  0.061136729  0.060707254            5 
 3799000    0.6216495   -2.9479678    2771.9809  0.060805056  0.060694601            3 
 3800000   0.64175316   -2.9273495    2777.7145  0.060914791  0.060681942            6 
 3801000   0.63323533   -2.9370563    2785.0952  0.061060581   0.06066931            3 
 3802000   0.65696322   -2.9384564     2783.885  0.061017994  0.060656751            3 
 3803000   0.63952557   -2.9449159    2787.8722   0.06108932  0.060644204            7 
 3804000    0.6499316   -2.9342254    2788.1201  0.061078692  0.060631621            5 
 3805000   0.64616207   -2.9445496    2791.8824  0.061145037  0.060618978            5 
 3806000   0.64846584   -2.9448096    2779.0329  0.060847629  0.060606354            6 
 3807000   0.64022991    -2.936996    2785.9282  0.060982581  0.060593709           10 
 3808000   0.65322836   -2.9406535    2784.1108  0.060926794  0.060581163            3 
 3809000   0.63435812   -2.9516512    2785.6152  0.060943713  0.060568565            4 
 3810000   0.64812122   -2.9436853     2786.768  0.060952932  0.060556026           15 
 3811000   0.64518486   -2.9376195    2786.6256  0.060933823  0.060543387            7 
 3812000   0.63513781   -2.9465806    2781.7459  0.060811164    0.0605308            5 
 3813000   0.65724604   -2.9459423    2786.6692  0.060902815  0.060518187            6 
 3814000   0.63063853   -2.9705513    2784.2404  0.060833779  0.060505679            9 
 3815000   0.64231142   -2.9504371    2788.8714  0.060918992  0.060493196            6 
 3816000   0.64439095   -2.9350166    2778.4875  0.060676265  0.060480713            3 
 3817000   0.64280836   -2.9577316    2789.4692  0.060900121  0.060468095            5 
 3818000   0.64371464   -2.9526028    2792.2397  0.060944642    0.0604555            5 
 3819000    0.6431174   -2.9317384    2786.7707  0.060809345   0.06044284           11 
 3820000   0.63728338   -2.9412535    2790.5106  0.060875013  0.060430205            5 
 3821000   0.62166311   -2.9625931    2787.9169  0.060802515  0.060417572           10 
 3822000   0.63519693   -2.9501412    2786.2069  0.060749323  0.060404961            6 
 3823000   0.63833255   -2.9430466    2781.6569  0.060634251  0.060392243            4 
 3824000   0.63996353   -2.9680653    2789.0469  0.060779439  0.060379515           16 
 3825000     0.655097   -2.9706682    2790.6093  0.060797588  0.060366931            6 
 3826000   0.63384922   -2.9536141    2783.2066   0.06062046  0.060354293            6 
 3827000    0.6401532   -2.9446696    2784.2897  0.060628206  0.060341636            6 
 3828000   0.64605315   -2.9587175    2780.8756  0.060538044  0.060328889            4 
 3829000   0.64083497   -2.9570054    2783.8325  0.060586586  0.060316193            7 
 3830000   0.64240233   -2.9454562    2787.7473  0.060655946  0.060303506            3 
 3831000   0.64929732   -2.9835402    2781.5313  0.060504901   0.06029079            6 
 3832000    0.6415237   -2.9785484    2784.6571  0.060557087  0.060278049            7 
 3833000   0.63974066   -2.9448822    2782.8573  0.060502159  0.060265323            4 
 3834000   0.64138622   -2.9691807    2780.7233  0.060439996  0.060252571            5 
 3835000   0.62964125   -2.9575238    2786.0536  0.060540061  0.060239916            6 
 3836000   0.64117444   -2.9486659    2782.9388  0.060456613  0.060227193            4 
 3837000   0.64009263   -2.9532957    2778.7915  0.060350784  0.060214443           12 
 3838000   0.62757119    -2.972365    2791.5147  0.060611315   0.06020172            3 
 3839000    0.6503211   -2.9622438    2785.8525  0.060472616  0.060189138            5 
 3840000   0.64078497   -2.9718834    2774.1291  0.060202454  0.060176381           12 
 3841000    0.6364631   -2.9630858    2786.2756  0.060450309  0.060163659            8 
 3842000   0.64021972   -2.9388566    2786.0887   0.06043052  0.060151028            5 
 3843000   0.62987083   -2.9613458    2782.7135  0.060341606  0.060138367           15 
 3844000   0.63517909   -2.9633943    2785.1183  0.060378041   0.06012555            4 
 3845000   0.62680851   -2.9448548    2780.4727  0.060261653  0.060112912            3 
 3846000   0.63656673   -2.9520979     2789.855  0.060449276  0.060100266           11 
 3847000   0.63608662   -2.9714572    2791.4441  0.060467986  0.060087515            5 
 3848000   0.65561932   -2.9568952     2785.218  0.060317437  0.060074799           12 
 3849000   0.63497431   -2.9600577     2790.956  0.060425997   0.06006218            7 
 3850000   0.63971336   -2.9509375    2792.4262  0.060442124  0.060049516            4 
 3851000   0.62000275   -2.9285542    2796.3596  0.060511546   0.06003694            5 
 3852000   0.63802666   -2.9390157    2796.2996   0.06049454  0.060024422            6 
 3853000   0.62749673   -2.9625113    2780.3406  0.060133676  0.060011762            5 
 3854000   0.63753562   -2.9531632    2791.3456  0.060356028  0.059999154            6 
 3855000   0.62610871   -2.9617654    2782.3416  0.060145733  0.059986454            4 
 3856000   0.62684558   -2.9750705    2787.2025  0.060235186  0.059973792            3 
 3857000   0.63458195   -2.9606515    2782.8366   0.06012524  0.059961093            8 
 3858000   0.62774929   -2.9654089    2794.3094  0.060357469  0.059948416           14 
 3859000     0.634087   -2.9542166    2786.8739  0.060181263   0.05993576            5 
 3860000   0.63294811   -2.9700642     2794.203  0.060323899  0.059923079           17 
 3861000   0.62993996   -2.9552843    2784.8235  0.060105834  0.059910473            5 
 3862000   0.64502841   -2.9567901    2788.9057  0.060178355   0.05989783            7 
 3863000   0.62884692    -2.957112    2796.6908  0.060330718   0.05988523            9 
 3864000    0.6300878   -2.9821089    2789.0009   0.06014926  0.059872562           11 
 3865000    0.6427752   -2.9635962    2788.2745  0.060118037  0.059859962            7 
 3866000   0.63761784   -2.9561957    2786.4458  0.060063066  0.059847325            5 
 3867000   0.64988863   -2.9523024    2793.5614  0.060200875  0.059834676            8 
 3868000   0.62149945   -2.9743721    2790.3676  0.060116502  0.059822037           11 
 3869000   0.64458745   -2.9607183     2796.465  0.060232296  0.059809383           10 
 3870000     0.634592   -2.9529818    2789.6651  0.060070307  0.059796759            6 
 3871000   0.64400239   -2.9734792    2794.3972  0.060156661  0.059784177            5 
 3872000   0.61996517   -2.9462689    2795.0647  0.060155491  0.059771503           13 
 3873000   0.62905239   -2.9680007    2794.5787  0.060129501  0.059758841            4 
 3874000   0.63276788   -2.9548236    2786.0517  0.059930556  0.059746249            9 
 3875000   0.61739219   -2.9661186     2793.192  0.060068646  0.059733511           14 
 3876000   0.62855191   -2.9557199    2785.5998  0.059889917  0.059720882            6 
 3877000   0.61838475   -2.9687025    2786.3342  0.059890255  0.059708232            8 
 3878000   0.62075793   -2.9596241    2799.9523  0.060167446  0.059695553            6 
 3879000   0.64184151   -2.9780028     2788.582  0.059907666  0.059682938            9 
 3880000   0.63384826   -2.9495615     2799.388  0.060124314  0.059670317           16 
 3881000    0.6278809   -2.9766344    2803.5009  0.060197133  0.059657734            6 
 3882000   0.63453284   -2.9740076    2790.3014  0.059898278  0.059645105            4 
 3883000   0.62632266   -2.9714876    2794.9003   0.05998155  0.059632428            5 
 3884000   0.62441504   -2.9681154    2791.9745  0.059903332  0.059619777           11 
 3885000   0.63654624   -2.9585171    2792.3411  0.059895777  0.059607153            8 
 3886000   0.62316912   -2.9778288     2789.723  0.059824219  0.059594451           16 
 3887000   0.62680228   -2.9547928    2787.5651  0.059762565  0.059581736            6 
 3888000   0.63412109   -2.9819744    2788.2923  0.059762781  0.059569013            9 
 3889000      0.63307   -2.9698893    2786.9526  0.059718708  0.059556297            8 
 3890000   0.63992451   -2.9895888    2790.1779  0.059772448  0.059543731            7 
 3891000   0.64337273   -2.9728697    2795.0576  0.059861596  0.059531033            8 
 3892000   0.62710659   -2.9748483    2797.5186  0.059898908  0.059518289            5 
 3893000    0.6259513   -2.9695682    2788.3557  0.059687382  0.059505679            7 
 3894000   0.63104446   -2.9671612    2802.5814  0.059976489  0.059492979            7 
 3895000   0.62983309   -2.9684155    2792.5279  0.059745996  0.059480288           11 
 3896000   0.62798435   -2.9707372    2789.2158  0.059659818   0.05946752           12 
 3897000   0.63501083   -2.9568008    2790.8148  0.059678701  0.059454831            7 
 3898000   0.62813643   -2.9842925    2788.7988  0.059620292  0.059442197            4 
 3899000   0.62604512   -2.9519284    2792.2957  0.059679741  0.059429533            7 
 3900000   0.63284422   -2.9690234    2793.0231  0.059679981  0.059416969            5 
 3901000   0.62864437   -2.9790941    2792.1576  0.059646194  0.059404284           10 
 3902000   0.62211656   -2.9690054     2797.327  0.059741307  0.059391616            8 
 3903000   0.62999616   -2.9799377     2795.961  0.059696836  0.059378982            7 
 3904000   0.61630437   -2.9629531    2785.2153  0.059452172    0.0593664            5 
 3905000   0.62476507   -2.9880604    2799.1423   0.05973415  0.059353776            5 
 3906000   0.62413291   -2.9732205    2796.5316  0.059663159  0.059341157           14 
 3907000   0.61740487   -2.9625802     2797.389  0.059666176  0.059328502           17 
 3908000   0.62067303   -2.9871244    2792.8739  0.059554629  0.059315819            5 
 3909000   0.63513214   -2.9762181    2794.9884  0.059584472  0.059303277            8 
 3910000   0.62724039   -2.9584328    2793.2604  0.059532405  0.059290683            4 
 3911000   0.64814922   -2.9777004    2797.7965  0.059613835  0.059278101            5 
 3912000   0.63107347   -2.9576742    2804.3168  0.059737491  0.059265551            7 
 3913000   0.63634805   -2.9698861     2791.695  0.059453424  0.059252995            9 
 3914000   0.62757523   -2.9828969    2799.6455   0.05960751  0.059240395           11 
 3915000   0.62769883   -2.9826268    2788.9477  0.059364574  0.059227786            4 
 3916000   0.63026729   -2.9733817    2804.7307   0.05968528   0.05921517            5 
 3917000   0.62153322   -2.9891925    2795.0605  0.059464311  0.059202544            9 
 3918000   0.62046766   -2.9802571     2798.014  0.059511954  0.059189864            9 
 3919000   0.63697729   -2.9897781    2796.3411  0.059461196  0.059177316            5 
 3920000   0.62813005   -2.9671309    2794.3237  0.059403139  0.059164701            6 
 3921000   0.61834866   -2.9690215    2800.4237  0.059517634  0.059152114           13 
 3922000   0.61128659   -2.9699944    2801.9652  0.059535211  0.059139535            5 
 3923000   0.62355619   -2.9667657    2791.5392  0.059298564  0.059126935            7 
 3924000   0.62802139   -2.9711655    2795.9486  0.059377094  0.059114351            8 
 3925000   0.63213738    -2.963217    2796.6077   0.05937596  0.059101675            5 
 3926000   0.62520853   -2.9729543    2805.2596  0.059544481  0.059089061            8 
 3927000   0.61792333   -2.9768807    2796.7768  0.059349309  0.059076477            6 
 3928000   0.61419638   -3.0056194    2801.7999  0.059440765  0.059063777            5 
 3929000   0.63456881   -2.9681659    2806.2377  0.059519762  0.059051147            5 
 3930000   0.62365852   -2.9877708    2796.4866  0.059297851  0.059038569            4 
 3931000   0.62038302   -2.9738403    2798.9064  0.059334062  0.059025989            9 
 3932000    0.6279062   -2.9823644    2798.0694  0.059301234  0.059013254            8 
 3933000    0.6311325   -2.9904916    2802.9412   0.05938938  0.059000635            7 
 3934000   0.60559853   -2.9904658     2795.588  0.059218523   0.05898801            9 
 3935000   0.61106759   -2.9887886    2803.6625   0.05937447  0.058975385            6 
 3936000   0.62766701   -2.9749383    2797.4105  0.059227019  0.058962828            4 
 3937000   0.62572731   -2.9710839    2804.1171  0.059353931   0.05895028            7 
 3938000   0.62509008   -2.9883346    2792.2556  0.059087853  0.058937706            7 
 3939000   0.62083266   -2.9670098    2791.9202  0.059065758  0.058925089            6 
 3940000   0.62571413   -2.9899386    2793.1877  0.059077574  0.058912485            8 
 3941000   0.62575294   -2.9842534     2802.748  0.059264737  0.058899864            7 
 3942000   0.62432045   -2.9918743    2801.4905  0.059223121  0.058887258            5 
 3943000   0.62310505   -2.9861163    2805.4519  0.059291822  0.058874704            2 
 3944000    0.6202072   -2.9849903    2810.9612  0.059393196    0.0588622            6 
 3945000   0.61980518   -2.9765509    2795.8407   0.05905874   0.05884967            4 
 3946000   0.62749188    -3.005314    2799.0315  0.059111157  0.058837072            7 
 3947000   0.61693427   -2.9755057    2802.3371  0.059165972  0.058824433            6 
 3948000   0.61918557   -2.9844239    2806.1235  0.059230909  0.058811966           17 
 3949000   0.60895508   -2.9857116    2803.4609  0.059159722  0.058799454            6 
 3950000    0.6230988   -2.9817016    2801.7945  0.059109588  0.058786872            6 
 3951000   0.63710145   -2.9622764    2811.6242  0.059301953  0.058774348            4 
 3952000   0.61613085   -2.9926827    2800.1022   0.05904399  0.058761879           10 
 3953000   0.62190233   -2.9736029    2816.3044  0.059370612  0.058749379            6 
 3954000   0.61857801   -3.0016273    2797.2296  0.058953583  0.058736857            9 
 3955000   0.60840243   -2.9849759    2798.5556  0.058966616  0.058724286            8 
 3956000   0.61423317   -2.9671506    2801.5912  0.059015656   0.05871177            9 
 3957000   0.62379798   -2.9787228    2806.4742  0.059103577  0.058699257            7 
 3958000   0.61392249   -2.9836068    2806.8423  0.059096392  0.058686705            4 
 3959000   0.61527753   -3.0025244    2799.6527  0.058930131  0.058674103            5 
 3960000   0.62732562   -2.9983948    2793.3789  0.058783227  0.058661456            5 
 3961000   0.61714119   -3.0040721    2801.2664  0.058934327  0.058648897           15 
 3962000   0.61691664   -2.9754441    2807.6482   0.05905368  0.058636342            9 
 3963000   0.62796799   -2.9964746     2808.337  0.059053265  0.058623773            9 
 3964000   0.62236951   -2.9679754    2816.3617  0.059207066  0.058611324            6 
 3965000   0.59919433   -2.9743706    2807.0141  0.058995673  0.058598837            8 
 3966000   0.61723176   -2.9814441     2809.732  0.059037906  0.058586347            3 
 3967000   0.62785236    -2.983359    2802.2915  0.058866723  0.058573863            7 
 3968000   0.63953843    -2.990009     2817.038  0.059161585  0.058561394            5 
 3969000   0.60430947   -2.9996419    2806.6705  0.058929002  0.058548923           10 
 3970000   0.63703376   -3.0183386    2811.6587  0.059018864  0.058536441            4 
 3971000    0.6385495   -2.9670954    2818.3837  0.059145129  0.058524022            8 
 3972000   0.61198433   -3.0022863    2804.1244  0.058831076  0.058511609            5 
 3973000   0.61989422   -2.9784199    2815.5113  0.059055108  0.058499164            7 
 3974000   0.60684776   -2.9609926    2809.8228  0.058920961  0.058486809            6 
 3975000   0.61721766   -2.9875091    2812.3373  0.058958854  0.058474383            9 
 3976000   0.61279657   -2.9756332    2807.0944  0.058834138  0.058461959            3 
 3977000   0.61569561   -2.9870197    2813.6835  0.058957412  0.058449543            9 
 3978000   0.61119305   -2.9987232     2807.361  0.058810142  0.058437056           11 
 3979000   0.60689442   -3.0116695    2812.7502  0.058908231  0.058424615            8 
 3980000   0.62672849   -2.9933577    2813.9942  0.058919477  0.058412192           16 
 3981000   0.61917469    -2.970556    2821.8875  0.059069905  0.058399857            5 
 3982000   0.63119567   -2.9796103    2817.6171  0.058965702   0.05838747            7 
 3983000   0.61197251   -2.9777376    2812.6038  0.058846008  0.058375112           10 
 3984000   0.60998565   -2.9802683    2809.1062  0.058758079  0.058362667            6 
 3985000   0.62550528   -2.9901347    2813.7287  0.058839998  0.058350263            6 
 3986000    0.6232582   -2.9824015    2819.9101  0.058954469  0.058337977           13 
 3987000   0.61776819   -2.9977192    2814.2891  0.058822195  0.058325564            7 
 3988000   0.60699753   -2.9901312    2808.1751  0.058679686  0.058313151            8 
 3989000   0.60603384   -2.9847443     2810.478  0.058713087  0.058300789            6 
 3990000   0.61338914   -2.9825623    2811.1517  0.058712443  0.058288331           10 
 3991000   0.60920179    -2.999201    2819.6735  0.058875668  0.058275909            5 
 3992000   0.62256236   -2.9925591    2811.8035  0.058696633   0.05826353            6 
 3993000   0.61560388   -3.0015454    2807.4193  0.058590436  0.058251088            4 
 3994000   0.61953616   -2.9788684    2809.2691  0.058614361  0.058238615           15 
 3995000   0.61742679   -3.0038727     2810.725  0.058630059  0.058226198            4 
 3996000   0.60763342   -3.0017787    2813.1515   0.05866599   0.05821377            7 
 3997000   0.61112771   -3.0078244    2813.1423   0.05865112  0.058201319           10 
 3998000   0.60391505    -2.984043    2817.7223  0.058731914  0.058188753           12 
 3999000   0.61882803   -3.0161117    2808.0849  0.058516399  0.058176278            4 
 4000000   0.61556202   -2.9932677    2814.9287  0.058644348  0.058163837            6 
 4001000   0.62010408   -2.9960307    2809.8582  0.058524081  0.058151278            9 
 4002000    0.6010027   -2.9907219    2809.6295  0.058504696  0.058138672            5 
 4003000   0.62133127   -3.0034921    2812.0419  0.058540301  0.058126236            8 
 4004000   0.61966251   -3.0172544    2807.5112  0.058431384  0.058113752            7 
 4005000   0.60539992    -2.989418    2812.6899   0.05852455  0.058101346            6 
 4006000     0.623381   -3.0079827    2821.9677  0.058702939  0.058088964            4 
 4007000     0.623203   -2.9962629    2816.3232    0.0585709  0.058076511            4 
 4008000   0.60977195   -2.9816699    2812.5346  0.058477515  0.058064173            7 
 4009000   0.59760214   -2.9788672    2816.6702  0.058548895  0.058051788            6 
 4010000    0.6025292   -3.0054807    2820.1597  0.058606811  0.058039515           10 
 4011000   0.61904861   -3.0009829    2815.8597  0.058502861  0.058027101            4 
 4012000   0.61603499   -3.0063448    2813.0673  0.058430279  0.058014749            5 
 4013000   0.60955905   -2.9842515     2822.622  0.058614129  0.058002421            6 
 4014000   0.61364369   -2.9800611    2817.5093  0.058493383  0.057990167            5 
 4015000   0.60124161   -3.0089642    2811.7597  0.058359479  0.057977778            9 
 4016000   0.62229025   -3.0102468    2820.0109  0.058516163  0.057965395            7 
 4017000   0.59387778   -2.9926012    2810.9835  0.058314321  0.057952992            6 
 4018000   0.60875777   -3.0176439    2808.3193  0.058244552  0.057940593           11 
 4019000    0.6092027   -3.0025142    2807.3001  0.058208927  0.057928223           12 
 4020000    0.6110108   -2.9878184    2823.1938  0.058523919  0.057915938            6 
 4021000   0.61241185   -3.0026989    2826.2092  0.058571857  0.057903658            5 
 4022000   0.61555237   -2.9953681    2823.9945  0.058511406  0.057891283            4 
 4023000   0.62524885   -2.9994577    2820.8554  0.058431837  0.057878963           10 
 4024000    0.6090802   -3.0064899    2817.3565  0.058344858   0.05786663            6 
 4025000   0.61317051   -3.0013421    2821.1618  0.058409147  0.057854302            5 
 4026000   0.62698533   -3.0033224    2814.2986   0.05825258  0.057842082           14 
 4027000   0.61315371   -3.0236581    2814.2119   0.05823632  0.057829816           10 
 4028000   0.61109893   -2.9991786    2815.8295  0.058255327  0.057817625            6 
 4029000   0.60356122   -2.9714791    2819.2741  0.058312114  0.057805331            9 
 4030000   0.61162222   -3.0093469    2814.4775   0.05819846  0.057793038            8 
 4031000    0.6111904   -2.9840973    2820.1884  0.058302083  0.057780786            5 
 4032000   0.62373058    -3.002608    2827.5573  0.058439925  0.057768501            5 
 4033000    0.6082724    -2.992513    2823.4726  0.058341031    0.0577562            5 
 4034000   0.60648199   -3.0154304    2820.7094  0.058269488  0.057743916            7 
 4035000   0.59494161   -2.9824911    2836.4732  0.058580612  0.057731732            8 
 4036000   0.62339636   -3.0242397    2816.4711  0.058153104  0.057719429           14 
 4037000   0.61289417   -3.0024611    2828.1081  0.058378914  0.057707175            4 
 4038000   0.60235189     -3.00311    2815.8488  0.058111458  0.057694919            7 
 4039000   0.61608448   -2.9972086     2837.508  0.058543945  0.057682807            6 
 4040000   0.59960842   -3.0053689    2830.0394    0.0583754   0.05767064           11 
 4041000   0.60587634   -3.0065245    2821.6384   0.05818771  0.057658488            4 
 4042000   0.60030546   -2.9984102    2817.5816  0.058089675  0.057646251           15 
 4043000   0.60275113   -3.0112513    2824.5746  0.058219444  0.057633975           15 
 4044000   0.61498763   -2.9963143    2823.0966  0.058174593  0.057621823            6 
 4045000   0.61199146   -3.0068893    2829.0517  0.058282894  0.057609584           17 
 4046000   0.60628739   -3.0049577    2818.5116    0.0580514  0.057597429            3 
 4047000   0.60090997   -3.0316121    2820.8673  0.058085564  0.057585205            5 
 4048000   0.60224833    -2.985376    2825.2631  0.058161708  0.057573013            9 
 4049000   0.61153522   -3.0077168    2830.8362  0.058262044  0.057560858           14 
 4050000   0.60454964   -3.0153192     2831.769  0.058266852  0.057548757           10 
 4051000   0.60428608   -3.0006475     2826.904   0.05815239   0.05753663           12 
 4052000   0.59870887   -3.0040434    2827.9408  0.058159361  0.057524527           16 
 4053000    0.6058181   -2.9818367    2819.8939  0.057979561  0.057512383            7 
 4054000   0.60350761   -3.0152856    2827.7751  0.058127264  0.057500124            5 
 4055000   0.60679246   -3.0109157    2819.8968  0.057951023  0.057487849            5 
 4056000   0.61042766   -2.9965467    2818.6717  0.057911565  0.057475566            8 
 4057000   0.59472536   -2.9950994    2822.5212  0.057976362   0.05746338            5 
 4058000   0.60952835   -3.0181789    2827.9242  0.058073029  0.057451256            7 
 4059000    0.6196831   -3.0245375    2824.4594  0.057987586  0.057439057            5 
 4060000    0.6053667   -2.9944517    2827.4466  0.058034618  0.057426875            4 
 4061000   0.59780534    -3.014588    2835.3283  0.058182062  0.057414872            6 
 4062000   0.59866626   -3.0153507    2822.7156  0.057908986  0.057402696           14 
 4063000   0.59698637   -3.0194552    2822.1992  0.057884141  0.057390532            8 
 4064000   0.59183563   -3.0183484    2832.6321  0.058083827  0.057378415            9 
 4065000   0.60161688   -3.0063548    2832.1775  0.058060219  0.057366233            9 
 4066000   0.59648788   -3.0139057    2822.6297  0.057850256  0.057354068            5 
 4067000   0.59095846   -3.0184186    2825.2743   0.05789022  0.057341895           13 
 4068000   0.60895136    -3.006396    2828.6771  0.057945696  0.057329725           18 
 4069000    0.6035182   -3.0110096    2837.1567  0.058105119  0.057317625            8 
 4070000   0.59770701   -3.0027304    2832.5439  0.057996395  0.057305497            3 
 4071000   0.59702876   -3.0139691    2829.9212  0.057928462  0.057293357            8 
 4072000   0.59884826   -3.0157733    2834.3068  0.058003986  0.057281218           11 
 4073000   0.60713117   -2.9934493    2833.3532  0.057970236  0.057269118            4 
 4074000   0.59336795   -3.0245045    2821.9242  0.057722225  0.057257033            6 
 4075000   0.59581703   -3.0028973    2833.9313  0.057953605  0.057244879            7 
 4076000   0.60021866   -3.0283848    2825.5655  0.057768349  0.057232717            5 
 4077000   0.60007989   -3.0101995    2826.1364  0.057765848  0.057220582            5 
 4078000   0.59999609   -3.0326104    2829.3435  0.057817221  0.057208302            8 
 4079000   0.59921216   -3.0162979    2836.0859  0.057940792  0.057196022            8 
 4080000   0.60217223   -3.0222968    2830.9996  0.057822705  0.057183809            7 
 4081000    0.5969367   -3.0115597    2829.6607  0.057781195  0.057171547            6 
 4082000   0.59924295   -3.0079715    2834.4868  0.057865564  0.057159399            9 
 4083000   0.58644859   -3.0113384    2836.3583   0.05788959  0.057147273            8 
 4084000   0.60626646   -3.0187958    2832.5893  0.057798508  0.057135076            7 
 4085000   0.58752987   -3.0195089    2833.3346  0.057799564   0.05712282            9 
 4086000   0.60405204   -3.0259829    2833.5247  0.057789296  0.057110662            5 
 4087000   0.59680029   -3.0164812     2835.093  0.057807132  0.057098544           13 
 4088000   0.59025264   -3.0226856    2830.5662  0.057700713  0.057086449            7 
 4089000   0.59985033   -3.0123243    2829.7711  0.057670399  0.057074304            7 
 4090000   0.59366657   -3.0043945    2834.3618  0.057749834   0.05706215            7 
 4091000   0.59657686   -3.0004205    2833.4827  0.057717809  0.057050091            5 
 4092000   0.59941376   -3.0098342    2823.5573  0.057501574     0.057038           10 
 4093000   0.58160872   -3.0218321    2827.0184  0.057557994  0.057025851            7 
 4094000   0.58707843   -3.0128206    2832.2317  0.057650051  0.057013747           17 
 4095000   0.60395361   -3.0059499     2830.384  0.057598372  0.057001612            7 
 4096000   0.60982438   -3.0232772    2825.8982  0.057493046  0.056989432            7 
 4097000   0.59377608   -3.0285187    2831.8962  0.057601014  0.056977271            7 
 4098000   0.60563767    -3.025673    2830.6942  0.057562514  0.056965127           10 
 4099000   0.59273489   -3.0231473    2829.7072  0.057528405  0.056953003            8 
 4100000    0.5900294   -3.0176366    2823.3539  0.057385243  0.056940932            6 
 4101000   0.58530032   -3.0211566    2830.8839  0.057524261  0.056928832            5 
 4102000   0.59150855   -3.0244272    2826.7587  0.057426432  0.056916622            8 
 4103000   0.58629495   -3.0356844    2825.4498  0.057385852  0.056904439            8 
 4104000   0.61051758   -3.0324699    2836.1965  0.057590085  0.056892273           13 
 4105000   0.59185072   -3.0378607    2828.8728  0.057427382  0.056880158           11 
 4106000   0.57315618   -3.0070319     2836.479  0.057567766  0.056868036            6 
 4107000   0.59837149   -3.0278866    2829.8539  0.057419323  0.056855849            6 
 4108000   0.58222133   -3.0160444    2842.6996  0.057665928  0.056843685            5 
 4109000   0.59755123   -3.0223645    2831.3932  0.057422593  0.056831637            7 
 4110000   0.58765904   -3.0199264    2830.8007  0.057396608  0.056819586           11 
 4111000   0.59721991   -3.0188366    2838.6877  0.057542523  0.056807497            7 
 4112000    0.5924169   -3.0070639    2835.9965  0.057473988  0.056795398            8 
 4113000   0.59118906   -2.9955503    2838.8189    0.0575172  0.056783311            5 
 4114000   0.58558085   -3.0396038    2834.1076  0.057407786  0.056771186            9 
 4115000   0.57887515   -3.0214522    2835.9413   0.05743097  0.056759123           11 
 4116000   0.58248661   -3.0236304    2831.9282  0.057335766   0.05674702           10 
 4117000    0.5911432   -3.0179981    2836.8619  0.057421704  0.056734913            9 
 4118000   0.58628792    -3.026743     2835.836     0.057387  0.056722772            7 
 4119000   0.58997924   -3.0228244    2835.5017  0.057366304  0.056710675           11 
 4120000   0.58800165   -3.0277813    2836.5078  0.057372731  0.056698534            6 
 4121000   0.59053428   -3.0093146    2831.7523  0.057262645  0.056686456            7 
 4122000   0.59678158   -3.0233405    2833.7331  0.057288798  0.056674395            6 
 4123000   0.58270221   -3.0114303    2836.3657  0.057328113  0.056662355            4 
 4124000   0.57768758   -3.0226424     2834.299   0.05727245  0.056650324            7 
 4125000   0.58056694   -3.0176785    2836.9045  0.057311201  0.056638221            8 
 4126000   0.59582169   -3.0263058    2833.1559    0.0572216  0.056626134            5 
 4127000   0.57793894    -3.039789    2830.8043  0.057160252  0.056614032           12 
 4128000   0.59005433   -3.0374921    2832.4639  0.057179907   0.05660187            4 
 4129000   0.58315918    -3.012059    2830.7806  0.057132087  0.056589755            4 
 4130000   0.58062943   -3.0179662    2842.5552  0.057355835  0.056577686            3 
 4131000   0.59015223   -3.0135923    2829.5244  0.057079085  0.056565576           10 
 4132000   0.59329487   -3.0433951    2837.5527  0.057227183  0.056553529            5 
 4133000   0.60001374   -3.0282005    2837.4219    0.0572107  0.056541411           10 
 4134000    0.5700961   -3.0310532    2838.4721  0.057218031  0.056529345           10 
 4135000   0.58779324   -3.0396325    2840.0988  0.057236976  0.056517295            5 
 4136000   0.59111886   -3.0220093    2837.6993  0.057174793  0.056505271            7 
 4137000   0.59659091   -3.0147444    2838.9442  0.057186049  0.056493301            8 
 4138000     0.580793   -3.0227888    2840.5885  0.057205344  0.056481291           14 
 4139000   0.59253608    -3.018407    2836.6229  0.057111681  0.056469291            7 
 4140000    0.5820073   -3.0370495    2842.2484  0.057211119  0.056457338            8 
 4141000   0.57156351   -3.0225183    2838.5643  0.057123164  0.056445341           10 
 4142000   0.58774305   -3.0424544    2831.8767  0.056974825   0.05643338            8 
 4143000   0.59032631   -3.0462749    2844.0661  0.057206253   0.05642136            6 
 4144000   0.57880297   -3.0212085    2842.3897  0.057158737  0.056409456            9 
 4145000    0.5942053   -3.0151944    2840.6024  0.057109016  0.056397543            8 
 4146000   0.57862208   -3.0163204    2846.1836   0.05720742  0.056385605            5 
 4147000   0.58511589   -3.0190527     2843.212  0.057133913  0.056373708            7 
 4148000   0.59110889   -3.0375065    2837.8964  0.057013348  0.056361766            9 
 4149000   0.58221314   -3.0228546    2846.2081  0.057166549  0.056349793           12 
 4150000   0.58343899   -3.0390895     2850.135  0.057231627  0.056337784            6 
 4151000   0.59067485   -3.0168734    2839.8897   0.05701216  0.056325853            8 
 4152000    0.5898886   -3.0163201    2845.6811  0.057114665  0.056313952            7 
 4153000   0.59097413   -3.0412374     2845.101  0.057089273  0.056301989            4 
 4154000   0.59726146   -3.0298353    2843.5301  0.057044015  0.056290118            9 
 4155000   0.59166023    -3.053089    2844.7312  0.057054376  0.056278229           10 
 4156000   0.58048015    -3.034251    2855.3765  0.057254101  0.056266357           11 
 4157000   0.60316151   -3.0224952    2853.7493  0.057207708  0.056254551           10 
 4158000   0.58706464   -3.0277798    2843.2269  0.056983063  0.056242764            5 
 4159000   0.59190914   -3.0474512    2847.3134  0.057051242  0.056230798            7 
 4160000   0.59541755   -3.0495533    2849.7184  0.057085704  0.056218854            6 
 4161000   0.59155863   -3.0287351    2846.6072  0.057009677  0.056207041            9 
 4162000   0.57423727   -3.0412404    2852.2074  0.057108109  0.056195278            6 
 4163000   0.58393826   -3.0407577     2850.468  0.057059573  0.056183472           16 
 4164000   0.59866832   -3.0315106    2849.3125  0.057022744  0.056171681           18 
 4165000   0.58844678   -3.0414207    2853.8536  0.057099913  0.056159868           10 
 4166000   0.58836304   -3.0281089    2850.3648  0.057016418  0.056147934            9 
 4167000    0.5993296   -3.0286993    2856.0311  0.057116054  0.056136111            5 
 4168000   0.57977673   -3.0326896    2855.8753  0.057099233  0.056124357            4 
 4169000    0.5844189   -3.0158982    2853.1853  0.057031768  0.056112587            5 
 4170000   0.60679278   -3.0307095    2854.4717  0.057043798  0.056100868            6 
 4171000   0.58463035   -3.0423427    2851.3265  0.056967285  0.056089135            7 
 4172000   0.59923948   -3.0322672     2844.914  0.056825544  0.056077374            5 
 4173000   0.58551706   -3.0314078    2853.9847  0.056993064  0.056065587           11 
 4174000   0.59008499   -3.0241831    2850.3482  0.056906807  0.056053786            5 
 4175000    0.5946427   -3.0308126    2851.1446  0.056909075  0.056041951            9 
 4176000   0.58961981     -3.04194    2852.2781  0.056918066  0.056030202           18 
 4177000   0.57983031   -3.0357626    2860.1784  0.057062053  0.056018408            6 
 4178000   0.59497325   -3.0576679    2852.2987  0.056891229   0.05600661            4 
 4179000   0.57484177   -3.0332155    2854.2047  0.056915623  0.055994787            8 
 4180000   0.58154637   -3.0320375     2843.304  0.056684689  0.055982963            7 
 4181000     0.582148   -3.0283554    2852.9718  0.056863824  0.055971206           17 
 4182000   0.58499557   -3.0286551    2865.9341  0.057108523  0.055959449            6 
 4183000   0.58125542    -3.040879    2857.7418  0.056931663  0.055947659           12 
 4184000   0.57232389   -3.0494879     2841.625  0.056597057   0.05593575            6 
 4185000    0.5757082   -3.0410744    2854.7076  0.056844038  0.055923992           13 
 4186000    0.5790847   -3.0396391    2847.0396  0.056677807  0.055912203            7 
 4187000   0.58607205   -3.0513939    2851.6665  0.056756358  0.055900324            4 
 4188000    0.5929079   -3.0566936    2849.8096  0.056705858  0.055888458           11 
 4189000   0.59677192   -3.0408907    2857.7626  0.056850532  0.055876656           16 
 4190000    0.5768853   -3.0384468    2843.4552   0.05655241  0.055864807            6 
 4191000   0.58641929   -3.0314962    2863.1311  0.056930151  0.055853025           16 
 4192000   0.58578362   -3.0651974      2851.79  0.056691118  0.055841266            5 
 4193000    0.5775523    -3.030464    2852.2405  0.056686552  0.055829515           14 
 4194000   0.57196463   -3.0401895    2855.9486  0.056746714   0.05581777            7 
 4195000   0.57949291   -3.0419767    2847.2798  0.056560981  0.055806008           10 
 4196000   0.57008256   -3.0168937    2860.4008  0.056808087  0.055794194            6 
 4197000   0.57588714   -3.0410652    2850.5095  0.056598156   0.05578244            5 
 4198000   0.58718241   -3.0342659    2855.7507  0.056688716  0.055770675           11 
 4199000    0.5770749   -3.0468218    2855.6776  0.056673763  0.055758828            7 
 4200000   0.57941935   -3.0219099    2849.5785  0.056539256  0.055746991            6 
 4201000   0.58118058   -3.0547559    2848.2772  0.056499983  0.055735223            5 
 4202000   0.57436061   -3.0546075     2856.186  0.056643384  0.055723456           13 
 4203000   0.57690996   -3.0355781     2848.458  0.056476684  0.055711598           20 
 4204000   0.56827179   -3.0306247    2858.8295  0.056668836  0.055699831           13 
 4205000   0.58384769   -3.0600402    2848.1414  0.056443548  0.055688082            4 
 4206000   0.57697427   -3.0517264    2850.2117  0.056471146  0.055676302            8 
 4207000    0.5731618   -3.0402701    2858.4752  0.056621409  0.055664527            9 
 4208000   0.58277439   -3.0374936    2845.1823  0.056344706  0.055652732            5 
 4209000   0.58053897   -3.0617214    2855.8961  0.056543441  0.055640935           13 
 4210000   0.57715721   -3.0493491      2852.52  0.056463184  0.055629116            9 
 4211000   0.57403247    -3.042678     2852.456  0.056448508  0.055617354            8 
 4212000   0.57961257   -3.0377904    2858.1434  0.056547629  0.055605596            5 
 4213000   0.57412295   -3.0260638    2855.0087  0.056472203   0.05559394            5 
 4214000   0.57588851   -3.0539869    2862.4889  0.056606726  0.055582219            8 
 4215000   0.57115573   -3.0609049    2851.7103  0.056380197  0.055570346           11 
 4216000   0.59094612   -3.0458278     2857.756  0.056486322  0.055558579            6 
 4217000   0.56810927   -3.0383323    2853.0771  0.056380466  0.055546853           13 
 4218000   0.57891866   -3.0617242    2850.6631  0.056319407  0.055535059            8 
 4219000   0.57891341   -3.0396183    2858.7346  0.056465485  0.055523294           14 
 4220000    0.5780368   -3.0560013    2848.8682  0.056257271  0.055511469            8 
 4221000   0.59619862   -3.0595405    2852.7848  0.056321267  0.055499746           16 
 4222000   0.57231084   -3.0539034    2851.9401  0.056291255   0.05548798           20 
 4223000    0.5880277   -3.0433915     2855.916  0.056356381  0.055476257            6 
 4224000   0.58277034   -3.0427828    2852.9352  0.056284233  0.055464526            8 
 4225000   0.57843921   -3.0440999    2855.8984  0.056329358  0.055452759           14 
 4226000   0.57385475   -3.0633563    2854.3078  0.056284663   0.05544095           11 
 4227000   0.57815045   -3.0526269    2858.1262  0.056346624  0.055429188           14 
 4228000   0.57712877   -3.0631036    2853.2508  0.056237203  0.055417341           16 
 4229000   0.57294843   -3.0615537    2856.6848  0.056291574  0.055405607            4 
 4230000   0.57322285   -3.0580235     2860.072  0.056344996  0.055393886           11 
 4231000   0.57180207   -3.0484065    2854.9162  0.056230132  0.055382082           13 
 4232000   0.58318794   -3.0702137     2855.984  0.056237871  0.055370243           11 
 4233000   0.57338641   -3.0217102    2860.3116   0.05630978  0.055358503            6 
 4234000   0.56262686   -3.0443454    2856.1574  0.056214718   0.05534674            5 
 4235000     0.581154    -3.058497    2857.0293  0.056218601  0.055334964            7 
 4236000   0.58180786   -3.0692591    2853.3719  0.056133379  0.055323186           11 
 4237000   0.56600529    -3.045284    2859.9087  0.056248695  0.055311438           10 
 4238000   0.57203166   -3.0555588    2853.3032  0.056105538  0.055299724            6 
 4239000   0.57124823   -3.0586888    2860.0866  0.056225654  0.055287974            7 
 4240000    0.5706424   -3.0438172    2856.3205  0.056138374  0.055276299            7 
 4241000     0.573154   -3.0554502    2855.1094   0.05610134  0.055264629           19 
 4242000   0.56316828   -3.0631116    2859.5902  0.056176138  0.055252874            8 
 4243000   0.58247216   -3.0580659    2865.3115  0.056275266  0.055241132           14 
 4244000   0.58556531   -3.0508699    2859.3947  0.056145827  0.055229415            9 
 4245000   0.57361478   -3.0471244     2861.024  0.056164586   0.05521773            6 
 4246000   0.57463373   -3.0544163     2864.095  0.056211631  0.055205994            5 
 4247000   0.58283669     -3.03697    2863.6045  0.056188771  0.055194291            4 
 4248000   0.57388826    -3.064257    2849.0256  0.055889547  0.055182576            5 
 4249000    0.5638996   -3.0665902    2861.1426  0.056114039  0.055170841            9 
 4250000   0.56133083   -3.0519732    2857.0032   0.05601967  0.055159118           12 
 4251000   0.55325061   -3.0453618    2860.4546  0.056074151   0.05514741           10 
 4252000   0.57884778   -3.0729999    2861.7172  0.056085709  0.055135689           13 
 4253000   0.58548879   -3.0744922    2849.6463  0.055836004  0.055123945            7 
 4254000   0.57251317   -3.0626555    2850.9139  0.055847711  0.055112186           14 
 4255000   0.58744402   -3.0493189    2860.9293  0.056030734  0.055100379            7 
 4256000   0.56493963   -3.0656679     2857.814  0.055956571  0.055088634            6 
 4257000   0.56647385   -3.0618498    2850.8094  0.055806307  0.055076921            7 
 4258000    0.5662663   -3.0409503    2863.3288  0.056038218   0.05506525           11 
 4259000   0.57921209   -3.0755068    2855.1606  0.055865238  0.055053582           13 
 4260000   0.57583669   -3.0501831    2856.3306  0.055875012  0.055041841           18 
 4261000   0.57628339   -3.0770033    2860.3781  0.055941056   0.05503016            8 
 4262000   0.57291041    -3.048576    2861.6043  0.055951907  0.055018503           13 
 4263000   0.56865601   -3.0727417    2860.1122  0.055909614   0.05500675            9 
 4264000   0.56164902   -3.0438566    2856.3501  0.055822977  0.054995025            9 
 4265000   0.56010263   -3.0623626    2860.1575  0.055884282  0.054983328            5 
 4266000   0.57589898   -3.0251558    2859.3257  0.055854933  0.054971573           15 
 4267000   0.55970557   -3.0340313    2862.2101  0.055898173  0.054959871            5 
 4268000   0.58645869   -3.0613881    2853.4774  0.055714569  0.054948135            7 
 4269000   0.57313262    -3.065015    2859.9537  0.055827939  0.054936343           10 
 4270000   0.56952838   -3.0625084    2855.7211  0.055732262  0.054924563            9 
 4271000    0.5838169   -3.0684663    2850.7943  0.055623084   0.05491282            4 
 4272000   0.56471672   -3.0844375    2861.0008  0.055809161  0.054901045            6 
 4273000   0.57226443   -3.0801571    2856.3721  0.055705829  0.054889153            8 
 4274000   0.57792559   -3.0933423    2852.7087  0.055621368  0.054877284           11 
 4275000   0.55449007   -3.0695131    2854.9227  0.055651515  0.054865451            9 
 4276000   0.58095498   -3.0476344    2863.2112  0.055800031   0.05485355           10 
 4277000   0.56640401     -3.06546    2856.9111  0.055664234  0.054841793            4 
 4278000    0.5624044   -3.0784112    2861.4256  0.055739162  0.054829992            7 
 4279000   0.55492699   -3.0589867    2857.2098  0.055644033  0.054818236           13 
 4280000   0.57948211   -3.0635356    2863.2656   0.05574894   0.05480645           13 
 4281000   0.56612432   -3.0553775    2857.0722  0.055615359  0.054794673            7 
 4282000   0.56013247   -3.0697308    2856.7458  0.055596019  0.054782906            7 
 4283000   0.56079082   -3.0678386     2856.353  0.055575395  0.054771128            7 
 4284000   0.56979435   -3.0512139    2856.9741  0.055574503  0.054759358            8 
 4285000   0.55696931   -3.0852227    2861.7925  0.055655241  0.054747548           10 
 4286000   0.56504874   -3.0644399    2857.3559  0.055555995  0.054735768            8 
 4287000   0.57136058   -3.0763699      2851.73  0.055433675  0.054723938            8 
 4288000   0.56739688   -3.0709785    2850.8579  0.055403799  0.054712104            7 
 4289000   0.55280373   -3.0522098     2864.519   0.05565631  0.054700364           14 
 4290000   0.57991255   -3.0767102     2862.854  0.055610995  0.054688626            5 
 4291000   0.57696489   -3.0594343     2862.359  0.055588422  0.054676883            4 
 4292000   0.56664336   -3.0571892    2858.2947  0.055496557  0.054665158           10 
 4293000   0.55866666   -3.0547014    2862.4849  0.055564969  0.054653415           10 
 4294000   0.56418475    -3.079473    2849.1618  0.055293467  0.054641654            7 
 4295000   0.55063604     -3.07062    2860.6123  0.055502762  0.054629941           11 
 4296000   0.56553919   -3.0718901    2862.4432  0.055525358  0.054618167           15 
 4297000   0.55531232   -3.0845527    2866.7234  0.055595442  0.054606418            8 
 4298000    0.5692973   -3.0653294    2864.0715  0.055531089  0.054594711            7 
 4299000   0.57951984   -3.0724585    2863.3393   0.05550398  0.054583015           10 
 4300000   0.56792258   -3.0575941    2857.9423  0.055386478  0.054571288            7 
 4301000   0.57063404   -3.0637109    2862.2272  0.055456623  0.054559557            5 
 4302000   0.56249589   -3.0836548    2866.3251  0.055523111  0.054547808            7 
 4303000   0.55052722   -3.0482643    2860.1335    0.0553903  0.054536111           19 
 4304000    0.5667573   -3.0605967    2863.6005  0.055444557  0.054524383            8 
 4305000   0.55910721   -3.0546455    2865.9133  0.055476449  0.054512653            7 
 4306000   0.55730946   -3.0592486    2865.2694  0.055451103  0.054500941            6 
 4307000   0.56949749   -3.0761793    2855.5023  0.055249251  0.054489169           12 
 4308000   0.55324022   -3.0693143    2854.3172  0.055213502  0.054477389            5 
 4309000   0.57246934   -3.0686056    2858.3924  0.055279501   0.05446563           10 
 4310000   0.56427218   -3.0776904    2862.6643  0.055349271   0.05445394            7 
 4311000   0.57526047   -3.0657915    2861.6096  0.055316045  0.054442269           22 
 4312000   0.56303295   -3.0761497    2865.6529  0.055381356  0.054430561           11 
 4313000     0.559744      -3.0649    2863.8774   0.05533421  0.054418828            6 
 4314000   0.55278918   -3.0442945    2873.5394  0.055508023  0.054407177           15 
 4315000   0.56422656   -3.0811719    2865.1681  0.055333489  0.054395533            4 
 4316000   0.56258472   -3.0697356    2864.8184  0.055313918  0.054383833            8 
 4317000   0.54877299   -3.0818242    2860.8611  0.055224714  0.054372188           10 
 4318000   0.56791971   -3.0664403    2858.7065  0.055170343   0.05436057           10 
 4319000   0.56620096   -3.0757975    2867.2664   0.05532273  0.054348943            6 
 4320000    0.5675011   -3.0624527    2865.6505  0.055278753  0.054337368            8 
 4321000   0.54745161   -3.0848915     2864.645  0.055246567  0.054325804            5 
 4322000   0.56095659   -3.0855381    2868.3846  0.055305888  0.054314164            7 
 4323000   0.57915301   -3.0718503    2866.3342  0.055253571  0.054302577            4 
 4324000   0.56022985   -3.0666636    2868.9763  0.055291712  0.054290991            8 
 4325000   0.54776152   -3.0663449    2872.3993  0.055344881  0.054279401            9 
 4326000   0.56204656   -3.0759046    2865.2827  0.055194997  0.054267752            6 
 4327000   0.56329597   -3.0590947    2863.8093  0.055153865    0.0542562           34 
 4328000   0.56333061   -3.0863801    2868.1163   0.05522405  0.054244571            5 
 4329000     0.560934   -3.0707861    2862.5653  0.055104437  0.054232943           13 
 4330000   0.55010345   -3.0829928     2872.276    0.0552786  0.054221314           11 
 4331000   0.57504605   -3.0941611    2868.0416   0.05518436  0.054209686           14 
 4332000   0.55991776   -3.0844957    2867.4708  0.055160642  0.054198018            8 
 4333000   0.54941952   -3.0784783    2868.3142  0.055164131  0.054186378            9 
 4334000   0.55920072   -3.0785044    2865.5722  0.055098682  0.054174763            8 
 4335000     0.549032   -3.0818358    2864.1524  0.055058678  0.054163088            8 
 4336000   0.55525224   -3.0701871    2861.6841  0.054998541  0.054151483            6 
 4337000   0.56454049   -3.0701168    2865.7679  0.055064327  0.054139839            7 
 4338000   0.56377882   -3.0832824    2867.1546  0.055078274  0.054128187            7 
 4339000   0.56672349   -3.0896456    2872.1262  0.055161063  0.054116546           13 
 4340000   0.55919931   -3.0989226    2871.4299  0.055134984  0.054104912            9 
 4341000   0.55937824    -3.083123     2865.675  0.055011806   0.05409324           11 
 4342000    0.5536924   -3.0804336    2868.9653  0.055062284  0.054081623            6 
 4343000    0.5606124   -3.0676254    2856.6565  0.054813426  0.054069954            8 
 4344000   0.56734865    -3.059791    2870.7891  0.055071922  0.054058368            7 
 4345000   0.56616214   -3.0546494    2866.0604  0.054968553  0.054046732            6 
 4346000   0.54989323   -3.0909235    2861.9751  0.054877572  0.054035085           14 
 4347000   0.55489912   -3.0834609    2860.8828  0.054844007  0.054023376           11 
 4348000   0.55877818   -3.0824551    2857.7498  0.054771347  0.054011705           11 
 4349000   0.55867786   -3.0819487    2868.9092  0.054972584  0.054000045            8 
 4350000   0.55662896    -3.075198    2864.2803  0.054871271  0.053988361            8 
 4351000    0.5544335   -3.0834182    2872.8275  0.055022361  0.053976693            6 
 4352000   0.54541617   -3.0832002    2866.2337  0.054883457  0.053965052           26 
 4353000   0.56333809    -3.074514    2869.2335  0.054928277  0.053953383           13 
 4354000   0.55701194   -3.0697682    2872.8986  0.054985809  0.053941744            8 
 4355000   0.55847524   -3.0951717    2865.0778  0.054823533  0.053930064            8 
 4356000   0.56231755   -3.0775038    2862.6876  0.054765221  0.053918362           10 
 4357000   0.55002734   -3.0930625    2864.7569  0.054792229  0.053906707            8 
 4358000   0.55712652   -3.0687444    2864.5952  0.054776564  0.053894997            8 
 4359000   0.56056024   -3.0751696    2859.4787  0.054666184  0.053883338           12 
 4360000   0.54580839   -3.0789769    2872.3051  0.054898797  0.053871739            9 
 4361000   0.55534397   -3.0719445    2865.6785  0.054759584  0.053860101           10 
 4362000   0.55747622   -3.0763533    2865.7456  0.054748312  0.053848469            5 
 4363000   0.55277829   -3.0988689    2872.1183  0.054857482  0.053836833           10 
 4364000   0.54743132   -3.0827508    2861.7591  0.054647096  0.053825177           11 
 4365000   0.54885144    -3.067682    2857.7402  0.054557851  0.053813481           12 
 4366000   0.55307942   -3.0727859    2866.9655  0.054721436  0.053801795            6 
 4367000   0.55926573   -3.0892808    2861.0917  0.054596818  0.053790105            9 
 4368000   0.55916515   -3.0940543    2870.4955  0.054763727  0.053778353            5 
 4369000   0.55065008   -3.0932623    2867.7237  0.054698324  0.053766693           11 
 4370000   0.56087434   -3.0787456    2870.0174  0.054729546  0.053755089            8 
 4371000    0.5608186   -3.1033451     2869.958  0.054715893   0.05374346           16 
 4372000   0.56207043   -3.0992122    2873.1382  0.054763994  0.053731832            8 
 4373000   0.54922999   -3.0890627    2868.7264  0.054667399  0.053720164            6 
 4374000   0.55147003   -3.0818839    2864.0089  0.054565023  0.053708533           11 
 4375000   0.56538791   -3.0895175    2865.9083  0.054588729  0.053696915            8 
 4376000   0.55357712    -3.090207    2862.9002  0.054518972  0.053685247           12 
 4377000   0.55503223    -3.076957    2874.3272  0.054724072  0.053673635            9 
 4378000   0.56009481   -3.0885575    2864.6006  0.054526432  0.053662034           13 
 4379000   0.54552887   -3.0885023    2872.1698  0.054658023  0.053650426            7 
 4380000   0.56028306   -3.0941419    2866.8041  0.054543457  0.053638754            5 
 4381000   0.54935796   -3.0765315    2871.5554  0.054621385   0.05362709           12 
 4382000   0.54210237   -3.0898405    2870.3124  0.054585281  0.053615424           10 
 4383000    0.5593545   -3.0877841    2876.2072  0.054684903  0.053603786            8 
 4384000   0.56023371   -3.0804235    2867.0989  0.054499294  0.053592212           13 
 4385000   0.54603331   -3.0990816     2867.113  0.054487134   0.05358054            8 
 4386000   0.55479796   -3.0742908    2870.4768  0.054538623  0.053568911            5 
 4387000   0.54281122    -3.095007     2868.601  0.054490559  0.053557244            7 
 4388000   0.54688878   -3.0801128     2865.169  0.054412964  0.053545549            5 
 4389000   0.54704418   -3.0795026    2873.1577  0.054552247  0.053533868           22 
 4390000   0.55194794   -3.1048115    2867.5055  0.054432526  0.053522248           15 
 4391000   0.55502142   -3.0774456    2867.7227  0.054424253  0.053510649           11 
 4392000   0.55198978   -3.0951639    2864.5321  0.054351322  0.053499032           10 
 4393000   0.54768964   -3.0799799    2868.5414  0.054415005  0.053487438           16 
 4394000   0.54925852   -3.1105388    2869.6087  0.054422862  0.053475904            6 
 4395000   0.56320011   -3.0941353     2867.308  0.054366856  0.053464314            9 
 4396000   0.55314297    -3.100453    2876.3591  0.054526067  0.053452775            5 
 4397000   0.54431931    -3.081955    2871.7404  0.054426131  0.053441221            8 
 4398000   0.53722508   -3.0895544    2871.0777    0.0544012  0.053429705           10 
 4399000   0.54854107   -3.0774731    2873.3903  0.054432642  0.053418145            7 
 4400000   0.54646835   -3.0730915    2878.1955  0.054511278  0.053406638           10 
 4401000   0.56527788   -3.0903692    2871.2641  0.054367646  0.053395137           10 
 4402000   0.54663466   -3.1094041    2875.6574  0.054438463  0.053383615           20 
 4403000   0.53772319   -3.0904163    2873.6174   0.05438749  0.053372107            7 
 4404000   0.54204842   -3.1073674    2869.9701  0.054306125  0.053360585           16 
 4405000   0.54094191   -3.0989621     2874.127  0.054372436  0.053349041            7 
 4406000   0.54823901   -3.1066517    2866.4907  0.054215665  0.053337487            9 
 4407000    0.5414318   -3.0949729    2880.5135  0.054468526  0.053325988           11 
 4408000   0.55255709   -3.0855846    2871.0412  0.054277094  0.053314465           11 
 4409000   0.53398297   -3.1011386    2883.3153  0.054496773  0.053302997           10 
 4410000   0.55275176   -3.0726229    2871.7425   0.05426573  0.053291537            6 
 4411000   0.54644683   -3.0991206    2874.8231  0.054311627  0.053280008           11 
 4412000   0.54236441   -3.1026441    2867.9059  0.054168666  0.053268435           12 
 4413000   0.54775289    -3.098548    2878.8285   0.05436265  0.053256944            7 
 4414000   0.53755312   -3.0899403    2878.7772  0.054349365  0.053245475           14 
 4415000   0.55093481   -3.0975021    2870.4107  0.054179137  0.053233984            9 
 4416000   0.54899556   -3.0710842    2871.5399  0.054188177  0.053222502           13 
 4417000   0.53072442   -3.1051867    2873.9849  0.054222039  0.053210965           11 
 4418000   0.53958226    -3.088852    2870.6367  0.054146611  0.053199451           10 
 4419000   0.53468025   -3.0972404    2875.5695  0.054227381  0.053187961           18 
 4420000   0.55019361   -3.0894508    2882.5634  0.054346973  0.053176523            7 
 4421000    0.5293177      -3.0776    2874.2422  0.054177829  0.053165081            7 
 4422000   0.56013447   -3.1016033    2877.9827  0.054236067  0.053153531           12 
 4423000   0.53312502   -3.1088913     2876.165  0.054189558  0.053141998            9 
 4424000   0.53886866   -3.0970684    2875.6786  0.054168147  0.053130536           12 
 4425000   0.54696515   -3.0966692    2881.7019  0.054269338  0.053119117            7 
 4426000   0.53237573   -3.0843511    2882.4741  0.054271616  0.053107659            9 
 4427000   0.55075338   -3.1072995    2872.7468  0.054076252  0.053096202            4 
 4428000   0.55492126   -3.0807595    2876.0848   0.05412686  0.053084737           28 
 4429000   0.54230466    -3.112256    2879.1294  0.054171923  0.053073169           19 
 4430000   0.53806057   -3.1025043    2876.2688  0.054105884  0.053061638            6 
 4431000   0.53718331   -3.1055922    2881.4311  0.054190759  0.053050155           12 
 4432000   0.53866071   -3.0911724    2873.5874  0.054031051  0.053038647            8 
 4433000   0.53728224   -3.1102463    2876.1681  0.054067376  0.053027228            7 
 4434000   0.53400255   -3.1047076    2879.9468  0.054126198   0.05301575           12 
 4435000   0.54598103   -3.1089086     2866.551  0.053862288  0.053004245            8 
 4436000   0.54047542    -3.099444    2878.2387  0.054069709  0.052992695            6 
 4437000   0.55675059   -3.1033086     2880.142  0.054093269  0.052981207            5 
 4438000   0.53887952   -3.1254679    2870.8948  0.053907443  0.052969739           10 
 4439000   0.54133841   -3.0957197    2872.4546  0.053924581   0.05295822            8 
 4440000   0.54023072   -3.1030123    2878.1277  0.054018913  0.052946745            5 
 4441000   0.53479844   -3.1204576    2880.2018  0.054045669  0.052935307            7 
 4442000   0.52945199   -3.0995887    2885.6243   0.05413523  0.052923891            6 
 4443000   0.54714017   -3.1142387    2881.4907  0.054045516  0.052912465           11 
 4444000   0.53933097   -3.0987951    2879.9615  0.054004678  0.052901044            9 
 4445000   0.53784479   -3.1102875    2874.6154  0.053892302  0.052889604           12 
 4446000   0.53512382    -3.096145    2876.8354  0.053921791  0.052878167           15 
 4447000    0.5348069   -3.1184868    2876.3969  0.053901449  0.052866769           13 
 4448000   0.54091295   -3.1087935    2886.3987  0.054076714   0.05285533            7 
 4449000   0.54298925   -3.1131145    2876.3109  0.053875607  0.052843928            7 
 4450000   0.53999513   -3.0923572    2884.8256  0.054022951  0.052832524            9 
 4451000   0.53913999   -3.1070534    2885.7878  0.054028829   0.05282112            9 
 4452000   0.54108006   -3.1203029    2875.6288  0.053826534  0.052809687           23 
 4453000   0.54242153   -3.1243518    2868.2763  0.053676853   0.05279819           16 
 4454000   0.53193823   -3.1118419    2878.2524  0.053851452  0.052786726            7 
 4455000   0.54468884   -3.1126648    2874.9227  0.053777079  0.052775303           18 
 4456000   0.53158507   -3.1009239    2885.6445  0.053965523  0.052763904            7 
 4457000   0.54612433    -3.109392    2873.9522  0.053734803   0.05275251           27 
 4458000   0.53663718   -3.1057906    2876.8107  0.053776184  0.052741078           12 
 4459000   0.54019461   -3.1087766    2889.8645  0.054008083  0.052729672           19 
 4460000   0.54207694   -3.1294069    2875.6811  0.053730961  0.052718338           13 
 4461000   0.53624092   -3.0910492    2874.9811  0.053705841  0.052706924           20 
 4462000   0.53940418   -3.0969854    2872.5527  0.053648452  0.052695509           11 
 4463000   0.52874331   -3.1161407    2879.6543  0.053769033  0.052684076            6 
 4464000   0.53388949   -3.1202344    2876.1734  0.053692006  0.052672606           10 
 4465000   0.54544236   -3.1145806    2876.8776  0.053693125  0.052661151           24 
 4466000   0.53092492   -3.1137747     2877.846  0.053699172  0.052649698            9 
 4467000   0.54329666   -3.1158571    2875.8162  0.053649284  0.052638309            7 
 4468000   0.54307842   -3.1259831    2880.5811  0.053726147  0.052626996            9 
 4469000   0.52984715    -3.085733    2884.6765  0.053790491  0.052615672            5 
 4470000   0.53406685   -3.1077067    2881.0687  0.053711199  0.052604278           14 
 4471000    0.5343521   -3.1169278    2880.1136  0.053681383  0.052592828            9 
 4472000   0.53106135   -3.1195121     2874.606  0.053566748  0.052581448           17 
 4473000   0.54202339   -3.1116885    2880.3917  0.053662562  0.052570109           11 
 4474000   0.53152296   -3.1104104    2886.2302  0.053759317  0.052558696           17 
 4475000   0.53931475   -3.1213556    2881.0118  0.053650126  0.052547252           10 
 4476000   0.54139445   -3.1266714    2874.2906  0.053513006  0.052535872           14 
 4477000   0.52880308   -3.1194085    2877.6565  0.053563705  0.052524521            7 
 4478000    0.5434297   -3.1280621    2878.2786  0.053563321  0.052513081            4 
 4479000   0.53428503   -3.1242111     2874.739  0.053485507   0.05250171           14 
 4480000   0.52856646    -3.119295    2874.2112  0.053463749  0.052490284           17 
 4481000   0.53043112   -3.1190209    2880.5186  0.053569118   0.05247892            8 
 4482000   0.51987774   -3.1217249    2882.6462  0.053596724  0.052467572           11 
 4483000   0.53221807   -3.1066139    2883.9998   0.05360993  0.052456179            7 
 4484000   0.53192121   -3.1159582    2878.9771  0.053504629    0.0524449            5 
 4485000   0.53904052   -3.1119401     2884.875  0.053602286   0.05243358            7 
 4486000   0.53661653   -3.1188425    2885.5039   0.05360202    0.0524223            8 
 4487000   0.53547282    -3.107756    2878.7275  0.053464222   0.05241098            6 
 4488000   0.52100497   -3.1094047    2886.3189  0.053593266  0.052399668            7 
 4489000   0.52751287    -3.119173    2887.3426   0.05360033   0.05238838            8 
 4490000   0.52674362   -3.1040452    2884.9648  0.053544261  0.052377037            9 
 4491000   0.53846698   -3.1350907    2874.3264  0.053334937  0.052365652            7 
 4492000   0.52998595   -3.1099705     2885.586  0.053531945  0.052354305           15 
 4493000   0.52206865   -3.1121228    2891.2015  0.053624183  0.052343054            9 
 4494000   0.54455514   -3.0971208     2883.959  0.053477952  0.052331826            7 
 4495000   0.53732864   -3.1143801    2884.8805  0.053483139  0.052320585           12 
 4496000   0.54339817   -3.1004251    2884.8433  0.053470554  0.052309306           11 
 4497000   0.53280828   -3.1086209    2890.6948  0.053567097  0.052298052            9 
 4498000   0.53242445    -3.110545     2878.509  0.053329424   0.05228677           11 
 4499000   0.53288966   -3.1202004    2883.3436  0.053407119   0.05227547           16 
 4500000   0.54622322   -3.1232696    2895.2221  0.053615224  0.052264188            8 
 4501000   0.53353015   -3.1233996    2878.8126  0.053299501    0.0522529            8 
 4502000   0.52794888   -3.1081428     2891.796  0.053527988  0.052241608           20 
 4503000   0.52732891    -3.149543    2887.8535   0.05344314  0.052230315           14 
 4504000   0.52691161   -3.1167462    2889.8904  0.053468961  0.052219025            7 
 4505000   0.52973864   -3.1253085    2884.3185  0.053354024  0.052207718           15 
 4506000   0.52695846   -3.1377541    2879.1175  0.053245997  0.052196431            9 
 4507000   0.54085064   -3.1279545    2880.9537  0.053268132  0.052185134            8 
 4508000   0.54226064   -3.1302475    2889.2748  0.053410137  0.052173845            7 
 4509000   0.51860526   -3.1493964    2883.5926  0.053293277  0.052162539            8 
 4510000    0.5303675   -3.1485597    2878.3707  0.053184971  0.052151241           24 
 4511000   0.53263137   -3.1104379    2889.1899   0.05337305  0.052139895            8 
 4512000   0.51948445   -3.1281978     2887.228  0.053324985  0.052128657           10 
 4513000   0.52005334   -3.1206733    2890.5281  0.053374106  0.052117329           11 
 4514000    0.5206201   -3.1109984     2884.885  0.053258104  0.052106111            8 
 4515000   0.52832201   -3.1228943    2879.0516  0.053138641  0.052094825           10 
 4516000   0.53541363   -3.1251372    2882.3138  0.053187073   0.05208356           11 
 4517000   0.52803588   -3.1149224      2892.32    0.0533599  0.052072336           16 
 4518000   0.53469991   -3.1411369    2882.0662   0.05315896  0.052061049           15 
 4519000   0.52336519   -3.1126399    2883.6973  0.053177275  0.052049788           10 
 4520000   0.52511529   -3.1160447    2884.5626  0.053181464  0.052038497           15 
 4521000   0.53206808    -3.127846    2884.1338  0.053161797  0.052027213           20 
 4522000   0.52342778   -3.1366326    2879.3456  0.053061802   0.05201586           25 
 4523000   0.52336026   -3.1066943    2885.7127  0.053167379  0.052004578           11 
 4524000   0.52915349   -3.1258749    2890.9912  0.053252859   0.05199331           13 
 4525000   0.52578005   -3.1271156     2883.341  0.053100202  0.051982005           13 
 4526000   0.53765648   -3.1314942    2892.4982  0.053257073   0.05197075            9 
 4527000    0.5180486   -3.1255389     2885.508  0.053116634  0.051959442            8 
 4528000   0.52200596   -3.1276111    2888.1488  0.053153504  0.051948166           13 
 4529000   0.52428037   -3.1260006    2885.1831  0.053087199  0.051936916            5 
 4530000    0.5323725   -3.1177975     2885.861   0.05308795  0.051925653           11 
 4531000   0.53604644   -3.1340779    2889.9348  0.053151158  0.051914371            9 
 4532000   0.51798173   -3.1451154    2880.7424  0.052970403   0.05190304           16 
 4533000     0.533105   -3.1219771    2886.5366  0.053065237  0.051891651           21 
 4534000   0.52764723   -3.1319706    2885.1924  0.053028826  0.051880376           15 
 4535000    0.5366092   -3.1260733    2884.0125  0.052995452   0.05186903           19 
 4536000   0.53255271    -3.122069    2876.8102  0.052851452  0.051857709           10 
 4537000   0.52725213   -3.1349502    2884.5885   0.05298267  0.051846408            8 
 4538000   0.52575329   -3.1319218    2891.2214  0.053092797  0.051835146           15 
 4539000   0.53296119    -3.130473    2885.9207  0.052983784  0.051823853           16 
 4540000   0.51992589   -3.1173994    2887.0323  0.052992517  0.051812588           11 
 4541000    0.5343795   -3.1475108    2888.4118  0.053006162  0.051801339           11 
 4542000   0.53743495   -3.1281494    2880.9178  0.052856998  0.051790063            7 
 4543000   0.51500714   -3.1473416    2895.1978  0.053107304  0.051778827            5 
 4544000   0.53028053    -3.138685    2891.0736  0.053019983  0.051767606            9 
 4545000   0.52718075   -3.1544438    2881.0147  0.052823885  0.051756352           21 
 4546000   0.52120618    -3.128562    2884.7414   0.05288058  0.051745066           24 
 4547000   0.50904812   -3.1480428    2885.9233  0.052890611  0.051733759           35 
 4548000   0.52519788    -3.130909    2885.0747  0.052863433  0.051722488           24 
 4549000    0.5272871   -3.1348194    2890.9516   0.05295947  0.051711284           12 
 4550000   0.51224444   -3.1367925    2888.3956  0.052901019  0.051700029            6 
 4551000   0.51441651   -3.1445153     2885.712  0.052840254  0.051688715           15 
 4552000   0.52301966   -3.1317047    2883.0994  0.052780817   0.05167743           10 
 4553000   0.51837954   -3.1464887    2889.4651  0.052885736   0.05166614           43 
 4554000   0.51912098   -3.1487018    2882.9135  0.052754237  0.051654885           13 
 4555000   0.52037151   -3.1289086     2895.179  0.052967051   0.05164364            8 
 4556000   0.51426162   -3.1319493    2891.2627  0.052883793   0.05163244            8 
 4557000   0.52401769   -3.1316294    2884.0361  0.052740035  0.051621277            8 
 4558000    0.5129846    -3.133616    2886.3412  0.052770609  0.051610018           10 
 4559000   0.52002694   -3.1480514     2885.589  0.052745284  0.051598815           14 
 4560000   0.51577254   -3.1432501    2888.9146  0.052794491  0.051587571           45 
 4561000   0.52405249   -3.1423323    2892.5363  0.052849088  0.051576303           39 
 4562000   0.52159179   -3.1277525    2886.2944  0.052723483  0.051564993           14 
 4563000   0.52446253   -3.1195905     2890.738  0.052793082  0.051553712           11 
 4564000   0.51534873   -3.1385054    2884.9112  0.052675125  0.051542438           12 
 4565000   0.51467848   -3.1430259    2887.4505  0.052709939  0.051531146           10 
 4566000   0.52807548   -3.1384974    2887.8534  0.052705749  0.051519892            8 
 4567000   0.50568054   -3.1324829    2886.1886   0.05266383  0.051508639           13 
 4568000   0.52653947   -3.1512087    2887.5187  0.052676567  0.051497333           22 
 4569000   0.51115338    -3.145533    2892.0641  0.052747941  0.051486052           14 
 4570000   0.51707442   -3.1261547    2890.0872   0.05270035  0.051474831           15 
 4571000   0.51647478    -3.138557    2889.5828  0.052679624  0.051463599           14 
 4572000   0.52208304   -3.1305924    2888.6242   0.05265063  0.051452356           15 
 4573000   0.52625438   -3.1329049    2888.8673  0.052643548  0.051441079           21 
 4574000   0.52643921   -3.1322184    2889.3114   0.05264013  0.051429845           14 
 4575000   0.52344678   -3.1463297    2885.6014  0.052561045  0.051418535           18 
 4576000   0.51972726   -3.1271707    2891.5557  0.052657992  0.051407237           15 
 4577000    0.5211783   -3.1329965    2883.3342  0.052496799   0.05139594           13 
 4578000   0.52084399   -3.1217633    2890.8314  0.052621804  0.051384677           33 
 4579000   0.52526316   -3.1351509    2888.1929  0.052562294  0.051373438           42 
 4580000   0.50826941   -3.1344295    2892.0269  0.052620578  0.051362196           35 
 4581000   0.50256391   -3.1445765     2889.339  0.052560194  0.051350918           14 
 4582000   0.53397535   -3.1377158    2888.0215  0.052524762  0.051339668           13 
 4583000   0.51261133   -3.1219208    2900.0115  0.052731318  0.051328442            8 
 4584000   0.51007018   -3.1277783    2889.9817  0.052537479  0.051317269            5 
 4585000   0.52140002   -3.1415186    2891.6965  0.052557188  0.051306055           12 
 4586000   0.51325825   -3.1485806    2884.8091  0.052420576  0.051294788           25 
 4587000   0.52481713   -3.1336392    2887.4679  0.052457451  0.051283563           16 
 4588000   0.51853253   -3.1277829    2894.6453  0.052576383  0.051272347           16 
 4589000    0.5183083    -3.151173    2889.1105  0.052464416  0.051261071           19 
 4590000   0.50899133   -3.1439338    2882.7169  0.052336908  0.051249799           11 
 4591000   0.51523154   -3.1345622    2888.9884  0.052439344  0.051238532            8 
 4592000   0.51337692   -3.1333618    2885.8843  0.052371593  0.051227324           17 
 4593000    0.5149244   -3.1214922    2887.4118  0.052387906  0.051216097           10 
 4594000     0.521545   -3.1223819    2887.0523   0.05236998  0.051204852            9 
 4595000   0.51718284    -3.118653     2876.601  0.052169042  0.051193534            6 
 4596000   0.52199524   -3.1475994    2889.0399   0.05238323  0.051182273           16 
 4597000   0.52076383    -3.144155    2886.7456  0.052330245  0.051170984            8 
 4598000   0.52257846   -3.1398981     2889.938  0.052376722  0.051159696           16 
 4599000   0.52362656   -3.1520483    2883.7799  0.052253749  0.051148365           13 
 4600000   0.50567541   -3.1496667    2890.2716  0.052359993  0.051137097           18 
 4601000   0.52825869   -3.1533824    2887.9803  0.052307113  0.051125877           18 
 4602000   0.50153413   -3.1496154    2885.2283  0.052245913  0.051114585           17 
 4603000   0.50675645   -3.1340835    2888.0136  0.052284988  0.051103377           15 
 4604000    0.5260308   -3.1334166    2892.1242  0.052348034  0.051092215            8 
 4605000   0.51310288   -3.1386048    2887.0092  0.052244104  0.051081028           11 
 4606000     0.517855   -3.1478408    2887.1075  0.052234539  0.051069757            8 
 4607000   0.52479029   -3.1442099      2879.86  0.052092107  0.051058472            9 
 4608000    0.5172666   -3.1552413    2887.6254  0.052221235  0.051047178           17 
 4609000   0.50843209   -3.1315182    2884.0485  0.052145232  0.051035862           13 
 4610000   0.50940545   -3.1634052    2877.6223  0.052017757  0.051024594           10 
 4611000   0.52156816   -3.1394169    2885.5391  0.052149554  0.051013319           11 
 4612000   0.51533748   -3.1595425    2885.8642   0.05214412  0.051002104           11 
 4613000   0.51528189   -3.1475329    2891.1191  0.052227746  0.050990865            9 
 4614000   0.51254138   -3.1479574    2883.3428  0.052075978   0.05097968            9 
 4615000   0.52621133   -3.1481727    2898.9713  0.052346899  0.050968472           11 
 4616000   0.52329339   -3.1478159    2884.7723  0.052079222   0.05095725           32 
 4617000   0.52082303   -3.1643617    2888.1382  0.052128695  0.050946043           17 
 4618000   0.51767587   -3.1524918    2881.3344   0.05199463  0.050934775            8 
 4619000   0.52637906   -3.1506428    2888.3154  0.052109319  0.050923531           11 
 4620000   0.51020001   -3.1458202    2882.7772  0.051998146  0.050912321           10 
 4621000   0.51395364   -3.1521315    2888.5431  0.052090874   0.05090113           10 
 4622000   0.51316287   -3.1336838    2885.7746  0.052029687  0.050889935           12 
 4623000   0.52024174   -3.1503572    2892.4336  0.052138467  0.050878727           11 
 4624000   0.51188794   -3.1443189    2885.4747  0.052001779  0.050867519           13 
 4625000    0.5052719    -3.154991    2895.1017  0.052163995  0.050856287           12 
 4626000   0.50485026   -3.1590818    2893.9701  0.052132334  0.050845053           17 
 4627000   0.51195339   -3.1729179     2889.197  0.052035102  0.050833767           12 
 4628000   0.50590047   -3.1435287    2885.6641  0.051960243  0.050822552           10 
 4629000   0.49931587   -3.1475671    2892.0578  0.052064121  0.050811336           24 
 4630000   0.51498025   -3.1362538    2887.2789  0.051966863   0.05080015           16 
 4631000   0.51298695   -3.1858846    2885.3176  0.051920349  0.050788918           14 
 4632000   0.51108637   -3.1656038    2883.4033  0.051874699  0.050777652           10 
 4633000   0.51108973   -3.1710406    2883.9318  0.051873008  0.050766406           19 
 4634000    0.5070528   -3.1323326    2888.0714  0.051936258  0.050755225           21 
 4635000   0.51118886   -3.1683855    2887.1479  0.051908449   0.05074408           19 
 4636000   0.52088973   -3.1357859    2892.4045   0.05199174  0.050732875           11 
 4637000    0.5123573   -3.1771878    2892.6902  0.051985663  0.050721682           12 
 4638000   0.51141383   -3.1626491    2888.6578  0.051902001  0.050710488           20 
 4639000   0.50538528   -3.1584435    2887.5301  0.051870556  0.050699312           29 
 4640000   0.50359207     -3.17447     2895.497   0.05200246  0.050688078           17 
 4641000   0.51832678   -3.1643865    2893.4051  0.051953694  0.050676895           14 
 4642000   0.50795605   -3.1531267    2889.9863  0.051881126  0.050665666           11 
 4643000   0.49599433    -3.154141    2890.1869  0.051873554  0.050654447           16 
 4644000   0.51256746   -3.1375619    2888.3663  0.051829713  0.050643232            9 
 4645000   0.50321094   -3.1550976     2887.804  0.051808468  0.050632016           20 
 4646000   0.50749311   -3.1591731    2888.6884  0.051813179  0.050620793           10 
 4647000   0.50006024   -3.1458503    2891.9613  0.051860721  0.050609603            9 
 4648000   0.51258632   -3.1632969     2886.356  0.051749068  0.050598413            7 
 4649000   0.50144006   -3.1585604    2894.6001  0.051885712  0.050587207           18 
 4650000    0.5055428     -3.16765    2888.9061  0.051772511  0.050576005            8 
 4651000      0.51063   -3.1766511    2890.1927  0.051784432  0.050564776           17 
 4652000   0.51788996   -3.1840856    2885.1335  0.051682672  0.050553521            9 
 4653000   0.50058721   -3.1672882    2882.5968  0.051626133  0.050542273           17 
 4654000   0.50755001   -3.1670775    2880.0406  0.051569271  0.050531028           14 
 4655000   0.50089451   -3.1677375    2889.7578  0.051732148  0.050519838           15 
 4656000   0.49639184   -3.1447565    2888.6415  0.051701058  0.050508646           24 
 4657000   0.50003094   -3.1677198    2895.3198  0.051809459  0.050497504           11 
 4658000   0.51215238   -3.1604233    2886.4383  0.051639444  0.050486356           13 
 4659000   0.51350254   -3.1699038    2885.9642  0.051619879  0.050475204           10 
 4660000   0.50655199   -3.1729119    2885.3647  0.051598082  0.050464012           20 
 4661000    0.5024893   -3.1692719    2895.5302  0.051768758  0.050452782           16 
 4662000   0.49968458   -3.1486496    2888.7766  0.051636933  0.050441584           12 
 4663000    0.4972907   -3.1529583    2883.8319  0.051537491  0.050430387           15 
 4664000   0.50052252   -3.1521404    2892.7602  0.051685966   0.05041915           16 
 4665000   0.50906134   -3.1711269    2886.2393  0.051558402  0.050407924           14 
 4666000   0.50566078    -3.165598    2893.0497  0.051668983  0.050396702           15 
 4667000   0.51435984   -3.1570209    2891.3726  0.051627966  0.050385544           18 
 4668000   0.50669545   -3.1470412    2893.6978  0.051658416  0.050374399           15 
 4669000   0.50798162   -3.1676373    2889.1973  0.051567025  0.050363306           14 
 4670000   0.50428223   -3.1760321    2887.8472  0.051531891  0.050352146           15 
 4671000   0.51333999   -3.1602163    2899.7718    0.0517336   0.05034101            9 
 4672000   0.49937709   -3.1719407     2893.636  0.051613085  0.050329853            6 
 4673000   0.51824211   -3.1617567    2882.8583  0.051409842  0.050318722           16 
 4674000   0.49640393   -3.1656218    2887.9211  0.051489108  0.050307573           11 
 4675000   0.49844127    -3.164778    2886.5674  0.051453965  0.050296411           10 
 4676000   0.49712967   -3.1668541    2881.4782  0.051352264  0.050285232            9 
 4677000   0.50145599   -3.1768179    2886.6397  0.051433249  0.050274045            8 
 4678000   0.49442642   -3.1660229    2893.1806  0.051538774   0.05026285           19 
 4679000   0.50449862   -3.1781993    2881.1754  0.051313944  0.050251689           24 
 4680000   0.50445694   -3.1780703    2885.8843  0.051386829  0.050240498           20 
 4681000   0.49680154   -3.1765307    2888.3963  0.051420571   0.05022929           20 
 4682000   0.50710468   -3.1760219    2892.7652  0.051487349  0.050218152           20 
 4683000   0.49595723   -3.1820324    2889.6305  0.051420573  0.050206982           21 
 4684000   0.50043651   -3.1642792    2883.0153  0.051291903  0.050195792           16 
 4685000   0.49419925   -3.1665878    2889.4758   0.05139587  0.050184599           14 
 4686000   0.50195147   -3.1691623     2892.393   0.05143678  0.050173417            5 
 4687000   0.50386681   -3.1590597    2892.7987  0.051433019  0.050162234           21 
 4688000   0.50027839   -3.1789818    2888.2059  0.051340406  0.050151068           12 
 4689000   0.49854953     -3.16986    2891.3789  0.051385848  0.050139886            9 
 4690000   0.50971049   -3.1786336    2886.4482  0.051287281  0.050128726           28 
 4691000   0.50250525   -3.1822005    2887.3662  0.051292655  0.050117521            9 
 4692000   0.50194621   -3.1743848    2885.2306  0.051243795  0.050106332           21 
 4693000   0.51379428   -3.1527955    2894.1134  0.051390606  0.050095188           27 
 4694000   0.50309351   -3.1730447    2884.9921  0.051217727  0.050084009           13 
 4695000    0.4851867   -3.1775649    2887.7513  0.051255792  0.050072877           19 
 4696000    0.4907385   -3.1667336    2889.8432  0.051281999  0.050061677           16 
 4697000   0.51359942   -3.1581495     2884.192  0.051170819  0.050050468           12 
 4698000   0.49938598   -3.1934079    2884.8877  0.051172267  0.050039315           19 
 4699000   0.49016931   -3.1825066    2886.9711  0.051198324  0.050028156           13 
 4700000   0.50424634   -3.1893666    2883.2661  0.051121739  0.050016974           21 
 4701000   0.50027095   -3.1586393    2898.1588  0.051374863  0.050005805           14 
 4702000   0.51073237   -3.1941624    2880.3347  0.051048042  0.049994659           27 
 4703000   0.50828782   -3.1896529     2879.154  0.051016266  0.049983466           15 
 4704000   0.49675344   -3.1693753    2890.8572  0.051212748  0.049972254           19 
 4705000   0.50241298    -3.195541    2884.6058  0.051091141  0.049961059           10 
 4706000   0.50036982   -3.1816404    2884.7009  0.051081968  0.049949836           14 
 4707000   0.49949945   -3.1803076    2886.0868  0.051095652  0.049938609           13 
 4708000   0.49978562   -3.1812415    2884.0441  0.051048643  0.049927422           10 
 4709000   0.49679084   -3.1708866    2885.6285  0.051065841  0.049916256           20 
 4710000    0.4972064   -3.1677969    2889.9736  0.051131876  0.049905096           10 
 4711000   0.50293758   -3.1689264    2893.8474  0.051189546  0.049893959           20 
 4712000   0.49041663   -3.1604732     2893.628  0.051174802  0.049882829           12 
 4713000   0.50097174   -3.1810943    2892.6627  0.051146876  0.049871708           16 
 4714000   0.50457495   -3.1874939    2888.4793  0.051062072  0.049860561           10 
 4715000    0.4991399   -3.1913174     2889.704  0.051072889  0.049849403           12 
 4716000   0.50500847   -3.1757322    2883.2101  0.050947308  0.049838186           19 
 4717000   0.48974482   -3.1730453    2893.6611  0.051121141  0.049827073           10 
 4718000   0.49315349   -3.1948643    2887.2148  0.050996446  0.049815949           13 
 4719000   0.49826539   -3.1765241     2888.355  0.051005774  0.049804769            9 
 4720000   0.49936603    -3.190699    2892.6822  0.051071367  0.049793645           13 
 4721000   0.49962027   -3.1803419    2887.6393  0.050971533  0.049782561           14 
 4722000   0.50285996    -3.174187    2891.1199  0.051022165  0.049771409           25 
 4723000   0.49745243   -3.1648812    2891.8479  0.051024207  0.049760308           18 
 4724000   0.48879819   -3.1676068    2884.8511  0.050889978  0.049749171            7 
 4725000   0.49109649   -3.1923876    2890.0394  0.050970713  0.049738022           17 
 4726000   0.48963329   -3.1737636    2885.1445  0.050873616  0.049726869           12 
 4727000   0.49025285   -3.1981175    2883.1398  0.050827512  0.049715712            9 
 4728000    0.4915986   -3.1813574    2884.5107  0.050840924  0.049704557           18 
 4729000   0.49623891   -3.1637819    2884.5799  0.050831394  0.049693403           12 
 4730000   0.49862226   -3.1724991    2890.0074  0.050916268  0.049682315           33 
 4731000   0.48582007   -3.1812788    2897.9797  0.051045932  0.049671212           10 
 4732000   0.49230322   -3.1840704    2886.0334  0.050824764  0.049660112           14 
 4733000   0.50422441   -3.1905227    2890.3426  0.050889898  0.049649013           28 
 4734000    0.4942543   -3.1888694    2891.5615  0.050900604  0.049637954           16 
 4735000   0.48025211   -3.1926704    2887.4736   0.05081791  0.049626821           19 
 4736000   0.50741955   -3.1827752    2891.5503  0.050878912  0.049615697           12 
 4737000   0.48372826   -3.1734739    2895.5269  0.050938127  0.049604595           16 
 4738000   0.48724993   -3.1864686    2891.3001  0.050853034  0.049593519           19 
 4739000   0.51572267    -3.190142    2892.4469  0.050862469  0.049582398           15 
 4740000   0.49617101   -3.1918795    2893.7991  0.050875512  0.049571227           13 
 4741000   0.49390329   -3.1907683    2886.3101  0.050733145  0.049560089            6 
 4742000   0.48954456   -3.1734003    2884.5337  0.050691229  0.049548979            9 
 4743000   0.49510943   -3.1813095    2891.3741  0.050800726  0.049537885           13 
 4744000   0.49401579   -3.1803975    2892.8971   0.05081677  0.049526798           12 
 4745000   0.49234383   -3.1858171    2891.0715  0.050773999  0.049515669           10 
 4746000   0.50410086   -3.1937988    2881.2768   0.05059132  0.049504533           21 
 4747000   0.49268948   -3.1962111    2890.0462  0.050734608  0.049493374           20 
 4748000   0.48658037   -3.1888634    2888.7045  0.050700373  0.049482227           14 
 4749000   0.48400877   -3.1870281    2884.6178  0.050617987   0.04947107           20 
 4750000   0.48805584   -3.1817112     2893.177   0.05075749  0.049459953           18 
 4751000     0.477485   -3.1750313    2889.2397  0.050677747  0.049448892           22 
 4752000     0.494407   -3.1738271     2888.998  0.050662844  0.049437825           30 
 4753000   0.49536174   -3.1890042    2889.8211  0.050666616  0.049426731           12 
 4754000   0.48480508    -3.208153     2889.109  0.050643476   0.04941558           17 
 4755000   0.49116083   -3.1831694    2888.3793  0.050620037  0.049404411            8 
 4756000   0.48938037   -3.1914096    2886.6441  0.050578989  0.049393237           14 
 4757000   0.49184716   -3.1992621    2888.8998  0.050607873  0.049382113           18 
 4758000   0.49781574   -3.1880641    2888.2456  0.050585779   0.04937096           12 
 4759000   0.49955481   -3.1901926    2884.0068  0.050500925  0.049359787           17 
 4760000   0.49252306   -3.1913704    2885.9523  0.050524376    0.0493486            9 
 4761000   0.49084337   -3.1926252    2887.8522  0.050547018  0.049337461            8 
 4762000   0.48260665   -3.1925155    2882.9733  0.050451024  0.049326301           10 
 4763000   0.48891158   -3.2008374    2877.0551  0.050336887  0.049315138           20 
 4764000   0.48417314   -3.1862791     2891.229  0.050574254  0.049304026            8 
 4765000   0.49495601   -3.1849273    2887.9864  0.050506932  0.049292917            9 
 4766000   0.48866712   -3.1983034    2884.1692  0.050429592  0.049281812           10 
 4767000   0.49290673   -3.1958823    2891.5774  0.050548518  0.049270665           16 
 4768000   0.48346958   -3.1902747    2888.2745  0.050480189  0.049259566           20 
 4769000   0.50104653   -3.1956285    2886.4665  0.050438011  0.049248428           36 
 4770000   0.48592972   -3.2005885    2893.6754   0.05055338  0.049237321           22 
 4771000   0.48275226   -3.2020862    2890.5777  0.050488676  0.049226212           28 
 4772000     0.481964   -3.1920426    2884.3036  0.050368532  0.049215062           15 
 4773000   0.50049166   -3.1820592    2884.0135  0.050352914  0.049203925           35 
 4774000   0.48753149   -3.1791328    2884.8126  0.050356316  0.049192815           26 
 4775000   0.49099758   -3.2148329    2885.9331  0.050365324  0.049181666           15 
 4776000    0.4881795   -3.1716853     2893.428  0.050485553   0.04917053            8 
 4777000   0.48669905   -3.1957479    2881.5577  0.050267911  0.049159395            7 
 4778000   0.48643428   -3.1996755    2883.3083  0.050287922  0.049148232            6 
 4779000    0.4837323   -3.1940591    2888.5344   0.05036853  0.049137131           11 
 4780000   0.48570619   -3.2014521    2886.6262  0.050324725  0.049126027           24 
 4781000   0.48749307   -3.1778989    2894.0265  0.050443187  0.049114949           20 
 4782000   0.48774456   -3.1834705    2889.1879  0.050348318  0.049103861           11 
 4783000   0.49820926   -3.2068332    2887.1073  0.050301542  0.049092783           10 
 4784000   0.48095215   -3.2112442    2885.7134  0.050266746  0.049081678           16 
 4785000   0.47536109   -3.2138355    2886.4623  0.050269284  0.049070578            7 
 4786000   0.48335816   -3.2089215    2889.4347  0.050310537  0.049059506           11 
 4787000   0.48448808   -3.1913873    2884.7119   0.05021781  0.049048316           16 
 4788000   0.48306098   -3.1797319    2884.7492  0.050207971  0.049037197           19 
 4789000   0.49423077    -3.195881    2891.8126  0.050320398  0.049026068           13 
 4790000   0.47610359   -3.1934394    2891.1624  0.050298581  0.049014981           21 
 4791000   0.49237146   -3.2009808    2895.7934  0.050368633   0.04900386           16 
 4792000   0.47835529   -3.1969217    2882.6074  0.050128815  0.048992774           26 
 4793000   0.49065231   -3.2001839    2887.2968  0.050199889  0.048981625           14 
 4794000   0.47912887   -3.1928244    2890.0711  0.050237643  0.048970486           29 
 4795000   0.47539314   -3.1965882    2889.6071  0.050219102  0.048959386           23 
 4796000   0.49423748    -3.190132    2885.8804  0.050143876  0.048948252           16 
 4797000   0.48710827   -3.1985989    2879.5892  0.050024134  0.048937165           11 
 4798000   0.47648772   -3.1898763    2889.5286  0.050186337  0.048926055            8 
 4799000   0.49295117   -3.1944892    2882.0091  0.050045306  0.048914929           18 
 4800000   0.48440468   -3.2025151    2886.9771  0.050121131  0.048903755           13 
 4801000   0.48790843   -3.2161906    2888.7163  0.050140879  0.048892619           25 
 4802000   0.48212796   -3.2117361    2886.9137  0.050099155  0.048881472           28 
 4803000   0.48836208   -3.2030484       2893.3  0.050199529  0.048870373           13 
 4804000   0.48198769    -3.190931    2883.6127  0.050021035  0.048859255           26 
 4805000   0.48791402   -3.1968178    2888.5095  0.050095552  0.048848178           12 
 4806000   0.47846732    -3.207179    2891.1234  0.050130451  0.048837101           17 
 4807000   0.47103508   -3.2107302    2887.5885  0.050058742  0.048826003            9 
 4808000   0.48458821   -3.2073302    2885.8932  0.050018948  0.048814914           22 
 4809000   0.46943614   -3.2102974    2882.8684  0.049956131  0.048803824           25 
 4810000   0.48848773   -3.2112895    2886.5494  0.050009518  0.048792719           16 
 4811000   0.48773286    -3.186742    2883.0326  0.049938208   0.04878161           20 
 4812000    0.4737274   -3.1983605    2884.9967  0.049961843  0.048770547           17 
 4813000   0.47778986    -3.193972    2892.6413  0.050083823    0.0487595           20 
 4814000   0.48532389   -3.2122062    2891.1037  0.050046803  0.048748398           24 
 4815000   0.48736728   -3.2022834    2886.5508  0.049957611  0.048737319           15 
 4816000   0.48770988   -3.2020412     2890.865  0.050021889  0.048726274           26 
 4817000   0.48508627    -3.204994    2893.6601   0.05005986  0.048715217            8 
 4818000   0.46844109   -3.1984764    2893.7919  0.050051749  0.048704188           16 
 4819000    0.4732101   -3.1838096    2890.5577  0.049985435  0.048693167            7 
 4820000   0.48154047    -3.192852     2896.517  0.050078094  0.048682116           10 
 4821000   0.48524442   -3.2014266    2892.7153  0.050001994  0.048671054            8 
 4822000   0.47521601   -3.2044449    2887.2998  0.049898033  0.048659982           16 
 4823000   0.47407794   -3.1940634    2897.0199  0.050055635  0.048648891           39 
 4824000   0.46583368   -3.1979181    2888.6713  0.049901039  0.048637817           10 
 4825000   0.47590942   -3.1982547     2883.602  0.049803144  0.048626748           22 
 4826000   0.48266519   -3.2321936    2884.5648  0.049809448  0.048615658           10 
 4827000   0.47551975   -3.2032893    2887.7938  0.049854875  0.048604529           17 
 4828000   0.47256556   -3.2005316    2883.0049   0.04976189  0.048593419           16 
 4829000   0.47785441   -3.2126113    2887.2624  0.049825056  0.048582294           43 
 4830000   0.47967123    -3.214243     2882.855  0.049738699  0.048571213           37 
 4831000   0.46888937    -3.207048    2889.0202   0.04983475  0.048560165           20 
 4832000   0.47868521   -3.2078501    2881.3971  0.049692969  0.048549097           13 
 4833000   0.47703384   -3.1967482    2890.8538  0.049845744  0.048538013           16 
 4834000    0.4756788   -3.2155653    2887.1621  0.049771792  0.048526925           23 
 4835000   0.47596112   -3.2005115    2891.1018    0.0498294  0.048515833           17 
 4836000   0.46162024   -3.2212126    2881.4176   0.04965222  0.048504738           23 
 4837000   0.47600706   -3.2177141    2884.6269  0.049697245  0.048493578           25 
 4838000   0.49248695   -3.2137681    2885.7991  0.049707163  0.048482471           32 
 4839000   0.48545971   -3.2032412     2887.365  0.049723858  0.048471359           13 
 4840000   0.47387134    -3.207865    2888.7437  0.049737323  0.048460282           48 
 4841000   0.47019916   -3.1942348    2886.6176   0.04969045  0.048449205           16 
 4842000   0.47682874    -3.203611    2889.3999  0.049728073  0.048438139           24 
 4843000   0.48051059   -3.2086573     2886.704  0.049671415  0.048427087           12 
 4844000   0.47874847   -3.2093408    2889.7534  0.049713622  0.048416017           12 
 4845000   0.47564761   -3.2017438    2880.3716  0.049541996   0.04840494           25 
 4846000   0.48026768   -3.2063344    2896.9147  0.049816253  0.048393879           17 
 4847000   0.45550773    -3.210964    2891.3387  0.049710107  0.048382864           27 
 4848000   0.47762875    -3.209287     2890.764  0.049689976   0.04837182           39 
 4849000   0.47464665   -3.2127579    2892.2645  0.049705515  0.048360793           22 
 4850000   0.46795817     -3.21442    2883.7793  0.049549473  0.048349761           12 
 4851000   0.47217783   -3.2224945    2885.7419  0.049572973  0.048338679           11 
 4852000   0.46851994   -3.2267814     2888.988  0.049618509  0.048327593           20 
 4853000   0.48365786   -3.1996381    2888.5298  0.049600415  0.048316537           22 
 4854000   0.47562768   -3.2103949    2884.5893  0.049522546  0.048305516           12 
 4855000   0.46733537   -3.2168755    2890.5548   0.04961474  0.048294473           10 
 4856000    0.4648135   -3.2128169    2889.8171  0.049591863  0.048283439           21 
 4857000   0.49042597   -3.2104406    2893.2644    0.0496408  0.048272414            8 
 4858000   0.46523421   -3.2280596    2888.3216  0.049545795  0.048261391           18 
 4859000   0.47120765   -3.2237873    2893.0541  0.049616761  0.048250334           60 
 4860000   0.47243015    -3.211558    2884.6393  0.049462264  0.048239274           29 
 4861000    0.4709512   -3.2178198    2886.0574  0.049476401  0.048228184           16 
 4862000   0.47848548   -3.2171735     2888.869  0.049514415  0.048217132           13 
 4863000   0.47811521   -3.2103213    2887.8059  0.049486015  0.048206103           10 
 4864000   0.47258166   -3.2123551    2885.2893  0.049432726  0.048195055           29 
 4865000   0.46410194   -3.2252432    2879.3829  0.049321393  0.048183992           24 
 4866000   0.47225273   -3.2297216    2882.0361  0.049356694  0.048172911           11 
 4867000   0.46497743   -3.2318836    2886.5164  0.049423266  0.048161853           11 
 4868000   0.47910923   -3.2216631     2889.846  0.049470111  0.048150814           12 
 4869000   0.46996378   -3.2221334    2895.9178   0.04956387  0.048139819           10 
 4870000   0.46639097   -3.2200523    2889.2446  0.049439504  0.048128802           19 
 4871000   0.49339471   -3.2201786    2881.8629  0.049303068  0.048117803           11 
 4872000   0.46688059   -3.2164171    2891.1438  0.049451694  0.048106848           25 
 4873000   0.47077622   -3.2227279    2891.4805  0.049447303   0.04809589           24 
 4874000   0.47017547   -3.2229992    2885.2187  0.049330097  0.048084912           11 
 4875000   0.46842964   -3.2297664     2887.343  0.049356291  0.048073909           21 
 4876000   0.46327285   -3.2178577    2888.3127  0.049362741  0.048062917           10 
 4877000   0.47695312   -3.2240076      2884.41  0.049285933  0.048051934            8 
 4878000   0.46652335   -3.2288046    2888.8634   0.04935191  0.048040963           19 
 4879000   0.46062026   -3.2187019    2892.0647  0.049396473  0.048029959           13 
 4880000   0.47349139   -3.2299805    2891.6714  0.049379635  0.048019002           31 
 4881000   0.46740164   -3.2146656    2882.2136  0.049208044  0.048008012           17 
 4882000   0.45772869   -3.2150918    2889.4446  0.049321394  0.047997023            8 
 4883000   0.46750679   -3.2195493    2886.7341  0.049265037  0.047986066           17 
 4884000   0.47430827    -3.220999    2886.9475  0.049258591  0.047975088           30 
 4885000   0.46901236   -3.2095132     2888.607  0.049276817  0.047964111           21 
 4886000   0.47069144   -3.2198459    2890.4392  0.049297981  0.047953136           16 
 4887000    0.4816189   -3.2168539    2891.0475  0.049298266  0.047942139           39 
 4888000    0.4709535    -3.230718    2883.2381  0.049155041  0.047931127           24 
 4889000   0.47017336   -3.2181876    2886.3728  0.049198419  0.047920106           13 
 4890000   0.47442813   -3.2308704    2888.7541  0.049228939  0.047909129           22 
 4891000   0.47139551   -3.2224188    2881.6035  0.049097041  0.047898149           20 
 4892000   0.47077114    -3.232505    2885.6462  0.049155871  0.047887116           43 
 4893000    0.4646348   -3.2248789    2883.2604  0.049105192   0.04787616           12 
 4894000   0.46462318   -3.2329005    2888.6341  0.049186658  0.047865161           19 
 4895000   0.46854816      -3.2365    2885.3898  0.049121379  0.047854134           15 
 4896000   0.46639318    -3.234477    2886.5315  0.049130778  0.047843158           15 
 4897000   0.47629229     -3.23854    2885.2946  0.049099698  0.047832131           21 
 4898000   0.46637797    -3.213015    2894.9223  0.049253476  0.047821162           28 
 4899000   0.48127688   -3.2121317    2892.2281  0.049197593  0.047810222           14 
 4900000   0.47721145   -3.2342321    2889.1403  0.049135039  0.047799271           18 
 4901000   0.47843532   -3.2122099    2887.2098  0.049092189  0.047788303           16 
 4902000   0.47391553   -3.2315253    2890.5447  0.049138867  0.047777328           17 
 4903000    0.4643915    -3.232565    2891.2439  0.049140729  0.047766401           20 
 4904000   0.46692979   -3.2196918     2891.889  0.049141669  0.047755401           22 
 4905000   0.47927593   -3.2190832    2885.2682  0.049019167  0.047744452           35 
 4906000   0.46022237   -3.2202594    2890.1458  0.049092027  0.047733481           17 
 4907000    0.4753371   -3.2276283    2889.9879   0.04907934  0.047722551            8 
 4908000   0.44894092   -3.2241343    2884.1205  0.048969717  0.047711592           14 
 4909000   0.46518844   -3.2079348    2882.4199  0.048930874  0.047700626           16 
 4910000   0.47537645   -3.2245225    2887.6018  0.049008856  0.047689654           18 
 4911000   0.46300506   -3.2355127    2884.7434  0.048950374   0.04767868           51 
 4912000   0.48198679    -3.231021    2883.8104  0.048924579  0.047667694           24 
 4913000   0.46775899   -3.2273073    2884.9159  0.048933372  0.047656684           22 
 4914000   0.47756245   -3.2238742    2889.0179  0.048992977  0.047645711           22 
 4915000   0.47133747   -3.2218138    2890.6018  0.049009865  0.047634774           15 
 4916000   0.45971816   -3.2288057    2888.0921  0.048957352  0.047623836           18 
 4917000   0.46310986    -3.237454    2883.0999  0.048862787  0.047612885           18 
 4918000   0.46684622   -3.2248514    2889.8504  0.048967236  0.047601918           13 
 4919000   0.46695673   -3.2102501    2892.6647  0.049004958  0.047591005           15 
 4920000   0.46785692   -3.2337868    2892.9285  0.048999466  0.047580048           14 
 4921000   0.46671706   -3.2369436    2887.3601  0.048895213  0.047569074           16 
 4922000   0.46256511   -3.2257036    2879.6929  0.048755467  0.047558068           21 
 4923000   0.45856879   -3.2331526     2885.338   0.04884112  0.047547111           21 
 4924000   0.47034954   -3.2379036    2884.0374   0.04880919  0.047536134           23 
 4925000   0.45438396   -3.2497432     2887.779  0.048862589  0.047525183           14 
 4926000   0.45554254   -3.2356487    2883.8045  0.048785433  0.047514209           15 
 4927000    0.4654446   -3.2484185    2883.6389  0.048772731  0.047503245            8 
 4928000   0.46377315   -3.2341772    2882.8133  0.048748872  0.047492304            8 
 4929000   0.46000573   -3.2353373    2884.4447  0.048766564  0.047481336           34 
 4930000   0.47331533    -3.237857    2888.3321  0.048822381  0.047470343           28 
 4931000   0.45544944   -3.2318392    2888.7726  0.048819925  0.047459371           10 
 4932000   0.46632902   -3.2282946    2886.1743  0.048766125  0.047448405           10 
 4933000     0.459235   -3.2322149    2891.8145  0.048851519  0.047437481           14 
 4934000   0.44791305    -3.248882     2886.367  0.048749611  0.047426564           44 
 4935000    0.4613977   -3.2279961    2879.8628  0.048629902  0.047415608           21 
 4936000   0.46010547   -3.2260896    2887.2552  0.048744853  0.047404694           48 
 4937000   0.46233243   -3.2402383    2884.5694  0.048689647  0.047393753           42 
 4938000    0.4528925   -3.2349368    2885.2213  0.048690787  0.047382796           53 
 4939000   0.46777142   -3.2303177    2891.2685  0.048782961  0.047371857           28 
 4940000   0.45087972    -3.235947    2889.0269  0.048735272  0.047360921           35 
 4941000    0.4643256   -3.2298616    2884.1745   0.04864357  0.047349982           51 
 4942000   0.46048848   -3.2469271    2883.0481  0.048614732   0.04733905           22 
 4943000    0.4604272   -3.2398865    2887.2788  0.048676223  0.047328091           11 
 4944000   0.46427391    -3.239012    2882.1919  0.048580635  0.047317172           32 
 4945000   0.47343638   -3.2342424    2885.0338  0.048618703  0.047306248           15 
 4946000   0.45392601   -3.2291175     2886.216  0.048628792  0.047295336           20 
 4947000   0.45018211   -3.2310135    2891.4958    0.0487079  0.047284414           11 
 4948000   0.46858331   -3.2388464    2885.1656  0.048591445  0.047273523           31 
 4949000   0.45809779   -3.2812765     2872.606  0.048370143  0.047262551           62 
 4950000    0.4583928   -3.2445112     2890.274  0.048657811  0.047251538           15 
 4951000   0.46298338   -3.2489637    2878.2969   0.04844639  0.047240575           13 
 4952000   0.44939295    -3.242394    2885.0575  0.048550376  0.047229633           34 
 4953000   0.45265123   -3.2375688    2885.1069  0.048541404   0.04721871           23 
 4954000   0.46433005    -3.233105    2883.8506  0.048510473  0.047207778           19 
 4955000   0.46221531   -3.2484351    2890.6922  0.048615745  0.047196829           19 
 4956000    0.4493809   -3.2596223    2883.7863  0.048489816  0.047185889           22 
 4957000   0.45277966   -3.2557931    2882.2793  0.048454699   0.04717495           27 
 4958000   0.45272155   -3.2507023    2880.0776   0.04840792  0.047164005           22 
 4959000   0.44928947    -3.245182    2887.6441   0.04852531  0.047153085           20 
 4960000   0.46173546   -3.2474767    2878.1582  0.048356153  0.047142154           14 
 4961000   0.46378427   -3.2475568    2892.1163  0.048580869  0.047131225           54 
 4962000   0.45530477   -3.2489808     2884.521  0.048443521   0.04712027           56 
 4963000   0.44847714   -3.2390206    2891.2581  0.048546881  0.047109328           21 
 4964000   0.45931425   -3.2548141     2887.581  0.048475373  0.047098403           18 
 4965000    0.4534708   -3.2399646    2888.6475   0.04848351  0.047087478           27 
 4966000   0.45044868    -3.220982    2885.9107  0.048427821  0.047076574           17 
 4967000   0.45830736   -3.2411437    2882.2028  0.048355862  0.047065658           21 
 4968000    0.4536621   -3.2444288     2886.646   0.04842066  0.047054765           15 
 4969000   0.44519446    -3.237011    2888.2727  0.048438194  0.047043877           18 
 4970000   0.45812586   -3.2484101    2888.7334  0.048436173  0.047033001           17 
 4971000   0.46326993   -3.2310113    2890.0863  0.048449109  0.047022128           24 
 4972000   0.46212082   -3.2518038    2884.6349  0.048347997  0.047011252           18 
 4973000    0.4609209    -3.251152    2886.9628  0.048377283  0.047000353           13 
 4974000   0.45407236   -3.2522927    2887.8711  0.048382776  0.046989481           12 
 4975000   0.44930138   -3.2369935    2889.2245   0.04839572  0.046978607            9 
 4976000   0.45683843   -3.2591479    2886.2956  0.048336944  0.046967658           13 
 4977000    0.4526172   -3.2498329    2877.4039  0.048178352  0.046956682           19 
 4978000   0.44885194    -3.253715    2885.7671  0.048308676  0.046945744           36 
 4979000   0.46260347   -3.2468242    2888.8726   0.04835095  0.046934856           73 
 4980000     0.455194    -3.247871    2883.0947  0.048244557  0.046923947           10 
 4981000    0.4529663   -3.2439188    2884.0602  0.048251023  0.046913037           44 
 4982000   0.44257608   -3.2495159    2888.3362  0.048312862  0.046902135           26 
 4983000   0.45705574   -3.2404539    2882.0638  0.048198272  0.046891253           37 
 4984000    0.4599465   -3.2493133    2879.8759  0.048152018  0.046880334           23 
 4985000   0.46351096   -3.2593038    2884.4955  0.048219584  0.046869431           18 
 4986000   0.46161414   -3.2576579    2881.0273  0.048151947  0.046858515           22 
 4987000   0.45920848   -3.2556215    2885.9755  0.048224976  0.046847593           29 
 4988000    0.4629845   -3.2692761    2885.9848  0.048215464  0.046836705           16 
 4989000   0.45476099   -3.2748784    2881.1679   0.04812534  0.046825804           23 
 4990000   0.44381468    -3.252636    2884.1431  0.048165382   0.04681489           29 
 4991000   0.45475061   -3.2506322    2887.5536  0.048212676  0.046804002           29 
 4992000   0.46374835   -3.2386568    2884.3842   0.04815011  0.046793136            8 
 4993000    0.4588326    -3.249769    2881.4938  0.048092225  0.046782266           13 
 4994000    0.4480225   -3.2526679     2885.224   0.04814484  0.046771413           11 
 4995000   0.44378255   -3.2486423     2888.646  0.048192292  0.046760544           17 
 4996000   0.45452076   -3.2417092    2881.6865  0.048066561  0.046749681           21 
 4997000     0.451005   -3.2591038    2881.9878  0.048061967  0.046738826           86 
 4998000   0.43961854   -3.2691897    2886.6142  0.048129488  0.046727918           46 
 4999000   0.44721228   -3.2558781     2885.682  0.048104321  0.046717012           46 
 5000000   0.46280739   -3.2385153    2886.0497  0.048100828  0.046706152           28 
 5001000    0.4563956   -3.2673612    2886.4692  0.048098201  0.046695309           44 
 5002000   0.45034616   -3.2472596    2882.4576  0.048021752  0.046684402           25 
 5003000   0.45712485   -3.2480265    2880.9177  0.047986504  0.046673508           46 
 5004000   0.45343681   -3.2534639    2889.6103  0.048121674  0.046662647            9 
 5005000   0.45181921   -3.2583941    2885.6034  0.048045344  0.046651764           18 
 5006000   0.45448953   -3.2639715    2889.9073  0.048107393  0.046640901           19 
 5007000   0.46268368   -3.2492094    2884.7088  0.048011264  0.046630028           20 
 5008000   0.45648086   -3.2538703    2880.6276  0.047933765  0.046619161           32 
 5009000   0.45280357    -3.244964     2889.899  0.048078442  0.046608306           30 
 5010000   0.44725001   -3.2443058    2890.7417  0.048082863  0.046597462           12 
 5011000   0.45420994   -3.2565334    2886.1273   0.04799653  0.046586605           15 
 5012000   0.43804519   -3.2496971    2884.4577  0.047959193  0.046575781           15 
Loop time of 12175.4 on 48 procs for 5000000 steps with 4000 atoms

Performance: 70962.612 tau/day, 410.663 timesteps/s
99.4% CPU use with 48 MPI tasks x no OpenMP threads

MPI task timing breakdown:
Section |  min time  |  avg time  |  max time  |%varavg| %total
---------------------------------------------------------------
Pair    | 777.12     | 829.08     | 882.05     |  97.7 |  6.81
Neigh   | 81.036     | 83.938     | 88.691     |  19.2 |  0.69
Comm    | 766.17     | 830.54     | 881.98     | 110.4 |  6.82
Output  | 13.597     | 13.603     | 13.685     |   0.3 |  0.11
Modify  | 10274      | 10303      | 10325      |  14.9 | 84.62
Other   |            | 115        |            |       |  0.94

Nlocal:        83.3333 ave          89 max          77 min
Histogram: 2 4 1 6 4 14 6 3 4 4
Nghost:        2157.38 ave        2179 max        2135 min
Histogram: 1 4 5 7 3 11 5 8 3 1
Neighs:        14178.8 ave       15271 max       12600 min
Histogram: 1 2 3 3 8 10 3 3 11 4
FullNghs:      28357.2 ave       30408 max       26164 min
Histogram: 2 4 1 8 9 7 6 2 6 3

Total # of neighbors = 1361146
Ave neighs/atom = 340.28650
Neighbor list builds = 271751
Dangerous builds = 0

#clear
#
#next RN
#
#jump SELF
Total wall time: 3:22:58
