
units lj                  # Use reduced LJ style units
atom_style atomic         # Uncharged point particles
atom_modify map hash      # Needed for indexing of clusters etc
                          # Used to be able to find where atoms are in relation to each other.

lattice fcc 1.0 spacing 1 1 1
Lattice spacing in x,y,z = 1.5874011 1.5874011 1.5874011
region box block 0 10 0 10 0 10 units lattice
create_box 2 box
Created orthogonal box = (0.0000000 0.0000000 0.0000000) to (15.874011 15.874011 15.874011)
  3 by 4 by 4 MPI processor grid
create_atoms 1 box
Created 4000 atoms
  using lattice units in orthogonal box = (0.0000000 0.0000000 0.0000000) to (15.874011 15.874011 15.874011)
  create_atoms CPU = 0.002 seconds
set type 1 type/fraction 2 0.03 78393
Setting atom values ...
  125 settings made for type/fraction
mass 1 1.0
mass 2 1.0
pair_style lj/cut  3.5
pair_modify tail  yes
pair_coeff 1  1  1.0  1.0   # Intearaction between 1 and 1 set with epsilon = 1 and sigma = 1
pair_coeff 1  2  1.5  0.8
pair_coeff 2  2  0.5  0.88

write_data data.0
System init for write_data ...
Neighbor list info ...
  update every 1 steps, delay 10 steps, check yes
  max neighbors/atom: 2000, page size: 100000
  master list distance cutoff = 3.8
  ghost atom cutoff = 3.8
  binsize = 1.9, bins = 9 9 9
  1 neighbor lists, perpetual/occasional/extra = 1 0 0
  (1) pair lj/cut, perpetual
      attributes: half, newton on
      pair build: half/bin/atomonly/newton
      stencil: half/bin/3d
      bin: standard
WARNING: Not all mixed pair coeffs generated from mixing. Use write_data with 'pair ij' option to store all pair coeffs. (../write_data.cpp:312)


#############################
#   M E L T   S Y S T E M   #
#############################

velocity all create 2.4 9580093 mom yes dist gaussian # Assign velocities
                                                    # Temperature 2.4, random number seed, zero linear momentum
                                                                                # Gaussian distribution

timestep 0.002   # simulation timestep
thermo 1000       # output thermodynamic data every 1000 steps bf 100

# Define a fix  in this case with index 1 applied to all
# particles in the simulation. This fix is for simulations
# in the anisotropic NPT ensemble. Note that we use the MTK
# correction.
fix 1 all npt temp 2.4 2.4 0.1 iso 5.68 5.68 0.5 mtk yes tchain 5 pchain 5 # Use NPT ensemble
                                                                         # Set temperature and pressure and damping
                                                                         # Numbers of thermostats in chain and in barostat
run 10000          # run for 10000 steps
Per MPI rank memory allocation (min/avg/max) = 3.642 | 3.644 | 3.648 Mbytes
Step Temp E_pair E_mol TotEng Press Volume 
       0          2.4    -8.178823            0    -4.579723   -2.4950487         4000 
    1000    2.3675575   -4.4538659            0  -0.90341751    5.5752227    5115.6605 
    2000    2.3925804   -4.4533595            0  -0.86538607    5.9651676    5058.6836 
    3000    2.4796345   -4.4252955            0  -0.70677362    5.6159186    5132.5284 
    4000    2.3758844   -4.3685507            0  -0.80561498    6.0953095    5092.9359 
    5000    2.3886522    -4.410997            0  -0.82891444     5.648329    5138.7719 
    6000    2.3556221   -4.4380159            0  -0.90546608    5.7679968     5096.012 
    7000    2.4425505   -4.4740679            0  -0.81115822    5.5755598    5107.3151 
    8000    2.4234459   -4.4423681            0  -0.80810814    5.7925611    5094.2031 
    9000    2.3914583   -4.4459032            0  -0.85961254    5.6064141    5112.7656 
   10000      2.43925   -4.4815878            0  -0.82362749    5.5245262    5114.5518 
Loop time of 2.08778 on 48 procs for 10000 steps with 4000 atoms

Performance: 827673.627 tau/day, 4789.778 timesteps/s
99.6% CPU use with 48 MPI tasks x no OpenMP threads

MPI task timing breakdown:
Section |  min time  |  avg time  |  max time  |%varavg| %total
---------------------------------------------------------------
Pair    | 0.84502    | 0.92262    | 0.99134    |   3.5 | 44.19
Neigh   | 0.16988    | 0.17506    | 0.18943    |   1.0 |  8.38
Comm    | 0.63599    | 0.72086    | 0.81788    |   4.6 | 34.53
Output  | 0.00024287 | 0.00024649 | 0.00030994 |   0.0 |  0.01
Modify  | 0.22784    | 0.25488    | 0.30529    |   4.1 | 12.21
Other   |            | 0.01412    |            |       |  0.68

Nlocal:        83.3333 ave          93 max          77 min
Histogram: 6 6 1 15 5 7 3 1 2 2
Nghost:        1392.10 ave        1417 max        1359 min
Histogram: 2 0 7 2 6 9 6 6 7 3
Neighs:        7440.35 ave        8584 max        6462 min
Histogram: 2 4 2 7 15 6 7 2 2 1

Total # of neighbors = 357137
Ave neighs/atom = 89.284250
Neighbor list builds = 911
Dangerous builds = 232

# Equilibrate just above the melting temperature to avoid step fn in T

fix 1 all npt temp 1.25 1.25 0.1 iso 5.68 5.68 0.5 mtk yes tchain 5 pchain 5
run 2000
Per MPI rank memory allocation (min/avg/max) = 3.643 | 3.645 | 3.648 Mbytes
Step Temp E_pair E_mol TotEng Press Volume 
   10000      2.43925   -4.4815878            0  -0.82362749    5.5245262    5114.5518 
   11000    1.2831936   -5.9656528            0   -4.0413435     5.608762     4236.079 
   12000     1.250845   -5.9369014            0    -4.061103    5.6475487    4245.1002 
Loop time of 0.459724 on 48 procs for 2000 steps with 4000 atoms

Performance: 751756.216 tau/day, 4350.441 timesteps/s
99.6% CPU use with 48 MPI tasks x no OpenMP threads

MPI task timing breakdown:
Section |  min time  |  avg time  |  max time  |%varavg| %total
---------------------------------------------------------------
Pair    | 0.19503    | 0.21332    | 0.24532    |   1.9 | 46.40
Neigh   | 0.031009   | 0.032422   | 0.035971   |   0.5 |  7.05
Comm    | 0.12847    | 0.15957    | 0.18135    |   2.7 | 34.71
Output  | 5.0494e-05 | 5.1818e-05 | 6.6118e-05 |   0.0 |  0.01
Modify  | 0.040768   | 0.049878   | 0.058666   |   2.6 | 10.85
Other   |            | 0.004489   |            |       |  0.98

Nlocal:        83.3333 ave          91 max          78 min
Histogram: 5 3 6 11 6 4 8 4 0 1
Nghost:        1577.33 ave        1596 max        1551 min
Histogram: 1 0 1 4 10 10 10 3 5 4
Neighs:        8979.46 ave        9800 max        8177 min
Histogram: 1 5 5 9 6 4 5 7 4 2

Total # of neighbors = 431014
Ave neighs/atom = 107.75350
Neighbor list builds = 143
Dangerous builds = 12

#############################
# L I N E A R  Q U E N C H  #
#############################

# Define solid atoms. This closely follows ten Wolde  Ruiz-Montero and Frenkel  Faraday Discuss  1996  104  93-110
# Compute components of the per-atom q6 vector
compute q6 all orientorder/atom degrees 1 6 components 6 nnn NULL cutoff 1.3 # compute the Q6 parameter.
                                                                             # Use all neighbours within 1.3 unit cell.

# get number of connections
compute coord_number all coord/atom orientorder q6 0.5

# An atom is solid if it has 8 or more connections (of a possible 14)
variable is_solid atom c_coord_number>=8
group solid dynamic all var is_solid    # Must be dynamic to update
dynamic group solid defined

# do clustering
compute cluster solid cluster/atom 1.3 # Create a cluster where all atoms within are solid and max 1.3 units from another member

# define chunks one chunk per cluster
compute clus_chunks solid chunk/atom c_cluster nchunk every compress yes  # Says which atoms are in which chunk

# count the size of each chunk
compute size_chunks solid property/chunk clus_chunks count


# Find the maximum entry in the vector of chunk sizes
variable max_n equal max(c_size_chunks)


# Thermo style which includes this variable
# thermo_style custom step temp pe vol v_max_n

thermo ${N}  # Print the thermo information every 100 steps
thermo 1000  

# Reset the npt fix at a lower temperature (below freezing)
fix 1  all npt temp  ${temp} ${temp}  0.1  iso  5.68  5.68  0.5  mtk yes tchain  5  pchain  5
fix 1  all npt temp  0.45 ${temp}  0.1  iso  5.68  5.68  0.5  mtk yes tchain  5  pchain  5
fix 1  all npt temp  0.45 0.45  0.1  iso  5.68  5.68  0.5  mtk yes tchain  5  pchain  5

dump dmp2 all dcd ${N} traj.dcd
dump dmp2 all dcd 1000 traj.dcd


compute msd all msd com yes
variable twopoint equal c_msd[4]/6/(step*dt+1.0e-6)
fix 9 all vector 10 c_msd[4]
variable fit equal slope(f_9)/6/(10*dt)
thermo_style custom step temp pe c_msd[4] v_twopoint v_fit v_max_n

fix 1 all npt temp 1.25 ${temp} 0.1 iso 5.68 5.68 0.5 mtk yes tchain 5 pchain 5
fix 1 all npt temp 1.25 0.45 0.1 iso 5.68 5.68 0.5 mtk yes tchain 5 pchain 5
run 2000000 # 5000000  # Run for this many steps
Neighbor list info ...
  update every 1 steps, delay 10 steps, check yes
  max neighbors/atom: 2000, page size: 100000
  master list distance cutoff = 3.8
  ghost atom cutoff = 3.8
  binsize = 1.9, bins = 9 9 9
  4 neighbor lists, perpetual/occasional/extra = 1 3 0
  (1) pair lj/cut, perpetual
      attributes: half, newton on
      pair build: half/bin/atomonly/newton
      stencil: half/bin/3d
      bin: standard
  (2) compute orientorder/atom, occasional
      attributes: full, newton on
      pair build: full/bin/atomonly
      stencil: full/bin/3d
      bin: standard
  (3) compute coord/atom, occasional
      attributes: full, newton on
      pair build: full/bin/atomonly
      stencil: full/bin/3d
      bin: standard
  (4) compute cluster/atom, occasional
      attributes: full, newton on
      pair build: full/bin/atomonly
      stencil: full/bin/3d
      bin: standard
Per MPI rank memory allocation (min/avg/max) = 9.734 | 9.737 | 9.742 Mbytes
Step Temp PotEng c_msd[4] v_twopoint v_fit v_max_n 
   12000     1.250845   -5.9369014 2.9034026e-30 2.0162517e-32 8.3333333e+20            3 
   13000    1.2580945   -5.9599042   0.54291252 0.0034802083  0.043935173            2 
   14000     1.240455   -5.9662387    1.1353843 0.0067582399   0.04638883            3 
   15000    1.2472848   -5.9506221    1.7056477 0.0094758204  0.047387411            4 
   16000    1.2424973   -5.9618942    2.2554414   0.01174709  0.047431903            5 
   17000    1.2454004   -5.9661806    2.8139778  0.013794008  0.047109033            4 
   18000    1.2403595   -5.9584154    3.3527496  0.015521989  0.046865894            4 
   19000    1.2504242   -5.9411612    3.9098261   0.01714836  0.046577118            1 
   20000    1.2551065   -5.9749859    4.2909582  0.017878992  0.045930284            5 
   21000    1.2515198   -5.9104472    4.8785207  0.019359209  0.045259023            2 
   22000    1.2233048   -5.9744176    5.4466635  0.020631301  0.045000481            2 
   23000    1.2602907   -5.9901501    5.9408026  0.021524647  0.044806317            2 
   24000    1.2404434   -5.9811982    6.5623395  0.022785901  0.044794909            3 
   25000    1.2369448   -5.9516741    7.1710378  0.023903459   0.04497297            2 
   26000    1.2364389   -5.9617092    7.7556988  0.024858009   0.04526124            3 
   27000     1.241364   -5.9580813    8.3575196  0.025794813  0.045550292            5 
   28000    1.2246621   -5.9669503    8.8611133   0.02637236   0.04577255            2 
   29000    1.2417678   -5.9469448    9.3021355  0.026730274  0.045699376            2 
   30000    1.2334887   -5.9606427    9.7556848  0.027099124    0.0455577            6 
   31000    1.2194596   -5.9700688    10.396985  0.027948885  0.045483771            3 
   32000    1.2402548   -5.9255216    11.007531  0.028665445  0.045510778            4 
   33000    1.2314982   -5.9512191    11.601536  0.029296808  0.045574006            3 
   34000    1.2548142   -5.9510257    12.107616  0.029675528  0.045620439            4 
   35000    1.2531327    -5.955481    12.473642  0.029699148  0.045577998            2 
   36000    1.2499422   -5.9504259    12.952466  0.029982559  0.045427379            3 
   37000    1.2583426   -5.9794499    13.441924  0.030274604  0.045273663            2 
   38000    1.2303956   -5.9528451    14.061354  0.030836301  0.045170243            3 
   39000    1.2667772   -5.9791025    14.567258   0.03112662  0.045090405            6 
   40000    1.1979157   -5.9949824    15.161178  0.031585787  0.045055692            2 
   41000    1.2340428   -5.9627474    15.681451  0.031872867  0.045029314            3 
   42000    1.2577841   -5.9585097    16.169845  0.032083025  0.044972564            3 
   43000    1.2131418   -5.9540861    16.625342  0.032219654  0.044889228            3 
   44000    1.2630959   -5.9576395     17.18404   0.03254553  0.044794668            3 
   45000      1.23865   -5.9937251    17.820955  0.033001768  0.044749673            2 
   46000    1.2484962   -5.9898707    18.198885  0.032968994  0.044699268            3 
   47000    1.2192689    -5.956637    18.691617  0.033141165  0.044633058            2 
   48000    1.2226088   -5.9684011    19.133623  0.033218095  0.044538548            7 
   49000     1.243248   -5.9578214    19.770149  0.033622702  0.044466878            4 
   50000    1.2190218   -5.9779249    20.420792  0.034034653  0.044433013            2 
   51000    1.2579261   -5.9870666    20.874299  0.034108331   0.04441133            4 
   52000    1.2418427   -5.9765305    21.345593   0.03420768   0.04437819            2 
   53000    1.2301651   -5.9732335     21.85241  0.034359134  0.044347805            3 
   54000    1.2133918   -5.9580452    22.223801  0.034295988   0.04430509            3 
   55000    1.2225509   -5.9757056    22.735895  0.034448326  0.044233655            2 
   56000    1.2097248   -6.0280633     23.21143  0.034540818   0.04415937            3 
   57000     1.209879   -5.9669051    23.712075  0.034666776  0.044086675            2 
   58000    1.2165596   -5.9712164     24.21536  0.034792183  0.044016115            3 
   59000    1.2357867    -5.993542    24.931642  0.035214183  0.043968709            3 
   60000    1.2498961   -5.9754738    25.316826  0.035162259  0.043933203           13 
   61000    1.2635013   -5.9888874    25.818452  0.035271109  0.043877905            1 
   62000    1.2213856   -5.9693103    26.264651  0.035301949  0.043823243            2 
   63000    1.2546282   -6.0102081    26.842622  0.035506113  0.043774119            4 
   64000    1.2208479   -5.9577788    27.441125  0.035730632  0.043731727            4 
   65000    1.2275148   -6.0030141    27.951269   0.03583496  0.043703494            2 
   66000     1.212918    -5.970527    28.529101  0.036021592   0.04369824            4 
   67000    1.2145718   -5.9802919    29.217681  0.036340399  0.043704913            2 
   68000    1.2426306   -6.0176748     29.68642  0.036380416  0.043709533            2 
   69000    1.2340227   -5.9915575     30.19653  0.036469239    0.0437149            2 
   70000     1.228322    -5.955452    30.633066  0.036467935  0.043698384            2 
   71000    1.2359486   -5.9971693    31.024353   0.03641356  0.043678988            2 
   72000    1.2120701   -6.0118619    31.452584  0.036403454   0.04365256            6 
   73000      1.21178   -5.9766449    32.119177  0.036665727  0.043620229            4 
   74000    1.2251601   -5.9709704    32.701623  0.036826152  0.043607638            4 
   75000     1.224534   -5.9968078    33.254696  0.036949662   0.04361136            2 
   76000    1.2199178   -5.9893769    33.651917  0.036899032  0.043600173            3 
   77000    1.2255991   -6.0093518    34.126446  0.036933383  0.043577753            2 
   78000    1.2357183   -5.9541699     34.79181  0.037170737  0.043563687            3 
   79000    1.2552501   -5.9919078    35.155895  0.037084277  0.043546455            7 
   80000    1.2169455   -5.9789013    35.952068   0.03745007  0.043541013            2 
   81000    1.2078372   -5.9789022    36.526886  0.037579101  0.043547836            3 
   82000    1.2410161   -6.0303636    36.882507  0.037482222  0.043562022            3 
   83000    1.2159406    -5.992389    37.449102    0.0375995  0.043567169            2 
   84000    1.2500989   -6.0054253    37.784269  0.037484393  0.043557976            1 
   85000    1.2260528   -6.0172144    38.520728  0.037765419  0.043553447            4 
   86000    1.2444438   -6.0279197    38.754497  0.037552807  0.043536727            3 
   87000    1.2365582   -5.9857611    39.294493  0.037638403  0.043516607            2 
   88000    1.2368057   -5.9759352    39.713439  0.037607423  0.043491375            2 
   89000    1.2373419   -5.9864656    40.394802  0.037822848    0.0434697            2 
   90000    1.2229107   -6.0104902    40.745345  0.037727171  0.043452734            4 
   91000    1.2270207   -5.9994466    41.398788  0.037910978  0.043433288            2 
   92000    1.1919386   -5.9927491    41.813719  0.037874745  0.043421363            3 
   93000    1.2293808   -5.9723692    42.080999  0.037706989  0.043391365            3 
   94000    1.2228946   -5.9910894    42.521934   0.03769675   0.04334595            2 
   95000    1.2372366    -5.997526    43.002179  0.037721209  0.043301748            5 
   96000    1.2094272   -6.0057127    43.214807  0.037512853  0.043255324            2 
   97000    1.2148321   -5.9503097    43.931602  0.037741926  0.043212745            2 
   98000    1.2111538   -5.9963988    44.506059  0.037845288  0.043176326            2 
   99000    1.1977595   -6.0477722    45.116495  0.037976847  0.043144665            4 
  100000    1.1809768   -5.9909364    45.472029  0.037893358  0.043113267            3 
  101000    1.2042825   -5.9801602     46.10368   0.03803934  0.043081707            5 
  102000    1.2097235   -6.0192437    46.471072  0.037966562   0.04305148            2 
  103000    1.2472881   -6.0090236    46.963298  0.037996195  0.043017868            3 
  104000    1.2280691   -5.9782027    47.600203  0.038141188  0.042990514            3 
  105000    1.2142421   -6.0005888    48.090437  0.038167013  0.042965004            3 
  106000    1.2271393   -5.9968736    48.377922  0.038032957  0.042933688            2 
  107000    1.2193522   -6.0156927    48.698914  0.037927503  0.042891296            3 
  108000    1.2146633   -6.0354121    49.001435  0.037809749   0.04284066            5 
  109000    1.2258377   -6.0120819    49.432734   0.03779261  0.042785798            4 
  110000    1.2186111   -6.0150885    49.774342  0.037707835  0.042733014            4 
  111000    1.2175836   -6.0232687    50.316179  0.037774909  0.042679121            3 
  112000    1.2114386    -6.043892    50.966264  0.037921328  0.042629268            4 
  113000    1.2088552   -6.0252883    51.504064  0.037982348  0.042590413            5 
  114000     1.192881   -5.9682611    52.130554   0.03810713  0.042552464            4 
  115000    1.1932752   -6.0339526    52.386345  0.037961119  0.042513952            4 
  116000    1.2105955    -6.061742    52.863414   0.03797659  0.042472864            5 
  117000    1.2226441   -6.0624338    53.170406   0.03787066  0.042430926            3 
  118000    1.2121655   -5.9959976    53.714061  0.037933659  0.042388641            4 
  119000    1.2134692     -6.03037    54.191928  0.037949529  0.042346263            3 
  120000    1.2001836   -6.0283676    54.536567  0.037872616  0.042305817            3 
  121000    1.2019573   -6.0394551    55.164569  0.037992127  0.042267319            3 
  122000    1.2031191   -6.0258377    55.500943   0.03791048  0.042226353            1 
  123000    1.1887664   -5.9625008    56.094142  0.038004161  0.042180217            7 
  124000    1.1845605    -6.074914    55.970079    0.0376143  0.042126667            2 
  125000    1.2324457   -6.0144117    56.594172  0.037729448  0.042072636            5 
  126000    1.2079831   -6.0673727    56.964643  0.037675028  0.042022164            4 
  127000    1.2121906   -6.0434051    57.175201  0.037516536  0.041965811            2 
  128000    1.2110677   -6.0356877     57.91948  0.037707995  0.041910016            3 
  129000    1.2030107   -6.0258921    58.170765  0.037578013  0.041851295            1 
  130000    1.2203464   -5.9974847    58.788876  0.037685177  0.041794572            2 
  131000    1.2117501    -6.024512    59.052118  0.037564961  0.041738998            6 
  132000    1.1816939   -6.0429195    59.606207  0.037630181  0.041685381            5 
  133000    1.2255631   -6.0099779    60.216789  0.037729817  0.041634386            4 
  134000    1.2083086    -5.994417    60.776766  0.037796496  0.041587751            2 
  135000    1.2009294    -6.034606    61.037976  0.037677763  0.041546352            4 
  136000    1.1974391   -6.0184011    61.440906  0.037647614  0.041502899            3 
  137000    1.1785899   -6.0300035    61.990077  0.037706859  0.041461373            8 
  138000    1.2016864   -5.9868039    62.780242  0.037910774  0.041421907            3 
  139000     1.181605   -6.0579501    63.209456  0.037895357  0.041385377            2 
  140000    1.1774108    -6.034698    63.669088  0.037898266  0.041351977            3 
  141000    1.1836945   -6.0365406    63.991781  0.037820201  0.041315473            4 
  142000    1.2077476   -6.0409488    64.448558  0.037821923  0.041277185            3 
  143000    1.1929736   -6.0207768    64.830423  0.037779967  0.041241226            3 
  144000    1.1682979   -6.0037587    65.170342  0.037714318  0.041200836            2 
  145000    1.2055073   -6.0330541    65.673497  0.037743389  0.041161025            2 
  146000    1.1966859   -6.0968176    65.801539  0.037557956  0.041117468            2 
  147000    1.1823943   -6.0548751     66.45324  0.037671905  0.041072707            2 
  148000    1.1996518   -6.0512061    66.816488  0.037621897  0.041030293            1 
  149000    1.1932625   -6.0343136    67.407143  0.037699744  0.040992021            4 
  150000     1.214215   -6.0673744    68.128217   0.03784901  0.040959008            4 
  151000    1.2023318   -6.0398999    68.363844  0.037728391  0.040924889            2 
  152000    1.1743929    -6.022899    68.764358  0.037699757   0.04088884            4 
  153000    1.1854264   -6.0311233    69.260751   0.03772372  0.040852451            5 
  154000     1.197448   -6.0603246    69.365171  0.037535266  0.040815342            3 
  155000    1.1797587   -6.0254144    69.867573  0.037563211  0.040777575            2 
  156000     1.191045   -6.0307492    70.499193  0.037659825  0.040740351            2 
  157000    1.1973846   -6.0438311    70.684355  0.037518235  0.040701318            3 
  158000    1.1974278   -6.0382652    71.240185  0.037573937  0.040661504            3 
  159000    1.1874206   -6.0552552     71.78558  0.037623469  0.040628869            5 
  160000    1.1746655    -6.055615     72.64796  0.037837479  0.040596792            2 
  161000    1.1767758    -6.058078    72.880476  0.037722814  0.040571768            5 
  162000    1.2230123   -6.0292415    73.263526  0.037686999  0.040543535            2 
  163000     1.185921   -6.0366973      73.5475  0.037600971  0.040513244            3 
  164000    1.1912658    -6.060287    74.310617   0.03775946  0.040486256            2 
  165000    1.2045581   -6.0135778     75.08169  0.037920045  0.040460491            4 
  166000    1.1488283   -6.0386113     75.59481  0.037949202  0.040437586            2 
  167000    1.2040085   -6.0465276    75.848645  0.037848625  0.040415814            2 
  168000    1.1942536   -6.0893497    76.380922  0.037887362  0.040395478            4 
  169000    1.1844485   -6.0448713    76.866764  0.037902744  0.040373624            3 
  170000    1.1533447   -6.0398346    77.379821  0.037931285  0.040352007            2 
  171000    1.1869271   -5.9939623    77.474924  0.037755811  0.040330512            4 
  172000    1.1762628   -6.0501239    78.172335  0.037874193  0.040310719            3 
  173000    1.1873969   -6.0195501    78.444529  0.037786382  0.040289874            2 
  174000    1.2040137   -6.0325265    79.089317  0.037878025  0.040264892            3 
  175000     1.194144   -6.0738194    79.272346  0.037748736  0.040241599            3 
  176000    1.1787726   -6.0590609    80.000456  0.037879004  0.040221224            4 
  177000    1.2103261   -6.0515127     80.86518  0.038072119  0.040204213            2 
  178000    1.1849369   -6.0572798    81.148356  0.037990803   0.04018707            9 
  179000    1.1896108    -6.075909    81.521686  0.037952368  0.040166478            3 
  180000    1.1892739   -6.0378875    81.912882   0.03792263  0.040149532            3 
  181000    1.1934024   -6.0653492    82.221292  0.037855106  0.040130282            2 
  182000    1.2042331   -6.0562768    82.843765  0.037932127  0.040111919            2 
  183000    1.1548336    -6.097425    83.317213  0.037940443  0.040094489            2 
  184000    1.1748933    -6.101023    83.844454  0.037973031  0.040079565            5 
  185000    1.1786317   -6.0800526    84.501858    0.0380639  0.040064788            3 
  186000    1.1396634    -6.076967    84.950629  0.038060317    0.0400521            3 
  187000    1.1901765   -6.0862743    85.466356  0.038086611  0.040040426            4 
  188000    1.2089726   -6.0871563     85.89035  0.038071964   0.04002632            3 
  189000    1.1921133   -6.0574073    86.129622  0.037976024  0.040012119            2 
  190000    1.1843362   -6.0417296    86.631778  0.037996394   0.03999557            3 
  191000    1.1784952   -6.0728246    86.999676  0.037957974  0.039979588            5 
  192000    1.1817147   -6.0527746    87.035068  0.037775637  0.039963643            4 
  193000    1.1699863   -6.0881313    87.926014    0.0379646  0.039947118            3 
  194000     1.164486   -6.0521018    88.142628  0.037861954  0.039928715            3 
  195000    1.1733474   -6.0842831    88.543007  0.037838892    0.0399112            2 
  196000    1.1658842    -6.120039    88.714203  0.037718624  0.039893278            5 
  197000    1.1932768    -6.058253    89.304365  0.037776804  0.039873628            4 
  198000    1.2013781   -6.0889754    89.852163  0.037816567  0.039856194           10 
  199000    1.1702253   -6.0838386    90.239903  0.037788904   0.03983837            3 
  200000    1.1784828   -6.0888752    90.965907  0.037902461   0.03982038            3 
  201000    1.1551702   -6.1009506    91.175979  0.037800986  0.039803924            2 
  202000    1.1685844   -6.0537044    91.637645  0.037804309  0.039786677            3 
  203000     1.179234   -6.0732721    91.986698   0.03776137  0.039769339            3 
  204000     1.149606   -6.0502157    92.429321  0.037757075  0.039748905            2 
  205000    1.1898275   -6.0605536    92.866414  0.037750575  0.039728091            3 
  206000    1.1812777   -6.0792158    92.572973  0.037448614  0.039705479            3 
  207000    1.1610054   -6.0530581    93.238397  0.037535587  0.039681516            3 
  208000    1.1656542    -6.081128    93.732295  0.037553003  0.039655518            2 
  209000    1.1766441   -6.0905158    94.337072  0.037614462  0.039630657            2 
  210000    1.1664052   -6.0600535    94.724838  0.037589221  0.039606608            4 
  211000    1.1434084   -6.0807296    94.982353  0.037512777  0.039582896            5 
  212000    1.1441346    -6.077012    95.484812  0.037533338  0.039560945            3 
  213000    1.1464331   -6.0525576    96.116877  0.037604412  0.039539785            2 
  214000    1.1726782   -6.0619735    96.500101  0.037577921  0.039517671            6 
  215000     1.153485   -6.1164258    96.821078   0.03752755  0.039495179            2 
  216000    1.1760291    -6.099405    97.374406  0.037567286  0.039473201            4 
  217000    1.1841568   -6.0381292    97.943853  0.037612847   0.03945205            2 
  218000     1.153754   -6.0996148    98.351989  0.037596326  0.039431854            5 
  219000    1.1831677   -6.1129674    98.724813  0.037566519  0.039410882            2 
  220000    1.1797497   -6.0859704    98.843617  0.037440764  0.039390184            2 
  221000    1.1517411   -6.0790319    99.599452  0.037556354  0.039372054            2 
  222000    1.1719656   -6.1272905    100.07201  0.037564566    0.0393528            4 
  223000    1.1849192   -6.0871812    100.59684  0.037592242  0.039333493           10 
  224000    1.1582952   -6.0717199    101.20603  0.037651052  0.039315906            4 
  225000    1.1611551   -6.0588292    101.60045  0.037629797   0.03930001            2 
  226000    1.1642808   -6.1051698    101.85246  0.037556216  0.039284926            4 
  227000    1.1677062   -6.0840288     102.4284  0.037602203  0.039268643            4 
  228000    1.1552766   -6.1298499    102.58235  0.037493549  0.039252146            4 
  229000    1.1857446   -6.1084888    103.19559  0.037552979  0.039236136            2 
  230000    1.1891101   -6.1089477    103.56129  0.037522207  0.039219515            8 
  231000    1.1441828   -6.1254025    103.89985  0.037481908  0.039202876            6 
  232000    1.1417606   -6.1255389    104.62343  0.037580255  0.039187026            2 
  233000    1.1509705   -6.1323672    105.31156  0.037665079  0.039174539            3 
  234000    1.1304618   -6.0828404    105.62497  0.037615729  0.039161775            6 
  235000    1.1514219   -6.0778339    106.08613  0.037619194    0.0391468            3 
  236000    1.1691118   -6.0975368    106.50386  0.037607294  0.039133098            4 
  237000    1.1808103   -6.1335675    106.83332  0.037564457  0.039117738            6 
  238000     1.184363   -6.0751608    107.12197  0.037507692  0.039102287            3 
  239000    1.1359147   -6.0858335    107.73975  0.037566162  0.039086809            2 
  240000    1.1560798   -6.1288477    108.20737  0.037572003  0.039072914            6 
  241000    1.1551192   -6.1082353    108.42524  0.037491438  0.039058254            2 
  242000    1.1509569    -6.109258    109.00886  0.037537487  0.039043206            3 
  243000    1.1674125   -6.1067805    109.45888  0.037537337  0.039028671            4 
  244000    1.1597049    -6.098197    110.10489  0.037604128  0.039013875            2 
  245000    1.1657438   -6.0957259    110.37537  0.037542642  0.039000155            7 
  246000    1.1750471   -6.1029776    111.05803  0.037621283  0.038985747            3 
  247000    1.1314804   -6.0736542    111.46591  0.037606584  0.038972846            2 
  248000    1.1563653   -6.0881363    111.60554  0.037501861  0.038958504            3 
  249000    1.1431514   -6.1242451    112.40938  0.037620273  0.038945891            4 
  250000    1.1393294   -6.1074667    112.95216   0.03765072  0.038935839            2 
  251000    1.1455805   -6.1050234    113.49851  0.037682109  0.038925355            3 
  252000    1.1669932   -6.0502614    114.27305  0.037788706  0.038915815            4 
  253000    1.1626866   -6.1194086    114.78299  0.037807308  0.038909052            6 
  254000    1.1501287   -6.1618836    114.97265  0.037720685  0.038901268            3 
  255000    1.1405511   -6.1052289    115.73858  0.037823065  0.038894213            4 
  256000    1.1669856   -6.1149965    116.26204  0.037845717  0.038887592            8 
  257000    1.1592645   -6.1509832    116.37434  0.037734871  0.038880845            5 
  258000    1.1416535   -6.1052656    117.24501  0.037869836  0.038873016            3 
  259000    1.1610182   -6.1344397    117.69041  0.037866928  0.038864687            3 
  260000    1.1608553   -6.0893925    117.70341  0.037725451    0.0388577            4 
  261000    1.1568412   -6.1392729    118.24943  0.037755244  0.038850482            3 
  262000    1.1456796   -6.1143708    118.89406  0.037816177  0.038843432            2 
  263000    1.1317631   -6.1219554    119.41261  0.037836695  0.038837565            2 
  264000    1.1460773   -6.2009288     119.3029  0.037658745  0.038831609            3 
  265000    1.1606594   -6.1311891    119.95884  0.037722905  0.038823652            2 
  266000      1.14779   -6.1069359    120.50441  0.037752008  0.038816299            2 
  267000    1.1437416   -6.1232617    121.13162  0.037806374  0.038810476            2 
  268000    1.1550147   -6.0787937    121.54949  0.037795239  0.038805146            3 
  269000      1.14367   -6.0982743    121.89046  0.037760365  0.038800977            2 
  270000    1.1592241   -6.1421553    122.16244  0.037704458  0.038795823            2 
  271000     1.167212   -6.1300407    122.18498  0.037572257  0.038788751            5 
  272000    1.1426414   -6.1220564    123.53791  0.037848624  0.038781436            3 
  273000    1.1547572    -6.129579    123.63627  0.037740008  0.038775266            6 
  274000    1.1312807   -6.1394737     124.1154  0.037747992  0.038768592            8 
  275000    1.1561059   -6.0730394    124.97203  0.037870313  0.038762779            6 
  276000    1.1382928   -6.1208787    125.00071  0.037741759   0.03875669            9 
  277000    1.1242905   -6.1085645    125.45604   0.03774249  0.038749456            5 
  278000    1.1213958   -6.1293774    125.21695  0.037535058  0.038741078            3 
  279000    1.1468041     -6.11196    126.13915   0.03767597  0.038732243            2 
  280000    1.1446835   -6.1262357    126.29072  0.037586525  0.038723768            2 
  281000     1.137116   -6.1619271    126.88623  0.037629369  0.038715068            5 
  282000    1.1356934    -6.155734    126.92084  0.037506157   0.03870455            4 
  283000     1.131036   -6.1215382     127.3307  0.037494317   0.03869566            4 
  284000    1.1581576   -6.1656377    128.19398  0.037615604  0.038686212            3 
  285000     1.119232   -6.1475301    128.64372  0.037615123  0.038678145            7 
  286000    1.1348181   -6.1257891    129.07836  0.037610244  0.038670578            4 
  287000    1.1594873   -6.1044772    129.45344  0.037588108  0.038662644            5 
  288000    1.1103217   -6.1791388    129.30642  0.037415053  0.038653387            2 
  289000    1.1534476   -6.1314202    129.98309  0.037480707  0.038643175            2 
  290000    1.1389558   -6.1407729     129.9563  0.037343764   0.03863188            4 
  291000    1.1317801   -6.1010938    130.73318   0.03743791  0.038619828            5 
  292000    1.1289388   -6.1245992    131.64266  0.037569253  0.038607508            4 
  293000    1.1360885   -6.1105576    131.32303  0.037350123  0.038596934            3 
  294000       1.1338   -6.1365111    132.23935  0.037482809  0.038586361            3 
  295000    1.1263829   -6.1300701    132.94584  0.037555321  0.038576237            2 
  296000    1.1458755   -6.0952403    133.62637  0.037620038  0.038566496            4 
  297000    1.1544149   -6.1382662    133.60703  0.037487942  0.038557547            1 
  298000     1.161832   -6.1482563    133.89068  0.037441467  0.038548161            3 
  299000    1.1393288   -6.1555238    134.36989  0.037449803  0.038538081            6 
  300000    1.1227959   -6.1222961    135.10586  0.037529404  0.038528271            3 
  301000    1.1176577   -6.1545192    135.29476  0.037457021  0.038519797            3 
  302000    1.1158493   -6.1248597    136.38031  0.037632536  0.038511447            3 
  303000    1.1155099   -6.1431953    136.55068  0.037555193  0.038504298            8 
  304000    1.1364084     -6.12575    136.64622  0.037457846  0.038494804            4 
  305000    1.1218647    -6.112144    137.02902  0.037439622   0.03848595            3 
  306000       1.1216   -6.1654607    137.59598  0.037471672  0.038477304            6 
  307000    1.1079558   -6.2015339    137.87514  0.037425391  0.038468928            2 
  308000    1.1607507   -6.1228223    138.80046  0.037554236  0.038462022            3 
  309000    1.1081998    -6.109974    139.25365  0.037554922  0.038454684            7 
  310000    1.1372654   -6.1416456    140.09551  0.037660084  0.038449036            2 
  311000     1.140829   -6.1845716    140.41782  0.037625354   0.03844359            5 
  312000    1.1188909   -6.1623946    140.73208  0.037588698  0.038436727            6 
  313000    1.1295172   -6.1628362    141.06551  0.037557376   0.03842931            3 
  314000    1.0977746   -6.1496616    141.72208  0.037612018   0.03842176            2 
  315000    1.1409612    -6.151805    141.99014  0.037563529  0.038414166            5 
  316000    1.1310405   -6.1474192    142.18179  0.037495197  0.038407004           10 
  317000    1.1159044    -6.142449    142.83881  0.037549634  0.038398929            3 
  318000    1.1426263   -6.1885291    142.79623  0.037420395  0.038390641            3 
  319000    1.1109902    -6.148291    143.07138  0.037374968  0.038381683            2 
  320000    1.1227646   -6.1959087    143.92015  0.037479206  0.038372847            3 
  321000    1.1236643   -6.1716471    143.76335  0.037321742  0.038364617            6 
  322000    1.1001296   -6.1530853    144.36819  0.037362368  0.038355222            3 
  323000    1.1187992   -6.1579098    144.98393  0.037405556  0.038345351            4 
  324000    1.1314538   -6.1582106     145.3464  0.037383333  0.038335686            4 
  325000    1.1399541   -6.1789766    146.25951  0.037502438  0.038326952            3 
  326000    1.0985045   -6.1869394    146.30915  0.037400088  0.038318199            4 
  327000    1.1688351   -6.1618221    146.61593  0.037363896  0.038309013            4 
  328000    1.1241293   -6.1626616    147.09901  0.037372717   0.03830096            3 
  329000    1.0768188   -6.1227806     147.2418   0.03729529  0.038292704            3 
  330000    1.1182594   -6.1827882    147.93647  0.037357695  0.038284061            4 
  331000    1.1343695   -6.1773095    147.78908  0.037207723  0.038274707            7 
  332000    1.1241155   -6.1888224    148.72929  0.037331648  0.038265447            5 
  333000    1.1355233   -6.1749361    148.90003   0.03726227  0.038256769            6 
  334000    1.1013965   -6.1929063    149.48021  0.037295461  0.038247485            5 
  335000    1.1119859   -6.1854333     149.5338  0.037197463  0.038237006            2 
  336000    1.1324851    -6.163948    150.00288  0.037203095  0.038226288            3 
  337000    1.1230543    -6.166881    150.17039  0.037134122  0.038216184            2 
  338000     1.116303   -6.2138294    150.51896  0.037110198  0.038205405            2 
  339000    1.1232868   -6.1472909    151.29608  0.037191761  0.038194205            3 
  340000    1.1119267   -6.2066904    151.35928  0.037097863  0.038182049            4 
  341000    1.1004962   -6.1837478    151.63942  0.037057531  0.038169248            3 
  342000    1.1247597   -6.1601251     152.1373  0.037070493  0.038156788            3 
  343000    1.1366344   -6.1885516    152.96956  0.037164615  0.038144875            3 
  344000    1.1199589   -6.1905993     152.7938  0.037014001  0.038131916            6 
  345000     1.111196   -6.1772405    153.26951  0.037021621  0.038118305            4 
  346000    1.1073189   -6.1584843    154.01947  0.037095248  0.038105029            7 
  347000     1.139118   -6.1439756     153.9635  0.036974903  0.038093215            5 
  348000    1.1093513   -6.1350553    154.95343  0.037105707  0.038081104            4 
  349000    1.1175424   -6.2179825    154.44426  0.036877809  0.038068093            3 
  350000    1.1128246   -6.1635146    155.86722  0.037111244  0.038054605            2 
  351000    1.1233963   -6.1803544    155.73776  0.036974776  0.038040325            3 
  352000    1.1093069   -6.1697061    156.10171  0.036955898  0.038027114            4 
  353000    1.1337731   -6.1937106    156.70686  0.036994065  0.038012728            5 
  354000    1.1058722   -6.1552515    156.69211   0.03688609  0.037999052            3 
  355000    1.0867475   -6.2118316    157.06419  0.036869529  0.037985868            5 
  356000    1.1108637   -6.2036358    158.22402  0.037037458  0.037972438            2 
  357000    1.1266406   -6.1937839    158.13188  0.036912204  0.037959266            7 
  358000    1.1125225   -6.1802233    158.50394  0.036895704  0.037945917            5 
  359000    1.1148156   -6.1445138    158.97531  0.036902347  0.037932766            2 
  360000    1.1414808   -6.2188497    158.86982  0.036775422  0.037919349            4 
  361000    1.1054927   -6.1972537    160.08282  0.036953559  0.037905022            3 
  362000    1.1114935   -6.2005121    159.72701   0.03676957  0.037890367            2 
  363000    1.1417455   -6.1518912    160.26235  0.036791174  0.037876106            5 
  364000    1.0903749   -6.2123505    161.15824  0.036895202  0.037862679            5 
  365000    1.1264313   -6.1964295    161.23367   0.03681134  0.037849073            8 
  366000    1.1174588   -6.2230896    161.80472  0.036840783   0.03783589            3 
  367000     1.101524   -6.1628588    162.02984  0.036791517  0.037822428            5 
  368000    1.0932223   -6.1897091    162.04462  0.036694888  0.037809609            1 
  369000    1.0879937   -6.2277723    162.53856  0.036706991  0.037795438            7 
  370000    1.1294444   -6.1546416    163.75534  0.036881834  0.037782276            8 
  371000    1.1127351   -6.2107182    163.57936  0.036742894  0.037768775            6 
  372000    1.0965144   -6.1739971    163.77955  0.036688967  0.037755793            2 
  373000    1.1053519   -6.2245277    163.86753  0.036610262  0.037741949            3 
  374000    1.0916184    -6.183854     165.0521  0.036776315  0.037728424            2 
  375000    1.1068291    -6.232455    164.85324  0.036634053  0.037714581            2 
  376000    1.1166594   -6.2174668    165.60243  0.036702666  0.037701356            7 
  377000    1.0905239   -6.2226288    166.23679  0.036745532  0.037688297            7 
  378000    1.1015637   -6.2261284    166.70269  0.036751035   0.03767526            2 
  379000    1.1189619    -6.189386     167.0615  0.036732961  0.037662508            3 
  380000     1.098392    -6.178517    167.43666  0.036718565  0.037649304            5 
  381000    1.1431978   -6.2125473    167.75946  0.036692794  0.037635617            5 
  382000    1.0907031   -6.1939405    167.60692  0.036563465  0.037621778            3 
  383000    1.1098752   -6.1967007    168.24465  0.036606755  0.037606828            6 
  384000    1.0925978   -6.2373713    168.08837  0.036477511  0.037591969            5 
  385000    1.1129351   -6.2087849    169.02018  0.036584454  0.037577321            5 
  386000    1.1020771    -6.211179    169.19058  0.036526464  0.037562384            8 
  387000    1.0878002   -6.1991091    169.20952  0.036436159  0.037547208            5 
  388000    1.1229575   -6.1869983    169.49377  0.036403301  0.037532028            7 
  389000    1.0898461   -6.1891209    169.74793  0.036364167    0.0375166            4 
  390000     1.075438   -6.2095475    170.87254  0.036511226  0.037501486            3 
  391000    1.0825333   -6.2587049    171.06599  0.036459078  0.037485875            6 
  392000    1.1175641   -6.2393634    170.93665  0.036338573  0.037470467            5 
  393000    1.1235254   -6.2601454    171.38658  0.036341514  0.037455097            7 
  394000    1.1043458   -6.2149517    171.72817  0.036321525  0.037439523            4 
  395000    1.0918055    -6.248366    172.06707   0.03630107  0.037423991            4 
  396000    1.0708379   -6.2046469    172.27273   0.03625268  0.037408153            3 
  397000    1.0996531   -6.2532856    172.58547  0.036227008  0.037391472            3 
  398000    1.1035865   -6.2427385    173.19334  0.036263262  0.037374616            3 
  399000    1.0828043   -6.2062789    174.18072  0.036378597  0.037359203            9 
  400000    1.0962694   -6.2350202    174.37634  0.036328404  0.037344559            3 
  401000    1.0893516   -6.2259998    174.46471  0.036256175  0.037329117            3 
  402000    1.1030235   -6.1899881    174.77108  0.036229495  0.037313513            7 
  403000    1.0736835   -6.1992399    175.03252  0.036193655  0.037297554            6 
  404000    1.0837568   -6.2256119    175.54252  0.036209265  0.037281435            6 
  405000    1.0895868   -6.2034881    175.60443  0.036132599  0.037264444            4 
  406000    1.1057577   -6.2171627    175.86087  0.036096239  0.037247022            8 
  407000    1.0817082   -6.2233136    176.18741  0.036074407    0.0372291            3 
  408000    1.0787945   -6.2310815    175.83266  0.035913534  0.037210748            7 
  409000    1.0796424   -6.2452642    175.95627   0.03585091  0.037191665            5 
  410000    1.0734876   -6.2261733    176.61719  0.035897802   0.03717269            6 
  411000    1.1015976   -6.2064279    176.80804  0.035849157  0.037153578            3 
  412000    1.0942153   -6.2645883    177.30581  0.035862825  0.037133463            5 
  413000    1.1166256   -6.2019493    177.73973  0.035863545  0.037113508            8 
  414000    1.0947023   -6.1957194    178.33745  0.035897233  0.037093765            4 
  415000    1.1053249   -6.2239448    177.93725   0.03573037  0.037074648            4 
  416000    1.0935885   -6.2186899    179.03133  0.035863648   0.03705504            6 
  417000    1.0981193    -6.242652    179.12767  0.035796897  0.037035033            3 
  418000    1.0986987   -6.2556861    179.65662  0.035816711  0.037016118            8 
  419000    1.0940561   -6.2220524    180.34455   0.03586805  0.036996662            2 
  420000    1.1021497   -6.2055625    180.36715  0.035787133  0.036977767            3 
  421000    1.1103136   -6.2276507    181.28766  0.035884336  0.036959647            3 
  422000    1.0753611   -6.2306436    181.45337  0.035832024  0.036942256            7 
  423000    1.0669573   -6.1861993    181.93803  0.035842795  0.036925965            3 
  424000    1.0973878   -6.2803229    182.45379  0.035859629  0.036908919            5 
  425000    1.0707294   -6.2171645    182.77327  0.035837895  0.036891904            3 
  426000    1.0747317   -6.2362725    182.91213  0.035780933  0.036875211            5 
  427000    1.0676836   -6.2386824    183.80251  0.035870903  0.036858395            5 
  428000    1.0742392    -6.231146    184.40592  0.035904579  0.036841938            4 
  429000    1.1118765   -6.2324475    184.72262  0.035882405  0.036826208            4 
  430000    1.0711695   -6.2297177    184.78663  0.035811363  0.036810675            2 
  431000    1.0935591   -6.2759005     184.9259    0.0357552  0.036794019            5 
  432000    1.0684994   -6.2628671    185.67461  0.035816861  0.036778467            3 
  433000    1.0759392   -6.2711134    185.84444  0.035766828  0.036762824            5 
  434000    1.0701803   -6.2298385    186.03645  0.035721284  0.036746701            3 
  435000    1.0689473   -6.2243733     186.4201  0.035712662  0.036730506            5 
  436000    1.0848181   -6.2460626    186.93092  0.035728388  0.036713976           10 
  437000    1.0712115   -6.2584346    187.44748  0.035745133  0.036696627            4 
  438000    1.0826779   -6.2479856     187.2099  0.035618322   0.03668023            3 
  439000    1.0881907   -6.2428047    187.92571  0.035673065   0.03666354            5 
  440000    1.0656689   -6.2595408    188.37938  0.035677912  0.036647267            3 
  441000    1.0604799   -6.2809217    188.43975  0.035608419  0.036630963            5 
  442000    1.0773488    -6.220619    189.11803  0.035655738  0.036614716            3 
  443000     1.066485   -6.2197438    189.88908  0.035720293  0.036598888            5 
  444000     1.095421   -6.2525664    190.13819  0.035686598  0.036582923            3 
  445000     1.075127   -6.2213387    190.56973  0.035687215  0.036568141            7 
  446000    1.0610588   -6.2317174    191.61499  0.035802502  0.036553724            9 
  447000    1.0819049   -6.2637462    190.52817  0.035519793  0.036538008            5 
  448000    1.0964098   -6.2529374    191.50248  0.035621741  0.036521858            4 
  449000    1.1132813   -6.2559444    191.69379  0.035577913  0.036506202            4 
  450000    1.0689453   -6.2564197    191.42491  0.035449057   0.03649011            4 
  451000     1.062571   -6.2522246    192.00992  0.035478551  0.036473278            3 
  452000      1.07302   -6.2427695     192.1313  0.035422437  0.036456191            4 
  453000    1.0931052   -6.2449826    192.71252  0.035451163  0.036438841            4 
  454000    1.0793774   -6.2519724    192.75942  0.035381686  0.036421248            5 
  455000     1.080593   -6.2424491    192.74257  0.035300836  0.036404017            2 
  456000    1.0794588   -6.2698028    192.92426  0.035256627  0.036386084            4 
  457000    1.0655189   -6.2630791    193.98152  0.035372268  0.036367624            6 
  458000    1.0834979   -6.2544521    193.99496  0.035297482  0.036349148           10 
  459000    1.0691097   -6.2812392    194.09387  0.035238538  0.036330881            8 
  460000    1.0932321    -6.253986    194.53025  0.035240988   0.03631279            2 
  461000    1.0537783   -6.3009018     194.9581  0.035241884  0.036294224           12 
  462000    1.0650718    -6.229232    194.42019  0.035068577  0.036275239            3 
  463000    1.0692644   -6.2650717    194.74365  0.035051052  0.036255413            8 
  464000    1.0469543   -6.2827623    195.07934  0.035035801  0.036235413            3 
  465000    1.0540066   -6.2465192    195.16749  0.034976253  0.036215181            3 
  466000    1.0729616   -6.2771251    194.91724  0.034856445  0.036194481            5 
  467000    1.0621924    -6.263529    195.35803  0.034860462  0.036173402            2 
  468000    1.0310464   -6.3014028    195.83565   0.03487102  0.036151654            6 
  469000    1.0639233   -6.2788888    195.80019  0.034790369  0.036129202            5 
  470000    1.0676115   -6.2599352    196.20601  0.034788299  0.036106535            3 
  471000    1.0763726   -6.2945777    196.20025   0.03471342  0.036084154            5 
  472000    1.0763515   -6.2725319    196.59284  0.034709188  0.036061918            6 
  473000    1.0890534   -6.2976341    196.88714  0.034687656  0.036039093            5 
  474000    1.0517317   -6.2691875    197.79867   0.03477473  0.036016441            6 
  475000     1.084167   -6.2485036    198.31592  0.034792266  0.035994187            4 
  476000    1.0731667   -6.2719438    197.59837  0.034593552  0.035972276            4 
  477000    1.0601756   -6.2866977    198.04333  0.034598766  0.035949223            3 
  478000    1.0665585   -6.3275699    198.11992  0.034539735  0.035926118            5 
  479000    1.0594666   -6.3000347    198.39629  0.034515708  0.035903527            6 
  480000    1.0662068   -6.2864276    199.12302  0.034569969   0.03588125            5 
  481000    1.0826966   -6.2751613    199.56806  0.034575201  0.035859213            7 
  482000    1.0600181   -6.2670453    200.69926  0.034699042  0.035838019            7 
  483000    1.0466928   -6.2871355    201.00881  0.034680608  0.035817402            4 
  484000    1.0561857   -6.2954771    201.18248  0.034638857  0.035796742            6 
  485000    1.0619351   -6.2899021    202.14405  0.034732655  0.035776942            4 
  486000      1.07825   -6.2474574      202.128  0.034658436  0.035756701            6 
  487000    1.0711769   -6.2811271    202.58803  0.034665987   0.03573686           13 
  488000     1.068365   -6.2798375    203.13239  0.034687908  0.035716773            6 
  489000    1.0697918   -6.2724128    202.80112  0.034560518  0.035697298            3 
  490000    1.0651764   -6.3065979    203.55409  0.034618042  0.035677678            3 
  491000    1.0520697   -6.2629939    203.94332  0.034613597  0.035657485            7 
  492000    1.0651931   -6.2958448    203.92005  0.034539304  0.035637501            6 
  493000    1.0470091    -6.287995    204.59881  0.034583977  0.035617489            3 
  494000    1.0735511   -6.2654826    204.47071   0.03449236  0.035597291            3 
  495000    1.0557733   -6.2651138    204.72119  0.034464847  0.035576626            6 
  496000    1.0522608   -6.3093838    205.48867  0.034524305  0.035556031            6 
  497000    1.0514537   -6.3037732    204.54183  0.034296081  0.035535089            6 
  498000    1.0526142   -6.2515501    206.34708  0.034529296   0.03551492            3 
  499000    1.0413692   -6.2977338    205.61694  0.034338166  0.035493781            3 
  500000    1.0654143   -6.2914471    205.42683  0.034237804  0.035473273           11 
  501000    1.0588198   -6.3089045    206.62586  0.034368905  0.035452477            6 
  502000    1.0548496   -6.2769715     206.9101  0.034347626  0.035431662            3 
  503000    1.0271655   -6.2658216    207.23723  0.034333537  0.035411019            7 
  504000    1.0449944   -6.3054006     207.1999  0.034259243  0.035389737            9 
  505000    1.0446813    -6.262622    207.41138    0.0342263  0.035368647            6 
  506000    1.0322337   -6.2712384    207.66556   0.03420052  0.035347472            6 
  507000    1.0511127   -6.3020893    208.20643  0.034221965  0.035326495            4 
  508000    1.0600176   -6.2761207    209.05396  0.034293628  0.035305572            6 
  509000     1.064955    -6.295328    208.80399  0.034185329  0.035285076            9 
  510000    1.0491877   -6.3172581    209.55749  0.034241421   0.03526518            5 
  511000    1.0385476   -6.2546753    210.07745  0.034259205  0.035244923            3 
  512000    1.0345766   -6.3008399    209.98899  0.034177895  0.035224687            4 
  513000    1.0514799   -6.2956909     210.5775  0.034206871  0.035204937            3 
  514000    1.0284342   -6.2682539    211.18863  0.034239401  0.035185237            5 
  515000    1.0417121   -6.2680141    211.70045  0.034255736  0.035165471            3 
  516000    1.0404707   -6.3200927     211.4519  0.034149209  0.035145653            3 
  517000    1.0608898   -6.3155772    211.64713  0.034114624  0.035125326            5 
  518000    1.0574616   -6.3036779    211.46351  0.034019225   0.03510465            4 
  519000    1.0517255   -6.2972153    212.58179  0.034133236  0.035083721            6 
  520000    1.0419834   -6.3043099    212.21361  0.034008591  0.035063305            4 
  521000    1.0268806   -6.3069596     212.5774  0.034001504  0.035042511            2 
  522000    1.0735495   -6.2898348    212.40586  0.033908982  0.035022111            5 
  523000    1.0334608   -6.3027775    213.85297  0.034074725  0.035001826            4 
  524000    1.0405824   -6.3109117    213.76435  0.033995602  0.034981411            9 
  525000    1.0520898   -6.3373579    213.70335  0.033921166  0.034961095            4 
  526000    1.0497169    -6.316328    213.86822  0.033882798  0.034941114            3 
  527000    1.0511163   -6.2908593    214.78751  0.033963869  0.034921305            6 
  528000    1.0392648   -6.3415507    214.49347  0.033853136  0.034901761            5 
  529000    1.0324561   -6.3045108    215.65314  0.033971824  0.034881734            5 
  530000    1.0256876   -6.3037791    215.47294  0.033879392  0.034862275            9 
  531000    1.0456158   -6.3238435    215.84328   0.03387371  0.034842344            2 
  532000    1.0312173   -6.3227245    215.89023  0.033817392  0.034821985            8 
  533000    1.0468305   -6.3075254    216.38685   0.03383159  0.034802154           11 
  534000    1.0527364   -6.3326832    216.26253  0.033748834  0.034781899            6 
  535000    1.0307479   -6.3266023    217.20848  0.033833096  0.034762051            4 
  536000    1.0549421   -6.3001722    217.83662  0.033867634  0.034742258            3 
  537000    1.0079282   -6.3646176    216.98962  0.033673126   0.03472185            5 
  538000    1.0289969   -6.3113887    217.30622  0.033659576  0.034701034            3 
  539000    1.0381388   -6.3099258    217.97494  0.033700517  0.034680398            4 
  540000    1.0718647   -6.3251172    218.40746  0.033704855  0.034660476            3 
  541000    1.0398065   -6.2929958    219.61467  0.033828507  0.034640717            8 
  542000    1.0559374   -6.3344993    218.50028  0.033594753  0.034620917            5 
  543000    1.0357386   -6.2661694    218.67796  0.033560153  0.034600872            7 
  544000    1.0597545   -6.3428176    218.65963  0.033495654  0.034580118            7 
  545000    1.0415321   -6.3022879    219.91744   0.03362652  0.034559383            8 
  546000    1.0419091   -6.3241926    219.53996  0.033507321   0.03453901            7 
  547000    1.0482384   -6.3339021    219.54055  0.033446153  0.034517882            3 
  548000    1.0592326    -6.323663     220.5366  0.033536588  0.034497506            7 
  549000    1.0344917   -6.3465343    220.52718   0.03347407  0.034476797            3 
  550000     1.034856   -6.3079086     220.0115  0.033335076  0.034456012            5 
  551000    1.0113569   -6.3331809    221.17321  0.033450274  0.034435698            7 
  552000    1.0264487   -6.3359196    221.89724  0.033498979  0.034414882            4 
  553000   0.99739006   -6.3130279    221.52934  0.033382962  0.034394541            4 
  554000    1.0337647   -6.3497225     221.9558  0.033386853  0.034374199            8 
  555000    1.0366553   -6.3423641    222.71403  0.033440545  0.034353593            4 
  556000    1.0103397    -6.326727    222.54292  0.033354754  0.034333197            5 
  557000    1.0125908   -6.3238472    222.88131  0.033345497  0.034312797            5 
  558000     1.018838   -6.3299123    222.89534  0.033287834  0.034292534            5 
  559000    1.0538706    -6.298703     223.3899  0.033302012   0.03427165            5 
  560000     1.038894    -6.318858    224.21199   0.03336488  0.034251123            4 
  561000    1.0222492   -6.3311544     223.7957  0.033243568  0.034230793            9 
  562000    1.0345112   -6.3185413    224.47711  0.033285455  0.034210464            4 
  563000     1.027406   -6.3367773    224.77678  0.033270689  0.034190131            7 
  564000    1.0288199   -6.3456543    225.10005  0.033259463  0.034169901           11 
  565000    1.0054528   -6.3282479    225.41506  0.033247059   0.03414966            6 
  566000    1.0282735   -6.2946033    226.06806  0.033284462  0.034129592            4 
  567000    1.0285809   -6.3601982    226.50161  0.033289478  0.034109895            9 
  568000    1.0328176   -6.3516506    226.00147  0.033157493  0.034089853            4 
  569000    1.0355058     -6.34431    226.02915  0.033103273  0.034069837            5 
  570000    1.0463702   -6.3182385    226.70606   0.03314416  0.034050264            5 
  571000    1.0203504   -6.3403748    227.32485  0.033176423  0.034030746            6 
  572000    1.0275314   -6.3199343    227.72437  0.033176628    0.0340113            5 
  573000    1.0378717   -6.3391393    228.13483  0.033178423  0.033991996            4 
  574000    1.0388024   -6.3364131    227.93505  0.033091615  0.033972869            6 
  575000    1.0262742   -6.3609504     228.6202  0.033133362  0.033952959            4 
  576000    1.0279126   -6.3327653    228.91838  0.033118978   0.03393313            5 
  577000    1.0203766   -6.3579532    228.67234  0.033026046  0.033913498            4 
  578000    1.0304799    -6.376246     228.4957  0.032943439  0.033893414            8 
  579000    1.0040725   -6.3124508    228.73151  0.032920482  0.033873097            5 
  580000    1.0534571   -6.3580103    228.22084  0.032790351  0.033852468            5 
  581000    1.0205023   -6.3191465    229.41231  0.032904807  0.033831989            8 
  582000     1.014515   -6.3707707    229.24024  0.032823631  0.033811197            5 
  583000    1.0215173    -6.362213    229.62666  0.032822564  0.033790401            5 
  584000    1.0241379   -6.3002941    230.38106  0.032874009   0.03376966            2 
  585000    1.0034071   -6.3579333    230.88627  0.032889782  0.033749088            7 
  586000    1.0317778    -6.331315    230.72955   0.03281137  0.033728216            9 
  587000    1.0494685   -6.3536255     230.5828  0.032734639  0.033707244            7 
  588000    1.0091081   -6.3536797    230.76866  0.032705308  0.033686047            8 
  589000    1.0092429   -6.3462781    231.47306  0.032749442  0.033665039           11 
  590000    1.0102273   -6.3384358    232.17702  0.032793364  0.033644509            3 
  591000    1.0193601   -6.3418258    231.15954  0.032594407   0.03362367            8 
  592000    1.0139061   -6.3625337     232.5301  0.032732277  0.033603166            3 
  593000    1.0010388   -6.3387235    233.57683  0.032824175  0.033582892            4 
  594000     1.021281   -6.3827206    233.58584   0.03277018  0.033563127            5 
  595000    1.0343013   -6.3345872    233.81727  0.032747517  0.033543037            4 
  596000     1.016141   -6.3375074      234.119  0.032734759  0.033523395            7 
  597000     1.013036   -6.3151006     234.8882  0.032787297  0.033503681            5 
  598000     1.035165   -6.3506798    234.73018  0.032710448  0.033484346            4 
  599000    1.0300797    -6.318456    234.56968  0.032633511  0.033465224            6 
  600000   0.99654349   -6.3467828    234.96973  0.032634684  0.033445217            3 
  601000    1.0108867   -6.3594673    234.90647  0.032571613  0.033425147            4 
  602000    1.0116873    -6.383588    235.14185   0.03255009  0.033404687            5 
  603000    1.0427958    -6.397472    234.97695  0.032473321   0.03338426            6 
  604000    1.0101875      -6.3668     235.3367  0.032469191   0.03336388           13 
  605000    1.0163466   -6.3403503    235.95173  0.032500238  0.033342996           11 
  606000   0.99741887   -6.3639881     235.8056  0.032426513  0.033322363            3 
  607000    1.0292153   -6.3406012    236.60333   0.03248261  0.033301968            5 
  608000    1.0194786   -6.3573432    236.17877  0.032370994   0.03328136            8 
  609000    1.0289626   -6.3754013    236.82517   0.03240629  0.033260643            7 
  610000   0.99838572   -6.3924446    236.54789  0.032315285  0.033240056            4 
  611000    1.0148616   -6.3915337    237.47535  0.032388891  0.033219024            8 
  612000   0.97513346   -6.3832624    237.24502  0.032304605  0.033198341            6 
  613000    0.9890627   -6.4010644    237.03575  0.032223457  0.033177455            4 
  614000   0.99643998   -6.3808521    237.63336  0.032252085  0.033156401            6 
  615000    1.0111572   -6.3666624    238.02902  0.032253254  0.033135284            4 
  616000    1.0144359    -6.384231    238.52273  0.032267686  0.033114322            4 
  617000    1.0080059   -6.3514159     238.0655  0.032153633  0.033093381            4 
  618000     1.023747   -6.3391989    238.74533  0.032193276   0.03307263            9 
  619000    1.0139939   -6.3874374    238.33238  0.032085673  0.033051576            3 
  620000   0.99647476   -6.3590469    238.96766  0.032119309  0.033030792            6 
  621000    1.0141606   -6.3717141    239.85088  0.032186108  0.033010029           12 
  622000    1.0298333   -6.3745456    239.62325  0.032103865  0.032989187            2 
  623000   0.99646198    -6.335325    239.92179  0.032092267  0.032968363            6 
  624000   0.98982044   -6.3386477    240.36989   0.03210068  0.032947658            4 
  625000     1.018463   -6.3974065    240.12418  0.032016557  0.032926802            6 
  626000    1.0063641   -6.3856539    240.66262   0.03203709  0.032905881            5 
  627000    1.0295691    -6.372993     240.9401  0.032022873  0.032884739            6 
  628000    1.0055848   -6.3856784    241.24814  0.032012757  0.032864028            5 
  629000    1.0095989   -6.3620305    241.39527  0.031981355  0.032842843            6 
  630000     1.016576   -6.3659742    242.01327  0.032012337  0.032821822            8 
  631000    1.0164904   -6.3874913    240.88968  0.031813218  0.032800877            6 
  632000    1.0075684   -6.4128701    241.60542  0.031857255    0.0327795           11 
  633000    1.0050418   -6.4184565    241.16979  0.031749578  0.032758053            9 
  634000    1.0015476   -6.3924809    241.99432  0.031807876  0.032736785            2 
  635000   0.99906643   -6.3924283    242.62303  0.031840293  0.032715433            8 
  636000   0.99468622   -6.3810329    242.88371  0.031824386  0.032694335           12 
  637000   0.99265491   -6.3521217    244.24547  0.031952574  0.032673598            6 
  638000   0.99685752   -6.3729211    243.23274  0.031770212  0.032653284            4 
  639000    1.0334636    -6.396838    244.10765  0.031834592  0.032632632           14 
  640000   0.99660805   -6.3693314    244.45661  0.031830288  0.032612355            3 
  641000   0.98635559    -6.394324    244.42126  0.031776034  0.032592461            4 
  642000    1.0001772   -6.3849509    245.35406   0.03184762  0.032572381            6 
  643000   0.98895466   -6.3762034     244.8929  0.031738323   0.03255224            5 
  644000   0.99304499   -6.4185107    245.12986  0.031719702  0.032531784            6 
  645000   0.99038804   -6.4050921    246.24433  0.031814512  0.032511556            6 
  646000    1.0041417   -6.4369133    245.72642  0.031698455  0.032491572            8 
  647000    1.0387074   -6.4012766     246.5561  0.031756325  0.032471748           11 
  648000    1.0069579   -6.4197109    246.21763  0.031663789   0.03245222           12 
  649000    1.0019621    -6.418448    246.84159  0.031695119  0.032432249           14 
  650000     1.001133   -6.3865754    247.47646  0.031727751  0.032412397            8 
  651000   0.97894959   -6.3809336    247.97718   0.03174311  0.032392835            5 
  652000   0.99010635   -6.4111925    248.21839  0.031725254   0.03237337            9 
  653000   0.98065166   -6.3971055    247.92393  0.031639092  0.032353707            7 
  654000   0.98680804   -6.3646644    248.32514  0.031641838  0.032333864           10 
  655000   0.99082345   -6.3741788    248.30046   0.03159039  0.032314186            9 
  656000    1.0130449   -6.4408948    248.31299  0.031543825  0.032294413            7 
  657000   0.99310508   -6.4144409    248.67404  0.031541608  0.032274486            6 
  658000    1.0039668    -6.415693    249.34867  0.031579112   0.03225462            6 
  659000   0.98341423   -6.3945614    248.89171  0.031473408  0.032234632            9 
  660000   0.96883518   -6.4075237    250.10891  0.031579408  0.032214939           11 
  661000     1.010892   -6.4280558    250.61748  0.031595749  0.032195704            6 
  662000    1.0041276   -6.4048649    250.45624  0.031527724  0.032176694            5 
  663000   0.98213574   -6.4170387    251.44302  0.031604201  0.032157677            9 
  664000   0.99341768   -6.4031033     250.6271  0.031454204  0.032138845            4 
  665000   0.97555727   -6.4253218    250.84226  0.031433867  0.032120036            7 
  666000   0.96437769   -6.4013198    252.15414  0.031550818  0.032101253            6 
  667000   0.99784985   -6.4457948    251.44952  0.031415482  0.032082361            8 
  668000   0.99916011    -6.354085    252.74107  0.031529574  0.032063779            9 
  669000   0.99524817   -6.4160886    253.61634  0.031591472  0.032045424            6 
  670000   0.98575557    -6.405316    253.21616  0.031494547  0.032026998            3 
  671000   0.98906965   -6.4215237    253.00022  0.031420792  0.032008495            9 
  672000    0.9831829   -6.4170459    253.69401   0.03146007  0.031990141            9 
  673000   0.97683274    -6.407424    254.64591  0.031531192  0.031971977           10 
  674000   0.98050435   -6.4015431    254.25339  0.031435879  0.031954053            6 
  675000   0.96720279   -6.4121808    254.96508  0.031477171  0.031936014            5 
  676000   0.98326777   -6.4097916    255.19773  0.031459286  0.031918275            4 
  677000   0.99638982   -6.4142848    255.14155  0.031405902  0.031900738            4 
  678000   0.98179348   -6.4230702    256.59358  0.031538051   0.03188318            4 
  679000   0.99518981   -6.4260558     256.7176  0.031506824  0.031865866           10 
  680000   0.99316955   -6.4424555    256.18162  0.031394806  0.031848563            9 
  681000   0.98928391   -6.4381748    256.43517  0.031379732  0.031830857            6 
  682000   0.99409637   -6.4443023    256.31732  0.031319321  0.031813168            9 
  683000   0.99312053   -6.4399166    256.73992  0.031325026  0.031795509            4 
  684000    0.9887194   -6.4047582    257.07091  0.031319555  0.031777532            3 
  685000   0.96996248   -6.4208518    257.49165  0.031325018  0.031759883           13 
  686000    1.0110258   -6.4177292    257.60451  0.031293065  0.031742268            6 
  687000     1.000651   -6.4416814    257.55167  0.031241105  0.031724815            6 
  688000   0.97042569   -6.4155558    258.80322   0.03134729  0.031707644            6 
  689000   0.97409182   -6.4028421     259.2239  0.031352673  0.031690432            8 
  690000    1.0029391   -6.4383402    259.28745  0.031314909  0.031673365            6 
  691000    0.9886074     -6.43084    259.18351  0.031257057  0.031656149           12 
  692000   0.96504231   -6.4357645    259.15607  0.031208583   0.03163887            3 
  693000   0.97720552   -6.4334388    259.28566  0.031179132  0.031621489            6 
  694000   0.97218176   -6.4519805    259.59419  0.031171252   0.03160397            4 
  695000   0.95421489   -6.4252504    259.98087  0.031172766  0.031586407            7 
  696000   0.98132577   -6.4456028    260.07967  0.031139807  0.031569042           17 
  697000   0.98616763   -6.4246516    260.21875  0.031111758  0.031551455            5 
  698000   0.98501908   -6.4383047    261.43057  0.031211864  0.031534275            5 
  699000   0.97935871   -6.4193779    261.01653  0.031117851  0.031517451            9 
  700000   0.97428101   -6.4364561    261.28793  0.031105706  0.031500499            6 
  701000   0.97836907   -6.4272752    261.41143  0.031076015  0.031483203            5 
  702000   0.96920432   -6.4228195     261.2511  0.031012713   0.03146604            3 
  703000   0.98818076   -6.4470627    262.54186  0.031121604  0.031448934            8 
  704000   0.95988199   -6.4153262     263.1741  0.031152238  0.031432178            3 
  705000   0.98751743   -6.4438747    263.93739  0.031198273  0.031415609            4 
  706000   0.97615441   -6.4236183    263.44907  0.031096444  0.031398916            6 
  707000   0.96258043   -6.4418731    263.63133  0.031073943  0.031382631            8 
  708000   0.96361819   -6.4089626    264.25833  0.031103852  0.031365992            7 
  709000   0.96885248   -6.4428293     264.7466  0.031117372  0.031349646            5 
  710000   0.95515056   -6.4563162    264.05403  0.030992257  0.031333191            6 
  711000   0.97013614    -6.455743    264.74665  0.031029847  0.031316832            4 
  712000   0.98653964   -6.4423184    264.54123  0.030962222  0.031300307            5 
  713000   0.94739256   -6.4727562    265.10399  0.030984571  0.031283799           12 
  714000    0.9552399    -6.444683    265.48737  0.030985921  0.031267397            7 
  715000   0.97010957   -6.4434824    265.10332  0.030897823  0.031250592            8 
  716000   0.95718623   -6.4275932    265.53626  0.030905058  0.031233917            4 
  717000   0.96342489   -6.4240576    266.34547  0.030956006  0.031217277            4 
  718000   0.93205538   -6.4483136    266.70652  0.030954796  0.031200448            5 
  719000   0.95397245   -6.4634482    265.53516   0.03077598  0.031183321           10 
  720000   0.96877387   -6.4650448    266.31909  0.030823969  0.031166072            7 
  721000    0.9543559   -6.4735259    265.60094  0.030698213  0.031148787            8 
  722000    0.9505504   -6.4410017    265.79852  0.030678499  0.031130975            9 
  723000   0.97926625   -6.4486433    267.28052  0.030806884  0.031113305            6 
  724000     0.950624   -6.4539497    266.25661  0.030646479  0.031095986            5 
  725000   0.96070923   -6.4629467    266.44304  0.030625637  0.031078662            5 
  726000   0.96745726   -6.4560107    267.73348  0.030731574  0.031061584            4 
  727000   0.95843732   -6.4625174    267.21021  0.030629322   0.03104452            9 
  728000   0.94669815   -6.4504803    267.95105  0.030672053  0.031027287            4 
  729000    0.9790529   -6.4397145    268.73785  0.030719918  0.031010214           10 
  730000   0.96738946   -6.4816129    268.35476  0.030634106  0.030993139            9 
  731000   0.97092232   -6.5003659    267.68825  0.030516217  0.030975683            8 
  732000   0.97372914   -6.4634708    268.34173  0.030548922  0.030958282            7 
  733000   0.96427207     -6.44945    268.43728  0.030518108  0.030940856            3 
  734000   0.94183403   -6.4419919    269.66814  0.030616274  0.030923819            3 
  735000   0.97765958   -6.4690591    269.92053  0.030603235  0.030906788            5 
  736000   0.94306151   -6.4640079    270.05136  0.030576467  0.030889552            4 
  737000   0.94237836   -6.4503357    270.90179  0.030631138  0.030872437            3 
  738000    0.9818102   -6.4819667    270.07431  0.030496196  0.030855445            5 
  739000   0.96254427   -6.4362164    270.71981  0.030527718  0.030838473            5 
  740000   0.95907637   -6.4829619     270.7079  0.030485124  0.030821457            5 
  741000   0.96777471   -6.4834361    270.66833  0.030439533  0.030804646            9 
  742000   0.95843677   -6.4901169    271.83342   0.03052936  0.030787615           11 
  743000    0.9715493   -6.4865954     270.4521  0.030333345  0.030770287            6 
  744000   0.97001509    -6.489497    271.82509  0.030446359  0.030752771           12 
  745000   0.94551095   -6.4564569    270.73972  0.030284085  0.030735419            5 
  746000   0.93991443   -6.4353174    271.49614  0.030327987  0.030717885            5 
  747000   0.95937889   -6.4764655    272.02894  0.030346825  0.030700378            6 
  748000   0.95684356   -6.5012996    271.39283  0.030235386  0.030682725           10 
  749000   0.94712809    -6.497318    272.11766  0.030275663  0.030664817            6 
  750000   0.94813206   -6.4905711    271.81446  0.030201607  0.030647013            6 
  751000   0.94702806   -6.4604988    272.14703  0.030198294  0.030628938            5 
  752000   0.94922699   -6.4704705    272.71124  0.030220661  0.030611367            4 
  753000   0.95322751   -6.4770935    272.15786  0.030119285  0.030593595            8 
  754000   0.94083353   -6.4919582    273.10673   0.03018421  0.030575671            7 
  755000   0.94213925   -6.4956464    272.78118  0.030108298  0.030557582           10 
  756000   0.95641158   -6.4676204    272.90014  0.030081585  0.030539428           11 
  757000    0.9544653   -6.4480317    273.38275  0.030094974   0.03052137            6 
  758000   0.93923812   -6.4907766    272.92096  0.030004503  0.030503334            7 
  759000   0.93682916   -6.5192394    272.90098  0.029962777  0.030485201            5 
  760000   0.95539066   -6.4698732    273.71779  0.030012916  0.030467133            7 
  761000   0.94279445   -6.4672674      273.656   0.02996671  0.030449077            7 
  762000   0.92455277   -6.4967517    273.98125  0.029962954  0.030430833            3 
  763000   0.95674901   -6.4814838    275.14717  0.030051023  0.030412838            6 
  764000   0.94357618   -6.4561156    275.45812  0.030045606  0.030394817            6 
  765000    0.9614012   -6.4853105    275.26156  0.029984919  0.030376852            7 
  766000   0.95134157   -6.4367698    275.14779  0.029933397  0.030358772            7 
  767000   0.93441822   -6.4803907    275.88833  0.029974829  0.030340889            4 
  768000   0.98193422   -6.4940007    276.11951  0.029960884  0.030322891            8 
  769000   0.94559798   -6.5381793    275.51471  0.029856383   0.03030496            7 
  770000   0.96480845   -6.4877023    275.75333  0.029843434  0.030286862            9 
  771000   0.96003906   -6.4749836     275.9509  0.029826081  0.030268716           10 
  772000   0.94605701   -6.4732316    276.54255  0.029851312  0.030250686           18 
  773000   0.96686246   -6.4981765    276.71673  0.029831472  0.030232817            9 
  774000   0.94521298   -6.4817377    276.49264  0.029768803  0.030214933            6 
  775000    0.9464528   -6.4735077    277.01226  0.029786265  0.030197039            6 
  776000   0.95137613   -6.4852927    276.70721  0.029715121  0.030178891            9 
  777000   0.94491236   -6.5175973    277.32811   0.02974347   0.03016048            5 
  778000   0.98220507    -6.520076    277.47525  0.029720999  0.030142235           16 
  779000   0.94431891   -6.4849361    278.01534  0.029740623    0.0301242           12 
  780000   0.94648839   -6.4903014    277.81663  0.029681264  0.030106268            5 
  781000   0.95209474   -6.4969945    278.05078  0.029668243  0.030088301            4 
  782000   0.97237565   -6.4726334    278.67494  0.029696818  0.030070263            6 
  783000   0.95383873   -6.4960589    279.26615  0.029721812  0.030052346            6 
  784000   0.93644445   -6.5029411    278.40938  0.029592834  0.030034489            5 
  785000    0.9688486   -6.4994195    279.39941  0.029660235  0.030017008            6 
  786000    0.9648991   -6.5261218    279.24698  0.029606338   0.02999924           20 
  787000   0.93318344   -6.4905965     279.8783  0.029635568  0.029981679           13 
  788000   0.93572154   -6.4815775    280.51884  0.029665698  0.029964176            7 
  789000   0.94564652   -6.4906186    280.68895  0.029646066  0.029946753            5 
  790000    0.9519139   -6.4840542    281.34286  0.029677517   0.02992939            5 
  791000    0.9222612   -6.4903817    280.78841  0.029581586  0.029911893            3 
  792000   0.92869034   -6.4885023    281.31682  0.029599833  0.029894423            4 
  793000    0.9702978   -6.5077718    280.07475  0.029431983  0.029876766            5 
  794000   0.92920723   -6.4994228     281.0812  0.029500546  0.029859093           12 
  795000   0.91387875   -6.4914878    281.71326  0.029529692  0.029841328           17 
  796000   0.89800529   -6.5240985    281.06654  0.029424889  0.029823569           13 
  797000   0.94800108    -6.507606    280.95785  0.029376605  0.029805604            6 
  798000   0.94822732   -6.5118355    281.33263  0.029378929  0.029787789           18 
  799000   0.95115159   -6.4939625    281.74996  0.029385686  0.029769841            5 
  800000   0.94123336   -6.5108574    282.66183  0.029443941  0.029751893            9 
  801000   0.95227229   -6.5129716    282.30009  0.029369548   0.02973431           13 
  802000   0.94610414   -6.5225127    281.95936  0.029297523  0.029716588           13 
  803000   0.92725375   -6.4875457    282.69073  0.029336938  0.029698668            8 
  804000   0.93545247   -6.5099747    283.48868  0.029383155  0.029680894           28 
  805000   0.94609098   -6.4984789    283.61883  0.029360127    0.0296634            5 
  806000   0.93410336    -6.515896    283.80362  0.029342806  0.029645892            9 
  807000   0.94151096   -6.5039154    283.93254  0.029319758  0.029628244            5 
  808000   0.92785138   -6.5217258    283.72825  0.029262402  0.029610865            6 
  809000   0.93591804   -6.5242475    284.53058  0.029308878    0.0295934            4 
  810000   0.96033315   -6.5274716    284.76386  0.029296693  0.029575938            7 
  811000   0.92611077   -6.4900703    284.73862  0.029257976  0.029558422           12 
  812000   0.94635305   -6.5150841    284.09854  0.029156255  0.029540871            8 
  813000    0.9356585   -6.5387504    284.16341  0.029127041  0.029523093           16 
  814000   0.94070387   -6.5309715     284.4631  0.029121939  0.029504915            7 
  815000   0.92378855   -6.5431957    284.37602  0.029077303  0.029487077            7 
  816000    0.9263081   -6.4939804    284.87346  0.029092469  0.029469278            8 
  817000   0.90677775   -6.5520384    284.87016  0.029056524  0.029451412           11 
  818000   0.93586198   -6.5095117    285.43414  0.029078457  0.029433505           11 
  819000   0.91636406   -6.5075827    285.42983  0.029042514  0.029415716            6 
  820000   0.93075661   -6.4993256    285.14727  0.028978381  0.029397864            5 
  821000   0.92850874   -6.5132611    285.62174  0.028991245  0.029379922            5 
  822000   0.90735451   -6.5502203    286.40673  0.029035556  0.029362139           12 
  823000   0.91841441   -6.5511778    286.38702   0.02899828  0.029344367           13 
  824000   0.91786655   -6.5161373    286.32511  0.028956827  0.029326656            7 
  825000    0.9380202   -6.5033787    286.91375  0.028981187  0.029309154            4 
  826000   0.93510696   -6.5145502    286.91755  0.028946484  0.029291747            6 
  827000   0.95064024   -6.5034766    287.86511  0.029006964  0.029274341            9 
  828000   0.92145852   -6.5263327    287.56062  0.028941286  0.029256867           13 
  829000   0.92189075   -6.4689284    287.61079  0.028911419  0.029239417            5 
  830000   0.89557092   -6.5314388    287.58796  0.028874293  0.029221907           10 
  831000   0.90784785   -6.4995046    287.82163  0.028862979  0.029204261            7 
  832000   0.94259808    -6.559391    287.22684  0.028768714  0.029186591            9 
  833000   0.91835392   -6.5111206    288.01215   0.02881274  0.029169038           10 
  834000   0.91648427   -6.5348923     288.2362   0.02880058  0.029151555           11 
  835000   0.92039413   -6.5313115    289.42875  0.028885104  0.029134242            6 
  836000   0.91414235   -6.5206817    290.00714  0.028908207  0.029116837            6 
  837000   0.92318487    -6.536464    289.47047  0.028820238  0.029099431            9 
  838000   0.94450757   -6.5477711    289.22164  0.028761101  0.029082041            6 
  839000   0.90318093   -6.5492527    289.25626  0.028730261  0.029064584           13 
  840000   0.90832271   -6.5347084    288.75794  0.028646621  0.029047157           15 
  841000   0.92786238   -6.5084839    289.72897  0.028708776  0.029029661           10 
  842000   0.94912598    -6.542838    290.49762  0.028750754  0.029012182            5 
  843000   0.93081192    -6.534385    290.78951  0.028745503  0.028994962            9 
  844000   0.92666221   -6.5123765    290.55432  0.028688222  0.028977922           10 
  845000   0.91072541   -6.5542219    290.61363  0.028660121   0.02896075           12 
  846000   0.90836824   -6.5466943    291.34279  0.028698068  0.028943368            4 
  847000   0.93506557   -6.5673677    291.88091   0.02871713  0.028925884            5 
  848000   0.91931016   -6.5740433    290.52102  0.028549629  0.028908573            6 
  849000   0.92385624    -6.573721    291.11894   0.02857469  0.028891328           10 
  850000   0.93044171    -6.529094    291.20009  0.028549028  0.028874063           19 
  851000   0.92598912   -6.5564514    291.77197  0.028571482  0.028856813            6 
  852000   0.90397477    -6.549589     292.3322  0.028592743   0.02883956            8 
  853000   0.91563446   -6.5581862    292.19429  0.028545749  0.028822312            6 
  854000   0.90562513   -6.5619474    292.53123  0.028545202  0.028804987           16 
  855000   0.90364016   -6.5831371    291.31762   0.02839353  0.028787413           15 
  856000   0.91443699   -6.5230243    292.23316   0.02844949  0.028769775           10 
  857000   0.92766062    -6.549597    292.08984  0.028402357  0.028752153            6 
  858000   0.92752781   -6.5487764    291.97306  0.028357912  0.028734416            6 
  859000   0.92145242    -6.587381    292.78642  0.028403805  0.028716589            6 
  860000    0.9174766   -6.5393597    292.98384  0.028389907  0.028698913           14 
  861000   0.90836426   -6.5206761    293.29513  0.028387063  0.028681363           10 
  862000    0.9340691   -6.5453185    293.92321   0.02841485  0.028663877            7 
  863000    0.9116559   -6.5435118    293.40591  0.028331973  0.028646462           13 
  864000   0.89089868   -6.5132206    292.97767  0.028257877  0.028628862           11 
  865000     0.911681   -6.5561214    293.67819  0.028292696  0.028611042           14 
  866000   0.90618813   -6.5747835    293.25829   0.02821962  0.028593136           16 
  867000   0.90536003   -6.5540328    293.81959  0.028241022  0.028575171            5 
  868000   0.89529826   -6.5728423    294.01741  0.028227477  0.028557269            8 
  869000   0.91640576   -6.5510826    293.87904  0.028181726  0.028539322            5 
  870000   0.91499817   -6.5240752    294.42925  0.028202036  0.028521381            4 
  871000   0.87894343   -6.5547105    294.08351  0.028136577  0.028503237            6 
  872000   0.90994786   -6.5681029    294.28513  0.028123579  0.028485226            4 
  873000   0.89432044   -6.5662026    294.27305   0.02809021  0.028467261            7 
  874000   0.91679256   -6.5850222     294.7525  0.028103785   0.02844937            9 
  875000   0.89147607    -6.589837    295.64465  0.028156634   0.02843165            6 
  876000   0.92129695   -6.5563176    295.27633  0.028089453  0.028413956            8 
  877000   0.89997937   -6.5386504    295.21964  0.028052038  0.028396199           13 
  878000   0.90075142   -6.5674665    296.35363  0.028127718  0.028378547            4 
  879000   0.91191002   -6.5961965    296.51243  0.028110772  0.028361019            6 
  880000   0.89381837    -6.576157    296.50336   0.02807797   0.02834367            9 
  881000   0.90480878   -6.5869896    297.24499   0.02811625  0.028326388            9 
  882000   0.91021889   -6.5633177    297.63709  0.028121418  0.028309068            9 
  883000   0.90182376   -6.5746259     296.8342  0.028013797  0.028291795            7 
  884000   0.91170557   -6.5718989     297.2558  0.028021851  0.028274416           18 
  885000    0.9060483   -6.5519032    297.47801  0.028011112  0.028257519            9 
  886000    0.8826943   -6.5757751    298.35816   0.02806228  0.028240773            8 
  887000   0.91251031   -6.5768611    298.04158    0.0280009  0.028223954           10 
  888000   0.91121293     -6.57504    298.80478  0.028040989  0.028207248           19 
  889000   0.91834276   -6.6000843    298.86022  0.028014644  0.028190551            8 
  890000   0.90654462   -6.5747116    299.31753  0.028025986  0.028173938           19 
  891000   0.87768931   -6.6131598    299.74069  0.028034109  0.028157316           11 
  892000   0.88885317   -6.6166918    298.67523  0.027903142  0.028140633           15 
  893000   0.89713893   -6.5683196    299.13888  0.027915162  0.028123761           11 
  894000   0.89159862   -6.6138434    299.40893   0.02790911   0.02810675            5 
  895000    0.9086542   -6.5468264    299.78054  0.027912527  0.028089803           12 
  896000   0.89620191   -6.6012958    299.83237  0.027886195  0.028072837           11 
  897000   0.90517083   -6.5714471    299.79428  0.027851568  0.028055758            3 
  898000   0.89030605   -6.5926196    299.32152  0.027776681  0.028038763           10 
  899000   0.89177247   -6.6215296    298.90791  0.027707445  0.028021569            7 
  900000   0.91626454   -6.5874424    299.96465  0.027774504  0.028004372           11 
  901000   0.88446492   -6.5758425    300.54245  0.027797119  0.027987226            8 
  902000   0.88993954   -6.5683752    299.92578  0.027709329  0.027970094           11 
  903000    0.8834806   -6.6319569    299.86571    0.0276731  0.027952664            6 
  904000   0.91560254   -6.5747337     300.1815  0.027671598    0.0279352            6 
  905000    0.8983784   -6.5777552    299.96574  0.027621155  0.027917772            4 
  906000   0.86922162   -6.5752308    301.41653   0.02772411  0.027900234            5 
  907000    0.8844907   -6.5572016     300.5885  0.027617466  0.027882829            3 
  908000   0.91201442   -6.5906562    301.01239  0.027625954  0.027865377           16 
  909000    0.8937003   -6.5914748    301.12848  0.027606205  0.027847973           10 
  910000   0.89494651   -6.6070588    300.16402  0.027487547  0.027830454           10 
  911000   0.89990947   -6.5904761    301.59547  0.027588316  0.027813117            5 
  912000   0.91637039   -6.6233275    301.50147  0.027549476  0.027795568           23 
  913000   0.90389317   -6.6118372    301.14252  0.027486539  0.027778065            6 
  914000   0.86712626   -6.6277406    300.93997  0.027437999  0.027760425            5 
  915000   0.90836027   -6.6233864    301.41551  0.027451322  0.027742571            7 
  916000   0.89035467    -6.613365     300.5712  0.027344541  0.027724617            5 
  917000   0.89952616    -6.655459    301.71399  0.027418574  0.027706775           17 
  918000   0.88384222   -6.6116874    301.90011  0.027405602   0.02768903           10 
  919000   0.88620153   -6.6041124    302.45881  0.027426443  0.027671496            9 
  920000   0.89020793   -6.5791361    302.70658  0.027419074  0.027653961           27 
  921000   0.87337781   -6.5888412    302.70223  0.027388909  0.027636423           15 
  922000    0.8766486   -6.5845865    302.54334  0.027344843  0.027618928           10 
  923000   0.85250461   -6.5703947    302.95956  0.027352795  0.027601376            8 
  924000   0.87390693   -6.5692986    303.36494  0.027359753  0.027583812            6 
  925000   0.88891429   -6.6273989    302.59791  0.027261073   0.02756616           10 
  926000   0.88083625   -6.6127096    302.74547  0.027244913  0.027548349            7 
  927000   0.87757674   -6.6120836    303.19541   0.02725597  0.027530597           21 
  928000   0.90212611   -6.5743716    303.69995  0.027271906  0.027512972           12 
  929000   0.89390858   -6.6341372    303.06659  0.027185737  0.027495338           11 
  930000    0.8763625   -6.6446116    303.46854  0.027192521  0.027477759            6 
  931000   0.88270087   -6.6303622    303.79226   0.02719229  0.027460203            7 
  932000   0.86308435    -6.592197    304.38508   0.02721612  0.027442873           14 
  933000   0.88466614    -6.611144    304.15758  0.027166629  0.027425474           10 
  934000   0.87071607   -6.6432822     304.5318  0.027170932    0.0274081            7 
  935000   0.86329339   -6.6118222    304.17845  0.027110379  0.027390711            7 
  936000   0.88565109   -6.6221744    305.13588  0.027166656  0.027373392           10 
  937000   0.88769891   -6.6121481     304.9439  0.027120588  0.027356061           11 
  938000   0.88305328   -6.6335461    305.60776  0.027150654  0.027338762            6 
  939000   0.88233192   -6.5908665    305.24786  0.027089799   0.02732155           13 
  940000   0.89361894   -6.6300356    305.16534  0.027053665  0.027304142            7 
  941000   0.87988376   -6.5985645    305.35923  0.027042085  0.027286857            6 
  942000   0.86733409   -6.6466791    305.58407  0.027033269  0.027269473            8 
  943000   0.89903515   -6.6441871    305.82429  0.027025829  0.027252158            7 
  944000   0.87737376   -6.6401562    306.31838  0.027040818  0.027234961            6 
  945000   0.86448522   -6.5983712    305.83116  0.026969238  0.027217684            7 
  946000    0.8867242   -6.6229819    306.45103  0.026995334  0.027200476            7 
  947000   0.86544317   -6.6117763    306.91181  0.027007375  0.027183257           10 
  948000   0.86476949   -6.6078342     307.0673  0.026992555  0.027165987           14 
  949000    0.8785806   -6.6425004    306.46232  0.026910987  0.027148709            5 
  950000   0.86871807   -6.6198427    306.84775  0.026916469  0.027131526            9 
  951000    0.8577965   -6.6223869    306.63686  0.026869687  0.027114245            7 
  952000   0.85950824   -6.6083119    306.61158  0.026839249  0.027096952            8 
  953000   0.86832113   -6.6258065    306.50523  0.026801786  0.027079768           10 
  954000   0.87276752   -6.6286823    306.78565  0.026798187  0.027062468           10 
  955000   0.87283849   -6.6218537    307.21687  0.026807755  0.027045227           13 
  956000   0.85427856   -6.6311276    306.44926  0.026712802  0.027028068            8 
  957000   0.86939718   -6.6063342    307.65748  0.026790097  0.027010783            5 
  958000   0.86726243   -6.5860365    308.68469  0.026851487  0.026993672            5 
  959000   0.86979261   -6.6261504    308.37458   0.02679654  0.026976606           17 
  960000    0.8700319    -6.635648    308.37158  0.026768367  0.026959357            6 
  961000   0.86935061   -6.6431488     307.9935  0.026707726  0.026942137           16 
  962000   0.87010571   -6.5971496    308.73855  0.026744504  0.026925074            8 
  963000   0.87300252   -6.5995118    309.76045  0.026805161  0.026908186           18 
  964000   0.87969081   -6.6034431    308.30889  0.026651875  0.026891293           13 
  965000   0.84615742   -6.6469738    308.71796  0.026659582  0.026874295           18 
  966000   0.87918909   -6.6500083    308.57994  0.026620078  0.026857181            9 
  967000   0.85960726   -6.6420959    309.23656  0.026649135  0.026840173            7 
  968000   0.86346862    -6.652893    309.49937   0.02664423  0.026823015            9 
  969000   0.87255194   -6.6404691    310.41483  0.026695462  0.026805877            6 
  970000   0.84211061   -6.6101631     309.7587  0.026611572  0.026788843            9 
  971000   0.85828861   -6.6190307    310.00532  0.026605332  0.026771867            9 
  972000   0.86271129   -6.6172937    309.95615  0.026573744  0.026754945            6 
  973000   0.85158979    -6.643496    310.47642  0.026590992  0.026738099           16 
  974000   0.86711826   -6.6272069    310.74755  0.026586889  0.026721077            7 
  975000   0.84433946   -6.6890122    309.76385  0.026475543  0.026703965           15 
  976000   0.86173734   -6.6648235    310.72858  0.026530787  0.026686716           15 
  977000     0.847788   -6.6687172     310.4233  0.026477593  0.026669555            9 
  978000   0.86636839   -6.6517851     310.6848  0.026472801    0.0266523           24 
  979000   0.86115376   -6.6482718    311.48106  0.026513539  0.026635277            9 
  980000   0.84068516   -6.6480768    311.02049   0.02644732  0.026618192           10 
  981000   0.88380413    -6.654237    311.75652  0.026482885  0.026601201            6 
  982000   0.86471225    -6.665952    311.20961  0.026409505  0.026584198           11 
  983000   0.84552001   -6.6457534    311.34068  0.026393751  0.026567207            7 
  984000   0.85032572   -6.6331335    310.95112  0.026333937  0.026550107           21 
  985000   0.88761345   -6.6285544    311.51049  0.026354526  0.026533034           11 
  986000   0.86617529   -6.6385321    311.86057  0.026357384  0.026515994           13 
  987000   0.84965432   -6.6448426    311.98231  0.026340958  0.026499022           15 
  988000   0.85937463   -6.6715703    312.23225  0.026335379  0.026481927           17 
  989000   0.85307252   -6.6522696    311.93718  0.026283887   0.02646473            9 
  990000   0.86569336   -6.6385455    311.85654  0.026250551  0.026447604            7 
  991000    0.8669752   -6.6526231    311.76605  0.026216452  0.026430355            8 
  992000   0.86083068   -6.6620848    312.10165  0.026218217  0.026413027            8 
  993000   0.87004884   -6.6268576    312.34204  0.026211987  0.026395705           10 
  994000   0.84358815   -6.6861917    312.65036  0.026211465  0.026378407           12 
  995000   0.87388905   -6.6513813    312.48912  0.026171618   0.02636111           12 
  996000   0.85494952   -6.6132158    312.12415  0.026114805  0.026343903           10 
  997000   0.85409442   -6.6846111    312.57265  0.026126099  0.026326756            7 
  998000   0.85921283   -6.6298149    313.42394  0.026171003  0.026309688            9 
  999000   0.85544882   -6.6511098    314.33777  0.026221035  0.026292586            7 
 1000000   0.87004822    -6.635243    313.27809  0.026106507  0.026275585           19 
 1001000   0.84729668   -6.6500411    313.10042  0.026065636  0.026258499           14 
 1002000   0.83673443   -6.6793294    312.84931  0.026018738  0.026241296           10 
 1003000    0.8497263   -6.6522903    313.04158  0.026008772  0.026224036           13 
 1004000     0.861848   -6.6785905    313.23809  0.025999178  0.026206879            7 
 1005000   0.85280148   -6.6645509    313.53521  0.025997944  0.026189719            7 
 1006000    0.8529193   -6.6789679    314.23889  0.026030392  0.026172586           10 
 1007000    0.8393732   -6.6726424    314.37915   0.02601615  0.026155458            8 
 1008000   0.85956304   -6.6792779    314.44926  0.025996136  0.026138464            8 
 1009000   0.86149304   -6.6896067    314.30938  0.025958819  0.026121519           16 
 1010000    0.8582012   -6.6788034    313.53949  0.025869595  0.026104421            8 
 1011000    0.8557549   -6.6800769     314.0401   0.02588527  0.026087153           16 
 1012000   0.83102401   -6.6675006    314.98057  0.025937135  0.026070086           20 
 1013000   0.85558606   -6.7014652    314.96764  0.025910467   0.02605298            8 
 1014000     0.844778   -6.6879493    314.85402  0.025875577    0.0260359           14 
 1015000   0.85706103   -6.6720859      314.908  0.025854515  0.026018768           31 
 1016000   0.84243288   -6.6908006     315.4913  0.025876911  0.026001723           15 
 1017000   0.83442642   -6.6909855    315.19874  0.025827494   0.02598467           18 
 1018000   0.84736689    -6.658458    315.13229  0.025796684  0.025967568           10 
 1019000   0.82752672   -6.6773166    315.06352  0.025765744   0.02595036            4 
 1020000   0.84377274   -6.6864715    316.14211  0.025828604  0.025933248            5 
 1021000   0.84847817   -6.6563754    315.10694  0.025718817  0.025916272           16 
 1022000   0.84815113    -6.667304    315.96019  0.025763225  0.025899259           23 
 1023000   0.84496505   -6.6913692    316.28315  0.025764349  0.025882349           12 
 1024000   0.83875299   -6.7116464    316.48879  0.025755924  0.025865308           34 
 1025000   0.83879499   -6.6812142    316.38091  0.025722025  0.025848158           45 
 1026000   0.83132594   -6.7362975    315.24241  0.025604484  0.025830901           25 
 1027000   0.83219913   -6.7113385     315.8633  0.025629934   0.02581374           30 
 1028000   0.84161557   -6.6520456    316.36991  0.025646069  0.025796654            7 
 1029000   0.84646825    -6.681343    316.11254  0.025600303  0.025779563           16 
 1030000    0.8464752   -6.6497838    317.06117  0.025652198   0.02576249           11 
 1031000    0.8429273   -6.6996535    317.24432  0.025642121  0.025745506           28 
 1032000   0.85282655    -6.701594    316.51228  0.025558163  0.025728429           12 
 1033000   0.83814923   -6.6744976    316.31804  0.025517751  0.025711317            7 
 1034000   0.84216614   -6.6543773    316.83112  0.025534423  0.025694323           11 
 1035000   0.85614878   -6.6957736    317.61675  0.025573007  0.025677457           21 
 1036000   0.83832959   -6.7092619    318.04894  0.025583088  0.025660647           16 
 1037000   0.82634488   -6.6886152     317.8585  0.025543113   0.02564384           12 
 1038000   0.83679997   -6.7082817     317.9832  0.025528516  0.025627042            7 
 1039000   0.81295619   -6.7033203    318.50237  0.025545587  0.025610227           17 
 1040000   0.81621827   -6.6829975    318.02125  0.025482472  0.025593475           10 
 1041000   0.82634316   -6.7007154    318.38577  0.025487174  0.025576793            7 
 1042000    0.8272028   -6.6906024    318.34467  0.025459426  0.025560047           20 
 1043000   0.84381108   -6.6997127    318.19299  0.025422898  0.025543284           11 
 1044000   0.84991148   -6.6660733    319.18471  0.025477706  0.025526596            6 
 1045000   0.83393702     -6.70835    318.80101  0.025422728   0.02550988           13 
 1046000   0.83738099   -6.6740031    319.60623  0.025462574  0.025493207           27 
 1047000    0.8315669   -6.7264997    318.62764  0.025360366  0.025476542           15 
 1048000   0.82617299   -6.6879317     318.6809  0.025340402  0.025459685           18 
 1049000   0.82871447   -6.7357177    318.59212  0.025309193  0.025442828           10 
 1050000   0.83071813    -6.718288     318.9052  0.025309936  0.025425996            7 
 1051000   0.83077692   -6.7043762    320.08027  0.025379026  0.025409209            6 
 1052000   0.83690965   -6.7247576    319.07454  0.025275233  0.025392376            8 
 1053000   0.85258325   -6.7345654    319.13491  0.025256007  0.025375418           19 
 1054000   0.83123336   -6.7198832    319.94471  0.025296071  0.025358572           10 
 1055000   0.82781202   -6.7126565    319.76732  0.025258082  0.025341877           11 
 1056000   0.82266748   -6.7104335    319.60938  0.025221699  0.025325136            7 
 1057000   0.82504949   -6.7059271    319.97416  0.025226597  0.025308481           10 
 1058000   0.82956041   -6.7110248    319.54081  0.025168621  0.025291765            6 
 1059000   0.83508279   -6.6886524    319.54943  0.025145533  0.025274962            9 
 1060000   0.84322938   -6.7073419    320.38402  0.025187423  0.025258316           12 
 1061000   0.81907285    -6.729708    320.26085  0.025154009  0.025241521           13 
 1062000   0.82667054   -6.7396469    319.95257  0.025106134  0.025224663           22 
 1063000    0.8236312   -6.7085936    319.21278   0.02502452  0.025207762           11 
 1064000   0.82690134   -6.7223923    320.07489  0.025068522  0.025190987           14 
 1065000   0.82926499    -6.705754    321.22391  0.025134891  0.025174189           12 
 1066000   0.80267362   -6.7143518    320.87454  0.025084001  0.025157504           31 
 1067000   0.82672191   -6.7215392    320.65823  0.025043598  0.025140723           31 
 1068000    0.8315922   -6.7192059    320.67752  0.025021654  0.025123992           17 
 1069000   0.83384296   -6.7159164     321.4691  0.025059955  0.025107309           20 
 1070000   0.82224768   -6.7421454     321.4753  0.025037017  0.025090479           16 
 1071000   0.83623209   -6.7048673    320.41465  0.024931112  0.025073572           19 
 1072000   0.84056643   -6.7599263    320.34551  0.024902481  0.025056642           26 
 1073000   0.82829918   -6.7292568    320.64656  0.024902653  0.025039801           15 
 1074000   0.83839386   -6.7122335    321.21798  0.024923804  0.025022978           11 
 1075000   0.82307361   -6.7380226    320.63632  0.024855528  0.025005949           19 
 1076000   0.82598951   -6.7315491     321.0039  0.024860897  0.024989079            9 
 1077000   0.82189163   -6.7126046    321.26275  0.024857842  0.024972288           10 
 1078000   0.83025023   -6.7295747    321.09532   0.02482184  0.024955486            8 
 1079000   0.81098535   -6.7397423    321.18535  0.024805789  0.024938637           18 
 1080000   0.83891987   -6.7533823    321.56433  0.024812063  0.024921667            9 
 1081000   0.80957612   -6.7425286    321.77675  0.024805485  0.024904828           19 
 1082000   0.79741247   -6.7257504    322.18745   0.02481419   0.02488795           15 
 1083000   0.83950624   -6.6951501    322.47883  0.024813699  0.024871157           10 
 1084000   0.80694219   -6.7454918    321.19737  0.024692295  0.024854267           11 
 1085000   0.81741014    -6.722319    322.11132  0.024739733  0.024837411            8 
 1086000   0.81277074    -6.712492    323.72893  0.024841078  0.024820751           13 
 1087000   0.82679344   -6.7167956     322.8041  0.024747325  0.024804018            6 
 1088000   0.82589003   -6.7300009     321.8868   0.02465432  0.024787291           12 
 1089000   0.81808318   -6.7301279     322.1617  0.024652717  0.024770482           10 
 1090000   0.82438298   -6.7326358    322.70429  0.024671581  0.024753744            8 
 1091000   0.82385377   -6.7446776    322.06573  0.024600193  0.024737025           25 
 1092000   0.84461141   -6.7324131    322.32466  0.024597425  0.024720347            9 
 1093000   0.81653997   -6.7447915    322.54929  0.024592047  0.024703716           12 
 1094000   0.81705216   -6.7816798    323.48895  0.024641145  0.024687056           10 
 1095000     0.814857   -6.7594336    323.32379  0.024606073  0.024670467            8 
 1096000   0.83851047   -6.7553779    324.47237  0.024670953     0.024654           13 
 1097000    0.8188239   -6.7348491    324.50504  0.024650945  0.024637505           10 
 1098000   0.80374826   -6.7347777    324.09921  0.024597694   0.02462121           12 
 1099000   0.83011467   -6.7602501    324.13096  0.024577719  0.024604884            5 
 1100000   0.80545602   -6.7114112    325.09409   0.02462834   0.02458862           12 
 1101000   0.81447341   -6.7208479    324.91988  0.024592785  0.024572449            7 
 1102000   0.79491542   -6.7301203    325.25801  0.024596038  0.024556274           20 
 1103000   0.79957437   -6.7332201    324.80538  0.024539542  0.024540122           17 
 1104000   0.81712477   -6.7404798    325.05621  0.024536248  0.024523815           16 
 1105000   0.82411391   -6.7112687    324.98526  0.024508692  0.024507578           22 
 1106000   0.81235367    -6.725307    326.00937  0.024563695  0.024491319           13 
 1107000   0.79330646   -6.7093086     326.4714  0.024576287  0.024475244           12 
 1108000   0.81660223   -6.7170587    325.80062  0.024503656   0.02445926           10 
 1109000   0.80735024   -6.7257674     325.6592  0.024470935  0.024443172           17 
 1110000   0.80006309   -6.7420014    326.05395  0.024478525  0.024426905           14 
 1111000   0.79663862   -6.7533944    325.93863  0.024447842  0.024410746            9 
 1112000   0.82192155   -6.7363323    326.38929  0.024459629  0.024394484            9 
 1113000   0.79530142    -6.740362    325.67275  0.024384003  0.024378292           22 
 1114000   0.80160632   -6.7835867    326.54215   0.02442715  0.024362031           18 
 1115000      0.81558   -6.7419888    326.73374  0.024419562  0.024345841           14 
 1116000   0.80170943   -6.7491241    326.17354   0.02435585  0.024329708            9 
 1117000   0.80783983   -6.7368946    326.40057  0.024350983  0.024313571           24 
 1118000   0.82524349   -6.7643793    326.22529  0.024316137  0.024297372           24 
 1119000   0.81298234   -6.7629467    326.02027  0.024279138  0.024281185           26 
 1120000   0.80972127   -6.7664592    326.91894  0.024324326  0.024265114           39 
 1121000   0.80267601   -6.7320144    325.92388  0.024228656  0.024249045           20 
 1122000    0.8064639    -6.780247    327.48865   0.02432328  0.024233003           10 
 1123000   0.79215038   -6.7470103    327.00546  0.024265766  0.024216935           10 
 1124000   0.79660259   -6.7704655    328.13702  0.024328071  0.024201038           13 
 1125000   0.80394554   -6.7666248    327.38637  0.024250843  0.024185119           14 
 1126000   0.81934386   -6.7527608    328.18026  0.024288059  0.024169466           16 
 1127000   0.79184211   -6.7633816    327.98093  0.024251769  0.024153743            8 
 1128000   0.77775582   -6.7408591    327.74206  0.024212623  0.024138034           19 
 1129000   0.79401804   -6.7479778    328.12034  0.024219098  0.024122352           12 
 1130000   0.79040539   -6.7633436    328.12226  0.024197806  0.024106611            7 
 1131000   0.78283843    -6.762137    328.90702  0.024234234  0.024090918           36 
 1132000   0.80412623   -6.7879356    329.02152  0.024221255  0.024075214           13 
 1133000   0.80384333    -6.767916    328.95617   0.02419507  0.024059654            9 
 1134000   0.79428469   -6.7446552    328.96244  0.024174195  0.024044143           10 
 1135000   0.82260097   -6.7711154    329.44478   0.02418831  0.024028561            6 
 1136000   0.80517308   -6.7777195    329.50956   0.02417177  0.024012958            9 
 1137000   0.80420233   -6.7507907    329.20433  0.024128139  0.023997333            8 
 1138000   0.81336373   -6.7703673    329.17086  0.024104486  0.023981739            9 
 1139000    0.7841788   -6.8002287    328.83115  0.024058469  0.023965964           42 
 1140000   0.79521578   -6.7765832    329.03416  0.024052204  0.023950174            6 
 1141000   0.80941916   -6.7972218    328.81598   0.02401519  0.023934401            9 
 1142000   0.79853142   -6.7973602    329.44607  0.024040139   0.02391871           23 
 1143000   0.79497976   -6.7567703    329.67287  0.024035642  0.023903055           15 
 1144000   0.80121832   -6.7856837    329.85468  0.024027876   0.02388745           31 
 1145000   0.79817888   -6.7650107     330.4828  0.024052606   0.02387204           21 
 1146000    0.8005249   -6.7566536    330.59983  0.024040127  0.023856574           16 
 1147000   0.79383083   -6.7730309    329.87651  0.023966616  0.023841147            6 
 1148000   0.80314126   -6.7877902     330.9224  0.024021661  0.023825688            7 
 1149000   0.78044983   -6.8229386    330.86622   0.02399668  0.023810203           20 
 1150000   0.79138431   -6.7925036     330.7952  0.023970666  0.023794789           14 
 1151000   0.80489535   -6.8074356    330.33087  0.023916223  0.023779291           41 
 1152000   0.79226089    -6.792003    330.65093  0.023918614  0.023763781           26 
 1153000   0.79002143   -6.7889763    331.11314  0.023931276  0.023748374           19 
 1154000   0.80345235   -6.7860777     331.6866   0.02395195  0.023732948           23 
 1155000   0.78479815   -6.7937967     331.0231   0.02388334  0.023717595           28 
 1156000   0.80238022   -6.7761352    331.51963  0.023898474  0.023702216           22 
 1157000   0.77978883   -6.7728578    331.44972  0.023872783  0.023686788           10 
 1158000   0.78823641    -6.788396    331.34886  0.023844909  0.023671422           24 
 1159000    0.7777165   -6.7674574    331.84405   0.02385994  0.023656185            7 
 1160000   0.78515806   -6.7662154    331.75404  0.023832905  0.023640865           12 
 1161000   0.80406124   -6.7690637    331.71048   0.02380925  0.023625614           12 
 1162000    0.7909376   -6.7806052    331.96801  0.023807229  0.023610345           14 
 1163000   0.78554314   -6.8190519    331.68729  0.023766644  0.023595141           14 
 1164000   0.79180383   -6.7762135    332.22629  0.023784815  0.023579808           23 
 1165000   0.78938936   -6.7681473    331.89542  0.023740731  0.023564468           10 
 1166000   0.77857581     -6.78073    332.45367  0.023760268  0.023549176           15 
 1167000    0.7839841   -6.8149853    331.61578  0.023680076  0.023533805            7 
 1168000   0.80804243   -6.8070573    330.99258  0.023615338  0.023518247           39 
 1169000   0.77954193   -6.8220521    331.93645  0.023662422  0.023502715           45 
 1170000   0.78218375    -6.797632    332.73408  0.023699009  0.023487257           28 
 1171000   0.79531855   -6.8002066    332.04101  0.023629448   0.02347182           18 
 1172000   0.78186102   -6.8121963    331.45992  0.023567969  0.023456346           13 
 1173000   0.79162939   -6.7859495    332.31409   0.02360856  0.023440926           11 
 1174000   0.79090734    -6.779293    332.35806  0.023591571  0.023425536            8 
 1175000   0.78210937   -6.7886325    331.95381  0.023542823  0.023410014           18 
 1176000   0.79997595   -6.8180359    332.66068  0.023572894  0.023394397           18 
 1177000   0.79656012   -6.8080005    332.27878  0.023525827  0.023378818           16 
 1178000   0.78311044   -6.8096666    333.60964  0.023600003  0.023363338           10 
 1179000   0.77644277   -6.8150859    332.38827  0.023493658  0.023347904           24 
 1180000   0.79524296   -6.7864499    332.54545  0.023484848   0.02333252           36 
 1181000   0.79867789   -6.8126602    332.58565  0.023467799  0.023317081           13 
 1182000   0.77250802   -6.7854945    333.02827  0.023479151  0.023301663           24 
 1183000   0.77843589   -6.8075545    333.28408  0.023477323  0.023286253           14 
 1184000   0.77472546   -6.7871137    332.83088  0.023425597  0.023270769           14 
 1185000   0.78382477   -6.7967717    332.60292  0.023389798  0.023255316            8 
 1186000   0.76102024   -6.8094504    333.25872  0.023416155  0.023239847           22 
 1187000   0.79066336   -6.8006166    332.55596  0.023347091  0.023224427           15 
 1188000   0.77849505   -6.8517001    332.48516  0.023322472  0.023208875           14 
 1189000   0.76839013   -6.8154093      333.039  0.023341674  0.023193354           10 
 1190000   0.76932109    -6.815385    333.36336  0.023344773  0.023177889           18 
 1191000   0.77536278   -6.8029543    332.94138  0.023295646  0.023162455           26 
 1192000   0.76836576   -6.8092253    332.55567  0.023249138  0.023146924           13 
 1193000   0.78342161   -6.8668093    332.58378  0.023231614  0.023131284           15 
 1194000   0.78556401   -6.8334214    332.34868  0.023195748   0.02311568           35 
 1195000     0.769493   -6.8112091    333.28819  0.023241854    0.0231001           16 
 1196000   0.75675658   -6.8263049    333.67777  0.023249566  0.023084567            9 
 1197000   0.79605016   -6.8136687    333.66255  0.023229083  0.023069063           11 
 1198000   0.77848784   -6.8017827    333.70123  0.023212384  0.023053606           20 
 1199000   0.79143755   -6.8048563    333.22299  0.023159786  0.023038126           14 
 1200000   0.78097811   -6.8190553    334.08461   0.02320032  0.023022666           18 
 1201000    0.7558912   -6.8023892    334.05158  0.023178711  0.023007251           16 
 1202000    0.7672686   -6.8153158    333.50307    0.0231214  0.022991843            6 
 1203000   0.77732645    -6.834881    333.83363  0.023125078  0.022976245           20 
 1204000   0.77463726   -6.8218703    334.66404  0.023163347   0.02296069           14 
 1205000   0.77677844   -6.8206383    334.05924  0.023102299  0.022945119           22 
 1206000   0.78639348   -6.8268756    333.94291  0.023075104  0.022929485           26 
 1207000   0.77328801   -6.8274185    334.07649  0.023065209  0.022913956           10 
 1208000   0.76655139   -6.8118647    334.37167  0.023066479  0.022898386           15 
 1209000   0.77488407   -6.8319633    333.57119  0.022992224  0.022882868           14 
 1210000   0.78061182   -6.8130072      334.334  0.023025758  0.022867301           27 
 1211000   0.77324965   -6.8141064    334.59825  0.023024928  0.022851797           10 
 1212000   0.79570242   -6.8502229    334.68191  0.023011682  0.022836287           15 
 1213000   0.76229876   -6.8221953    334.76341   0.02299831  0.022820873           10 
 1214000   0.76609401   -6.8356268      335.135  0.023004874  0.022805525           19 
 1215000   0.78227384   -6.8580744    334.90333   0.02297005  0.022790096            9 
 1216000   0.76223228   -6.8299711    334.23429   0.02290531  0.022774583           13 
 1217000   0.76724599   -6.8390605    334.45205    0.0229014  0.022759025           12 
 1218000   0.78125041   -6.8357851    334.60899  0.022893335    0.0227435           24 
 1219000   0.76124953   -6.8219345    334.37278  0.022858407  0.022727934           20 
 1220000    0.7681399   -6.8369534     334.7885  0.022868067  0.022712449           27 
 1221000   0.76968767   -6.8461007      333.981  0.022794226  0.022697046           27 
 1222000   0.77550058   -6.8357923    334.46323  0.022808458  0.022681595           20 
 1223000   0.76380385   -6.8394933     334.9258  0.022821327  0.022666021           17 
 1224000   0.76632289   -6.8224077     334.7608  0.022791449  0.022650504           29 
 1225000   0.75747694   -6.8370677    334.61895  0.022763194  0.022635077           37 
 1226000   0.75453362   -6.8412281    333.82214  0.022690466  0.022619511           47 
 1227000   0.77106461   -6.8583536    335.29298  0.022771868  0.022603922           27 
 1228000   0.75511817   -6.8363283    335.06926  0.022738142  0.022588418           15 
 1229000   0.75850968   -6.8237524    335.17668  0.022726924  0.022572968           22 
 1230000   0.76403822   -6.8722573    336.32861  0.022786491   0.02255752           15 
 1231000   0.75801152   -6.8577291    335.41207  0.022705935  0.022542081           17 
 1232000   0.76081589    -6.795451    336.64122  0.022770645  0.022526654           21 
 1233000   0.75887061   -6.8310679    335.77139   0.02269339  0.022511273           17 
 1234000   0.76660883   -6.8342221     335.8795    0.0226823  0.022496006           52 
 1235000   0.77103518   -6.8408543    336.30545  0.022692675  0.022480707           17 
 1236000   0.75334015    -6.844967    334.36937  0.022543781  0.022465367           14 
 1237000   0.76163263   -6.8568974    334.71059  0.022548544  0.022449954           11 
 1238000   0.75298189   -6.8473867     335.5357  0.022585871  0.022434579           20 
 1239000   0.76337697    -6.845279    335.51095  0.022565977  0.022419167           25 
 1240000   0.78211016   -6.8467024    336.31256   0.02260165  0.022403784           32 
 1241000   0.76197206   -6.8518142    336.24595  0.022578965  0.022388464           29 
 1242000   0.76433389   -6.8636447    336.04031  0.022546988  0.022373199           55 
 1243000   0.75589869   -6.8651659    336.37124  0.022551035  0.022357834           30 
 1244000   0.75517158   -6.8770734    336.67512  0.022553264  0.022342453           22 
 1245000   0.74946211   -6.8779914    336.07775  0.022495164  0.022327101           36 
 1246000   0.75967788    -6.852458    336.00993  0.022472574  0.022311742           52 
 1247000    0.7625582   -6.8694909    336.64759  0.022497166  0.022296512           37 
 1248000   0.77528529   -6.8569083    337.10128  0.022509434  0.022281364           39 
 1249000   0.74849458   -6.8677234    336.58454  0.022456935  0.022266201           59 
 1250000   0.76067894   -6.8394614    337.80654  0.022520436  0.022251074           41 
 1251000   0.74819924   -6.8542788    337.97805  0.022513859  0.022236094           34 
 1252000   0.74965958   -6.8507618    337.63812  0.022473251  0.022221057           29 
 1253000    0.7547195   -6.8555174    337.69872  0.022459345  0.022206016           38 
 1254000   0.74223892   -6.8716503    337.64468  0.022437844  0.022190949           50 
 1255000   0.74350479   -6.8555836    337.82301  0.022431807  0.022175844           47 
 1256000   0.75527972   -6.8675409    337.97717  0.022424175    0.0221608           32 
 1257000    0.7359139   -6.8719641    337.95869   0.02240511  0.022145793           19 
 1258000   0.76002083    -6.861011    337.98607  0.022389114  0.022130797           41 
 1259000   0.74105966   -6.8682242     338.3964  0.022398491  0.022115809           60 
 1260000   0.75871934   -6.8835767    337.50055  0.022321465  0.022100813           36 
 1261000   0.77436004   -6.8297265    338.89193  0.022395713  0.022085889           43 
 1262000     0.743469   -6.8571464    337.62714   0.02229445  0.022071027           84 
 1263000   0.75265908   -6.8687268    338.24293  0.022317428  0.022056071           68 
 1264000    0.7346911   -6.8614293    338.06358  0.022287947  0.022041113           58 
 1265000   0.75514003    -6.875515    337.93366  0.022261769  0.022026109           12 
 1266000   0.74880232   -6.8918604    337.70471  0.022229114   0.02201108           28 
 1267000   0.75630919   -6.8552211    337.78796  0.022217046  0.021996083           26 
 1268000   0.74605668   -6.8841352    338.06034  0.022217425  0.021981044           17 
 1269000   0.74536732   -6.8965862    338.20468  0.022209396  0.021965946           12 
 1270000   0.75152564   -6.8784558    338.28326  0.022197064  0.021950852           11 
 1271000   0.73884974   -6.8653956    337.88682  0.022153607  0.021935731           23 
 1272000   0.75502539   -6.8512348    337.86267  0.022134609  0.021920675           18 
 1273000   0.76695311   -6.8885702    338.29897  0.022145782  0.021905709           44 
 1274000   0.74199241   -6.8627557    337.84766  0.022098879  0.021890733           42 
 1275000   0.73623769   -6.8978419    338.64573  0.022133708  0.021875641           31 
 1276000   0.74792181   -6.8966671    338.31888  0.022095016  0.021860551           21 
 1277000   0.74636638   -6.8881901    337.32963  0.022013158  0.021845427           19 
 1278000   0.74563841   -6.9078494    338.85052  0.022095104  0.021830322           27 
 1279000   0.74601317   -6.9083647    338.56918  0.022059498  0.021815251           44 
 1280000   0.73122968    -6.879981    338.80837  0.022057836  0.021800189           39 
 1281000   0.74346921   -6.8663574    338.61887  0.022028289  0.021785092           20 
 1282000   0.74320082   -6.8868861    338.92687  0.022031128  0.021769994           42 
 1283000   0.72042206   -6.8804987    338.46732  0.021984107  0.021754968           62 
 1284000   0.74764073   -6.9034987    338.82833  0.021990416  0.021739967           22 
 1285000   0.73768954   -6.8982306    338.67767  0.021963533  0.021724942           28 
 1286000   0.73388306   -6.8957434    339.11103  0.021974535  0.021709966           48 
 1287000   0.74201561   -6.9105522     338.7521  0.021934221  0.021694953           37 
 1288000   0.72333191   -6.9074841    338.13741   0.02187742   0.02167987           58 
 1289000    0.7358935   -6.9091156    339.96179  0.021978393  0.021664806          114 
 1290000   0.75052796   -6.8939372    339.06912   0.02190369  0.021649877           71 
 1291000   0.73702599   -6.8927296    338.96377  0.021879923  0.021634914           19 
 1292000   0.75131389   -6.9158504    338.90475  0.021859181  0.021619978           27 
 1293000   0.74713701   -6.8905354    339.91123  0.021907143  0.021605047           25 
 1294000   0.74135003   -6.9211154    340.17779  0.021907379  0.021590143           26 
 1295000   0.72771379   -6.9092633    339.16721  0.021825432  0.021575257           28 
 1296000   0.72836849   -6.8882155    340.03079   0.02186412  0.021560425           41 
 1297000   0.74249786   -6.8914101    339.95424  0.021842344  0.021545558           40 
 1298000   0.73381869   -6.9255479    339.96669  0.021826315   0.02153071           61 
 1299000   0.72649191   -6.8685367    339.71658  0.021793468  0.021515827           47 
 1300000   0.72099946   -6.9021837    339.74994  0.021778842  0.021500967           60 
 1301000    0.7297903   -6.8789997    340.56329    0.0218142  0.021486133           43 
 1302000   0.71729694    -6.921329    339.61482  0.021736739  0.021471265           78 
 1303000   0.74579491   -6.9078701    339.91013  0.021738944  0.021456422           34 
 1304000   0.72616721   -6.9039748     340.6746  0.021771127  0.021441654           48 
 1305000   0.74250477   -6.9105586    340.55668  0.021746915  0.021426865           19 
 1306000   0.73298891   -6.9056113    340.36756  0.021718195  0.021412044           12 
 1307000   0.73072529   -6.9154278    340.51151  0.021710757  0.021397263           20 
 1308000   0.73841562   -6.9195974     339.9804  0.021660321  0.021382482           28 
 1309000   0.72089647   -6.9001032    340.69271  0.021689121  0.021367633           31 
 1310000   0.72602407   -6.8955011    340.34022  0.021650141  0.021352838           27 
 1311000   0.72516771   -6.8861125    339.38229  0.021572737  0.021337967           17 
 1312000   0.73996363    -6.934469    340.17179   0.02160644  0.021323082           24 
 1313000   0.74590269   -6.8960817    340.34676  0.021601089  0.021308197           12 
 1314000   0.72706882   -6.9264351    340.02156  0.021564026  0.021293354           15 
 1315000   0.72164876   -6.9017585    340.05244  0.021549584  0.021278486            8 
 1316000   0.74563045     -6.91992    340.82917  0.021582394  0.021263643           60 
 1317000   0.73926645   -6.8988984    340.98778  0.021576043  0.021248884           23 
 1318000   0.71598739   -6.9173952    340.18229  0.021508744  0.021234199           15 
 1319000   0.72077947   -6.9227188    341.25153   0.02155999  0.021219448           28 
 1320000   0.72350167   -6.9066873    340.87903  0.021520141  0.021204763           23 
 1321000   0.72724181   -6.9306829    340.68693  0.021491732  0.021190067           35 
 1322000   0.74156125   -6.9122334    340.81909  0.021483805  0.021175373           41 
 1323000   0.71754566   -6.9278594    340.62921  0.021455606  0.021160712           56 
 1324000   0.72405173   -6.9248389      341.315  0.021482565  0.021146047           35 
 1325000   0.72553111   -6.9158965    339.91168  0.021378093  0.021131332           52 
 1326000   0.71617928   -6.9183539    341.36781  0.021453482  0.021116599           68 
 1327000   0.72350441   -6.9479196    340.14667   0.02136063  0.021101812           37 
 1328000   0.73990601   -6.9355342    340.56024  0.021370497   0.02108698           50 
 1329000   0.71966168   -6.9338125    339.80307   0.02130694  0.021072149           23 
 1330000   0.71370562   -6.8995468    340.88061  0.021358434  0.021057343           58 
 1331000   0.72729678   -6.9017858    340.60661  0.021325232  0.021042569           18 
 1332000   0.72861647   -6.9121496    341.33936  0.021355065  0.021027799           26 
 1333000   0.72398604   -6.9393756    340.94342  0.021314292  0.021013069           40 
 1334000   0.71291129   -6.9262145    341.55692  0.021336639  0.020998329           33 
 1335000   0.71931603   -6.9251381    340.93876   0.02128207  0.020983631           47 
 1336000   0.72006053   -6.9226286    340.65655  0.021248537   0.02096893           55 
 1337000   0.74047887   -6.9651597    340.95361   0.02125116  0.020954244           44 
 1338000   0.70893841   -6.9531608    341.30161  0.021256951  0.020939562           22 
 1339000   0.73413794   -6.9332842    340.91516  0.021217025  0.020924893           22 
 1340000   0.71024313   -6.9311266    342.00657  0.021269065  0.020910237           42 
 1341000   0.71644183    -6.944664    341.83385  0.021242472  0.020895578           32 
 1342000   0.70205582    -6.941418    340.80099  0.021162506  0.020880937           28 
 1343000   0.69384851   -6.9247325    341.31836  0.021178851  0.020866231           49 
 1344000   0.72540212   -6.9413536    341.41192  0.021168894  0.020851518           70 
 1345000   0.71818273   -6.9519084    341.20238  0.021140172  0.020836861           49 
 1346000   0.72145421   -6.9485882    341.01584  0.021112917  0.020822211          111 
 1347000   0.70809753   -6.9608722    341.66417  0.021137353  0.020807559          161 
 1348000   0.71372933   -6.9427979    341.64531  0.021120506  0.020792852           60 
 1349000   0.72196774   -6.9583058    341.53538  0.021098059  0.020778223           61 
 1350000   0.71613011   -6.9521652     341.8805  0.021103735  0.020763574           53 
 1351000   0.70034852   -6.9313503    342.25184  0.021111019  0.020748971           55 
 1352000   0.69735059   -6.9359128    342.29262  0.021097918  0.020734373           52 
 1353000   0.69935017   -6.9353939    342.29068  0.021082205  0.020719769           39 
 1354000   0.70691024    -6.979144    342.03844   0.02105111  0.020705205           38 
 1355000   0.71278567   -6.9677707     341.6263  0.021010228  0.020690591           46 
 1356000   0.72034347   -6.9623649     341.7815  0.021004271  0.020675997           75 
 1357000   0.71376429   -6.9572031    342.47513  0.021031388  0.020661384           61 
 1358000   0.71250329   -6.9434408    342.17878  0.020997716  0.020646806           45 
 1359000   0.70137873   -6.9602045    341.79487  0.020958724  0.020632298           39 
 1360000   0.69488987   -6.9546411    342.27211  0.020972556  0.020617798           82 
 1361000   0.69572002    -6.930056    342.81113   0.02099015  0.020603299           94 
 1362000   0.69930654   -6.9359031    343.09264  0.020991963  0.020588804           37 
 1363000   0.72120489   -6.9381509    341.43515  0.020875223  0.020574222           83 
 1364000   0.71456692   -6.9512951    342.43647  0.020921094  0.020559621          181 
 1365000   0.72378278   -6.9615905    341.53534  0.020850753  0.020545035          129 
 1366000   0.70988844    -6.977911    341.48117  0.020832184  0.020530447          220 
 1367000   0.70243602   -6.9894512    341.21246  0.020800565  0.020515836          214 
 1368000   0.69917211   -6.9717413    342.14169  0.020841964  0.020501161          201 
 1369000   0.71232557   -6.9640057     341.6396  0.020796177   0.02048644          244 
 1370000   0.71148697   -6.9509356    341.09876    0.0207481  0.020471774          276 
 1371000   0.69819492   -6.9649675    341.37147  0.020749542  0.020457157          150 
 1372000   0.69615443   -6.9724823    342.29571  0.020790556  0.020442488          166 
 1373000   0.70524366   -6.9760165    342.27792  0.020774333  0.020427845          215 
 1374000   0.71954716   -6.9836612    341.76217  0.020727933  0.020413203          266 
 1375000   0.67757026   -6.9637601    341.46143  0.020694632  0.020398579          250 
 1376000   0.71862976   -6.9865942    341.92797  0.020707847  0.020383984          258 
 1377000   0.70855312   -6.9869639    342.14024  0.020705655   0.02036937          268 
 1378000   0.70578711   -6.9842671    342.03182  0.020684072   0.02035475          310 
 1379000    0.7104757   -7.0186676     341.7432  0.020651631  0.020340126          307 
 1380000   0.71034329   -7.0131733    342.05106  0.020655257  0.020325476          254 
 1381000   0.70227682   -6.9992923    341.48604  0.020606206  0.020310792          259 
 1382000   0.69742915   -7.0023014    341.69087  0.020603646  0.020296116          193 
 1383000   0.69337771   -6.9976991    342.23009   0.02062124  0.020281472          301 
 1384000   0.69600636   -6.9934511    342.18352  0.020603536  0.020266796          444 
 1385000   0.69100758    -6.992893     341.4359  0.020543676  0.020252073          372 
 1386000    0.6843557   -6.9733713    341.24953  0.020517649   0.02023738          362 
 1387000    0.7070024   -6.9941789    342.30643  0.020566356  0.020222698          388 
 1388000   0.69763764   -6.9983528    340.79862  0.020461012  0.020208022          346 
 1389000    0.6879976   -6.9934273    340.87996  0.020451161  0.020193262          543 
 1390000   0.68865688   -6.9778542    341.57695  0.020478235  0.020178498          475 
 1391000   0.71185389    -6.992099    342.03464  0.020490932  0.020163731          408 
 1392000   0.70417503   -7.0154911    341.37892  0.020436957  0.020148885          443 
 1393000   0.69580635   -7.0110702    341.49563  0.020429267  0.020134094          514 
 1394000     0.689444   -7.0288269    341.40972  0.020409477  0.020119346          532 
 1395000    0.6913996   -7.0267869    341.02108   0.02037163  0.020104568          507 
 1396000   0.69802278   -6.9868369    341.74775  0.020400415  0.020089817          449 
 1397000   0.69640933   -7.0169165    341.07791  0.020345855  0.020075051          479 
 1398000   0.70030026   -7.0247841    341.05461  0.020329913  0.020060288          440 
 1399000   0.70606731   -6.9947099    341.44131  0.020338415  0.020045604          392 
 1400000   0.68999398   -6.9859106    341.50298  0.020327558  0.020030947          428 
 1401000   0.69204508    -7.013494    341.93554  0.020338778  0.020016315          401 
 1402000   0.69333828   -6.9991308    341.53367  0.020300385  0.020001684          460 
 1403000   0.69440131   -7.0156118    341.80916  0.020302278  0.019987033          516 
 1404000   0.68976354   -7.0180254    340.88062  0.020232705  0.019972331          522 
 1405000   0.70315835   -7.0128985    341.91301  0.020279538  0.019957553          539 
 1406000   0.68906352   -7.0171405     341.3509  0.020231798  0.019942844          567 
 1407000   0.69112311   -7.0135251    341.53038  0.020228049  0.019928196          595 
 1408000   0.66495944    -7.015848    341.16369   0.02019198  0.019913526          640 
 1409000   0.68087646    -7.015436    341.10709  0.020174301  0.019898827          558 
 1410000   0.70504413   -7.0415401    341.78467   0.02020004  0.019884068          612 
 1411000   0.68599591   -7.0163826    341.52656   0.02017048  0.019869299          657 
 1412000   0.69496402   -7.0202305    340.81351  0.020114112  0.019854507          604 
 1413000   0.68391178   -7.0258303    341.17812   0.02012138  0.019839787          620 
 1414000   0.69437962   -7.0300054    341.12844  0.020104222  0.019824973          576 
 1415000   0.68973072   -7.0263169     341.2268  0.020095807  0.019810182          586 
 1416000   0.68642615   -7.0458602     340.4371   0.02003514  0.019795376          634 
 1417000   0.69387202   -7.0536063    341.78459  0.020100247  0.019780593          556 
 1418000   0.67719193   -7.0339597    341.16041  0.020049389  0.019765803          564 
 1419000   0.68839558   -7.0727805    341.08188  0.020030648  0.019751086          640 
 1420000   0.69068636   -7.0273377    340.89565  0.020005613  0.019736393          642 
 1421000   0.68451619   -7.0391184    341.60044  0.020032866  0.019721698          658 
 1422000   0.68335879   -7.0591699    341.56908  0.020016941  0.019707032          668 
 1423000   0.69953521   -7.0591285    342.35451   0.02004887   0.01969235          636 
 1424000   0.68484423   -7.0517616    341.65639  0.019993937  0.019677687          741 
 1425000   0.68892501   -7.0375633    341.19587  0.019952975  0.019663053          716 
 1426000   0.67681055   -7.0567036    341.89209  0.019979668    0.0196484          677 
 1427000   0.69051752   -7.0353646    342.63916  0.020009295  0.019633765          688 
 1428000   0.67265511   -7.0531306    341.16721  0.019909384  0.019619129          648 
 1429000   0.65823005    -7.060552    341.12395  0.019892929  0.019604457          691 
 1430000   0.70239686   -7.0637815     340.9091  0.019866498  0.019589768          694 
 1431000   0.68229747   -7.0712325    341.91157  0.019910993  0.019575052          700 
 1432000   0.66818467   -7.0752757    341.18434  0.019854769  0.019560375          704 
 1433000   0.68692723    -7.061589    341.30258  0.019847789  0.019545699          716 
 1434000   0.65885287   -7.0418353    340.78393  0.019803808  0.019531001          720 
 1435000   0.69621526   -7.0607519    341.32968    0.0198217  0.019516317          791 
 1436000   0.68272033   -7.1001663    341.09147  0.019794073  0.019501598          928 
 1437000   0.67383408   -7.0971881    341.24053  0.019788943  0.019486849          937 
 1438000   0.68474513    -7.083927      341.251  0.019775788  0.019472107          925 
 1439000   0.68464581   -7.0894915    341.02367  0.019748881  0.019457349          961 
 1440000   0.68242467   -7.1083843    340.89272  0.019727588   0.01944262         1012 
 1441000   0.66979248   -7.1425848    341.47754  0.019747718  0.019427852         1044 
 1442000   0.66794849   -7.0894836    341.21751  0.019718996  0.019413106         1105 
 1443000   0.67776268   -7.1010933    341.16165  0.019702105  0.019398406         1054 
 1444000   0.66817663   -7.1205999    341.22355  0.019692033  0.019383676         1167 
 1445000   0.66887834   -7.1457696    341.01718  0.019666504  0.019368918         1330 
 1446000   0.67628621   -7.1193737     341.5876  0.019685777  0.019354213         1250 
 1447000   0.67603156   -7.1380864    340.86413  0.019630507  0.019339426         1286 
 1448000   0.67058886   -7.1339329    340.69792  0.019607385  0.019324602         1347 
 1449000    0.6734788   -7.1432709    340.57766  0.019586937  0.019309765         1381 
 1450000   0.67017014   -7.1412506    340.71313  0.019581214  0.019294931         1488 
 1451000   0.66679818   -7.1578394    340.45227  0.019552738  0.019280099         1483 
 1452000   0.68044223   -7.1680636    340.09369  0.019518692  0.019265279         1648 
 1453000   0.66394312   -7.1747357    340.76824  0.019543946  0.019250407         1754 
 1454000   0.66854741   -7.1911105    339.70914  0.019469804  0.019235526         1816 
 1455000   0.66969632   -7.1675706    339.80908  0.019462146  0.019220613         1941 
 1456000    0.6812905   -7.1715999    339.94197  0.019456386  0.019205658         1985 
 1457000    0.6724119    -7.184364    339.35668  0.019409556  0.019190684         2112 
 1458000   0.66150225   -7.1907888    339.66435  0.019413829  0.019175718         2169 
 1459000   0.67710275   -7.2292683    340.02497   0.01942112  0.019160742         2160 
 1460000   0.68306972    -7.193774    339.66933  0.019387519    0.0191457         2266 
 1461000   0.67138492    -7.208532    339.81008  0.019382277  0.019130701         2268 
 1462000   0.65032069   -7.2090369    339.80526  0.019368745  0.019115658         2409 
 1463000    0.6662681   -7.2194953    340.03644  0.019368674  0.019100609         2469 
 1464000   0.66449878   -7.2327206    338.92921  0.019292418  0.019085575         2451 
 1465000   0.67666537   -7.2561042    338.92421  0.019278965  0.019070549         2532 
 1466000   0.66647699   -7.2507948    337.95939   0.01921097  0.019055478         2559 
 1467000   0.65706994   -7.2276458    338.67425  0.019238483  0.019040416         2562 
 1468000   0.65780378   -7.2523138    339.05865  0.019247199  0.019025399         2554 
 1469000   0.67044648    -7.283367    338.77116  0.019217788  0.019010318         2689 
 1470000   0.67034974   -7.2552381    338.71007  0.019201251  0.018995219         2757 
 1471000   0.65786654   -7.2772948    338.83167  0.019195087  0.018980071         2775 
 1472000   0.66441582   -7.2944212    338.08307  0.019139666  0.018964927         2781 
 1473000   0.67509203   -7.2838017    337.57449    0.0190979  0.018949766         2904 
 1474000   0.67975498   -7.2689958    339.04003  0.019167799  0.018934621         2833 
 1475000   0.66142231   -7.2793585    338.40457  0.019118902  0.018919484         2859 
 1476000   0.65847532   -7.2714064    337.74517   0.01906872  0.018904329         2915 
 1477000   0.67896749   -7.3291603    337.86646  0.019062653  0.018889128         2994 
 1478000    0.6658956    -7.324042    337.25111   0.01901506  0.018873875         3050 
 1479000   0.65666737    -7.315161     336.8683  0.018980635  0.018858594         3097 
 1480000   0.65274165   -7.3370973    337.29067  0.018991592  0.018843265         3223 
 1481000   0.68241231    -7.347041    336.73615  0.018947567  0.018827923         3199 
 1482000    0.6699098   -7.3495826    337.08607  0.018954457   0.01881256         3289 
 1483000   0.66682364   -7.3906802    337.09705  0.018942293  0.018797162         3324 
 1484000   0.64862487   -7.3841498    336.34568  0.018887336  0.018781734         3309 
 1485000   0.65549455   -7.3579388    336.24829  0.018869152  0.018766312         3325 
 1486000   0.67017142   -7.3895844    336.00758  0.018842955  0.018750854         3416 
 1487000    0.6658819   -7.4047592    336.49128  0.018857391  0.018735389         3460 
 1488000   0.66337112   -7.4101776    336.54567  0.018847764  0.018719915         3443 
 1489000   0.66480818   -7.4049725    336.26513  0.018819405   0.01870444         3400 
 1490000   0.66620004   -7.3979959    335.98597  0.018791162  0.018688999         3470 
 1491000   0.66129077   -7.4213365    336.00756  0.018779765  0.018673531         3462 
 1492000   0.65882844   -7.4331298    336.09086  0.018771831   0.01865808         3478 
 1493000    0.6690786    -7.424054     336.3299    0.0187726  0.018642606         3490 
 1494000   0.65522328   -7.4515113    335.61706  0.018720273  0.018627126         3467 
 1495000   0.66358708   -7.4523559    336.21488  0.018741075  0.018611648         3543 
 1496000   0.64164483   -7.4457086    336.35564  0.018736388  0.018596162         3594 
 1497000   0.65485231   -7.4388027    335.37213  0.018669123  0.018580626         3624 
 1498000   0.66809203   -7.4623553    335.82138  0.018681652   0.01856511         3596 
 1499000   0.65137023   -7.4631846    335.53489  0.018653263  0.018549597         3571 
 1500000   0.64297451   -7.4620814    335.99948  0.018666638  0.018534083         3625 
 1501000   0.66397589   -7.4766725    335.39841  0.018620831  0.018518548         3656 
 1502000   0.67592821   -7.4726976    335.73859  0.018627308  0.018503022         3617 
 1503000   0.65822307   -7.4613416    335.28742  0.018589899  0.018487495         3622 
 1504000   0.66076758   -7.4826708    334.96938  0.018559917  0.018471959         3668 
 1505000   0.64097808   -7.4771078    334.79018  0.018537662  0.018456446         3680 
 1506000   0.64817164   -7.4555728     335.4393  0.018561272  0.018440937         3657 
 1507000   0.65860208   -7.4721352    335.41563  0.018547646  0.018425416         3634 
 1508000   0.64074898   -7.4662669    334.62119  0.018491445  0.018409908         3647 
 1509000   0.64780076   -7.4546921    335.33782  0.018518766  0.018394409         3682 
 1510000   0.64975068   -7.4684941    334.83903  0.018478975  0.018378895         3690 
 1511000   0.63909695   -7.4749254    334.73485     0.018461  0.018363384         3709 
 1512000   0.65087979   -7.4850494    335.08364  0.018468014  0.018347904         3662 
 1513000   0.65561841   -7.5006926    335.09312  0.018456329  0.018332425         3717 
 1514000    0.6637275   -7.4769161    334.90595  0.018433837  0.018316949         3696 
 1515000   0.65908942   -7.4850406    335.02226  0.018428067  0.018301484         3663 
 1516000   0.65417924   -7.5033569    335.08546  0.018419386   0.01828601         3701 
 1517000   0.63777755   -7.4704733    335.62137  0.018436683  0.018270548         3705 
 1518000    0.6617957   -7.5211716    335.16126  0.018399279  0.018255106         3726 
 1519000   0.64055033   -7.4984609    334.54059  0.018353115  0.018239676         3725 
 1520000   0.64709189   -7.5085001    335.17172  0.018375642  0.018224254         3683 
 1521000   0.63704357   -7.5114954    334.48787  0.018326094  0.018208824         3674 
 1522000   0.63681291   -7.5074573     334.5804   0.01831912  0.018193429         3705 
 1523000   0.63456569   -7.4952733    334.63863  0.018310277  0.018178032         3715 
 1524000   0.64821822   -7.5008482    334.80638  0.018307435  0.018162648         3687 
 1525000   0.63162231   -7.4994259    334.67022   0.01828799  0.018147268         3725 
 1526000   0.64492288   -7.5168371    334.51658  0.018267616   0.01813191         3698 
 1527000   0.65263556   -7.5226456     334.8991  0.018276528  0.018116561         3692 
 1528000   0.64185877   -7.5084126    334.87172  0.018263074  0.018101216         3720 
 1529000   0.65627588   -7.5115716     334.0997  0.018209053  0.018085893         3698 
 1530000   0.65728231   -7.5090214    334.30909  0.018208556  0.018070567         3739 
 1531000   0.64904581   -7.5151783     334.8323  0.018225142  0.018055256         3713 
 1532000   0.66258476   -7.5089355    334.33217  0.018186041  0.018039953         3715 
 1533000   0.63959069    -7.497372    334.82107  0.018200754  0.018024655         3746 
 1534000   0.63207914    -7.508011    335.15096   0.01820681  0.018009391         3728 
 1535000   0.64809621   -7.5248754    334.57627   0.01816375  0.017994093         3724 
 1536000   0.64952453   -7.5042527    334.86666  0.018167679  0.017978827         3716 
 1537000   0.63145403   -7.5239173    334.28723  0.018124443  0.017963555         3749 
 1538000   0.63537537   -7.4959933    335.10418  0.018156923  0.017948312         3683 
 1539000   0.63500605   -7.5218408    334.58651  0.018117095  0.017933072         3703 
 1540000   0.64019495    -7.529018    334.16912  0.018082745  0.017917835         3701 
 1541000   0.64298539   -7.5406771    334.48462  0.018088072  0.017902606         3706 
 1542000   0.64266118   -7.5169075    334.37977  0.018070675  0.017887397         3716 
 1543000    0.6403797   -7.5401559    334.66739  0.018074497  0.017872175         3708 
 1544000   0.62355899   -7.5279102    334.08865  0.018031555  0.017856972         3706 
 1545000   0.64189674   -7.5171989    334.25155   0.01802867   0.01784178         3725 
 1546000    0.6393931    -7.534643    333.91732  0.017998993  0.017826585         3745 
 1547000   0.63340105   -7.5361889    333.91868  0.017987432   0.01781141         3720 
 1548000   0.63757539   -7.5280202    334.04198  0.017982449   0.01779623         3702 
 1549000    0.6331655   -7.5284043    334.25553  0.017982329  0.017781072         3735 
 1550000   0.62661977   -7.5397041    334.22196  0.017968923  0.017765917         3731 
 1551000   0.64588216     -7.54296    334.56358  0.017975692  0.017750773         3756 
 1552000   0.63708444   -7.5485645    334.19161  0.017944137   0.01773563         3728 
 1553000    0.6265163   -7.5325936    333.87829   0.01791577  0.017720499         3743 
 1554000   0.63649115   -7.5308225    334.16742  0.017919746  0.017705386         3733 
 1555000   0.61624819   -7.5305978    334.48259  0.017925112  0.017690291         3743 
 1556000   0.64697344   -7.5638559     334.3195  0.017904858   0.01767523         3739 
 1557000   0.62727953   -7.5511786    333.87975  0.017869822  0.017660164         3743 
 1558000    0.6385577   -7.5389844    333.86613  0.017857623   0.01764511         3756 
 1559000   0.62734841   -7.5192371    334.04778  0.017855879  0.017630078         3725 
 1560000   0.62600324   -7.5346775    334.10936  0.017847722  0.017615054         3726 
 1561000   0.62169187   -7.5358203    333.65911  0.017812252  0.017600034         3738 
 1562000   0.61788602    -7.521743    333.84575  0.017810806  0.017585049         3748 
 1563000    0.6311422   -7.5597014    333.76128  0.017794907  0.017570047         3742 
 1564000   0.63167964   -7.5493079    333.29126  0.017758486  0.017555077         3718 
 1565000   0.63872501   -7.5329391    333.89605  0.017779342  0.017540122         3735 
 1566000   0.64230849   -7.5534723    333.77738  0.017761674  0.017525167         3771 
 1567000   0.61299668   -7.5540778    333.84232  0.017753793  0.017510205         3721 
 1568000   0.61803582   -7.5508417    334.18665   0.01776077  0.017495271         3741 
 1569000   0.62816179   -7.5525799    333.54173  0.017715197  0.017480345         3717 
 1570000   0.63170907   -7.5442991    333.90286  0.017723082  0.017465428         3723 
 1571000   0.62290327   -7.5388418     333.9574  0.017714693  0.017450529         3748 
 1572000   0.62052609   -7.5544947    333.28812  0.017667945  0.017435642         3762 
 1573000   0.63230509   -7.5623154    333.43592  0.017664543  0.017420755         3757 
 1574000   0.62253427   -7.5404269    334.11176  0.017689102  0.017405872         3713 
 1575000   0.62071721   -7.5446566    333.46876   0.01764385  0.017391024         3716 
 1576000   0.61126412   -7.5394446    334.41366  0.017682617  0.017376187         3756 
 1577000   0.60619587   -7.5308852    333.58865  0.017627809  0.017361344         3748 
 1578000   0.62160883   -7.5610062     334.3556   0.01765714  0.017346534         3736 
 1579000   0.60312172   -7.5733358    333.98384  0.017626338  0.017331731         3726 
 1580000   0.63823483   -7.5607066    334.07821  0.017620159  0.017316944         3752 
 1581000   0.61634337   -7.5582456    334.12676  0.017611573   0.01730218         3755 
 1582000   0.62466287   -7.5568909    334.09974  0.017599017  0.017287437         3725 
 1583000   0.61667297   -7.5617234    334.26081  0.017596379  0.017272692         3743 
 1584000   0.61269867   -7.5502894    333.56347  0.017548583  0.017257954         3760 
 1585000   0.61712604   -7.5625043    334.20096  0.017571028  0.017243234         3716 
 1586000   0.61657189   -7.5528902    334.05301  0.017552176  0.017228518         3722 
 1587000   0.60895606   -7.5594304     333.7454  0.017524963   0.01721382         3719 
 1588000   0.60360012   -7.5742419    333.55544  0.017503959   0.01719911         3736 
 1589000   0.63022001   -7.5483231    333.92968   0.01751257  0.017184439         3733 
 1590000   0.61551196   -7.5534762    333.44837   0.01747633   0.01716977         3775 
 1591000   0.62300406   -7.5504531    333.71094  0.017479098  0.017155125         3753 
 1592000   0.62715922   -7.5539545    333.68961  0.017467002  0.017140479         3748 
 1593000   0.61080655   -7.5611817    333.72967  0.017458133  0.017125854         3721 
 1594000   0.61756123   -7.5624197    334.09664  0.017466366  0.017111232         3762 
 1595000   0.60829936   -7.5590456    334.11852  0.017456558  0.017096626         3754 
 1596000    0.6237714   -7.5895663    333.77813  0.017427847  0.017082021         3732 
 1597000   0.60137374   -7.5864242    333.19546   0.01738653  0.017067436         3770 
 1598000   0.60778823   -7.5710797    333.39217  0.017385908  0.017052864         3753 
 1599000   0.61866926   -7.5839644    333.46461   0.01737881  0.017038318         3761 
 1600000   0.60639541   -7.5610773     333.4825   0.01736888  0.017023779         3756 
 1601000    0.6111147   -7.5449332    332.90804   0.01732813  0.017009243         3742 
 1602000   0.61279885   -7.5714128    333.09095  0.017326829  0.016994736         3747 
 1603000   0.60739875    -7.582681    334.28552   0.01737812  0.016980225         3743 
 1604000   0.60774444   -7.5901573    333.69735  0.017336728  0.016965723         3750 
 1605000   0.59973291   -7.5706233    333.78946  0.017330709  0.016951243         3718 
 1606000   0.60724651   -7.5569929    333.71774  0.017316196  0.016936775         3753 
 1607000   0.61124949   -7.5697022     333.4588  0.017291993   0.01692233         3754 
 1608000   0.61749481   -7.5647788    333.67644  0.017292519   0.01690789         3762 
 1609000   0.61291566   -7.5669898    333.26134  0.017260272  0.016893459         3755 
 1610000    0.6106015    -7.586396    333.11756   0.01724211  0.016879049         3738 
 1611000   0.61111216    -7.576667    334.08115  0.017281251  0.016864644         3729 
 1612000   0.61036617   -7.5679252    333.55032  0.017243089  0.016850251         3733 
 1613000   0.60196804    -7.575208    333.79313  0.017244944  0.016835876         3734 
 1614000   0.60662648   -7.5595983     333.3669  0.017212252   0.01682151         3740 
 1615000    0.6245911   -7.5840273    333.12752  0.017189242   0.01680715         3745 
 1616000   0.61319686   -7.5626637    333.58711  0.017202305  0.016792807         3750 
 1617000   0.61864733   -7.5748208    333.65089  0.017194954  0.016778481         3761 
 1618000   0.59812648   -7.5781025    334.18424  0.017211797  0.016764155         3760 
 1619000   0.60035385   -7.5659797    333.51803  0.017166874  0.016749837         3738 
 1620000   0.60540297   -7.5703968    333.93834  0.017177898  0.016735545         3764 
 1621000   0.61427524   -7.6002367    333.75027  0.017157633  0.016721272         3753 
 1622000   0.60822547   -7.6018443    332.93107  0.017104967  0.016706993         3758 
 1623000   0.59772302    -7.594428    333.04052  0.017100047  0.016692725         3751 
 1624000   0.61633885   -7.5757806    333.55169  0.017115747   0.01667848         3741 
 1625000   0.60427622   -7.5882688    333.75736  0.017115762  0.016664236         3762 
 1626000   0.60307769   -7.5823156     333.3237   0.01708301   0.01665001         3763 
 1627000   0.61561069   -7.5908042    333.87043  0.017100514  0.016635804         3761 
 1628000   0.60269077   -7.5776448    333.79934  0.017086371  0.016621613         3732 
 1629000   0.60018818   -7.5827323    333.49693  0.017060412  0.016607425         3775 
 1630000   0.60109767    -7.587461    333.76868  0.017063838  0.016593256         3747 
 1631000   0.59624234    -7.595427     332.7134  0.016999458  0.016579092         3774 
 1632000   0.59105847   -7.6065007    332.74373  0.016990591  0.016564932         3790 
 1633000   0.58848273   -7.5808238    332.82395   0.01698428  0.016550783         3720 
 1634000   0.61089494   -7.6022625     333.3105    0.0169987  0.016536655         3742 
 1635000   0.61124311   -7.5928265    333.34455  0.016990038  0.016522545         3757 
 1636000   0.59145278   -7.5846632    332.93497   0.01695879   0.01650844         3782 
 1637000   0.59167745   -7.5941299    333.45464  0.016974885  0.016494337         3765 
 1638000   0.60704564   -7.5762597    332.77535  0.016929963  0.016480258         3742 
 1639000   0.58689868   -7.5935288    333.27474  0.016945024  0.016466198         3743 
 1640000    0.6034049   -7.5968316    333.04319  0.016922926  0.016452152         3758 
 1641000   0.59561557   -7.5993612    332.26999  0.016873349  0.016438114         3756 
 1642000   0.60997397   -7.5831136    333.41573  0.016921221  0.016424088         3753 
 1643000   0.60692017   -7.5880265    332.61523   0.01687032  0.016410081         3749 
 1644000   0.60397408   -7.5946227    333.11564  0.016885424  0.016396076         3769 
 1645000   0.59711314   -7.5917365    333.26653  0.016882803  0.016382095         3767 
 1646000   0.60490533   -7.5980152     333.2528  0.016871851  0.016368109         3752 
 1647000    0.5984569   -7.5837044    333.06145  0.016851925  0.016354153         3751 
 1648000   0.58947806   -7.6057295    332.90144  0.016833608    0.0163402         3737 
 1649000   0.59318295   -7.6009974    333.10839  0.016833859  0.016326269         3747 
 1650000   0.60384771   -7.5877104    332.92224  0.016814255  0.016312345         3740 
 1651000   0.59226709   -7.5954527    333.15149  0.016815641  0.016298426         3766 
 1652000    0.5937883   -7.5911223    332.77586  0.016786514  0.016284518         3759 
 1653000   0.59689263    -7.573955    333.04145  0.016789748  0.016270629         3754 
 1654000   0.58643576   -7.5980993    333.47046  0.016801212  0.016256742         3778 
 1655000   0.58834445   -7.6023568    333.15238  0.016775044  0.016242879         3764 
 1656000   0.59442801   -7.5887249    332.49662  0.016731915  0.016229027         3755 
 1657000   0.57884275   -7.5975223    332.85961  0.016740073  0.016215188         3749 
 1658000   0.58512303   -7.6097551    332.55695  0.016714764  0.016201351         3756 
 1659000   0.58428781   -7.5920044    332.79314  0.016716553   0.01618754         3758 
 1660000   0.59015945   -7.5992311     332.9126   0.01671248  0.016173735         3768 
 1661000   0.59238256   -7.5976062    333.42215  0.016727983  0.016159947         3748 
 1662000   0.58805278   -7.6015686    333.33426  0.016713511  0.016146163         3765 
 1663000   0.59152837   -7.6103126    332.71008  0.016672183  0.016132383         3763 
 1664000   0.58044354   -7.5997749    333.19451  0.016686424  0.016118631         3748 
 1665000   0.58290547   -7.6111649    332.81391  0.016657353  0.016104899         3763 
 1666000   0.58090166   -7.6052745    333.51717  0.016682531  0.016091173         3738 
 1667000   0.57621151   -7.6113406    332.70688  0.016632018   0.01607745         3762 
 1668000   0.58798169   -7.5901651    333.14269   0.01664382  0.016063753         3778 
 1669000   0.58995567   -7.6151263    332.99044  0.016626245  0.016050062         3739 
 1670000    0.6047908   -7.6073257    333.22866  0.016628177  0.016036404         3797 
 1671000   0.59114828   -7.5635906    332.70106  0.016591914  0.016022759         3747 
 1672000   0.58534049   -7.6171687    332.74232  0.016584047  0.016009116         3778 
 1673000    0.5836774    -7.590275    333.39834  0.016606811  0.015995488         3763 
 1674000   0.57135338   -7.6043894    332.93391  0.016573771  0.015981857         3734 
 1675000   0.57841513   -7.6180106     332.9963   0.01656698   0.01596825         3762 
 1676000   0.59638309   -7.6347027    332.22077  0.016518534  0.015954653         3750 
 1677000   0.58359092   -7.6052962    332.62248  0.016528646  0.015941075         3744 
 1678000   0.59470953   -7.6147032    333.10322  0.016542671    0.0159275         3753 
 1679000   0.58266926    -7.603745    333.01554  0.016528466  0.015913934         3737 
 1680000   0.58218246   -7.5923397    332.58652  0.016497347  0.015900375         3743 
 1681000   0.58644161   -7.6141614    332.19691  0.016468219  0.015886842         3745 
 1682000   0.57015012   -7.6153811    332.74888  0.016485775  0.015873328         3730 
 1683000   0.58514353   -7.6166733    332.69696  0.016473408  0.015859819         3749 
 1684000   0.57739255   -7.6327753    333.64095   0.01651034  0.015846322         3764 
 1685000   0.57516574   -7.6231325    333.14801  0.016476163  0.015832843         3755 
 1686000   0.57815945   -7.6186619    332.70427  0.016444458   0.01581938         3733 
 1687000   0.57595557   -7.6248781    333.23977  0.016461163  0.015805922         3755 
 1688000   0.58837724   -7.6082879    333.01498  0.016440313  0.015792482         3738 
 1689000   0.57380946   -7.6118621    332.79995   0.01641997  0.015779039         3746 
 1690000   0.58578117   -7.6047419     332.5832  0.016399566  0.015765622         3773 
 1691000   0.58780567   -7.6257668    332.38759  0.016380228  0.015752218         3766 
 1692000   0.57549353   -7.6212395    333.09861  0.016405566  0.015738834         3739 
 1693000   0.58233159   -7.6196762    332.44896  0.016363898  0.015725453         3743 
 1694000   0.59123594   -7.6240008    332.30557  0.016347185  0.015712085         3745 
 1695000   0.56908905   -7.6201506    332.44815   0.01634455  0.015698736         3704 
 1696000   0.58436958   -7.6138773    332.67828  0.016346221  0.015685387         3737 
 1697000   0.56812046   -7.6158932    332.55569  0.016330568  0.015672061         3754 
 1698000   0.58706664    -7.643636    331.88765  0.016288165  0.015658741         3756 
 1699000   0.58129497   -7.6298126    333.17486  0.016341714  0.015645441         3740 
 1700000   0.56941218   -7.6106246    332.32915  0.016290645  0.015632145         3747 
 1701000   0.58058513   -7.6213395    332.75376   0.01630187  0.015618867         3754 
 1702000   0.59015953   -7.6117246    332.00897  0.016255825  0.015605598         3746 
 1703000   0.57817529   -7.6254205    332.46856  0.016268769  0.015592347         3759 
 1704000   0.57763339   -7.6273669    332.70039  0.016270559  0.015579108         3748 
 1705000   0.56290283   -7.6348247    332.66808  0.016259437  0.015565872         3729 
 1706000    0.5792545    -7.612784    332.23346  0.016228676  0.015552658         3764 
 1707000   0.57129871   -7.6265585    332.60725  0.016237417   0.01553946         3738 
 1708000   0.57898317   -7.6545509    332.26709  0.016211314  0.015526268         3745 
 1709000   0.57773117   -7.6271075    332.82866  0.016229211    0.0155131         3764 
 1710000   0.56258532   -7.6195495    332.12449  0.016185404  0.015499932         3763 
 1711000   0.56311185   -7.6248771    332.76848  0.016207309  0.015486781         3780 
 1712000   0.55737904   -7.6308693     332.8607  0.016202331  0.015473633         3769 
 1713000   0.56360357    -7.641515    332.74336  0.016187165  0.015460506         3763 
 1714000   0.55914746   -7.6252412    332.90522   0.01618559  0.015447388         3750 
 1715000   0.56742405   -7.6384183    331.88251  0.016126458  0.015434278         3743 
 1716000   0.55507079   -7.6147244    332.06371   0.01612586  0.015421172         3784 
 1717000   0.56714067   -7.6168155    332.14129  0.016120233  0.015408084         3753 
 1718000   0.57789819   -7.6394684    332.19795  0.016113599  0.015395022         3779 
 1719000   0.57261356   -7.6275602     332.4012  0.016114078  0.015381954         3758 
 1720000   0.57046199    -7.638291    332.54845  0.016111844  0.015368911         3752 
 1721000   0.55868474   -7.6316845     331.9854  0.016075218  0.015355876         3753 
 1722000   0.57279078   -7.6245122    332.05209   0.01606911  0.015342851         3755 
 1723000   0.56850038   -7.6447279    332.70141  0.016091189  0.015329835         3751 
 1724000   0.56312555   -7.6414053    332.93554  0.016093172  0.015316843         3762 
 1725000   0.55866984   -7.6322549    332.47028  0.016061366  0.015303867         3747 
 1726000   0.57870306   -7.6487895    332.50634  0.016053802    0.0152909         3743 
 1727000   0.55157361   -7.6391295    332.40688  0.016039707  0.015277946         3764 
 1728000   0.56638373   -7.6626105    332.07045    0.0160142  0.015264996         3732 
 1729000   0.55332986   -7.6419133    332.47471  0.016024422   0.01525207         3764 
 1730000   0.56306134   -7.6297134    332.72877  0.016027397  0.015239157         3757 
 1731000   0.55701456   -7.6524227    331.98648  0.015982403  0.015226255         3749 
 1732000   0.57966739   -7.6531348    332.16416  0.015981724  0.015213368         3788 
 1733000   0.57297678   -7.6396064    332.79713  0.016002939    0.0152005         3774 
 1734000   0.56564679   -7.6334504    332.62801  0.015985583  0.015187631         3765 
 1735000   0.55541626    -7.650831    332.00491  0.015946441  0.015174778         3793 
 1736000   0.55652376   -7.6470665     332.2522  0.015949126  0.015161944         3764 
 1737000   0.57054909   -7.6399903    332.16854  0.015935931  0.015149114         3766 
 1738000   0.56247643   -7.6507176    332.27378  0.015931808  0.015136299         3757 
 1739000   0.56307801   -7.6439619    331.86796  0.015903199  0.015123491         3756 
 1740000   0.54923302    -7.656632    332.40673  0.015919863  0.015110699         3767 
 1741000   0.55063775   -7.6424803    332.44759  0.015912674  0.015097925         3780 
 1742000   0.55591407   -7.6336358    331.89018  0.015876875  0.015085153         3758 
 1743000   0.55512247   -7.6687975    332.32152  0.015888388  0.015072395         3787 
 1744000   0.56113123   -7.6504686    331.82383  0.015855496  0.015059642         3783 
 1745000   0.56293076   -7.6534606    331.91666  0.015850843  0.015046917         3781 
 1746000   0.55945483   -7.6518763    331.59096   0.01582622  0.015034197         3760 
 1747000   0.54656974   -7.6434634    332.25844     0.015849  0.015021501         3747 
 1748000   0.54992918   -7.6462966    332.59485  0.015855971  0.015008815         3763 
 1749000   0.54392251   -7.6574599    332.01118  0.015819096  0.014996139         3753 
 1750000   0.55540106    -7.662884    332.26117  0.015821961  0.014983477         3743 
 1751000   0.55626501   -7.6498457    331.99527   0.01580027  0.014970826         3772 
 1752000   0.54790091   -7.6429681    332.07998  0.015795281  0.014958184         3750 
 1753000   0.54991486   -7.6478129    332.64201  0.015812988  0.014945548         3771 
 1754000   0.56282028   -7.6718684     332.2078  0.015783343  0.014932928         3771 
 1755000    0.5526272    -7.655603    332.26175  0.015776911  0.014920312         3774 
 1756000   0.55084797     -7.65479    331.85346   0.01574855  0.014907709         3779 
 1757000   0.54323532   -7.6592563    331.69149  0.015731905  0.014895119         3755 
 1758000    0.5585236   -7.6619605    331.56374  0.015716901  0.014882548         3772 
 1759000   0.55390705   -7.6415142     332.5313  0.015753804  0.014869997         3771 
 1760000   0.54835136   -7.6594698    332.32652  0.015735157   0.01485745         3783 
 1761000   0.55165975   -7.6499747    331.94774  0.015708297  0.014844915         3782 
 1762000   0.55390596   -7.6649571    331.63841  0.015684753  0.014832391         3787 
 1763000   0.53617277   -7.6647117    331.62268  0.015675113  0.014819881         3752 
 1764000   0.54399245   -7.6608136    331.43245  0.015657239  0.014807377         3782 
 1765000   0.55956897   -7.6731437    332.46109  0.015696935  0.014794884         3768 
 1766000   0.55882827   -7.6571266    331.82751   0.01565815  0.014782405         3778 
 1767000    0.5422994   -7.6469478    332.53054  0.015682444   0.01476993         3769 
 1768000   0.55301054   -7.6921115    331.41584  0.015621033  0.014757481         3792 
 1769000    0.5571501   -7.6765036    331.74613  0.015627762  0.014745042         3764 
 1770000   0.54325013   -7.6590291    331.89527  0.015625954  0.014732617         3760 
 1771000   0.54978977   -7.6776993    332.16878  0.015630001  0.014720204         3779 
 1772000   0.54559095   -7.6740718     331.5069  0.015590054  0.014707807         3755 
 1773000   0.53768726   -7.6589363    332.33556  0.015620209  0.014695403         3751 
 1774000   0.54895193   -7.6694913    331.45923  0.015570238   0.01468302         3786 
 1775000   0.54966013   -7.6679104     332.2439  0.015598305  0.014670645         3769 
 1776000    0.5383046    -7.671572    331.55518  0.015557206  0.014658288         3751 
 1777000    0.5349085   -7.6705348    332.06187  0.015572213  0.014645941         3781 
 1778000   0.55659504    -7.673216    331.87719  0.015554799  0.014633606         3760 
 1779000   0.54625049   -7.6662401    331.46615  0.015526801   0.01462129         3777 
 1780000   0.55854007   -7.6750374    331.58271  0.015523535  0.014608981         3784 
 1781000   0.54672593   -7.6562756    331.57246  0.015514339  0.014596682         3784 
 1782000   0.54256805   -7.6788229    331.60526  0.015507167  0.014584395         3761 
 1783000   0.54085947   -7.6645062    331.52798  0.015494858  0.014572123         3786 
 1784000   0.54337888    -7.677497    331.70134   0.01549427  0.014559863         3799 
 1785000   0.53962892   -7.6694519    331.49367  0.015475895  0.014547605         3781 
 1786000   0.54121281   -7.6808077    331.42117  0.015463847  0.014535363         3796 
 1787000   0.53030664   -7.6773759    331.73275  0.015469723  0.014523138         3783 
 1788000   0.53248023   -7.6721097    331.28587  0.015440244  0.014510929         3796 
 1789000   0.52983247   -7.6679797    331.80472  0.015455781  0.014498728         3786 
 1790000   0.53712599   -7.6789344    332.03105  0.015457684  0.014486544         3803 
 1791000   0.54086959   -7.6755131    331.83863    0.0154401  0.014474363         3798 
 1792000   0.54423956   -7.6680506    331.58418  0.015419651  0.014462198         3781 
 1793000   0.54435817   -7.6777369    331.61746  0.015412598  0.014450041         3809 
 1794000   0.52149854   -7.6743325    331.79878  0.015412429    0.0144379         3811 
 1795000   0.53483888   -7.6837558    331.52805  0.015391274  0.014425774         3798 
 1796000   0.54196729   -7.6849962    331.53406  0.015382983   0.01441366         3816 
 1797000   0.52846949    -7.674907    332.01923  0.015396922   0.01440155         3804 
 1798000   0.54210912   -7.6602181    331.38105  0.015358781  0.014389471         3802 
 1799000    0.5397318   -7.6792191    332.15539  0.015386112  0.014377403         3785 
 1800000   0.53388591   -7.6853248    331.68015  0.015355562  0.014365347         3766 
 1801000   0.52438276   -7.6752874    331.45996  0.015336848  0.014353295         3772 
 1802000   0.53286433   -7.6675551    331.52305  0.015331255  0.014341253         3791 
 1803000   0.53272017   -7.6613392    331.96416  0.015343139  0.014329231         3785 
 1804000   0.53844186   -7.6935971    331.51924  0.015314082  0.014317212         3779 
 1805000   0.54004631    -7.700468    332.04704  0.015329965  0.014305205         3794 
 1806000   0.53055393   -7.6872203    331.41567  0.015292344  0.014293214         3788 
 1807000   0.54586726   -7.6929479    331.77136  0.015300284  0.014281219         3795 
 1808000   0.53986766   -7.7003799    331.95771  0.015300411  0.014269252         3782 
 1809000    0.5249815   -7.6831452    331.70768  0.015280435  0.014257284         3778 
 1810000   0.53246516   -7.6897696    331.57525  0.015265896  0.014245344         3784 
 1811000   0.53257764   -7.6901084    331.29249  0.015244455   0.01423341         3794 
 1812000   0.53557949   -7.6996837    331.30207  0.015236482  0.014221492         3782 
 1813000     0.527875   -7.6923362    331.23581  0.015225032   0.01420959         3786 
 1814000   0.52891939   -7.6931222    331.38581   0.01522353  0.014197689         3776 
 1815000   0.53180913   -7.6818868    332.17341  0.015251304  0.014185814         3771 
 1816000   0.51732585   -7.6971474    330.91429  0.015185127  0.014173938         3791 
 1817000   0.53605999   -7.6876932    331.22735  0.015191128  0.014162077         3778 
 1818000   0.52974931   -7.7047083    331.31307  0.015186701  0.014150235         3767 
 1819000   0.52547515   -7.6811822    331.08884   0.01516808  0.014138399         3770 
 1820000    0.5302534   -7.6908465    331.59151  0.015182762  0.014126562         3792 
 1821000   0.51215363   -7.6940765    331.36411  0.015164017  0.014114745         3771 
 1822000   0.53539275   -7.6963458    331.34687  0.015154906  0.014102949         3747 
 1823000   0.53353465   -7.6852381    331.32547  0.015145615  0.014091146         3782 
 1824000   0.51984266   -7.6835421     331.6183   0.01515069  0.014079368         3789 
 1825000   0.52497186    -7.695483    332.29688  0.015173373   0.01406759         3776 
 1826000   0.52803364    -7.690418    331.58757  0.015132693  0.014055848         3764 
 1827000   0.52493328   -7.6938721    331.28927  0.015110804  0.014044113         3784 
 1828000   0.53146074   -7.6939957    330.98096  0.015088483  0.014032387         3784 
 1829000   0.51495478   -7.7152373    331.13437  0.015087223  0.014020663         3776 
 1830000   0.53139891   -7.6859804    331.60653   0.01510048  0.014008954         3775 
 1831000   0.51768452   -7.6990835    330.89904  0.015060033  0.013997265         3796 
 1832000    0.5237884   -7.7021692    331.55721  0.015081751  0.013985574         3770 
 1833000   0.52035112   -7.6887466    330.90693  0.015043959   0.01397391         3794 
 1834000   0.52395648   -7.6927059    331.13766   0.01504624  0.013962256         3801 
 1835000   0.51838239   -7.7054648    331.32011  0.015046326  0.013950612         3785 
 1836000   0.52210286   -7.7130818    331.18021  0.015031781  0.013938986         3791 
 1837000   0.51647183   -7.6935515    331.07618   0.01501888  0.013927348         3798 
 1838000   0.51527033   -7.7039075    331.06744  0.015010312  0.013915732         3812 
 1839000   0.52251047   -7.6962897    330.82414  0.014991125  0.013904122         3797 
 1840000   0.52875648   -7.7074453    331.36556  0.015007498  0.013892542         3803 
 1841000   0.50322046   -7.6878606    331.45081  0.015003205  0.013880962         3787 
 1842000   0.51974728   -7.6840309    331.02586  0.014975835  0.013869387         3798 
 1843000   0.52190373   -7.7098085    330.92764  0.014963268  0.013857836         3784 
 1844000   0.52046728   -7.7018688    330.64309  0.014942294   0.01384629         3802 
 1845000   0.51495297   -7.7007474    331.25584  0.014961872  0.013834758         3797 
 1846000   0.51202429   -7.7005531    331.26729  0.014954283  0.013823242         3780 
 1847000   0.50757465   -7.7015807    331.11762  0.014939434  0.013811742         3786 
 1848000   0.52895915   -7.6824351    331.21414  0.014935703  0.013800252         3780 
 1849000   0.53402716   -7.7122149    331.43722  0.014937679   0.01378877         3787 
 1850000   0.51147801   -7.7071338    331.10733  0.014914744  0.013777297         3781 
 1851000   0.51200522   -7.7183344    331.43712  0.014921534  0.013765839         3779 
 1852000   0.50405241   -7.7071603    331.04521  0.014895843  0.013754386         3804 
 1853000   0.52050938    -7.705419    331.20686  0.014895074  0.013742951         3759 
 1854000   0.51468077   -7.7249778    330.79918  0.014868715  0.013731529         3791 
 1855000   0.51248075   -7.7086042    331.27591  0.014882116  0.013720121         3782 
 1856000   0.51285927   -7.7088756    330.90007  0.014857223  0.013708708         3783 
 1857000   0.50726853   -7.7348016     331.3739  0.014870486  0.013697307         3786 
 1858000   0.51718698   -7.7322246    331.16943  0.014853312  0.013685922         3806 
 1859000   0.51198943   -7.7107884    330.61293  0.014820375  0.013674556         3776 
 1860000   0.51260633   -7.7089041    331.03064  0.014831122  0.013663202         3797 
 1861000   0.51635716   -7.7106323    330.94426  0.014819285   0.01365186         3801 
 1862000   0.50613481   -7.7151032    330.57337  0.014794727  0.013640525         3793 
 1863000   0.51047663   -7.7148976    330.63662  0.014789614  0.013629199         3806 
 1864000   0.50047271   -7.7102149    330.99962  0.014797909  0.013617885         3773 
 1865000   0.50890783   -7.7151279    330.29099   0.01475831  0.013606583         3776 
 1866000   0.51001136   -7.7091478    331.00464  0.014782272  0.013595293         3809 
 1867000   0.51695251   -7.7173719     331.0475  0.014776268  0.013584018         3796 
 1868000   0.50481216   -7.7137252    330.96957  0.014764881  0.013572753         3789 
 1869000   0.50900199   -7.7215669    331.08674  0.014762205  0.013561504         3795 
 1870000   0.50469973    -7.710693    330.60255  0.014732734   0.01355026         3795 
 1871000   0.50976975   -7.7133108     331.1883  0.014750949  0.013539031         3803 
 1872000   0.50351723   -7.7088395    330.33286  0.014704989  0.013527801         3792 
 1873000   0.51126402   -7.7159337    330.95891  0.014724992  0.013516584         3794 
 1874000   0.50358217   -7.7236065    331.12818  0.014724661  0.013505388         3798 
 1875000   0.50531365   -7.7098274    330.71413  0.014698406  0.013494194         3778 
 1876000   0.49897132   -7.7212269     331.0218  0.014704238  0.013483021         3783 
 1877000   0.50930634   -7.6985347    330.60178  0.014677756   0.01347186         3805 
 1878000   0.51048602   -7.7126202     331.3708  0.014704065  0.013460718         3801 
 1879000   0.50933983   -7.7185334    330.49899  0.014657575  0.013449577         3810 
 1880000   0.49981548    -7.740163    331.04871  0.014674145  0.013438441         3818 
 1881000   0.51103548   -7.7215105    331.02517  0.014665301  0.013427322         3784 
 1882000   0.50312199   -7.7329776    330.82893  0.014648819   0.01341622         3785 
 1883000   0.50651281   -7.7254323    330.70229  0.014635435  0.013405121         3806 
 1884000   0.50132647   -7.7229458    330.88135  0.014635587  0.013394031         3769 
 1885000   0.50357383   -7.7144012    331.07608  0.014636431  0.013382952         3804 
 1886000   0.49389311   -7.7188925    330.58125  0.014606807  0.013371889         3791 
 1887000   0.48794297   -7.7247506    331.05694  0.014620073  0.013360841         3786 
 1888000    0.4947955   -7.7225015    330.70943  0.014596991  0.013349795         3785 
 1889000   0.49778916   -7.7307858    330.96242  0.014600424  0.013338764         3812 
 1890000   0.49657408   -7.7169156    330.41657  0.014568632  0.013327744         3799 
 1891000   0.49539849   -7.7323752    331.10836  0.014591414   0.01331673         3794 
 1892000   0.49751125   -7.7207791    330.58517  0.014560657  0.013305733         3807 
 1893000   0.49886652   -7.7264514    330.74827  0.014560146   0.01329474         3799 
 1894000    0.5026518   -7.7130246    330.69129  0.014549951  0.013283769         3804 
 1895000   0.49940367   -7.7297192    330.36553  0.014527948   0.01327281         3785 
 1896000   0.49201404    -7.730829     330.7581   0.01453754  0.013261858         3800 
 1897000    0.4938213   -7.7302719    330.62898  0.014524204  0.013250922         3793 
 1898000   0.49042804   -7.7265933    330.65858  0.014517851  0.013239998         3792 
 1899000   0.49057781   -7.7496737    330.80658  0.014516701  0.013229078         3800 
 1900000   0.50027742   -7.7371641    330.74454  0.014506339   0.01321817         3784 
 1901000   0.49607843   -7.7415946    330.45988   0.01448623  0.013207272         3809 
 1902000   0.50000092   -7.7372025    330.61069  0.014485221   0.01319639         3808 
 1903000   0.49587132   -7.7320146    330.68055  0.014480669  0.013185518         3788 
 1904000   0.49771376   -7.7563495    330.73783   0.01447557  0.013174656         3803 
 1905000   0.49904888    -7.731852    330.44348  0.014455095  0.013163803         3797 
 1906000    0.4951566   -7.7346378    331.23921  0.014482302  0.013152964         3787 
 1907000   0.49009876   -7.7406905    330.83222  0.014456923  0.013142134         3793 
 1908000   0.48861313   -7.7462678    331.20273  0.014465528  0.013131322         3792 
 1909000   0.47898735   -7.7355994    331.08871  0.014452973  0.013120513         3785 
 1910000   0.48709586   -7.7356697    330.12513  0.014403365   0.01310972         3805 
 1911000   0.48626522   -7.7364087     330.7052  0.014421123   0.01309893         3795 
 1912000   0.49338537   -7.7400507    330.12854  0.014388448  0.013088163         3790 
 1913000   0.48950649   -7.7406291    330.78506  0.014409525  0.013077391         3773 
 1914000   0.47978626   -7.7394471    330.69514  0.014398082  0.013066641         3791 
 1915000   0.49195347   -7.7439953    330.36139   0.01437604  0.013055907         3796 
 1916000   0.48426392   -7.7541757    330.85924   0.01439019  0.013045171         3778 
 1917000   0.48477191   -7.7389649    330.99345  0.014388517  0.013034455         3790 
 1918000   0.48495056   -7.7503839    330.36825  0.014353852  0.013023749         3791 
 1919000   0.48287465   -7.7481679    329.94719  0.014328087  0.013013056         3793 
 1920000    0.4758397   -7.7342608    330.61068  0.014349422   0.01300237         3801 
 1921000   0.47935875   -7.7439707    330.32132    0.0143294  0.012991697         3797 
 1922000   0.48844696    -7.754108    330.46691  0.014328257  0.012981039         3786 
 1923000    0.4962138    -7.743378    330.60711  0.014326881  0.012970394         3800 
 1924000   0.48200182   -7.7366344    330.19795  0.014301713  0.012959757         3812 
 1925000   0.48535522   -7.7448058    330.37378  0.014301895   0.01294913         3800 
 1926000   0.48318772   -7.7449241    330.03677  0.014279888  0.012938514         3806 
 1927000   0.48017888   -7.7531161    330.28843  0.014283361  0.012927912         3801 
 1928000    0.4829448   -7.7393859    330.22776   0.01427333  0.012917308         3802 
 1929000   0.48077338   -7.7551089    330.46192  0.014276046   0.01290673         3783 
 1930000   0.47307142    -7.753495    330.87385  0.014286436  0.012896154         3812 
 1931000   0.48848937   -7.7420712    330.02254  0.014242298  0.012885594         3814 
 1932000   0.47824175   -7.7738143    330.10698  0.014238569   0.01287504         3789 
 1933000   0.49381496   -7.7469735    330.30167  0.014239596  0.012864492         3781 
 1934000    0.4717007    -7.763188    330.60341  0.014245235  0.012853968         3807 
 1935000   0.47929758   -7.7609351     330.3776  0.014228148  0.012843443         3801 
 1936000   0.48406488   -7.7307668    330.10912  0.014209242  0.012832933         3773 
 1937000   0.48620168   -7.7509062    330.34641  0.014212115   0.01282243         3797 
 1938000   0.48360824   -7.7698287    330.45772  0.014209568  0.012811945         3790 
 1939000   0.47833089   -7.7494137    330.25066  0.014193341  0.012801467         3776 
 1940000   0.48561579   -7.7606731      330.023  0.014176246  0.012790997         3801 
 1941000    0.4831598   -7.7476354    330.34748  0.014182873  0.012780542         3804 
 1942000   0.48801462   -7.7739489    330.88015  0.014198427  0.012770095         3801 
 1943000   0.48738226   -7.7485412    330.21808  0.014162724  0.012759664         3800 
 1944000   0.47212367   -7.7627699    330.59425  0.014171564  0.012749244         3807 
 1945000   0.47814115   -7.7506718    330.70787  0.014169146  0.012738834         3809 
 1946000   0.47639922     -7.77777    330.11011  0.014136267  0.012728425         3812 
 1947000   0.47575572   -7.7544751    329.85169  0.014117946  0.012718031         3804 
 1948000   0.48681554   -7.7599725    330.24094   0.01412735  0.012707647         3791 
 1949000    0.4814381   -7.7480145    330.06273  0.014112482  0.012697268         3791 
 1950000    0.4782926   -7.7700102    330.53282  0.014125334  0.012686894         3796 
 1951000   0.47639705   -7.7618609    330.24277  0.014105705  0.012676535         3803 
 1952000   0.47565621    -7.767508    329.71423  0.014075915  0.012666187         3809 
 1953000    0.4756446   -7.7571699     330.3692  0.014096655  0.012655848         3783 
 1954000   0.47619832   -7.7667711    330.17244  0.014081049  0.012645519         3808 
 1955000   0.47874133   -7.7537671    330.10259  0.014070869  0.012635205         3793 
 1956000   0.47282331   -7.7636841    329.76391  0.014049247  0.012624897         3792 
 1957000   0.46905958   -7.7653504    330.27619  0.014063881  0.012614606         3801 
 1958000   0.46725285   -7.7725877    330.21542  0.014054112  0.012604321         3799 
 1959000   0.47013499   -7.7593509    330.20049  0.014046303  0.012594046         3782 
 1960000   0.47668345   -7.7625247    330.11152  0.014035354  0.012583783         3785 
 1961000   0.47464247   -7.7678715    329.66229  0.014009106  0.012573525         3798 
 1962000   0.46228018   -7.7623185    329.81819  0.014008588  0.012563283         3799 
 1963000   0.46876476   -7.7677167    329.85696  0.014003097  0.012553047         3789 
 1964000   0.46663421   -7.7755897    330.12796  0.014007466   0.01254282         3788 
 1965000   0.46799006   -7.7637569    330.12412  0.014000175  0.012532607         3798 
 1966000   0.46710784   -7.7587739     330.5034   0.01400913   0.01252241         3811 
 1967000   0.46116355   -7.7817731    329.81507  0.013972846  0.012512215         3794 
 1968000   0.47295458   -7.7783639    330.20225  0.013982141  0.012502035         3799 
 1969000   0.48116159   -7.7690667    329.71971  0.013954618  0.012491868         3791 
 1970000   0.46623323   -7.7711531    329.87635   0.01395416   0.01248171         3799 
 1971000   0.45291883    -7.768422    329.71932  0.013940441  0.012471559         3803 
 1972000   0.46485214   -7.7657145    329.82228  0.013937723  0.012461418         3791 
 1973000      0.46146   -7.7703161    330.13714  0.013943957  0.012451283         3791 
 1974000   0.46234825   -7.7834346    330.01982  0.013931941  0.012441159         3808 
 1975000   0.46996005   -7.7683986    329.45429  0.013901025  0.012431045         3795 
 1976000   0.46304236   -7.7760286    329.71815  0.013905118  0.012420947         3805 
 1977000   0.46125145   -7.7750578    329.84496  0.013903429   0.01241085         3797 
 1978000   0.46243627   -7.7823732    329.65331  0.013888326  0.012400769         3793 
 1979000   0.45453063   -7.7872562    329.58517  0.013878439  0.012390698         3795 
 1980000   0.46905075   -7.7796271    329.91111  0.013885148  0.012380633         3789 
 1981000   0.45441627   -7.7964086    329.47477  0.013859783  0.012370578         3800 
 1982000   0.45080322   -7.7820537    329.74988  0.013864358  0.012360534         3786 
 1983000   0.46305061   -7.7879228    329.88443   0.01386302  0.012350507         3784 
 1984000   0.44878757   -7.7930251    329.84546  0.013854396   0.01234049         3805 
 1985000   0.46285843    -7.776748    329.73478   0.01384277  0.012330492         3811 
 1986000   0.46167792   -7.7901427    329.86476  0.013841254  0.012320498         3816 
 1987000   0.46142424   -7.7888657    329.64888  0.013825234  0.012310517         3801 
 1988000   0.45484292   -7.7886756    330.34753  0.013847566   0.01230055         3807 
 1989000   0.46406471   -7.7738586    329.77193  0.013816488  0.012290593         3781 
 1990000   0.45405755   -7.7925178    330.24294  0.013829269  0.012280648         3793 
 1991000   0.45943571   -7.7908882    329.58056  0.013794599  0.012270706         3801 
 1992000   0.46309052   -7.7896212    329.54735  0.013786285  0.012260771         3799 
 1993000   0.45155237   -7.7712909     329.5209  0.013778261  0.012250844         3784 
 1994000   0.46533086   -7.7861287    329.51921  0.013771281  0.012240924         3787 
 1995000    0.4547228   -7.7781285    330.00909  0.013784841  0.012231014         3814 
 1996000   0.44847712   -7.7742676    329.54697  0.013758641  0.012221122         3795 
 1997000   0.45522571   -7.7892026    330.13763  0.013776399  0.012211236         3791 
 1998000   0.45326078   -7.7919974    329.63266  0.013748443  0.012201368         3805 
 1999000   0.45266779   -7.7916568    329.43271  0.013733229  0.012191498         3794 
 2000000   0.44771637   -7.7917791    329.96286  0.013748453   0.01218165         3806 
 2001000   0.45113065    -7.789668    329.51659  0.013722996  0.012171807         3807 
 2002000   0.45646694   -7.7941401    329.34785  0.013709118  0.012161979         3784 
 2003000   0.45368987   -7.7916514    329.62225   0.01371369  0.012152158         3815 
 2004000   0.44865416   -7.7859999     329.7083  0.013710425  0.012142346         3793 
 2005000   0.44997256   -7.7806777    330.14659  0.013721804  0.012132544         3789 
 2006000   0.45861226   -7.7802389    329.43294  0.013685317  0.012122757         3784 
 2007000   0.44328704   -7.7937958    329.77877  0.013692857  0.012112981         3802 
 2008000   0.45013142   -7.8084803    329.87456  0.013690013  0.012103214         3801 
 2009000   0.44529654   -7.7872302    329.28948   0.01365893  0.012093451         3791 
 2010000   0.44543087   -7.7901762    329.56534  0.013663571  0.012083696         3789 
 2011000   0.45724798   -7.7834116    329.68318   0.01366166  0.012073952         3819 
 2012000   0.44202548   -7.7817961    329.41583  0.013643797  0.012064216         3786 
Loop time of 4275.49 on 48 procs for 2000000 steps with 4000 atoms

Performance: 80832.793 tau/day, 467.782 timesteps/s
99.4% CPU use with 48 MPI tasks x no OpenMP threads

MPI task timing breakdown:
Section |  min time  |  avg time  |  max time  |%varavg| %total
---------------------------------------------------------------
Pair    | 261.21     | 272.59     | 289.33     |  34.1 |  6.38
Neigh   | 26.406     | 27.074     | 27.538     |   4.4 |  0.63
Comm    | 224        | 243.86     | 261.56     |  54.2 |  5.70
Output  | 4.4584     | 4.4602     | 4.4903     |   0.2 |  0.10
Modify  | 3653.2     | 3680.5     | 3697.9     |  21.4 | 86.08
Other   |            | 47.01      |            |       |  1.10

Nlocal:        83.3333 ave          89 max          77 min
Histogram: 2 1 2 5 8 14 8 4 2 2
Nghost:        1772.29 ave        1786 max        1753 min
Histogram: 2 2 1 7 5 6 8 11 3 3
Neighs:        10626.3 ave       11346 max        9544 min
Histogram: 1 1 2 3 7 8 6 14 5 1
FullNghs:      21252.7 ave       22928 max       19398 min
Histogram: 2 1 2 7 8 10 9 6 2 1

Total # of neighbors = 1020130
Ave neighs/atom = 255.03250
Neighbor list builds = 107977
Dangerous builds = 0

#clear
#
#next RN
#
#jump SELF
Total wall time: 1:11:18
