
units lj                  # Use reduced LJ style units
atom_style atomic         # Uncharged point particles
atom_modify map hash      # Needed for indexing of clusters etc
                          # Used to be able to find where atoms are in relation to each other.

lattice fcc 1.0 spacing 1 1 1
Lattice spacing in x,y,z = 1.5874011 1.5874011 1.5874011
region box block 0 10 0 10 0 10 units lattice
create_box 2 box
Created orthogonal box = (0.0000000 0.0000000 0.0000000) to (15.874011 15.874011 15.874011)
  3 by 4 by 4 MPI processor grid
create_atoms 1 box
Created 4000 atoms
  using lattice units in orthogonal box = (0.0000000 0.0000000 0.0000000) to (15.874011 15.874011 15.874011)
  create_atoms CPU = 0.002 seconds
set type 1 type/fraction 2 0.67 78393
Setting atom values ...
  2693 settings made for type/fraction
mass 1 1.0
mass 2 1.0
pair_style lj/cut  3.5
pair_modify tail  yes
pair_coeff 1  1  1.0  1.0   # Intearaction between 1 and 1 set with epsilon = 1 and sigma = 1
pair_coeff 1  2  1.5  0.8
pair_coeff 2  2  0.5  0.88

write_data data.0
System init for write_data ...
Neighbor list info ...
  update every 1 steps, delay 10 steps, check yes
  max neighbors/atom: 2000, page size: 100000
  master list distance cutoff = 3.8
  ghost atom cutoff = 3.8
  binsize = 1.9, bins = 9 9 9
  1 neighbor lists, perpetual/occasional/extra = 1 0 0
  (1) pair lj/cut, perpetual
      attributes: half, newton on
      pair build: half/bin/atomonly/newton
      stencil: half/bin/3d
      bin: standard
WARNING: Not all mixed pair coeffs generated from mixing. Use write_data with 'pair ij' option to store all pair coeffs. (../write_data.cpp:312)


#############################
#   M E L T   S Y S T E M   #
#############################

velocity all create 2.4 9580093 mom yes dist gaussian # Assign velocities
                                                    # Temperature 2.4, random number seed, zero linear momentum
                                                                                # Gaussian distribution

timestep 0.002   # simulation timestep
thermo 1000       # output thermodynamic data every 1000 steps bf 100

# Define a fix  in this case with index 1 applied to all
# particles in the simulation. This fix is for simulations
# in the anisotropic NPT ensemble. Note that we use the MTK
# correction.
fix 1 all npt temp 2.4 2.4 0.1 iso 5.68 5.68 0.5 mtk yes tchain 5 pchain 5 # Use NPT ensemble
                                                                         # Set temperature and pressure and damping
                                                                         # Numbers of thermostats in chain and in barostat
run 10000          # run for 10000 steps
Per MPI rank memory allocation (min/avg/max) = 3.642 | 3.644 | 3.648 Mbytes
Step Temp E_pair E_mol TotEng Press Volume 
       0          2.4   -4.3445498            0  -0.74544977   -3.8717164         4000 
    1000    2.3973138   -4.0311486            0  -0.43607683     5.828948    3613.7041 
    2000    2.4205123   -4.0465729            0  -0.41671224    5.9465787    3597.6183 
    3000    2.4082443    -4.093654            0  -0.48219062    5.6894213    3601.7933 
    4000    2.4335955   -4.0559838            0  -0.40650308    5.4898609     3629.914 
    5000    2.3393664   -4.0425186            0  -0.53434624    5.5477246    3619.2249 
    6000    2.3702689   -4.0784036            0  -0.52388908     5.625715    3603.0168 
    7000    2.4050909   -4.0573223            0  -0.45058785    5.7138364    3613.3284 
    8000    2.4079447   -4.0038822            0  -0.39286822    5.7338549    3637.2614 
    9000    2.3944873    -4.020821            0  -0.42998794    5.7249412    3633.0645 
   10000    2.3589575   -4.0285745            0  -0.49102292    5.4848411    3636.3557 
Loop time of 2.68512 on 48 procs for 10000 steps with 4000 atoms

Performance: 643546.609 tau/day, 3724.228 timesteps/s
99.6% CPU use with 48 MPI tasks x no OpenMP threads

MPI task timing breakdown:
Section |  min time  |  avg time  |  max time  |%varavg| %total
---------------------------------------------------------------
Pair    | 1.2075     | 1.2713     | 1.3887     |   3.2 | 47.35
Neigh   | 0.21644    | 0.22402    | 0.23796    |   0.8 |  8.34
Comm    | 0.80756    | 0.90508    | 0.97073    |   3.4 | 33.71
Output  | 0.00024148 | 0.0002477  | 0.00031859 |   0.0 |  0.01
Modify  | 0.22597    | 0.26886    | 0.30756    |   3.7 | 10.01
Other   |            | 0.0156     |            |       |  0.58

Nlocal:        83.3333 ave          91 max          71 min
Histogram: 1 1 1 2 3 13 9 7 5 6
Nghost:        1747.08 ave        1776 max        1721 min
Histogram: 2 3 3 9 10 10 3 5 1 2
Neighs:        10489.1 ave       11689 max        8758 min
Histogram: 1 0 4 4 6 9 9 8 4 3

Total # of neighbors = 503478
Ave neighs/atom = 125.86950
Neighbor list builds = 906
Dangerous builds = 224

# Equilibrate just above the melting temperature to avoid step fn in T

fix 1 all npt temp 1.25 1.25 0.1 iso 5.68 5.68 0.5 mtk yes tchain 5 pchain 5
run 2000
Per MPI rank memory allocation (min/avg/max) = 3.644 | 3.646 | 3.650 Mbytes
Step Temp E_pair E_mol TotEng Press Volume 
   10000    2.3589575   -4.0285745            0  -0.49102292    5.4848411    3636.3557 
   11000    1.2616993     -5.94301            0   -4.0509342    5.4991976    2774.0776 
   12000    1.2691608   -5.9337295            0   -4.0304642    5.5246291    2776.7497 
Loop time of 0.674399 on 48 procs for 2000 steps with 4000 atoms

Performance: 512456.611 tau/day, 2965.605 timesteps/s
99.7% CPU use with 48 MPI tasks x no OpenMP threads

MPI task timing breakdown:
Section |  min time  |  avg time  |  max time  |%varavg| %total
---------------------------------------------------------------
Pair    | 0.30209    | 0.32661    | 0.39093    |   2.4 | 48.43
Neigh   | 0.042035   | 0.044251   | 0.05295    |   0.8 |  6.56
Comm    | 0.18388    | 0.25514    | 0.28519    |   3.1 | 37.83
Output  | 5.1313e-05 | 5.3163e-05 | 6.8629e-05 |   0.0 |  0.01
Modify  | 0.03715    | 0.0435     | 0.04877    |   1.8 |  6.45
Other   |            | 0.004837   |            |       |  0.72

Nlocal:        83.3333 ave          90 max          76 min
Histogram: 2 2 6 7 4 8 6 7 2 4
Nghost:        2107.31 ave        2126 max        2083 min
Histogram: 1 2 1 6 7 12 7 6 1 5
Neighs:        13743.7 ave       15251 max       12003 min
Histogram: 1 3 3 8 6 9 4 7 5 2

Total # of neighbors = 659696
Ave neighs/atom = 164.92400
Neighbor list builds = 144
Dangerous builds = 17

#############################
# L I N E A R  Q U E N C H  #
#############################

# Define solid atoms. This closely follows ten Wolde  Ruiz-Montero and Frenkel  Faraday Discuss  1996  104  93-110
# Compute components of the per-atom q6 vector
compute q6 all orientorder/atom degrees 1 6 components 6 nnn NULL cutoff 1.3 # compute the Q6 parameter.
                                                                             # Use all neighbours within 1.3 unit cell.

# get number of connections
compute coord_number all coord/atom orientorder q6 0.5

# An atom is solid if it has 8 or more connections (of a possible 14)
variable is_solid atom c_coord_number>=8
group solid dynamic all var is_solid    # Must be dynamic to update
dynamic group solid defined

# do clustering
compute cluster solid cluster/atom 1.3 # Create a cluster where all atoms within are solid and max 1.3 units from another member

# define chunks one chunk per cluster
compute clus_chunks solid chunk/atom c_cluster nchunk every compress yes  # Says which atoms are in which chunk

# count the size of each chunk
compute size_chunks solid property/chunk clus_chunks count


# Find the maximum entry in the vector of chunk sizes
variable max_n equal max(c_size_chunks)


# Thermo style which includes this variable
# thermo_style custom step temp pe vol v_max_n

thermo ${N}  # Print the thermo information every 100 steps
thermo 1000  

# Reset the npt fix at a lower temperature (below freezing)
fix 1  all npt temp  ${temp} ${temp}  0.1  iso  5.68  5.68  0.5  mtk yes tchain  5  pchain  5
fix 1  all npt temp  0.45 ${temp}  0.1  iso  5.68  5.68  0.5  mtk yes tchain  5  pchain  5
fix 1  all npt temp  0.45 0.45  0.1  iso  5.68  5.68  0.5  mtk yes tchain  5  pchain  5

dump dmp2 all dcd ${N} traj.dcd
dump dmp2 all dcd 1000 traj.dcd


compute msd all msd com yes
variable twopoint equal c_msd[4]/6/(step*dt+1.0e-6)
fix 9 all vector 10 c_msd[4]
variable fit equal slope(f_9)/6/(10*dt)
thermo_style custom step temp pe c_msd[4] v_twopoint v_fit v_max_n

fix 1 all npt temp 1.25 ${temp} 0.1 iso 5.68 5.68 0.5 mtk yes tchain 5 pchain 5
fix 1 all npt temp 1.25 0.45 0.1 iso 5.68 5.68 0.5 mtk yes tchain 5 pchain 5
run 500000 # 5000000  # Run for this many steps
Neighbor list info ...
  update every 1 steps, delay 10 steps, check yes
  max neighbors/atom: 2000, page size: 100000
  master list distance cutoff = 3.8
  ghost atom cutoff = 3.8
  binsize = 1.9, bins = 8 8 8
  4 neighbor lists, perpetual/occasional/extra = 1 3 0
  (1) pair lj/cut, perpetual
      attributes: half, newton on
      pair build: half/bin/atomonly/newton
      stencil: half/bin/3d
      bin: standard
  (2) compute orientorder/atom, occasional
      attributes: full, newton on
      pair build: full/bin/atomonly
      stencil: full/bin/3d
      bin: standard
  (3) compute coord/atom, occasional
      attributes: full, newton on
      pair build: full/bin/atomonly
      stencil: full/bin/3d
      bin: standard
  (4) compute cluster/atom, occasional
      attributes: full, newton on
      pair build: full/bin/atomonly
      stencil: full/bin/3d
      bin: standard
Per MPI rank memory allocation (min/avg/max) = 9.846 | 9.851 | 9.854 Mbytes
Step Temp PotEng c_msd[4] v_twopoint v_fit v_max_n 
   12000    1.2691608   -5.9337295 8.3599534e-31 5.805523e-33 8.3333333e+20            2 
   13000    1.2589081   -6.0008623   0.57358391 0.0036768198  0.046911928            4 
   14000    1.2110752   -5.9702585    1.0895462 0.0064853939  0.045149811            2 
   15000    1.2447736    -5.992913    1.6272875  0.009040486  0.044870809            3 
   16000    1.2465277   -6.0002549    2.1295746  0.011091534  0.044072177            2 
   17000    1.2483143   -6.0120195    2.6207608  0.012846866  0.043432983            4 
   18000    1.2187473   -5.9947468    3.1354266  0.014515864   0.04334104            2 
   19000    1.2456352   -5.9941523     3.613808  0.015850035  0.042760372            3 
   20000    1.2421544   -6.0492347      4.20188  0.017507833  0.042875388            3 
   21000    1.2388859   -6.0129954    4.7093922  0.018688064  0.043126175            2 
   22000    1.2248362   -6.0324473    5.2455604  0.019869547  0.043169434            2 
   23000    1.2421767   -6.0110677     5.823314  0.021098963  0.043379904            2 
   24000     1.245841   -6.0590823    6.2280571  0.021625198  0.043339526            3 
   25000    1.2165355   -6.0608371     6.814232  0.022714106   0.04333404            4 
   26000    1.2054515   -6.0154215    7.4329806  0.023823655  0.043447492            1 
   27000    1.2233933   -6.0245569    7.9249773  0.024459806     0.043579            3 
   28000    1.2078057   -6.0593966    8.4126363  0.025037608  0.043713276            3 
   29000    1.2002175   -6.0426713    8.9694173  0.025774187  0.043775766            1 
   30000    1.2148285   -6.0185296    9.3569152  0.025991431  0.043766223            2 
   31000    1.1993426   -6.0580333    9.8905017   0.02658737  0.043615713            1 
   32000    1.2243445   -6.0839688    10.367368  0.026998355  0.043530465            1 
   33000    1.2048103   -6.0445993    10.926227  0.027591481  0.043446844            1 
   34000    1.2093561     -6.06122    11.405433  0.027954492  0.043368085            4 
   35000    1.2209726   -6.0897841    11.824171  0.028152787  0.043278183            2 
   36000    1.2233931   -6.0859903    12.349086  0.028585846  0.043164744            2 
   37000    1.2048878   -6.1296755    12.820975   0.02887607  0.043031306            2 
   38000    1.1917018   -6.0526069    13.308228   0.02918471   0.04286874            3 
   39000    1.1890369   -6.0780661    13.705496  0.029285247  0.042691065            1 
   40000    1.1932559    -6.083469    14.264616  0.029717949  0.042554498            3 
   41000    1.2097039   -6.0408385    14.822433  0.030126897  0.042452484            5 
   42000    1.1896058   -6.0735786    15.082859  0.029926308  0.042340121            2 
   43000    1.1997342   -6.0503648    15.639358  0.030308833  0.042189151            3 
   44000    1.2001914   -6.1239794    15.816206  0.029954935    0.0420035            2 
   45000     1.193411   -6.0998895    16.356007  0.030288901  0.041774373            6 
   46000    1.2069633    -6.124821     16.76483  0.030371069  0.041594484            5 
   47000    1.1622028   -6.1655175    17.203473  0.030502611  0.041400559            4 
   48000    1.2027611   -6.1268345    17.765891  0.030843561  0.041224901            2 
   49000    1.1802554    -6.137481    18.045968  0.030690421  0.041061454            2 
   50000    1.1933807   -6.0957127    18.464515  0.030774191  0.040864069            2 
   51000    1.2034679   -6.1226592    19.005331  0.031054461  0.040717012            2 
   52000    1.2016953   -6.1028901    19.440031  0.031153895  0.040577169            1 
   53000    1.1954683   -6.1400604    19.760614  0.031070147  0.040413845            6 
   54000     1.185909   -6.1097007     20.41877  0.031510447  0.040279963            2 
   55000    1.1713285   -6.1216236    20.838998  0.031574239  0.040172455            3 
   56000    1.1812575   -6.1624528     21.27624  0.031661071  0.040067074            2 
   57000    1.1679191   -6.1649722    21.576425  0.031544481   0.03995607            2 
   58000     1.173638    -6.178265    22.207266  0.031906992  0.039866865            3 
   59000    1.1993755   -6.1503894    22.751464  0.032134836  0.039788807            2 
   60000    1.1633656   -6.1880313    23.028999   0.03198472  0.039722465            3 
   61000     1.166968   -6.2177237    23.335715  0.031879391  0.039629847            3 
   62000    1.1718044   -6.2260693    23.828684    0.0320278  0.039543125            3 
   63000    1.1587364   -6.1883984    24.370229  0.032235752  0.039474399            2 
   64000    1.1694022   -6.2079821    25.027298  0.032587628  0.039422436            1 
   65000    1.1637286   -6.2261781    25.431486  0.032604469  0.039377848            4 
   66000    1.1610889   -6.1474097    25.925344   0.03273402  0.039342867            2 
   67000    1.1610605   -6.1502548    26.403485  0.032840155  0.039301942            3 
   68000    1.1774112   -6.2064263    26.670162  0.032684022  0.039260564            5 
   69000    1.1716748   -6.2068456    27.208433  0.032860426   0.03921289            6 
   70000    1.1371648   -6.2144391    27.336093  0.032542968  0.039157243            4 
   71000    1.1481407   -6.2017335    28.057686  0.032931556  0.039096755            4 
   72000    1.1642798   -6.2347102    28.607292  0.033110291  0.039060805            2 
   73000     1.161642   -6.2081014    29.008816  0.033115087   0.03903517            3 
   74000    1.1655758   -6.1581242    29.817938  0.033578759  0.039023647            4 
   75000    1.1357866   -6.1922618    30.026803  0.033363115  0.039011407            3 
   76000    1.1628446   -6.2550188    30.207369  0.033122115  0.038970473            2 
   77000     1.132412   -6.2204458    30.579001  0.033094157  0.038922468            1 
   78000    1.1664235   -6.2659757    30.931269  0.033046228   0.03886888            5 
   79000    1.1357111   -6.2000534    31.618867  0.033353235  0.038818733            3 
   80000    1.1323073   -6.2438748    32.006454  0.033340056  0.038780616            6 
   81000    1.1601071    -6.251372    32.571168  0.033509432  0.038739737            3 
   82000     1.141031   -6.2943169    32.775362  0.033308295   0.03868971            7 
   83000    1.1193366   -6.2974818    32.915575  0.033047766  0.038622447            3 
   84000    1.1175256   -6.2785176    33.077142  0.032814625  0.038532767            3 
   85000    1.1407818   -6.2429962    33.664517  0.033004428   0.03844241            4 
   86000    1.1359617   -6.2495177     34.16012  0.033100892  0.038365101            4 
   87000    1.1241006   -6.2624822    34.758375  0.033293462  0.038300028            3 
   88000    1.1206456   -6.2457903    35.063392   0.03320397  0.038240413            3 
   89000    1.0779335    -6.308793    35.651877  0.033381907  0.038187601            2 
   90000    1.1241666   -6.2898883    36.031434  0.033362439  0.038143592            4 
   91000    1.1213802   -6.2766733    36.446308   0.03337574  0.038090561            2 
   92000    1.1551378   -6.2427023    36.914807  0.033437325  0.038044015            8 
   93000    1.1246057   -6.2648916    37.287281  0.033411542  0.037999424            4 
   94000    1.1187751   -6.2908585    38.025141  0.033710231  0.037959369            3 
   95000    1.1213379    -6.304579    38.312892    0.0336078  0.037933032            1 
   96000    1.1089204   -6.2909426    38.720766  0.033611776  0.037905129            2 
   97000     1.114979   -6.2992531     38.91129  0.033428943  0.037866818            3 
   98000    1.1264942   -6.3540603     38.98406  0.033149711  0.037806311            2 
   99000     1.109843   -6.3488056    39.287718   0.03307047  0.037735487            3 
  100000    1.1075527   -6.3158474    39.914226  0.033261855  0.037665131            3 
  101000    1.0824314   -6.3403379    40.125246  0.033106638  0.037599279            4 
  102000    1.1210756   -6.2854745    40.579169  0.033152915   0.03752305            3 
  103000     1.120841   -6.2863181    40.883342  0.033077138  0.037441658            4 
  104000    1.1026519    -6.377825    41.321996  0.033110574  0.037363028            3 
  105000    1.0974444   -6.3426721    41.532854  0.032962582  0.037289356            3 
  106000    1.0985051   -6.3503827     42.06098  0.033066808  0.037220798            4 
  107000    1.0966951   -6.3552207    42.374676  0.033002084  0.037152841            2 
  108000    1.0811016   -6.3234854    42.897182  0.033099678  0.037085095            1 
  109000    1.0809299   -6.3503584    43.049926  0.032912787  0.037016214            2 
  110000    1.0653879    -6.346224    43.448698   0.03291568  0.036950072            3 
  111000    1.1030654   -6.3826035    43.658471  0.032776629  0.036878293            1 
  112000    1.0673632   -6.3672513    44.051467  0.032776389  0.036798745            6 
  113000    1.0990556   -6.3099841    44.323657  0.032687063  0.036716407            4 
  114000     1.080256   -6.3615488    44.524836  0.032547394  0.036629078            2 
  115000    1.0835328   -6.3585114    44.799537  0.032463432  0.036539601            3 
  116000    1.0852976   -6.3547756    45.001156  0.032328416  0.036445677            5 
  117000    1.0727833   -6.3889432    45.103737  0.032125168  0.036347911            3 
  118000    1.0908944   -6.3832766    45.567822  0.032180665  0.036246468            3 
  119000    1.0954322   -6.4302703    45.839357   0.03210039  0.036143692            2 
  120000    1.0921063   -6.4396291    46.190342  0.032076626  0.036049454            1 
  121000    1.0922797   -6.4054063    46.680563  0.032149148  0.035954892            5 
  122000    1.0465128   -6.4176882    46.783425  0.031955891  0.035856722            5 
  123000    1.0427766   -6.4319847    47.144642  0.031940815  0.035758328            4 
  124000    1.0708572   -6.3877715    47.425505  0.031871979  0.035662658            2 
  125000    1.0756102   -6.4239304     47.48159  0.031654393  0.035559812            7 
  126000    1.0806743   -6.4076885    48.077326  0.031797173  0.035459916            3 
  127000    1.0715273   -6.3892276    48.350895  0.031726309  0.035359594            3 
  128000    1.0778714   -6.4299306    48.560074  0.031614631  0.035260469            3 
  129000    1.0360281   -6.4237805     48.62745  0.031413081  0.035158151            2 
  130000    1.0589488   -6.4253821    48.861647  0.031321569  0.035052155            5 
  131000    1.0620527   -6.4412083    49.037692  0.031194461  0.034942856            5 
  132000    1.0579445   -6.4538339      49.6345  0.031334912  0.034835454            4 
  133000    1.0574038   -6.4266931    49.565626  0.031056156  0.034733271            9 
  134000     1.023969   -6.4611484    49.896508  0.031030166  0.034626708            3 
  135000    1.0674446   -6.4447582    50.068957  0.030906764   0.03451778            2 
  136000    1.0466546   -6.4595711    50.494295  0.030940132   0.03440884            3 
  137000     1.053914   -6.4829135    50.543688  0.030744336  0.034301399            4 
  138000    1.0454345    -6.443747    51.095387  0.030854702  0.034192792            3 
  139000    1.0526438   -6.4952898    51.173511  0.030679563  0.034084803            6 
  140000    1.0262806   -6.5320589    51.280193  0.030523924   0.03397739            4 
  141000    1.0201229   -6.4588703    52.126377  0.030807551  0.033874807            6 
  142000    1.0482737    -6.515022    52.173751  0.030618398   0.03377614            4 
  143000    1.0595069   -6.4699845    52.684718   0.03070205  0.033682808            5 
  144000    1.0362158   -6.5117415    53.063975  0.030708319  0.033594271            4 
  145000    1.0271236   -6.5037167    53.500617  0.030747481  0.033509784            2 
  146000    1.0487773    -6.494961    53.833907  0.030727116  0.033426535            2 
  147000    1.0178689   -6.5336625    53.979525  0.030600638  0.033343961            3 
  148000    1.0244954   -6.5300393    54.261038  0.030552386  0.033261683            4 
  149000    1.0390411    -6.555733    54.496126  0.030478817  0.033176946            2 
  150000    1.0262453   -6.5358819    54.588167   0.03032676  0.033091175            6 
  151000    1.0257288   -6.5324695    54.984491  0.030344642  0.033003501            4 
  152000     1.041714   -6.5518021    55.382574  0.030363253   0.03291859            5 
  153000    1.0327956   -6.5245476    55.338461  0.030140774  0.032835827            4 
  154000    1.0222823   -6.5368539    55.701724  0.030141625  0.032749877            3 
  155000    1.0161915   -6.5046024    56.147455  0.030186803   0.03266513            3 
  156000    1.0393781   -6.5545784    56.179165  0.030010238  0.032580269            7 
  157000    1.0485568   -6.4878728    56.608985  0.030047232  0.032493643            3 
  158000    1.0123708   -6.5852438    56.578636  0.029841053  0.032408341            3 
  159000    1.0188967   -6.5883431    56.924972  0.029834891   0.03232251            7 
  160000   0.99186129   -6.5410894    57.535942  0.029966636  0.032239002            4 
  161000    1.0125966   -6.5861716    57.568042  0.029797123  0.032156851            3 
  162000     1.022993   -6.5539324    58.259067  0.029968656  0.032077092            6 
  163000   0.99243577   -6.6000917    58.055965  0.029680964  0.031996615            6 
  164000      1.00603   -6.5833187    58.433564  0.029691851  0.031917722            3 
  165000    1.0132751   -6.5934464    58.584294  0.029588027  0.031838185            4 
  166000    1.0041207   -6.5785856    58.790413  0.029513259  0.031756968            4 
  167000   0.98668621   -6.5744982    59.225753  0.029553769  0.031676188            5 
  168000   0.99451742   -6.6331725    59.406609  0.029467564  0.031598365            3 
  169000   0.98530841    -6.640707    59.570489  0.029374008  0.031518306            2 
  170000   0.98823159   -6.6294586    59.756552  0.029292427  0.031436397            4 
  171000      1.00783   -6.6057117     60.08899  0.029283134  0.031354932            5 
  172000   0.99164057   -6.6418853    60.117807  0.029126845  0.031276165            5 
  173000    0.9751745   -6.6388301    60.464831  0.029125641  0.031195329            4 
  174000   0.98689374   -6.6404152    60.710397  0.029075861   0.03111687            3 
  175000   0.98761926    -6.639037    61.109877  0.029099942  0.031041411            5 
  176000   0.98492236   -6.6374237    61.166381  0.028961355  0.030966592            5 
  177000   0.98049425   -6.6088034    61.549859  0.028978276  0.030890166            2 
  178000    0.9696999   -6.6447574     61.77431  0.028920557  0.030815623            3 
  179000   0.96029939   -6.6601232    62.031069  0.028878524  0.030740829            4 
  180000   0.97526955   -6.6622578    62.354017  0.028867601  0.030666816            9 
  181000   0.95951859   -6.6304763    62.794915  0.028911103  0.030593061            5 
  182000   0.96772459   -6.6522572    62.933714  0.028815803  0.030521366            4 
  183000   0.97246681   -6.6480728    63.233193  0.028794714  0.030450355            4 
  184000   0.96974506   -6.6616616    63.537398  0.028775995  0.030379147            4 
  185000   0.98448645   -6.6658925     63.61954  0.028657451  0.030308309            4 
  186000   0.97602081   -6.7065335    63.638804  0.028512009  0.030236111            4 
  187000   0.96779394   -6.6748441    63.993289  0.028517508  0.030163228            4 
  188000   0.96824544   -6.6988804     63.88223  0.028316591  0.030090834            8 
  189000   0.96079906   -6.6780112    64.310063  0.028355407  0.030017631            5 
  190000    0.9764714   -6.6390098    64.501359   0.02829007  0.029943356            4 
  191000   0.95667705   -6.7157927    64.633016  0.028199396  0.029868413            4 
  192000   0.97485488   -6.6872068    64.998743   0.02821126  0.029792919            3 
  193000   0.97221899   -6.7236795    64.916716   0.02802967  0.029716788            6 
  194000   0.95915327   -6.6956523    65.062076  0.027947627  0.029642281            5 
  195000   0.94882661   -6.6912319    65.359819  0.027931546   0.02956702            6 
  196000   0.94181753   -6.7013362    65.616407  0.027898132  0.029492281            9 
  197000    0.9540091    -6.730288    65.462511  0.027691417  0.029415628            4 
  198000   0.97419544   -6.6946665      65.8106  0.027698064  0.029337584            4 
  199000   0.92705903   -6.7617073    65.680893  0.027504561  0.029259196            5 
  200000   0.95236969   -6.7161432    65.849001  0.027437084  0.029179867            6 
  201000   0.96321307   -6.7172365    66.152554  0.027426432  0.029100456            6 
  202000   0.93922863   -6.7401488    66.390911  0.027388989  0.029020535            3 
  203000   0.95939052   -6.7782026    66.344183  0.027234886  0.028940051            7 
  204000   0.94250726   -6.7915312    66.533249  0.027178615  0.028859383            8 
  205000   0.95489675   -6.7503118    66.886948  0.027189816  0.028779012            3 
  206000   0.93885737   -6.7712332    66.941299  0.027079814   0.02869873           10 
  207000   0.94176074   -6.7495948    66.825661   0.02690244  0.028617952            7 
  208000   0.94484328   -6.7584928    67.287479  0.026958124  0.028539402            7 
  209000   0.93689896   -6.7567689    67.518805  0.026921374  0.028461171            6 
  210000   0.91943792   -6.8270335    67.590337  0.026821562  0.028382705            4 
  211000   0.92230342   -6.7804397    67.837117   0.02679191  0.028303693            5 
  212000   0.92463612   -6.7629991    67.918738  0.026697617  0.028224593            5 
  213000   0.92976698   -6.7821043    68.169917  0.026670547  0.028145668            5 
  214000   0.93541178   -6.8181396    68.173139  0.026547172  0.028065714            9 
  215000   0.93518486   -6.7955538    68.270969  0.026461616   0.02798644           10 
  216000   0.91432358   -6.8156731    68.230196  0.026323378  0.027906761            7 
  217000   0.94747338   -6.7706698    68.711339  0.026386843  0.027827839            6 
  218000   0.92089893   -6.8109715    68.486683  0.026179925  0.027749025           11 
  219000   0.92894687    -6.861682    68.600589  0.026103725  0.027668172            8 
  220000   0.93821322   -6.8814052    68.748894  0.026041248  0.027586343            9 
  221000   0.92783618   -6.8459311    69.247737  0.026111515   0.02750686            5 
  222000   0.90843883     -6.83439    69.657068  0.026147548  0.027429369            6 
  223000   0.90450344   -6.8285798    69.611734  0.026013354  0.027353235            8 
  224000   0.91170221   -6.8699554    69.709129  0.025933456  0.027276634            6 
  225000   0.92471499    -6.848923    69.660753  0.025800279  0.027197648            6 
  226000   0.90332239   -6.8974622    69.540449  0.025641759  0.027118639            9 
  227000   0.91627585   -6.8475855    69.933409  0.025673058  0.027039719            7 
  228000   0.90649751   -6.8811369     70.22454  0.025666864  0.026960336            4 
  229000   0.89453566   -6.8444288    70.250985  0.025564405  0.026881672            5 
  230000   0.91501056   -6.8525049    70.290717  0.025467651  0.026802181            9 
  231000   0.89024937   -6.8403901    70.412721  0.025401414  0.026722812            6 
  232000   0.88484881   -6.8593987    70.442591  0.025302655  0.026643236            5 
  233000   0.89093083    -6.877524    70.659667  0.025271698  0.026563586            7 
  234000   0.90464621   -6.8555103     70.64608   0.02515886  0.026483895           13 
  235000   0.89012376   -6.8813472    70.640794  0.025049927  0.026403763            6 
  236000   0.89803909   -6.8616509    70.942406  0.025050284  0.026324126            9 
  237000    0.8777112   -6.8819332    70.937517  0.024942868   0.02624434            5 
  238000   0.87765305   -6.9235723    71.075698  0.024886449  0.026164096            6 
  239000   0.87330379   -6.9070975    71.112406  0.024795121  0.026084485            7 
  240000   0.87875278   -6.9188773    71.583122  0.024855251   0.02600607            7 
  241000   0.89936208   -6.9171341    71.419553  0.024695558   0.02592772            4 
  242000   0.88532028   -6.9015887    71.511689  0.024625237  0.025849867            7 
  243000   0.86619236   -6.9235814     71.59346  0.024551941  0.025771036            8 
  244000   0.88582165   -6.9339469    71.498236  0.024418797  0.025691747            5 
  245000   0.87254819   -6.9477034    71.526527  0.024328751  0.025611808            7 
  246000   0.87988467   -6.9912115    71.655289  0.024273472  0.025530819           13 
  247000   0.87813199   -6.9572538    71.630241  0.024166748  0.025449913            4 
  248000   0.89113223   -6.9431202    71.885115  0.024154945  0.025369031            5 
  249000   0.88184563   -6.9580822    72.082194  0.024123894  0.025288682            8 
  250000   0.86068068   -6.9889866    72.056195  0.024018732  0.025209028            6 
  251000   0.85588103   -6.9479824    72.352265  0.024021336  0.025129806            6 
  252000   0.86809425   -6.9752093    72.195904  0.023874307  0.025050688            5 
  253000   0.86775781   -6.9725605    72.487144  0.023875871   0.02497165            8 
  254000   0.86223782   -6.9672664    72.535327  0.023797679  0.024893426            9 
  255000    0.8599686   -6.9662607    72.712577   0.02376228   0.02481515            5 
  256000   0.85507024   -6.9719532    72.569762  0.023622969  0.024736758            8 
  257000   0.85790329   -7.0317086    72.639126  0.023553543  0.024658442            6 
  258000   0.85925665   -7.0065949     72.96875  0.023568718  0.024581356            6 
  259000   0.85525799   -6.9685835    73.253836  0.023569445  0.024505286            6 
  260000    0.8605174   -6.9877343    73.067787  0.023419163  0.024428349            7 
  261000   0.85689842   -6.9844588    73.332105  0.023413827  0.024351431            6 
  262000    0.8323177   -7.0361164     73.15898  0.023269396  0.024273776            9 
  263000   0.85197733   -7.0609238    73.117805  0.023167872  0.024195685           15 
  264000   0.84899828   -7.0400982    73.303644  0.023138776  0.024118125            4 
  265000   0.84362186   -7.0560962     73.38036  0.023075585  0.024041134           10 
  266000   0.84337039   -7.0203614    73.768633  0.023110474  0.023964625            7 
  267000   0.84027762   -7.0169861    73.563097  0.022959768  0.023887996            5 
  268000     0.850545   -7.0221659    73.852414  0.022964059  0.023811864            8 
  269000   0.83143245   -7.0529577    73.698904  0.022831135  0.023736264            7 
  270000   0.81434511   -7.0389529    74.019941  0.022845661  0.023660607            6 
  271000   0.83304242    -7.050451    73.954492  0.022741234  0.023585155            7 
  272000   0.82872343    -7.042253    73.990449  0.022668642  0.023509304           14 
  273000   0.83153536    -7.032281    73.718783  0.022502681  0.023433209           15 
  274000   0.84344701   -7.0468185      74.1194  0.022542396  0.023357312            7 
  275000   0.83228096   -7.0639611    74.017234  0.022429465  0.023281104            9 
  276000   0.82643939   -7.0825073    73.926561  0.022320822  0.023205342            5 
  277000   0.82477293   -7.0988493    73.909646  0.022235152  0.023128814           11 
  278000   0.82969568   -7.0915921    74.066389  0.022202155    0.0230521            7 
  279000   0.81207826   -7.0909484    74.344904  0.022205766  0.022976851           10 
  280000    0.8093396   -7.0923307     74.38043  0.022137033  0.022902374            9 
  281000   0.81199649   -7.0755121    74.638104  0.022134669  0.022827973            8 
  282000   0.81789138   -7.1010388    74.486535  0.022011387  0.022753645            8 
  283000   0.83416837   -7.0923142    74.418735  0.021913644   0.02267923            8 
  284000   0.82116592   -7.1270326    74.638361  0.021900927  0.022605273            7 
  285000   0.82485726   -7.1389341      74.6831  0.021837164  0.022531129           15 
  286000   0.81690111   -7.1351378    74.485236  0.021703157  0.022457291           10 
  287000   0.79896446   -7.1374958    74.666756  0.021680243  0.022383528            7 
  288000   0.80840255   -7.1322113    74.788002  0.021640047  0.022309924           16 
  289000   0.81400639   -7.1593599    74.824757  0.021575766  0.022237235           16 
  290000   0.80179687   -7.1423943    74.982343   0.02154665   0.02216326           19 
  291000   0.78836577   -7.1571766    74.925975  0.021456465  0.022090169           14 
  292000   0.81452454   -7.1640239    74.842362  0.021359122  0.022017298            9 
  293000   0.78392467    -7.168905    75.038092  0.021341892  0.021944462           11 
  294000   0.79838548   -7.1723866    74.938229  0.021240994  0.021871184           28 
  295000   0.80026989   -7.1560118    75.144407  0.021227234  0.021798477           14 
  296000   0.80752474   -7.1588373    75.076942  0.021136526  0.021726458           13 
  297000   0.79311069   -7.1387592    75.276545  0.021121365  0.021654931           11 
  298000   0.78842092   -7.1688384     75.40681  0.021086916  0.021584173           19 
  299000   0.79896243   -7.1616078    75.256106  0.020974389  0.021512663           12 
  300000   0.77874268   -7.1965401    75.313144  0.020920318  0.021441174           17 
  301000   0.79279689   -7.1887938    75.475746  0.020895832  0.021370351           12 
  302000   0.78267044   -7.1712732    75.624268  0.020867624  0.021300394           13 
  303000   0.77496524   -7.1653616    75.967747   0.02089322  0.021231045            6 
  304000   0.78061974    -7.196291    75.652137  0.020737976  0.021161882           11 
  305000   0.77881327   -7.2062007    75.687006   0.02067951  0.021092475           16 
  306000   0.77627482   -7.2090724    75.826625  0.020649952  0.021022957            7 
  307000   0.76933383   -7.1785346    75.841791  0.020586805  0.020954133           11 
  308000   0.78755112   -7.2143174    75.843727  0.020520489  0.020885297           14 
  309000   0.76609735   -7.2414963    75.900344  0.020469348  0.020816792           15 
  310000   0.79284458   -7.2329321    76.118886  0.020462066  0.020748412           26 
  311000   0.75952484   -7.2589456    75.979137  0.020358826  0.020680012           12 
  312000   0.74810495   -7.2299051    75.862718  0.020262478  0.020611206            7 
  313000   0.77296964   -7.2501176    75.851849  0.020194848  0.020542514           19 
  314000   0.77322531   -7.2809606    75.761637  0.020106592  0.020473848           11 
  315000   0.76530773   -7.2521652    75.976782  0.020099678  0.020404903           28 
  316000   0.76761995   -7.2584628    75.888423   0.02001277  0.020336511           10 
  317000   0.75980154   -7.2524811    75.991383  0.019976704  0.020268818           10 
  318000   0.75183205   -7.2764179    76.090395  0.019939831  0.020201275            9 
  319000   0.75727093   -7.2585741    76.197118  0.019905203  0.020134103           13 
  320000   0.74428423   -7.2960671    76.159615  0.019833233  0.020066925           14 
  321000   0.74969101   -7.2865476    76.252839  0.019795649  0.019999919           20 
  322000   0.75016962    -7.323643    75.950329  0.019655882  0.019932757           23 
  323000   0.76466408   -7.2840187    76.358085  0.019700228  0.019866022           10 
  324000   0.75131296   -7.2867695    76.298117  0.019624001  0.019800039            7 
  325000     0.742977   -7.2830734    76.174226  0.019531853  0.019733754           23 
  326000   0.73544711   -7.3030963    76.385708  0.019525999  0.019667594           13 
  327000   0.74103994   -7.3054669    76.165558  0.019410183   0.01960109           19 
  328000   0.74887745   -7.3061443    76.323131  0.019391039  0.019534886           14 
  329000   0.75908584   -7.3457821    76.117008  0.019279891  0.019468658           20 
  330000    0.7414554    -7.334081    76.154927  0.019231042  0.019402667            9 
  331000    0.7430354   -7.3371862    76.218323  0.019188903  0.019336554            9 
  332000    0.7349389   -7.3312504    76.076408  0.019095484  0.019270213           18 
  333000   0.73969912   -7.3330888    76.170178  0.019061606  0.019203976           25 
  334000   0.73622653   -7.3564677    76.154845   0.01900071  0.019137944           12 
  335000   0.73915027    -7.389121    76.042475  0.018916038  0.019072093           13 
  336000   0.71136535   -7.3681185    76.269083  0.018915943  0.019006614            8 
  337000   0.71467637   -7.3300464    76.333624  0.018875772  0.018941396           16 
  338000   0.71378044   -7.3741487    76.425975  0.018842696  0.018876463            8 
  339000    0.7154854   -7.3467961    76.451107  0.018793291  0.018811899           11 
  340000   0.72598822   -7.3240884    76.356213  0.018714758   0.01874764            8 
  341000   0.72298736   -7.3547016    76.385973  0.018667149  0.018683758           12 
  342000     0.717774    -7.376254    76.327844  0.018598402  0.018619749           17 
  343000   0.71521114   -7.4202294    76.113088  0.018492004  0.018555745           13 
  344000   0.71709604   -7.4319447    76.022672  0.018416345  0.018491707           26 
  345000   0.71901166   -7.4009832    76.388528  0.018451335  0.018428137           15 
  346000   0.73590025    -7.406306    76.359326  0.018390974  0.018364533            9 
  347000   0.69543664   -7.4103301    76.197592  0.018299134  0.018300967           19 
  348000   0.70687097   -7.4304039    76.406804  0.018296648  0.018237524           12 
  349000   0.72128719   -7.4118686    76.444602  0.018253248  0.018174134           14 
  350000   0.71656545   -7.4410825     76.20066  0.018143014  0.018111044           24 
  351000   0.69623339   -7.4190966    76.319768  0.018119603  0.018048204           23 
  352000   0.69793117   -7.4529058    76.225365  0.018045778  0.017985508           45 
  353000   0.71566908   -7.4511241    76.168749  0.017981291  0.017922899           19 
  354000   0.70262347     -7.43587    76.385294  0.017981472  0.017860468           12 
  355000   0.71155839   -7.4528876    76.339979  0.017920183  0.017798323           24 
  356000   0.68524157   -7.4391924    76.357168  0.017873869  0.017737019           22 
  357000   0.70548031   -7.4516826    76.436521  0.017842325  0.017675608           24 
  358000   0.69882752   -7.4888537    76.272947   0.01775441  0.017614464           58 
  359000   0.69257632   -7.4674013     76.35581   0.01772419  0.017553612           17 
  360000   0.67508818   -7.4710315    76.383815  0.017681439  0.017492934           12 
  361000   0.69270677   -7.4756966    76.394171   0.01763485  0.017432374           15 
  362000   0.70139369   -7.4584999    76.405371  0.017588713  0.017371959           27 
  363000   0.67916055    -7.501924    76.366178  0.017531262  0.017311576           24 
  364000    0.6900122   -7.4933528    76.634441  0.017544515  0.017251443           20 
  365000   0.67039966   -7.4782974    76.330723  0.017427106   0.01719144           21 
  366000   0.67489263   -7.4813236     76.35451  0.017384907  0.017131726           21 
  367000   0.67122686   -7.4793964    76.262922   0.01731674  0.017072164           21 
  368000   0.67357878   -7.5155527    76.371859  0.017294352  0.017012824           21 
  369000   0.67813914    -7.493147    76.486113  0.017273287  0.016953504           28 
  370000   0.67530745   -7.4995371    76.219342  0.017166519  0.016894331           12 
  371000   0.67915555   -7.5047661    76.376677  0.017155588   0.01683533           26 
  372000   0.66968538   -7.5238123    76.283439  0.017088584  0.016776516           25 
  373000   0.66442643   -7.5396666    76.314331  0.017049672  0.016717962           31 
  374000   0.68947966   -7.5163373    76.269617  0.016994122  0.016659569           69 
  375000   0.66257588   -7.5080424    76.411246  0.016980277  0.016601407           16 
  376000   0.66624312   -7.5340015    76.339711  0.016919262  0.016543554           22 
  377000   0.66278992   -7.5286156    76.221926  0.016848348  0.016485864           81 
  378000   0.66449345   -7.5344005    76.416999  0.016846781  0.016428386           57 
  379000   0.66723689   -7.5431584    76.298116  0.016776191  0.016371005           12 
  380000   0.66647785   -7.5799413    76.385683  0.016751246   0.01631399           43 
  381000   0.66420857   -7.5504393     76.32493  0.016693992  0.016257097           23 
  382000   0.66650793   -7.5416642    76.382887  0.016662934  0.016200153           15 
  383000   0.64319406   -7.5822974    76.423518  0.016628268  0.016143599           21 
  384000   0.64533161   -7.5693832    76.371951  0.016573774  0.016087127           34 
  385000   0.66307822   -7.5522196    76.202402  0.016494026  0.016030737           25 
  386000   0.64497584   -7.5763656    76.386007  0.016490934  0.015974656           23 
  387000   0.65363147   -7.5977205     76.27151  0.016423667  0.015918789           39 
  388000   0.64841067    -7.598497    76.411003  0.016411298  0.015863009           19 
  389000   0.63863235   -7.6005434    76.034196  0.016288388  0.015807252           46 
  390000   0.63771209   -7.5988248    76.205199  0.016283162  0.015751771           47 
  391000   0.64154201   -7.5899548     76.40036  0.016283112  0.015696673           15 
  392000   0.63759893   -7.5883994    76.234879  0.016206394  0.015641896           30 
  393000   0.64135898   -7.5804231    76.528013  0.016227314  0.015587276           37 
  394000   0.64191657   -7.6034026    76.285775  0.016134893  0.015532934           33 
  395000   0.63464006   -7.6018466    76.376548  0.016113196  0.015478554           30 
  396000   0.63159787   -7.6308375    76.219276   0.01603941  0.015424463           20 
  397000   0.64976016   -7.6260468    76.059201  0.015965407  0.015370402           22 
  398000   0.63383626   -7.6179175    76.239103  0.015962961  0.015316594           41 
  399000   0.63909135   -7.6087182    76.177354  0.015910057  0.015262971           14 
  400000   0.63218389   -7.6097612    76.226572  0.015880536  0.015209664           41 
  401000   0.63160529    -7.638012    76.338182  0.015864128  0.015156511           27 
  402000   0.63952226   -7.6524423    76.110832  0.015777536  0.015103328           19 
  403000     0.627979   -7.6430134    76.313976  0.015780392  0.015050462           38 
  404000   0.62491163   -7.6233649    76.231183  0.015724254  0.014997811           31 
  405000   0.61790491   -7.6400869    76.305289  0.015700677  0.014945538           38 
  406000   0.63838933   -7.6270818    76.258569  0.015652416  0.014893648           35 
  407000   0.63186159   -7.6427614     76.37644  0.015638092  0.014841858           23 
  408000    0.6200071   -7.6668193    76.165013  0.015556579  0.014790098           97 
  409000   0.62078021   -7.6632375    76.345792  0.015555377  0.014738498           35 
  410000   0.60681322   -7.6758602    76.075286  0.015462456  0.014687126           31 
  411000   0.60538096   -7.6759473    76.129758   0.01543588  0.014635877           79 
  412000   0.62023965   -7.6742658    76.234815  0.015419663  0.014584744           33 
  413000   0.62614746   -7.6798892    76.197734  0.015374845  0.014533781           50 
  414000   0.61336237   -7.7269646    75.926239  0.015283059  0.014482878           82 
  415000   0.60334651   -7.6796762    76.159073  0.015292987   0.01443211           67 
  416000   0.59947987   -7.6877889     76.06329  0.015237037  0.014381641           26 
  417000   0.59411217   -7.6854213    76.047901  0.015197422  0.014331326           41 
  418000   0.59882285    -7.725176     75.97337  0.015146206   0.01428127           26 
  419000   0.59374688   -7.7155741    75.901447  0.015095753  0.014231303          103 
  420000   0.59965086   -7.6940868    76.102041  0.015099611  0.014181719           46 
  421000   0.59634522   -7.7176398    76.061532  0.015055727  0.014132348           87 
  422000   0.59473868   -7.7189641    75.964828  0.015000953  0.014083284           63 
  423000   0.57478392   -7.7248979    75.840577  0.014941012  0.014034164           73 
  424000   0.60430536   -7.7080062    76.019879  0.014941014  0.013985278           26 
  425000   0.59321638   -7.7422148    75.927446  0.014887735   0.01393661           71 
  426000   0.58096318   -7.7261756    75.890309  0.014845522  0.013888219           73 
  427000   0.58578023   -7.7536643    76.031513  0.014838313   0.01383986           41 
  428000   0.58779525   -7.7415075    75.990306   0.01479562  0.013791745           88 
  429000    0.5837995   -7.7262061    75.855407  0.014734928  0.013743787           62 
  430000   0.58616257   -7.7677366    75.981519    0.0147251  0.013695974           97 
  431000   0.57593593   -7.7523128    75.757482  0.014647618  0.013648273           32 
  432000   0.57535935   -7.7641045    75.779992  0.014618054  0.013600828           50 
  433000   0.56385263   -7.7655816    75.910501  0.014609411   0.01355355           38 
  434000   0.57622825   -7.7489403    75.936457  0.014580733  0.013506396           90 
  435000   0.58479855   -7.7515823    75.893735   0.01453903  0.013459616           25 
  436000   0.57256604    -7.746519    75.774696  0.014482931  0.013412925           27 
  437000   0.55624239   -7.7695237    75.690833  0.014433797  0.013366397           32 
  438000    0.5802215   -7.7647211    75.834105  0.014428102  0.013319945           39 
  439000   0.57469592    -7.802131    75.693287  0.014368505  0.013273642           45 
  440000   0.55207382   -7.8091724    75.765733  0.014349571  0.013227575           73 
  441000   0.56455501   -7.7868836    75.710563  0.014306607  0.013181658           65 
  442000   0.56430135   -7.7795306    75.769506  0.014285352  0.013136032           32 
  443000   0.56429087   -7.7890387    75.668192  0.014234047  0.013090549           60 
  444000   0.56401032   -7.8029437    75.805295  0.014227721  0.013045229           34 
  445000   0.56508181   -7.7894126    75.683838  0.014173003  0.013000022          109 
  446000   0.55508825   -7.8010458    75.714987  0.014147045  0.012955059           59 
  447000    0.5421721   -7.7985892    75.648014  0.014102911  0.012910224           90 
  448000   0.55587099   -7.8070164     75.58017  0.014058811  0.012865597           47 
  449000   0.54490356   -7.7746791    75.738155  0.014056822  0.012821187           82 
  450000   0.55838225   -7.7951264    75.699429  0.014018413  0.012776915          103 
  451000     0.550242    -7.806517    75.569824  0.013963382  0.012732829           64 
  452000   0.55459111   -7.8240929    75.695642  0.013955686  0.012688921           71 
  453000   0.53280533   -7.8273303    75.663736   0.01391901  0.012645162           54 
  454000   0.53515088   -7.8222055    75.702653  0.013895494  0.012601616           77 
  455000   0.54242306   -7.8244144    75.592224   0.01384473  0.012558186           66 
  456000   0.53591304   -7.8218934    75.555794  0.013807711  0.012514937           50 
  457000   0.53467507   -7.8350179    75.473728  0.013762532  0.012471868           49 
  458000   0.53612042   -7.8424418    75.436005   0.01372562  0.012428862           43 
  459000   0.53372426   -7.8255085    75.562638  0.013718707  0.012385995           40 
  460000   0.52892356   -7.8451479    75.602659  0.013696134  0.012343349           64 
  461000   0.51754494   -7.8244809    75.504245  0.013648634  0.012301013           65 
  462000   0.53963878   -7.8483936    75.488343  0.013616223   0.01225869           72 
  463000   0.52897944    -7.855468    75.391183  0.013569327   0.01221654           57 
  464000   0.54005889    -7.846328    75.522892  0.013563738  0.012174635           45 
  465000     0.520104   -7.8615365     75.39859  0.013512292   0.01213286           59 
  466000   0.51698261   -7.8477196    75.538742  0.013508359  0.012091278           65 
  467000   0.51230744   -7.8666382     75.54804  0.013481092  0.012049907           53 
  468000   0.52449721    -7.852267     75.24469  0.013398271  0.012008637           75 
  469000   0.52448903   -7.8632957    75.420162  0.013400882  0.011967513          152 
  470000   0.51716801   -7.8625217    75.439412  0.013375782  0.011926555          105 
  471000   0.52049191   -7.8727106     75.21806   0.01330822  0.011885731           82 
  472000   0.51380403   -7.8701574    75.377436  0.013308163  0.011845021           46 
  473000   0.51921986   -7.8733973    75.367675  0.013278308  0.011804548           78 
  474000   0.50675629   -7.8837142    75.320327   0.01324197  0.011764173           96 
  475000   0.51117303   -7.8982271    75.274695  0.013206087  0.011724027           77 
  476000   0.50546946   -7.8962319    75.268311  0.013177225  0.011684058          135 
  477000   0.50941204   -7.8884485    75.421305  0.013176329  0.011644285          103 
  478000   0.51010408   -7.9022111     75.43329  0.013150853  0.011604688          102 
  479000    0.5074299    -7.895042    75.329197  0.013105288  0.011565251          128 
  480000   0.50156467   -7.9158693    75.291835  0.013071499  0.011525986           70 
  481000   0.50545026   -7.9229673    75.342507  0.013053102  0.011486927           76 
  482000   0.49426704    -7.905886    75.225399  0.013005774   0.01144798          106 
  483000   0.48603471   -7.9028108    75.278501  0.012988009  0.011409226           62 
  484000    0.5006819   -7.9066286    75.127764  0.012935221  0.011370473          120 
  485000   0.49658824   -7.9116493    75.250504   0.01292964  0.011331988          103 
  486000    0.4928462   -7.9199047    75.219028  0.012897638  0.011293581           82 
  487000   0.48839004   -7.9317649    75.183639  0.012865099  0.011255283           71 
  488000    0.4983037   -7.9376773    75.152056  0.012833343  0.011217168           80 
  489000   0.48533918   -7.9217847    75.126059  0.012802669  0.011179227           89 
  490000   0.48502915   -7.9350092    75.113472    0.0127744  0.011141495           84 
  491000   0.48349843   -7.9187533    75.200456  0.012763146  0.011103927          110 
  492000   0.49067239   -7.9199198    75.197111  0.012736638  0.011066532           81 
  493000   0.48253393   -7.9407487    75.000667  0.012677598  0.011029284          111 
  494000   0.47928491   -7.9408692    75.163391  0.012679384  0.010992253          112 
  495000   0.47242204   -7.9347166    75.103486  0.012643685   0.01095529           88 
  496000   0.47676457   -7.9444805    75.079727  0.012614201   0.01091856          122 
  497000   0.46639715   -7.9573979    75.101284  0.012592435  0.010881985          100 
  498000   0.47363387   -7.9481157    75.117958  0.012569939  0.010845505          120 
  499000   0.46286334   -7.9427569    74.993165  0.012523909  0.010809117          131 
  500000   0.46021064   -7.9475007    75.008695  0.012501449  0.010772966          113 
  501000   0.47751614   -7.9672266    74.991662  0.012473663  0.010736932          223 
  502000   0.47023275   -7.9623905    74.975357  0.012446108  0.010701051          245 
  503000   0.46940453     -7.98034    74.983344  0.012422688  0.010665331          141 
  504000   0.46887795   -7.9799533    74.959601  0.012394114  0.010629715          136 
  505000   0.46405103   -7.9580117    75.017522  0.012379129  0.010594275          140 
  506000   0.46117273   -7.9668807    74.950676  0.012343655  0.010558951           82 
  507000   0.45754086   -7.9746694    74.947342  0.012318761  0.010523767          138 
  508000   0.46487079   -7.9787157    74.912157   0.01228874  0.010488711          125 
  509000   0.45673197   -7.9885384    74.812249   0.01224824  0.010453766          160 
  510000   0.44453325    -7.986913    74.951033  0.012246901  0.010418991          228 
  511000   0.45550697   -7.9757596    74.876956  0.012210854  0.010384421          132 
  512000     0.455679   -7.9773429    74.940831  0.012197401  0.010349947           99 
Loop time of 1332.43 on 48 procs for 500000 steps with 4000 atoms

Performance: 64844.172 tau/day, 375.256 timesteps/s
99.4% CPU use with 48 MPI tasks x no OpenMP threads

MPI task timing breakdown:
Section |  min time  |  avg time  |  max time  |%varavg| %total
---------------------------------------------------------------
Pair    | 95.68      | 102.94     | 112.38     |  36.8 |  7.73
Neigh   | 9.2484     | 9.5825     | 10.599     |   6.7 |  0.72
Comm    | 87.911     | 96.004     | 104.15     |  39.1 |  7.21
Output  | 0.92797    | 0.92863    | 0.94797    |   0.3 |  0.07
Modify  | 1101.9     | 1108.8     | 1114.8     |  10.9 | 83.22
Other   |            | 14.12      |            |       |  1.06

Nlocal:        83.3333 ave          91 max          77 min
Histogram: 4 3 6 6 6 11 4 5 0 3
Nghost:        2419.81 ave        2439 max        2407 min
Histogram: 3 9 7 7 3 10 5 3 0 1
Neighs:        16782.9 ave       19641 max       14169 min
Histogram: 2 4 7 9 5 5 5 7 2 2
FullNghs:      33566.3 ave       36711 max       30920 min
Histogram: 4 5 3 9 6 9 4 4 1 3

Total # of neighbors = 1611183
Ave neighs/atom = 402.79575
Neighbor list builds = 26689
Dangerous builds = 0

#clear
#
#next RN
#
#jump SELF
Total wall time: 0:22:16
