
units lj                  # Use reduced LJ style units
atom_style atomic         # Uncharged point particles
atom_modify map hash      # Needed for indexing of clusters etc
                          # Used to be able to find where atoms are in relation to each other.

lattice fcc 1.0 spacing 1 1 1
Lattice spacing in x,y,z = 1.5874011 1.5874011 1.5874011
region box block 0 10 0 10 0 10 units lattice
create_box 2 box
Created orthogonal box = (0.0000000 0.0000000 0.0000000) to (15.874011 15.874011 15.874011)
  3 by 4 by 4 MPI processor grid
create_atoms 1 box
Created 4000 atoms
  using lattice units in orthogonal box = (0.0000000 0.0000000 0.0000000) to (15.874011 15.874011 15.874011)
  create_atoms CPU = 0.005 seconds
set type 1 type/fraction 2 0.54 78393
Setting atom values ...
  2170 settings made for type/fraction
mass 1 1.0
mass 2 1.0
pair_style lj/cut  3.5
pair_modify tail  yes
pair_coeff 1  1  1.0  1.0   # Intearaction between 1 and 1 set with epsilon = 1 and sigma = 1
pair_coeff 1  2  1.5  0.8
pair_coeff 2  2  0.5  0.88

write_data data.0
System init for write_data ...
Neighbor list info ...
  update every 1 steps, delay 10 steps, check yes
  max neighbors/atom: 2000, page size: 100000
  master list distance cutoff = 3.8
  ghost atom cutoff = 3.8
  binsize = 1.9, bins = 9 9 9
  1 neighbor lists, perpetual/occasional/extra = 1 0 0
  (1) pair lj/cut, perpetual
      attributes: half, newton on
      pair build: half/bin/atomonly/newton
      stencil: half/bin/3d
      bin: standard
WARNING: Not all mixed pair coeffs generated from mixing. Use write_data with 'pair ij' option to store all pair coeffs. (../write_data.cpp:312)


#############################
#   M E L T   S Y S T E M   #
#############################

velocity all create 2.4 6583654 mom yes dist gaussian # Assign velocities
                                                    # Temperature 2.4, random number seed, zero linear momentum
                                                                                # Gaussian distribution

timestep 0.002   # simulation timestep
thermo 1000       # output thermodynamic data every 1000 steps bf 100

# Define a fix  in this case with index 1 applied to all
# particles in the simulation. This fix is for simulations
# in the anisotropic NPT ensemble. Note that we use the MTK
# correction.
fix 1 all npt temp 2.4 2.4 0.1 iso 5.68 5.68 0.5 mtk yes tchain 5 pchain 5 # Use NPT ensemble
                                                                         # Set temperature and pressure and damping
                                                                         # Numbers of thermostats in chain and in barostat
run 10000          # run for 10000 steps
Per MPI rank memory allocation (min/avg/max) = 3.642 | 3.644 | 3.648 Mbytes
Step Temp E_pair E_mol TotEng Press Volume 
       0          2.4   -5.0605359            0   -1.4614359   -4.1673139         4000 
    1000    2.3959046   -4.7349397            0   -1.1419813    5.7529703    3650.4675 
    2000    2.4064437   -4.6796182            0    -1.070855    5.7622928    3680.0058 
    3000    2.3872913     -4.75103            0   -1.1709883    5.7396755    3650.5376 
    4000    2.4380002   -4.8430579            0   -1.1869718     5.877392    3595.8405 
    5000    2.3710082   -4.7699624            0   -1.2143392    5.5228737    3647.3416 
    6000    2.3618949    -4.747703            0   -1.2057465    5.5083101    3664.2773 
    7000    2.4145341    -4.696097            0   -1.0752013    5.8698396    3662.6319 
    8000    2.4132357   -4.7056258            0   -1.0866773    5.6422221    3671.3149 
    9000    2.3936108   -4.7678394            0   -1.1783208    5.9148396    3619.4753 
   10000     2.423284   -4.7733286            0   -1.1393113    5.5596266    3650.8683 
Loop time of 2.65397 on 48 procs for 10000 steps with 4000 atoms

Performance: 651100.816 tau/day, 3767.945 timesteps/s
99.6% CPU use with 48 MPI tasks x no OpenMP threads

MPI task timing breakdown:
Section |  min time  |  avg time  |  max time  |%varavg| %total
---------------------------------------------------------------
Pair    | 1.182      | 1.2593     | 1.3957     |   3.7 | 47.45
Neigh   | 0.21563    | 0.22387    | 0.24947    |   1.2 |  8.44
Comm    | 0.72143    | 0.90119    | 1.0199     |   5.7 | 33.96
Output  | 0.00024607 | 0.00025001 | 0.00031053 |   0.0 |  0.01
Modify  | 0.21694    | 0.25401    | 0.31767    |   5.0 |  9.57
Other   |            | 0.01538    |            |       |  0.58

Nlocal:        83.3333 ave          92 max          76 min
Histogram: 5 8 2 7 5 3 7 3 4 4
Nghost:        1746.60 ave        1786 max        1718 min
Histogram: 2 7 6 8 11 3 6 2 2 1
Neighs:        10458.4 ave       11985 max        9137 min
Histogram: 3 4 7 5 8 7 4 5 3 2

Total # of neighbors = 502002
Ave neighs/atom = 125.50050
Neighbor list builds = 910
Dangerous builds = 234

# Equilibrate just above the melting temperature to avoid step fn in T

fix 1 all npt temp 1.25 1.25 0.1 iso 5.68 5.68 0.5 mtk yes tchain 5 pchain 5
run 2000
Per MPI rank memory allocation (min/avg/max) = 3.644 | 3.646 | 3.649 Mbytes
Step Temp E_pair E_mol TotEng Press Volume 
   10000     2.423284   -4.7733286            0   -1.1393113    5.5596266    3650.8683 
   11000    1.2422303   -6.8579947            0   -4.9951151    5.7760664    2821.1736 
   12000    1.2600393   -6.9192001            0   -5.0296137    6.0804793    2799.8491 
Loop time of 0.656523 on 48 procs for 2000 steps with 4000 atoms

Performance: 526409.955 tau/day, 3046.354 timesteps/s
99.6% CPU use with 48 MPI tasks x no OpenMP threads

MPI task timing breakdown:
Section |  min time  |  avg time  |  max time  |%varavg| %total
---------------------------------------------------------------
Pair    | 0.2833     | 0.31889    | 0.36191    |   2.7 | 48.57
Neigh   | 0.041194   | 0.043343   | 0.049255   |   0.7 |  6.60
Comm    | 0.19671    | 0.24562    | 0.28161    |   3.3 | 37.41
Output  | 4.8446e-05 | 4.9807e-05 | 6.1997e-05 |   0.0 |  0.01
Modify  | 0.038405   | 0.04388    | 0.0483     |   1.6 |  6.68
Other   |            | 0.004746   |            |       |  0.72

Nlocal:        83.3333 ave          94 max          76 min
Histogram: 2 7 6 12 5 7 4 4 0 1
Nghost:        2087.46 ave        2113 max        2063 min
Histogram: 3 2 6 5 6 10 8 3 2 3
Neighs:        13629.0 ave       15268 max       12263 min
Histogram: 4 0 8 10 10 3 6 1 3 3

Total # of neighbors = 654192
Ave neighs/atom = 163.54800
Neighbor list builds = 143
Dangerous builds = 10

#############################
# L I N E A R  Q U E N C H  #
#############################

# Define solid atoms. This closely follows ten Wolde  Ruiz-Montero and Frenkel  Faraday Discuss  1996  104  93-110
# Compute components of the per-atom q6 vector
compute q6 all orientorder/atom degrees 1 6 components 6 nnn NULL cutoff 1.3 # compute the Q6 parameter.
                                                                             # Use all neighbours within 1.3 unit cell.

# get number of connections
compute coord_number all coord/atom orientorder q6 0.5

# An atom is solid if it has 8 or more connections (of a possible 14)
variable is_solid atom c_coord_number>=8
group solid dynamic all var is_solid    # Must be dynamic to update
dynamic group solid defined

# do clustering
compute cluster solid cluster/atom 1.3 # Create a cluster where all atoms within are solid and max 1.3 units from another member

# define chunks one chunk per cluster
compute clus_chunks solid chunk/atom c_cluster nchunk every compress yes  # Says which atoms are in which chunk

# count the size of each chunk
compute size_chunks solid property/chunk clus_chunks count


# Find the maximum entry in the vector of chunk sizes
variable max_n equal max(c_size_chunks)


# Thermo style which includes this variable
# thermo_style custom step temp pe vol v_max_n

thermo ${N}  # Print the thermo information every 100 steps
thermo 1000  

# Reset the npt fix at a lower temperature (below freezing)
fix 1  all npt temp  ${temp} ${temp}  0.1  iso  5.68  5.68  0.5  mtk yes tchain  5  pchain  5
fix 1  all npt temp  0.45 ${temp}  0.1  iso  5.68  5.68  0.5  mtk yes tchain  5  pchain  5
fix 1  all npt temp  0.45 0.45  0.1  iso  5.68  5.68  0.5  mtk yes tchain  5  pchain  5

dump dmp2 all dcd ${N} traj.dcd
dump dmp2 all dcd 1000 traj.dcd


compute msd all msd com yes
variable twopoint equal c_msd[4]/6/(step*dt+1.0e-6)
fix 9 all vector 10 c_msd[4]
variable fit equal slope(f_9)/6/(10*dt)
thermo_style custom step temp pe c_msd[4] v_twopoint v_fit v_max_n

fix 1 all npt temp 1.25 ${temp} 0.1 iso 5.68 5.68 0.5 mtk yes tchain 5 pchain 5
fix 1 all npt temp 1.25 0.45 0.1 iso 5.68 5.68 0.5 mtk yes tchain 5 pchain 5
run 5000000 # 5000000  # Run for this many steps
Neighbor list info ...
  update every 1 steps, delay 10 steps, check yes
  max neighbors/atom: 2000, page size: 100000
  master list distance cutoff = 3.8
  ghost atom cutoff = 3.8
  binsize = 1.9, bins = 8 8 8
  4 neighbor lists, perpetual/occasional/extra = 1 3 0
  (1) pair lj/cut, perpetual
      attributes: half, newton on
      pair build: half/bin/atomonly/newton
      stencil: half/bin/3d
      bin: standard
  (2) compute orientorder/atom, occasional
      attributes: full, newton on
      pair build: full/bin/atomonly
      stencil: full/bin/3d
      bin: standard
  (3) compute coord/atom, occasional
      attributes: full, newton on
      pair build: full/bin/atomonly
      stencil: full/bin/3d
      bin: standard
  (4) compute cluster/atom, occasional
      attributes: full, newton on
      pair build: full/bin/atomonly
      stencil: full/bin/3d
      bin: standard
Per MPI rank memory allocation (min/avg/max) = 9.842 | 9.847 | 9.850 Mbytes
Step Temp PotEng c_msd[4] v_twopoint v_fit v_max_n 
   12000    1.2600393   -6.9192001 1.0629901e-30 7.3818752e-33 8.3333333e+20            2 
   13000    1.2266988    -6.954541   0.45928818 0.0029441549  0.037285047            1 
   14000    1.2368975   -6.9706625   0.89954751 0.0053544493  0.036783214            3 
   15000    1.2470768   -6.9324017    1.3327491 0.0074041616  0.036190809            3 
   16000      1.26771   -6.9594671    1.7704862 0.0092212822  0.036340594            2 
   17000    1.2473051   -6.9903487    2.2289674   0.01092631  0.036531037       -1e+20 
   18000    1.2508147   -7.0274747    2.5868556  0.011976183  0.036251846            1 
   19000    1.2488251   -7.0147268    2.9851493   0.01309276   0.03583339            6 
   20000    1.2233701   -6.9785174    3.4149646  0.014229019  0.035440035            2 
   21000    1.2603918   -7.0310642    3.7746373  0.014978719  0.035069219            2 
   22000    1.2350274   -6.9794764      4.20028  0.015910151  0.034812521            1 
   23000    1.2452054   -6.9999961    4.6004306  0.016668226  0.034587041            2 
   24000    1.2533239   -6.9815784      4.99783  0.017353576  0.034404879            2 
   25000    1.2380479   -7.0094665    5.4338712  0.018112904  0.034356525            2 
   26000       1.2395   -6.9897936    5.7844114   0.01853978  0.034241365            5 
   27000    1.2510915   -6.9999998    6.1329463  0.018928846  0.033981464            2 
   28000    1.2450896   -7.0093855    6.4496158  0.019195285  0.033764246            1 
   29000    1.2791814   -6.9938919    6.8965566  0.019817691  0.033566463            2 
   30000    1.2340796    -6.931968    7.2297323  0.020082589  0.033387259            2 
   31000    1.2310962   -6.9736609    7.5743174  0.020361068  0.033153332            2 
   32000    1.2655306   -7.0081159      7.97392  0.020765416  0.032975421            4 
   33000     1.256977   -6.9988288    8.3141687  0.020995375  0.032840834            2 
   34000    1.2674116   -6.9473121    8.6766253  0.021266238   0.03270046            2 
   35000    1.2592051   -6.9859686    9.0541825  0.021557577  0.032525384            2 
   36000    1.2526119   -7.0542107     9.326865  0.021589965   0.03235699            3 
   37000    1.2711151   -6.9832971    9.7285751  0.021911205   0.03218517            2 
   38000    1.2608344   -6.9722036    10.234014  0.022443012  0.032100819            2 
   39000    1.2686192   -6.9804892    10.561915  0.022568193  0.032053985            2 
   40000      1.26594   -6.9672909    10.962972  0.022839524  0.031987718            2 
   41000    1.2475898   -6.9676288    11.460556  0.023293813  0.031997142            2 
   42000    1.2166617   -7.0018592    11.841938  0.023495909  0.032013739            2 
   43000    1.2312528   -7.0275213    12.256796  0.023753481  0.032046243            1 
   44000    1.2316928   -7.0110121    12.559567  0.023787058  0.032067993            2 
   45000    1.2504758   -7.0425518    12.990665  0.024056787  0.032082237            9 
   46000    1.2311639   -6.9737455    13.360761  0.024204277  0.032107192            3 
   47000    1.2446995   -6.9984936    13.612687   0.02413597  0.032091177            5 
   48000    1.2508958   -6.9910029    14.102181  0.024482953  0.032055675            2 
   49000    1.2425201   -6.9893308    14.398546  0.024487322  0.032024193            2 
   50000    1.2345212   -7.0577901    14.752263  0.024587105  0.031993395            5 
   51000    1.2196019   -6.9743773    15.131535  0.024724731  0.031951715            3 
   52000    1.2358513   -6.9561336    15.667711  0.025108511  0.031929065            2 
   53000    1.2394473    -7.019439    15.994913  0.025149235  0.031930032            3 
   54000    1.2484194   -6.9776558    16.400868  0.025309981  0.031938102            4 
   55000    1.2674486   -6.9966781    16.750193   0.02537908  0.031930996            1 
   56000    1.2550948   -7.0265074    17.109502  0.025460568  0.031918887            2 
   57000     1.221215   -6.9808508    17.483582  0.025560792  0.031915267            1 
   58000    1.2406173   -6.9671654    17.938688  0.025773976  0.031904423            2 
   59000    1.2330937    -7.034994    18.186143  0.025686643  0.031887296            2 
   60000     1.251332   -6.9855263    18.587004  0.025815284  0.031868014            2 
   61000    1.2366171   -6.9583685    19.074618  0.026058221   0.03186055            1 
   62000    1.2499957   -6.9660353    19.462697  0.026159538  0.031860287            2 
   63000    1.2241148   -7.0157283    19.723673  0.026089515  0.031861504            2 
   64000    1.2372134   -7.0017429    20.067836  0.026129994  0.031849131            1 
   65000    1.2264032   -7.0253401    20.509728  0.026294523  0.031818935            3 
   66000     1.221579   -7.0285199    20.871072  0.026352363  0.031796212            3 
   67000    1.2465607   -6.9529979    21.404228  0.026622173  0.031797061            2 
   68000    1.2426601   -6.9669587    21.525852  0.026379721  0.031779341            1 
   69000    1.2362591   -7.0562928    21.943392  0.026501681  0.031759978            6 
   70000    1.2342469   -7.0011643    22.321787  0.026573556  0.031755726            2 
   71000    1.2242144   -7.0180418    22.662165  0.026598785  0.031740592            5 
   72000    1.2376882   -6.9835089    23.238546  0.026896465  0.031736774            2 
   73000    1.2392273   -6.9889767    23.551074  0.026884788  0.031734926            2 
   74000    1.2748563   -6.9993177     23.94533  0.026965462  0.031735022            1 
   75000    1.2598904   -6.9821567    24.286234  0.026984705  0.031731668            1 
   76000    1.2508621   -7.0110949    24.503475  0.026867845  0.031708422            3 
   77000    1.2242612   -7.0169278    24.801289  0.026841221  0.031681371            2 
   78000     1.231744   -6.9986821    25.224019  0.026948738  0.031654483            2 
   79000    1.2196399   -6.9946688    25.630498   0.02703639  0.031624219            1 
   80000    1.2368021   -6.9819685     25.87658  0.026954771  0.031596408            4 
   81000     1.222367   -6.9676876    26.366464  0.027125991  0.031565071            2 
   82000    1.2356942   -7.0128143    26.645813  0.027079078  0.031545309            1 
   83000    1.2348507   -7.0311743    27.006256  0.027114714  0.031518954            2 
   84000    1.2163754   -6.9750364    27.442052  0.027224258  0.031496575            2 
   85000    1.2243499   -7.0096756    27.872982  0.027326453  0.031481701            2 
   86000    1.2390877   -7.0051462    28.374428  0.027494601  0.031475418            1 
   87000    1.2308473   -7.0038896    28.713734  0.027503576  0.031476791            2 
   88000    1.2276872   -7.0145335    29.208101  0.027659187  0.031474388            2 
   89000    1.2369978   -7.0091878    29.559851  0.027677763  0.031482426            2 
   90000    1.2481526   -7.0557704    29.915715  0.027699736   0.03149095            4 
   91000    1.2310875   -7.0222936    30.404666  0.027843101  0.031499888            1 
   92000    1.2226666   -7.0552872    30.550212  0.027672293  0.031504149            4 
   93000    1.2564635   -7.0078683    31.109691  0.027876067  0.031507299            4 
   94000    1.2374802   -7.0370097    31.464824  0.027894348  0.031514352            3 
   95000    1.2455645   -6.9974098    31.748416  0.027849488  0.031512912            3 
   96000    1.2317998    -7.082177    32.112231  0.027875201  0.031512382            1 
   97000    1.2313051   -7.0322361    32.668318  0.028065566  0.031520418            2 
   98000    1.2175453   -7.0486797    33.130717  0.028172378  0.031534455            2 
   99000    1.2232552   -6.9981266    33.569593  0.028257233  0.031550088            2 
  100000    1.2337873    -7.011453    33.969263  0.028307719   0.03156794            4 
  101000    1.2319782   -6.9813401    34.351447  0.028342778  0.031585513            2 
  102000     1.235625   -6.9697959    34.710376   0.02835815  0.031597032            3 
  103000    1.2404629   -7.0242885    35.129962  0.028422299  0.031610198            2 
  104000    1.2207022   -7.0190755    35.498198  0.028444069  0.031626992            1 
  105000    1.2382838    -7.011921     35.90913  0.028499309  0.031643815            1 
  106000    1.2321743   -7.0200151    36.141924  0.028413462  0.031658496            1 
  107000    1.2334159   -7.0340508    36.449603  0.028387541  0.031664334            3 
  108000    1.2444454   -6.9922007    36.793349   0.02838993  0.031661772            2 
  109000    1.2349102   -7.0269214    36.902773  0.028213129  0.031653846            3 
  110000    1.2438485   -7.0248891    37.284935  0.028246163   0.03164612            2 
  111000    1.2121494   -6.9585476    37.637977   0.02825674  0.031633825            6 
  112000    1.2369207   -7.0281531    38.056179   0.02831561  0.031620563            1 
  113000    1.2344903   -6.9678139    38.469604  0.028369914  0.031608918            1 
  114000    1.2445607   -7.0143987    38.678573  0.028273811  0.031591611            3 
  115000     1.233192   -6.9868086    38.990099  0.028253695  0.031572571            3 
  116000    1.2279627   -7.0013019     39.49597  0.028373542  0.031558336            1 
  117000    1.2355827    -6.997459    39.814668  0.028358025  0.031542142            2 
  118000    1.2113598   -7.0757793    40.158565  0.028360569  0.031529083            3 
  119000    1.2367473   -7.0228149    40.674841  0.028483782  0.031516116            5 
  120000     1.211003   -6.9888056    41.130418   0.02856279   0.03150441            2 
  121000      1.21978   -6.9954443    41.424839  0.028529503  0.031495168            1 
  122000    1.2351585    -7.038556    41.834371   0.02857539  0.031486902            6 
  123000    1.2499025   -7.0195567    42.202585  0.028592537   0.03148229            1 
  124000    1.2315899   -6.9830467    42.899148  0.028830073   0.03148329            4 
  125000     1.231805   -7.0234207    43.188073  0.028792049  0.031488616            3 
  126000    1.2386401   -6.9882683    43.750299  0.028935383  0.031489674            2 
  127000    1.2385595   -7.0692189    43.841326  0.028767274  0.031491938            2 
  128000    1.2132832   -7.0223594    44.482241  0.028959792   0.03149307            3 
  129000    1.2290459   -7.0292794    44.874836  0.028988912  0.031503421            1 
  130000    1.2478561   -7.0034363    45.297735   0.02903701   0.03151341            6 
  131000     1.215902   -7.0386033    45.669484  0.029051835  0.031522872            2 
  132000    1.2429917   -7.0094051    45.963455  0.029017332  0.031531059            3 
  133000    1.2049012    -7.058255    46.370107  0.029053952  0.031538436            3 
  134000    1.2464604    -7.025414     46.97032  0.029210398   0.03154594            3 
  135000    1.2362619    -7.063361    47.075104  0.029058706  0.031553628            2 
  136000    1.1898896   -7.0398257    47.695566  0.029225224  0.031565381            3 
  137000     1.201504   -7.0835349    48.198698  0.029317943  0.031578427            3 
  138000    1.2448244   -6.9995683    48.524295   0.02930211  0.031592347            5 
  139000    1.1944658   -7.0548861    49.079007  0.029423865  0.031608187            2 
  140000    1.2278152   -7.0525679     49.17783  0.029272518  0.031620654            4 
  141000    1.2090109   -7.0627993    49.553682  0.029287046  0.031629431            4 
  142000    1.2116967   -7.0423934    49.667576  0.029147638  0.031633634            1 
  143000    1.2313639   -7.0151803    49.964553  0.029116872  0.031631826            3 
  144000     1.259291   -7.0350422    50.372088  0.029150514  0.031627706            1 
  145000    1.2418258   -7.0840756    50.462159  0.029001241  0.031622065            5 
  146000    1.2432679   -7.0104877    51.137949  0.029188327  0.031617483            4 
  147000    1.2258919   -7.0352466    51.260272  0.029059111  0.031612976            3 
  148000    1.2192646   -7.0077171    52.042151  0.029303013  0.031609388            1 
  149000    1.2148346   -7.0277545    52.181295  0.029184169  0.031606306            1 
  150000     1.216728   -7.0258811    52.459217  0.029144009  0.031600867            2 
  151000    1.2408201   -7.0172372    52.775383  0.029125487  0.031596006            1 
  152000    1.2418188   -7.0484594    53.015689  0.029065619  0.031586304            4 
  153000    1.2345535   -7.0414111    53.772104  0.029287638   0.03158064            3 
  154000    1.2318057   -7.0209586    54.273653   0.02936886  0.031577537            1 
  155000    1.2119262   -7.0891811    54.439403  0.029268496  0.031577859            3 
  156000    1.2263666   -7.0391394     55.10399  0.029435892  0.031579656            2 
  157000    1.2466314   -7.0486884    55.467071  0.029441121  0.031582042            1 
  158000     1.224035   -7.0813524    55.766619  0.029412773  0.031582807            1 
  159000    1.2241617   -7.0647606    56.094614  0.029399693  0.031583664            3 
  160000    1.2313759   -7.0524384    56.375332  0.029362152  0.031582658            3 
  161000    1.2288527   -7.0580602    56.705328  0.029350584  0.031584883            2 
  162000    1.2351466   -7.0097282    57.205009  0.029426445  0.031587246            2 
  163000    1.2306941   -7.0284461    57.575334  0.029435242  0.031586513            1 
  164000    1.2007099   -7.0296842    57.879243  0.029410184  0.031587762            1 
  165000    1.2372007   -7.0625757    58.350767  0.029470084  0.031589882            1 
  166000    1.2407513    -7.003667    59.050545  0.029643848  0.031592336            2 
  167000    1.2286795   -7.0627416    59.207726  0.029544773  0.031597738            7 
  168000    1.1956598   -7.0437172     59.54521  0.029536314  0.031599138            3 
  169000    1.2301219   -7.0414928     59.89218  0.029532633  0.031598094            5 
  170000     1.220963   -7.0261372    60.302797  0.029560194  0.031598498            2 
  171000    1.2393183   -7.0373128    60.383776  0.029426792  0.031595741            1 
  172000    1.2432145   -7.0600822    60.928799  0.029519767  0.031592406            2 
  173000    1.2261765   -7.0314749    61.371178  0.029562225  0.031592012            2 
  174000     1.249659   -7.0575944    61.442369  0.029426422  0.031591458            5 
  175000    1.2210368   -7.0509019     62.14156  0.029591219  0.031587958            5 
  176000    1.2250684   -7.0845093    62.312089   0.02950383  0.031585527            2 
  177000    1.2239305   -7.0382824     62.95446  0.029639576  0.031584169            4 
  178000    1.2304865    -7.032202    63.314493  0.029641617    0.0315822            3 
  179000    1.2194568   -7.0663476    63.715444  0.029662684  0.031584039            3 
  180000    1.2122953   -7.0266178     64.05708  0.029656056  0.031584122            3 
  181000    1.2410056   -7.0378567    64.184368  0.029550814  0.031582642            1 
  182000    1.2143062   -7.0343018    64.206525  0.029398592  0.031579147            2 
  183000    1.1987891   -7.0337312    64.946299  0.029574817  0.031573001            4 
  184000    1.2028341   -7.1346768    64.974339  0.029426784  0.031567756            3 
  185000    1.2332973   -7.0604752    65.809937  0.029644116  0.031564667            4 
  186000    1.2257873    -7.099063    66.085296  0.029608107  0.031563401            1 
  187000     1.223346   -7.0168874    66.777402    0.0297582  0.031564075            2 
  188000     1.223775   -7.0753713    66.680826  0.029557104  0.031560756            3 
  189000    1.2239782   -7.0650274    66.926644  0.029509102  0.031556227            2 
  190000    1.2099682   -7.0319268    67.399237  0.029561069  0.031550574            3 
  191000    1.2231286   -7.0340362     67.97611  0.029657989  0.031543933            3 
  192000     1.241605   -7.0222334    68.258482  0.029626077   0.03153885            2 
  193000    1.2179949   -7.0573685    68.418041  0.029541469   0.03153244            1 
  194000    1.2180768   -7.0466087    68.836713  0.029569035  0.031525871            3 
  195000    1.2476901   -7.0440672    69.482092  0.029693202  0.031519957            1 
  196000     1.230047    -7.033769    69.667911   0.02962071  0.031513931            2 
  197000    1.2267958   -7.0628553    69.870873  0.029556207  0.031508475            1 
  198000    1.2115418   -7.0344614    70.369925  0.029616972  0.031500021            3 
  199000    1.2378242     -7.06815    70.592438  0.029561322  0.031492078            3 
  200000    1.2231352   -7.0634039    70.919077  0.029549616  0.031484047            2 
  201000    1.2120924   -7.0469187    71.378935  0.029593257  0.031477732            7 
  202000     1.239006   -7.0468426    71.607444  0.029541024  0.031471737            3 
  203000    1.2211796   -7.0209512    72.076421  0.029588022  0.031466362            3 
  204000     1.230232   -7.0904805    72.806784  0.029741333  0.031462259            2 
  205000    1.2312235   -7.0226491    73.586794  0.029913331  0.031460702            2 
  206000    1.2246015   -7.0919634    73.664615  0.029799601  0.031460802            1 
  207000    1.1922664   -7.0305479    74.339197  0.029927213  0.031462345            2 
  208000    1.2210924   -6.9916393     74.73665  0.029942568  0.031465571            4 
  209000    1.2008108   -7.0542392    75.219681  0.029991898    0.0314702            4 
  210000    1.2204212   -7.0596028    75.567561  0.029987128  0.031475228            3 
  211000    1.2244852   -7.0439149    76.026235  0.030026159  0.031479646            3 
  212000    1.2201945   -7.0956408    76.059696  0.029897679  0.031483163            2 
  213000    1.2204487   -7.1103571    76.185337   0.02980647  0.031485058            2 
  214000    1.2115151   -7.0978014     76.83017   0.02991829  0.031485684            5 
  215000    1.2479649    -7.089614     77.59931  0.030077252  0.031488038            4 
  216000    1.2279389   -7.0768086    77.707224  0.029979639  0.031492686            2 
  217000     1.215695   -7.0721345    77.993674  0.029951488  0.031498041            2 
  218000    1.2223464   -7.0156179    78.810521  0.030126346  0.031503586            2 
  219000    1.2359264    -7.065663    79.207909  0.030139996    0.0315102            2 
  220000    1.2101374   -7.0741426    79.588975  0.030147339  0.031515344            2 
  221000    1.1965792   -7.0915268    79.388542  0.029935347  0.031519165            2 
  222000    1.2152397   -7.0442359    80.138658  0.030082079  0.031522323            2 
  223000    1.2225044   -7.0776308      80.4053  0.030046824  0.031527345            3 
  224000    1.2095289   -7.0808592     81.08794  0.030166644  0.031533286            2 
  225000    1.2246229   -7.0859558     81.37471  0.030138781  0.031539734            1 
  226000    1.2155427   -7.0672093    81.930066  0.030210201  0.031544364            2 
  227000    1.1912165   -7.1163724    81.713336  0.029997554  0.031546958            3 
  228000    1.2255745   -7.0967408    82.572109  0.030179865  0.031549473            2 
  229000    1.2158051   -7.0637683    83.015085  0.030209274  0.031553054            3 
  230000    1.1972011   -7.0749594    83.385774  0.030212237  0.031556769            2 
  231000     1.210072    -7.053501    83.785945   0.03022581   0.03155968            2 
  232000     1.207815    -7.085045    84.172057  0.030234216  0.031565066            1 
  233000    1.2265576   -7.0895882    84.575993  0.030248924  0.031568654            3 
  234000    1.2109575   -7.0265309    84.979342  0.030263298  0.031573643            2 
  235000     1.211487   -7.1129551    84.883871  0.030100663  0.031576359            2 
  236000    1.2304643   -7.0374092    85.716508  0.030267128  0.031579371            2 
  237000    1.1923117   -7.0926504    85.870117  0.030193431  0.031581449            3 
  238000     1.202467   -7.0613765    86.340766  0.030231361  0.031584506            2 
  239000    1.2234437    -7.061446    86.687308    0.0302257  0.031586756            2 
  240000    1.1902326   -7.0774172     87.02066  0.030215507  0.031589043            3 
  241000    1.2262402   -7.0732797    87.135391  0.030129803  0.031590464            2 
  242000    1.2147289   -7.0889213    87.392839  0.030093953  0.031591428            2 
  243000    1.2570948   -7.0485331     87.96093  0.030164928  0.031592306            2 
  244000    1.2020025   -7.0440867    88.170324  0.030112815  0.031591435            1 
  245000    1.1941017   -7.0491542    88.394158   0.03006604  0.031589502            2 
  246000    1.2023033   -7.0542056    88.824069  0.030089454  0.031588245            3 
  247000    1.2091668   -7.0900844    89.284186   0.03012287  0.031587127            2 
  248000    1.1987224   -7.0391834    89.686424  0.030136567  0.031584965            1 
  249000    1.2131063   -7.0763851    89.886634  0.030082542  0.031582301            2 
  250000    1.2068062   -7.0670458    90.091202  0.030030401  0.031579205            1 
  251000    1.2102224   -7.0591417    90.873379  0.030170445  0.031575535            2 
  252000    1.2093384   -7.0909323    90.671812  0.029984065  0.031572267            4 
  253000    1.2001227   -7.0405071    91.027904  0.029982841  0.031567225            1 
  254000    1.2342457   -7.0909055    91.139731  0.029901486   0.03156067            9 
  255000    1.2045008   -7.1283165    91.092162   0.02976868  0.031552493            3 
  256000    1.2283261   -7.0483468    91.902172  0.029916072  0.031544303            3 
  257000    1.2126898   -7.0445876     92.71684  0.030063826  0.031536941            3 
  258000    1.2254414   -7.0465048    92.634663  0.029920757  0.031530845            3 
  259000    1.2139906   -7.1012431    92.995902  0.029921461  0.031525379            2 
  260000    1.2280127   -7.0906033     93.43216  0.029946205  0.031520025            2 
  261000    1.2103607   -7.1107768    93.981775  0.030006952  0.031514853            2 
  262000    1.2111074   -7.0708051    94.741892   0.03013419  0.031511285            3 
  263000    1.2071501   -7.0794482    94.774733  0.030030017  0.031508285            3 
  264000    1.2199477   -7.1076607    95.204829  0.030052029  0.031505476            2 
  265000    1.2010619   -7.0585317    96.085973  0.030215715  0.031503907            2 
  266000    1.2114565   -7.0819289    96.256326  0.030155491  0.031502428            6 
  267000     1.218485   -7.1105914      96.4926  0.030116292  0.031499684            6 
  268000    1.2102883    -7.105209    96.663077  0.030056927  0.031497172            2 
  269000    1.2030058   -7.0470327    97.321469  0.030149154  0.031495301            1 
  270000    1.2139988   -7.1193283    97.413003  0.030065741  0.031493417            5 
  271000    1.2208784   -7.0792316    97.606194  0.030014205  0.031490225            2 
  272000    1.1819729   -7.0817453    98.338998  0.030128369  0.031486459            2 
  273000    1.1948621   -7.0758368    98.558929  0.030085143  0.031483383            3 
  274000    1.2089254   -7.1443903    98.390167  0.029924017  0.031478765            4 
  275000    1.2136057   -7.0482201    98.961314  0.029988277  0.031473748            2 
  276000     1.188464    -7.117473    99.301293  0.029982274  0.031468368            2 
  277000    1.1983346   -7.1064241    99.414306  0.029908034  0.031463415            2 
  278000     1.215693   -7.0976672    100.07836  0.029999509  0.031456612            4 
  279000    1.1961705   -7.0907855    100.40791  0.029990414  0.031450349            2 
  280000    1.2033864   -7.0439299    100.76102  0.029988398  0.031444388            4 
  281000    1.2121507   -7.1134029     100.7373  0.029874643  0.031437148            2 
  282000    1.2463487   -7.1017087    100.98777  0.029842722  0.031428744            3 
  283000      1.20127   -7.1069171    101.77416  0.029968833  0.031420918            2 
  284000    1.2218859   -7.0725538    102.13197    0.0299683  0.031414164            7 
  285000    1.2048367   -7.1243046    102.27688  0.029905521  0.031407497            3 
  286000    1.1781105   -7.1271532    102.56422   0.02988468  0.031400264            1 
  287000    1.2008214   -7.1083265     103.1311  0.029945152  0.031392357            2 
  288000    1.1896261   -7.0840955    103.65645  0.029993186  0.031385402            5 
  289000    1.2094409   -7.0420104    103.83158  0.029939903   0.03137972            2 
  290000    1.1945547   -7.0800659    104.45138  0.030014766  0.031374195            4 
  291000    1.1940961    -7.091886    104.90753  0.030042248   0.03136967            3 
  292000    1.2133636   -7.1066007    105.00341  0.029966726  0.031364058            3 
  293000    1.2121667   -7.1323511    105.35152  0.029963459  0.031358015            2 
  294000    1.2049384   -7.0703368    105.54938  0.029917625  0.031352921            2 
  295000    1.1944672   -7.0796776     106.4852  0.030080565  0.031346891            2 
  296000    1.2098192   -7.1011768    106.32532   0.02993393  0.031341242            4 
  297000    1.2078752   -7.1340786    106.69553  0.029937017  0.031336076            2 
  298000     1.197065    -7.070572    107.66594  0.030107925  0.031331399            2 
  299000     1.224023   -7.0642797    107.70203   0.03001729  0.031328874            4 
  300000    1.1906143   -7.0501357    108.28483  0.030079119  0.031325409            2 
  301000    1.2095098   -7.0380002    109.32606  0.030267458  0.031321972            1 
  302000    1.1804835   -7.0527578     109.8546  0.030313078  0.031319167            3 
  303000    1.2152814   -7.1344194    109.24686  0.030045891  0.031315882            3 
  304000    1.2127915   -7.0945284    109.41504  0.029993159  0.031312206            5 
  305000    1.2096333   -7.1077785    109.87863  0.030021483  0.031307858            3 
  306000    1.2171711   -7.0773571    110.14214  0.029995137  0.031302843            2 
  307000    1.2132395    -7.114242    110.38692  0.029963877  0.031297631            1 
  308000    1.2018241   -7.0945219    110.86837  0.029996855  0.031291342            2 
  309000    1.1928082   -7.1088891    111.33664  0.030026063  0.031287431            4 
  310000    1.2168578   -7.1087507    111.80336  0.030054666  0.031282166            1 
  311000    1.2115656   -7.0784328    111.64884  0.029916623  0.031275995            3 
  312000    1.1983019   -7.0811688    111.87074  0.029880006  0.031269062            2 
  313000    1.1869371   -7.0734914    112.77463  0.030025196  0.031262229            3 
  314000    1.1868246   -7.0779572    112.69573  0.029908633  0.031256008            3 
  315000    1.2112052   -7.0733717    113.17939  0.029941638  0.031250705            4 
  316000     1.177814   -7.0595747    113.70869  0.029986468  0.031244771            1 
  317000    1.1861003   -7.0760936    113.96632  0.029959599  0.031239012            2 
  318000     1.188125   -7.0799293    114.76654  0.030075088  0.031234611            1 
  319000    1.2155128   -7.0423492    115.08019  0.030062747  0.031230497            2 
  320000     1.171025   -7.1215511    115.05805  0.029963035  0.031226724            3 
  321000     1.186376   -7.0994932     116.3916  0.030215887  0.031223751            6 
  322000    1.2266261   -7.1183564    116.22993   0.03008021   0.03122124            3 
  323000    1.1955623   -7.1325012    116.69256   0.03010644  0.031218694            5 
  324000    1.1793827   -7.1265154    116.91393  0.030070456  0.031215806            4 
  325000    1.2105483   -7.1280063    117.05856  0.030015015  0.031212252            2 
  326000    1.1732171    -7.107217    117.86776  0.030129795  0.031208494            3 
  327000     1.203213   -7.1588955    117.65442  0.029983287  0.031204742            2 
  328000    1.1881404   -7.1428831    118.38239  0.030076826  0.031201084            1 
  329000    1.2080756   -7.1584268    118.70182  0.030066316  0.031197257            5 
  330000    1.2045834   -7.0582002    119.53985   0.03018683  0.031194129            1 
  331000     1.174398   -7.0954853    119.31865  0.030039941  0.031190635            3 
  332000    1.2046468   -7.0846418    119.38953  0.029967252  0.031186419            2 
  333000    1.2004216   -7.1167116    119.73984  0.029964926  0.031182234            5 
  334000    1.1808381   -7.0715554    120.24957  0.030002388  0.031178457            3 
  335000    1.2118097   -7.1394575    120.19587  0.029899471  0.031172758            3 
  336000    1.2003937   -7.1119781    121.18332  0.030055387  0.031168084            2 
  337000    1.1964866   -7.0796341    121.39893  0.030019519  0.031163457            2 
  338000    1.1856605    -7.113651     121.8931  0.030052539  0.031158837            3 
  339000    1.2116547   -7.1058505    121.98547  0.029986595  0.031154375            1 
  340000    1.1969442   -7.1097886    122.29377  0.029973962  0.031150165            2 
  341000    1.1760666   -7.0858496    122.94857  0.030046082  0.031146079            5 
  342000    1.1856338   -7.1108716     123.3035  0.030044712  0.031141324            5 
  343000    1.1705624   -7.1130293    123.51283  0.030007975  0.031135995            3 
  344000    1.1953103   -7.1155754    123.68778  0.029963125  0.031130921            2 
  345000    1.1844018   -7.1069676    124.13035  0.029983176  0.031125905            2 
  346000    1.1672549   -7.1136909    124.17033  0.029906148  0.031119771            2 
  347000    1.1837733   -7.0836513    124.97624  0.030013505  0.031113222            2 
  348000    1.2025961   -7.1176755    125.02601  0.029939178  0.031107482            1 
  349000    1.1900395   -7.1306199    125.23242  0.029902678  0.031100792            2 
  350000    1.2108401    -7.115475    125.33829   0.02984245  0.031093098            2 
  351000    1.1952327   -7.0869994    125.48698  0.029792731  0.031084037            3 
  352000     1.193799   -7.1012568    125.61168  0.029737614  0.031075225            3 
  353000    1.1418017   -7.1887009    125.29407  0.029578392  0.031064057            5 
  354000     1.219129   -7.1079122    125.99339  0.029659462  0.031053093            2 
  355000    1.1858608   -7.1004286    126.59467   0.02971706   0.03104272            2 
  356000    1.2046999   -7.1105184    126.66576  0.029650225   0.03103241            2 
  357000    1.1976418   -7.1754184    126.41427  0.029508468   0.03102052            3 
  358000    1.1985136   -7.1422577    126.91831  0.029543369  0.031009358            3 
  359000    1.1868038   -7.1150937    126.93627  0.029465243  0.030997105            2 
  360000    1.2025277   -7.1278648    127.14475  0.029431655  0.030984341            2 
  361000    1.1854898   -7.1284494    127.77468   0.02949554  0.030971564            2 
  362000    1.1641078   -7.1419323    128.47536  0.029575358  0.030959094            5 
  363000    1.1870335   -7.1228683    128.48002  0.029494953  0.030947447            3 
  364000     1.226208   -7.1231792    129.15571  0.029568615  0.030935844            2 
  365000    1.1914133   -7.1210217    129.41736  0.029547342  0.030924728            1 
  366000    1.1837906   -7.1282718      130.053  0.029611339   0.03091319            2 
  367000    1.2064609   -7.1128762    130.02252  0.029523733  0.030902493            1 
  368000    1.1806541   -7.1286999    130.26512  0.029498443  0.030891221            2 
  369000     1.183196   -7.0743778    130.64808  0.029504986  0.030880248            3 
  370000    1.1925022   -7.0718589    130.95732  0.029494892  0.030868828            2 
  371000    1.1917952   -7.1020442    131.10441   0.02944843  0.030855905            1 
  372000    1.2156456   -7.1381573    131.28209  0.029409071  0.030842851            3 
  373000    1.1936091   -7.1377327    131.65618  0.029413801  0.030830548            2 
  374000    1.2004528   -7.0930699     132.3599  0.029491955   0.03081899            3 
  375000     1.194252   -7.1564419    131.87618  0.029305817  0.030806479            3 
  376000    1.1799412   -7.1482149    132.20562  0.029300892  0.030793902            5 
  377000    1.1650812   -7.1745444    132.93354  0.029384072  0.030781568            3 
  378000    1.1611803   -7.1437615    133.36075  0.029400517  0.030769922            3 
  379000     1.187653   -7.1377523    133.49688  0.029352877  0.030758429            1 
  380000    1.1863376    -7.115499    134.47051  0.029489146  0.030747163            4 
  381000    1.2006257   -7.1340323    134.78209  0.029479897  0.030736886            6 
  382000    1.2013963   -7.1536818    134.93168  0.029435358  0.030726827            2 
  383000    1.1794207   -7.1452935    135.52773  0.029488192  0.030716846            2 
  384000    1.1754179   -7.1454271    135.95306  0.029503701  0.030706798            1 
  385000    1.1773634   -7.1682716    136.11316  0.029461723  0.030696889            2 
  386000    1.2127667    -7.169496    136.25859  0.029416794  0.030686931            1 
  387000    1.1799746   -7.1402885    135.90571  0.029264796  0.030676334            3 
  388000    1.1920198   -7.0980563    136.93707  0.029410883  0.030665977            1 
  389000    1.1588582   -7.1494715    137.17216  0.029385639  0.030656205            2 
  390000    1.2051182   -7.0711015    137.67499  0.029417732  0.030645862            2 
  391000    1.1838684   -7.1236663    137.55148  0.029316172  0.030635887            3 
  392000     1.177381   -7.1363009    138.19194  0.029377537  0.030625371            3 
  393000    1.1880789   -7.1953834    138.60031  0.029389379  0.030615173            2 
  394000    1.1921496   -7.1836369    138.71289  0.029338598  0.030605847            4 
  395000    1.1795028   -7.1504749    139.31603  0.029391568   0.03059661            5 
  396000    1.1907982   -7.1839561    139.60171  0.029377464  0.030586824            6 
  397000    1.1822738   -7.2159442    140.11429   0.02941106  0.030577061            2 
  398000    1.1894786   -7.1577284    140.49105  0.029416049  0.030568032            2 
  399000    1.2045486   -7.1291001    140.98082  0.029444616  0.030559432            2 
  400000    1.1889989   -7.1260452    140.90812  0.029355859   0.03055059            2 
  401000    1.1650658   -7.1295391    141.93703  0.029496473  0.030541288            4 
  402000    1.1981719   -7.1351463    141.76266  0.029386952   0.03053287            5 
  403000    1.1629764   -7.1279732    142.27278  0.029419517  0.030525027            2 
  404000    1.1957718   -7.1245231    142.84906  0.029465565  0.030517074            2 
  405000    1.1994648   -7.1307126    142.83027  0.029388943  0.030509609            1 
  406000    1.2155509   -7.1669008    142.84142  0.029318847  0.030500548            5 
  407000    1.1735517   -7.1913245    143.66901  0.029416259  0.030491086            3 
  408000    1.1796878   -7.1497742    143.99014  0.029409752  0.030482372            3 
  409000    1.2239489   -7.1043266    144.99032   0.02954163  0.030475123            3 
  410000    1.1574535   -7.1819694    145.01327  0.029474243  0.030467427            1 
  411000    1.1573329   -7.0912777    145.65504  0.029532653  0.030460183            2 
  412000    1.2028236   -7.1345817    145.75365  0.029480916  0.030452741            3 
  413000    1.2148724   -7.1773873    145.79616  0.029418112  0.030445978            5 
  414000    1.1988215   -7.1854103    146.13881  0.029416024  0.030439073            3 
  415000    1.2065999   -7.1841116    146.33471   0.02938448  0.030431328            3 
  416000    1.1859066   -7.1466196    147.02435  0.029451993  0.030424439            3 
  417000    1.1900231   -7.1108743    147.64396  0.029505187  0.030416716            5 
  418000    1.1589681   -7.1493557    147.72617   0.02945099  0.030409949            1 
  419000    1.1679217   -7.1457942    147.85245  0.029405818  0.030402709            2 
  420000    1.1744746   -7.1233096    148.34966  0.029434456  0.030395324            3 
  421000     1.182879   -7.1357799    148.81882  0.029457407  0.030387864            2 
  422000    1.1897006    -7.229504     148.3298  0.029291035  0.030379632            2 
  423000    1.1912082   -7.1565262    148.84543  0.029323371  0.030370916            2 
  424000    1.1643108   -7.1201121    149.00065  0.029284718   0.03036253            2 
  425000    1.2057884   -7.1788718    149.34514  0.029283361  0.030354528            2 
  426000    1.2062525   -7.2062419    149.31838  0.029209386  0.030345873            2 
  427000     1.188736   -7.1509539    150.40972  0.029353965  0.030337354            3 
  428000    1.1651102    -7.148209    151.30321  0.029459348   0.03032961            1 
  429000    1.1745126   -7.1874412    150.83756  0.029300226  0.030322147            3 
  430000    1.1681919   -7.1472328    151.25791  0.029313548   0.03031483            2 
  431000    1.1594397   -7.1115444    152.32807  0.029452449  0.030307043            3 
  432000    1.1995466   -7.1685169    152.22906  0.029365174  0.030299737            3 
  433000    1.1888233    -7.173309     151.9693  0.029247364  0.030291329            2 
  434000    1.1906655   -7.2122922    152.25268  0.029234385   0.03028325            4 
  435000    1.1651834   -7.2035504    152.22335  0.029161561   0.03027411            2 
  436000    1.1516267   -7.1296258    153.00091  0.029243293  0.030264732            3 
  437000    1.1892734   -7.2043619    152.33201   0.02904882  0.030255364            3 
  438000    1.1601407   -7.1503591    153.84725  0.029270785  0.030246574            3 
  439000     1.179072   -7.1797846    153.76619  0.029188722  0.030237513            6 
  440000    1.1616969   -7.1254418    154.73623  0.029306104  0.030228697            3 
  441000    1.1792684   -7.1840746    154.29918  0.029157063  0.030219414            3 
  442000    1.1705021   -7.1449516    155.45445  0.029308909  0.030210453            1 
  443000    1.1441662   -7.1157524    155.61398  0.029272757  0.030202158            2 
  444000    1.1743333   -7.1806395    155.54409  0.029193711  0.030193835            8 
  445000    1.1826969   -7.1472929    156.57077  0.029320368  0.030186362            4 
  446000    1.1584993   -7.1109162    156.76082  0.029290138  0.030178401            3 
  447000    1.1662154   -7.1481834    156.69488  0.029212318  0.030170953            5 
  448000    1.1807314   -7.2072017    156.75522  0.029158336  0.030163208            4 
  449000    1.1584575   -7.1531924    157.16736  0.029169889  0.030155129            5 
  450000    1.1788276   -7.2458922    157.33282  0.029135708  0.030146666            1 
  451000    1.1579914   -7.1844705    157.34493  0.029073343  0.030138751            2 
  452000    1.1919559   -7.1218576    159.04272  0.029322036   0.03013111            3 
  453000    1.1444757   -7.1335679    159.45793  0.029333688  0.030124127            3 
  454000    1.1679606   -7.1904197    159.24504      0.02923  0.030117246            1 
  455000    1.1844997    -7.120957    160.63614  0.029420539  0.030110402            2 
  456000    1.1470856   -7.1113408    160.63789  0.029356339   0.03010442            2 
  457000    1.1799333   -7.1837643    160.74048   0.02931081  0.030097958            3 
  458000    1.1714764   -7.1452429    161.29072  0.029346928  0.030092493            2 
  459000    1.1834173   -7.1360964    161.70092  0.029357465  0.030086938            2 
  460000    1.1819265   -7.1760051    161.84439  0.029319635  0.030081489            5 
  461000    1.1920926   -7.1866503    161.74009  0.029237183  0.030075345            2 
  462000    1.1749435   -7.1487322    162.55003  0.029319991  0.030069222            2 
  463000     1.179094   -7.1348872    162.64182  0.029273186  0.030062618            1 
  464000     1.169176   -7.1829047    162.57421  0.029197955  0.030055589            4 
  465000    1.1651796   -7.1576265    163.14318  0.029237128  0.030048426            4 
  466000    1.1582674   -7.1770027    163.15821  0.029177076   0.03004135            2 
  467000    1.1660746   -7.1910422    162.59947  0.029014895  0.030033537            4 
  468000    1.1785777   -7.2021106    163.40235  0.029095861  0.030025771            3 
  469000    1.1751045   -7.1231912    164.61215  0.029248783  0.030018461            2 
  470000    1.1850415   -7.2145241    163.42021  0.028975215  0.030011381            3 
  471000    1.1826303   -7.1905821    165.35806  0.029256556  0.030004096            2 
  472000    1.1853709   -7.1719421    165.13551   0.02915528  0.029997187            1 
  473000    1.1988908    -7.118712    165.75095   0.02920207  0.029990602            2 
  474000    1.1540494   -7.1988189    166.18494  0.029216762  0.029984666            3 
  475000    1.1517857    -7.180181    166.56416  0.029221782  0.029978026            3 
  476000     1.172506     -7.14982    166.93706  0.029225676  0.029971164            2 
  477000    1.1801464   -7.1798201    166.55998  0.029098529  0.029964307            2 
  478000    1.1747901   -7.1525943    167.07291  0.029127077  0.029956947            3 
  479000    1.1676392   -7.1729059    167.14538  0.029078877  0.029950059            2 
  480000    1.2114644   -7.1864812    167.64556  0.029105131  0.029942925            3 
  481000    1.1780431    -7.181349    167.57447  0.029032305   0.02993492            2 
  482000    1.1813988    -7.204052    168.22443  0.029084446  0.029927606            3 
  483000    1.1886311   -7.1549233    169.65258  0.029270631   0.02992104            2 
  484000    1.1905461    -7.118332    169.81963  0.029238917  0.029915363            4 
  485000    1.1913586   -7.2073507      169.113  0.029057217  0.029908845            3 
  486000     1.171395    -7.156307    170.04585  0.029157382  0.029901908            6 
  487000    1.1848746   -7.1708977    170.03804  0.029096174   0.02989531            1 
  488000     1.181544   -7.1820999    169.87655  0.029008974   0.02988767            1 
  489000    1.1819775   -7.1695522     170.7538  0.029099148   0.02987988            2 
  490000    1.1838718   -7.2062965    170.33041  0.028967757  0.029871622            3 
  491000    1.1746719   -7.1832292    171.21033  0.029058101  0.029864256            2 
  492000    1.1732939   -7.1486016    172.16472   0.02916069  0.029856452            1 
  493000    1.1759619   -7.1661964    171.26796   0.02894996  0.029848705            1 
  494000     1.157695   -7.1797968    171.09567  0.028862292      0.02984            1 
  495000    1.1864985   -7.1780484    172.46319  0.029034208  0.029831911            2 
  496000    1.1915646   -7.1417366    172.77183  0.029027524  0.029823779            4 
  497000    1.1506794   -7.2018168    172.30358  0.028890607  0.029815584            2 
  498000    1.1671401   -7.2225467    172.28574  0.028829608  0.029806698            1 
  499000    1.1890757   -7.1846497    173.28202  0.028938213  0.029797952            4 
  500000    1.1768298   -7.1757941    173.32475  0.028887459  0.029789188            4 
  501000    1.1738409   -7.1930193    173.44466  0.028849743  0.029780217            3 
  502000    1.1866217   -7.2082292    173.60003  0.028818065  0.029770992            3 
  503000    1.1677447   -7.1791532    173.96102   0.02882058  0.029761732            2 
  504000    1.1790621   -7.1338748    174.73246  0.028890948  0.029752534            1 
  505000    1.1767618   -7.1607727    174.39473  0.028778007  0.029743381            2 
  506000    1.1437429   -7.1811383    174.76357   0.02878188  0.029734938            1 
  507000    1.1550952   -7.1710336    175.23347  0.028802345  0.029726466            2 
  508000    1.1615685   -7.1904463    175.62316  0.028809573  0.029717854            5 
  509000    1.1687972   -7.2034723    175.97006  0.028809768  0.029708747            2 
  510000    1.1854993   -7.1817709    176.79782  0.028888533  0.029700734            3 
  511000    1.1431827   -7.2107037    176.43025  0.028772057  0.029692408            2 
  512000    1.1790141   -7.1879694    177.33258  0.028862725  0.029683854            3 
  513000    1.1778104   -7.1629661    177.54952  0.028841702  0.029674976            4 
  514000    1.1440543   -7.2281977    177.42051  0.028764674  0.029666038            3 
  515000    1.1634783   -7.2200662    177.64644  0.028745379  0.029657122            3 
  516000    1.1766985   -7.1987094    178.14346  0.028769939  0.029648042            5 
  517000    1.1720146   -7.2181418    177.62193  0.028630228  0.029638276            2 
  518000    1.1593185   -7.1911793    178.27016  0.028679241  0.029628628            3 
  519000    1.1815785   -7.1896562    178.51385  0.028663109  0.029618951            2 
  520000    1.1433065   -7.1767824    179.34573  0.028741303  0.029609052            3 
  521000     1.162623   -7.2248034    178.74846  0.028590605  0.029598766            3 
  522000    1.1537055   -7.2278616    179.61381  0.028673979  0.029588749            3 
  523000    1.1563908   -7.1571897    179.27516  0.028565195  0.029578884           12 
  524000    1.1933699   -7.1864537    179.76585  0.028588717  0.029568386            1 
  525000    1.1963353   -7.1861434    180.37992  0.028631733  0.029558201            1 
  526000    1.1510195   -7.1945047    180.71232  0.028629962  0.029548243            3 
  527000    1.1725228   -7.2322934    180.48628  0.028539892  0.029538161            1 
  528000     1.149731   -7.2202294    180.17681  0.028436996  0.029527914            3 
  529000    1.1414982   -7.2004618     180.5982  0.028449621  0.029517108            2 
  530000    1.1721371   -7.1669411    181.60267  0.028553879  0.029506783            6 
  531000    1.1608984    -7.192269    182.21209  0.028595746  0.029496805            2 
  532000    1.1722183   -7.1783131    182.20591  0.028541025  0.029486748            3 
  533000     1.180175   -7.2208479    182.35143  0.028510229   0.02947618            5 
  534000    1.1816001   -7.2498076    182.69359  0.028510236  0.029465928            1 
  535000    1.1603451   -7.1903873    183.34999  0.028559188   0.02945553            3 
  536000    1.1503608   -7.1543735     184.0461  0.028614133  0.029445429            3 
  537000    1.1721984   -7.1947907     183.7346  0.028512508  0.029436069            3 
  538000     1.173294   -7.2390268    183.73583    0.0284597  0.029426113            2 
  539000    1.1718068   -7.1760101    184.54266  0.028531642  0.029416501            6 
  540000    1.1422718   -7.1826409    185.49008  0.028625012  0.029406703            1 
  541000    1.1772735   -7.1623399    185.59705  0.028588578  0.029397322            1 
  542000    1.1475289    -7.190775    185.42051  0.028508688   0.02938739            2 
  543000    1.1622008   -7.1881634    185.63517  0.028489129  0.029377566            3 
  544000    1.1748552   -7.1471372    186.02263  0.028496114  0.029368216            1 
  545000    1.1806314   -7.2341804    185.98327  0.028437809  0.029358883            2 
  546000     1.143872   -7.1743352    186.83489  0.028515704  0.029348971            3 
  547000    1.1642809   -7.1874369    187.54965  0.028572464  0.029339639            4 
  548000    1.1502517   -7.1662774    187.24721  0.028474332  0.029330005            2 
  549000    1.1701796    -7.244609    187.57613  0.028472393   0.02932017            2 
  550000    1.1729323   -7.2398272    187.59259   0.02842312  0.029310851            2 
  551000    1.1492968   -7.1910366    188.23008  0.028467949  0.029301695            3 
  552000    1.1320632   -7.1945155    189.01567  0.028534975  0.029292351            2 
  553000    1.1798429   -7.2162497    188.55508  0.028413967   0.02928315            5 
  554000    1.1830888   -7.1782021     189.2824  0.028472082  0.029274221            2 
  555000    1.1571709   -7.2109262    189.05036   0.02838594  0.029264934            2 
  556000    1.1590704   -7.2911375    188.30938  0.028223827  0.029255354            4 
  557000    1.1407253   -7.2226558    189.87349  0.028407165   0.02924527            1 
  558000    1.1485613    -7.267752    189.07384  0.028236833  0.029235132            6 
  559000    1.1732045   -7.2135988    190.43388   0.02838907  0.029225554            3 
  560000    1.1843983   -7.2058554    191.11372  0.028439541  0.029215929            7 
  561000    1.1654908   -7.2088351    191.07805  0.028383549  0.029206573            2 
  562000    1.1785756   -7.2021981    191.89995  0.028454916   0.02919772            6 
  563000    1.1719039   -7.2016181    192.01784  0.028421823  0.029188985            2 
  564000      1.17828   -7.2039591    192.70915  0.028473574  0.029180267            3 
  565000    1.1712345   -7.1878147    192.47457   0.02838858  0.029171619            6 
  566000    1.1534463   -7.2049158    192.83064  0.028390848  0.029163224            1 
  567000    1.1680074   -7.2142323     193.0152  0.028367901  0.029154891            1 
  568000    1.1460274   -7.2006671    193.51289  0.028390976  0.029146815            3 
  569000    1.1616259    -7.218255    193.96431  0.028407193  0.029138731            4 
  570000    1.1677605   -7.2295757    194.03029  0.028367001  0.029130335            3 
  571000    1.1671842   -7.1755594      194.506  0.028386748  0.029122201            6 
  572000    1.1495916   -7.2305621    195.30616  0.028453695  0.029113604            2 
  573000    1.1503706   -7.1917119    195.25812  0.028397051  0.029104993            3 
  574000     1.165581   -7.2189117    195.25917  0.028347731  0.029096054            2 
  575000    1.1550648   -7.2547491     195.0036  0.028261391  0.029086826            2 
  576000    1.1725315   -7.2268181    195.60591  0.028299466  0.029077915            3 
  577000    1.1561473   -7.1972032    195.55814   0.02824352  0.029068814            4 
  578000    1.1436953   -7.2290233    195.90049  0.028244015  0.029059614            2 
  579000    1.1502702    -7.206657    196.56611  0.028291034  0.029049893            4 
  580000    1.1689671   -7.2409205    196.62981  0.028251409  0.029040313            5 
  581000    1.2012192   -7.2672413    196.66521  0.028207862  0.029030303            2 
  582000    1.1506864   -7.1630457    197.41925  0.028267361  0.029020364            4 
  583000    1.1756032   -7.2016973    197.32105  0.028204839  0.029011165            2 
  584000    1.1683746   -7.1879771    197.97448  0.028249784  0.029001434            3 
  585000    1.1508814    -7.221152    197.64341  0.028154333   0.02899145            2 
  586000    1.1469456   -7.2335305    198.58317  0.028239927  0.028981583            6 
  587000     1.181995    -7.231433    197.79394  0.028079776  0.028971809            1 
  588000    1.1644908   -7.1589602    198.61147  0.028147884  0.028961788            4 
  589000    1.1817821   -7.2076547    198.54563  0.028090779  0.028951677            2 
  590000    1.1685641     -7.25024    198.40137  0.028022792  0.028942154            3 
  591000    1.1413395   -7.1996081    198.85527  0.028039378  0.028931903            2 
  592000    1.1529087   -7.1867686    200.01254  0.028154919  0.028922081            2 
  593000    1.1517551   -7.1969255     199.1849  0.027991133   0.02891183            1 
  594000    1.1470302   -7.1816242    200.88245  0.028182162  0.028901949            3 
  595000    1.1367491   -7.2054521    200.62546  0.028098803  0.028891924            2 
  596000    1.1806564   -7.2238807    200.53808  0.028039441  0.028881898            4 
  597000    1.1608083   -7.2203552    201.09579  0.028070322  0.028872078            2 
  598000    1.1516307   -7.2025959    200.69875  0.027968053  0.028862257            3 
  599000    1.1509653   -7.2436527    201.07227  0.027973327  0.028852488            1 
  600000    1.1493783    -7.228803    201.86867  0.028037316  0.028842402            1 
  601000    1.1759964   -7.2276604    202.10341  0.028023213  0.028832681            2 
  602000     1.157135   -7.1711275    202.81062   0.02807456  0.028823154            1 
  603000    1.1381993   -7.2264234    203.00677   0.02805511  0.028814167            6 
  604000    1.1862099   -7.1949981    203.71459  0.028106317  0.028805005            5 
  605000    1.1906183   -7.2459548    203.65715  0.028051949  0.028795853            2 
  606000    1.1691148   -7.2238511    204.04508  0.028059005  0.028786526            2 
  607000    1.1546178   -7.2684758    203.79997  0.027979128  0.028777236            7 
  608000    1.1411812     -7.22207    204.12427  0.027977559  0.028767139            5 
  609000    1.1470871   -7.2644892    204.01816    0.0279171  0.028757524            3 
  610000    1.1548545   -7.2264073    204.29897  0.027909695  0.028747922            2 
  611000    1.1660044    -7.208955    204.87641  0.027942773  0.028738375            4 
  612000     1.148462   -7.2263586     205.3436   0.02796073  0.028729219            2 
  613000    1.1580919   -7.2590573    205.95209  0.027997838  0.028719416            3 
  614000    1.1398575   -7.2468615    206.21515  0.027987941  0.028709864            3 
  615000    1.1525995   -7.2223898     206.5533  0.027988252  0.028700408            4 
  616000    1.1440283   -7.2439229    207.12993  0.028020824  0.028691607            1 
  617000    1.1647181   -7.2933968    206.58591  0.027901932  0.028682625            2 
  618000    1.1416851   -7.2498619    207.26106  0.027947823  0.028673652            3 
  619000    1.1611556   -7.2171126    208.00568  0.028002919  0.028664637            2 
  620000    1.1804632    -7.249279    208.31208  0.027998935  0.028656044            6 
  621000    1.1826402   -7.2358251    207.88287  0.027896251  0.028647371            4 
  622000     1.149275   -7.2670494    208.14588   0.02788664  0.028638149            4 
  623000    1.1485799   -7.2535041    208.66768  0.027911674   0.02862899            1 
  624000    1.1447331   -7.2346189     208.9427  0.027903673  0.028620202            3 
  625000    1.1531136   -7.2472451    209.26055  0.027901406  0.028611171            2 
  626000    1.1296954   -7.1838597    209.94742  0.027948271  0.028602462            3 
  627000    1.1588413   -7.2160115    209.36724  0.027826587  0.028593462            3 
  628000    1.1439561   -7.2317423    210.17649  0.027889662  0.028584191            2 
  629000    1.1345801    -7.260147    210.03702  0.027826845  0.028575258            3 
  630000     1.163542   -7.2263633    210.36914  0.027826605  0.028566244            2 
  631000    1.1474311   -7.2316017    211.17729  0.027889235  0.028557014            5 
  632000    1.1539563   -7.1857554    211.34743  0.027867541  0.028548127            1 
  633000    1.1420575   -7.2450581    211.95765   0.02790385  0.028539553            6 
  634000    1.1276301   -7.2757829    211.82468  0.027842361  0.028530495            2 
  635000    1.1719121   -7.2399568    212.13592  0.027839359  0.028521563            3 
  636000     1.153822   -7.2311287    212.40501  0.027830845  0.028512412            2 
  637000    1.1373775    -7.217017    213.58003  0.027940872  0.028503636            3 
  638000    1.1548522   -7.2066971    213.40557  0.027874291  0.028494842            2 
  639000    1.1411894   -7.2512006    213.69462  0.027868364  0.028485685            3 
  640000    1.1447562   -7.2332553    213.68487  0.027823551  0.028477199            4 
  641000    1.1410463   -7.2566318    214.11037  0.027835462  0.028468812            1 
  642000    1.1724533   -7.2549833     214.1286   0.02779447  0.028460201            4 
  643000    1.1511774    -7.244185    214.76804  0.027834116  0.028451692            3 
  644000    1.1655886   -7.2578182    214.74091  0.027787385  0.028442933            2 
  645000    1.1329534    -7.215053    215.30056  0.027816609  0.028434056            4 
  646000    1.1542565   -7.2590746    215.12127  0.027750421  0.028425534            3 
  647000    1.1371098   -7.2685216    215.68319  0.027779906  0.028417065            3 
  648000    1.1506161   -7.2396835     216.8287  0.027884349  0.028408665            3 
  649000    1.1690554   -7.2552716    216.12256  0.027750714  0.028400022            4 
  650000    1.1195805   -7.2349046    216.85378  0.027801767  0.028391648            3 
  651000    1.1375425    -7.321408      216.455  0.027708014  0.028383004            6 
  652000    1.1605326   -7.1983477    218.24349  0.027894107  0.028374705            2 
  653000    1.1513542   -7.2192067       218.21  0.027847116  0.028366519            3 
  654000    1.1447102   -7.2840396    217.47437  0.027710802  0.028358067            1 
  655000    1.1289839   -7.2587037    217.41535  0.027660986  0.028349624            2 
  656000    1.1490759   -7.2314069    218.72584  0.027785294  0.028341343            1 
  657000    1.1496527    -7.249245    219.01635  0.027779851  0.028333046            4 
  658000    1.1709435   -7.2348388    219.37895  0.027783555  0.028324904            6 
  659000     1.120842   -7.2421143    218.64365  0.027648413  0.028316407            2 
  660000    1.1432533   -7.2941192    218.64115  0.027606206  0.028307391            4 
  661000    1.1439587   -7.2931609    219.04946  0.027615917  0.028298603            2 
  662000    1.1426844   -7.2318325    220.19302  0.027718154  0.028289946            4 
  663000    1.1303094   -7.2542263    220.37396   0.02769909  0.028281948            3 
  664000     1.140688   -7.2383555    221.00021   0.02773597  0.028273971            3 
  665000    1.1688858    -7.284497    220.60042  0.027644163  0.028265338            4 
  666000    1.1390481   -7.1955707    221.34786  0.027696178  0.028256895            7 
  667000    1.1556028   -7.2439834    221.07329  0.027620351  0.028248429            2 
  668000    1.1495726   -7.2239394    222.12673   0.02771042  0.028239751            3 
  669000     1.154541    -7.241965     222.0763  0.027662718  0.028231305            1 
  670000    1.1351725   -7.2588833    221.83291  0.027591158  0.028222959            2 
  671000    1.1388737   -7.2471203    222.19323  0.027594788  0.028214311            3 
  672000    1.1615417   -7.2336169    223.34784  0.027696904  0.028206195            5 
  673000    1.1730729   -7.2186836    224.00349  0.027736935  0.028197835            1 
  674000    1.1434204   -7.2859738    222.97034  0.027568043  0.028189312            2 
  675000    1.1299766   -7.2669017    222.91092  0.027519867  0.028180967            4 
  676000    1.1591873   -7.2846655    223.23511  0.027519121  0.028172307            5 
  677000     1.152933   -7.2307156    223.64141  0.027528485  0.028164179            2 
  678000    1.1613817   -7.2462538    224.28575  0.027567078  0.028156256            5 
  679000    1.1322172    -7.216935     225.1049  0.027627013  0.028147914            1 
  680000    1.1352782   -7.2113488    226.18331  0.027718543  0.028139802            6 
  681000    1.1737086   -7.2745351    224.76522   0.02750431  0.028131753            3 
  682000    1.1753014   -7.2398557     225.5203  0.027556244  0.028123107            5 
  683000    1.1446686   -7.2233054    226.54566  0.027641003  0.028115022            1 
  684000    1.1478268   -7.2748676    225.84001  0.027514621  0.028106811            1 
  685000    1.1010702   -7.2723938    226.30042  0.027530465  0.028098382            3 
  686000     1.135857   -7.2580258    226.66105  0.027534141  0.028090157            4 
  687000    1.1512864   -7.3116098    225.95954  0.027408968  0.028081775            3 
  688000    1.1441698   -7.2419845    226.73125  0.027462603  0.028073055            6 
  689000    1.1400907   -7.2991326    226.85074  0.027437197   0.02806461            3 
  690000     1.144437   -7.3087662    227.79452  0.027511415  0.028055852            2 
  691000    1.1480115   -7.2463239    228.16832  0.027516681  0.028047254            4 
  692000    1.1559028   -7.2721271    227.90231  0.027444883  0.028038671            2 
  693000    1.1423612   -7.2889245    228.03186  0.027420858  0.028030132            2 
  694000    1.1467994   -7.2549414    229.81012  0.027594875  0.028022023            3 
  695000    1.1330441    -7.263587    229.22221  0.027484677  0.028013806            2 
  696000     1.161556   -7.2249706    229.49012  0.027477266  0.028005643            4 
  697000    1.1514975   -7.2544524     229.6809  0.027460653  0.027997337            3 
  698000    1.1575068   -7.2753343    229.80975  0.027436694  0.027988947            4 
  699000    1.1327899   -7.3064402    230.04781  0.027425823  0.027980893            2 
  700000    1.1133179   -7.2842593     231.4351  0.027551798  0.027972835            2 
  701000    1.1274764   -7.2578781    231.01997  0.027463144  0.027964992            3 
  702000    1.1450294   -7.2795611     230.2281  0.027330021  0.027956629            2 
  703000    1.1477439   -7.2909993    230.86839  0.027367045  0.027947976            4 
  704000    1.1096063   -7.2101237    232.08928  0.027472689  0.027939866            3 
  705000    1.1201641    -7.246028    231.95949  0.027418379   0.02793171            2 
  706000    1.1516611   -7.2661756    231.98726  0.027382821  0.027923122            5 
  707000    1.1409547   -7.2397495     232.8873  0.027450177  0.027914803            5 
  708000    1.1571435   -7.3092395    232.57573  0.027374733  0.027906296            1 
  709000    1.1425037   -7.2396684    232.94876  0.027379968  0.027898121            4 
  710000    1.1377614   -7.2739906    233.20451  0.027371421  0.027890006            3 
  711000    1.1334749   -7.2516271    233.14446  0.027325887  0.027881708            1 
  712000    1.1215124   -7.2576212    234.10418  0.027399834  0.027873453            2 
  713000    1.1496485   -7.3187831     233.9531  0.027343747  0.027865215            3 
  714000     1.129195   -7.2743508    234.74316  0.027397661  0.027857275            2 
  715000    1.1311389   -7.2823527    234.80627  0.027366698  0.027849155            2 
  716000    1.1527089   -7.2315487    235.00779  0.027351931  0.027841341            2 
  717000    1.1148336   -7.2635366    236.12463  0.027443588  0.027833451            2 
  718000    1.1460997   -7.2664536    236.28007  0.027423406  0.027825616            4 
  719000    1.1246956   -7.3197223    236.10544  0.027365025  0.027817983            6 
  720000    1.1437912    -7.299815    236.19857  0.027337798  0.027810615            3 
  721000    1.1099506   -7.2770275    237.29914  0.027427084  0.027803362            2 
  722000    1.1568409   -7.3070507    237.72023  0.027437699  0.027795934            3 
  723000    1.1267976   -7.3135542    237.27919  0.027348915  0.027788582            2 
  724000    1.1518792   -7.3054997    237.79587  0.027370611  0.027781056            4 
  725000    1.1316724   -7.2274684    239.36346  0.027513041  0.027774117            3 
  726000    1.1517339   -7.2969168    238.36344  0.027360358  0.027766884            5 
  727000    1.1475542   -7.2619197    238.44367   0.02733192  0.027759872            3 
  728000    1.1295809   -7.2962301    238.13147  0.027258639  0.027752361            2 
  729000    1.1391778   -7.2534313    239.69522  0.027400002  0.027745178            2 
  730000    1.1240043   -7.2994889    239.52593  0.027343143  0.027738515            7 
  731000    1.1265478   -7.3147453    239.26513  0.027276006  0.027731485            3 
  732000    1.1487228   -7.2658278     240.3321  0.027360212  0.027724456            2 
  733000     1.137976   -7.3093482    240.16229   0.02730358  0.027717607            2 
  734000    1.1469454   -7.2671216    240.62094  0.027318453  0.027710576            2 
  735000    1.1144528   -7.2685452    241.22132  0.027349357  0.027703507            8 
  736000    1.1438766   -7.2850494    240.86784  0.027272174  0.027696609            3 
  737000    1.1512392   -7.3136114    241.11292  0.027262881  0.027689492            8 
  738000    1.1215405   -7.2878804    242.22568  0.027351589   0.02768294            2 
  739000    1.1223076   -7.2849601    241.85941  0.027273275  0.027676378            2 
  740000    1.1511881   -7.2731718    242.78338   0.02734047  0.027669731            3 
  741000    1.0982235   -7.2443564    243.57262  0.027392332   0.02766299            3 
  742000    1.1652718   -7.3082542      242.874  0.027276954  0.027656135            3 
  743000    1.1597383   -7.2720184    243.24259  0.027281582  0.027649356            4 
  744000    1.1333244   -7.2932166    243.60169  0.027285136  0.027642469            3 
  745000    1.1059404   -7.2773396    243.93463  0.027285752  0.027635401            9 
  746000    1.1436601   -7.3491939    243.76259  0.027229958  0.027628587            3 
  747000    1.1097408   -7.2624555    245.18732  0.027352445  0.027621599            4 
  748000     1.113242   -7.3121549    244.20129  0.027206026  0.027614607            2 
  749000    1.1070725   -7.3307786    243.99513  0.027146766  0.027607774            2 
  750000    1.1329877   -7.3197933    245.15291  0.027239213  0.027600478            8 
  751000    1.1281856   -7.2752759    244.84734  0.027169035   0.02759303            2 
  752000    1.1537423   -7.2843221    245.41264  0.027195549  0.027585893            3 
  753000    1.1260274   -7.2599684     246.2152  0.027248252  0.027578917            4 
  754000    1.1441085   -7.2892543    246.11903  0.027201484  0.027571882            3 
  755000    1.1394541   -7.2618883    246.45294  0.027202312  0.027564547            5 
  756000    1.1245698   -7.2966309    246.57128  0.027179374  0.027557342            2 
  757000    1.1211988   -7.2902608    246.96021  0.027186285  0.027550049            2 
  758000    1.1451154   -7.3017735    246.73955   0.02712616  0.027542657            2 
  759000    1.1046227   -7.3102424    247.47022  0.027170643  0.027535153            1 
  760000    1.1208363   -7.2253189    248.20526  0.027215489  0.027528001            3 
  761000    1.1380099   -7.3351645    247.05552  0.027053823  0.027520821            5 
  762000    1.1096385   -7.3445304    247.86783  0.027107156   0.02751364            7 
  763000    1.1575504   -7.2787669    248.64306  0.027156298  0.027506315            2 
  764000    1.1160951   -7.3030288    248.83744  0.027141954  0.027499513            3 
  765000    1.1236224   -7.2883382    250.14467  0.027248875  0.027492983            1 
  766000    1.1439385   -7.2827311    249.20918  0.027111529  0.027486274            2 
  767000    1.1088294     -7.31347    249.77858  0.027138046  0.027479133            2 
  768000    1.1455552   -7.2952227    250.09357  0.027136889  0.027471846            3 
  769000    1.1400078   -7.2921388    250.10095    0.0271024  0.027464461            2 
  770000    1.1183947   -7.2630786    251.26596  0.027193286  0.027457442            2 
  771000    1.1426787   -7.2818844    250.79561  0.027107178  0.027450549            2 
  772000    1.1144279   -7.2844106    251.16136  0.027111546  0.027443641            3 
  773000    1.1544699    -7.334392    251.89807  0.027155893  0.027436587            3 
  774000    1.1432977   -7.3285302     250.7001  0.026991828   0.02742975            4 
  775000    1.1198807   -7.3021144    252.24397  0.027123007  0.027422743            3 
  776000    1.1036556   -7.3156244    252.54335  0.027120205  0.027415694            4 
  777000    1.1360477   -7.3052873    252.30198  0.027059414  0.027408779            3 
  778000    1.1300612   -7.2969964    252.21155  0.027014947  0.027401827            6 
  779000    1.1262142   -7.2626005    253.43629  0.027111285  0.027395284            5 
  780000    1.1137281   -7.2414182    253.91753  0.027127941  0.027388488            2 
  781000    1.1150384   -7.2995785    253.71496  0.027071592  0.027381916            2 
  782000    1.1313898   -7.2671291    254.43647  0.027113861   0.02737501            5 
  783000    1.1294132   -7.2975686    253.18472  0.026946011  0.027368279            6 
  784000    1.1261424   -7.2510103    255.73089   0.02718228  0.027361914            5 
  785000    1.1214366   -7.2935195    254.83946  0.027053021  0.027355048            5 
  786000    1.1466923    -7.272206      254.981  0.027033609  0.027348222            2 
  787000    1.1408719   -7.2831441    255.51803  0.027056123  0.027341273            4 
  788000    1.1022007   -7.2920056    255.43009  0.027012488  0.027334439            4 
  789000    1.1130911   -7.2677518    256.48214  0.027089368  0.027327738            4 
  790000    1.1033717   -7.2690768    256.73693  0.027081955   0.02732097            2 
  791000    1.1449252   -7.2825062     256.5434  0.027027329  0.027314547            4 
  792000     1.126898   -7.2938855    257.76715  0.027121964  0.027308192            2 
  793000    1.1179578   -7.2671712     258.4035  0.027154634  0.027302166            2 
  794000    1.1216887   -7.2353443    258.91698  0.027174326  0.027295876            4 
  795000     1.129472   -7.2961413    258.95734  0.027144375  0.027289343            3 
  796000    1.1244793    -7.382919    256.18096  0.026819615  0.027282369            1 
  797000    1.1082337    -7.302336    258.69091  0.027048402  0.027275861            5 
  798000    1.1261817   -7.3283788    258.36768  0.026980752  0.027269488            2 
  799000    1.1186401   -7.3093782    258.93125  0.027005763  0.027263216            6 
  800000    1.1147063   -7.3454245    258.97445  0.026976505  0.027256994            1 
  801000    1.0993203   -7.3470149    258.80522  0.026925221  0.027250736            2 
  802000    1.1263947    -7.321363    260.50078  0.027067829  0.027244372            2 
  803000    1.1599445    -7.282324    260.09579  0.026992091  0.027238221            1 
  804000    1.1265022   -7.2761725     259.5698  0.026904001  0.027231904            2 
  805000    1.1230699   -7.2704954    260.33987  0.026950297  0.027225311            2 
  806000     1.122379   -7.3187149    259.79949  0.026860989   0.02721883            7 
  807000    1.1154472   -7.2963891    260.15259  0.026864167  0.027212131            3 
  808000    1.1145411   -7.3226165    261.01478  0.026919842  0.027205407            4 
  809000    1.1301874     -7.29198    261.72767  0.026959999  0.027198683            3 
  810000    1.1204603   -7.3051576    261.13571  0.026865814  0.027192085            7 
  811000    1.1081008   -7.3349444     261.1407    0.0268332  0.027185231            2 
  812000    1.0995136   -7.3179504    261.21912  0.026808202  0.027177937            2 
  813000    1.0973805   -7.3010492    261.72816  0.026827404  0.027170687            1 
  814000    1.1340097   -7.3328823    261.89738  0.026811771  0.027163269            3 
  815000    1.1079246   -7.2877057    262.34084  0.026824217  0.027156152            6 
  816000    1.1184702   -7.2786901    262.23965   0.02678101  0.027149057            2 
  817000    1.0998007   -7.3739627    262.69335  0.026794507  0.027141851            6 
  818000    1.1294889   -7.3128964    262.96615  0.026789543  0.027134512            2 
  819000    1.1324058   -7.3015163    263.27461  0.026788218  0.027127025            2 
  820000    1.1359506   -7.3310113    263.41406  0.026769722  0.027119856            5 
  821000    1.1099276   -7.2818847    262.93106  0.026688089  0.027112517            2 
  822000    1.1125211   -7.2768006    262.76916  0.026639209  0.027105121            3 
  823000    1.1082715   -7.2849298    263.91604  0.026722969  0.027097518            3 
  824000    1.1113255   -7.3040765    263.87333  0.026686219  0.027089676            4 
  825000    1.1452622   -7.3087227    263.69688  0.026636048  0.027082085           12 
  826000    1.1076314   -7.3385421    264.62794  0.026697734  0.027074603            2 
  827000    1.0950861     -7.31542    265.06632  0.026709625  0.027067181            3 
  828000    1.1220098   -7.3249063    264.93547  0.026664198  0.027059954            1 
  829000    1.1223074   -7.3022976    266.51011   0.02679032  0.027052733            3 
  830000    1.1026347   -7.3148781     266.5543   0.02676248  0.027045937            1 
  831000    1.1241466   -7.3166372    267.61035  0.026836176  0.027038937            2 
  832000    1.1164636   -7.3365426    266.51731  0.026694442  0.027032211            3 
  833000    1.1339574    -7.313162    267.17338  0.026728029  0.027025577            3 
  834000    1.1214314   -7.2931376    268.41266  0.026819811  0.027018983            2 
  835000    1.1087777   -7.3149968    267.39042  0.026685671  0.027012145            4 
  836000    1.1145141   -7.3021692    267.43579  0.026658272  0.027005138            2 
  837000    1.1167673   -7.3392502    267.61011  0.026643778  0.026997786            2 
  838000    1.1207379   -7.3413437    268.10436  0.026661134  0.026990832            5 
  839000    1.0913212   -7.3567298     268.1578  0.026634664  0.026983479            2 
  840000    1.1136886   -7.3232654    268.21722  0.026608852  0.026976211            2 
  841000    1.1065965   -7.2865497    268.46849  0.026602109  0.026968978            3 
  842000    1.1106851   -7.3401284    268.54036  0.026577629  0.026961726            3 
  843000    1.1297242   -7.3304392     268.7192   0.02656378  0.026954273            3 
  844000    1.1169237   -7.3226616    268.04551  0.026465788  0.026946875            5 
  845000    1.1065637    -7.353949    269.39835  0.026567885  0.026939644            1 
  846000    1.0985733   -7.3129419    269.91819  0.026587686  0.026932042            3 
  847000    1.1061109   -7.2944923    270.36598  0.026600352   0.02692485            3 
  848000    1.1078762   -7.3199497    270.99228   0.02663053  0.026917986            3 
  849000    1.1048676   -7.3295686    271.57496  0.026656357  0.026911156            3 
  850000    1.1049795   -7.3740893    270.74263  0.026543395  0.026903895            3 
  851000    1.1330342   -7.3174096    272.37156  0.026671715   0.02689687            2 
  852000    1.1277538   -7.3395986    271.64804  0.026569644  0.026889978            1 
  853000    1.1218606    -7.309622    272.46102  0.026617919  0.026883109            3 
  854000    1.1170197   -7.3067458    273.09102  0.026648226  0.026876477            2 
  855000    1.1256928   -7.3448992    273.47926  0.026654899  0.026869901            1 
  856000    1.1146014   -7.2798636    273.08991  0.026585856  0.026863081            3 
  857000    1.1205291   -7.3229936    273.58972  0.026603434  0.026856365            4 
  858000    1.1247583   -7.3130645    273.25987  0.026540391  0.026849305            2 
  859000    1.1239161    -7.322727    273.72845  0.026554952  0.026842228            1 
  860000    1.1075216   -7.3752403    273.69744   0.02652107  0.026835206            3 
  861000    1.0953774   -7.2945651    274.84832  0.026601657  0.026828378            3 
  862000    1.1105467   -7.2849076    274.83615   0.02656962  0.026821729            2 
  863000    1.1096925    -7.333237    274.48368  0.026504797  0.026814787            6 
  864000    1.1043846   -7.3650003    273.84903  0.026412908  0.026807535            6 
  865000    1.1220658    -7.333401    274.80558  0.026474526  0.026800048            1 
  866000    1.1228608    -7.321855    274.55161  0.026419516  0.026792543            5 
  867000    1.1113043   -7.3569515     273.9189   0.02632823  0.026785195            4 
  868000    1.1308118   -7.3344636     275.3033  0.026430808  0.026777394            6 
  869000    1.1064666   -7.3489009    274.68801   0.02634139   0.02676962            6 
  870000    1.1205796   -7.3320284    276.02045   0.02643874  0.026761707            3 
  871000    1.1258951   -7.3137724    275.73866  0.026381425  0.026754008            4 
  872000     1.107703   -7.3435054    275.29602   0.02630887  0.026746067            6 
  873000    1.1199064   -7.3099776    276.70686  0.026413408  0.026738353            2 
  874000    1.1121909   -7.3928136    274.84861  0.026206008  0.026730148            6 
  875000    1.0991806   -7.3125866    276.00837  0.026286511  0.026721773            2 
  876000    1.0975369   -7.3819408    274.88064  0.026149224  0.026713237            4 
  877000    1.1013167   -7.3516736    275.69197    0.0261965  0.026704878            3 
  878000    1.1236003   -7.3257288    275.88911  0.026185375  0.026696229            2 
  879000    1.1091845   -7.3487732    275.62405  0.026130456  0.026688084            6 
  880000    1.1185174   -7.3364274    276.75684  0.026208034  0.026679787            3 
  881000    1.1071482     -7.39638    276.41261  0.026145725  0.026671511            5 
  882000    1.0959563   -7.3388515    277.08625  0.026179729   0.02666306            3 
  883000     1.131107   -7.3585022    276.38325  0.026083734  0.026654764            5 
  884000    1.1063528    -7.319767    278.69094   0.02627177  0.026646512            3 
  885000    1.1276822   -7.3806724    278.13043  0.026189306  0.026638425            2 
  886000    1.1233924   -7.3714808     277.3885  0.026089964  0.026630366            4 
  887000    1.1117663   -7.3802493    278.03336  0.026121135  0.026622001            4 
  888000    1.1067418   -7.4048925     277.4593  0.026037847  0.026613781            4 
  889000     1.109345   -7.3468083    279.67882  0.026216612   0.02660563            2 
  890000    1.1051206   -7.3354838    279.28175  0.026149977  0.026597334            3 
  891000    1.0923069   -7.3763011    278.70271  0.026066471  0.026588995            3 
  892000    1.1138205   -7.3312108    280.58404  0.026213008  0.026581068            1 
  893000     1.101435   -7.3426746    280.48555  0.026174463  0.026573252            5 
  894000    1.1179661   -7.3677289    280.64484  0.026160033  0.026565079            2 
  895000    1.1342728   -7.3307903    281.01862  0.026165607  0.026557212            2 
  896000     1.126617   -7.3802663     280.4209  0.026080813  0.026549394            2 
  897000    1.1095889    -7.360774    281.93115  0.026192043   0.02654182            2 
  898000    1.0992343   -7.2955425    282.59486  0.026224467  0.026534437            2 
  899000     1.106351   -7.3158357    282.46654  0.026183402  0.026527218            4 
  900000    1.0929573   -7.3311695    283.97849  0.026294305  0.026519921            4 
  901000    1.1076016    -7.381977    282.93127  0.026168264  0.026512713            3 
  902000    1.1065277   -7.4029322    282.38541  0.026088822  0.026504981            3 
  903000    1.1021473   -7.3787281    283.58279  0.026170431  0.026496914            3 
  904000    1.1139507   -7.3833705    283.65767  0.026148384  0.026489263            4 
  905000    1.1299107   -7.3313527    284.59282    0.0262056  0.026481858            4 
  906000     1.108258   -7.3510913    284.11176  0.026132428   0.02647428            3 
  907000    1.1054662   -7.4237535    283.59632  0.026056259  0.026466711            5 
  908000    1.1138715   -7.3527703    284.02604  0.026067001  0.026459137            3 
  909000    1.0782178   -7.3455665    284.86036  0.026114811  0.026451579            5 
  910000    1.1027687   -7.3401014    285.21793  0.026118858  0.026444166            2 
  911000    1.1106678   -7.3607738     285.4153  0.026108242  0.026436963            4 
  912000    1.1214944   -7.3812406    285.53953  0.026090966  0.026429468            4 
  913000    1.1189858   -7.3817917    285.47086  0.026056121   0.02642205            2 
  914000     1.119634   -7.3900214    287.23308  0.026188282  0.026414744            4 
  915000    1.1091338   -7.3877714    286.68485  0.026109731   0.02640731            3 
  916000     1.100104   -7.4082841    286.09181  0.026027275  0.026399749            3 
  917000    1.0994381   -7.3616029    286.46013  0.026032364  0.026392158            4 
  918000    1.1239278   -7.3485178    287.11447  0.026063405  0.026384845            3 
  919000    1.1199161   -7.3820896    287.84413  0.026101209  0.026377432            3 
  920000    1.1076427   -7.3641235    287.66728  0.026056819  0.026370015            4 
  921000    1.1035717   -7.3377723    287.94987  0.026054096  0.026362468            1 
  922000    1.1072069   -7.3504702    288.48366  0.026074083  0.026354867            3 
  923000    1.1236629   -7.3586862    288.74953  0.026069838  0.026347418            2 
  924000    1.1242785   -7.3589833    287.96471  0.025970844  0.026339881            2 
  925000    1.1073562   -7.3372717    289.07837  0.026043097    0.0263324            3 
  926000    1.1113167   -7.3699793    288.40237  0.025954137  0.026325095            3 
  927000    1.1027159   -7.3935192    288.36922  0.025923159  0.026317514           10 
  928000    1.0843832    -7.372956    290.05243  0.026046375  0.026310149            2 
  929000    1.1406947   -7.3456811    289.80101  0.025995785  0.026302849            3 
  930000    1.0902613   -7.3419488    290.43945   0.02602504  0.026295831            3 
  931000    1.1163416   -7.3087383    291.37642  0.026080954  0.026288519            2 
  932000    1.1091678   -7.3415473    290.89494   0.02600992  0.026281185            4 
  933000    1.1066516   -7.3961899    290.40074  0.025937901  0.026273767            3 
  934000      1.11889   -7.3726822    291.23992  0.025985004   0.02626627            4 
  935000    1.0957875   -7.4263196     290.5624  0.025896827  0.026258795            2 
  936000    1.0747109   -7.3861047     292.0724  0.026003597  0.026251483            2 
  937000    1.0862386   -7.3833481    292.18796  0.025986122  0.026244369            5 
  938000    1.1023498   -7.3943058    291.64357  0.025910054  0.026237247            1 
  939000    1.0981666   -7.4019855      293.199  0.026020501  0.026230173            2 
  940000    1.1036829   -7.3241313     292.5148  0.025932163  0.026223144            5 
  941000    1.1239778   -7.3837746    293.07846  0.025954522  0.026216235            3 
  942000     1.118543   -7.3874167    291.92876  0.025825262  0.026209036            2 
  943000    1.1095418   -7.3684735    293.68149  0.025952765  0.026202022            5 
  944000    1.1124016   -7.3596397    294.16339  0.025967813  0.026195266            2 
  945000    1.1261268   -7.3807044    293.79667  0.025907995  0.026188339            2 
  946000    1.0774547    -7.357921    295.04466  0.025990545  0.026181388            2 
  947000    1.0913723   -7.3844457    294.65655  0.025928947  0.026174475            2 
  948000    1.1006439   -7.3891778    294.03636  0.025847078  0.026167309            5 
  949000     1.104981   -7.3757597    294.03959  0.025820126  0.026160091            3 
  950000    1.0868348   -7.3275303    295.96328  0.025961691  0.026152942            5 
  951000    1.1166043   -7.3839897    294.32847  0.025791138  0.026145433            1 
  952000    1.0870546    -7.390548    294.77755  0.025803357  0.026137797            4 
  953000    1.1006868   -7.3656915    295.18078  0.025811541  0.026130335            6 
  954000     1.111452   -7.3544637     295.9676  0.025853215  0.026122956            3 
  955000    1.0938315   -7.3688503    295.65585   0.02579894  0.026115541            2 
  956000    1.0924885   -7.3881889    295.96065  0.025798522  0.026107841            2 
  957000    1.0782103   -7.3743277    295.52553  0.025733675  0.026100225            3 
  958000     1.092677   -7.3907925    296.04762  0.025752228  0.026092609            2 
  959000    1.0802017   -7.3938877    295.25231  0.025656266  0.026084775            3 
  960000    1.1210933   -7.4381981    295.36021  0.025638907  0.026077011            3 
  961000    1.0810955    -7.400401    295.85926  0.025655503   0.02606907            2 
  962000    1.0878475   -7.3616163    296.94443  0.025722837  0.026061468            4 
  963000    1.1103977   -7.3837038    296.83419  0.025686586  0.026053709            3 
  964000    1.1015551   -7.3962269    296.99107  0.025673502  0.026045829            2 
  965000    1.1335144   -7.3944419     296.4408  0.025599378  0.026038036            3 
  966000    1.0936641   -7.3387749    297.71627  0.025682908  0.026030139            4 
  967000    1.0804249   -7.4038696    297.30087   0.02562055  0.026022469            3 
  968000    1.0656898   -7.3659156    298.27226  0.025677708  0.026014568            1 
  969000    1.0917061    -7.352299    298.90075  0.025705259   0.02600699            4 
  970000    1.0797609   -7.3358975     299.0707  0.025693359  0.025999358            2 
  971000     1.068248   -7.3954751    298.87565  0.025650159  0.025991734            3 
  972000    1.0919546   -7.3814244    299.02864  0.025636886  0.025983894            3 
  973000    1.1009943   -7.3652749    299.42845   0.02564478  0.025976304            3 
  974000    1.0963368   -7.4053339    298.77819  0.025562816  0.025968554            3 
  975000    1.1163927   -7.4079652    299.45415  0.025594372  0.025960671            2 
  976000     1.104038   -7.3816777    299.90589  0.025606718  0.025952801            2 
  977000    1.0896653   -7.4362233    299.00224  0.025503432  0.025944935            8 
  978000    1.1135294   -7.3741373    300.78109  0.025628927  0.025937301            7 
  979000    1.1003657   -7.3692608    301.17557  0.025636327  0.025929717            3 
  980000    1.1039696   -7.4262412    300.46957  0.025550133  0.025922179            3 
  981000    1.0890908   -7.4049516    301.83971  0.025640478   0.02591502            2 
  982000    1.1160502   -7.3201415    303.15429  0.025725924  0.025907918            2 
  983000     1.084373   -7.3759184    302.29798   0.02562716  0.025900752            2 
  984000    1.0874047   -7.4297774    300.93537  0.025485719  0.025893165            3 
  985000    1.0979178   -7.3685415    302.17536  0.025564752  0.025885867            4 
  986000    1.1057705   -7.3793567    303.75836  0.025672613  0.025878766            2 
  987000    1.0977201    -7.412295    303.05804  0.025587473  0.025871623            3 
  988000    1.1162136   -7.3739068    304.15973  0.025654498  0.025864603            5 
  989000    1.0853959   -7.3803279     304.7394  0.025677401  0.025857496            2 
  990000    1.1076038   -7.3827054    304.57565  0.025637681  0.025850497            2 
  991000    1.0925044    -7.406262    305.09881  0.025655803  0.025843472            2 
  992000    1.0961458   -7.3991837    305.02372  0.025623633  0.025836319            2 
  993000    1.0988769   -7.3728221    305.10218  0.025604413  0.025829402            6 
  994000     1.093897   -7.3947176    305.51312  0.025613105   0.02582243            4 
  995000    1.0795118   -7.3824486    305.49676  0.025585994  0.025815236            5 
  996000    1.0788326    -7.410861    305.22263  0.025537369  0.025807822            5 
  997000     1.112351   -7.4222268    304.96665  0.025490358  0.025800351            5 
  998000    1.0758682    -7.378832     305.8852  0.025541516  0.025792798            2 
  999000    1.0899133    -7.426653    305.52181  0.025485636  0.025785548            2 
 1000000    1.1222494   -7.4273405    304.30516  0.025358763  0.025778069            3 
 1001000    1.0985256   -7.3700501    305.85219   0.02546222  0.025770511            5 
 1002000    1.0991342   -7.3742772    306.00633  0.025449628  0.025762947            3 
 1003000    1.1093634   -7.4169596    306.11701   0.02543345  0.025755477            3 
 1004000    1.1079855   -7.3658204    307.39231   0.02551397  0.025747986            4 
 1005000    1.1136135   -7.4338081    306.04524  0.025376886  0.025740532            9 
 1006000    1.0784551   -7.4221613    306.87418  0.025420327  0.025732906            2 
 1007000    1.0768381   -7.4128789    307.25073  0.025426244  0.025725286            2 
 1008000    1.0965764   -7.3943984    307.40437  0.025413721  0.025717737            2 
 1009000    1.0921732   -7.3468473     308.4317  0.025473382  0.025710457            4 
 1010000    1.1100342   -7.4236694       307.72  0.025389439  0.025703102            4 
 1011000     1.090816   -7.4564212    306.95645  0.025301389  0.025695421            4 
 1012000    1.0994891   -7.4257894    307.65248  0.025333703  0.025687886            2 
 1013000     1.088865   -7.4199103    309.19884  0.025435904  0.025680327            2 
 1014000     1.107465   -7.3726896    309.49594  0.025435235  0.025673034            3 
 1015000    1.1074896   -7.3945837    309.70898  0.025427667  0.025665704            4 
 1016000    1.0756955   -7.3429834    309.42094  0.025379014  0.025658258            2 
 1017000    1.1088923    -7.411846    309.05132  0.025323772  0.025650663            3 
 1018000    1.0908138   -7.4030655    309.20164  0.025311202  0.025642917            3 
 1019000    1.0869286   -7.3847187    309.59513  0.025318542  0.025635015            5 
 1020000    1.1067817    -7.448069    308.58661  0.025211325  0.025627109            2 
 1021000    1.0764299   -7.4742736    308.73958  0.025199117   0.02561905            5 
 1022000    1.0728532   -7.4136502    308.61358  0.025164187  0.025610977            5 
 1023000    1.1000433   -7.4255906    309.41614  0.025204965   0.02560281            2 
 1024000    1.0770868   -7.4186089    310.47082   0.02526618  0.025594811            3 
 1025000    1.0809401   -7.4331049    309.19431  0.025137749   0.02558657            6 
 1026000     1.106056    -7.383656    310.31025  0.025203887  0.025578387            2 
 1027000    1.0706722   -7.4325205    309.32311  0.025099246  0.025570385            5 
 1028000    1.0920036   -7.4171014    310.79153  0.025193866  0.025562311            3 
 1029000    1.0758692   -7.4609369    309.49612  0.025064473  0.025553949            4 
 1030000    1.1041686   -7.4421132     311.6087   0.02521106  0.025545767            2 
 1031000    1.0668745   -7.3665586    311.91803  0.025211609  0.025537656            6 
 1032000    1.0970547   -7.4127958    310.94793  0.025108845  0.025529729            6 
 1033000     1.067941   -7.3912341     311.8234  0.025155163  0.025521736            2 
 1034000    1.0832188   -7.3596879    311.89177  0.025136345  0.025513796            3 
 1035000     1.090148   -7.4054532    311.86612  0.025109994  0.025505693            2 
 1036000    1.0884944   -7.4236784    312.02005  0.025098138  0.025497539            7 
 1037000    1.1049883     -7.38686    313.09487  0.025160308  0.025489725            4 
 1038000    1.0812463   -7.4405012    312.61309   0.02509739  0.025482086            2 
 1039000    1.0847278   -7.4260523    312.25239  0.025044305  0.025474037            3 
 1040000    1.0986051   -7.4129066    313.47586  0.025118258  0.025466036           10 
 1041000    1.0951279    -7.383915    313.41735  0.025089445  0.025457991            2 
 1042000    1.0526509   -7.4145473    312.66603  0.025005281  0.025449769            3 
 1043000    1.0864482   -7.4205543    313.99168  0.025087222   0.02544172            6 
 1044000     1.097274   -7.4363422    312.66908  0.024957621   0.02543346            3 
 1045000    1.0795192   -7.4478648    313.26457  0.024981226  0.025425117            3 
 1046000    1.0865945   -7.4199549     313.8011  0.025000087  0.025416841            4 
 1047000    1.0560082   -7.4218446    314.12747  0.025002186  0.025408686            4 
 1048000    1.0834387   -7.3959902    315.24839  0.025067461  0.025400747            2 
 1049000    1.0972213   -7.4185937    315.58998    0.0250707  0.025392702            3 
 1050000    1.0993441   -7.4237642    315.29024  0.025023035  0.025384603            2 
 1051000    1.0882551   -7.4341635    314.77739  0.024958563  0.025376388            4 
 1052000    1.1047207    -7.431484    314.37708  0.024903127  0.025368105            3 
 1053000     1.092341   -7.4179196    314.48136   0.02488773  0.025359832            3 
 1054000    1.1165064   -7.4381391    316.26399  0.025005059  0.025351716            7 
 1055000    1.1034658   -7.4108964    317.01234  0.025040469  0.025343767            7 
 1056000      1.09095   -7.4325146    316.33739  0.024963493   0.02533578            3 
 1057000    1.0595701   -7.4167246    316.34818  0.024940727   0.02532754            5 
 1058000    1.0775563   -7.4409196    317.28286  0.024990774  0.025319458            3 
 1059000    1.0909208    -7.395568     318.3752  0.025053132  0.025311561            3 
 1060000     1.099974    -7.404018    318.16892   0.02501328  0.025303823            3 
 1061000    1.0863985   -7.4256606    317.81579  0.024961969  0.025296112            3 
 1062000    1.0928022   -7.4234209     317.7404  0.024932549  0.025288327            6 
 1063000    1.0851943   -7.4843723    317.15233  0.024862993  0.025280496            6 
 1064000    1.0642082   -7.4265584    318.98381  0.024983068  0.025272802            2 
 1065000    1.0842453   -7.3928604    319.60565  0.025008267  0.025265355            3 
 1066000      1.06804   -7.4179729    319.63111  0.024986797  0.025257721            4 
 1067000    1.0893474   -7.4181793    319.85013  0.024980485  0.025250175            4 
 1068000    1.0690069   -7.4336642    319.25105   0.02491035  0.025242498            2 
 1069000    1.0883424   -7.4805957     319.0013  0.024867579  0.025234913            2 
 1070000    1.0900225   -7.4057014    320.60405  0.024969163  0.025227217            3 
 1071000    1.0905215    -7.430824    321.22764   0.02499437   0.02521978            2 
 1072000    1.1034133   -7.4314672    320.82098  0.024939441  0.025212227            4 
 1073000     1.053124   -7.4192865    320.47208  0.024889102  0.025204457            5 
 1074000    1.0990818   -7.4343652    320.91355  0.024900182  0.025196792            5 
 1075000    1.0776163   -7.4709189    320.29538  0.024829099  0.025189044            8 
 1076000    1.0684742   -7.4601981    321.23313   0.02487865  0.025181141            2 
 1077000    1.0929198    -7.438193    321.35822  0.024865229  0.025173339           12 
 1078000     1.086767   -7.4152931     321.7676   0.02487381  0.025165609            2 
 1079000    1.0717115   -7.4309683    321.08928  0.024798369  0.025158057            7 
 1080000    1.0612946   -7.3906041    322.45474  0.024880767  0.025150271            5 
 1081000    1.0760414   -7.4438718    321.92085  0.024816593  0.025142422           10 
 1082000     1.067426   -7.4338095    321.44201  0.024756779  0.025134486            3 
 1083000     1.089277   -7.4348476     322.5463  0.024818891  0.025126673            5 
 1084000    1.0856285   -7.4247035    323.09689  0.024838322  0.025119052            3 
 1085000    1.0736891   -7.4046158    323.39456  0.024838292  0.025111391            2 
 1086000    1.1038847   -7.4753636    322.71193  0.024763039  0.025103809            3 
 1087000    1.0657069    -7.435985    323.08573  0.024768915  0.025096001            4 
 1088000    1.0930034   -7.4212708    324.26339   0.02483635  0.025088312            6 
 1089000    1.0952818   -7.4743784    323.67316  0.024768378  0.025080581            3 
 1090000    1.0889237   -7.4154893    324.36916  0.024798865  0.025072799            4 
 1091000    1.0533413   -7.3994437    324.12863  0.024757762  0.025065303            2 
 1092000    1.0808319   -7.4298368    325.90941  0.024870987  0.025057786            2 
 1093000     1.103396   -7.4653074    324.04286  0.024705921  0.025050127            2 
 1094000    1.1129263   -7.4119212    326.31298   0.02485626  0.025042608            2 
 1095000    1.0793752   -7.4370854    325.36292  0.024761257  0.025035088            9 
 1096000    1.0554206   -7.4065922    326.05097   0.02479098  0.025027517            2 
 1097000    1.0869505   -7.4445154    326.38124   0.02479347  0.025020058            2 
 1098000    1.0879229    -7.421332    326.40882  0.024772982  0.025012567            3 
 1099000    1.0564535   -7.4431822    325.46715  0.024679038  0.025004964            6 
 1100000    1.0837243   -7.4582195    325.77029  0.024679567  0.024997354            5 
 1101000    1.0612563   -7.3748869    328.14827  0.024837138  0.024989989            2 
 1102000    1.0900752   -7.4949375    326.07922  0.024658138  0.024982639            6 
 1103000    1.0739481   -7.4839611     326.8574  0.024694575   0.02497504            3 
 1104000    1.0764733   -7.4331388    327.49576  0.024720393  0.024967588            3 
 1105000    1.0629901   -7.4750795    327.03252  0.024663086  0.024960087            2 
 1106000       1.0888   -7.4706028    327.79107  0.024697941  0.024952476            2 
 1107000    1.0720316   -7.4459628    328.07409  0.024696935  0.024945024            3 
 1108000    1.0950066   -7.4973925    327.37755  0.024622259  0.024937411            8 
 1109000    1.0522748   -7.4539162    327.87565  0.024637485  0.024929691            3 
 1110000    1.0742296   -7.4579048    328.63312  0.024672156  0.024922219            4 
 1111000    1.0736627   -7.4408377    328.93704  0.024672746  0.024914611            3 
 1112000     1.050566    -7.433033    328.98866  0.024654426  0.024907252            3 
 1113000    1.0591893   -7.4686332    328.59618  0.024602889   0.02489973            2 
 1114000    1.0538985   -7.4468914     329.3954  0.024640589  0.024892205            5 
 1115000      1.10532   -7.4341678    328.63769  0.024561861  0.024884769            5 
 1116000    1.0782768    -7.457634    329.32301  0.024591025  0.024877252            4 
 1117000    1.0623656   -7.4496653     329.5914  0.024589033  0.024869641            4 
 1118000    1.0432013   -7.4430856    330.38058  0.024625863  0.024862073            2 
 1119000    1.0591597    -7.443393    330.46371  0.024610047  0.024854643            2 
 1120000     1.083301   -7.4514564    330.34973  0.024579593   0.02484734            3 
 1121000    1.0762926   -7.4808283    330.16724    0.0245441  0.024839777            3 
 1122000    1.0728845   -7.4730488    330.19258  0.024524107  0.024832276            3 
 1123000    1.0745619   -7.4209421    332.23802  0.024654053  0.024824877           12 
 1124000    1.0699277   -7.4880255    330.71023  0.024518849  0.024817475            6 
 1125000    1.0643239   -7.4661751     331.2181  0.024534674  0.024810036            2 
 1126000    1.0643604   -7.4454971    332.30969  0.024593671  0.024802606            2 
 1127000    1.0728682   -7.4730714    331.77074  0.024531998  0.024795063            2 
 1128000    1.0890001   -7.4586555    333.02564  0.024602958  0.024787514            5 
 1129000    1.0601661   -7.4499744    331.68635  0.024482311  0.024779931            2 
 1130000    1.0815429    -7.508248    331.47145  0.024444797  0.024772356            4 
 1131000    1.0923136   -7.4384827    332.99389  0.024535359  0.024764661            3 
 1132000    1.0559416   -7.4419662    333.09875  0.024521404   0.02475708            2 
 1133000    1.0709364   -7.4645086    331.99522  0.024418595  0.024749381            4 
 1134000    1.0701777   -7.3960746    332.90396  0.024463842  0.024741653            3 
 1135000    1.0633344   -7.4599358    332.50473  0.024412976  0.024733776            5 
 1136000    1.0760541   -7.4481142    332.55596  0.024395244  0.024725912            4 
 1137000    1.0566281   -7.4794535     332.3351    0.0243576   0.02471798            3 
 1138000    1.0847543   -7.5101622    332.37892  0.024339405  0.024710018            2 
 1139000    1.0734035   -7.4767693    331.85434  0.024279656  0.024702026            3 
 1140000    1.0682088   -7.4642271    333.16609  0.024354246  0.024694029            8 
 1141000    1.0639966   -7.4725022    333.77455  0.024377341  0.024686091            2 
 1142000    1.0617068   -7.4859156    333.14438   0.02431001  0.024678207            4 
 1143000    1.0402504   -7.4847552    333.11821  0.024286834    0.0246703            4 
 1144000    1.0588194   -7.5008816    333.48932  0.024292637  0.024662536            4 
 1145000    1.0799197   -7.4506923    335.28724  0.024402274  0.024654785            2 
 1146000    1.0764862   -7.4465641    334.97202  0.024358058  0.024646982            3 
 1147000    1.0602865   -7.4762111    334.08709  0.024272529  0.024639036            2 
 1148000    1.0650493   -7.4554663    335.63303  0.024363605  0.024631051            3 
 1149000    1.0752904   -7.4903482     334.6409  0.024270445  0.024623143            7 
 1150000    1.0655002   -7.5161465    333.94126  0.024198642  0.024615195            3 
 1151000    1.0787044   -7.4462388    335.39519  0.024282884  0.024607138            2 
 1152000    1.1023227   -7.4714711    335.65924  0.024280905  0.024599056            6 
 1153000    1.0681161   -7.4767547    335.05138  0.024215914  0.024591047            3 
 1154000    1.0668465   -7.4733261    335.60192  0.024234685  0.024583296            3 
 1155000     1.058126   -7.4607321    336.38165  0.024269961  0.024575359            5 
 1156000    1.0489637   -7.4458442    336.78859  0.024278301  0.024567586            3 
 1157000    1.0603361   -7.4733134     335.8897  0.024192574  0.024559612            1 
 1158000     1.068274   -7.5059944    335.48435  0.024142512   0.02455159            4 
 1159000    1.0593127    -7.460305    336.53771  0.024197419  0.024543736            5 
 1160000    1.0660108   -7.4314636    337.24408  0.024227305  0.024535651            4 
 1161000    1.0827868   -7.4984081    336.87353   0.02417984  0.024527718            4 
 1162000    1.0769486   -7.4430102    337.29186  0.024189032  0.024519911            3 
 1163000     1.068841    -7.484362    337.88346  0.024210624  0.024511887            6 
 1164000    1.0628517   -7.4361214    337.89793   0.02419086  0.024503864            2 
 1165000    1.0871909   -7.4613112    336.94877  0.024102201  0.024495933            3 
 1166000    1.0728482   -7.4620851    337.12894  0.024094407  0.024487996            3 
 1167000    1.0732422   -7.4390355    336.98081  0.024063182  0.024479923            4 
 1168000    1.0950388   -7.5082389    337.47602  0.024077913  0.024471685            2 
 1169000    1.0632649   -7.5302971    337.39204  0.024051329  0.024463328            6 
 1170000    1.0476003   -7.4726487    337.67445  0.024050887  0.024455024            2 
 1171000    1.0878798   -7.4484345    338.40078  0.024082037  0.024446699            2 
 1172000    1.0360786     -7.50302    336.94201  0.023957765  0.024438276            5 
 1173000    1.0571693   -7.4947051    339.11985  0.024092061  0.024429764            2 
 1174000    1.0588797   -7.5024675    338.11376  0.024000125  0.024421459            7 
 1175000    1.0688895   -7.4717812    339.16339  0.024054141  0.024413324            3 
 1176000    1.0713709   -7.4774964    339.11615  0.024030339  0.024405128            8 
 1177000    1.0668623   -7.4195611     339.6097  0.024044867  0.024396869            3 
 1178000    1.0539743   -7.4973213    339.26666  0.024000188   0.02438856            4 
 1179000    1.0497191    -7.511999    339.63548  0.024005901    0.0243802            4 
 1180000    1.0682648   -7.4342653    340.81022  0.024068519   0.02437226            4 
 1181000    1.0526537   -7.4753424     340.7456  0.024043579  0.024364245            5 
 1182000    1.0565018   -7.4743414    340.86974   0.02403199  0.024356356            7 
 1183000    1.0464381   -7.4539721    341.65537  0.024067017  0.024348572            3 
 1184000    1.0697529   -7.4706167    341.98242  0.024069709  0.024340893            5 
 1185000    1.0703559   -7.4305087    342.15684  0.024061662  0.024333253            3 
 1186000    1.0515373   -7.4704008    342.00585  0.024030765  0.024325449            2 
 1187000    1.0735177   -7.4439233    343.72647  0.024131316   0.02431758            4 
 1188000    1.0518052     -7.48212    342.37441  0.024016163  0.024309811            3 
 1189000    1.0673278   -7.4612157    342.86864  0.024030603  0.024301842            3 
 1190000    1.0639288   -7.4864253    341.69604  0.023928294  0.024293914            5 
 1191000    1.0757365   -7.4791119    341.92805  0.023924437  0.024285698            8 
 1192000    1.0572836   -7.4659399    342.67353  0.023956483   0.02427782            5 
 1193000    1.0693883   -7.4886134    342.72867  0.023940253  0.024269798            5 
 1194000    1.0567208   -7.4879762     344.8151  0.024065822  0.024261913            5 
 1195000    1.0719879   -7.5529703    341.74977  0.023831922  0.024253768            3 
 1196000    1.0717512    -7.523952    342.54825  0.023867632  0.024245681            3 
 1197000    1.0506894   -7.5001717    343.11877  0.023887411  0.024237602            2 
 1198000    1.0583054   -7.4462733    344.46116  0.023960849  0.024229514            4 
 1199000    1.0580351   -7.4526536    344.76462  0.023961956  0.024221447            2 
 1200000     1.067904   -7.4784171    344.73076  0.023939636  0.024213319            2 
 1201000    1.0740524   -7.4957058    344.24161  0.023885763  0.024205324            6 
 1202000    1.0660278   -7.5009779    343.66104   0.02382564  0.024197377            4 
 1203000    1.0551599   -7.4929116     345.2026  0.023912621  0.024189427            3 
 1204000    1.0612426    -7.468666    345.59072  0.023919623  0.024181449            3 
 1205000     1.065948   -7.5032243     345.7513  0.023910878  0.024173566            2 
 1206000    1.0485007   -7.4965824    344.71963  0.023819764  0.024165636            5 
 1207000    1.0364859   -7.5194217    344.74218  0.023801587  0.024157703            2 
 1208000    1.0808066     -7.45147    346.99706  0.023937435  0.024149848            2 
 1209000    1.0430875   -7.4456462    346.47427  0.023881601  0.024142068            2 
 1210000     1.055434   -7.4827315     347.3626  0.023923044  0.024134182            7 
 1211000    1.0485333   -7.4865592    345.25716  0.023758406  0.024126395            3 
 1212000    1.0611224   -7.4947023    347.07897  0.023864065  0.024118503            4 
 1213000    1.0487903   -7.5182158    345.46607  0.023733586  0.024110678            5 
 1214000    1.0313112   -7.5303866    346.24931    0.0237678  0.024102557            1 
 1215000    1.0758109   -7.5145297    346.88848  0.023792077  0.024094628           10 
 1216000    1.0496679   -7.4832159    347.08763  0.023786159  0.024086757            2 
 1217000    1.0362126   -7.5240065    346.44993  0.023722948  0.024078769            2 
 1218000    1.0454628   -7.4402314    347.27523  0.023759936  0.024070663            7 
 1219000    1.0673517   -7.4949802     348.6678  0.023835644  0.024062765            2 
 1220000    1.0837187   -7.5164773    347.69976  0.023749984   0.02405485            2 
 1221000    1.0640815    -7.534225    347.03638  0.023685257  0.024046962            4 
 1222000    1.0559927   -7.4646532    348.19439  0.023744844  0.024039064            2 
 1223000    1.0650394   -7.4897799    348.43357  0.023741726   0.02403119            4 
 1224000    1.0601762   -7.4959093    347.92365  0.023687612  0.024023296            4 
 1225000    1.0379037   -7.5338754    348.62665  0.023716099  0.024015377            3 
 1226000    1.0769209   -7.5385479    347.90323  0.023647582  0.024007314            4 
 1227000    1.0260182   -7.5331746    347.95303  0.023631692  0.023999149            4 
 1228000    1.0600499   -7.5435509    348.21868  0.023630475  0.023990947            6 
 1229000    1.0451857   -7.4874791     348.7921  0.023650129  0.023982903            9 
 1230000    1.0702893    -7.502755    350.36116  0.023737206  0.023975056            5 
 1231000    1.0703753   -7.4784972    350.00718   0.02369396    0.0239673            4 
 1232000    1.0554014   -7.4762961    350.52408  0.023709691  0.023959769            4 
 1233000    1.0421961   -7.4552594    351.30532  0.023743263  0.023952211            4 
 1234000    1.0756853    -7.474004    351.21821  0.023718139  0.023944537            7 
 1235000    1.0485906   -7.5239207    350.44255  0.023646596  0.023936857            4 
 1236000    1.0593375   -7.5183161    350.85452   0.02365524  0.023929012            6 
 1237000    1.0585188   -7.5004043    350.76043  0.023629778  0.023921225            2 
 1238000      1.06588   -7.5339762    351.09022   0.02363289  0.023913432            2 
 1239000     1.052498   -7.5433438    351.14599  0.023617567  0.023905563           11 
 1240000    1.0299273    -7.494042    351.82472  0.023644134  0.023897924            3 
 1241000    1.0547596   -7.4876915    351.22114  0.023584551   0.02389026            4 
 1242000    1.0580785   -7.4851059    351.09591   0.02355716  0.023882522            2 
 1243000    1.0542202   -7.5174504    351.69287  0.023578229  0.023874617            4 
 1244000    1.0289359   -7.5071073    351.60387  0.023553314  0.023866671            4 
 1245000    1.0461193   -7.5033713    353.34208  0.023650742  0.023858824            4 
 1246000    1.0608238   -7.5240408     352.7689  0.023593426  0.023851142            2 
 1247000    1.0452778   -7.5566591    352.45509  0.023553534  0.023843518            5 
 1248000    1.0481973   -7.5236667    353.23109  0.023586478  0.023835865            2 
 1249000     1.042408   -7.5105468     354.1722  0.023630384  0.023828174            2 
 1250000     1.049598    -7.473569    354.25242  0.023616828  0.023820542            7 
 1251000    1.0372394   -7.5330184    353.92041  0.023575833  0.023812739            4 
 1252000    1.0573974   -7.5617647    352.92485  0.023490738  0.023804912            4 
 1253000    1.0512239   -7.5424738    354.34117  0.023566186   0.02379721            3 
 1254000    1.0632777    -7.509946    355.30711  0.023611584  0.023789559            2 
 1255000    1.0232355   -7.5412297    353.34144  0.023462247  0.023781816            2 
 1256000    1.0243861   -7.4955873    355.35604  0.023577232  0.023774031            5 
 1257000    1.0563756    -7.501259     354.9409  0.023530953  0.023766253            4 
 1258000    1.0621078   -7.4779998    355.80177  0.023569274  0.023758565            5 
 1259000    1.0410514   -7.5243569    355.63935  0.023539803  0.023750881            3 
 1260000    1.0348241   -7.5111475    355.91059   0.02353906  0.023743402            2 
 1261000    1.0323675   -7.4868405    356.83755  0.023581652  0.023735883            4 
 1262000    1.0436141   -7.5117296    356.01787   0.02350884  0.023728353            4 
 1263000    1.0486831   -7.5440331    356.20071   0.02350229  0.023720856            2 
 1264000    1.0789173   -7.5650458    355.22951  0.023419667  0.023713242            2 
 1265000    1.0439113   -7.5589881    355.30862  0.023406365  0.023705589            8 
 1266000    1.0651497   -7.5395957    357.47303  0.023530347  0.023698024            1 
 1267000    1.0653556   -7.5144657    357.00543   0.02348102  0.023690561            7 
 1268000    1.0647847   -7.5463163    357.24944  0.023478538   0.02368294            2 
 1269000    1.0658747   -7.5100667    356.81473   0.02343149  0.023675291            4 
 1270000    1.0673502    -7.536065    357.09288  0.023431292  0.023667695            5 
 1271000    1.0346128   -7.5578445    356.29683  0.023360663  0.023660011            8 
 1272000    1.0375803   -7.5310588    357.31199  0.023408805  0.023652301            3 
 1273000    1.0491758   -7.5357914    357.79991  0.023422356  0.023644466            3 
 1274000     1.058703   -7.5101451    358.17923  0.023428783  0.023636897            3 
 1275000    1.0373988   -7.5332319    358.71494  0.023445421  0.023629259            3 
 1276000    1.0135401   -7.4851905    359.13219  0.023454297   0.02362175            3 
 1277000    1.0479458   -7.5284938    358.18712  0.023374257  0.023614095            2 
 1278000    1.0645873   -7.5442483    358.77045  0.023394004  0.023606441            4 
 1279000     1.052442    -7.540243     358.4081  0.023352104  0.023598766            2 
 1280000    1.0498156   -7.5432109    358.65942  0.023350223  0.023591106            4 
 1281000    1.0430164    -7.532931    359.71248    0.0234005  0.023583528            2 
 1282000    1.0520936   -7.5301419    360.37172  0.023425099  0.023575834            4 
 1283000    1.0236795   -7.4933703    360.97479  0.023446011  0.023568238            2 
 1284000    1.0517869   -7.5099002    360.23653  0.023379837  0.023560717            3 
 1285000    1.0561346   -7.4950118     361.8694  0.023467536   0.02355317            3 
 1286000    1.0772087   -7.4850573    361.77532  0.023443191  0.023545722            2 
 1287000    1.0463972   -7.4895049    361.42741  0.023402448  0.023538279            6 
 1288000     1.034121   -7.5176743    360.87937   0.02334882  0.023530853            3 
 1289000    1.0556326   -7.5213952    361.02763  0.023340292  0.023523421            3 
 1290000    1.0438175   -7.5196867    361.05524  0.023323982  0.023515884            3 
 1291000    1.0430144   -7.4963847    361.66755  0.023345439  0.023508389            3 
 1292000    1.0453054    -7.538271    361.87944  0.023341037  0.023500859            5 
 1293000     1.042665   -7.5219546    360.69221  0.023246469  0.023493374            5 
 1294000    1.0226765   -7.5034702    361.87076  0.023304403   0.02348598            1 
 1295000    1.0568154   -7.5671655    360.34672  0.023188334  0.023478446            4 
 1296000    1.0496213   -7.5480813    362.02043  0.023278063  0.023470945            3 
 1297000    1.0500652   -7.5158482    363.34477  0.023345205  0.023463627            5 
 1298000    1.0351097   -7.5145214    363.37726  0.023329305  0.023456328            5 
 1299000     1.041414   -7.5434264    363.05059  0.023290389  0.023449081            4 
 1300000    1.0750678   -7.5573302    362.97469  0.023267608  0.023441781           10 
 1301000    1.0666035   -7.5391215    363.03263  0.023253435   0.02343438            2 
 1302000     1.071976   -7.4782488    363.69813   0.02327817  0.023427095            4 
 1303000    1.0676245   -7.5332854    363.18842  0.023227706  0.023419851            4 
 1304000    1.0390501    -7.524469    364.23297  0.023276647   0.02341256            3 
 1305000    1.0440313   -7.5364536    363.31783  0.023200372   0.02340524            1 
 1306000    1.0463469   -7.5625962    364.15748  0.023236185  0.023397914            2 
 1307000    1.0362327   -7.5485274    363.94689  0.023204979  0.023390524            6 
 1308000    1.0698169   -7.5379744    365.04653  0.023257297  0.023383067            4 
 1309000    1.0438384   -7.5109885    364.90381  0.023230444  0.023375831            3 
 1310000    1.0384508   -7.5285498    365.21976  0.023232809  0.023368584            9 
 1311000    1.0274579     -7.56435    364.21051  0.023150935   0.02336126            4 
 1312000     1.055907   -7.5553434    364.15214  0.023129582   0.02335377            4 
 1313000    1.0365125   -7.5261442    364.06198  0.023106244  0.023346259            2 
 1314000    1.0531818   -7.5407857    365.50879  0.023180415  0.023338831            3 
 1315000    1.0562293   -7.5558076    365.34654  0.023152506  0.023331342            3 
 1316000    1.0476233   -7.5090249     366.3293  0.023197144  0.023323934            4 
 1317000    1.0422898   -7.4999141    366.11498   0.02316597   0.02331666            6 
 1318000    1.0592056   -7.5178944    366.41796  0.023167549  0.023309425            3 
 1319000    1.0308805   -7.5504526    366.87319  0.023178746  0.023302094            4 
 1320000    1.0540153   -7.5223589    367.79423  0.023219333  0.023294848            3 
 1321000    1.0515765   -7.5443409    365.47366  0.023055366   0.02328747            3 
 1322000    1.0299948   -7.5304189     367.1077  0.023140929  0.023280109            4 
 1323000    1.0198504   -7.4820743    367.13324  0.023125046  0.023272866            1 
 1324000    1.0396184   -7.5012734    368.64138  0.023202504  0.023265728           17 
 1325000    1.0600079    -7.504871    367.91362  0.023139222  0.023258571            6 
 1326000    1.0363412   -7.5370825    368.22361  0.023141252  0.023251456            2 
 1327000    1.0365674   -7.5567251    367.57297  0.023082954  0.023244341            4 
 1328000    1.0523992   -7.5329736    368.63012   0.02313191  0.023237202            4 
 1329000    1.0377114   -7.5262597    367.85336  0.023065799  0.023230004            2 
 1330000    1.0383333   -7.5390623    368.19777  0.023070036  0.023222674            8 
 1331000    1.0434614    -7.514932    369.54403  0.023136991  0.023215409            3 
 1332000    1.0089187   -7.5658344    367.78663  0.023009674  0.023208133            5 
 1333000     1.037703   -7.5443482    368.57804  0.023041888   0.02320075            7 
 1334000    1.0163463   -7.5666438     368.7251  0.023033802  0.023193301            8 
 1335000    1.0378685   -7.5573496    368.46203  0.023000127  0.023185935            4 
 1336000    1.0252405   -7.5711766    368.24284  0.022969239   0.02317854            8 
 1337000     1.044437    -7.556561    369.38035  0.023022958  0.023171236            3 
 1338000    1.0582428   -7.5177143    370.02783  0.023046078  0.023163961            3 
 1339000    1.0337385   -7.5233107     369.7626   0.02301236  0.023156812            3 
 1340000     1.059504   -7.5371301     369.9487   0.02300676  0.023149599            3 
 1341000     1.037207   -7.5645031    371.83173   0.02310662  0.023142434            1 
 1342000    1.0382711   -7.5409231     370.3949   0.02300018  0.023135195            3 
 1343000    1.0267206   -7.5595544    370.31049  0.022977816  0.023127962            4 
 1344000    1.0605976    -7.551909    371.78438  0.023052107  0.023120592            4 
 1345000    1.0551939   -7.6103117    371.03545  0.022988565  0.023113146            2 
 1346000    1.0398439   -7.5451632    371.39729  0.022993888  0.023105864            6 
 1347000    1.0452931    -7.561786    371.13049  0.022960312  0.023098666            2 
 1348000    1.0402125   -7.5677078    371.45995  0.022963647  0.023091538            2 
 1349000    1.0386044   -7.5010791    372.85739   0.02303295  0.023084567            4 
 1350000    1.0546002   -7.5771209     374.0554   0.02308984  0.023077666            2 
 1351000    1.0545273   -7.5398518    374.42299  0.023095423  0.023070795            3 
 1352000    1.0284796    -7.529798    374.25889  0.023068225  0.023064006            2 
 1353000    1.0041445   -7.5687546      373.804  0.023023159  0.023057134            3 
 1354000    1.0361471   -7.5389187    374.02182  0.023019561  0.023050138            3 
 1355000    1.0459547   -7.5983386     373.6142  0.022977503  0.023043246            2 
 1356000    1.0488043   -7.5576693    374.97084  0.023043931  0.023036365            3 
 1357000    1.0300346   -7.6150098     372.6536  0.022884648  0.023029334            2 
 1358000    1.0571006   -7.5354869    375.21292  0.023024848  0.023022453            3 
 1359000     1.032139   -7.5335512    375.30998  0.023013857  0.023015761            4 
 1360000    1.0475798   -7.5376016    376.60982  0.023076582  0.023009174            3 
 1361000    1.0547898   -7.5768335     374.6631   0.02294043  0.023002346            3 
 1362000    1.0381145   -7.5455857    375.38643  0.022967843  0.022995568            3 
 1363000    1.0477993   -7.5456859    375.61679  0.022965077  0.022988798            3 
 1364000    1.0308129   -7.5161691    376.24812  0.022986811  0.022982075            4 
 1365000    1.0149958   -7.5601643     376.2289  0.022968797  0.022975265            2 
 1366000     1.029684   -7.5592774    376.35277   0.02295954  0.022968506            2 
 1367000    1.0391629   -7.5442786    376.65246  0.022961013  0.022961922            3 
 1368000     1.019672   -7.5254779    376.87936  0.022958051   0.02295508            2 
 1369000    1.0186389   -7.5829817     377.3779  0.022971628  0.022948324            3 
 1370000    1.0356122   -7.5225479    377.39924  0.022956158  0.022941591            2 
 1371000    1.0369436   -7.5368727    377.78381  0.022962789  0.022934848            2 
 1372000    1.0362719   -7.5660538    377.44533  0.022925494   0.02292817            3 
 1373000    1.0576142   -7.5836091    376.16578  0.022831135  0.022921287            1 
 1374000    1.0284257   -7.5534914     376.9596  0.022862664   0.02291442            3 
 1375000    1.0075388   -7.5323163    377.57029  0.022883048  0.022907532            4 
 1376000     1.021775    -7.560479    376.59312  0.022807239  0.022900656            3 
 1377000    1.0283428   -7.5797877     376.4183  0.022780096  0.022893768            6 
 1378000    1.0354788   -7.6549532     377.2026  0.022810994  0.022886795            6 
 1379000     1.025221    -7.648754    375.79492  0.022709386   0.02287959            8 
 1380000    1.0473977   -7.5643931    377.37359   0.02278826  0.022872642            3 
 1381000     1.030669   -7.5514747    379.58522  0.022905215  0.022865804            2 
 1382000    1.0379029   -7.5609168    379.06254  0.022857123  0.022859014            4 
 1383000    1.0254775   -7.5682607    379.10964  0.022843435  0.022852302            2 
 1384000    1.0175839   -7.5771944     379.1376  0.022828613  0.022845422            2 
 1385000    1.0360282   -7.5400829    378.95161  0.022800939  0.022838555            2 
 1386000    1.0150126   -7.5592068    378.82364  0.022776794  0.022831751            6 
 1387000    1.0119515   -7.6115728    377.57817  0.022685543  0.022824841            5 
 1388000    1.0330595   -7.5138379    379.30252  0.022772726  0.022817802            2 
 1389000    1.0188891   -7.5498403    380.11032  0.022804795  0.022810977            4 
 1390000    1.0096838   -7.5661963    380.32485   0.02280125  0.022804145            5 
 1391000    1.0184864   -7.5528784    380.04346     0.022768  0.022797254            8 
 1392000    1.0268641   -7.5883599    379.21861  0.022702264   0.02279035            4 
 1393000    1.0354508   -7.5944372    379.39711  0.022696644   0.02278343            4 
 1394000    1.0301686   -7.5853695    380.18365  0.022727383  0.022776467            2 
 1395000    1.0283585   -7.5674135    380.49107  0.022729455  0.022769514            4 
 1396000     1.042754   -7.5593439    380.95435  0.022740828  0.022762597            5 
 1397000    1.0286337    -7.579112    379.86221  0.022659401  0.022755812            2 
 1398000    1.0247775   -7.6086307    380.90416  0.022705303  0.022748975            2 
 1399000    1.0192678   -7.5635883    381.84785  0.022745285  0.022742249            3 
 1400000    1.0574333   -7.5736873    380.99158   0.02267807  0.022735476            2 
 1401000    1.0380721   -7.5906657    380.86744  0.022654499   0.02272861            3 
 1402000    1.0352517    -7.534752    381.86843  0.022697838  0.022721654            4 
 1403000    1.0303029   -7.5177829    382.20259  0.022701508  0.022714656            2 
 1404000    1.0403978   -7.5828683    381.57501  0.022648089  0.022707703            9 
 1405000    1.0064686   -7.5969757    380.63314  0.022576105  0.022700618            4 
 1406000    1.0350009   -7.5551604    382.47383  0.022669146  0.022693536            3 
 1407000    1.0262912    -7.550102    381.78477  0.022612223  0.022686534            3 
 1408000     1.046271   -7.5607798    382.00386   0.02260913  0.022679538            4 
 1409000    1.0193355   -7.6075587    381.09886  0.022539559  0.022672424            4 
 1410000    1.0421109     -7.54547    382.51581  0.022607317  0.022665314            3 
 1411000    1.0486111   -7.5912817      382.481  0.022589239  0.022658306            3 
 1412000    1.0180404   -7.5926802    383.17697  0.022614316  0.022651233            3 
 1413000    1.0041996   -7.5974201    382.56134  0.022562004  0.022644108            3 
 1414000    1.0289002   -7.5701937    383.13471  0.022579839  0.022636997            8 
 1415000    1.0055402    -7.563645    382.16418  0.022506725  0.022630012            3 
 1416000    1.0226398   -7.5745451    383.66349  0.022579066  0.022622964            4 
 1417000    1.0110615   -7.5875298    383.41004  0.022548226  0.022615971            7 
 1418000    1.0520862   -7.5984321    382.99727  0.022508067  0.022608989            4 
 1419000    1.0153128   -7.6172265    383.81108  0.022539998  0.022601905            9 
 1420000    1.0141967   -7.5890618    383.38599  0.022499178  0.022594817            3 
 1421000    1.0263897   -7.6076774    383.66064  0.022499451  0.022587818            5 
 1422000    1.0207144   -7.5631233    384.40634  0.022527329  0.022580808            3 
 1423000    1.0318767   -7.5738445     384.5507  0.022519952  0.022573914            5 
 1424000    1.0178432   -7.5965863     384.5241  0.022502581  0.022566922            4 
 1425000    1.0216335    -7.638704    384.24883  0.022470692  0.022559799            2 
 1426000    1.0145924   -7.6196563    384.79055  0.022486591  0.022552704            5 
 1427000    1.0243273   -7.5643761    385.28911  0.022499948  0.022545595            6 
 1428000    1.0138932   -7.5792201     385.5697  0.022500566  0.022538566            3 
 1429000    1.0316861   -7.5792707     386.0931  0.022515343  0.022531637            3 
 1430000     1.000997   -7.5891289    384.86783  0.022428195  0.022524601            2 
 1431000    1.0191978   -7.6230708     385.6889  0.022460337  0.022517601            2 
 1432000    1.0350927   -7.6271038    384.92624   0.02240027  0.022510535            3 
 1433000    1.0233811   -7.5837357    385.57103  0.022422135  0.022503429            4 
 1434000    1.0225451   -7.5559784    386.40673  0.022455063  0.022496421            3 
 1435000    1.0095629   -7.5874086     386.3811  0.022437927  0.022489472            3 
 1436000    1.0315369   -7.6451473      384.931   0.02233815   0.02248251            4 
 1437000    1.0232549   -7.5754792    386.52786  0.022415209  0.022475442            4 
 1438000    1.0238544   -7.5894686    386.21914  0.022381731  0.022468471            4 
 1439000    1.0227446   -7.6291842    385.56812  0.022328476  0.022461437            5 
 1440000    1.0464009   -7.5961535    386.23059  0.022351308  0.022454268            4 
 1441000    1.0367515   -7.6039998    387.00489  0.022380575   0.02244713            5 
 1442000    1.0329575    -7.611331    387.48564  0.022392836  0.022439996            2 
 1443000    1.0369158   -7.6015392    386.58633  0.022325383  0.022432787            6 
 1444000    1.0353924   -7.6193099    386.71079  0.022317105  0.022425578            4 
 1445000    1.0134569   -7.5961079    386.86128  0.022310339   0.02241837            3 
 1446000    1.0392587   -7.6093563    386.85352  0.022294463  0.022411211            3 
 1447000     1.025105   -7.5808469    387.51529  0.022317167  0.022404129            2 
 1448000    1.0440903   -7.5608146    387.89219  0.022323445   0.02239705            6 
 1449000    1.0255975    -7.588443    387.44038  0.022282056  0.022389875            2 
 1450000    1.0131088   -7.5993612    387.03286  0.022243268  0.022382648            4 
 1451000   0.98936128   -7.5733112    387.65318  0.022263564   0.02237534            6 
 1452000     1.009896   -7.6274074    386.76167  0.022197065  0.022368158            3 
 1453000    1.0305046    -7.607976    387.42479  0.022219821  0.022360923            2 
 1454000    1.0392623   -7.6499295    387.42233  0.022204398  0.022353634            2 
 1455000    1.0125687   -7.5753056    388.48076  0.022249757  0.022346482            2 
 1456000    1.0076262   -7.5705171    388.36243  0.022227703  0.022339457            3 
 1457000    1.0217915   -7.5683829    389.73523  0.022290965  0.022332314            2 
 1458000    1.0053567   -7.5836404    389.57543  0.022266543  0.022325232            3 
 1459000    1.0324715   -7.6152854    388.33513  0.022180439  0.022318237            3 
 1460000    1.0400037   -7.6419405    388.79132  0.022191285  0.022311155            2 
 1461000    1.0332752    -7.598193    390.12501  0.022252168  0.022304028            5 
 1462000    1.0295869   -7.6440652    389.69128  0.022212225  0.022296966            4 
 1463000    1.0051994   -7.5863907    389.68313  0.022196578  0.022289969            2 
 1464000    1.0243253   -7.5980397    390.73934  0.022241538  0.022283051            4 
 1465000    1.0318034   -7.6065791    390.96648  0.022239276  0.022276066            3 
 1466000    1.0387308    -7.597241    390.14079  0.022177171  0.022269121            4 
 1467000    1.0197778   -7.5769938    391.16677  0.022220335  0.022262109            5 
 1468000    1.0408656   -7.5795537    392.02021  0.022253645  0.022255255            1 
 1469000   0.99047198   -7.5802089    391.47656  0.022207656    0.0222483            3 
 1470000   0.99535797   -7.6104374    391.06929  0.022169461  0.022241275            4 
 1471000    1.0313073   -7.6275475    391.36533  0.022171161  0.022234263            3 
 1472000    1.0203186   -7.5964788    392.58721  0.022225272  0.022227339            7 
 1473000    1.0233474   -7.6303486    391.61813   0.02215536  0.022220317            2 
 1474000     1.026467   -7.6291356    392.40377  0.022184745  0.022213208            5 
 1475000    1.0115734   -7.6142453    392.43898  0.022171694  0.022206253            7 
 1476000    1.0244781   -7.5958343    392.21262  0.022143892  0.022199198            3 
 1477000    1.0049006   -7.6174414    392.23799  0.022130331  0.022192228            4 
 1478000    1.0093998   -7.5875791    393.74255  0.022200189  0.022185281            8 
 1479000    1.0081329   -7.5929885    393.14073  0.022151269  0.022178314            3 
 1480000    1.0153718   -7.6286598    393.45199  0.022153829  0.022171443            5 
 1481000    1.0066023   -7.5967624    393.96234  0.022167586  0.022164512            2 
 1482000     1.016207   -7.6368302    391.80738  0.022031454  0.022157564            6 
 1483000    1.0188446    -7.619906    393.47666  0.022110399  0.022150439            3 
 1484000    1.0262867    -7.616036    393.82069  0.022114819  0.022143486            4 
 1485000    1.0088995   -7.6173474    392.67048  0.022035381  0.022136424            9 
 1486000   0.98421401   -7.6375371    392.74882  0.022024945  0.022129386            4 
 1487000    1.0187003    -7.618567    392.79381  0.022012655   0.02212224            4 
 1488000    1.0098735   -7.6129819    392.98236  0.022008421  0.022115127            6 
 1489000    1.0163693   -7.6299311    393.67351  0.022032321  0.022108056            3 
 1490000    1.0242235   -7.6515386    393.27385  0.021995182  0.022100896            7 
 1491000    1.0081073   -7.6113747    393.79481  0.022009547  0.022093802            7 
 1492000    1.0221454   -7.6035027    395.17912  0.022072113   0.02208683            2 
 1493000    1.0212567    -7.597814    395.56153  0.022078674  0.022079837            4 
 1494000    1.0126328   -7.6045835    394.16404  0.021985946  0.022072773            2 
 1495000     1.034147   -7.6561727    392.43321  0.021874761  0.022065613            4 
 1496000    1.0141211   -7.6767996    392.68416  0.021874118  0.022058325            7 
 1497000    1.0099595   -7.6051185     393.8448  0.021924115  0.022051083            4 
 1498000      1.01328   -7.6000811    393.43823  0.021886862  0.022043886            4 
 1499000    1.0298274   -7.6026902    394.37333  0.021924246  0.022036698            7 
 1500000    1.0354724   -7.5818346    394.15342  0.021897412  0.022029449            3 
 1501000    1.0034353   -7.6744406    393.89785  0.021868635  0.022022193            4 
 1502000    1.0282013   -7.6278739    393.86689  0.021852358  0.022014861            4 
 1503000   0.99512181   -7.6151148    394.39678  0.021867198  0.022007508            7 
 1504000    1.0191271   -7.6402436    394.32212  0.021848522  0.022000203            4 
 1505000    1.0265562   -7.6462204    394.58844  0.021848751  0.021992833            3 
 1506000   0.99071664   -7.6041193    395.73747  0.021897824  0.021985488            5 
 1507000   0.99821319   -7.6207113     395.0591  0.021845781  0.021978162           12 
 1508000    1.0221179    -7.633638    393.28814  0.021733429  0.021970826            3 
 1509000   0.99858746    -7.704961    394.64292  0.021793844  0.021963323            3 
 1510000    1.0152658   -7.6596728    393.91855  0.021739434  0.021955723            4 
 1511000   0.99556549   -7.6092952    394.18921  0.021739974  0.021948196            7 
 1512000    1.0125194   -7.6334648    395.64303  0.021805722  0.021940675            2 
 1513000    1.0205354   -7.6139623    396.31292  0.021828207  0.021933318            4 
 1514000    1.0210103   -7.6262919    395.63697  0.021776584    0.0219259            4 
 1515000    1.0022642    -7.646156    394.06168   0.02167556  0.021918447            4 
 1516000    1.0237933   -7.5655128    396.47885  0.021794132  0.021911037            3 
 1517000    1.0310134    -7.619029    395.86563  0.021746079  0.021903644            1 
 1518000    1.0077161   -7.6213344    396.33698  0.021757629   0.02189623            5 
 1519000   0.98914603   -7.6163486    396.22723  0.021737285  0.021888944            3 
 1520000     1.002355   -7.6228275    396.95887  0.021763096  0.021881736            4 
 1521000    1.0027367   -7.5925618    396.86562  0.021743678  0.021874523            8 
 1522000    1.0136986    -7.628334      397.431  0.021760348  0.021867321            3 
 1523000     1.003299   -7.6570491    395.56393  0.021643901  0.021859988            8 
 1524000    1.0150953   -7.6376602    396.73116  0.021693524  0.021852755            5 
 1525000     1.026104   -7.6439599    397.92377  0.021744468  0.021845482            5 
 1526000    1.0091001   -7.6573208     397.3135  0.021696893  0.021838258            5 
 1527000    1.0098399   -7.6165324    398.23015  0.021732709  0.021830981            3 
 1528000    1.0257514   -7.6356375    398.98588  0.021759701  0.021823801            3 
 1529000    1.0274143   -7.6042576    397.79559  0.021680597  0.021816584            5 
 1530000    1.0131667   -7.6432864    398.36016  0.021697176  0.021809407            3 
 1531000   0.99272657   -7.6185051    399.39516   0.02173934   0.02180215            3 
 1532000    1.0157707   -7.6499631    399.18443  0.021713687  0.021794962            4 
 1533000    1.0177253   -7.6500798    398.01401    0.0216359  0.021787662            6 
 1534000    1.0027871   -7.6317492     399.8451  0.021721268  0.021780483            4 
 1535000   0.98947598   -7.6248274    399.17679  0.021670836  0.021773354            6 
 1536000    1.0319968   -7.6662221    399.23091  0.021659663  0.021766135            3 
 1537000   0.99533275   -7.6559732    399.58616  0.021664832  0.021758997           11 
 1538000   0.99395658   -7.6517682    399.79411  0.021662013  0.021751711            4 
 1539000    1.0203257   -7.6390626    399.86507   0.02165178   0.02174449            4 
 1540000     0.994239   -7.6460964    398.57704  0.021568022  0.021737279            3 
 1541000   0.99562225   -7.6326301    399.39263   0.02159813  0.021730058            2 
 1542000   0.99797256   -7.6334492    399.99782   0.02161683  0.021722812            6 
 1543000    1.0024997   -7.6097299    400.81357  0.021646877  0.021715684            4 
 1544000    1.0102491   -7.6085499     401.0706   0.02164673  0.021708536            9 
 1545000   0.99635521   -7.6993436    399.16494  0.021529932   0.02170125            6 
 1546000    1.0060773   -7.7086643    398.93866  0.021503809  0.021693813           10 
 1547000     1.002235   -7.6214451    400.75575  0.021587791  0.021686518            3 
 1548000    1.0351498   -7.6657544    400.43554  0.021556608  0.021679297            4 
 1549000    1.0085953   -7.6540245     399.1825   0.02147528  0.021671909            3 
 1550000   0.99199849   -7.6034151    401.86908  0.021605864  0.021664617            3 
 1551000   0.99429737   -7.6291632    400.93476  0.021541734  0.021657354            3 
 1552000     1.025932   -7.6849416    400.44629  0.021501626  0.021650049            4 
 1553000    1.0345369   -7.6173671    401.14425  0.021525233  0.021642726            5 
 1554000    1.0018874   -7.6104874    402.70082  0.021594853   0.02163537            5 
 1555000    1.0286016   -7.6001902    401.87223  0.021536561  0.021628102            2 
 1556000    1.0231689   -7.6705824    401.76369  0.021516907  0.021620824            4 
 1557000    1.0081504   -7.6459628    401.04912  0.021464843  0.021613467            5 
 1558000    1.0073244   -7.6649655    400.99629   0.02144824  0.021606124            3 
 1559000   0.99914376   -7.6199506    401.43025  0.021457679   0.02159886            3 
 1560000   0.98371788   -7.6644677    401.15639  0.021429294  0.021591456            5 
 1561000   0.98066857   -7.6452712    401.96641  0.021458809  0.021584032            3 
 1562000    1.0302186   -7.6680747    402.11307  0.021452896  0.021576629           11 
 1563000   0.98807187   -7.6627099    401.66313  0.021415181  0.021569254            3 
 1564000     1.007377   -7.6298462    402.86613  0.021465587  0.021561981            2 
 1565000   0.99458942   -7.6620925     402.3789  0.021425927  0.021554613            7 
 1566000    1.0083392   -7.6486465    402.70985  0.021429856  0.021547373            7 
 1567000    1.0113164   -7.6359958    403.12699  0.021438364  0.021540037            2 
 1568000    1.0152071   -7.6309602    403.10673  0.021423614  0.021532622            4 
 1569000     1.003392   -7.6646888    401.87359  0.021344465  0.021525169            3 
 1570000   0.99297844   -7.6539003    402.67385  0.021373347  0.021517757            4 
 1571000    1.0223199   -7.6539329    404.08226   0.02143445   0.02151041            5 
 1572000     1.020432   -7.6756128    402.85701  0.021355864  0.021503033            1 
 1573000   0.99426061   -7.6546838    403.76702  0.021390497   0.02149557            6 
 1574000   0.98242237   -7.6246173    402.42581  0.021305898   0.02148819            4 
 1575000    1.0045712   -7.6696784    402.79129  0.021311708  0.021480782            5 
 1576000   0.99815302   -7.6559314    403.80312  0.021351688  0.021473267            5 
 1577000    0.9757371   -7.6583945    402.28105  0.021257718  0.021465757            6 
 1578000   0.99471617   -7.6891795    402.68987  0.021265836  0.021458231            5 
 1579000   0.99522807   -7.6382104     403.6874  0.021305014  0.021450837            6 
 1580000   0.98657489   -7.6744782    403.77457  0.021296127  0.021443509            7 
 1581000     1.022694   -7.6944423    403.89223  0.021288859  0.021436161            3 
 1582000   0.99971534   -7.6980832    403.91448  0.021276574  0.021428698            2 
 1583000    0.9967735   -7.6940646    404.39281  0.021288314  0.021421155            4 
 1584000    1.0059431   -7.6368874    406.21959   0.02137098  0.021413764            4 
 1585000   0.99468895   -7.6467985    403.41749  0.021210173  0.021406428            5 
 1586000    1.0179832   -7.6683322    404.80717  0.021269818  0.021398914            2 
 1587000    1.0292017   -7.6879448    403.21938   0.02117304  0.021391533            5 
 1588000    1.0075933   -7.6735406     405.8601  0.021298284  0.021384184            1 
 1589000   0.99331142   -7.6308334    407.35736  0.021363403  0.021376836            4 
 1590000    1.0001809   -7.6798876    403.70385  0.021158483  0.021369482            4 
 1591000   0.98627503   -7.6298356    406.50193  0.021291741   0.02136204            3 
 1592000    1.0022053   -7.6707301     405.2127  0.021210882   0.02135473            7 
 1593000   0.99519512   -7.6618162    405.99398  0.021238438  0.021347249            3 
 1594000    0.9914637   -7.6811022    406.15165  0.021233357  0.021339905            5 
 1595000    1.0049815   -7.6424351    406.70685  0.021249052  0.021332594            1 
 1596000    1.0044808   -7.6445142    406.39518  0.021219464  0.021325304            2 
 1597000    0.9897873   -7.6467833    405.50553  0.021159754  0.021317979            3 
 1598000   0.98490711   -7.6732039    406.07626  0.021176276  0.021310616            5 
 1599000   0.99932966   -7.6846109     406.0056   0.02115935  0.021303182            3 
 1600000   0.99616407   -7.6480393    405.27824  0.021108242  0.021295727           10 
 1601000   0.98191749   -7.6940492    406.00004  0.021132627  0.021288245            2 
 1602000   0.98383182   -7.6622413    406.36369  0.021138352  0.021280794            4 
 1603000   0.99842773   -7.6298242    407.67743  0.021193461  0.021273502            6 
 1604000   0.99127631   -7.6444696    407.02175  0.021146184  0.021266155           13 
 1605000   0.99664045   -7.6567749    407.24852  0.021144783  0.021258722            6 
 1606000   0.99279733    -7.682835     406.7474  0.021105614  0.021251297            8 
 1607000   0.99896009   -7.6740625     406.5374  0.021081591  0.021243906            3 
 1608000    1.0104283   -7.6423394    407.70829  0.021129161   0.02123651            2 
 1609000   0.97873569    -7.637698    407.42838  0.021101532  0.021229169            6 
 1610000     1.002908   -7.6558549    407.98285  0.021117125  0.021221812            2 
 1611000    1.0239695   -7.6897862     407.3497  0.021071265  0.021214425            4 
 1612000    1.0028857   -7.6629229    407.98058  0.021090807  0.021207038            2 
 1613000    1.0051788   -7.6199027    409.36985  0.021149507  0.021199738            4 
 1614000   0.99413641   -7.6705987     408.7195  0.021102824  0.021192562            3 
 1615000    1.0140799    -7.651703    408.88822  0.021098463  0.021185285            9 
 1616000   0.99434546   -7.6657347    409.43526  0.021113617  0.021177996            6 
 1617000   0.97994095   -7.6629708    408.50641  0.021052691  0.021170773            4 
 1618000   0.99455161   -7.6701942    409.07665  0.021069049  0.021163461            3 
 1619000     1.013219   -7.7322412    407.60376  0.020980222  0.021156111            5 
 1620000    1.0202002   -7.6797005    408.45018  0.021010812  0.021148702            4 
 1621000   0.97798877   -7.7029998    408.15502  0.020982676  0.021141279            4 
 1622000   0.99139043   -7.6437885    409.89608  0.021059191  0.021134047            3 
 1623000   0.98908213   -7.6973688    408.37838  0.020968288  0.021126739            2 
 1624000   0.99402572    -7.701909    408.14981  0.020943648  0.021119362            5 
 1625000    1.0149181   -7.6982345    409.79833  0.021015299   0.02111196            3 
 1626000   0.98567474   -7.7005403    409.14556   0.02096892  0.021104603            6 
 1627000   0.99460807   -7.7397181     407.8533  0.020889843  0.021097221            5 
 1628000    1.0085253   -7.6888937    409.34011  0.020953118  0.021089824            4 
 1629000   0.98651065   -7.7350578    409.00784  0.020923258  0.021082491            8 
 1630000    1.0055465   -7.7093738    409.19168   0.02091982  0.021075152            4 
 1631000   0.97694438   -7.6727606    411.05565   0.02100223  0.021067835            4 
 1632000   0.99816101   -7.6534747    411.33431   0.02100359  0.021060587            4 
 1633000   0.96894611    -7.711825    410.32289  0.020939115  0.021053313            3 
 1634000   0.98990077   -7.6894779     410.4167  0.020931084  0.021046046            5 
 1635000   0.98645818   -7.6771837    411.08248  0.020952216  0.021038789           11 
 1636000   0.98736925   -7.7250437    410.50984   0.02091024  0.021031441            5 
 1637000   0.98039261   -7.7020792     410.2118  0.020882295  0.021024114            6 
 1638000   0.99365144    -7.691985      411.457  0.020932896  0.021016824           11 
 1639000   0.98162763   -7.6596377    411.74512  0.020934773  0.021009555            6 
 1640000   0.98669748   -7.7265399      410.679  0.020867835  0.021002354            8 
 1641000   0.97456599   -7.7052476    411.37789   0.02089061  0.020995075            3 
 1642000   0.98221385   -7.7256821    410.61584  0.020839212  0.020987879            4 
 1643000   0.96157909   -7.7169938    412.37838  0.020915925  0.020980659            5 
 1644000    0.9813903    -7.739492    411.12618  0.020839729  0.020973464           11 
 1645000   0.98542675   -7.7324272    410.94187  0.020817724  0.020966259            4 
 1646000   0.98435315   -7.6949101    412.81746  0.020900033  0.020959138            4 
 1647000    0.9792826   -7.6880281    412.29795  0.020861058  0.020951985            6 
 1648000   0.99859185   -7.6688789    412.44917  0.020856046  0.020944826            6 
 1649000   0.96505902   -7.6687552    413.04965  0.020873744  0.020937668            4 
 1650000   0.99931685   -7.6398866    413.65981   0.02089191  0.020930605            4 
 1651000   0.98797304    -7.668508    414.13322  0.020903151  0.020923494            5 
 1652000    1.0026171   -7.6659922    413.27049  0.020846978  0.020916432            7 
 1653000   0.97084857   -7.6991834    413.85832  0.020864001  0.020909364            8 
 1654000   0.98995869   -7.6837024    414.25216   0.02087123  0.020902339            2 
 1655000   0.99771613    -7.687443    413.80284  0.020835994  0.020895312            5 
 1656000   0.97393498   -7.6591233    414.09978  0.020838354   0.02088825           12 
 1657000   0.98557368   -7.6767556    414.43629  0.020842702  0.020881157           10 
 1658000   0.97500852   -7.6893207    414.73556  0.020845173  0.020874013            3 
 1659000   0.98874542   -7.6798956    413.29752  0.020760374  0.020866855            5 
 1660000   0.96322813   -7.7132049    413.29862  0.020747923  0.020859652            6 
 1661000   0.98115396   -7.6827831    413.14211  0.020727579  0.020852377            8 
 1662000   0.99427187   -7.6960072    414.66013  0.020791222  0.020845112            2 
 1663000   0.98991912   -7.6349427    414.64102  0.020777762  0.020837947            8 
 1664000    1.0039099   -7.6555198    415.11671  0.020789098  0.020830805            2 
 1665000   0.98612721   -7.7005829    414.84698  0.020763112  0.020823642            3 
 1666000   0.97742121   -7.6782027    415.14714  0.020765663  0.020816375            4 
 1667000   0.99853073   -7.7017357     414.3167  0.020711693  0.020809089            4 
 1668000   0.97870582   -7.6878147    415.28451  0.020747627  0.020801944            7 
 1669000   0.99648133    -7.708272    415.21256  0.020731604  0.020794722            3 
 1670000   0.99834931    -7.671414     415.0718  0.020712166  0.020787516            5 
 1671000   0.99677797   -7.6761509    414.41417  0.020666974  0.020780268            3 
 1672000   0.96955884   -7.7202241    413.99225  0.020633585  0.020773021            2 
 1673000   0.98261946   -7.6822414    415.02564  0.020672726  0.020765724            3 
 1674000   0.98912209   -7.7184253    415.21053   0.02066958  0.020758511            5 
 1675000   0.99282831   -7.7209922    415.25276  0.020659341  0.020751311            2 
 1676000   0.98932559   -7.7532123    414.69189  0.020619127  0.020744032            9 
 1677000    1.0018636   -7.7317904    414.94271  0.020619296  0.020736621            5 
 1678000    0.9981575   -7.7094265    415.09043  0.020614344  0.020729237            3 
 1679000   0.98811097   -7.6923443    416.24703  0.020659471  0.020721995            9 
 1680000   0.96753631   -7.6715281    415.46971  0.020608616   0.02071479            2 
 1681000   0.98679954   -7.6700898    416.45461  0.020645182  0.020707595            9 
 1682000   0.97672936   -7.7150038    415.93852  0.020607338  0.020700316            5 
 1683000   0.94290227   -7.6813943    415.66605  0.020581603   0.02069302            2 
 1684000    0.9767802    -7.687111    416.37024  0.020604228  0.020685823            4 
 1685000   0.97636989   -7.6614685    416.90296  0.020618346  0.020678621            5 
 1686000   0.99194835   -7.7004214    416.76261   0.02059918  0.020671397            6 
 1687000   0.98846619   -7.6945706    416.58096  0.020577996  0.020664099            6 
 1688000   0.96490178   -7.6996807     416.6707  0.020570236  0.020656749           10 
 1689000   0.98252881    -7.643692    417.50006  0.020598977  0.020649456            7 
 1690000   0.98940958   -7.7353264    415.45244   0.02048582  0.020642169            8 
 1691000   0.96584939   -7.7489522    415.92425  0.020496957  0.020634744            7 
 1692000   0.98175492   -7.6812265    416.80237  0.020528091  0.020627277            8 
 1693000   0.98670096    -7.696661    415.64797  0.020459144  0.020619949            3 
 1694000   0.98909531   -7.7426995    417.00677   0.02051391  0.020612556            5 
 1695000   0.97836662   -7.7434128    416.76611  0.020489976  0.020605218            9 
 1696000   0.99600257    -7.691184    416.82913  0.020480991  0.020597874            4 
 1697000   0.96669966   -7.7105403    416.23079   0.02043954  0.020590525            4 
 1698000   0.95600111   -7.7051182    416.22485  0.020427211  0.020583125            5 
 1699000    1.0054316   -7.7291932    417.94202  0.020499412  0.020575807            4 
 1700000   0.96937329   -7.7138658    416.57756  0.020420469  0.020568461            3 
 1701000    0.9915945   -7.7065149    415.94746  0.020377595  0.020561063            6 
 1702000   0.98100541   -7.6762094    417.61332  0.020447186  0.020553674            6 
 1703000   0.96943247   -7.6950012     417.9662  0.020452447   0.02054635            6 
 1704000   0.98687764   -7.7237592    417.15447  0.020400747  0.020539022            5 
 1705000   0.99477483   -7.7134292    418.68111  0.020463397  0.020531748            2 
 1706000   0.96088349   -7.7229528    418.41344  0.020438327  0.020524481            3 
 1707000   0.96912293    -7.714257    418.47532  0.020429375  0.020517178            4 
 1708000   0.97426423   -7.7783654    418.81118  0.020433801  0.020509804            4 
 1709000   0.99280174   -7.7565507    417.72045  0.020368659  0.020502452            5 
 1710000    0.9766503   -7.6984124     418.1616  0.020378245  0.020495142            4 
 1711000   0.99907813   -7.7083813    418.91967  0.020403257  0.020487898            4 
 1712000   0.97332373   -7.7054219    418.77818  0.020384452  0.020480608            3 
 1713000   0.98275848   -7.6825258    419.62786  0.020413887  0.020473418            3 
 1714000    0.9898725   -7.7126755    419.18741  0.020380562  0.020466158            6 
 1715000   0.96696057   -7.7349094    417.08018  0.020266287  0.020458822            2 
 1716000   0.98358477   -7.7197864    419.80716  0.020386905  0.020451491            3 
 1717000   0.97097911   -7.7283795    418.08518  0.020291457  0.020444206            2 
 1718000   0.96289748   -7.6899418    419.63476   0.02035481  0.020436851            3 
 1719000   0.99098399   -7.7145528    418.67056  0.020296226  0.020429526            6 
 1720000   0.96426207   -7.6978954    419.56389  0.020327708  0.020422311            4 
 1721000    1.0046447    -7.718797       419.36  0.020306023  0.020414996            5 
 1722000   0.98302295   -7.7186361    419.88811  0.020319788  0.020407705            4 
 1723000   0.96936616   -7.7333209    421.00268  0.020361902  0.020400451            9 
 1724000   0.96637341   -7.7168484    420.58717  0.020330006  0.020393276           10 
 1725000   0.99671398   -7.7768757    418.37153  0.020211185  0.020386073           12 
 1726000   0.98410562   -7.7509377    420.09542  0.020282706   0.02037886            5 
 1727000   0.95581579   -7.7533513    420.16865  0.020274496  0.020371669           10 
 1728000   0.99558213   -7.7253493    421.19562  0.020312289  0.020364478            4 
 1729000   0.98156527   -7.7353233    422.01367  0.020339968  0.020357374            1 
 1730000   0.96151442   -7.7313573    421.74034  0.020315045  0.020350268           15 
 1731000   0.96006035   -7.7214043    420.94139  0.020264846  0.020343153            4 
 1732000   0.97159791   -7.7316794    421.02883  0.020257353  0.020336022            6 
 1733000   0.97836991   -7.6769403    422.96136  0.020338592  0.020328877            7 
 1734000   0.96552347   -7.7277863    422.67388  0.020313047  0.020321773            5 
 1735000    1.0006852   -7.7173189    420.80602  0.020211625  0.020314597            4 
 1736000   0.98215465   -7.7261385    421.28915  0.020223174  0.020307418            6 
 1737000   0.97590159   -7.7365026    422.98648  0.020292961    0.0203003            5 
 1738000   0.98388821    -7.703047    422.76343   0.02027059  0.020293205            4 
 1739000   0.97183385   -7.7467857    422.24616  0.020234146  0.020286038            5 
 1740000   0.99230973   -7.7666115      421.795   0.02020091    0.0202788            6 
 1741000   0.97884608   -7.7272034    423.90386  0.020290248  0.020271679            3 
 1742000   0.97347422    -7.713123    422.64213  0.020218242  0.020264565            4 
 1743000   0.96846982    -7.706477    422.58802  0.020204055  0.020257375            2 
 1744000   0.97429078   -7.7630438    421.92062   0.02016058  0.020250188           10 
 1745000   0.96546676   -7.7176827    422.15327  0.020160137  0.020243013            3 
 1746000   0.97782764   -7.7158004    423.21499  0.020199265  0.020235866            9 
 1747000    1.0044598   -7.7385195    423.19984  0.020186979  0.020228643            3 
 1748000   0.96182731   -7.7148204    423.18515  0.020174731  0.020221448            7 
 1749000   0.97737129   -7.7437351    423.32973  0.020170084   0.02021418            3 
 1750000   0.97795108   -7.7390143    423.29826   0.02015706  0.020206938            4 
 1751000   0.97551161    -7.728617    423.37701  0.020149296  0.020199854            4 
 1752000    0.9766837   -7.7456259    422.68084  0.020104682  0.020192747            6 
 1753000    1.0022322   -7.7109256    423.72254  0.020142733  0.020185665            5 
 1754000   0.97961702   -7.7186502    424.24873  0.020156249  0.020178577            4 
 1755000   0.96851849   -7.7372483    424.26615  0.020145591  0.020171506            4 
 1756000   0.95459579   -7.7238652    424.73951  0.020156583  0.020164478            4 
 1757000   0.95951769   -7.7421223    424.12261  0.020115851  0.020157461            2 
 1758000   0.96027584   -7.7668841    424.53072  0.020123754  0.020150423            5 
 1759000   0.97201657   -7.7420414    423.59855  0.020068152  0.020143313            6 
 1760000   0.97886234   -7.7624646    424.28743  0.020089367  0.020136193            8 
 1761000   0.95582466   -7.7477474    425.69963  0.020144787  0.020129103            4 
 1762000   0.97479318   -7.7116393    424.29659  0.020066997   0.02012203            3 
 1763000   0.94029198   -7.7447515    423.85719  0.020034846  0.020114979            6 
 1764000   0.99881756   -7.7818718    424.20747  0.020040035  0.020107983            4 
 1765000   0.96676725    -7.770715    424.65945  0.020050021  0.020100918            5 
 1766000   0.97884463   -7.7314864    425.41119  0.020074141  0.020093765            4 
 1767000   0.95657415   -7.7584101    424.30924  0.020010811  0.020086683            9 
 1768000    0.9455475   -7.7508655    424.92574  0.020028551  0.020079638            5 
 1769000   0.96190249   -7.7167407    424.10331  0.019978487  0.020072596            4 
 1770000   0.96113631   -7.7771699    424.58437  0.019989848  0.020065413            9 
 1771000   0.97521511   -7.7660378     425.5213  0.020022647  0.020058293            3 
 1772000   0.94925918   -7.7733983    424.72582  0.019973938  0.020051188            6 
 1773000   0.96688958   -7.7417442    427.18187   0.02007811  0.020044199            5 
 1774000   0.97812481   -7.7069123    426.89535  0.020053333  0.020037248            5 
 1775000   0.98733471   -7.7785521    426.33828  0.020015882  0.020030287            5 
 1776000   0.96861425   -7.7598245    426.77607  0.020025154  0.020023266            3 
 1777000   0.95937984   -7.7487526    425.93353  0.019974373  0.020016268            4 
 1778000    0.9487558   -7.7483958    426.77214  0.020002444  0.020009291            3 
 1779000   0.96573709   -7.7605306    426.00456  0.019955244   0.02000237            2 
 1780000   0.97153316   -7.7260133    427.61539  0.020019447  0.019995488            3 
 1781000   0.97423178   -7.7381191     427.0704  0.019982706  0.019988573            5 
 1782000   0.97850097   -7.7256637    426.92814   0.01996484  0.019981734            4 
 1783000   0.93940186   -7.7925926    426.40977  0.019929415  0.019974752            4 
 1784000   0.96834703   -7.7701259    426.77279  0.019935202  0.019967786            6 
 1785000   0.95778981   -7.7301638    427.29238  0.019948291  0.019960905           10 
 1786000   0.95000745   -7.7511246    427.64495  0.019953572   0.01995403            5 
 1787000   0.97964778   -7.7819955    428.32751  0.019974236  0.019947141            5 
 1788000   0.98678078   -7.7152223    429.42925  0.020014413  0.019940241            2 
 1789000   0.96895434   -7.7138099    428.88255   0.01997776  0.019933395            4 
 1790000   0.97756135   -7.7317588    428.13151  0.019931634  0.019926565            7 
 1791000   0.98180126   -7.7509159    428.70808  0.019947333  0.019919698            3 
 1792000   0.97791816   -7.7533507    428.92175  0.019946138  0.019912779            9 
 1793000   0.95881111    -7.749212    429.03892  0.019940459  0.019905868            5 
 1794000   0.98127009   -7.7510998    428.20177  0.019890457  0.019898995            9 
 1795000   0.96260858   -7.7665776    428.89764  0.019911683  0.019892128            6 
 1796000   0.94542116   -7.7576256    428.87994  0.019899775  0.019885319            6 
 1797000   0.96716343   -7.7477378    430.64169  0.019970399  0.019878478            3 
 1798000   0.97165707   -7.7497709    429.30744  0.019897453   0.01987159            3 
 1799000   0.94716274   -7.7800612    429.09331  0.019876473  0.019864717           13 
 1800000   0.96200077    -7.805365    429.56391  0.019887218  0.019857788            8 
 1801000   0.96357068   -7.7271366    430.39478  0.019914621   0.01985087           12 
 1802000   0.97336078   -7.7876731     430.7291   0.01991903  0.019843993            5 
 1803000     0.971425   -7.7936047    429.05852  0.019830769  0.019837179            9 
 1804000   0.94936858   -7.7580644    430.17165  0.019871196  0.019830362            3 
 1805000   0.95527821   -7.8045838    429.37371  0.019823348  0.019823525            4 
 1806000   0.94656091   -7.7486646    430.92645  0.019884019  0.019816624            2 
 1807000   0.97015449   -7.7776293    430.51685  0.019854125   0.01980981            3 
 1808000   0.96017461   -7.7983682    430.17871  0.019827558  0.019802955            7 
 1809000    0.9624676   -7.7688647    429.85704   0.01980178  0.019795994            3 
 1810000   0.96085279   -7.7726977    430.31978  0.019812145  0.019789029            7 
 1811000   0.95675885   -7.7700262    429.79493  0.019777053  0.019782109            6 
 1812000   0.96761516   -7.7465748    430.48183  0.019797729  0.019775134            9 
 1813000   0.96275693   -7.7932114    430.29901  0.019778407  0.019768185            4 
 1814000    0.9760699   -7.7812718    430.73209  0.019787399  0.019761251            4 
 1815000   0.96995771    -7.783088    429.15375  0.019704029  0.019754315            3 
 1816000   0.96695513   -7.8183176    429.67555  0.019717123  0.019747411            4 
 1817000   0.97592248    -7.792396    430.95964  0.019765164  0.019740459            2 
 1818000   0.98229369   -7.7731714    430.47345  0.019732006  0.019733583            7 
 1819000   0.96494594   -7.7578297    429.22248  0.019663848  0.019726662            7 
 1820000    0.9683752   -7.7500762    431.17636  0.019742507  0.019719806            3 
 1821000   0.95825609   -7.7866046    432.18852  0.019777985  0.019712982            6 
 1822000   0.96261136   -7.7496189    431.04185  0.019714684  0.019706163            6 
 1823000   0.97300347   -7.7788494    432.59004  0.019774641  0.019699372           14 
 1824000    0.9764773   -7.7580596    432.05609  0.019739405  0.019692501            5 
 1825000   0.96318717   -7.7856784    432.31208  0.019740277  0.019685666            6 
 1826000   0.95397455   -7.8016878    430.96247  0.019667875  0.019678845            8 
 1827000   0.97114106   -7.7863051    431.97827  0.019703443   0.01967205            3 
 1828000   0.93707025   -7.8008712    432.19209  0.019702411  0.019665239            6 
 1829000   0.96660594   -7.8238522    431.55298  0.019662519   0.01965842            4 
 1830000   0.97788535   -7.7539525    433.20445  0.019726979  0.019651662            8 
 1831000   0.96618639   -7.7954572     432.9558  0.019704888  0.019644959            6 
 1832000   0.94255418   -7.7858801    432.97356   0.01969494  0.019638185           12 
 1833000   0.94330591   -7.7564707    433.70077  0.019717257  0.019631459            7 
 1834000   0.98103548   -7.7944453    433.76427  0.019709391  0.019624752            6 
 1835000   0.96127973   -7.7373314    434.12858  0.019715194  0.019618021            5 
 1836000   0.97996746   -7.7787386    432.69668  0.019639465  0.019611236            3 
 1837000   0.94412494   -7.8052797    433.39703  0.019660544  0.019604436            3 
 1838000   0.97234675   -7.7809332    433.98884  0.019676679   0.01959769           11 
 1839000   0.96107981   -7.8101714    433.87776  0.019660946   0.01959093            6 
 1840000   0.96787262   -7.7919457    433.51537  0.019633848   0.01958415            5 
 1841000   0.95735317   -7.7441529    434.67409  0.019675633  0.019577361            4 
 1842000   0.94027816   -7.7580528    435.21673  0.019689501  0.019570727            5 
 1843000   0.95994392   -7.7787293    434.17919  0.019631904  0.019563968            6 
 1844000   0.95838037   -7.7627332    435.79645  0.019694344   0.01955733           17 
 1845000   0.95386463   -7.7583359    435.42729  0.019666996  0.019550662            6 
 1846000   0.96200121   -7.8240454    435.51631  0.019660361  0.019543999            6 
 1847000   0.95672554   -7.7812069    435.50109   0.01964903  0.019537393           13 
 1848000   0.94809193   -7.7814363    435.52344  0.019639405  0.019530773            2 
 1849000    0.9563894   -7.8047504    434.10989  0.019565075   0.01952411            5 
 1850000   0.94922706   -7.7926951    436.46123  0.019660416  0.019517503            6 
 1851000   0.94678683   -7.8233116    435.60528  0.019611259  0.019510823            4 
 1852000    0.9726399   -7.8031294     435.4692  0.019594546  0.019504127            5 
 1853000   0.96567898   -7.8182808    434.41433  0.019536532  0.019497406            3 
 1854000   0.96614946   -7.7843732    436.67897  0.019627786  0.019490726            8 
 1855000   0.93933678   -7.7873416    435.97094  0.019585397   0.01948404            2 
 1856000   0.93921636   -7.8090193    435.62256  0.019559203  0.019477382            6 
 1857000    0.9541498   -7.8319623    435.39207  0.019538327  0.019470697            9 
 1858000   0.95302365   -7.7883351    437.02505  0.019601052  0.019464062            6 
 1859000   0.96722811   -7.7923074    436.49524  0.019566758  0.019457464            7 
 1860000   0.95818525   -7.7663847     438.5908  0.019650125   0.01945085            4 
 1861000    0.9508357   -7.7299425    437.64253  0.019597104  0.019444335            3 
 1862000   0.94997272   -7.8239904     436.7341  0.019545923  0.019437817            9 
 1863000   0.95333189   -7.8167243    437.31196  0.019561279  0.019431279            5 
 1864000   0.95641059   -7.7521706    437.32628  0.019551425  0.019424796            8 
 1865000   0.98111384   -7.7522062    437.40692  0.019544545  0.019418311            6 
 1866000   0.95818924   -7.7823643    437.05864  0.019518517  0.019411862            4 
 1867000   0.97905401    -7.768531    438.20563  0.019559259  0.019405382            7 
 1868000   0.95602051   -7.7859892    437.65592  0.019524265  0.019398876           12 
 1869000   0.96567238   -7.8166048    437.52782  0.019508107  0.019392251            5 
 1870000   0.92942987   -7.7928742     438.9137  0.019559434    0.0193856            8 
 1871000   0.95543386   -7.7773538    437.60354  0.019490626  0.019379039            9 
 1872000   0.93725239    -7.781629    437.55587  0.019478093  0.019372494            7 
 1873000   0.94464166   -7.8178616    436.58704  0.019424588  0.019365834            2 
 1874000   0.94846828   -7.7896022      436.663    0.0194176   0.01935915            4 
 1875000   0.93550869   -7.8240775    437.52849  0.019445711   0.01935251            8 
 1876000   0.96071563   -7.8096217    438.06611  0.019459227  0.019345831            6 
 1877000    0.9510164   -7.7998389    437.26389  0.019413243  0.019339196            5 
 1878000   0.94469118   -7.8359527     437.0353  0.019392763  0.019332469            6 
 1879000   0.93151854   -7.7788625    438.50702  0.019447712  0.019325808            3 
 1880000    0.9684204    -7.811158    437.69107    0.0194012  0.019319154            4 
 1881000   0.93396399   -7.7590393    438.32186  0.019418831  0.019312469            4 
 1882000   0.95491558   -7.8081873    437.34131  0.019365095  0.019305748            2 
 1883000   0.96105852   -7.7930378     438.8021  0.019419459  0.019299068            5 
 1884000   0.93648514   -7.8103479    437.65528  0.019358426  0.019292418            5 
 1885000   0.93981209   -7.8189629     438.8116  0.019399275  0.019285814            4 
 1886000   0.96668726   -7.7898671    439.73398  0.019429745  0.019279193            2 
 1887000   0.96065948     -7.80936    437.70964  0.019330049  0.019272519            5 
 1888000    0.9318264   -7.8088788    439.33629  0.019391609  0.019265815            3 
 1889000   0.94467738   -7.7976167    438.67737  0.019352275  0.019259167            2 
 1890000   0.96734156   -7.8339391    437.24277  0.019278782  0.019252457            8 
 1891000   0.95987669   -7.8453469    437.90497  0.019297769  0.019245703            3 
 1892000   0.95538753   -7.8030637    438.58861   0.01931768  0.019238982            6 
 1893000    0.9499946   -7.7985017     440.1809  0.019377571  0.019232308            4 
 1894000   0.94237609   -7.7921841    438.74807  0.019304297  0.019225656            3 
 1895000   0.95933582   -7.7522351    440.17654  0.019356928  0.019218958            5 
 1896000   0.94047149   -7.7832351    438.61879  0.019278252  0.019212332            9 
 1897000   0.92864083   -7.8265898    438.63099  0.019268625  0.019205636           10 
 1898000   0.94784494   -7.8238804    438.13267  0.019236594  0.019198926            6 
 1899000   0.95487127   -7.8024843    439.04183  0.019266361  0.019192249            5 
 1900000   0.95343858   -7.8366046    438.73178  0.019242622  0.019185461            7 
 1901000   0.96545229   -7.8411279    439.07793  0.019247673   0.01917868            5 
 1902000   0.95770325   -7.8011406    440.18156  0.019285908  0.019171985            2 
 1903000   0.95974313   -7.8040413    440.06603  0.019270714  0.019165368            6 
 1904000   0.93802191    -7.799305    440.24546  0.019268446  0.019158652            3 
 1905000   0.95022583   -7.8141142    439.75912  0.019237057  0.019152056            3 
 1906000    0.9324691   -7.7838659     441.0984  0.019285519  0.019145456            4 
 1907000   0.95588266   -7.8484649    439.38748  0.019200641  0.019138837           11 
 1908000   0.93558089   -7.7938858    439.91893   0.01921379  0.019132129            7 
 1909000   0.96805041   -7.8374296    439.57388  0.019188663  0.019125426            4 
 1910000   0.94453706    -7.793011    440.24682  0.019207976  0.019118703            3 
 1911000    0.9376996   -7.8042285    441.16176  0.019237823  0.019111996            4 
 1912000   0.95183788   -7.8250093    439.83862  0.019170093  0.019105294            5 
 1913000   0.94320707   -7.8002103     442.0689  0.019257227  0.019098674            7 
 1914000   0.95839415   -7.7820457    441.51484  0.019223043  0.019092062            5 
 1915000   0.95106129   -7.8315069    440.88977  0.019185804   0.01908536            6 
 1916000   0.94434184   -7.8275849    441.42664  0.019199141  0.019078739            5 
 1917000   0.96370867   -7.8303099    440.91756  0.019166995  0.019072107            2 
 1918000   0.94967736    -7.887148    439.45052  0.019093262  0.019065388            8 
 1919000   0.95683331    -7.856899    439.91127  0.019103321   0.01905873            4 
 1920000   0.95971015   -7.8891628    441.29838  0.019153575  0.019052141            4 
 1921000   0.94549497   -7.8212842    443.02479  0.019218497  0.019045542            7 
 1922000   0.94926043   -7.7960247    442.39986  0.019181402  0.019039027            6 
 1923000   0.94540974    -7.819221    442.70835  0.019184796  0.019032539            6 
 1924000   0.94793009   -7.7958123    442.73726  0.019176077  0.019026006            3 
 1925000   0.95492779   -7.8196653    441.96007  0.019132471  0.019019463            4 
 1926000   0.93976798   -7.8186134    441.38406  0.019097614  0.019012877            4 
 1927000   0.94083864   -7.8544242    441.18768  0.019079211  0.019006322           16 
 1928000   0.92494532    -7.804611    442.77755  0.019138034  0.018999735            9 
 1929000   0.92976283   -7.8172553    442.52499  0.019117202  0.018993219            4 
 1930000   0.92522984    -7.801849     442.3913  0.019101524  0.018986699            6 
 1931000   0.94421369   -7.8337676    441.87192  0.019069218  0.018980126            6 
 1932000    0.9433452   -7.8041637    442.55539  0.019088828   0.01897354            3 
 1933000   0.95256903   -7.8090185    441.62567  0.019038872  0.018966911            5 
 1934000    0.9416366   -7.8469141    441.10231  0.019006477  0.018960315            3 
 1935000   0.95306278   -7.8299292    442.63721  0.019062757   0.01895371            4 
 1936000       0.9514   -7.8272485    443.03785  0.019070155  0.018947087            6 
 1937000   0.93265159    -7.845152    441.04593  0.018974614  0.018940456           11 
 1938000   0.95805382   -7.8357101    442.95897  0.019047083  0.018933846            4 
 1939000   0.93890497   -7.8146798    442.74965  0.019028264  0.018927178            5 
 1940000   0.92636737   -7.8328951    442.19748  0.018994737  0.018920591            4 
 1941000   0.92662187   -7.8324817    443.08178  0.019022917  0.018913962            7 
 1942000   0.93974577   -7.8197614    443.66062   0.01903796  0.018907409            4 
 1943000   0.93477647   -7.8471942     443.4268  0.019018133  0.018900856            7 
 1944000   0.94803408   -7.8473864    442.22565  0.018956861  0.018894272            3 
 1945000   0.93151177   -7.8387298    443.66865   0.01900894   0.01888773           12 
 1946000   0.94326276   -7.8566532    442.17822  0.018935347  0.018881158            8 
 1947000   0.92794863   -7.8497303     443.6957  0.018990571  0.018874591           11 
 1948000   0.96918342   -7.8635303    443.34512  0.018965825  0.018868017            8 
 1949000   0.94825303   -7.8626142     443.7541   0.01897358  0.018861487           25 
 1950000   0.94687961   -7.8571452    444.40075  0.018991485  0.018855036           10 
 1951000   0.92699047   -7.8076166    445.55559  0.019031078  0.018848597            9 
 1952000    0.9531397   -7.8332966     445.1481  0.019003932  0.018842211            8 
 1953000    0.9420523   -7.8339618    445.70627  0.019018018  0.018835751           19 
 1954000   0.95647746    -7.853423    444.53646  0.018958395  0.018829338           12 
 1955000   0.95924455   -7.8209725    445.37925  0.018984623  0.018822937            7 
 1956000   0.96023047   -7.8262566    446.89168  0.019039352  0.018816579           10 
 1957000   0.95896527   -7.8273585    446.42248  0.019009644  0.018810225            6 
 1958000   0.93263583   -7.8474244    444.90562  0.018935377  0.018803774            3 
 1959000    0.9428085   -7.8293216    446.65072  0.018999946  0.018797345            3 
 1960000   0.93963423   -7.8088003    446.00251  0.018962692  0.018790956            4 
 1961000   0.94697142   -7.8586215    445.76037  0.018942732  0.018784478            3 
 1962000   0.92990536   -7.8094599    447.68512  0.019014828  0.018778009            6 
 1963000   0.93561606   -7.8358518    445.09871  0.018895343  0.018771596            3 
 1964000    0.9291935   -7.8485481    445.63428  0.018908447  0.018765093            7 
 1965000   0.93608151   -7.8694743    446.14691  0.018920564  0.018758626            5 
 1966000   0.94671278   -7.8352304    446.92444  0.018943898  0.018752173            4 
 1967000   0.91870779   -7.8436992    445.22313   0.01886219  0.018745755            6 
 1968000   0.93013058    -7.820823    446.50927  0.018907066  0.018739304            5 
 1969000   0.95764823   -7.8264724    447.12056  0.018923335  0.018732906            5 
 1970000   0.94299746   -7.8081531    445.98259  0.018865592  0.018726463            2 
 1971000   0.92162128    -7.783672    448.34044   0.01895571  0.018720058            6 
 1972000   0.93459241   -7.8100813    447.12845   0.01889488   0.01871365            5 
 1973000   0.94796756   -7.7885144     447.8911  0.018917516  0.018707283            6 
 1974000   0.92845423   -7.8301365    446.93512  0.018867575  0.018700941            4 
 1975000    0.9310283   -7.8812306    446.97124  0.018859546  0.018694571            4 
 1976000   0.93633597   -7.8432464    447.25188  0.018861837  0.018688271            4 
 1977000   0.93963219   -7.8297678    449.07425  0.018929112  0.018682009            4 
 1978000   0.95290643   -7.8431311    447.82329  0.018866839  0.018675715            6 
 1979000   0.94167342    -7.810874    449.16229  0.018913689  0.018669501            3 
 1980000   0.94030671   -7.8284981    448.76962   0.01888761  0.018663266            4 
 1981000   0.95327413   -7.8379701    448.89229  0.018883236  0.018657013            4 
 1982000   0.94224693   -7.8182479    448.94595  0.018875965  0.018650752           11 
 1983000   0.91323801   -7.8919978    448.15668  0.018833278  0.018644479            7 
 1984000   0.93673644   -7.8810614    448.38713  0.018833465  0.018638168            6 
 1985000   0.91370643    -7.871862    450.15846   0.01889834  0.018631916            9 
 1986000   0.93078155   -7.8491333    449.75918   0.01887207  0.018625699            5 
 1987000   0.92705368   -7.8219449    449.69674  0.018859954  0.018619493            4 
 1988000   0.91401244   -7.8366621    449.87882  0.018858099   0.01861326            6 
 1989000    0.9352497   -7.8308457    450.16532  0.018860622     0.018607            7 
 1990000   0.94119323   -7.8961482    449.55019  0.018825385   0.01860075            9 
 1991000   0.93095414   -7.8753638      449.869  0.018829274  0.018594515            4 
 1992000   0.92574584   -7.8478662    450.36207  0.018840448  0.018588351            6 
 1993000   0.93667022   -7.8545347    450.45518  0.018834888  0.018582173            2 
 1994000   0.95348215   -7.8628821    449.89591  0.018802069  0.018575953            3 
 1995000   0.90938107   -7.8651122    449.88393  0.018792144   0.01856975            4 
 1996000    0.9479705    -7.844795    451.27372  0.018840753  0.018563594            4 
 1997000    0.9373305   -7.8897873    450.13147  0.018783653  0.018557412           11 
 1998000   0.92362106   -7.8358214    449.93837  0.018766198  0.018551202           25 
 1999000   0.93602114   -7.8851552    450.70113  0.018788608  0.018544997           10 
 2000000   0.94754575   -7.8603455    449.90629  0.018746095  0.018538803            3 
 2001000    0.9225734   -7.8397314    451.26377   0.01879326  0.018532595           10 
 2002000   0.93427874   -7.8686039    450.39108  0.018747547  0.018526432           15 
 2003000   0.94028288   -7.8472619    451.70963  0.018793045  0.018520239            7 
 2004000   0.93641306   -7.8097278    451.68983  0.018782844  0.018514032            5 
 2005000    0.9222562   -7.8838116    451.50824  0.018765929   0.01850785            4 
 2006000   0.93546209   -7.8505159     451.4904  0.018755832  0.018501706            2 
 2007000   0.93512537   -7.8520697    451.83108  0.018760633  0.018495503            5 
 2008000   0.95827961   -7.8638305    450.15344  0.018681666   0.01848926            9 
 2009000   0.91727307   -7.8409859    450.99096  0.018707108  0.018483064            6 
 2010000   0.93883934   -7.8136061    451.36654  0.018713372  0.018476838            5 
 2011000   0.91586975   -7.8441915    451.87449  0.018725115  0.018470643            4 
 2012000   0.94120821   -7.8854567    449.76825  0.018628572  0.018464426           10 
 2013000   0.93524899   -7.8854349    451.14193  0.018676185  0.018458198            6 
 2014000   0.93538449   -7.8756059    451.05133  0.018663163  0.018451918            7 
 2015000   0.93807151   -7.8629398    450.70573  0.018639608  0.018445635           11 
 2016000   0.91352517   -7.8890059    451.30476  0.018655124   0.01843936           12 
 2017000   0.93283246   -7.8721911    452.19654  0.018682719  0.018433177            7 
 2018000   0.93704258   -7.8627574    452.74954  0.018696298  0.018426939            6 
 2019000   0.91966063   -7.8832658    450.27665   0.01858497   0.01842071           13 
 2020000   0.92273754   -7.8619664    452.21725  0.018655827  0.018414436            5 
 2021000   0.93040028   -7.8627016    452.05589  0.018639943  0.018408264            8 
 2022000   0.93387979   -7.8932384    451.91318  0.018624843  0.018402107           12 
 2023000   0.92703676   -7.9268884    451.53737  0.018600155  0.018395879           18 
 2024000   0.92627449   -7.8716702    452.84345   0.01864474  0.018389659            4 
 2025000   0.94162366   -7.9041796    453.26239  0.018652773  0.018383549           13 
 2026000   0.94462306   -7.8378699    454.61065  0.018699023  0.018377494            3 
 2027000   0.91320067   -7.8848396    453.51229  0.018644643  0.018371451            8 
 2028000   0.91416337   -7.8440535    453.42559  0.018631887  0.018365369           12 
 2029000   0.92423216   -7.8479382    454.01119  0.018646755  0.018359299            9 
 2030000   0.93230921   -7.8590025    453.76186  0.018627334  0.018353214            7 
 2031000   0.92091169    -7.874762     452.8005  0.018578717  0.018347088           10 
 2032000   0.92603963   -7.8452501    454.65966  0.018645819  0.018340965            7 
 2033000    0.9120469   -7.8596885    453.70844  0.018597657  0.018334869           21 
 2034000   0.92617439    -7.840477    453.83771   0.01859381  0.018328778            7 
 2035000   0.92393117   -7.8565722    452.13101  0.018514784   0.01832268            4 
 2036000   0.93382438   -7.8681232    454.49086  0.018602278  0.018316541            4 
 2037000   0.92082349   -7.8850227    454.58896  0.018597159  0.018310443            4 
 2038000   0.93763835   -7.8520922    453.90801   0.01856019  0.018304362           11 
 2039000   0.90392138   -7.8995314    453.65863  0.018540895  0.018298235           10 
 2040000   0.92573594   -7.9145718    454.18233    0.0185532    0.0182921            3 
 2041000   0.92204377   -7.9041394    452.49199  0.018475093  0.018285921            6 
 2042000   0.92083465   -7.8802409    454.50042  0.018548009  0.018279729            6 
 2043000   0.93000235   -7.9186559    453.37079  0.018492853  0.018273579           12 
 2044000    0.9291509   -7.9018237    454.74052   0.01853965   0.01826749            3 
 2045000   0.91029674   -7.9076906    453.69888  0.018488137  0.018261331            5 
 2046000   0.92891502   -7.8846593    455.01469  0.018532694  0.018255177            3 
 2047000   0.92594548    -7.871231     454.7447  0.018512648  0.018249042           10 
 2048000   0.91837217   -7.9142217    454.19328  0.018481172  0.018242913           11 
 2049000   0.91547746   -7.9081244      454.228  0.018473565  0.018236792            5 
 2050000   0.92896511   -7.8715288    454.63101  0.018480935  0.018230719            8 
 2051000   0.92411808   -7.8548277    455.66252  0.018513836  0.018224645            8 
 2052000    0.9298996   -7.9302151    453.91109  0.018433686  0.018218482            4 
 2053000   0.94538775   -7.8692647    455.74866  0.018499296  0.018212337            2 
 2054000   0.90647029   -7.9187954    454.91587  0.018456502  0.018206175            7 
 2055000   0.92753747   -7.8759895    454.47164  0.018429507  0.018200037           20 
 2056000   0.92036059   -7.8973337    455.54032  0.018463859  0.018193986            3 
 2057000   0.91422591   -7.8727244    455.16477  0.018439668   0.01818791            6 
 2058000   0.92540259   -7.8762537    455.65433  0.018450532  0.018181882            5 
 2059000   0.91305635   -7.8422376    455.52377  0.018436287  0.018175896           11 
 2060000   0.92726459   -7.8309818    457.31356  0.018499739  0.018169908            9 
 2061000   0.92980894   -7.8872122    455.93733  0.018435118   0.01816391            4 
 2062000   0.91578299   -7.9194476    456.77235  0.018459923  0.018157798           13 
 2063000   0.91285569   -7.9365572    455.18804  0.018386978  0.018151645           12 
 2064000   0.90773862   -7.8998633    455.75485  0.018400955   0.01814551           10 
 2065000   0.91520736   -7.9335802    456.39328  0.018417808  0.018139363            3 
 2066000   0.92051143   -7.9159261    454.45104  0.018330552  0.018133228            4 
 2067000   0.91712249   -7.9153391    454.69557  0.018331542  0.018127071            6 
 2068000   0.90759733   -7.9356169    454.49388   0.01831455  0.018120875            2 
 2069000   0.90981589   -7.9035176    455.61074  0.018350682  0.018114646            3 
 2070000   0.91376133   -7.8962874    454.41701   0.01829376  0.018108425            6 
 2071000   0.91858564   -7.8718229     455.5015  0.018328565  0.018102235            7 
 2072000   0.91307379   -7.8847685    455.18627  0.018307041  0.018096038            4 
 2073000   0.91801412   -7.8932025    456.17997  0.018338156  0.018089802            7 
 2074000   0.92793376   -7.9181449     454.4647  0.018260394  0.018083559            6 
 2075000   0.93244632   -7.9159017    455.58399  0.018296546   0.01807738            4 
 2076000   0.93058535   -7.9074517    455.59588   0.01828821  0.018071146           11 
 2077000   0.91157966   -7.9066629    455.27132  0.018266382  0.018064922            6 
 2078000   0.93934147   -7.9009189    455.52467  0.018267752  0.018058715           11 
 2079000   0.93099198    -7.923848    455.95233  0.018276108  0.018052533            4 
 2080000   0.93168617   -7.9185447    454.78436  0.018220527  0.018046297            8 
 2081000   0.93130018    -7.894462    456.55363  0.018282622  0.018040075            6 
 2082000   0.91186627   -7.9111165    455.65696  0.018237951  0.018033841            6 
 2083000   0.90874216   -7.9092343    456.04846  0.018244858  0.018027611            6 
 2084000   0.93619183   -7.8983731    456.18571  0.018241591   0.01802136            8 
 2085000   0.90508268   -7.9472048    456.20908  0.018233776  0.018015046            7 
 2086000    0.9252081   -7.9372972    455.44126  0.018194361  0.018008733            5 
 2087000    0.9132493   -7.9150426    456.12925  0.018213115  0.018002456            8 
 2088000   0.90973073    -7.914913    456.52159  0.018220051  0.017996202            5 
 2089000   0.91671991   -7.9531584    456.00387  0.018190676  0.017989918            7 
 2090000   0.92130125   -7.9106673    456.46457  0.018200342   0.01798366            5 
 2091000   0.90952596   -7.9011221     456.8823  0.018208285  0.017977391            6 
 2092000   0.92504618   -7.8910994    454.27997   0.01809592  0.017971173            4 
 2093000   0.93060931   -7.9022276    456.73152  0.018184883  0.017964977            9 
 2094000   0.90106893   -7.9588814    455.92185  0.018143977  0.017958736            7 
 2095000   0.92869812     -7.95497    456.55548   0.01816052  0.017952498            5 
 2096000   0.92305046   -7.8855513    457.36695  0.018184119  0.017946233            5 
 2097000   0.92521555   -7.8455607    458.67987  0.018227622   0.01794008            5 
 2098000   0.90770192   -7.8849644    456.65876  0.018138654  0.017933926            9 
 2099000   0.91441709   -7.8621072    458.86316   0.01821753  0.017927798            4 
 2100000   0.92226277   -7.8607197    458.24362  0.018184271   0.01792158            4 
 2101000    0.9134994   -7.8888102    458.44002  0.018183406  0.017915404            4 
 2102000   0.91271604    -7.890976    458.88748  0.018192494   0.01790916           11 
 2103000   0.91622319   -7.9333969    457.13639  0.018114455   0.01790296            5 
 2104000   0.91382027   -7.8899021    458.11935  0.018144778   0.01789675            6 
 2105000   0.92177017   -7.8895303    458.29016   0.01814292  0.017890585            4 
 2106000   0.91967897   -7.8780162    457.19924  0.018091138  0.017884335            2 
 2107000   0.92250153   -7.9103538     457.0786   0.01807778  0.017878099            3 
 2108000   0.90268285   -7.9139444    457.31513  0.018078555  0.017871878           11 
 2109000   0.92936175   -7.9532876    457.15641  0.018063712  0.017865633            4 
 2110000    0.9102104   -7.8976501    458.63053   0.01811337  0.017859383            9 
 2111000   0.87749436   -7.8720331    458.52989  0.018100817  0.017853189            8 
 2112000   0.91385635   -7.8910728    458.08596   0.01807473  0.017846979            6 
 2113000   0.92610863   -7.9112375     458.4213  0.018079401  0.017840815            6 
 2114000   0.89686715   -7.8859281    458.61371  0.018078434  0.017834681            6 
 2115000   0.91406424   -7.9012993    458.07454  0.018048642  0.017828518            2 
 2116000   0.91695162   -7.8990983    458.40572  0.018053155  0.017822303            6 
 2117000   0.90666238   -7.8957871    459.57564   0.01809068  0.017816137            8 
 2118000   0.90752669   -7.8976626    459.09971  0.018063413  0.017810006            8 
 2119000   0.92333213   -7.9103249    458.74551  0.018040959  0.017803867            9 
 2120000    0.9127091   -7.9170577    458.97266  0.018041378  0.017797667            9 
 2121000    0.9109975   -7.8845434    459.64441  0.018059265  0.017791463            5 
 2122000    0.9232459   -7.9575401    458.14719  0.017991957  0.017785302            8 
 2123000    0.9368624   -7.9133092    459.39031  0.018032278  0.017779135            6 
 2124000   0.91411516   -7.9064182    459.27332  0.018019198  0.017772945            6 
 2125000   0.89243143   -7.8959335    457.98879  0.017960345  0.017766763            8 
 2126000    0.9173317   -7.9342174    458.42288  0.017968912  0.017760576            3 
 2127000   0.92244819   -7.9210028    458.81889  0.017975979  0.017754364            6 
 2128000   0.88976835   -7.8916458    459.09781  0.017978454  0.017748146            7 
 2129000   0.89910258   -7.9154238    459.63006  0.017990843  0.017741973            8 
 2130000   0.91590509   -7.9268883    458.78131   0.01794919  0.017735763            5 
 2131000   0.92667973   -7.9451132    458.50742  0.017930057  0.017729552            8 
 2132000   0.91622654   -7.9326435    458.70396  0.017929329  0.017723294            4 
 2133000    0.9092271   -7.9233275    457.81758  0.017886294  0.017717028           13 
 2134000   0.91496029   -7.8963392     459.4019   0.01793978  0.017710855            3 
 2135000   0.89353464   -7.9156323    459.29744    0.0179273  0.017704676            6 
 2136000   0.92160549   -7.8937332    459.68363  0.017933974  0.017698506           10 
 2137000   0.92010675   -7.8801646    458.88329  0.017894372  0.017692299            5 
 2138000   0.91011257   -7.9188913    458.93297  0.017887939  0.017686072           11 
 2139000    0.8913974   -7.9234431    458.87897  0.017877473  0.017679832           17 
 2140000   0.91594708   -7.9166876    459.93668  0.017910307  0.017673621           11 
 2141000   0.91295764   -7.8564534    460.79595  0.017935386  0.017667376            9 
 2142000   0.90698406   -7.9056618     460.1449  0.017901684  0.017661121            4 
 2143000   0.90878918   -7.9248325    458.96452   0.01784743  0.017654893            3 
 2144000   0.91859621   -7.9427602    458.97343  0.017839452  0.017648656            9 
 2145000   0.89390319   -7.9311212     458.0245  0.017794269  0.017642359            6 
 2146000   0.90547578   -7.9307558    458.48088    0.0178037  0.017636043            6 
 2147000   0.93243356   -7.9695749    458.22276  0.017785389  0.017629731            5 
 2148000   0.89659083   -7.9534067    458.98365  0.017806628  0.017623423            4 
 2149000   0.90969909   -7.9456096    458.74113  0.017788938  0.017617112            9 
 2150000   0.89351602    -7.909592    460.00979  0.017829837  0.017610777            4 
 2151000   0.89346607     -7.97613    458.89559  0.017778382  0.017604515            2 
 2152000   0.91183585    -7.900185      461.542  0.017872599  0.017598303            6 
 2153000   0.92418797   -7.9292513    458.58537   0.01774986  0.017592072            4 
 2154000   0.91261332   -7.9113841    460.16112  0.017802581  0.017585878            6 
 2155000   0.92014984   -7.9397005    460.15832  0.017794212  0.017579697            6 
 2156000   0.90520431   -7.9292165    460.65266  0.017805066  0.017573475            5 
 2157000   0.90881991   -7.9005351    459.76147  0.017762381  0.017567289            9 
 2158000   0.89973276    -7.916136    459.95888  0.017761773  0.017561103            8 
 2159000   0.90053933   -7.9490014    460.41902  0.017771307  0.017554903            8 
 2160000   0.92769615   -7.9233222    461.27598  0.017796141   0.01754876            4 
 2161000   0.91518497    -7.943213    461.53433  0.017797869  0.017542554            3 
 2162000   0.89229879   -7.8828678    461.68182  0.017795321  0.017536438            5 
 2163000   0.93250898    -7.924424    460.35349  0.017735918  0.017530264            7 
 2164000   0.88971557    -7.919808    462.02698  0.017792166  0.017524135            3 
 2165000   0.89276837   -7.9296929     460.3436  0.017719153  0.017517903            5 
 2166000   0.90407722   -7.9713305    461.22748  0.017744979  0.017511739            3 
 2167000   0.89703508   -8.0017417    459.82358  0.017682802  0.017505469            6 
 2168000   0.90575381   -7.9937792    460.54715  0.017702458  0.017499208            8 
 2169000   0.89261125   -7.9495406    461.65401  0.017736822  0.017492979            5 
 2170000   0.91628486   -7.9776821     460.5712  0.017687066  0.017486815           14 
 2171000   0.87969636   -7.9619469    461.89902  0.017729887  0.017480635           30 
 2172000   0.87603901   -7.9521333    460.57653  0.017670984  0.017474422            8 
 2173000   0.90212721   -7.9623526    462.44704  0.017734585   0.01746827           12 
 2174000   0.90196377   -7.9568851    461.66405  0.017696414  0.017462076           15 
 2175000   0.90630636   -7.9568008    461.90716  0.017697592  0.017455907            9 
 2176000   0.89750571   -7.9812731     460.8548  0.017649157   0.01744971           11 
 2177000   0.90791087   -7.9981977    461.24543  0.017656003   0.01744349            9 
 2178000    0.8897305   -7.9878921    461.13197  0.017643556   0.01743725            5 
 2179000   0.90529997   -7.9418696    462.20013  0.017676309  0.017431088            5 
 2180000   0.90832481   -7.9022314    461.71013   0.01764947   0.01742495           12 
 2181000   0.89720914   -7.9445536    462.58529  0.017674816  0.017418862           16 
 2182000   0.89201689   -7.9207393    461.56935  0.017627916  0.017412733            6 
 2183000   0.90574192   -7.9400858    463.38564  0.017689175  0.017406613            5 
 2184000   0.88129871   -7.9398776    462.73316   0.01765618  0.017400481            6 
 2185000   0.89578172   -7.9824738    462.26843  0.017630375  0.017394355            5 
 2186000   0.91985568   -7.9735715    462.00043  0.017612093  0.017388268            3 
 2187000   0.91995311   -7.9668686    462.12253  0.017608693  0.017382114            4 
 2188000   0.90623438   -7.9602727     462.4831  0.017614378  0.017375993           13 
 2189000   0.91059983   -7.9512016    462.55832  0.017609194  0.017369874            5 
 2190000   0.88734206   -7.9461858    463.33415  0.017630675  0.017363782            7 
 2191000   0.88948893   -7.9231694    463.69274  0.017636267  0.017357661            8 
 2192000   0.88790703    -7.934736    463.93729  0.017637519  0.017351579           10 
 2193000   0.89668351   -7.9564734    462.91009  0.017590443  0.017345522            5 
 2194000   0.89884261   -7.9338964    463.97443  0.017622851  0.017339421            6 
 2195000    0.9177904   -7.9644065    463.58208  0.017599927  0.017333317           11 
 2196000   0.90132907   -7.9620295    463.03963  0.017571328  0.017327215           16 
 2197000   0.90742613   -7.9530205    463.52814  0.017581859  0.017321138            8 
 2198000    0.8933233   -7.9395269    463.37198   0.01756794  0.017315069            4 
 2199000   0.89182538   -7.9098356    465.50193  0.017640668  0.017309056            8 
 2200000   0.91535626   -7.9466508    464.16642  0.017582061  0.017302967           21 
 2201000    0.9063116   -7.9380136     464.7575  0.017596452  0.017296841           18 
 2202000   0.89380141   -7.9662397    463.00893  0.017522288  0.017290722            6 
 2203000    0.9131547   -7.9509489    463.59127  0.017536362  0.017284557            9 
 2204000    0.8814829   -7.9593903    464.08868  0.017547213  0.017278453            8 
 2205000   0.88847425   -7.9797883    461.88184  0.017455852  0.017272356            6 
 2206000   0.88488621   -7.9646306    462.78092  0.017481902  0.017266265            5 
 2207000   0.90396203   -7.9299328    463.85033  0.017514361  0.017260196            7 
 2208000   0.89285471   -7.9382484    463.85166  0.017506479  0.017254082            4 
 2209000   0.88618273   -7.9380144    463.49907  0.017485252  0.017247958            4 
 2210000   0.90422123   -7.9534507    464.34789  0.017509347  0.017241845            4 
 2211000   0.90046739   -7.9757293     463.6899  0.017476628  0.017235749            5 
 2212000   0.90000488   -7.9600619    463.64882   0.01746718   0.01722963            4 
 2213000   0.92119959   -7.9204258    465.23982  0.017519198  0.017223531            4 
 2214000   0.90320626   -7.9499046    465.47981  0.017520318  0.017217435            4 
 2215000   0.88958298   -7.9612021    464.24255   0.01746586  0.017211357           12 
 2216000   0.89813551   -7.9893761    464.51934  0.017468387  0.017205273            5 
 2217000   0.88962945   -7.9345058    465.06577  0.017481047  0.017199229            4 
 2218000   0.90666341   -7.9374193    466.05236  0.017510233  0.017193185            4 
 2219000   0.88807967   -7.9797041    463.88729  0.017421034  0.017187144            4 
 2220000   0.88319686   -7.9825114    465.22054  0.017463233  0.017181078            7 
 2221000   0.90409686   -7.9784268    464.02778  0.017410617  0.017174976            4 
 2222000    0.8915847   -7.9864542    464.51371  0.017421006   0.01716886           14 
 2223000   0.89197383   -8.0289207    463.37413   0.01737045  0.017162687            7 
 2224000   0.88984352   -7.9831737    463.97268  0.017385067   0.01715654            4 
 2225000   0.91439885   -7.9876466    465.57315  0.017437197  0.017150442            3 
 2226000   0.88712664   -7.9828526    464.09026  0.017373849  0.017144345            8 
 2227000   0.90329541   -8.0105481     463.3852  0.017339665  0.017138214            5 
 2228000   0.88399241   -7.9895914    465.52023  0.017411738  0.017132072            5 
 2229000   0.89288242   -7.9759998    464.47554   0.01736487  0.017125924           11 
 2230000   0.90598806   -7.9669853    464.98361  0.017376069  0.017119806            7 
 2231000   0.88316205   -8.0155605    464.48234  0.017349557  0.017113693            4 
 2232000   0.89018651   -7.9804149    465.49478  0.017379584  0.017107579            4 
 2233000   0.90308239   -8.0089268    463.92817  0.017313337  0.017101497            8 
 2234000   0.86606404   -7.9698881    465.03748  0.017346966  0.017095407            6 
 2235000   0.88513212   -7.9682968    464.83808   0.01733177  0.017089327            5 
 2236000   0.90703715   -7.9650514    465.38288  0.017344323  0.017083275            5 
 2237000   0.91131229   -7.9941813    464.88346  0.017317965  0.017077199            9 
 2238000   0.89716212   -7.9657226    465.16309  0.017320639  0.017071109           10 
 2239000   0.90705595   -8.0002678    465.92297  0.017341185  0.017065007            7 
 2240000   0.88916191   -7.9746393    465.54586  0.017319414  0.017058953            8 
 2241000    0.9219753   -8.0174644     465.3472  0.017304299  0.017052872            9 
 2242000   0.91136521   -8.0083187    465.06372  0.017286044  0.017046781            7 
 2243000   0.90294217   -7.9757863    467.12983  0.017355098    0.0170407            4 
 2244000   0.89323874   -7.9933966    465.14966  0.017273829  0.017034667           15 
 2245000   0.88215859   -7.9826826    466.30954  0.017309189  0.017028638            6 
 2246000   0.90078014   -7.9681284     464.8671  0.017247963  0.017022596            6 
 2247000   0.89577492   -7.9929953    465.78557   0.01727435  0.017016566            6 
 2248000   0.89398682     -7.98556    466.78888  0.017303858  0.017010526           10 
 2249000   0.90721251   -8.0262551    465.36595   0.01724344  0.017004434           33 
 2250000   0.88736587   -7.9664461     466.0067  0.017259507  0.016998356            6 
 2251000   0.90247277   -7.9910473    466.44581  0.017268096  0.016992251            7 
 2252000    0.8837258   -7.9456556    467.27781  0.017291216  0.016986236           10 
 2253000    0.8790518   -7.9923055    465.23641  0.017208034  0.016980175            5 
 2254000   0.87178423   -7.9744147    466.78505  0.017257655  0.016974076            4 
 2255000   0.88991136   -7.9924216    466.07291  0.017223685  0.016967968            8 
 2256000    0.8938221   -8.0030096    465.64564  0.017200267  0.016961869           11 
 2257000   0.88631166   -7.9943263    465.55466  0.017189287  0.016955794           16 
 2258000   0.88290574   -8.0210547    465.28084  0.017171569  0.016949689            4 
 2259000    0.8980095   -8.0128463    466.81172  0.017220441  0.016943626            5 
 2260000   0.89629267   -7.9850923    466.29696  0.017193841   0.01693762            3 
 2261000   0.88056508   -7.9891678    467.16517  0.017218236  0.016931619            2 
 2262000   0.88938428   -7.9550745    467.02027  0.017205286  0.016925649            2 
 2263000   0.87269171   -7.9894882    467.10311  0.017200733  0.016919714            5 
 2264000   0.90167304   -7.9762005    467.05705   0.01719144  0.016913745           13 
 2265000    0.8841555   -8.0155425     466.9269  0.017179062  0.016907741           13 
 2266000   0.87968573   -7.9926738    465.55399  0.017120991   0.01690169           23 
 2267000   0.91035727   -8.0254528    466.87838  0.017162123  0.016895614            5 
 2268000   0.87158597   -7.9827206    468.11023  0.017199817  0.016889583            8 
 2269000   0.86983925   -8.0081597    467.08154  0.017154456  0.016883521            8 
 2270000   0.89490229   -7.9810907    468.21705  0.017188585  0.016877445            5 
 2271000   0.87931274   -8.0096316    467.66285   0.01716068  0.016871409            5 
 2272000   0.87826177   -7.9882243    465.96799  0.017090962   0.01686538            6 
 2273000    0.8978721   -7.9903931    467.78153  0.017149931  0.016859341            5 
 2274000   0.88710834   -8.0095039     467.7804  0.017142348  0.016853303            5 
 2275000   0.88152081   -7.9625106    467.16414   0.01711224  0.016847332            5 
 2276000   0.89325307   -7.9876063    467.40893  0.017113684  0.016841346           10 
 2277000   0.88079232   -8.0069669    467.48887  0.017109093  0.016835321           17 
 2278000   0.90506306   -7.9749064    468.79331  0.017149302  0.016829328            4 
 2279000   0.90891242   -8.0245528    467.88843  0.017108689  0.016823287           18 
 2280000   0.89976864    -8.000707    468.72021  0.017131587  0.016817215           14 
 2281000   0.90330426   -8.0024647    468.34038  0.017110199   0.01681118            6 
 2282000   0.87193896   -8.0141138    467.90506  0.017086805  0.016805143            9 
 2283000   0.87507155    -7.982541    467.55962  0.017066711  0.016799098            6 
 2284000   0.87931782   -8.0343923    467.50373    0.0170572  0.016793029            7 
 2285000   0.89291526   -8.0341196    466.45883  0.017011628  0.016786966           28 
 2286000   0.88469108   -8.0134184    467.89121  0.017056402  0.016780923           14 
 2287000   0.88384338   -8.0268836    467.81109  0.017046024  0.016774916           27 
 2288000   0.86472718   -8.0160828    468.49253  0.017063394  0.016768899           17 
 2289000   0.88250723   -8.0015967    467.68367  0.017026492    0.0167629           20 
 2290000   0.90338638   -8.0056152     469.3477  0.017079611    0.0167569            8 
 2291000   0.88775491   -8.0454525    468.05292  0.017025059  0.016750927           18 
 2292000   0.88825176   -8.0139737    469.34085  0.017064458  0.016744907           13 
 2293000   0.88996489   -8.0035917    467.56188  0.016992364  0.016738896           14 
 2294000   0.87006729   -8.0290376    468.18676  0.017007656  0.016732896            8 
 2295000   0.88662467   -8.0237647    467.28881   0.01696764  0.016726896           18 
 2296000   0.87932349   -8.0113706    468.04118  0.016987557  0.016720913            8 
 2297000   0.86404917   -8.0081478    468.96261  0.017013591  0.016714903           14 
 2298000   0.88291895   -7.9809217    468.84379  0.017001878   0.01670895           16 
 2299000   0.88997748   -8.0225332    468.66091  0.016987854  0.016702989            7 
 2300000   0.89109556   -8.0164986    468.36892  0.016969889  0.016697044            9 
 2301000   0.87444477   -7.9951319    469.96201  0.017020209   0.01669111           14 
 2302000    0.8669225   -7.9752243    469.37087  0.016991416  0.016685222           11 
 2303000    0.8749291   -8.0044795    469.10664  0.016974477  0.016679312           16 
 2304000   0.87418555   -7.9996788    469.38984  0.016977353  0.016673375            4 
 2305000   0.89754733   -8.0183944    469.17208  0.016962114  0.016667478            5 
 2306000   0.86096999   -8.0052017    469.32036  0.016960117  0.016661571            4 
 2307000   0.88991322   -7.9886163    470.49388  0.016995155  0.016655662            7 
 2308000   0.88413508    -7.994862    469.77983   0.01696201  0.016649731            3 
 2309000   0.87622979   -7.9818056    470.73626  0.016989182  0.016643826            4 
 2310000   0.89153322   -8.0163887    468.89615  0.016915445  0.016637899            9 
 2311000   0.87570458    -8.009151    470.15025  0.016953348  0.016631994           10 
 2312000    0.8764352   -7.9758734    470.58226  0.016961587  0.016626073           12 
 2313000   0.89156192   -8.0270029    469.75147  0.016924322  0.016620173           13 
 2314000   0.86129485   -8.0243278    469.23924  0.016898561  0.016614211            5 
 2315000   0.89607386   -7.9986873    469.54867    0.0169024  0.016608266            3 
 2316000   0.88697571   -8.0038762    470.09997  0.016914938  0.016602361            6 
 2317000   0.88455192   -8.0403943    468.28557  0.016842381  0.016596459            4 
 2318000   0.88527459   -8.0162789    469.69475  0.016885776   0.01659055            6 
 2319000   0.88051111   -7.9893094    470.70541  0.016914813  0.016584697            6 
 2320000   0.87146452   -8.0080094    469.72751  0.016872396  0.016578805            5 
 2321000   0.88487297   -8.0194425    470.15529  0.016880486  0.016572892            3 
 2322000   0.88869275   -7.9906886    469.89425  0.016863847  0.016566971            4 
 2323000   0.89589989   -8.0364371    468.98042  0.016823806  0.016561025            5 
 2324000   0.88230721   -8.0412824    469.95843  0.016851636  0.016555031            7 
 2325000   0.87132586   -8.0543775    469.59815  0.016831475  0.016549041           14 
 2326000   0.87911598   -8.0509509    469.67647  0.016827045  0.016543046           10 
 2327000   0.88767497   -8.0293602     469.9089  0.016828137  0.016537101            2 
 2328000   0.86016573   -8.0057936    471.14265  0.016865072  0.016531151            6 
 2329000   0.89105672   -8.0160744    469.80203  0.016809862  0.016525219            7 
 2330000   0.88295477   -8.0412367    469.06259  0.016776201  0.016519206            6 
 2331000   0.88480606   -8.0370874     470.6483  0.016825694  0.016513236            6 
 2332000   0.88577392   -8.0601599    469.01877  0.016760248  0.016507245            6 
 2333000   0.87688311   -8.0322212    469.59506  0.016773648  0.016501226            7 
 2334000   0.86223155    -8.057276    469.92051  0.016778081  0.016495216            8 
 2335000    0.8639119    -8.055129    469.33459  0.016749985  0.016489235           17 
 2336000   0.88968228   -8.0797445    469.67611  0.016754998  0.016483233            4 
 2337000   0.86117678   -8.0303276    470.88255  0.016790848  0.016477226           21 
 2338000   0.89697234   -7.9870139    471.29587  0.016798399   0.01647129           18 
 2339000   0.87910745   -8.0443783    470.01775   0.01674568  0.016465358            5 
 2340000   0.86962193   -8.0400658    470.20304  0.016745122  0.016459414           25 
 2341000   0.90035516   -8.0125445    470.14837  0.016736023  0.016453453           13 
 2342000   0.87858708   -8.0103562    470.48289   0.01674078  0.016447502           22 
 2343000   0.86140082   -8.0509427    469.27251  0.016690586  0.016441499            5 
 2344000   0.87022968   -8.0563962    470.65269  0.016732533   0.01643551            4 
 2345000   0.87390319   -8.0524089    469.94959  0.016700412  0.016429558           10 
 2346000   0.86392106   -8.0524807    470.97844  0.016729839  0.016423623            6 
 2347000   0.87038227   -8.0700841    470.18822  0.016694653  0.016417687            6 
 2348000    0.8553166   -8.0572141    470.29563  0.016691356  0.016411754            5 
 2349000   0.88298711   -8.0465247    471.69548  0.016733911   0.01640585            3 
 2350000   0.88989858   -8.0267328     472.0808  0.016740454  0.016399986            4 
 2351000   0.87257004   -8.0235806    471.85923   0.01672548   0.01639412           20 
 2352000   0.87913059   -8.0276223    472.99518  0.016758616  0.016388273            6 
 2353000   0.87758603   -8.0120506    472.45332  0.016732304  0.016382461            5 
 2354000   0.88019663   -8.0251389    472.34734  0.016721443  0.016376631            7 
 2355000   0.88159947   -7.9920712    472.22031  0.016709848  0.016370797            3 
 2356000   0.87992906   -8.0205038    472.53666  0.016713945  0.016364968            7 
 2357000   0.87517089   -7.9902472    472.89936  0.016719678  0.016359109            3 
 2358000    0.8769806   -8.0012224    473.60502  0.016737525  0.016353296            3 
 2359000   0.88419644   -8.0006418    471.99839  0.016673675  0.016347431            4 
 2360000   0.86356386   -8.0037195    470.94624  0.016629458  0.016341531            6 
 2361000   0.88569913   -8.0166985    471.56277  0.016644175  0.016335661            3 
 2362000   0.86068139   -8.0312012    471.87332  0.016648085  0.016329802            3 
 2363000   0.87617704   -8.0087227    471.96777   0.01664437  0.016323936            8 
 2364000   0.87834958   -8.0276631    472.03273   0.01663962   0.01631807            5 
 2365000   0.87065585   -8.0254899    471.73412  0.016622062  0.016312194            5 
 2366000   0.87131144   -8.0401615    472.30581  0.016635172  0.016306312           14 
 2367000    0.8571217   -8.0622567    471.68907  0.016606431  0.016300419            6 
 2368000    0.8877094   -8.0037545    471.82489  0.016604198  0.016294524            8 
 2369000   0.86864776   -8.0619359    471.51529  0.016586298  0.016288657            7 
 2370000   0.87801742   -8.0553873    472.36025   0.01660901  0.016282796            5 
 2371000   0.88816153   -8.0304237    472.33394   0.01660108  0.016276917            7 
 2372000   0.87076743   -8.0217763      473.638  0.016639896  0.016271076            8 
 2373000   0.87163531   -8.0279775    473.32952  0.016622051  0.016265251            7 
 2374000   0.86861142   -8.0090383    473.91723  0.016635679  0.016259444            6 
 2375000   0.87553763   -8.0151764    473.02436  0.016597346   0.01625362            6 
 2376000   0.87265906   -8.0402372    472.38311   0.01656787  0.016247781           12 
 2377000   0.85808639   -8.0387097    474.10786  0.016621367   0.01624193            9 
 2378000   0.87309027    -8.027864    472.50187  0.016558097   0.01623605            3 
 2379000   0.87597167   -8.0218535    472.65366  0.016556454  0.016230183           16 
 2380000   0.88068348   -8.0356642    473.73514  0.016587365  0.016224366            6 
 2381000   0.88471221   -8.0469471    472.94552  0.016552762  0.016218522            4 
 2382000   0.87110145   -8.0570625    473.09889  0.016551178  0.016212681            7 
 2383000   0.88614715   -8.0136855    473.47327  0.016557325  0.016206849           14 
 2384000   0.87320467   -8.0423262    472.68006  0.016522653  0.016201036           11 
 2385000   0.85728228   -8.0282506    473.03193   0.01652802  0.016195206           11 
 2386000   0.84768794   -8.0568075     473.3154  0.016530993  0.016189352           13 
 2387000   0.85331873   -8.0689811    472.76256  0.016504767  0.016183496           14 
 2388000   0.86166232   -8.0706894    473.27883  0.016515872  0.016177655           22 
 2389000   0.86561054   -8.0671255    471.99712   0.01646425   0.01617182           22 
 2390000    0.8539756   -8.0551471    473.20421   0.01649945  0.016165958           12 
 2391000   0.86167623   -8.0958011    472.82705  0.016479404  0.016160094           21 
 2392000   0.86537824   -8.0832658    471.57619  0.016428937  0.016154183           23 
 2393000    0.8834926   -8.1406485    472.93862  0.016469516  0.016148274           25 
 2394000   0.86685689    -8.076001    471.61375  0.016416519  0.016142351           32 
 2395000   0.87243221   -8.0717947    473.05349  0.016459759  0.016136444           27 
 2396000     0.875486   -8.0922549     472.2207  0.016423925  0.016130572           34 
 2397000   0.87630126   -8.0900303    473.16453  0.016449886  0.016124694           28 
 2398000   0.86208661   -8.0773031     473.3569  0.016449711  0.016118815            7 
 2399000   0.88116346   -8.0928176    472.64336  0.016418069  0.016112961           11 
 2400000   0.86683733   -8.0839801    472.74697  0.016414825  0.016107117           18 
 2401000   0.86973841   -8.0526094    474.18515  0.016457905   0.01610126           16 
 2402000   0.85737808   -8.0849144    474.09662  0.016447982  0.016095419           10 
 2403000   0.86108923   -8.0596634    474.04302  0.016439278  0.016089617           32 
 2404000   0.89109108   -8.1034929    472.86448  0.016391586  0.016083785           17 
 2405000    0.8593723   -8.0662346     473.2491  0.016398098  0.016077943           20 
 2406000   0.87594617   -8.0703438    473.40566  0.016396705  0.016072136           27 
 2407000   0.84039864   -8.1081756    474.05448  0.016412356  0.016066348           23 
 2408000   0.87105259   -8.1276765    472.12092  0.016338625   0.01606052           17 
 2409000   0.86035048   -8.0835124    474.55109  0.016415909  0.016054697            6 
 2410000   0.87885756   -8.0410662    474.02762  0.016390996  0.016048862           11 
 2411000   0.86350418   -8.0557533    474.26924   0.01639255  0.016043046            9 
 2412000   0.87207085   -8.1005445    473.98935  0.016376083  0.016037234            8 
 2413000   0.84450911   -8.0648528    474.84594  0.016398879  0.016031409            4 
 2414000   0.86233174   -8.0706408    474.86949  0.016392899  0.016025634            7 
 2415000   0.85638176   -8.0729324    473.90918  0.016352974  0.016019847           17 
 2416000   0.86865437   -8.0606926    474.05259  0.016351152  0.016014037            7 
 2417000   0.86565654   -8.0548121    474.15521  0.016347925  0.016008204           11 
 2418000   0.86362421    -8.090875    473.38731  0.016314699  0.016002356           13 
 2419000   0.87546773   -8.0567864     475.0417  0.016364948   0.01599652           25 
 2420000   0.84837337   -8.0644456    474.99106  0.016356441  0.015990696           22 
 2421000   0.85770058   -8.0938046    474.51914  0.016333441  0.015984915           15 
 2422000   0.87039632   -8.0714303    474.08335  0.016311703  0.015979108           18 
 2423000   0.85789078    -8.061626    474.55558  0.016321213  0.015973314           23 
 2424000   0.86465476   -8.0635797     475.0622  0.016331896  0.015967518           20 
 2425000   0.85202363   -8.0579287    474.53484  0.016307039  0.015961717           26 
 2426000   0.88098787   -8.0752606    474.95353  0.016314699  0.015955907           21 
 2427000   0.86406296    -8.051079    475.03618  0.016310815   0.01595011           36 
 2428000   0.86009191   -8.0579156    475.56979  0.016322412  0.015944309           24 
 2429000    0.8737509   -8.0885726    474.97609  0.016295323  0.015938541           51 
 2430000   0.86578438   -8.0743349    474.48238  0.016271687  0.015932752           31 
 2431000   0.84872522   -8.0291251    475.82822  0.016311128  0.015926979           46 
 2432000   0.85498758   -8.0764523     475.8893  0.016306514  0.015921174           21 
 2433000   0.86043881    -8.106357    473.77373  0.016227351  0.015915368           36 
 2434000   0.87071208   -8.1110129    475.22667  0.016270428  0.015909581           34 
 2435000   0.87363143   -8.0825578    474.79377  0.016248931  0.015903776           23 
 2436000   0.86052335   -8.0572163     474.6727  0.016238119  0.015897973           29 
 2437000   0.84834632   -8.1030841    474.15364  0.016213707  0.015892132           20 
 2438000   0.87533409   -8.1010582    474.50901  0.016219203  0.015886305           33 
 2439000   0.86463871   -8.0921387    474.82258  0.016223267  0.015880473           46 
 2440000   0.85605552     -8.07893    474.30646  0.016198991  0.015874687           31 
 2441000   0.86251966   -8.0902217    474.95161   0.01621438  0.015868864           45 
 2442000   0.86931919    -8.097652    474.19628  0.016181964  0.015863032           28 
 2443000   0.86570469   -8.0590855    475.29471  0.016212809  0.015857257           14 
 2444000   0.86855455   -8.0714936    476.10361  0.016233757  0.015851462           23 
 2445000   0.85298605   -8.0706281     475.9499  0.016221878  0.015845692           33 
 2446000   0.86085353    -8.110877    473.87129  0.016144429  0.015839882           26 
 2447000   0.84551406   -8.1076636    474.58487  0.016162133   0.01583405            7 
 2448000   0.85275677   -8.1161379    472.53344  0.016085697  0.015828194           40 
 2449000   0.87289119   -8.1205525    474.36813  0.016141559  0.015822345           47 
 2450000   0.85062808   -8.1068088    474.58485  0.016142342  0.015816482           70 
 2451000   0.85239169   -8.1220162    474.08616  0.016118801  0.015810602           61 
 2452000    0.8518778   -8.1043224    473.46915  0.016091257  0.015804704           73 
 2453000    0.8545444   -8.1519274    473.51892  0.016086388  0.015798796           71 
 2454000   0.85437213   -8.1206152    474.77037   0.01612233  0.015792915           73 
 2455000   0.87281345   -8.1235928     475.0045   0.01612371  0.015787056           74 
 2456000   0.85063301   -8.1168814    475.11777  0.016120988  0.015781207          126 
 2457000   0.87098015   -8.0940996    474.93613  0.016108267  0.015775351          123 
 2458000   0.88397693   -8.1297886    473.89688  0.016066479  0.015769519          120 
 2459000   0.85123906   -8.1472129    474.32683  0.016074516  0.015763676          138 
 2460000   0.84868435   -8.0978451    476.06737  0.016126943  0.015757823          147 
 2461000   0.85657747   -8.1218317    474.05457  0.016052234  0.015751995          148 
 2462000   0.85424078   -8.1417813    474.92083  0.016075035  0.015746126          144 
 2463000   0.87044879   -8.0997043    474.68975   0.01606069  0.015740278          163 
 2464000   0.86492427   -8.1237355    474.91603  0.016061825  0.015734428          155 
 2465000   0.85802413   -8.1243932    474.06215  0.016026442  0.015728557          188 
 2466000   0.86985827   -8.1477934     474.1703  0.016023598  0.015722666          207 
 2467000   0.83866296   -8.1200871    474.51614  0.016028785  0.015716773          180 
 2468000   0.84027954   -8.0973983    475.20003  0.016045382  0.015710927          190 
 2469000   0.83943628   -8.1338441    474.34656  0.016010077  0.015705031          222 
 2470000   0.86059113   -8.1864689    472.73394  0.015949188  0.015699125          224 
 2471000   0.85345216   -8.1628673    473.21273  0.015958881  0.015693188          195 
 2472000   0.85667541   -8.1708418     473.3709  0.015957757  0.015687248          232 
 2473000   0.84060917   -8.1227179    474.70272  0.015996183   0.01568136          284 
 2474000   0.86497634   -8.1472304    473.81899   0.01595995  0.015675489          299 
 2475000   0.85282742   -8.0765649    475.24834  0.016001628  0.015669654          284 
 2476000   0.83850088   -8.1425776    474.61017  0.015973686   0.01566378          337 
 2477000    0.8653733   -8.1558987     474.3442   0.01595829   0.01565787          344 
 2478000   0.83463065   -8.1588019    475.01014  0.015974245  0.015651932          369 
 2479000   0.84615802   -8.1552346    473.78666  0.015926673  0.015645981          398 
 2480000   0.84980986   -8.1760204    475.05488  0.015962866  0.015640041          373 
 2481000   0.86244098   -8.1515762    472.95038  0.015885744  0.015634098          420 
 2482000   0.85639795   -8.1364304    473.73162  0.015905574  0.015628126          391 
 2483000   0.84590452   -8.1910329    473.01018  0.015874956  0.015622166          416 
 2484000   0.86199474   -8.2072077    472.48546  0.015850962  0.015616183          487 
 2485000   0.83500417   -8.1872277    472.80047  0.015855147  0.015610194          458 
 2486000   0.86562145   -8.1661591    472.32925  0.015832973  0.015604228          501 
 2487000   0.85687149   -8.1788889    473.67875  0.015871825  0.015598235          469 
 2488000   0.86707698   -8.2114423    471.58833  0.015795429  0.015592214          476 
 2489000   0.84629666   -8.1874324    472.67278  0.015825391  0.015586181          415 
 2490000   0.83890327   -8.1699058     472.8825  0.015826054  0.015580183          473 
 2491000   0.86867697   -8.1748644    471.91008   0.01578717  0.015574187          437 
 2492000    0.8603963   -8.1871994    473.67887  0.015839984  0.015568173          462 
 2493000   0.84526979   -8.2257742    472.25752  0.015786119  0.015562136          465 
 2494000   0.86116843   -8.2250711    472.33801  0.015782478  0.015556104          469 
 2495000   0.85121516    -8.196895    473.18314   0.01580438  0.015550075          525 
 2496000   0.84866606   -8.2190075    473.16291  0.015797373  0.015544048          521 
 2497000   0.84223563   -8.2138126    474.13472  0.015823479  0.015538047          539 
 2498000   0.83706503   -8.1777682    473.44181  0.015794029  0.015532025          564 
 2499000   0.84166949    -8.218013    473.58202  0.015792384  0.015525998          522 
 2500000   0.83882351   -8.2259676    472.26779   0.01574226  0.015519975          550 
 2501000   0.85620029   -8.2106622    472.86361  0.015755818  0.015513916          536 
 2502000    0.8565508    -8.203132       472.29  0.015730416  0.015507855          565 
 2503000   0.84418394   -8.1906828    472.81668  0.015741666  0.015501823          622 
 2504000   0.85467003   -8.2310885    472.66328  0.015730274  0.015495788          561 
 2505000   0.84972025   -8.2414514    472.14054  0.015706605  0.015489693          661 
 2506000    0.8415101   -8.2810606    472.36356  0.015707753  0.015483585          685 
 2507000   0.84471307   -8.2882594    472.73411  0.015713805  0.015477491          711 
 2508000   0.85854425   -8.2739243    471.41171    0.0156636  0.015471363          766 
 2509000   0.86117923   -8.2884436    470.05744  0.015612377  0.015465231          816 
 2510000   0.85506752   -8.2826267    471.24703  0.015645652  0.015459082          802 
 2511000   0.84868844   -8.2853917    471.36626  0.015643378  0.015452953          841 
 2512000   0.84630742   -8.3163566    471.23862  0.015632916  0.015446792          870 
 2513000   0.85512366   -8.3314659     471.2041  0.015625551  0.015440621          977 
 2514000   0.83344879   -8.3178036    470.27258  0.015588457  0.015434409          982 
 2515000   0.86827489   -8.3454119    470.46852  0.015588752  0.015428196          966 
 2516000   0.85012423   -8.3141278     471.4337  0.015614524  0.015421966          995 
 2517000    0.8518032   -8.3397925    470.33319  0.015571884  0.015415722         1077 
 2518000   0.85052955   -8.3469759    469.94181  0.015552747  0.015409413         1118 
 2519000   0.84630131   -8.3532974    470.23108  0.015556143  0.015403103         1059 
 2520000   0.85649079   -8.3955084    469.56352  0.015527894  0.015396796         1175 
 2521000   0.85232208   -8.3803778    468.89377  0.015499596  0.015390482         1136 
 2522000   0.84001644   -8.3904183    469.39407  0.015509981  0.015384178         1182 
 2523000   0.84818842   -8.3825798    469.06598  0.015492997  0.015377858         1242 
 2524000   0.86076283   -8.4140841    469.21292   0.01549171  0.015371517         1292 
 2525000   0.82414951   -8.3991593    468.55654  0.015463912  0.015365193         1384 
 2526000   0.84937263   -8.4209968      469.494  0.015488717  0.015358849         1390 
 2527000   0.85868705   -8.4309348    469.11262  0.015470011  0.015352478         1389 
 2528000   0.84643957   -8.4466178    467.71046  0.015417671  0.015346107         1456 
 2529000   0.83243148    -8.428076    468.81739  0.015448049  0.015339684         1414 
 2530000   0.85901068   -8.4624213    468.88075   0.01544403  0.015333274         1476 
 2531000   0.83789418   -8.4534092    468.97566  0.015441053  0.015326851         1563 
 2532000   0.83420264   -8.4786593    468.08566  0.015405663  0.015320414         1633 
 2533000   0.86143274   -8.5092439    467.97203  0.015395843  0.015313942         1717 
 2534000   0.84503657   -8.5100731    467.10824   0.01536136  0.015307477         1819 
 2535000   0.84200403   -8.5467359    465.68879  0.015308639   0.01530097         1843 
 2536000   0.84634012   -8.5315304    467.04187  0.015347064  0.015294432         2033 
 2537000   0.84215958   -8.5652615    465.90007   0.01530351  0.015287889         2018 
 2538000    0.8382907     -8.54281     467.4377  0.015347968   0.01528134         2146 
 2539000   0.84854381   -8.6043995    465.78795  0.015287776  0.015274757         2268 
 2540000   0.84816523   -8.5948636    466.56815  0.015307354  0.015268129         2342 
 2541000   0.85957706   -8.6593036    463.62305  0.015204744  0.015261484         2497 
 2542000   0.85081103   -8.6544895    464.45897  0.015226166  0.015254768         2508 
 2543000   0.84686734   -8.6797114    463.14087  0.015176985   0.01524802         2694 
 2544000   0.84319947   -8.7220598    462.72109  0.015157269  0.015241243         2888 
 2545000   0.84834487   -8.7417365    462.14918  0.015132586  0.015234427         2920 
 2546000   0.84228726     -8.75133    461.03434  0.015090153  0.015227544         3032 
 2547000    0.8322806   -8.7566907     460.5929  0.015069785  0.015220627         3162 
 2548000   0.83328773   -8.7996478    460.39449  0.015057381  0.015213677         3200 
 2549000   0.83892075   -8.8122652    460.12697  0.015042728  0.015206712         3269 
 2550000   0.83369796   -8.8286632    459.15967  0.015005218  0.015199705         3327 
 2551000   0.84127908   -8.8381464    459.35957  0.015005866  0.015192699         3346 
 2552000   0.84928412   -8.8524075    458.77787  0.014980991  0.015185649         3386 
 2553000   0.85224485   -8.8835128    458.66714  0.014971509   0.01517857         3437 
 2554000   0.85338961   -8.8964083    458.14512  0.014948614  0.015171465         3518 
 2555000    0.8598456   -8.9123391    459.07444  0.014973074  0.015164341         3525 
 2556000   0.85256796   -8.9174828    458.25337  0.014940446  0.015157203         3509 
 2557000   0.83890614   -8.9305203    457.97377  0.014925491  0.015150063         3553 
 2558000    0.8477253   -8.9478387    457.74992  0.014912364  0.015142923         3574 
 2559000   0.82923749   -8.9295647    458.69405  0.014937282  0.015135774         3604 
 2560000   0.86703308   -8.9417929    457.72758  0.014899986  0.015128632         3635 
 2561000   0.83963494   -8.9384806    458.36858  0.014915026  0.015121467         3643 
 2562000   0.84337702   -8.9294809    457.61854  0.014884808  0.015114294         3687 
 2563000   0.84643402   -8.9710317    456.24916  0.014834477  0.015107115         3739 
 2564000   0.85513864   -8.9610737    457.76488  0.014877954  0.015099922         3702 
 2565000   0.83284669   -8.9667014    457.50453  0.014863695  0.015092719         3711 
 2566000   0.83736806   -8.9544245    456.92791  0.014839176  0.015085522         3664 
 2567000   0.83223923   -8.9705239    456.90379  0.014832612  0.015078333         3739 
 2568000   0.82826742   -8.9721328    457.00015  0.014829963  0.015071133         3716 
 2569000   0.85373799   -8.9889407     456.7991  0.014817669  0.015063932         3727 
 2570000   0.82607956   -8.9888187    456.07567  0.014788446  0.015056724         3778 
 2571000   0.82550353   -8.9792436    455.87561  0.014776209  0.015049519         3763 
 2572000   0.83261884   -8.9902066    457.17868  0.014812684  0.015042306         3773 
 2573000   0.83045666   -8.9981222    457.15902   0.01480629  0.015035087         3744 
 2574000   0.85294728   -8.9903017    456.73041  0.014786662  0.015027888         3762 
 2575000   0.84478284   -9.0275165    456.15756  0.014762381  0.015020673         3800 
 2576000   0.83762636     -9.01101     456.3226  0.014761989  0.015013469         3799 
 2577000   0.84731315   -8.9837315    455.23773  0.014721179  0.015006262         3805 
 2578000   0.83370829   -8.9703753    456.47336   0.01475541  0.014999045         3758 
 2579000   0.82727672   -9.0020371    456.15642  0.014739447  0.014991836         3770 
 2580000   0.84559121   -9.0091884    456.19204  0.014734885  0.014984641         3808 
 2581000   0.81508283   -9.0134761    456.68023  0.014744938  0.014977444         3808 
 2582000   0.82248617   -9.0119567    456.62623  0.014737485  0.014970242         3824 
 2583000   0.84452798   -9.0123682    457.28416  0.014753005  0.014963045         3797 
 2584000   0.84539164   -9.0287437    456.38578  0.014718324  0.014955833         3812 
 2585000   0.83079848   -8.9977705     457.4648  0.014747415  0.014948642         3818 
 2586000    0.8391057   -9.0132504    456.93586  0.014724667   0.01494144         3780 
 2587000   0.84085997   -9.0199697    455.55443  0.014674476  0.014934236         3788 
 2588000    0.8481877   -8.9901288    456.00447  0.014683297  0.014927034         3833 
 2589000   0.82180315   -8.9975792    456.79436   0.01470305  0.014919846         3809 
 2590000   0.82050492   -9.0217511     456.5332  0.014688971  0.014912653         3825 
 2591000   0.82811628   -8.9974526    457.66927   0.01471984  0.014905467         3787 
 2592000   0.82506013   -9.0252848    455.71356  0.014651285  0.014898283         3779 
 2593000   0.83751382   -8.9908486    456.88671  0.014683337  0.014891095         3817 
 2594000   0.83643821   -9.0183832    455.36997   0.01462895  0.014883914         3805 
 2595000   0.82345063   -9.0381068    455.74143  0.014635242  0.014876733         3804 
 2596000   0.81376317   -8.9955336    456.73422  0.014661473  0.014869556         3799 
 2597000   0.83127672   -9.0495817    455.60823  0.014619697  0.014862379         3766 
 2598000   0.82648285   -9.0092381    456.45158  0.014641121    0.0148552         3818 
 2599000   0.82795002   -9.0187037    455.90046  0.014617816  0.014848018         3779 
 2600000   0.83756074   -9.0130789    456.79605  0.014640899  0.014840851         3799 
 2601000   0.85291435   -9.0538249    454.95721  0.014576355  0.014833681         3803 
 2602000   0.84713302   -9.0419788    455.73794  0.014595758  0.014826532         3847 
 2603000   0.84826994   -9.0307988    456.71373   0.01462139  0.014819368         3855 
 2604000   0.82763626   -9.0345093    455.56055  0.014578871  0.014812195         3843 
 2605000   0.84209498   -8.9984965    455.87553   0.01458335  0.014805045         3809 
 2606000   0.83512327   -9.0174702    455.94399  0.014579943  0.014797883         3817 
 2607000   0.83016838   -9.0261509    455.83857  0.014570981  0.014790726         3824 
 2608000   0.83306932   -9.0668977    454.13071  0.014510823  0.014783564         3840 
 2609000   0.84565607   -9.0608397    455.46165  0.014547772  0.014776405         3829 
 2610000    0.8380532   -9.0381355    455.57728   0.01454589  0.014769263         3810 
 2611000   0.82944589   -9.0482905    455.28776  0.014531079  0.014762108         3830 
 2612000   0.83746279   -9.0394374     455.4694  0.014531311   0.01475498         3824 
 2613000    0.8385622   -9.0493992    455.22517   0.01451796  0.014747816         3841 
 2614000   0.84634729   -9.0215772    456.18533  0.014543016   0.01474068         3834 
 2615000   0.83447206   -9.0100183     455.8859  0.014527913  0.014733537         3825 
 2616000   0.84789979   -9.0188182    455.71254  0.014516837  0.014726399         3819 
 2617000   0.85232908   -9.0409249    455.69809  0.014510829  0.014719273         3819 
 2618000   0.83620524   -9.0405369    454.71811  0.014474093  0.014712142         3837 
 2619000   0.82477718   -9.0124427    456.05824  0.014511208  0.014705021         3822 
 2620000   0.83012031   -9.0528049    456.07398   0.01450617  0.014697901         3832 
 2621000   0.84462481   -9.0538224    455.54503  0.014483818  0.014690784         3811 
 2622000   0.82563023   -9.0325819    455.84798  0.014487922  0.014683685         3855 
 2623000   0.83020609   -9.0290384    456.46387  0.014501966  0.014676573         3823 
 2624000   0.82088322   -9.0411661    455.91892  0.014479132  0.014669467         3808 
 2625000   0.83335494   -9.0363713    456.01805  0.014476763  0.014662359         3784 
 2626000   0.83541679   -9.0590469    455.37327  0.014450789  0.014655251         3786 
 2627000    0.8350167   -9.0506066    454.16391  0.014406925  0.014648147         3826 
 2628000   0.81847013   -9.0402646    455.77903  0.014452658  0.014641041         3805 
 2629000   0.83403721   -9.0423486    455.48369  0.014437799  0.014633956         3785 
 2630000   0.82957527   -9.0544643    455.64796  0.014437515  0.014626871         3796 
 2631000   0.82894763    -9.058217    455.71537  0.014434162  0.014619775         3803 
 2632000    0.8402806   -9.0420849    456.26365  0.014446038  0.014612681         3811 
 2633000   0.82792046   -9.0657891    454.65643  0.014389683  0.014605602         3845 
 2634000   0.82614375   -9.0744296    455.26912  0.014403604  0.014598508         3831 
 2635000   0.81281874   -9.0561342    456.55061  0.014438666  0.014591422         3823 
 2636000   0.82999856   -9.0592937    455.25351  0.014392182  0.014584341         3844 
 2637000   0.82154917   -9.0256487    455.48178  0.014393938  0.014577267         3833 
 2638000   0.81917431   -9.0499657    455.58938  0.014391881  0.014570186         3834 
 2639000   0.83314827   -9.0798679    455.09648  0.014370863  0.014563103         3831 
 2640000     0.829615   -9.0609499    455.25277  0.014370353  0.014556023         3821 
 2641000   0.84095582   -9.0883791    455.27906  0.014365741  0.014548955         3854 
 2642000   0.84254298    -9.064955    455.32236  0.014361669  0.014541876         3809 
 2643000   0.82787248   -9.0472172    454.68061  0.014336001  0.014534816         3837 
 2644000   0.83273595   -9.0614361    454.89428  0.014337313  0.014527742         3841 
 2645000   0.81382758   -9.0658369     455.2313  0.014342511   0.01452066         3844 
 2646000   0.81638103   -9.0826917    456.21561   0.01436809  0.014513585         3845 
 2647000   0.83565581   -9.0619823     455.0524  0.014326042  0.014506527         3840 
 2648000   0.81554466    -9.051739     456.0271  0.014351306  0.014499465         3800 
 2649000   0.81367189   -9.0511382    455.49024     0.014329    0.0144924         3835 
 2650000   0.82343526   -9.0487847     455.0088  0.014308453  0.014485336         3804 
 2651000   0.83687488   -9.0792774    456.24181  0.014341815  0.014478282         3825 
 2652000   0.82341846   -9.0511208    455.72244  0.014320087   0.01447123         3847 
 2653000   0.81594657   -9.0665208    454.08231  0.014263171  0.014464176         3854 
 2654000   0.82913996   -9.0587476    456.53695   0.01433487  0.014457117         3819 
 2655000   0.82666878   -9.0778891    455.57266  0.014299205  0.014450068         3840 
 2656000   0.81599914   -9.0664912    454.41076  0.014257366  0.014443016         3827 
 2657000   0.82871873   -9.0725895    455.55304  0.014287826  0.014435966         3805 
 2658000   0.83430094   -9.0408626    456.24941  0.014304283  0.014428931         3824 
 2659000   0.81695605   -9.0675664    455.02225  0.014260444  0.014421892         3870 
 2660000    0.8388015   -9.0632903    453.88177  0.014219354  0.014414852         3863 
 2661000    0.8297923    -9.068174    455.42606  0.014262372  0.014407812         3839 
 2662000   0.82411115   -9.0773579    455.56105   0.01426124  0.014400784         3837 
 2663000   0.82532314   -9.0730476    454.78857  0.014231711  0.014393768         3853 
 2664000   0.82469749   -9.0463151    455.91273  0.014261534  0.014386749         3836 
 2665000   0.83389331   -9.0909015    455.26357  0.014235884  0.014379738         3829 
 2666000   0.82194427   -9.0658714    455.07968  0.014224796  0.014372728         3867 
 2667000   0.82706878   -9.0623027    455.02678   0.01421781  0.014365717         3848 
 2668000    0.8355936   -9.0434001     455.2435   0.01421925  0.014358707         3787 
 2669000   0.81966413   -9.0538467    455.33926  0.014216912  0.014351713         3826 
 2670000   0.84175066   -9.0538691    456.55523  0.014249539  0.014344721         3823 
 2671000   0.83168284   -9.0497812    454.60864  0.014183472  0.014337726         3829 
 2672000    0.8130046   -9.0748984    454.93853  0.014188452  0.014330726         3840 
 2673000   0.82340201   -9.0677372     454.3491  0.014164768  0.014323734         3834 
 2674000    0.8287063   -9.0563516    455.21851  0.014186565  0.014316746         3828 
 2675000   0.84239921   -9.0815681    455.22516  0.014181469  0.014309758         3815 
 2676000   0.81438562   -9.0884551    455.41077   0.01418195  0.014302774         3858 
 2677000   0.81777177   -9.0645008    454.34167  0.014143372  0.014295792         3832 
 2678000   0.84239787   -9.0430942    455.12856  0.014162577  0.014288816         3808 
 2679000    0.8241002   -9.0725715    454.15091  0.014126879  0.014281839         3818 
 2680000   0.82812801   -9.0642693    454.75127  0.014140276  0.014274871         3813 
 2681000    0.8205353   -9.0688282    454.49655  0.014127084  0.014267904         3835 
 2682000   0.83128455   -9.0716247    454.55321  0.014123577  0.014260941         3861 
 2683000   0.82598924   -9.0959452    454.32578  0.014111249  0.014253979         3871 
 2684000   0.82179591   -9.0755847    455.20722  0.014133359  0.014247017         3841 
 2685000   0.81659931    -9.091458    454.40406  0.014103168  0.014240067         3845 
 2686000   0.81490854   -9.0532941     456.0942  0.014150354  0.014233118         3842 
 2687000   0.80580204   -9.0633699    454.84909  0.014106472  0.014226181         3841 
 2688000   0.82331823   -9.0692526    454.33243  0.014085207  0.014219236         3818 
 2689000    0.8222186   -9.0757219     454.2965  0.014078855  0.014212301         3827 
 2690000   0.81860924   -9.0956569    454.36047  0.014075603  0.014205358         3811 
 2691000   0.84754547   -9.0790273    454.76083  0.014082771  0.014198412         3828 
 2692000    0.8025566   -9.0514208    454.80374  0.014078868  0.014191478         3819 
 2693000   0.81325502   -9.0516582    455.43343  0.014093125  0.014184564         3866 
 2694000   0.83108205   -9.0643857    454.99898  0.014074455  0.014177649         3827 
 2695000    0.8289465   -9.0772902    454.17965  0.014043898  0.014170736         3850 
 2696000   0.82645136   -9.0976162    453.90583  0.014030225  0.014163823         3854 
 2697000   0.80490103     -9.09773    455.23068  0.014065958  0.014156911         3828 
 2698000   0.79872088   -9.0851775    454.37059  0.014034179  0.014150002         3842 
 2699000   0.82883295   -9.0480444    455.45174  0.014062361  0.014143097         3838 
 2700000   0.81479753   -9.0864218    453.73007  0.014004015  0.014136188         3852 
 2701000    0.8160559   -9.0972341    454.84939  0.014033364  0.014129288         3864 
 2702000   0.81779035   -9.0594624    455.93008    0.0140615  0.014122388         3831 
 2703000    0.8198828    -9.081144    455.51636  0.014043543  0.014115494         3852 
 2704000   0.79979335   -9.0785595    453.65194  0.013980891  0.014108602         3822 
 2705000   0.79673106   -9.0609182    455.40067  0.014029596  0.014101717         3830 
 2706000   0.81195262   -9.0906236    454.17709   0.01398673  0.014094825         3840 
 2707000   0.80272101   -9.0719256    455.44849  0.014020702  0.014087943         3832 
 2708000   0.82204797    -9.114336    454.08483  0.013973561  0.014081046         3880 
 2709000   0.80145005   -9.0794486    453.94088  0.013963974  0.014074168         3825 
 2710000   0.82192741   -9.0970168    455.10368  0.013994578  0.014067289         3859 
 2711000   0.82973941   -9.0894374     455.2123  0.013992755  0.014060405         3834 
 2712000   0.82403195   -9.0844537    454.36598   0.01396159  0.014053529         3866 
 2713000   0.82814562   -9.1072981    454.19951   0.01395133  0.014046643         3874 
 2714000    0.8279238   -9.0827482    455.02152   0.01397143  0.014039782         3864 
 2715000   0.80837795   -9.0980075     454.1807  0.013940476  0.014032924         3862 
 2716000   0.80307388   -9.0944985    454.20299  0.013936027  0.014026058         3857 
 2717000    0.8114775   -9.0860149    455.08469  0.013957941  0.014019208         3821 
 2718000   0.83923197   -9.0940684     454.3197  0.013929351  0.014012352         3851 
 2719000   0.82096272   -9.1024325    454.32115  0.013924272  0.014005505         3892 
 2720000   0.82433427   -9.0766631    455.26932  0.013948202  0.013998661         3832 
 2721000   0.81478613   -9.0939104     454.4818  0.013918958  0.013991813         3860 
 2722000   0.81863656   -9.1241281    453.66226  0.013888754  0.013984972         3862 
 2723000   0.80650315   -9.0981441    455.04156  0.013925865   0.01397813         3853 
 2724000   0.83819053   -9.1013297    454.96093  0.013918286  0.013971294         3855 
 2725000   0.82277662   -9.0834774    454.18413  0.013889423  0.013964462         3835 
 2726000   0.80104343   -9.0790938    454.59779  0.013896973  0.013957623         3867 
 2727000   0.83125105   -9.0946769    454.57811  0.013891276  0.013950795         3860 
 2728000    0.8087673   -9.1075758    455.08471  0.013901659  0.013943966         3851 
 2729000   0.81503105   -9.1016609    453.93546  0.013861471  0.013937142         3871 
 2730000   0.82524857   -9.0837321    454.72658  0.013880543  0.013930327         3837 
 2731000   0.81720571   -9.0755988    454.28361  0.013861943  0.013923517         3859 
 2732000   0.81287902   -9.0774496    454.32791  0.013858221  0.013916715         3858 
 2733000   0.80780091   -9.0793681    454.53384  0.013859429  0.013909901         3865 
 2734000   0.82174937   -9.0769375    453.68531  0.013828496  0.013903091         3826 
 2735000   0.81421819   -9.0822765    454.71963  0.013854955  0.013896291         3867 
 2736000   0.81713095   -9.0942353    454.13213  0.013831997   0.01388949         3841 
 2737000   0.81072028   -9.0979738    453.96086  0.013821729  0.013882697         3845 
 2738000   0.81579984   -9.0786249    454.67498  0.013838416  0.013875911         3828 
 2739000   0.82167286   -9.0845372     454.8989  0.013840176  0.013869116         3834 
 2740000   0.80123349    -9.098203    454.87125  0.013834284  0.013862325         3817 
 2741000    0.8137581   -9.0978451    454.45419  0.013816557  0.013855549         3851 
 2742000   0.81310075   -9.1181437    454.66782  0.013818011  0.013848765         3835 
 2743000   0.82328236   -9.0839913    454.44246  0.013806127  0.013841991         3832 
 2744000   0.81584262    -9.069545     454.9028  0.013815075  0.013835229         3849 
 2745000    0.8122442   -9.1171927    454.60568  0.013801023  0.013828456         3857 
 2746000   0.82534192   -9.1249517    454.18917  0.013783357  0.013821686         3834 
 2747000   0.79694705   -9.0862553    454.55119  0.013789322  0.013814919         3832 
 2748000   0.82205776   -9.0989358    454.67927  0.013788188  0.013808175         3887 
 2749000   0.82194012   -9.1100846    453.51837   0.01374798  0.013801418         3838 
 2750000   0.80479113   -9.0855329    453.99763  0.013757504  0.013794655         3810 
 2751000   0.81245966   -9.1303536    454.76559  0.013775766  0.013787899         3823 
 2752000    0.8175681   -9.0867073    454.03865  0.013748748  0.013781155         3838 
 2753000   0.79406263   -9.1026846    454.57853  0.013760096  0.013774393         3854 
 2754000   0.80322437   -9.1048117    454.35328  0.013748284  0.013767653         3800 
 2755000   0.83694308   -9.0803489    454.84236  0.013758087  0.013760925         3822 
 2756000   0.80566314   -9.1122903    453.25916  0.013705224  0.013754201         3809 
 2757000   0.81167702   -9.1218656    454.71758  0.013744335  0.013747462         3844 
 2758000   0.82608655   -9.1059639    453.72624  0.013709398  0.013740735         3851 
 2759000   0.80615693   -9.0864559    454.28742  0.013721379  0.013734013         3846 
 2760000   0.81937987   -9.1211627    454.54763  0.013724264  0.013727295         3869 
 2761000   0.81135647   -9.0981007    454.11406  0.013706207  0.013720585         3834 
 2762000   0.80740722   -9.1009356    455.23104  0.013734946  0.013713866         3876 
 2763000   0.80947915   -9.0734797    454.98171  0.013722455   0.01370716         3826 
 2764000   0.80403794    -9.125091    454.66435  0.013707922  0.013700457         3829 
 2765000    0.8063861   -9.1017343     455.2816  0.013721567   0.01369376         3841 
 2766000    0.8068599   -9.1162533    453.81186  0.013672327  0.013687057         3828 
 2767000   0.81706839   -9.1292878    454.43444  0.013686135  0.013680358         3861 
 2768000   0.79921819   -9.1423503    454.05593  0.013669795  0.013673665         3859 
 2769000   0.80910195    -9.125191    453.90588  0.013660343  0.013666966         3830 
 2770000   0.81234353   -9.1242722    454.14709  0.013662668  0.013660269         3828 
 2771000   0.81648066   -9.0945342    454.74835  0.013675819  0.013653583         3841 
 2772000   0.79963939   -9.1156008    454.09249  0.013651169  0.013646895         3854 
 2773000   0.80201073   -9.1137621    454.79267  0.013667288  0.013640202         3858 
 2774000   0.80314705   -9.1274388    453.02982  0.013609404  0.013633522         3845 
 2775000   0.81686227   -9.1211787    454.92062   0.01366128  0.013626846         3857 
 2776000   0.79845908   -9.1197215    453.82971   0.01362361  0.013620171         3842 
 2777000   0.82737951   -9.1173598    454.78004  0.013647222  0.013613502         3831 
 2778000   0.81100081   -9.1455472    453.12203  0.013592574  0.013606824         3858 
 2779000   0.81242982   -9.1156605    454.23618  0.013621092  0.013600166         3888 
 2780000   0.80732588   -9.1243317    453.99844  0.013609066  0.013593496         3871 
 2781000   0.79396215   -9.1454944    453.64819  0.013593677  0.013586836         3863 
 2782000   0.80969276   -9.1305947    453.87225  0.013595502  0.013580181         3858 
 2783000   0.79497821   -9.1230144    452.65601  0.013554199  0.013573524         3865 
 2784000   0.80581076   -9.0899623    454.58541  0.013607082  0.013566867         3840 
 2785000   0.80962575   -9.1139155    454.40837  0.013596899  0.013560226         3883 
 2786000   0.81386088   -9.1039217    454.36826  0.013590819  0.013553576         3848 
 2787000   0.79520511   -9.1288054    453.45826  0.013558733  0.013546941         3885 
 2788000   0.81333203   -9.1318204    453.87291  0.013566263  0.013540304         3864 
 2789000   0.79746588   -9.1330828    453.74184  0.013557483   0.01353367         3854 
 2790000   0.80915819   -9.1271174    454.27883  0.013568663  0.013527045         3868 
 2791000    0.8042972   -9.1121296    454.43487   0.01356846  0.013520422         3880 
 2792000   0.81840191   -9.1381283    453.31877  0.013530288  0.013513795         3883 
 2793000   0.80079972   -9.1057663    454.56304  0.013562568  0.013507192         3858 
 2794000   0.80164194   -9.1126784    455.42078  0.013583297  0.013500588         3839 
 2795000   0.80664976   -9.1283948    453.93472   0.01353413  0.013493986         3848 
 2796000    0.7987037   -9.1320397    454.62985  0.013550007  0.013487386         3851 
 2797000   0.80333237   -9.1037637    454.08428  0.013528908   0.01348079         3855 
 2798000   0.80659685   -9.1224857    453.80892  0.013515872  0.013474189         3869 
 2799000   0.81973607   -9.1192901    454.89121  0.013543266  0.013467598         3854 
 2800000    0.8017973   -9.1463547    453.84197  0.013507201  0.013461004         3849 
 2801000   0.79864924   -9.1237921    452.80068    0.0134714  0.013454418         3855 
 2802000   0.81141532   -9.1529899    453.12633  0.013476277  0.013447828         3844 
 2803000   0.81039507    -9.163962    453.29106  0.013476366  0.013441239         3866 
 2804000   0.81095632   -9.1053687    454.65202  0.013512007   0.01343465         3864 
 2805000   0.79617277   -9.1187721    454.18363  0.013493275  0.013428062         3860 
 2806000    0.8304771   -9.1226733    454.55271  0.013499427  0.013421474         3864 
 2807000   0.79314035   -9.1267981    453.28415  0.013456957  0.013414904         3847 
 2808000   0.79431912   -9.1412141    453.43596   0.01345667  0.013408333         3858 
 2809000   0.80902015   -9.1551627    453.73362   0.01346071  0.013401764         3871 
 2810000   0.82230016   -9.1546789    454.10796  0.013467021  0.013395194         3871 
 2811000   0.80334681   -9.1318678    454.16132  0.013463812  0.013388625         3860 
 2812000   0.80492066   -9.1461134    454.53723  0.013470164  0.013382073         3857 
 2813000   0.79811468    -9.133913    454.56421  0.013466175  0.013375521         3865 
 2814000   0.79126924   -9.1362528    453.08385  0.013417551  0.013368975         3889 
 2815000   0.80760864   -9.1335544    454.90413   0.01346667  0.013362428         3869 
 2816000   0.80723435   -9.1471809    453.45218  0.013418921  0.013355888         3871 
 2817000   0.79896895   -9.1291168    453.25385  0.013408291   0.01334935         3857 
 2818000   0.80845751   -9.1281725    453.84982  0.013421156  0.013342807         3851 
 2819000    0.8063872   -9.1399255    454.29736  0.013429625  0.013336275         3845 
 2820000    0.8043326   -9.1365596    453.72664  0.013407998  0.013329746         3856 
 2821000   0.79591143    -9.124192     453.2443  0.013388996  0.013323224         3851 
 2822000   0.79244075    -9.130073    454.13085  0.013410432  0.013316698         3883 
 2823000   0.78280858   -9.1398047    453.59084   0.01338974  0.013310175         3885 
 2824000   0.79518507   -9.1566858    454.57683  0.013414094  0.013303662         3843 
 2825000   0.80686804   -9.1335206    454.30076  0.013401202  0.013297154         3868 
 2826000   0.79745639   -9.1568232    453.36629  0.013368905  0.013290646         3847 
 2827000   0.80054963   -9.1563817    453.37897  0.013364549  0.013284145         3869 
 2828000   0.79030599   -9.1022552     453.7889  0.013371903  0.013277648         3861 
 2829000   0.78987116   -9.1418599    453.64937  0.013363066   0.01327115         3847 
 2830000    0.7903909   -9.1364674    455.02549  0.013398866  0.013264648         3853 
 2831000   0.81186864   -9.1395512    453.56859  0.013351248  0.013258157         3829 
 2832000   0.80571201   -9.1113838    453.50231  0.013344583   0.01325167         3856 
 2833000    0.8211535   -9.1203255    453.50533  0.013339961  0.013245192         3839 
 2834000   0.79837309   -9.1591688    452.89456  0.013317295  0.013238711         3850 
 2835000   0.79644582   -9.1670227    452.64407  0.013305234   0.01323223         3844 
 2836000   0.81535867   -9.1359573    453.83092  0.013335417  0.013225761         3835 
 2837000   0.82337817   -9.1687869    452.95697  0.013305046  0.013219282         3860 
 2838000   0.78917243   -9.1320318    453.20547  0.013307654  0.013212812         3834 
 2839000   0.80912879   -9.1536611    454.25209  0.013333688  0.013206344         3828 
 2840000   0.81100188   -9.1649425     452.9951   0.01329211  0.013199877         3842 
 2841000   0.78193377   -9.1511183    452.68143   0.01327823  0.013193412         3855 
 2842000   0.79310821   -9.1487486    453.67728  0.013302759  0.013186944         3836 
 2843000   0.79482994   -9.1478993    452.10245  0.013251919  0.013180493         3830 
 2844000   0.79375486   -9.1682301    453.92285  0.013300599  0.013174045         3841 
 2845000    0.7944928   -9.1600949    453.37317  0.013279823  0.013167603         3872 
 2846000   0.77363165    -9.152772    453.81135  0.013287987  0.013161158         3835 
 2847000   0.80662534   -9.1361207    453.54592  0.013275551  0.013154719         3841 
 2848000    0.7910496   -9.1497625     453.1221  0.013258489  0.013148282         3844 
 2849000   0.81141461   -9.1285847     453.7598  0.013272487  0.013141839         3841 
 2850000   0.79545286   -9.1666091    452.73277    0.0132378  0.013135401         3830 
 2851000   0.79895565    -9.133073    452.77555  0.013234408  0.013128963         3828 
 2852000   0.79079582   -9.1601567    453.13251  0.013240197  0.013122524         3845 
 2853000   0.79784058   -9.1426737    453.60744  0.013249429  0.013116092         3859 
 2854000   0.77917403   -9.1678158    452.60984  0.013215657  0.013109669         3822 
 2855000   0.78677404   -9.1527787    453.87395  0.013247926  0.013103245         3838 
 2856000   0.79491431   -9.1315445    452.77862  0.013211328  0.013096822         3851 
 2857000   0.77874815    -9.159618    452.72644  0.013205181    0.0130904         3859 
 2858000   0.81250389   -9.1482053    453.27677  0.013216607  0.013083977         3850 
 2859000   0.80543243   -9.1684587    453.20636  0.013209932  0.013077565         3850 
 2860000   0.79517274   -9.1598022    452.66039  0.013189405  0.013071147         3852 
 2861000   0.78890149   -9.1620272    453.34641  0.013204777  0.013064738         3853 
 2862000   0.79781656   -9.1737533    453.81511  0.013213811  0.013058336         3841 
 2863000   0.79637592   -9.1587969    453.62613  0.013203695   0.01305193         3828 
 2864000   0.78023216   -9.1499564    453.22134  0.013187306  0.013045528         3862 
 2865000   0.79141546   -9.1228233    454.21883  0.013211717  0.013039139         3840 
 2866000   0.79107382   -9.1652526    452.69438  0.013162781  0.013032749         3853 
 2867000   0.79060359   -9.1543732    452.87373  0.013163403   0.01302636         3857 
 2868000   0.78326778   -9.1678716    453.32706  0.013171986  0.013019974         3855 
 2869000   0.79584113   -9.1464915    452.82592  0.013152838  0.013013597         3872 
 2870000   0.78877569   -9.1595144    452.86549  0.013149405   0.01300723         3827 
 2871000    0.7887919   -9.1609884    452.82385  0.013143616   0.01300086         3860 
 2872000   0.76904499   -9.1630318    453.20291  0.013150038  0.012994496         3852 
 2873000   0.78794069   -9.1746396    453.10768  0.013142699  0.012988131         3845 
 2874000   0.80096696   -9.1592136    452.47856  0.013119884  0.012981761         3832 
 2875000    0.7784361   -9.1635471    453.09587  0.013133214  0.012975407         3850 
 2876000   0.79635893   -9.1853342    452.26818  0.013104665  0.012969055         3822 
 2877000   0.77764946    -9.187313    453.51733  0.013136292  0.012962693         3865 
 2878000   0.77764298   -9.1350357    453.21827  0.013123068  0.012956338         3848 
 2879000    0.7867231   -9.1490979    453.53256  0.013127607  0.012949991         3861 
 2880000   0.79103856   -9.1475112    453.59229  0.013124777  0.012943649         3814 
 2881000   0.78173413   -9.1409504    453.41129  0.013114986  0.012937311         3836 
 2882000   0.77671547    -9.175845    453.38452  0.013109661  0.012930975         3837 
 2883000   0.79646021   -9.1744158      452.459  0.013078362  0.012924645         3866 
 2884000   0.78866705   -9.1602777    453.00795  0.013089689  0.012918314         3805 
 2885000   0.79399388   -9.1504197    453.49915   0.01309934  0.012911989         3820 
 2886000   0.78192997   -9.1541601    453.16579  0.013085175  0.012905677         3813 
 2887000    0.7720001   -9.1640653     452.3802  0.013057967  0.012899354         3842 
 2888000   0.79819912   -9.1800923    451.35741  0.013023933  0.012893032         3846 
 2889000   0.79480443   -9.1704354    453.70028  0.013087005   0.01288673         3845 
 2890000   0.79132921   -9.1633056    452.64875  0.013052156  0.012880423         3826 
 2891000   0.79554783   -9.1523554    453.14538  0.013061956  0.012874117         3833 
 2892000   0.80030211    -9.188713    453.20883  0.013059268  0.012867825         3873 
 2893000   0.79392651   -9.1657266    453.46831  0.013062228  0.012861534         3865 
 2894000   0.78659206   -9.1690547    452.75963  0.013037308  0.012855242         3830 
 2895000    0.8029815   -9.1501964    453.26995  0.013047494  0.012848955         3829 
 2896000   0.79560196   -9.1531159    452.70623  0.013026768  0.012842668         3852 
 2897000   0.78700441   -9.1800283    452.85513  0.013026554  0.012836385         3861 
 2898000   0.77489846   -9.1573876    452.35072  0.013007555  0.012830106         3859 
 2899000   0.79775012   -9.1628346    452.52631  0.013008115  0.012823838         3848 
 2900000   0.77584931   -9.1528904    453.15707  0.013021755  0.012817571         3829 
 2901000   0.78769508   -9.1763409    452.51794  0.012998907  0.012811307         3855 
 2902000   0.79561297   -9.1809598    452.38684  0.012990663  0.012805048         3857 
 2903000    0.7816083   -9.1689325    451.53588   0.01296176  0.012798792         3860 
 2904000   0.79260131   -9.1790736    452.39755  0.012982023  0.012792535         3861 
 2905000   0.78634636    -9.178204    452.76677  0.012988146  0.012786279         3867 
 2906000   0.80551299    -9.163591    452.97218  0.012989567  0.012780033         3849 
 2907000   0.81188693   -9.1431846    452.84421   0.01298143  0.012773787         3833 
 2908000   0.77124961   -9.1675638    452.70038  0.012972845  0.012767551         3876 
 2909000   0.79540626    -9.177621    452.73506  0.012969378  0.012761303         3854 
 2910000   0.78149402   -9.1854248    452.90552  0.012969803  0.012755063         3841 
 2911000   0.78379712   -9.1630866    453.16253  0.012972705  0.012748831         3855 
 2912000   0.77813833   -9.1857731    452.40977  0.012946708  0.012742614         3855 
 2913000   0.76829996   -9.1696214    452.32702  0.012939897  0.012736387         3868 
 2914000   0.79697226   -9.1544346    452.60485  0.012943401   0.01273018         3863 
 2915000   0.78229516   -9.1809347    452.07655  0.012923858  0.012723967         3861 
 2916000   0.78216921   -9.2001248    451.80324  0.012911615  0.012717752         3846 
 2917000   0.78471478   -9.1606886    453.22861  0.012947909  0.012711546         3888 
 2918000   0.78569057   -9.1811536    453.05689  0.012938568  0.012705342         3860 
 2919000   0.76313292   -9.1730051    452.29155  0.012912286  0.012699138         3864 
 2920000   0.77984679   -9.1693872     452.7142  0.012919926  0.012692938         3878 
 2921000   0.79039265   -9.1751707    453.51985  0.012938487   0.01268674         3866 
 2922000   0.76973676   -9.1837566    452.70084  0.012910702  0.012680552         3877 
 2923000    0.7855732   -9.1859054    452.47215  0.012899765  0.012674361         3872 
 2924000    0.7686402   -9.1813926    452.82583  0.012905433  0.012668176         3863 
 2925000   0.78941847   -9.1913626    452.96466  0.012904976  0.012661988         3864 
 2926000   0.78468066   -9.1644986    452.83617  0.012896906  0.012655806         3851 
 2927000   0.77953002   -9.1927017    452.30077  0.012877257   0.01264963         3873 
 2928000   0.77569427   -9.1634228    453.70474  0.012912817  0.012643449         3845 
 2929000   0.78936953   -9.1837772     453.0559  0.012889948  0.012637271         3833 
 2930000   0.76749794   -9.1641627    452.77776  0.012877638  0.012631098         3882 
 2931000   0.78271475   -9.1714455     452.8132  0.012874252  0.012624927         3854 
 2932000    0.7858176   -9.1952284    453.04345  0.012876405  0.012618769         3862 
 2933000    0.7721327   -9.1447696    452.86647  0.012866987    0.0126126         3844 
 2934000   0.80648691   -9.1888208    452.66485  0.012856875  0.012606445         3840 
 2935000   0.78827267   -9.1786545    452.02054    0.0128342  0.012600294         3845 
 2936000   0.78041713   -9.1964098    453.21738  0.012863799  0.012594147         3816 
 2937000   0.79914554    -9.187781    452.82372   0.01284825  0.012588002         3846 
 2938000   0.79389916   -9.1710884    453.28833  0.012857055  0.012581864         3823 
 2939000   0.78448217   -9.2000952    452.95409  0.012843203  0.012575733         3811 
 2940000   0.79508695    -9.187622    452.18923  0.012817155  0.012569609         3851 
 2941000   0.78048811   -9.1596092    452.80274  0.012830181   0.01256348         3849 
 2942000   0.78037128   -9.1659022    452.32264  0.012812221  0.012557349         3841 
 2943000   0.77071073   -9.1889233     452.1537  0.012803084  0.012551217         3862 
 2944000   0.78559226   -9.2029514    452.93889  0.012820961  0.012545091         3866 
 2945000   0.75915342   -9.1816766     452.6246  0.012807714  0.012538969         3885 
 2946000   0.78693233   -9.1689827    453.02447  0.012814677  0.012532846         3863 
 2947000   0.79117051   -9.2014838    451.53668  0.012768258  0.012526729         3891 
 2948000   0.77902561   -9.1592052    452.11666  0.012780322  0.012520624         3845 
 2949000   0.79492258   -9.1731513    452.12707  0.012776282  0.012514512         3856 
 2950000   0.76930901   -9.1621538    452.46622  0.012781532  0.012508405         3859 
 2951000   0.76842215    -9.203129    451.01586  0.012736244  0.012502314         3874 
 2952000    0.7969606   -9.2028581    451.82523  0.012754777  0.012496211         3891 
 2953000   0.79294445    -9.202633    452.45979  0.012768365  0.012490119         3866 
 2954000   0.77545797   -9.1560096    453.36172  0.012789487   0.01248403         3862 
 2955000   0.77660225    -9.177595    452.50512  0.012761002  0.012477952         3859 
 2956000   0.78877917   -9.1664735    451.42873   0.01272634  0.012471869         3849 
 2957000   0.76189619   -9.1732746     452.1683  0.012742878  0.012465793         3837 
 2958000   0.75487426   -9.1919749    451.93065  0.012731876  0.012459712         3846 
 2959000   0.78650174   -9.1774166    453.29173  0.012765904  0.012453634         3866 
 2960000   0.77511738   -9.1727012    452.52566  0.012740024  0.012447566         3853 
 2961000   0.77787451   -9.2107455    451.73861  0.012713571  0.012441499         3881 
 2962000   0.78303278   -9.2031838    452.39663  0.012727792  0.012435435         3878 
 2963000    0.7796479   -9.1830901     452.1525   0.01271663   0.01242937         3857 
 2964000   0.78859457   -9.1719306    451.89178   0.01270501  0.012423313         3879 
 2965000   0.77347947   -9.1928013    452.57652   0.01271997  0.012417263         3858 
 2966000   0.79211989   -9.1929707    452.05425  0.012701007  0.012411203         3888 
 2967000   0.75839732   -9.2139835    451.43192  0.012679247  0.012405142         3881 
 2968000   0.79368657   -9.1746954    451.72175  0.012683113  0.012399089         3870 
 2969000   0.76836227   -9.2059507    451.34003  0.012668127  0.012393043         3891 
 2970000   0.77244893   -9.2002108    452.36028  0.012692488  0.012386997         3875 
 2971000   0.75370931   -9.1973081    452.44444  0.012690577  0.012380956         3875 
 2972000   0.78411738   -9.1845301     451.9526  0.012672516  0.012374918         3872 
 2973000   0.77184862   -9.1933558    451.59541  0.012658241  0.012368876         3858 
 2974000   0.77711062   -9.2043241    451.55094  0.012652739  0.012362847         3877 
 2975000    0.7795433   -9.2015446    451.69255  0.012652452  0.012356829         3858 
 2976000   0.78547247    -9.177618    453.36958  0.012695161  0.012350815         3882 
 2977000   0.76917433   -9.1742012    452.66907  0.012671287   0.01234479         3895 
 2978000   0.75894868   -9.2007952    451.35353   0.01263022  0.012338771         3880 
 2979000   0.78121668   -9.1914215    452.30487  0.012652592  0.012332754         3886 
 2980000   0.77226078   -9.2109544     452.5399  0.012654919  0.012326743         3880 
 2981000   0.77061534   -9.2079282    450.81544  0.012602467  0.012320735         3856 
 2982000    0.7945676   -9.2142663      451.011  0.012603706  0.012314729         3868 
 2983000   0.78991128   -9.1911648    452.09826  0.012629854  0.012308726         3832 
 2984000   0.78596835    -9.185953    452.53808  0.012637904   0.01230272         3874 
 2985000   0.75717128   -9.1720675    452.43603  0.012630822  0.012296728         3890 
 2986000    0.7693078    -9.213875     452.1155  0.012617646  0.012290737         3874 
 2987000    0.7745844   -9.2023483    452.41267  0.012621713  0.012284758         3882 
 2988000     0.780164   -9.1893982    452.08968  0.012608481  0.012278769         3881 
 2989000    0.7743157    -9.187335    451.47979  0.012587258  0.012272792         3829 
 2990000   0.76791784   -9.1737501    451.39863  0.012580787  0.012266809         3881 
 2991000   0.77751422   -9.1763385    451.29086  0.012573578  0.012260833         3860 
 2992000   0.78528219   -9.2011791    451.51463  0.012575608  0.012254861         3867 
 2993000   0.76541941   -9.2000299    452.57284   0.01260087  0.012248898         3851 
 2994000   0.78857291   -9.1855121     452.0345  0.012581677  0.012242937         3874 
 2995000   0.76858482   -9.1808846    452.10888  0.012579546  0.012236982         3864 
 2996000   0.78097252   -9.1633687    452.76087  0.012593482  0.012231026         3841 
 2997000   0.79284214   -9.1919884    452.36374  0.012578238   0.01222507         3877 
 2998000   0.76241698    -9.205375    452.27526  0.012571583  0.012219125         3854 
 2999000   0.77825731   -9.1950928    452.75531   0.01258073  0.012213181         3863 
 3000000   0.76655046   -9.1600458    453.80652  0.012605737  0.012207233         3886 
 3001000   0.77294446   -9.1978134    452.05886  0.012553006  0.012201292         3868 
 3002000    0.7851736   -9.1806707     452.4126  0.012558644  0.012195353         3876 
 3003000   0.77399224   -9.2098963     451.1455    0.0125193  0.012189424         3853 
 3004000   0.77986857   -9.2167514    451.70557  0.012530669  0.012183492         3866 
 3005000    0.7656412   -9.1771553    452.30761  0.012543195  0.012177569         3871 
 3006000   0.76133109   -9.2011786    451.46878  0.012515768  0.012171645         3886 
 3007000   0.77991041   -9.2261066    451.97072  0.012525516  0.012165728         3873 
 3008000   0.76703994   -9.1856679    451.96459  0.012521182  0.012159815         3869 
 3009000   0.76696164   -9.1865833    452.75358  0.012538872  0.012153906         3852 
 3010000   0.75496261   -9.1782875    452.72171  0.012533824  0.012147992         3832 
 3011000   0.76950675   -9.1994191    452.04634  0.012510969  0.012142082         3850 
 3012000   0.75593166   -9.2065305    452.23979  0.012512168  0.012136184         3851 
 3013000   0.78060896   -9.1879268    452.93485  0.012527239  0.012130288         3862 
 3014000   0.76536726   -9.1941637     453.2674  0.012532277  0.012124389         3863 
 3015000   0.77848868   -9.1963271    452.12399  0.012496517  0.012118495         3895 
 3016000   0.77705941   -9.2027531    451.66831  0.012479783   0.01211261         3876 
 3017000   0.78499395   -9.1854022     451.4656  0.012470047  0.012106727         3862 
 3018000   0.78925098   -9.2061162     451.7081  0.012472611  0.012100848         3862 
 3019000   0.75947139   -9.1925081    452.27433   0.01248411  0.012094969         3863 
 3020000   0.77027914   -9.1758059    452.57096  0.012488161  0.012089092         3871 
 3021000   0.76608418   -9.2026291    451.70036  0.012460012   0.01208322         3886 
 3022000   0.75629418   -9.2070035    452.70191  0.012483507  0.012077359         3856 
 3023000   0.75195136   -9.1895855    452.77068  0.012481274  0.012071498         3862 
 3024000   0.76900943   -9.2058537     451.8058  0.012450557   0.01206564         3843 
 3025000   0.75342931   -9.1918736    451.99867  0.012451754  0.012059775         3890 
 3026000   0.78735174   -9.1888945    451.49295  0.012433712  0.012053923         3844 
 3027000   0.76042872   -9.2228577    451.54953  0.012431162  0.012048068         3849 
 3028000   0.77313917   -9.2271291    450.72281  0.012404304  0.012042208         3886 
 3029000   0.74662174   -9.2147995    452.06629  0.012437171  0.012036361         3866 
 3030000   0.77392382   -9.2005615    452.21551   0.01243717  0.012030513         3872 
 3031000   0.74789306   -9.2077527    451.83426  0.012422585  0.012024671         3854 
 3032000   0.76937941   -9.1871723    452.79591  0.012444918   0.01201884         3848 
 3033000   0.74897025   -9.2237433    451.81082  0.012413749  0.012013016         3872 
 3034000   0.76819748   -9.1880927    451.37085  0.012397573  0.012007184         3870 
 3035000   0.77858314   -9.1989538    451.29854  0.012391503  0.012001356         3863 
 3036000   0.76510233   -9.2108618    450.94239  0.012377646  0.011995531         3877 
 3037000   0.76849827   -9.1851313    451.44751   0.01238743  0.011989713         3831 
 3038000    0.7594266   -9.2012155    451.71375  0.012390656  0.011983905         3872 
 3039000   0.75807456   -9.2065655    451.41751  0.012378455  0.011978095         3875 
 3040000   0.76221828   -9.2107568    451.70172  0.012382174  0.011972292         3873 
 3041000   0.75312752   -9.2048024     452.4612  0.012398915  0.011966489         3867 
 3042000   0.76294911   -9.2073218    451.94184  0.012380611  0.011960686         3875 
 3043000   0.75935927   -9.2034028    451.53601  0.012365429   0.01195489         3886 
 3044000   0.75960125   -9.1999171     451.0298  0.012347509  0.011949092         3856 
 3045000   0.74731269   -9.2115606    451.55976  0.012357957  0.011943298         3874 
 3046000    0.7980376    -9.208138    451.21016  0.012344336  0.011937514         3879 
 3047000   0.78345743   -9.1807037    452.38375  0.012372381  0.011931736         3850 
 3048000    0.7792601   -9.1953495    451.14719  0.012334514  0.011925959         3873 
 3049000   0.76870388   -9.1967566    452.13805   0.01235755  0.011920192         3853 
 3050000   0.75217688   -9.2127961    451.16604  0.012326941  0.011914417         3875 
 3051000   0.75915379   -9.2198532    451.24657    0.0123251  0.011908646         3897 
 3052000    0.7681999   -9.1870382    451.21552  0.012320214  0.011902875         3889 
 3053000   0.77226864   -9.2232905    451.32335  0.012319122  0.011897108         3906 
 3054000   0.75950097   -9.2095372    451.44052  0.012318285  0.011891335         3865 
 3055000   0.76902697   -9.1813862    452.85469  0.012352828  0.011885575         3842 
 3056000   0.76249953   -9.1933701    452.15289  0.012329649  0.011879817         3844 
 3057000   0.76620295   -9.2168276     451.3217  0.012302958  0.011874064         3889 
 3058000   0.76246968   -9.2087968    451.46654  0.012302882  0.011868307         3887 
 3059000   0.75253242   -9.2405917    451.47898  0.012299199  0.011862559         3887 
 3060000   0.77845367   -9.2267106    451.31543  0.012290725   0.01185681         3881 
 3061000   0.76907549   -9.2094831    451.35811  0.012287872  0.011851064         3885 
 3062000   0.76233429   -9.2050157    452.73009  0.012321198  0.011845326         3861 
 3063000   0.76506753    -9.209273    452.29959  0.012305463  0.011839584         3891 
 3064000   0.75381249   -9.2281538    451.64524   0.01228365  0.011833847         3847 
 3065000   0.78380521   -9.2321357    451.28931  0.012269965  0.011828123         3883 
 3066000   0.76514511   -9.1910924    452.62006  0.012302132  0.011822396         3870 
 3067000   0.77032525   -9.2357783    451.91418  0.012278942  0.011816673         3860 
 3068000   0.77222065   -9.2082742    452.33513  0.012286373  0.011810944         3880 
 3069000   0.74355263    -9.228349    451.10248    0.0122489  0.011805219         3872 
 3070000   0.76567252    -9.219513    452.19456  0.012274554    0.0117995         3866 
 3071000   0.74614246   -9.2118099    451.07336  0.012240133  0.011793791         3833 
 3072000   0.75543266   -9.2212158    451.29464  0.012242151  0.011788083         3877 
 3073000   0.76649486   -9.2238253    452.18434  0.012262294  0.011782384         3843 
 3074000   0.75754968   -9.2234919    451.73967   0.01224625  0.011776689         3882 
 3075000   0.78488858   -9.2073714    450.89632  0.012219412  0.011771003         3836 
 3076000   0.75149237   -9.2397229    450.79077   0.01221258  0.011765308         3870 
 3077000   0.76035139   -9.2208597    451.54003  0.012228904  0.011759619         3855 
 3078000   0.75854753   -9.1962619    451.03492  0.012211255  0.011753932         3865 
 3079000   0.76019111   -9.1959934    452.00651  0.012233585  0.011748247         3877 
 3080000   0.75965042   -9.2221197     452.0483  0.012230744  0.011742568         3888 
 3081000   0.75843285   -9.2324571    451.23053  0.012204656   0.01173689         3864 
 3082000   0.76712024   -9.2057226    451.71551  0.012213809  0.011731222         3862 
 3083000   0.75854283   -9.2139627     452.2573  0.012224492  0.011725554         3886 
 3084000   0.76237776   -9.2288706    451.05599  0.012188067  0.011719886         3872 
 3085000   0.74945253   -9.2053696    450.90502  0.012180038  0.011714223         3850 
 3086000   0.78631803   -9.2260195    451.46236  0.012191142  0.011708573         3849 
 3087000   0.75090748   -9.2385555    450.33517  0.012156764  0.011702927         3864 
 3088000   0.74873642   -9.2232755    451.68723  0.012189314  0.011697277         3845 
 3089000    0.7661599   -9.2092771    450.83498  0.012162377  0.011691626         3849 
 3090000   0.74961284   -9.2350468     451.7132  0.012182125  0.011685986         3873 
 3091000   0.75950232   -9.1802868    451.66107  0.012176778  0.011680344         3874 
 3092000   0.77346613   -9.2239607     452.1718  0.012186605  0.011674704         3858 
 3093000   0.75455165      -9.2381    451.13687  0.012154781  0.011669062         3880 
 3094000   0.75716869   -9.1998704    451.24509  0.012153768  0.011663429         3871 
 3095000   0.76427638   -9.2212273    451.28835  0.012151006  0.011657798         3894 
 3096000   0.75920488   -9.2158372    451.60822  0.012155691  0.011652161         3871 
 3097000   0.75401369   -9.2190923    451.51188  0.012149173  0.011646532         3860 
 3098000   0.75973456   -9.2445522    451.08929  0.012133884  0.011640904         3866 
 3099000   0.76956423   -9.2039398    450.94663  0.012126133  0.011635288         3860 
 3100000   0.74228922   -9.2332033    451.26479  0.012130774  0.011629671         3851 
 3101000   0.76341118   -9.2194832    451.98979  0.012146345  0.011624053         3881 
 3102000   0.75210489    -9.225779     451.7261  0.012135345  0.011618438         3865 
 3103000   0.76336893   -9.2115002    451.40531   0.01212282  0.011612824         3890 
 3104000   0.74934461    -9.237059    451.52183  0.012122042  0.011607221         3881 
 3105000   0.75630702   -9.2234326    450.55887  0.012092294  0.011601616         3873 
 3106000   0.74321327   -9.2246801    451.76362  0.012120724  0.011596013         3863 
 3107000   0.76144479   -9.2615298    450.65827  0.012087176  0.011590412         3878 
 3108000    0.7492986   -9.2494133    451.21897  0.012098321  0.011584815         3863 
 3109000   0.75617335   -9.2262933    451.28423  0.012096178  0.011579224         3900 
 3110000   0.74608065   -9.2285126    451.05251   0.01208608  0.011573632         3900 
 3111000   0.75504942    -9.233015    451.66954  0.012098723   0.01156805         3915 
 3112000   0.75542208   -9.2496072    450.43929  0.012061892  0.011562469         3904 
 3113000   0.75228038   -9.2386395    451.26501  0.012080121  0.011556893         3885 
 3114000   0.76417878   -9.2161577    450.58612  0.012058074  0.011551319         3882 
 3115000   0.75804605   -9.2017754    451.40187  0.012076027  0.011545748         3879 
 3116000   0.76140573   -9.2227944    451.47872  0.012074206  0.011540177         3898 
 3117000   0.74658715   -9.2265167    450.53774  0.012045175  0.011534607         3890 
 3118000   0.73959857   -9.2339909    450.38055  0.012037111  0.011529041         3895 
 3119000   0.73888121   -9.2169142    451.43137  0.012061328   0.01152348         3876 
 3120000   0.75098933    -9.221395    450.83526   0.01204154  0.011517919         3884 
 3121000   0.76078648   -9.2392435    451.73673  0.012061752  0.011512367         3891 
 3122000   0.73433633    -9.240353    450.73302  0.012031097  0.011506821         3858 
 3123000   0.73879988   -9.2271534     450.8314   0.01202987  0.011501273         3875 
 3124000   0.76374594   -9.2344527    450.57535  0.012019189   0.01149573         3875 
 3125000   0.75414029   -9.2040362    451.72826  0.012046087  0.011490186         3907 
 3126000   0.74249588    -9.228571    451.15966  0.012027076  0.011484647         3883 
 3127000   0.75257354   -9.2413172    450.91397  0.012016682  0.011479118         3893 
 3128000   0.75401394   -9.2006793    451.94441  0.012040292  0.011473594         3881 
 3129000   0.76667969   -9.2361788    451.10245  0.012014021   0.01146807         3893 
 3130000   0.76600938   -9.2306284    451.17097  0.012012007  0.011462538         3881 
 3131000     0.733634   -9.2381859    450.95005   0.01200229  0.011457019         3889 
 3132000   0.73887915   -9.2522663    450.62819  0.011989894  0.011451498         3907 
 3133000   0.74287188   -9.2160944    451.20922  0.012001522   0.01144599         3878 
 3134000   0.75158626   -9.2300875    451.23873  0.011998477  0.011440474         3897 
 3135000   0.73807406   -9.2353022    451.41319  0.011999287  0.011434967         3865 
 3136000   0.74306746    -9.232352    450.94525  0.011983026  0.011429462         3875 
 3137000   0.73567372   -9.2159399    451.50857  0.011994171   0.01142396         3883 
 3138000   0.74305486   -9.2316207    451.86482  0.011999809  0.011418463         3870 
 3139000   0.74576588    -9.233106    451.65738  0.011990479  0.011412973         3888 
 3140000    0.7441112   -9.2493309    450.40926  0.011953537  0.011407483         3904 
 3141000   0.75440134   -9.2391017    449.99498   0.01193874  0.011401999         3866 
 3142000   0.75782002   -9.2441321    450.81212  0.011956613  0.011396517         3887 
 3143000   0.72964205   -9.2470203    451.15795  0.011961978  0.011391041         3899 
 3144000   0.75112584   -9.2507788    451.62823  0.011970638  0.011385568         3880 
 3145000    0.7532026   -9.2385753     451.9959  0.011976574  0.011380104         3914 
 3146000   0.75138948    -9.231297    451.45059  0.011958323  0.011374633         3863 
 3147000   0.74377061    -9.219924    452.39107  0.011979427   0.01136917         3885 
 3148000   0.74985591   -9.2194898    451.19006  0.011943828  0.011363713         3883 
 3149000   0.74469603   -9.2139842    451.84871  0.011957466  0.011358265         3891 
 3150000   0.72318934   -9.2555314    450.76139  0.011924905  0.011352813         3904 
 3151000   0.74087433   -9.2335462    451.60653  0.011943471   0.01134736         3893 
 3152000   0.74700016   -9.2336348    450.50169  0.011910472  0.011341912         3909 
 3153000   0.74824767   -9.2306645    450.93031  0.011918023   0.01133647         3875 
 3154000    0.7526451    -9.226961    451.14625  0.011919949  0.011331033         3881 
 3155000   0.73850758   -9.2379921    450.86745  0.011908807  0.011325597         3874 
 3156000   0.72741293   -9.2560415    450.92944  0.011906671  0.011320162         3879 
 3157000   0.74551503   -9.2315725    450.59528  0.011894079  0.011314731         3883 
 3158000   0.76594933   -9.2342856    450.80738  0.011895909  0.011309304         3878 
 3159000   0.74509533   -9.2349298    450.86995  0.011893794  0.011303879         3905 
 3160000   0.73352724    -9.233981    452.34494  0.011928928  0.011298461         3903 
 3161000   0.75225638   -9.2407774    451.26667  0.011896728  0.011293042         3879 
 3162000   0.76640948   -9.2465697     451.5665  0.011900867  0.011287632         3864 
 3163000   0.73193941   -9.2438437    451.53275  0.011896215  0.011282223         3906 
 3164000   0.73715543   -9.2490687    451.57741  0.011893632  0.011276817         3902 
 3165000   0.76515119   -9.2285076    451.99344  0.011900828  0.011271416         3908 
 3166000   0.74598208   -9.2441118    451.51635  0.011884511  0.011266021         3884 
 3167000    0.7312673   -9.2468498    450.98478  0.011866772  0.011260622         3866 
 3168000   0.73885382   -9.2535304    450.67016   0.01185475   0.01125523         3879 
 3169000   0.74343268   -9.2622827    451.47152  0.011872082  0.011249835         3903 
 3170000   0.73865122   -9.2373885    450.74344  0.011849197   0.01124445         3885 
 3171000   0.74368322   -9.2563665    451.68012  0.011870076  0.011239062         3884 
 3172000   0.72394853    -9.226774    450.10638  0.011824989  0.011233676         3865 
 3173000   0.74318207   -9.2389091    451.32416  0.011853245  0.011228294         3895 
 3174000   0.73480922   -9.2467405    451.82607  0.011862688  0.011222917         3892 
 3175000   0.74010949   -9.2560432    450.35487  0.011820338  0.011217542         3887 
 3176000   0.75821609   -9.2640936    450.98591  0.011833174  0.011212177         3863 
 3177000   0.75818782   -9.2568811    450.73906  0.011822974  0.011206811         3876 
 3178000   0.72400235   -9.2469063    450.77641  0.011820233  0.011201451         3853 
 3179000   0.75238632   -9.2354628    451.46864  0.011834661   0.01119609         3872 
 3180000   0.75490657   -9.2264304    451.01042  0.011818931  0.011190736         3860 
 3181000   0.74359077   -9.2876288    449.82484  0.011784157   0.01118538         3866 
 3182000   0.74372612   -9.2566898    451.10858  0.011814073   0.01118003         3862 
 3183000   0.72738322   -9.2491408    451.42596  0.011818671  0.011174682         3886 
 3184000   0.74092661   -9.2519053    450.02443  0.011778278  0.011169337         3864 
 3185000   0.73220902   -9.2483111    451.23905  0.011806359  0.011163997         3886 
 3186000   0.73119146   -9.2235593    451.36407  0.011805924  0.011158659         3889 
 3187000   0.72750469   -9.2748672    451.29825  0.011800498  0.011153327         3896 
 3188000   0.74533983   -9.2546505     451.2551  0.011795669  0.011147989         3873 
 3189000   0.73837057   -9.2423201     450.8061  0.011780237  0.011142662         3887 
 3190000   0.74353153   -9.2138045     450.5776  0.011770575  0.011137339         3865 
 3191000   0.73781107   -9.2551352    451.25941  0.011784692  0.011132031         3849 
 3192000   0.74018629   -9.2428327    451.08729  0.011776506  0.011126716         3850 
 3193000   0.74134525   -9.2403191    451.75718  0.011790301  0.011121408         3872 
 3194000   0.73145602   -9.2340671     451.2786  0.011774123  0.011116095         3889 
 3195000   0.72372826   -9.2381221    451.65537  0.011780265  0.011110781         3860 
 3196000   0.73820275    -9.247193     451.7975  0.011780285  0.011105477         3857 
 3197000   0.73862912   -9.2196238    450.91608  0.011753625  0.011100177         3847 
 3198000   0.72687047   -9.2650459    450.63616  0.011742656  0.011094876         3875 
 3199000   0.73940526   -9.2610119    450.79785  0.011743197  0.011089578         3863 
 3200000   0.74160241   -9.2572626    451.31435  0.011752978  0.011084281         3840 
 3201000   0.73084598   -9.2520373    451.86001  0.011763512  0.011078992         3871 
 3202000   0.72980918   -9.2453907    451.40841  0.011748085  0.011073705         3846 
 3203000    0.7323452   -9.2744783     451.6174  0.011749854  0.011068421         3853 
 3204000   0.74822635   -9.2570547    450.59222  0.011719523  0.011063142         3875 
 3205000   0.73517937   -9.2442573    452.00686  0.011752649  0.011057861         3842 
 3206000   0.73077204   -9.2484509    450.53099  0.011710621  0.011052592         3847 
 3207000    0.7308829   -9.2416152    449.63384  0.011683656  0.011047319         3891 
 3208000   0.73229989   -9.2738082    450.43566  0.011700843  0.011042051         3865 
 3209000   0.73615821   -9.2434358    451.37776  0.011721662  0.011036789         3889 
 3210000   0.74784551   -9.2632048    450.41336  0.011692974  0.011031535         3866 
 3211000   0.73561177   -9.2636473    449.89532  0.011675888   0.01102628         3885 
 3212000    0.7475661   -9.2720236    450.34164  0.011683833  0.011021027         3880 
 3213000   0.73503972   -9.2404497    451.25086  0.011703778  0.011015773         3873 
 3214000   0.72705776   -9.2732502    450.43425  0.011678963  0.011010524         3872 
 3215000   0.74622083   -9.2451976    451.00834  0.011690211  0.011005282         3883 
 3216000   0.73060817   -9.2408887    451.11575  0.011689359  0.011000039         3877 
 3217000   0.73552544   -9.2451538    450.92225  0.011680713  0.010994794         3892 
 3218000   0.74928854   -9.2524781    451.73625  0.011698163  0.010989558         3854 
 3219000   0.73083151    -9.252855    452.05682  0.011702828  0.010984326         3844 
 3220000   0.71408636   -9.2408315    450.71823   0.01166455  0.010979095         3874 
 3221000     0.745887   -9.2732918    450.98551  0.011667844  0.010973872         3870 
 3222000   0.74440809   -9.2726307    450.32297  0.011647087  0.010968646         3859 
 3223000   0.74319679   -9.2532578    451.09261  0.011663373   0.01096342         3873 
 3224000   0.72334472   -9.2415436    451.07261  0.011659238  0.010958198         3875 
 3225000   0.73511966   -9.2552117    450.54309   0.01164194  0.010952975         3850 
 3226000   0.74843783   -9.2927123    450.85171  0.011646304  0.010947759         3879 
 3227000   0.73990862   -9.2651702    450.00383  0.011620799  0.010942541         3886 
 3228000    0.7244614   -9.2589839    450.45885  0.011628946   0.01093733         3852 
 3229000    0.7297965   -9.2491218    451.21037   0.01164474  0.010932122         3839 
 3230000   0.73193658   -9.2758951     450.4227  0.011620813  0.010926912         3888 
 3231000   0.74835019   -9.2794233    450.54663  0.011620413  0.010921716         3875 
 3232000   0.71515072   -9.2550628    451.71227  0.011646872  0.010916512         3879 
 3233000   0.73340096   -9.2681987    450.17106  0.011603543  0.010911316         3860 
 3234000   0.74349492   -9.2701199    450.15316  0.011599494  0.010906123         3884 
 3235000   0.73379033   -9.2513326     450.1727  0.011596412  0.010900935         3867 
 3236000   0.72388542   -9.2510349    449.77978   0.01158271  0.010895749         3861 
 3237000   0.73850841    -9.242801    451.67717  0.011627978   0.01089057         3866 
 3238000   0.73936929   -9.2663309    449.76312  0.011575127  0.010885396         3894 
 3239000   0.73391961   -9.2767144    450.32888  0.011586109  0.010880221         3892 
 3240000   0.73793504   -9.2757048    450.37419  0.011583698  0.010875048         3878 
 3241000   0.72477644    -9.253717     450.1298   0.01157384  0.010869873         3907 
 3242000   0.72926619   -9.2614928    450.97661  0.011592037  0.010864705         3870 
 3243000   0.75198176   -9.2745905    450.54473  0.011577365  0.010859538         3874 
 3244000   0.74447283    -9.275777    450.90137  0.011582958  0.010854377         3901 
 3245000   0.73328485   -9.2775489    450.20392  0.011561477  0.010849219         3870 
 3246000   0.72796308   -9.2662872      450.858  0.011574707  0.010844066         3882 
 3247000   0.72212204   -9.2518041      450.279  0.011556283  0.010838919         3858 
 3248000   0.73520171   -9.2541558    451.55496  0.011585462  0.010833768         3871 
 3249000   0.74199827   -9.2777932    450.67435  0.011559309  0.010828627         3877 
 3250000   0.74482541   -9.2649037    450.04882  0.011539713  0.010823487         3886 
 3251000   0.73993673   -9.2632074    449.85628  0.011531228  0.010818346         3875 
 3252000   0.72523769   -9.2913579    450.87811  0.011553867  0.010813208         3889 
 3253000   0.74453948   -9.2762224    450.48915  0.011540351  0.010808068         3895 
 3254000   0.73291437   -9.2614589    450.69421  0.011542056  0.010802941         3884 
 3255000   0.73353204   -9.2946312    450.45084   0.01153228  0.010797811         3871 
 3256000    0.7357746   -9.2780944    450.28049  0.011524378  0.010792683         3886 
 3257000   0.74214764   -9.2564923    449.86746  0.011510272  0.010787564         3862 
 3258000   0.74765206   -9.2767589      450.531  0.011523711  0.010782451         3859 
 3259000   0.72637857   -9.2723811    450.94309  0.011530712  0.010777334         3881 
 3260000   0.73956104   -9.2732072    451.13592  0.011532104  0.010772223         3884 
 3261000   0.73684997   -9.2720228    449.90209  0.011497038  0.010767113         3884 
 3262000   0.73664366   -9.2758705    450.44722   0.01150744  0.010762012         3901 
 3263000   0.73562473   -9.2470852    451.47054  0.011530047  0.010756911         3854 
 3264000   0.72948511   -9.2778432    450.47429   0.01150108  0.010751809         3883 
 3265000   0.72580176   -9.2475109    450.76698  0.011505028  0.010746712         3862 
 3266000   0.73011571   -9.2682409    449.60527  0.011471863  0.010741627         3887 
 3267000   0.74394548   -9.2741734    450.54568   0.01149234   0.01073654         3924 
 3268000   0.74548431   -9.2782445    449.65977  0.011466232  0.010731454         3875 
 3269000   0.73167085    -9.280524    450.40589  0.011481745   0.01072637         3897 
 3270000   0.72276572   -9.2870137    450.71298   0.01148606  0.010721288         3877 
 3271000   0.73993086   -9.2849132     450.8374  0.011485718  0.010716203         3902 
 3272000   0.72570927   -9.2653137    450.68818  0.011478407  0.010711125         3906 
 3273000   0.71709539   -9.2862965    449.98968  0.011457116  0.010706043         3865 
 3274000    0.7277281   -9.2808655    450.14263  0.011457509  0.010700971         3890 
 3275000   0.72331975   -9.2789121    450.45098  0.011461857  0.010695897         3883 
 3276000    0.7218682   -9.2823617    449.85933  0.011443308  0.010690831         3881 
 3277000   0.73610221   -9.2697292     449.5179  0.011431134  0.010685767         3902 
 3278000   0.72087138   -9.2638529    450.78593  0.011459882  0.010680706         3880 
 3279000   0.73627353   -9.2889194    450.69105  0.011453976  0.010675648         3898 
 3280000   0.71550367   -9.2555986    449.66191  0.011424337  0.010670591         3872 
 3281000   0.72093678   -9.2824667     450.0528  0.011430783  0.010665539         3897 
 3282000   0.70888081    -9.262329    450.49707  0.011438581  0.010660487         3867 
 3283000   0.73769686   -9.2828812    450.23932  0.011428554  0.010655441         3883 
 3284000   0.73230613   -9.2721766    450.51327  0.011432026  0.010650388         3872 
 3285000   0.71628254   -9.2888293    450.47595  0.011427599  0.010645351         3878 
 3286000   0.74651469   -9.2925253    450.52072  0.011425257  0.010640316         3883 
 3287000   0.73490025   -9.2673093     449.8348  0.011404391  0.010635287         3882 
 3288000   0.71128134   -9.2942724    450.36571  0.011414378  0.010630256         3878 
 3289000   0.71858583   -9.2798852    449.78436  0.011396178  0.010625227         3848 
 3290000   0.72254754   -9.2760028    450.83949   0.01141944  0.010620204         3864 
 3291000   0.72620226   -9.2894391    449.96361  0.011393791  0.010615181         3853 
 3292000     0.724461   -9.2886352    449.58418  0.011380725  0.010610156         3874 
 3293000   0.73810131   -9.2809215    449.81454  0.011383099  0.010605141         3870 
 3294000    0.7176239   -9.2722553    450.45362  0.011395811   0.01060013         3825 
 3295000   0.71854786   -9.2574754    449.86908  0.011377569  0.010595119         3875 
 3296000   0.71302014   -9.2629509    450.06432  0.011379053  0.010590114         3884 
 3297000   0.71604342   -9.2770426    450.24613  0.011380197   0.01058511         3870 
 3298000   0.73464319   -9.2789282    449.56256  0.011359474  0.010580106         3849 
 3299000   0.72066182   -9.2911791    450.81446  0.011387654   0.01057511         3893 
 3300000   0.72495337   -9.2693921    450.71656  0.011381731  0.010570114         3887 
 3301000   0.73228847   -9.2797876    450.64661  0.011376517  0.010565127         3866 
 3302000   0.71921004   -9.2820507     449.5427  0.011345212  0.010560138         3857 
 3303000   0.71548268   -9.2983779    449.51828  0.011341161  0.010555154         3878 
 3304000   0.71940243   -9.2580319    450.53607    0.0113634  0.010550177         3860 
 3305000   0.70402369   -9.2651064    450.77158    0.0113659  0.010545203         3870 
 3306000   0.71605661   -9.2732569     451.6022  0.011383399  0.010540225         3865 
 3307000   0.72751251   -9.2733577    450.76518  0.011358865  0.010535255         3895 
 3308000   0.71152422   -9.3126069    449.34069  0.011319546  0.010530277         3907 
 3309000   0.72856534    -9.287155    450.58972   0.01134758  0.010525306         3897 
 3310000   0.72502919   -9.3020955    449.31103  0.011311959   0.01052034         3882 
 3311000   0.71575156   -9.2733295    449.57327  0.011315143  0.010515376         3869 
 3312000   0.72433449   -9.3004233    449.69302   0.01131474  0.010510415         3857 
 3313000   0.73638489   -9.2773044    450.33748  0.011327535  0.010505461         3875 
 3314000   0.74424001   -9.2850269    449.26701  0.011297199  0.010500511         3888 
 3315000   0.72245742   -9.2895817    449.62045  0.011302676  0.010495563         3921 
 3316000   0.71847508   -9.2950612    449.55892  0.011297721   0.01049062         3867 
 3317000   0.70139659   -9.3183648    449.77342  0.011299704  0.010485676         3874 
 3318000   0.71352693   -9.2957852    449.67713   0.01129388  0.010480732         3874 
 3319000   0.70546173   -9.3066444    450.06111  0.011300118  0.010475793         3869 
 3320000   0.72045826   -9.2926779    450.21459  0.011300567  0.010470858         3882 
 3321000   0.72262594   -9.2781143    450.55512  0.011305709  0.010465925         3884 
 3322000   0.71758694   -9.2835556    449.91919  0.011286353  0.010460997         3890 
 3323000   0.73123467   -9.3052918    450.05809   0.01128644  0.010456066         3877 
 3324000   0.71614431     -9.28452     449.7007  0.011274085  0.010451141         3884 
 3325000   0.72476039   -9.3037575    449.57376  0.011267513  0.010446222         3891 
 3326000   0.71209828   -9.2931648     450.0479  0.011276005  0.010441309         3865 
 3327000   0.71462796   -9.2726437    449.39313  0.011256215  0.010436395         3888 
 3328000   0.72110234     -9.29181    449.02391  0.011243587  0.010431484         3893 
 3329000   0.71659412   -9.2743306    450.56983  0.011278908  0.010426573         3859 
 3330000   0.72105258   -9.2942134    449.81187  0.011256553  0.010421667         3875 
 3331000   0.73724161   -9.2928047    450.39303  0.011267713  0.010416767         3846 
 3332000   0.74191158   -9.2906631    449.64382  0.011245594   0.01041187         3879 
 3333000   0.73046533   -9.2898857    449.71423   0.01124398  0.010406969         3882 
 3334000   0.73282152   -9.2760988    450.18687  0.011252421   0.01040208         3860 
 3335000   0.72245332   -9.3039024    449.80011  0.011239383  0.010397186         3879 
 3336000   0.71241925   -9.3037069    449.59282  0.011230836  0.010392296         3907 
 3337000   0.74073852   -9.3199173    449.32726  0.011220839  0.010387408         3894 
 3338000   0.72946603    -9.304341    449.79039  0.011229039  0.010382529         3844 
 3339000   0.71053144   -9.2924803     449.7847  0.011225534  0.010377655         3867 
 3340000   0.71840487   -9.3029282    449.68211  0.011219613  0.010372784         3865 
 3341000   0.72846514   -9.2993758    449.72649  0.011217362  0.010367913         3874 
 3342000   0.72925365   -9.2976324     449.6901  0.011213098  0.010363045         3862 
 3343000    0.7024395   -9.2863405    449.53889  0.011205975  0.010358181         3856 
 3344000   0.71469158   -9.2686459     450.9149  0.011236914  0.010353321         3880 
 3345000   0.70789671   -9.2777972     450.4135  0.011221064  0.010348468         3879 
 3346000   0.71719381   -9.2864158    450.14161  0.011210939  0.010343614         3840 
 3347000   0.71603884   -9.3027621    450.61587  0.011219397   0.01033876         3865 
 3348000   0.71352609    -9.284234    450.10241  0.011203266  0.010333913         3838 
 3349000   0.70903865   -9.3158455    449.66082  0.011188933  0.010329068         3870 
 3350000   0.70528486   -9.3022465    450.41681  0.011204398  0.010324223         3896 
 3351000   0.70315486   -9.2928471    449.37646  0.011175183  0.010319381         3882 
 3352000   0.71554937   -9.2890234    450.04935  0.011188578  0.010314545         3876 
 3353000   0.70519019   -9.2913694    449.91495    0.0111819  0.010309705         3876 
 3354000   0.71217214    -9.329895     449.2281  0.011161501  0.010304872         3848 
 3355000   0.70055593   -9.3040642    449.92984  0.011175604   0.01030004         3849 
 3356000   0.70520377    -9.298326    450.00847  0.011174227  0.010295214         3868 
 3357000   0.70457469   -9.2835273    450.26786  0.011177337  0.010290394         3898 
 3358000   0.70458847   -9.3094146    449.61115  0.011157712  0.010285571         3867 
 3359000   0.70006703   -9.3024696    450.21892  0.011169468  0.010280754         3851 
 3360000   0.71620516   -9.2910582    450.66676  0.011177251  0.010275936         3894 
 3361000   0.70820859    -9.301201    450.23926  0.011163326  0.010271119         3870 
 3362000   0.71227162   -9.2824835    449.55494  0.011143043  0.010266312         3887 
 3363000   0.73917068   -9.3051973    449.31914  0.011133887  0.010261507         3849 
 3364000   0.71144066   -9.3105753    448.90162  0.011120234  0.010256703         3856 
 3365000   0.71732524   -9.2958624    449.53763   0.01113268  0.010251903         3853 
 3366000   0.74066123   -9.3044717    448.92239  0.011114141    0.0102471         3857 
 3367000   0.71039945   -9.3109062    450.38252  0.011146978  0.010242303         3881 
 3368000    0.7219648   -9.3016954    449.77187   0.01112856   0.01023751         3867 
 3369000   0.71058413   -9.3128745    449.87592   0.01112783  0.010232722         3900 
 3370000   0.70772072   -9.3047069    449.41734  0.011113188   0.01022794         3861 
 3371000    0.7011091   -9.3044196    449.47339  0.011111277  0.010223157         3872 
 3372000   0.70817788   -9.2945177    450.41457  0.011131242  0.010218372         3867 
 3373000   0.72674136   -9.2693549    450.66862  0.011134218  0.010213594         3876 
 3374000   0.72600083   -9.2962069     449.8469  0.011110623  0.010208823         3854 
 3375000   0.70958802     -9.32237    449.58835  0.011100947  0.010204049         3859 
 3376000   0.70940829   -9.3150924    449.59957  0.011097936  0.010199283         3876 
 3377000   0.72409106   -9.2885739    449.62409  0.011095254  0.010194519         3884 
 3378000   0.71515186   -9.3110398    450.24916   0.01110739   0.01018976         3838 
 3379000   0.70245603   -9.3051518    450.35113  0.011106618  0.010185002         3864 
 3380000   0.70479935   -9.3107856    449.28168  0.011076964  0.010180249         3838 
 3381000   0.73364356   -9.3167932    449.40168  0.011076646  0.010175497         3848 
 3382000   0.70827518   -9.2983666    450.42221  0.011098517  0.010170753         3842 
 3383000   0.70966754   -9.3038707    449.72622  0.011078092  0.010166007         3861 
 3384000   0.70984814   -9.3117231    449.23152  0.011062636  0.010161265         3898 
 3385000   0.71362431   -9.3161739    449.41362  0.011063851  0.010156525         3874 
 3386000   0.72722241     -9.29994    450.02647  0.011075666  0.010151789         3864 
 3387000   0.71515035   -9.2915745    450.70957  0.011089203  0.010147056         3871 
 3388000   0.69690033   -9.2775235    449.58623    0.0110583  0.010142318         3865 
 3389000   0.69308964    -9.314843    449.57901  0.011054859  0.010137578         3839 
 3390000   0.70169282   -9.3182368      449.366  0.011046362  0.010132846         3872 
 3391000   0.72511683   -9.2882662    450.23338   0.01106442  0.010128122         3873 
 3392000   0.71863691   -9.3032104    450.05686  0.011056822  0.010123399         3874 
 3393000   0.71416336   -9.3086708    449.64063   0.01104334  0.010118677         3880 
 3394000    0.7084371   -9.2908174    450.78405  0.011068161  0.010113966         3882 
 3395000   0.71809363   -9.3016862     450.3387  0.011053969  0.010109257         3861 
 3396000   0.69686504    -9.317657    450.22747  0.011047985  0.010104549         3874 
 3397000   0.69506508   -9.3279954    449.73781   0.01103272  0.010099843         3870 
 3398000   0.72386053   -9.3251676    449.54652  0.011024782  0.010095136         3860 
 3399000    0.7033994    -9.298647    449.72977  0.011026032  0.010090432         3881 
 3400000   0.71430557   -9.3080875    450.21688  0.011034727  0.010085734         3842 
 3401000   0.71125402   -9.3302639    449.46994  0.011013181  0.010081035         3872 
 3402000    0.6886183   -9.2902231    449.40503  0.011008354  0.010076342         3887 
 3403000   0.71285805   -9.2977921    448.74933  0.010989062  0.010071644         3851 
 3404000   0.72054339   -9.2969774    449.64306  0.011007713  0.010066957         3884 
 3405000   0.70384616   -9.3246916    449.46653   0.01100016  0.010062274         3852 
 3406000   0.71056668   -9.3243222    449.62877    0.0110009  0.010057589         3890 
 3407000   0.69934088   -9.3033598     449.4323  0.010992865  0.010052912         3886 
 3408000   0.70646702   -9.3077143    449.29958  0.010986394  0.010048238         3853 
 3409000   0.69945222   -9.3335497    449.16091  0.010979782  0.010043563         3855 
 3410000   0.71107144   -9.2891694    449.64634  0.010988425  0.010038896         3814 
 3411000   0.71306727   -9.3050484    449.41893  0.010979647  0.010034227         3846 
 3412000   0.71643476   -9.3177944    449.39371  0.010975813  0.010029562         3858 
 3413000   0.69998019   -9.3187435    449.63677  0.010978532  0.010024899         3856 
 3414000   0.71191931   -9.3239669    449.57725  0.010973864  0.010020246         3855 
 3415000   0.70575135   -9.3035721    449.52781  0.010969444  0.010015591         3836 
 3416000   0.70791297   -9.3027814    449.95921  0.010976757  0.010010935         3818 
 3417000   0.70480594   -9.2917847    449.59841  0.010964745  0.010006284         3860 
 3418000   0.70173496   -9.2983428    450.34447  0.010979727  0.010001635         3854 
 3419000   0.70770856   -9.3103395    450.26443  0.010974564 0.0099969894         3870 
 3420000   0.72032885    -9.328633    449.42327  0.010950859 0.0099923499         3863 
 3421000    0.7034178   -9.3013764    450.48871  0.010973612 0.0099877127         3848 
 3422000   0.71319812   -9.3174912    448.87629  0.010931139 0.0099830775         3867 
 3423000     0.700912   -9.3318776    449.33679  0.010939156 0.0099784445         3892 
 3424000   0.71910286   -9.3428698    449.20679  0.010932798 0.0099738065         3911 
 3425000   0.69968562   -9.2902728    449.35149  0.010933126 0.0099691746         3874 
 3426000   0.71718498    -9.337145    448.93278  0.010919751 0.0099645497         3854 
 3427000   0.69280278   -9.3008778    449.32181  0.010926024 0.0099599267         3863 
 3428000    0.7186349   -9.3332156    449.65002  0.010930815 0.0099553019         3857 
 3429000   0.70118974   -9.3282084    449.37709  0.010920995  0.009950681         3863 
 3430000   0.70580806   -9.3095844    448.94586  0.010907334 0.0099460627         3853 
 3431000   0.69650296   -9.3246738    449.35521  0.010914097 0.0099414522         3859 
 3432000   0.69027593   -9.3385197    449.17198  0.010906468  0.009936834         3845 
 3433000   0.69840041   -9.3245677    448.54957  0.010888183 0.0099322197         3884 
 3434000   0.70602059   -9.3187165    448.77328  0.010890441 0.0099276171         3863 
 3435000   0.70709557   -9.3002316    449.20506  0.010897745 0.0099230118         3864 
 3436000   0.69825176   -9.3226527    449.06804  0.010891251 0.0099184116         3868 
 3437000   0.70163146   -9.3341397    449.12501  0.010889463 0.0099138141         3879 
 3438000   0.70752337   -9.3377879    448.78038  0.010877942 0.0099092173         3864 
 3439000   0.70759552   -9.2892946     449.5791  0.010894133 0.0099046241         3853 
 3440000   0.71320305   -9.3096395    449.19919  0.010881763 0.0099000359         3868 
 3441000   0.69796204    -9.332399    449.44293  0.010884504 0.0098954465         3863 
 3442000   0.70641486   -9.3084269    449.81634  0.010890382 0.0098908627         3851 
 3443000   0.69848759   -9.3358483    449.93874  0.010890181 0.0098862798         3892 
 3444000   0.68589055   -9.3064828    449.88891  0.010885814 0.0098817016         3843 
 3445000   0.69466924   -9.2885919    449.76697  0.010879704 0.0098771258         3871 
 3446000    0.7076816   -9.3420723    448.72794   0.01085142  0.009872555         3871 
 3447000   0.69865323   -9.3327966     449.4383  0.010865446 0.0098679856         3886 
 3448000   0.69418176   -9.2988671    449.78285  0.010870622 0.0098634162         3878 
 3449000   0.70779336    -9.334635    449.32072  0.010856304 0.0098588403         3840 
 3450000   0.70105719   -9.3232123    449.06786   0.01084705 0.0098542774         3870 
 3451000   0.68839863   -9.3299449    449.67265  0.010858511 0.0098497143         3870 
 3452000   0.69587808   -9.3219208    449.35459  0.010847687 0.0098451581         3871 
 3453000   0.69902041   -9.3260109    449.11912  0.010838863 0.0098406016         3868 
 3454000   0.67836905    -9.331886     448.3003  0.010815969 0.0098360472         3876 
 3455000   0.71694033   -9.3278632    449.18671  0.010834219 0.0098314961         3880 
 3456000   0.71101596   -9.3291488    450.13123  0.010853859 0.0098269464         3881 
 3457000   0.68125368   -9.3255423    448.61641  0.010814203 0.0098223982         3869 
 3458000   0.69670481   -9.3094864    449.50265  0.010832433 0.0098178567         3902 
 3459000   0.70703748   -9.3156687    450.41823   0.01085136 0.0098133153         3876 
 3460000   0.69809999   -9.3315687    449.97177   0.01083747 0.0098087799         3873 
 3461000   0.70133307   -9.3550704    448.78954  0.010805874  0.009804249         3856 
 3462000   0.68545531   -9.3074407    448.55307   0.01079706 0.0097997186         3884 
 3463000   0.69041393   -9.3286063    449.61632  0.010819528  0.009795195         3885 
 3464000   0.68488264   -9.3327669    449.48665  0.010813285 0.0097906693         3848 
 3465000   0.69878213   -9.3391246    448.93319  0.010796854 0.0097861499         3855 
 3466000   0.70511912   -9.3258842    449.59093  0.010809553 0.0097816282         3839 
 3467000   0.70146423   -9.3146726    449.44439  0.010802913 0.0097771098         3850 
 3468000    0.6818433   -9.3064794     449.6487  0.010804707 0.0097726002         3872 
 3469000   0.69807999   -9.3199177    449.43342  0.010796421 0.0097680828         3848 
 3470000   0.70318848   -9.3153314    449.75748  0.010801092 0.0097635695         3836 
 3471000   0.70158944   -9.3321953    449.52918  0.010792499 0.0097590636         3886 
 3472000   0.67913703   -9.3250236    449.35181  0.010785134 0.0097545591         3883 
 3473000   0.69837765   -9.3177621    449.56521  0.010787149 0.0097500588         3871 
 3474000   0.70145142   -9.3483233    449.26887  0.010776935 0.0097455585         3874 
 3475000   0.70168497    -9.355471     448.8789  0.010764482 0.0097410646         3888 
 3476000   0.68400756   -9.3207065    448.77054  0.010758787 0.0097365715         3887 
 3477000   0.70799514   -9.3421244    448.51227  0.010749503 0.0097320777         3875 
 3478000   0.68039568   -9.3299942    448.40214  0.010743774 0.0097275872         3873 
 3479000    0.7104338   -9.3528566    449.08911  0.010757141 0.0097230995         3901 
 3480000   0.69065598   -9.3152462    449.33037  0.010759827 0.0097186136         3887 
 3481000   0.68608071   -9.3170296    448.35245  0.010733325  0.009714127         3900 
 3482000   0.69654384   -9.3155555     449.1559  0.010749471 0.0097096509         3884 
 3483000   0.70251164   -9.3203846    449.70279   0.01075947 0.0097051743         3893 
 3484000   0.69619184   -9.3234298    449.91975  0.010761571 0.0097007069         3901 
 3485000   0.70565395    -9.334929    449.26714  0.010742878 0.0096962414         3867 
 3486000    0.6889225   -9.3279527    449.00963   0.01073364  0.009691773         3863 
 3487000   0.68784849   -9.2917606    449.19202  0.010734921 0.0096873131         3871 
 3488000   0.68206513    -9.340415    449.22593  0.010732653 0.0096828547         3884 
 3489000    0.6948047   -9.3302195    448.28406  0.010707081 0.0096783951         3872 
 3490000   0.67247318   -9.3218608    449.73746  0.010738717 0.0096739407         3873 
 3491000    0.6976124   -9.3366887    449.43376  0.010728391 0.0096694879         3881 
 3492000   0.69392287   -9.3457593    448.74799  0.010708954 0.0096650362         3903 
 3493000   0.70210423   -9.3436396    449.36574  0.010720626 0.0096605941         3865 
 3494000   0.67941687   -9.3196444    449.86879  0.010729555 0.0096561507         3880 
 3495000   0.69754116    -9.343466    449.29689  0.010712849 0.0096517091         3867 
 3496000   0.69475361   -9.3412725    449.32233  0.010710391 0.0096472697         3874 
 3497000   0.68698675   -9.3173871      449.126   0.01070265 0.0096428301         3879 
 3498000   0.69099508   -9.3282469    448.55026  0.010685874 0.0096383897         3843 
 3499000   0.68877457   -9.3535189    449.42758  0.010703715 0.0096339637         3864 
 3500000   0.68251198   -9.3410532    449.12166  0.010693373 0.0096295359         3870 
 3501000   0.66723055    -9.365507    448.48284  0.010675113 0.0096251091         3887 
 3502000   0.68516012   -9.3345881     448.5758  0.010674277 0.0096206861         3867 
 3503000   0.69700623   -9.3354001    449.50204  0.010693264  0.009616266         3885 
 3504000   0.69910152    -9.319389    449.49716  0.010690096 0.0096118505         3865 
 3505000   0.69528537   -9.3209667    448.29689  0.010658509 0.0096074357         3866 
 3506000   0.70556331   -9.3238354    450.02727  0.010696598  0.009603024         3855 
 3507000   0.68406055   -9.3336845    448.96409  0.010668285  0.009598611         3883 
 3508000   0.67992107   -9.3378977    449.48249  0.010677558 0.0095942022         3847 
 3509000   0.69388725   -9.3504893    448.38801  0.010648523 0.0095898007         3882 
 3510000   0.70197657   -9.3243207    450.13657  0.010687003 0.0095854014         3863 
 3511000   0.67525309   -9.3247111    449.03564  0.010657829 0.0095810019         3861 
 3512000    0.6977634   -9.3446424    449.60819  0.010668379 0.0095766055         3873 
 3513000   0.69056077   -9.3186577    449.09169  0.010653091 0.0095722135         3875 
 3514000   0.68952196   -9.3461169    448.74962  0.010641947 0.0095678233         3886 
 3515000    0.6768577   -9.3381837    448.95169   0.01064371 0.0095634349         3883 
 3516000   0.70798804    -9.340826    449.39174  0.010651113 0.0095590427         3868 
 3517000   0.69420876    -9.363403    448.72328  0.010632245 0.0095546586         3852 
 3518000   0.68752457   -9.3512958    447.86148  0.010608809 0.0095502736         3855 
 3519000    0.6980241   -9.3154142    449.20848  0.010637693 0.0095458954         3884 
 3520000     0.690892   -9.3444841    450.21969   0.01065861 0.0095415209         3866 
 3521000   0.68944715   -9.3525451    448.66747  0.010618846 0.0095371477         3879 
 3522000   0.69384285   -9.3158101    448.83822  0.010619871 0.0095327774         3910 
 3523000   0.70285903   -9.3471104    449.36217   0.01062925 0.0095284074         3851 
 3524000   0.68215628   -9.3389784    448.94082   0.01061627 0.0095240405         3883 
 3525000   0.70715152   -9.3506238    449.93567  0.010636777 0.0095196776         3874 
 3526000   0.67521808    -9.366539    449.02914  0.010612335 0.0095153143         3874 
 3527000   0.69548526   -9.3419166    447.35103  0.010569677 0.0095109547         3882 
 3528000   0.69789742   -9.3256241    448.90568  0.010603403  0.009506597         3891 
 3529000   0.67792178   -9.3354998    448.92338  0.010600817 0.0095022431         3905 
 3530000   0.68375314   -9.3298185    448.17797  0.010580216 0.0094978892         3898 
 3531000   0.69490364   -9.3370312    448.91363  0.010594582 0.0094935374         3891 
 3532000   0.68908189    -9.334125    449.22693  0.010598974 0.0094891887         3896 
 3533000   0.70335899   -9.3532564     448.2225  0.010572283 0.0094848384         3869 
 3534000    0.6919107   -9.3365681    448.51501  0.010576189  0.009480492         3878 
 3535000   0.67759765   -9.3540566    448.68185   0.01057713 0.0094761471         3866 
 3536000   0.69415876   -9.3453911    447.67122  0.010550321 0.0094718058         3886 
 3537000   0.68777012   -9.3485294    448.66114  0.010570661 0.0094674671         3865 
 3538000   0.67882178   -9.3438824    448.54118  0.010564848 0.0094631315         3871 
 3539000   0.67611071   -9.3198714    448.61888  0.010563692 0.0094587985         3866 
 3540000    0.6942849   -9.3567895    447.94563  0.010544859 0.0094544636         3872 
 3541000   0.68514965   -9.3711231    448.15445  0.010546796  0.009450132         3888 
 3542000   0.68871931   -9.3323604    448.88492  0.010561004 0.0094458079         3867 
 3543000   0.68632464    -9.356669    448.99574   0.01056063  0.009441486         3870 
 3544000   0.67829693   -9.3402474    448.56011  0.010547407 0.0094371682         3883 
 3545000    0.6889592   -9.3632368    448.33399  0.010539116 0.0094328504         3863 
 3546000   0.68675271   -9.3539765    448.98393  0.010551418 0.0094285367         3884 
 3547000   0.69038573   -9.3425546    448.45595  0.010536039 0.0094242199         3886 
 3548000   0.68889283   -9.3310756    448.13254  0.010525473 0.0094199088         3902 
 3549000   0.68901611   -9.3430663    448.15158  0.010522954 0.0094156034         3892 
 3550000   0.67833698   -9.3551469    448.20043  0.010521137 0.0094113006         3868 
 3551000   0.67606815   -9.3587118    448.02677  0.010514099  0.009406996         3896 
 3552000   0.67055829   -9.3539121    449.07636  0.010535763  0.009402699         3885 
 3553000    0.6930225    -9.353461    448.52658  0.010519903 0.0093984043         3905 
 3554000   0.68037076   -9.3712238    449.25335  0.010533984  0.009394115         3846 
 3555000   0.67864404   -9.3530525    448.99374  0.010524935 0.0093898256         3894 
 3556000    0.6829065   -9.3423356    448.61793  0.010513169 0.0093855375         3873 
 3557000   0.68131768   -9.3570732    448.24988   0.01050159 0.0093812518         3882 
 3558000   0.67524878   -9.3445347    448.01196  0.010493066 0.0093769676         3893 
 3559000   0.68005482    -9.344016    448.17305   0.01049389  0.009372684         3876 
 3560000   0.67556588   -9.3467147    448.61706  0.010501336 0.0093684079         3881 
 3561000    0.6825372   -9.3319706    449.49318  0.010518889 0.0093641369         3887 
 3562000   0.66621881   -9.3548446    448.27155  0.010487356 0.0093598692         3871 
 3563000   0.69642451   -9.3421302    449.08011  0.010503324 0.0093555999         3878 
 3564000   0.67794796   -9.3454773    449.24186  0.010504159 0.0093513321         3844 
 3565000   0.67126109   -9.3542204    449.27746  0.010502044 0.0093470695         3883 
 3566000   0.68731623     -9.35729    448.46574   0.01048013 0.0093428097         3874 
 3567000   0.69037901   -9.3597725    449.11819  0.010492435 0.0093385488         3877 
 3568000    0.6777994   -9.3376415    449.16249  0.010490529 0.0093342865         3871 
 3569000   0.68536517   -9.3497437    447.98652  0.010460132 0.0093300334         3887 
 3570000    0.6732638   -9.3430434    448.97963  0.010480384 0.0093257801         3850 
 3571000   0.66620902   -9.3607322    448.61305  0.010468894 0.0093215321         3870 
 3572000   0.67516987   -9.3610877     448.6291  0.010466338 0.0093172849         3890 
 3573000   0.69864201   -9.3647396    447.62246   0.01043993 0.0093130359         3878 
 3574000   0.67890995   -9.3622498    448.37815  0.010454629 0.0093087965         3866 
 3575000   0.67546417   -9.3466834    448.39772  0.010452161 0.0093045565         3886 
 3576000   0.68146723   -9.3701426     448.5242  0.010452186 0.0093003193         3876 
 3577000   0.69683695   -9.3831321    448.22866  0.010442379 0.0092960818         3869 
 3578000    0.6833829   -9.3505296    448.13124  0.010437191 0.0092918511         3869 
 3579000   0.67603222   -9.3531163    448.93251  0.010452932 0.0092876217         3887 
 3580000   0.68567091   -9.3593505    448.28438  0.010434925 0.0092833928         3876 
 3581000   0.68022779   -9.3827096    448.06368  0.010426875 0.0092791643         3870 
 3582000   0.68512177    -9.358031    447.82846  0.010418492 0.0092749424         3866 
 3583000   0.67725517   -9.3622429    448.33511  0.010427368 0.0092707251         3863 
 3584000   0.66897503   -9.3833942    448.05732  0.010417999 0.0092665032         3861 
 3585000   0.66249989   -9.3571104    447.94284  0.010412432 0.0092622839         3879 
 3586000   0.68047001   -9.3738232    447.70001  0.010403886 0.0092580746         3857 
 3587000   0.67392409    -9.351863    448.73495  0.010425029  0.009253866         3883 
 3588000   0.67633023   -9.3417144    448.31408  0.010412349  0.009249659         3894 
 3589000   0.68097233   -9.3521491    448.52104  0.010414253 0.0092454552         3882 
 3590000    0.6980245   -9.3623038    448.37636  0.010407993 0.0092412528         3881 
 3591000   0.69054633   -9.3678223    448.65085  0.010411465 0.0092370525         3900 
 3592000    0.6832009   -9.3770791    448.00526  0.010393589 0.0092328562         3871 
 3593000   0.68674091   -9.3751688    448.37715  0.010399322 0.0092286608         3902 
 3594000   0.67131553    -9.351301     449.0315    0.0104116 0.0092244683         3885 
 3595000   0.67980921   -9.3666504    448.47626  0.010395833 0.0092202764         3901 
 3596000   0.68681209   -9.3748002      448.533  0.010394258 0.0092160876         3870 
 3597000   0.68700824   -9.3485007    447.62941  0.010370434 0.0092118982         3888 
 3598000   0.67905374   -9.3461679    448.05929  0.010377508 0.0092077145         3888 
 3599000    0.6788074   -9.3555797    448.32803  0.010380847 0.0092035369         3904 
 3600000   0.67461623   -9.3715228    449.49659  0.010405014  0.009199361         3892 
 3601000   0.69060948   -9.3681067    449.19158  0.010395066 0.0091951862         3882 
 3602000   0.65910015    -9.361736    449.22231  0.010392891 0.0091910149         3882 
 3603000   0.67981544   -9.3848807    448.55088  0.010374477 0.0091868393         3920 
 3604000    0.6630077   -9.3475886    447.65791   0.01035095 0.0091826727         3882 
 3605000   0.67697987   -9.3521961     448.1991  0.010360589 0.0091785087         3864 
 3606000   0.66749092   -9.3955372    447.95042  0.010351969 0.0091743425         3897 
 3607000    0.6717595   -9.3510913    448.25604   0.01035616 0.0091701839         3866 
 3608000   0.67468579   -9.3603727    449.02966  0.010371158  0.009166024         3867 
 3609000   0.69309669   -9.3618001    448.68356  0.010360293 0.0091618684         3868 
 3610000   0.66133789   -9.3702846    447.56459  0.010331593  0.009157715         3885 
 3611000    0.6572042    -9.356875    448.69635   0.01035485 0.0091535645         3895 
 3612000   0.68234052   -9.3628298      448.323  0.010343369 0.0091494144         3876 
 3613000   0.66787222   -9.3638816    448.23066  0.010338377 0.0091452744         3870 
 3614000   0.66567533   -9.3529719    449.15192  0.010356759 0.0091411337         3859 
 3615000   0.65281553   -9.3575139    447.90595  0.010325172 0.0091369959         3875 
 3616000   0.66558428    -9.381887      449.211  0.010352392 0.0091328622         3856 
 3617000   0.67785216   -9.3732492    448.05074  0.010322798 0.0091287267         3851 
 3618000   0.67002564   -9.3836567    447.83405  0.010314954  0.009124593         3886 
 3619000   0.68201704   -9.3803869    448.13677  0.010319074 0.0091204598         3872 
 3620000   0.66235286    -9.385296    448.37295  0.010321661 0.0091163312         3870 
 3621000   0.66162216   -9.3584956    448.62915  0.010324707 0.0091122067         3848 
 3622000   0.67967394   -9.3642054    447.97287  0.010306757 0.0091080859         3881 
 3623000   0.67420927   -9.3557652    448.68415  0.010320272  0.009103966         3874 
 3624000   0.66186951   -9.3883931    448.60642  0.010315637 0.0090998503         3878 
 3625000   0.67291839   -9.4070591    448.27661  0.010305209 0.0090957329         3861 
 3626000    0.6691234   -9.3747724    448.27209  0.010302263 0.0090916169         3889 
 3627000   0.67349661   -9.3685368    447.92846  0.010291528 0.0090875121         3884 
 3628000   0.67820601   -9.3680164    448.39783  0.010299472 0.0090834024         3885 
 3629000   0.67359422   -9.3858862    447.33065  0.010272129 0.0090792926         3899 
 3630000   0.66281097   -9.3778034    448.47105  0.010295479  0.009075188         3893 
 3631000   0.65376655   -9.3759963    447.93297  0.010280294 0.0090710864         3886 
 3632000   0.67234818   -9.3784908    448.19682  0.010283517 0.0090669902         3881 
 3633000   0.67760272    -9.379863    448.16728  0.010280009 0.0090628991         3868 
 3634000   0.67935492   -9.3718036    448.09856  0.010275604 0.0090588065         3861 
 3635000   0.66714298   -9.3773172    448.33589  0.010278218 0.0090547181         3859 
 3636000   0.65983281   -9.3893228    448.02622  0.010268294 0.0090506298         3868 
 3637000   0.66477859   -9.3653431    447.79269   0.01026012 0.0090465406         3879 
 3638000   0.66891744   -9.3831809    447.80713  0.010257631 0.0090424563         3902 
 3639000   0.66795039   -9.3780747    448.70644  0.010275406 0.0090383728         3916 
 3640000   0.65386551   -9.4103666    447.73168  0.010250267   0.00903429         3877 
 3641000   0.67989711   -9.3801676    448.28468  0.010260109 0.0090302105         3883 
 3642000   0.67569218   -9.3900608    447.68081  0.010243474 0.0090261318         3901 
 3643000   0.65977211   -9.3781913    447.97748  0.010247449 0.0090220603         3908 
 3644000   0.66730994   -9.3744773    448.22655  0.010250333 0.0090179896         3897 
 3645000   0.66453938   -9.3766502    447.64464  0.010234217 0.0090139171         3892 
 3646000   0.67145922   -9.3737588    448.70524  0.010255651 0.0090098488         3888 
 3647000    0.6563981    -9.376641     448.0825  0.010238609  0.009005784         3889 
 3648000    0.6748282   -9.3765841     447.7472  0.010228143  0.009001721         3924 
 3649000   0.66862169   -9.3876247    448.24914  0.010236803 0.0089976598         3888 
 3650000   0.65119306   -9.3698086     448.3096  0.010235379    0.0089936         3894 
 3651000   0.66694138   -9.3609658    447.99726  0.010225446 0.0089895443         3872 
 3652000   0.67188207   -9.3675542    448.01228  0.010222989 0.0089854915         3890 
 3653000   0.67272446      -9.3944    447.94877  0.010218742 0.0089814429         3883 
 3654000    0.6649057   -9.3917624    448.56493  0.010229998 0.0089773943         3892 
 3655000   0.66426224   -9.3780914    448.36412   0.01022262 0.0089733461         3880 
 3656000   0.67178405   -9.3635242    448.59272  0.010225035 0.0089693033         3895 
 3657000   0.66079406   -9.3589702    448.65965  0.010223764 0.0089652594         3881 
 3658000   0.67267503   -9.3778632    448.15395  0.010209449 0.0089612189         3887 
 3659000    0.6660001   -9.3714541    448.47111  0.010213882 0.0089571804         3877 
 3660000   0.67904466   -9.3837455    448.03637  0.010201192 0.0089531553         3892 
 3661000   0.66914163   -9.3599877    447.80428  0.010193123 0.0089491222         3883 
 3662000   0.66411011   -9.3692106    448.92802  0.010215912 0.0089450999         3853 
 3663000   0.66731058   -9.3644394    449.14648  0.010218093 0.0089410797         3880 
 3664000    0.6661322   -9.3985309    447.53844  0.010178731 0.0089370564         3913 
 3665000    0.6680292   -9.3751162    447.85967  0.010183258 0.0089330359         3887 
 3666000      0.66886   -9.3843499    447.39447  0.010169905 0.0089290181         3897 
 3667000   0.66189668   -9.3888561    446.98424  0.010157809 0.0089250064         3887 
 3668000   0.65689069   -9.3519015    448.43306  0.010187956 0.0089209934         3879 
 3669000   0.65360505    -9.357864    447.80406  0.010170893 0.0089169828         3869 
 3670000    0.6632996   -9.3948578    447.57599  0.010162943 0.0089129756         3866 
 3671000   0.65924679   -9.3780219    447.20827  0.010151827 0.0089089697         3880 
 3672000   0.65701334   -9.3394338    448.07186  0.010168661 0.0089049642         3884 
 3673000   0.67996532   -9.3745521    447.89065  0.010161781 0.0089009653         3881 
 3674000   0.67074916   -9.3805171    447.50538  0.010150276 0.0088969674         3879 
 3675000   0.68005464   -9.4040838    448.09544  0.010160894   0.00889297         3904 
 3676000   0.65077454   -9.3550859    447.50965  0.010144851 0.0088889757         3861 
 3677000   0.66238979    -9.392967    447.59401  0.010144004 0.0088849852         3917 
 3678000   0.67315575   -9.4054396    448.06494  0.010151916 0.0088809944         3901 
 3679000   0.66021117   -9.3866812    447.86535  0.010144635 0.0088770044         3889 
 3680000   0.66072309   -9.3847692     447.3426  0.010130041 0.0088730209         3899 
 3681000   0.66457629    -9.375363    447.14917   0.01012291 0.0088690372         3896 
 3682000   0.66707846   -9.4027745    447.48132  0.010127678 0.0088650574         3910 
 3683000   0.65857649   -9.4202231    447.41922  0.010123523 0.0088610752         3904 
 3684000   0.65545007   -9.3989454      447.916  0.010132012 0.0088570952         3906 
 3685000   0.67044305   -9.3893077    447.90989  0.010129125 0.0088531164         3885 
 3686000   0.64915934   -9.3749257    447.09928   0.01010805 0.0088491455         3907 
 3687000   0.65445887   -9.3803351    447.30651  0.010109993 0.0088451746         3900 
 3688000   0.66952026    -9.394086    447.78647  0.010118096 0.0088412062         3897 
 3689000   0.67330656   -9.3555736    448.43394   0.01012998 0.0088372417         3897 
 3690000   0.65637112    -9.373652    447.65723  0.010109694 0.0088332799         3857 
 3691000   0.65967713   -9.3804599    448.33483  0.010122253 0.0088293165         3899 
 3692000    0.6553976   -9.3805408     448.3109  0.010118971 0.0088253557         3866 
 3693000   0.66923865   -9.3988933    448.58423  0.010122399 0.0088213952         3874 
 3694000    0.6601467   -9.3846282     447.8272  0.010102581 0.0088174412         3876 
 3695000   0.64567706   -9.3818268     448.0347  0.010104526 0.0088134913         3886 
 3696000   0.66392528   -9.4169127    447.87735  0.010098245 0.0088095408         3890 
 3697000   0.65708204    -9.380255    447.16688  0.010079499 0.0088055907         3911 
 3698000    0.6599335   -9.4124255    448.35091  0.010103455  0.008801643         3880 
 3699000   0.67130301    -9.383824     448.1693  0.010096632 0.0087976991         3891 
 3700000    0.6522997   -9.3696998    447.91057  0.010088076 0.0087937581         3900 
 3701000   0.65358282   -9.4079975    448.73969  0.010104019 0.0087898181         3908 
 3702000   0.64610117   -9.3763074    447.94804  0.010083469 0.0087858812         3902 
 3703000   0.66068745   -9.3815857    447.89565  0.010079567   0.00878195         3867 
 3704000   0.66298337   -9.3797814    448.02012  0.010079646 0.0087780211         3894 
 3705000   0.65744613   -9.3688681    446.64753  0.010046053  0.008774093         3911 
 3706000   0.65143297   -9.4127392    447.34366  0.010058996 0.0087701668         3905 
 3707000   0.65672269   -9.4040642    447.62396  0.010062584 0.0087662436         3884 
 3708000   0.64689048   -9.3691807    447.62908  0.010059985  0.008762324         3888 
 3709000   0.65715133   -9.3851684    447.89164  0.010063172 0.0087584058         3906 
 3710000    0.6575992   -9.3986927    447.67964  0.010055697 0.0087544922         3880 
 3711000   0.65243638   -9.3796268    448.25082  0.010065814 0.0087505809         3883 
 3712000   0.66733627   -9.3863271    447.27846  0.010041273   0.00874667         3872 
 3713000   0.64529968   -9.3689149    447.66762  0.010047303 0.0087427619         3897 
 3714000   0.65187574   -9.3892372    447.98269  0.010051667 0.0087388583         3880 
 3715000   0.67119731   -9.4257603    447.00796  0.010027097   0.00873495         3901 
 3716000   0.65952287   -9.3931394    447.93502  0.010045188 0.0087310443         3900 
 3717000   0.66752762   -9.4062934    447.35065  0.010029384 0.0087271465         3898 
 3718000   0.64484948   -9.3960673    447.75115  0.010035663 0.0087232469         3906 
 3719000   0.66434401   -9.4116947    446.69978  0.010009406  0.008719354         3881 
 3720000   0.64418829   -9.3911499    447.43309  0.010023143 0.0087154616         3889 
 3721000   0.65051875   -9.4082808    447.69773  0.010026376 0.0087115731         3881 
 3722000   0.65936434   -9.3911215    448.76876  0.010047662 0.0087076815         3885 
 3723000    0.6572265   -9.3887361    447.61091  0.010019046 0.0087037937         3883 
 3724000    0.6630815   -9.4055398    447.79396  0.010020452  0.008699911         3905 
 3725000   0.64244498   -9.4152954    447.18405  0.010004117 0.0086960287         3915 
 3726000    0.6567157   -9.4119249    447.08519 0.0099992214 0.0086921441         3891 
 3727000   0.64425332   -9.3998881    447.30286  0.010001405 0.0086882623         3896 
 3728000   0.64569803   -9.4124744    447.28616 0.0099983494 0.0086843835         3890 
 3729000   0.64860914   -9.3969454    446.97676  0.009988754 0.0086805098         3872 
 3730000   0.65398039   -9.4124954    447.92421  0.010007243 0.0086766398         3870 
 3731000   0.64478053   -9.3843208    448.12763  0.010009104 0.0086727732         3880 
 3732000    0.6574731   -9.3858914    447.63957 0.0099955245  0.008668905         3883 
 3733000   0.65290364   -9.4026954    447.56664 0.0099912189 0.0086650419         3911 
 3734000   0.65028524   -9.4150135    447.65232 0.0099904552 0.0086611808         3907 
 3735000   0.66968989   -9.4034481     447.1371  0.009976285   0.00865732         3906 
 3736000   0.65353946   -9.3893984    447.87217 0.0099900109 0.0086534627         3862 
 3737000   0.64861443   -9.3857838    447.51184 0.0099793025 0.0086496091         3897 
 3738000   0.66263874   -9.3714467    448.14217  0.009990685 0.0086457598         3917 
 3739000   0.65238137   -9.3849701    447.29425 0.0099691151 0.0086419093         3908 
 3740000   0.65610856   -9.3910196    447.55631 0.0099722886  0.008638062         3876 
 3741000   0.66284458   -9.4108373    447.13667 0.0099602751 0.0086342169         3904 
 3742000   0.65499403   -9.4065718     447.1969 0.0099589547 0.0086303758         3895 
 3743000   0.65301768   -9.4171035    446.88636 0.0099493802 0.0086265352         3891 
 3744000   0.66350444   -9.3981858    447.48603 0.0099600701 0.0086226974         3901 
 3745000   0.66681404   -9.3883263      447.905 0.0099667334 0.0086188646         3894 
 3746000   0.64000258    -9.407015    446.88553 0.0099413936 0.0086150368         3880 
 3747000   0.65022779   -9.3922068    447.86872 0.0099606068 0.0086112095         3904 
 3748000    0.6621018   -9.4000294    447.70288 0.0099542617 0.0086073822         3884 
 3749000   0.66955152    -9.409765    448.02847  0.009958844 0.0086035574         3899 
 3750000   0.65130702   -9.4021784    447.64891 0.0099477536 0.0085997346         3887 
 3751000   0.66082749   -9.4017461    448.70283 0.0099685157 0.0085959164         3895 
 3752000   0.65333404   -9.4107877    447.50509 0.0099392567 0.0085920971         3893 
 3753000   0.65649832   -9.4128707    447.94995 0.0099464862 0.0085882794         3900 
 3754000   0.65149832   -9.4368576    447.53586 0.0099346444 0.0085844614         3902 
 3755000   0.66791326   -9.4123063    447.27958 0.0099263111 0.0085806479         3876 
 3756000   0.67294876   -9.3969475    447.51895 0.0099289792 0.0085768377         3917 
 3757000   0.64943293    -9.407127    447.11829 0.0099174495 0.0085730299         3908 
 3758000   0.63392594   -9.3857337    447.53619 0.0099240774 0.0085692301         3901 
 3759000   0.64480519    -9.409834    447.33679 0.0099170168 0.0085654268         3933 
 3760000   0.63920737   -9.4145603    446.78401 0.0099021279 0.0085616235         3917 
 3761000    0.6528834   -9.4016265    447.73302 0.0099205225 0.0085578268         3917 
 3762000   0.64400969   -9.4051958    447.81737 0.0099197539 0.0085540329         3879 
 3763000   0.65059703   -9.4198501    447.11514 0.0099015665 0.0085502383         3882 
 3764000   0.65438359   -9.4217354    447.32432 0.0099035671 0.0085464455         3862 
 3765000   0.65410349    -9.401702    447.34025 0.0099012894  0.008542657         3878 
 3766000   0.66879139   -9.3999751    447.52581 0.0099027661  0.008538871         3887 
 3767000   0.65106733   -9.4216514    446.43908 0.0098760968 0.0085350872         3906 
 3768000   0.64766572   -9.4254204    447.71556 0.0099017066 0.0085313004         3913 
 3769000   0.64803699   -9.4098959     447.2053 0.0098877973 0.0085275229         3904 
 3770000   0.65666694   -9.4191536    446.99594 0.0098805468 0.0085237436         3906 
 3771000   0.64146836   -9.4103813    447.25321 0.0098836119 0.0085199632         3892 
 3772000   0.64363497   -9.3811534     447.3824 0.0098838459 0.0085161853         3924 
 3773000    0.6357332   -9.4189817    446.96717 0.0098720552 0.0085124087         3920 
 3774000   0.65605904   -9.4047755    447.85451 0.0098890326 0.0085086337         3919 
 3775000   0.65098062   -9.4250596     446.8626 0.0098645166 0.0085048639         3879 
 3776000   0.63991381   -9.4313838    446.06939 0.0098443986 0.0085010974         3906 
 3777000   0.65076192   -9.4057906    447.03188 0.0098630279 0.0084973251         3912 
 3778000   0.65585703   -9.4149333    446.89788 0.0098574617 0.0084935607         3906 
 3779000   0.63685876   -9.4065865    448.15698 0.0098826183  0.008489799         3883 
 3780000   0.64776714   -9.4171461    447.21542 0.0098592464 0.0084860379         3910 
 3781000   0.64489796   -9.4289934    446.56426 0.0098422873 0.0084822791         3896 
 3782000   0.64749964   -9.4135856    446.97979 0.0098488408 0.0084785207         3898 
 3783000   0.63854222   -9.3959077    447.04142  0.009847595 0.0084747656         3901 
 3784000   0.65921453   -9.4032212    447.47188 0.0098544723 0.0084710163         3893 
 3785000    0.6380492   -9.4134091    447.66483 0.0098561168 0.0084672675         3880 
 3786000   0.62628207   -9.4082048    447.24851   0.00984435 0.0084635199         3924 
 3787000   0.63727485   -9.4046247    447.40465 0.0098451865 0.0084597757         3902 
 3788000   0.64825195     -9.42066    446.87635  0.009830965   0.00845603         3877 
 3789000   0.62666003   -9.4017295    447.12848 0.0098339158 0.0084522906         3907 
 3790000   0.64831034   -9.4244805    447.48749 0.0098392149 0.0084485497         3916 
 3791000   0.64964785   -9.4180663    447.61931 0.0098395172 0.0084448128         3930 
 3792000   0.65766794   -9.3940021    447.54632 0.0098353182 0.0084410762         3903 
 3793000   0.65109254   -9.4005166    447.17011 0.0098244597 0.0084373426         3897 
 3794000   0.64551164   -9.4070934    447.80509 0.0098358173 0.0084336136         3897 
 3795000   0.64133101   -9.4238974    447.09372 0.0098176046 0.0084298813         3907 
 3796000   0.64038181   -9.4277089    447.57349 0.0098255509 0.0084261535         3899 
 3797000   0.64339378   -9.4314117    447.30255 0.0098170167 0.0084224316         3926 
 3798000    0.6432267   -9.3966624    447.52455  0.009819303 0.0084187079         3912 
 3799000    0.6492912   -9.4089742     447.0399 0.0098060872 0.0084149908         3896 
 3800000   0.65046109   -9.4068816    447.05411 0.0098038182 0.0084112723         3933 
 3801000   0.64933595   -9.4339544     447.4477 0.0098098681 0.0084075568         3919 
 3802000   0.64580946   -9.4380354    446.75932 0.0097921996 0.0084038414         3875 
 3803000   0.63282226   -9.4308217    445.83693  0.009769413 0.0084001299         3919 
 3804000   0.64044474   -9.4200774    446.83296 0.0097886646  0.008396418         3885 
 3805000   0.65291869   -9.4533455    447.17681 0.0097936226 0.0083927126         3914 
 3806000   0.65250368   -9.4015654    447.42979 0.0097965885 0.0083890083         3907 
 3807000   0.63306889   -9.4264299    446.82947 0.0097808744  0.008385307         3891 
 3808000   0.63821836   -9.4378237    446.88718 0.0097795688 0.0083816084         3894 
 3809000   0.63994758   -9.4230707    447.04963 0.0097805554 0.0083779132         3913 
 3810000   0.64719567   -9.4280756     446.8833 0.0097743503 0.0083742166         3880 
 3811000   0.63411135   -9.4284616    446.96141 0.0097734937 0.0083705258         3890 
 3812000    0.6388299   -9.4345981    447.39056 0.0097803112 0.0083668336         3901 
 3813000   0.63730782   -9.4238862     446.5691 0.0097597933 0.0083631481         3897 
 3814000   0.65837286   -9.4191074    447.26652 0.0097724726 0.0083594605         3914 
 3815000   0.65646216   -9.4230318    447.42305 0.0097733301 0.0083557749         3896 
 3816000   0.66216865   -9.4225798    446.71142 0.0097552285 0.0083520919         3887 
 3817000    0.6362959   -9.4524362    446.55875 0.0097493395 0.0083484077         3910 
 3818000   0.63845753    -9.418558    447.43154  0.009765836 0.0083447267         3897 
 3819000   0.63916565   -9.4106036    445.96472 0.0097312716 0.0083410509         3918 
 3820000   0.63117346   -9.4317749    446.84949 0.0097480254  0.008337375         3884 
 3821000   0.64084947   -9.4270558    446.89649 0.0097464994 0.0083337052         3895 
 3822000   0.64861301   -9.4247613    446.88897 0.0097437853 0.0083300328         3907 
 3823000    0.6394088   -9.4106827    446.78863 0.0097390493 0.0083263621         3909 
 3824000   0.63472256   -9.4248326     446.6971 0.0097345079 0.0083226959         3901 
 3825000    0.6434028   -9.3942925    447.46818 0.0097487621 0.0083190327         3887 
 3826000    0.6485727   -9.4359223    446.77064 0.0097310211   0.00831537         3889 
 3827000    0.6397896   -9.4053937    446.51359  0.009722881  0.008311711         3887 
 3828000   0.64563972   -9.4177374    446.42006  0.009718305 0.0083080558         3877 
 3829000   0.64986242   -9.4244441    446.48421 0.0097171632 0.0083044028         3914 
 3830000     0.653035   -9.4154052    446.78977 0.0097212745 0.0083007492         3901 
 3831000   0.64352565   -9.4187619    448.01858 0.0097454664 0.0082970997         3896 
 3832000   0.63277787   -9.4144469    446.83595 0.0097172048 0.0082934531         3890 
 3833000   0.63732213   -9.4189045    447.30804 0.0097249336 0.0082898068         3887 
 3834000   0.62815239   -9.4204247    446.58181 0.0097066121 0.0082861612         3901 
 3835000   0.62681315   -9.4348429    447.04482 0.0097141421 0.0082825201         3910 
 3836000   0.64049593   -9.4192614    446.88859 0.0097082159   0.00827888         3874 
 3837000   0.64026087   -9.4460231    447.16658  0.009711723 0.0082752426         3909 
 3838000   0.64189233   -9.4406504    446.71591 0.0096994074 0.0082716082         3908 
 3839000   0.64525562   -9.4200871    447.01383 0.0097033478 0.0082679737         3898 
 3840000   0.64148288   -9.4161922    447.44632 0.0097102066 0.0082643447         3908 
 3841000   0.63920681   -9.4168352    447.29913 0.0097044851 0.0082607115         3912 
 3842000   0.64078687   -9.4243972    447.20919 0.0097000086 0.0082570815         3894 
 3843000   0.61247978   -9.4191377    446.86052 0.0096899237  0.008253457         3884 
 3844000   0.63771437   -9.4435376    446.32391 0.0096757699 0.0082498334         3904 
 3845000   0.63412316   -9.4240046    446.61243 0.0096795064  0.008246215         3914 
 3846000   0.63220754   -9.4279328    446.22737 0.0096686464 0.0082425997         3888 
 3847000   0.64449145   -9.4091514    447.16857 0.0096865214 0.0082389835         3901 
 3848000     0.623447   -9.4440904    447.28458 0.0096865163 0.0082353682         3894 
 3849000   0.62467567   -9.4164457    447.10307 0.0096800699 0.0082317568         3890 
 3850000   0.62049121   -9.4295808    447.26963 0.0096811609 0.0082281501         3895 
 3851000   0.63741085   -9.4369229    446.82553 0.0096690369 0.0082245427         3892 
 3852000   0.64225381   -9.4587707    448.02749 0.0096925296 0.0082209325         3928 
 3853000   0.64017981   -9.4165019    447.02711 0.0096683776 0.0082173276         3885 
 3854000   0.62325638   -9.4217626    446.63334 0.0096573546  0.008213727         3894 
 3855000   0.63617412   -9.4265693    446.84971 0.0096595268 0.0082101286         3911 
 3856000   0.64801713   -9.4297472    446.58713  0.009651347 0.0082065286         3902 
 3857000   0.62810211   -9.4260726    446.17937 0.0096400348  0.008202931         3906 
 3858000   0.63268083   -9.4385548    446.50675 0.0096446075 0.0081993388         3921 
 3859000   0.63288413   -9.4412836    446.21387 0.0096357837 0.0081957466         3895 
 3860000    0.6362369   -9.4280259    446.41489 0.0096376271 0.0081921556         3898 
 3861000   0.62837016   -9.4357064    446.76276 0.0096426391 0.0081885684         3905 
 3862000   0.63038043   -9.4564355    446.81801 0.0096413346 0.0081849845         3894 
 3863000   0.64239994   -9.4377711    447.37013 0.0096507492 0.0081814013         3891 
 3864000   0.63229507   -9.4391227    446.65115 0.0096327456 0.0081778215         3874 
 3865000   0.63360459    -9.435131     446.7914 0.0096332773 0.0081742481         3892 
 3866000   0.63771948   -9.4223876    446.75482  0.009629997 0.0081706734         3891 
 3867000   0.62426955   -9.4312538     445.8755 0.0096085575 0.0081671008         3912 
 3868000   0.62035577   -9.4427648    446.97451 0.0096297507 0.0081635252         3900 
 3869000    0.6382384    -9.426244    447.12399 0.0096304814 0.0081599547         3886 
 3870000   0.62684781   -9.4232708    447.30037 0.0096317908 0.0081563874         3911 
 3871000   0.63891535   -9.4359058    447.01493 0.0096231578 0.0081528219         3902 
 3872000   0.63279779   -9.4319932     447.2789 0.0096263537 0.0081492609         3890 
 3873000   0.62549336   -9.4413222    447.00454  0.009617965 0.0081456951         3924 
 3874000   0.62598275   -9.4143962    447.33323 0.0096225527 0.0081421316         3909 
 3875000   0.63139607   -9.4150598    446.65488 0.0096054813 0.0081385718         3900 
 3876000   0.63229454   -9.4315889    447.02778 0.0096110204  0.008135013         3917 
 3877000   0.63667313   -9.4026476    447.28179 0.0096140012 0.0081314583         3903 
 3878000   0.63437729   -9.4447076    446.45682 0.0095937944 0.0081279076         3888 
 3879000   0.63183379   -9.4560598    446.26815  0.009587268 0.0081243561         3911 
 3880000   0.62170403   -9.4392379    446.54555 0.0095907549 0.0081208079         3930 
 3881000    0.6352553   -9.4224205    447.60429 0.0096110171 0.0081172647         3922 
 3882000   0.63374663    -9.412854    446.89809 0.0095933817 0.0081137189         3891 
 3883000   0.64716769   -9.4412261    446.27564 0.0095775525 0.0081101784         3906 
 3884000   0.62696146   -9.4319337    447.05433 0.0095917938 0.0081066382         3901 
 3885000   0.61107097   -9.4547179    447.35547 0.0095957844 0.0081030971         3880 
 3886000   0.64269718   -9.4515924    445.97449 0.0095637006  0.008099561         3916 
 3887000   0.63755884   -9.4431473    446.85621 0.0095801434 0.0080960291         3916 
 3888000   0.64258382   -9.4440374    446.62376 0.0095726971  0.008092499         3905 
 3889000   0.63029136   -9.4451139    446.49909 0.0095675643 0.0080889705         3895 
 3890000   0.63601483   -9.4327801    446.07078 0.0095559292 0.0080854396         3900 
 3891000   0.62608156   -9.4396635    446.92264 0.0095717177 0.0080819101         3891 
 3892000   0.61678434   -9.4453631    446.54847 0.0095612468 0.0080783883         3909 
 3893000   0.62432107   -9.4606342    446.26092 0.0095526355  0.008074866         3882 
 3894000   0.64096432   -9.4465521    446.80413 0.0095618073 0.0080713464         3890 
 3895000   0.63126159   -9.4374295    446.80719 0.0095594179 0.0080678312         3918 
 3896000   0.63713366   -9.4503859    446.59667 0.0095524614 0.0080643174         3900 
 3897000   0.62475746   -9.4379166    446.45659 0.0095470146 0.0080608022         3901 
 3898000   0.62986244   -9.4491046    446.81847 0.0095523018 0.0080572894         3904 
 3899000   0.62246438   -9.4457146     447.3594 0.0095614133 0.0080537779         3885 
 3900000   0.63562106   -9.4455029    446.37199  0.009537863 0.0080502711         3894 
 3901000   0.62091471   -9.4417963     446.8463 0.0095455503 0.0080467639         3893 
 3902000   0.62205022   -9.4501752    446.08984 0.0095269485 0.0080432606         3868 
 3903000   0.63848495   -9.4247152    446.00285 0.0095226503  0.008039758         3908 
 3904000   0.62809352   -9.4430693    446.31251 0.0095268209 0.0080362594         3900 
 3905000   0.63845694   -9.4717019    447.60959 0.0095520613 0.0080327605         3896 
 3906000   0.62117112   -9.4516392    446.44348 0.0095247371  0.008029265         3921 
 3907000   0.62073604   -9.4419912    446.72171 0.0095282337 0.0080257749         3904 
 3908000   0.62422998    -9.454537    447.03136 0.0095323985 0.0080222839         3913 
 3909000   0.63184713   -9.4257877    446.30799 0.0095145389 0.0080187956         3899 
 3910000   0.63939536   -9.4480869    447.10745 0.0095291442 0.0080153122         3913 
 3911000   0.63776749   -9.4344607    446.43642 0.0095124098 0.0080118287         3896 
 3912000   0.62169038    -9.457277    446.68731 0.0095153227 0.0080083489         3905 
 3913000   0.62903291   -9.4564558     446.8028 0.0095153505 0.0080048703         3925 
 3914000   0.61215492   -9.4450618    447.02996 0.0095177559 0.0080013947         3916 
 3915000   0.61160395   -9.4373808    446.71155 0.0095085472 0.0079979185         3907 
 3916000   0.62124559   -9.4512509    446.64654 0.0095047358 0.0079944449         3914 
 3917000    0.6311043   -9.4293269    447.04683 0.0095108252  0.007990974         3920 
 3918000   0.62789284    -9.481226    445.93915 0.0094848382 0.0079875008         3888 
 3919000   0.63505388   -9.4762124     446.1903 0.0094877584   0.00798403         3898 
 3920000   0.63311635   -9.4602254    446.03077 0.0094819466 0.0079805643         3906 
 3921000   0.62207938   -9.4717105    445.95192 0.0094778527 0.0079770957         3909 
 3922000   0.63056315   -9.4706593    446.18286  0.009480343 0.0079736317         3899 
 3923000   0.62681092   -9.4309211    446.09301 0.0094760177 0.0079701695         3873 
 3924000   0.62343485   -9.4455153     446.0377 0.0094724283 0.0079667096         3887 
 3925000   0.62563161   -9.4482877    446.59501 0.0094818473  0.007963248         3906 
 3926000   0.62510531   -9.4429484    446.13328 0.0094696314 0.0079597925         3895 
 3927000   0.62840452   -9.4636606    445.94444 0.0094632127 0.0079563393         3924 
 3928000   0.62128244   -9.4137056    445.95987 0.0094611309 0.0079528853         3903 
 3929000     0.622931   -9.4506491    446.07158 0.0094610922 0.0079494367         3913 
 3930000   0.61755166   -9.4706584    446.22861 0.0094620147  0.007945986         3900 
 3931000    0.6380715   -9.4542853    446.63232 0.0094681658 0.0079425386         3897 
 3932000   0.62565009   -9.4394044    446.33968 0.0094595557  0.007939093         3908 
 3933000   0.62008046   -9.4629841    446.15548 0.0094532477 0.0079356469         3893 
 3934000   0.63032505   -9.4603686     446.0323 0.0094482355 0.0079322064         3895 
 3935000   0.61797586   -9.4532764    445.91155 0.0094432773 0.0079287668         3881 
 3936000   0.61936301   -9.4490651    446.77015 0.0094590563  0.007925328         3902 
 3937000   0.62059147   -9.4473968    446.20956  0.009444788 0.0079218933         3905 
 3938000   0.62921383    -9.452079     446.4929 0.0094483853  0.007918462         3903 
 3939000   0.62723932   -9.4360398    446.86327 0.0094538223 0.0079150356         3913 
 3940000   0.62359468   -9.4545774    445.59675 0.0094246352 0.0079116088         3890 
 3941000   0.61406222   -9.4588138    446.45087 0.0094403043 0.0079081833         3894 
 3942000   0.61987798   -9.4604929    445.55645 0.0094190015 0.0079047572         3899 
 3943000   0.63070741   -9.4695711      445.686 0.0094193507  0.007901337         3901 
 3944000   0.60548102   -9.4444076    446.62542 0.0094368117 0.0078979193         3897 
 3945000   0.61982146   -9.4554525    446.44662 0.0094306427 0.0078945022         3918 
 3946000   0.61629761     -9.44619     446.4724 0.0094287972 0.0078910829         3897 
 3947000   0.61500396   -9.4563371    446.55536 0.0094281597 0.0078876694         3908 
 3948000   0.62568982   -9.4654449    446.11271 0.0094164284 0.0078842588         3899 
 3949000   0.63952703   -9.4418254    447.29763 0.0094390484  0.007880853         3901 
 3950000   0.61549167   -9.4411431    446.29918 0.0094155945 0.0078774474         3903 
 3951000   0.62395556   -9.4575369    446.86037 0.0094250479 0.0078740418         3896 
 3952000   0.60249811   -9.4509705    445.96951  0.009403878 0.0078706355         3891 
 3953000   0.59964773   -9.4404878    446.09904 0.0094042297  0.007867231         3912 
 3954000   0.62336902   -9.4577048    445.92068 0.0093980922 0.0078638326         3902 
 3955000   0.61124081   -9.4447008    445.90949 0.0093954802 0.0078604344         3900 
 3956000   0.60816317   -9.4537033    446.98117 0.0094156802 0.0078570389         3892 
 3957000   0.61167272   -9.4625106     446.3548 0.0094001095 0.0078536475         3933 
 3958000   0.62468381   -9.4532707    445.76637 0.0093853456 0.0078502545         3911 
 3959000   0.61541433   -9.4450583    446.52619 0.0093989684 0.0078468674         3922 
 3960000   0.62852381   -9.4828568    446.56742 0.0093974626 0.0078434793         3933 
 3961000   0.62636101   -9.4508634    446.13101 0.0093859087 0.0078400943         3894 
 3962000   0.60895396   -9.4484438    446.43046 0.0093898381 0.0078367135         3911 
 3963000   0.61978037   -9.4605795    446.26864  0.009384066 0.0078333338         3899 
 3964000   0.61756148   -9.4618476    446.75465 0.0093919157 0.0078299536         3888 
 3965000   0.61776887   -9.4474983    446.60857 0.0093864768 0.0078265746         3899 
 3966000   0.62044012   -9.4590999    446.55412 0.0093829661    0.0078232         3897 
 3967000   0.61259681   -9.4966444    446.56739 0.0093808795 0.0078198248         3906 
 3968000   0.61743641   -9.4609042     446.4377 0.0093757918 0.0078164526         3913 
 3969000   0.61317634   -9.4538442    446.78849 0.0093807948 0.0078130841         3911 
 3970000   0.61065328   -9.4561482    446.75305 0.0093776879 0.0078097142         3897 
 3971000   0.60995981   -9.4526989    447.15036  0.009383664  0.007806347         3887 
 3972000   0.61748975   -9.4624522    446.01146 0.0093574072 0.0078029843         3888 
 3973000   0.60790289   -9.4545501    446.11427 0.0093572083 0.0077996205         3910 
 3974000   0.62765533   -9.4804203    446.43559 0.0093615918  0.007796261         3894 
 3975000   0.61027583   -9.4627257    445.97455 0.0093495713 0.0077928997         3906 
 3976000   0.60487288    -9.458876    446.15145 0.0093509274 0.0077895406         3901 
 3977000   0.62970586    -9.474676    446.05675 0.0093465918 0.0077861887         3908 
 3978000   0.61216826   -9.4716811    445.92866  0.009341559 0.0077828355         3905 
 3979000   0.61297543   -9.4505567    446.17949 0.0093444646 0.0077794841         3902 
 3980000   0.61875727   -9.4633276    446.62405 0.0093514248 0.0077761331         3900 
 3981000   0.60055705   -9.4511638       446.39 0.0093441764 0.0077727871         3927 
 3982000   0.61380724   -9.4524466    446.18753 0.0093375928 0.0077694372         3908 
 3983000   0.60555494    -9.450193     446.3851 0.0093393819 0.0077660942         3900 
 3984000   0.61115171   -9.4577001    446.33983 0.0093360908 0.0077627503         3908 
 3985000   0.60684426   -9.4682137    446.23852 0.0093316295 0.0077594076         3907 
 3986000   0.61229876   -9.4557507     445.8226  0.009320593 0.0077560704         3874 
 3987000   0.62018061   -9.4542904    446.69293 0.0093364461 0.0077527348         3901 
 3988000   0.60828161   -9.4477897    447.01366  0.009340807  0.007749402         3904 
 3989000   0.61876235   -9.4730259    445.70705 0.0093111692 0.0077460724         3875 
 3990000   0.60768796   -9.4785537    445.81521 0.0093110947 0.0077427412         3923 
 3991000   0.62397092   -9.4807763    445.23288 0.0092966024 0.0077394128         3908 
 3992000    0.6201306   -9.4593716    445.53549 0.0093005906 0.0077360854         3935 
 3993000   0.60968571   -9.4636392    445.90308  0.009305933 0.0077327579         3892 
 3994000   0.61301264   -9.4584656    445.91722 0.0093038979 0.0077294366         3899 
 3995000   0.62512281   -9.4502999    446.11794  0.009305756 0.0077261167         3906 
 3996000   0.60605567   -9.4737263    445.27575 0.0092858641 0.0077227998         3902 
 3997000   0.61186677   -9.4414303    445.69512 0.0092922842  0.007719484         3889 
 3998000   0.62087978    -9.447397    446.22899 0.0093010878 0.0077161703         3893 
 3999000    0.6088938   -9.4614409    446.40614 0.0093024536 0.0077128588         3896 
 4000000   0.60811154   -9.4589987    446.54643 0.0093030507 0.0077095477         3940 
 4001000   0.60686915   -9.4751516    445.68219 0.0092827249 0.0077062402         3915 
 4002000   0.60718553   -9.4689092     445.4097 0.0092747314 0.0077029371         3909 
 4003000    0.6036002   -9.4529697    445.94731 0.0092836063 0.0076996348         3911 
 4004000   0.60836378   -9.4649367    445.63244 0.0092747343 0.0076963342         3932 
 4005000   0.61352846   -9.4775133    446.05487 0.0092812082 0.0076930328         3925 
 4006000   0.62604834   -9.4506913    445.67649 0.0092710203 0.0076897343         3897 
 4007000   0.61487386   -9.4496097    446.25036 0.0092806413 0.0076864381         3914 
 4008000    0.6064519   -9.4687917    445.48281 0.0092623672 0.0076831431         3912 
 4009000   0.60292091   -9.4748973    445.79781 0.0092666045  0.007679854         3888 
 4010000   0.60999275   -9.4720352    445.60967 0.0092603838 0.0076765632         3891 
 4011000   0.61951945   -9.4873405    446.76534 0.0092820856 0.0076732754         3921 
 4012000   0.61485935   -9.4649137    446.00993 0.0092640814 0.0076699863         3911 
 4013000   0.61925183   -9.4522319    446.02397 0.0092620644 0.0076667045         3910 
 4014000   0.60056251   -9.4589995    445.88872 0.0092569489 0.0076634256         3897 
 4015000   0.60427185   -9.4707295     446.0274 0.0092575217 0.0076601436         3914 
 4016000   0.60312328   -9.4830147    445.85692 0.0092516791 0.0076568651         3947 
 4017000   0.61516222   -9.4557181    445.47129 0.0092413761 0.0076535859         3917 
 4018000   0.61081709    -9.475702    445.74152 0.0092446807 0.0076503127         3924 
 4019000   0.62064732   -9.4707919    446.01341 0.0092480179 0.0076470402         3907 
 4020000    0.6155988   -9.4662273    446.63166 0.0092585337 0.0076437699         3912 
 4021000   0.60549746   -9.4622875    446.25562 0.0092484379 0.0076404999         3909 
 4022000   0.60125072   -9.4674393    445.58634 0.0092322713 0.0076372325         3904 
 4023000   0.61775256   -9.4658849    445.78958 0.0092341864 0.0076339682         3899 
 4024000   0.61177085   -9.4802319    445.76049 0.0092312891 0.0076307057         3897 
 4025000    0.6024889    -9.474674     446.1123 0.0092362794 0.0076274458         3913 
 4026000   0.61673858    -9.480326    445.57864 0.0092229393  0.007624188         3903 
 4027000   0.61651632   -9.4696715    444.99889 0.0092086518 0.0076209324         3888 
 4028000    0.6125695   -9.4468898    445.92052 0.0092254328 0.0076176773         3907 
 4029000   0.60803053   -9.4714982    445.75955 0.0092198136 0.0076144225         3918 
 4030000   0.59940265   -9.4807832    445.76924 0.0092177263 0.0076111701         3914 
 4031000   0.60566691   -9.4669492     445.4947  0.009209764 0.0076079193         3922 
 4032000   0.59889584   -9.4812851     445.9953 0.0092178262 0.0076046747         3904 
 4033000   0.60164427   -9.4702526     445.8599 0.0092127427  0.007601427         3930 
 4034000   0.60632576   -9.4738449    446.19513 0.0092173842 0.0075981841         3911 
 4035000    0.6059467   -9.4621288    447.02371 0.0092322121  0.007594945         3916 
 4036000   0.59730104   -9.4799688     445.6208  0.009200958 0.0075917055         3920 
 4037000   0.59934867     -9.49076    445.89916 0.0092044249 0.0075884646         3892 
 4038000   0.61409758   -9.4861763    445.39344 0.0091917087 0.0075852253         3893 
 4039000   0.61249135   -9.4640902    446.33199 0.0092087974 0.0075819904         3904 
 4040000   0.60670842    -9.484524    445.75755  0.009194669 0.0075787588         3895 
 4041000   0.60758075   -9.4802087    445.81709 0.0091936213  0.007575528         3896 
 4042000   0.60366944   -9.4727894    445.54771 0.0091857931 0.0075722964         3900 
 4043000   0.59923392   -9.4905118    444.91145 0.0091704066 0.0075690685         3921 
 4044000   0.58977902   -9.4825791    445.95626  0.009189669 0.0075658386         3921 
 4045000   0.61641592   -9.4750078    446.04979  0.009189324 0.0075626151         3900 
 4046000   0.60052568   -9.5040968    445.47632 0.0091752414 0.0075593911         3935 
 4047000   0.60739393   -9.4788875    446.38614 0.0091917088 0.0075561709         3891 
 4048000   0.59597631   -9.4940252    446.30044 0.0091876738 0.0075529528         3904 
 4049000   0.60735638   -9.4709683    446.22967 0.0091839481 0.0075497341         3910 
 4050000   0.60207544    -9.471904    445.27064 0.0091619472 0.0075465175         3908 
 4051000   0.59689356   -9.4903771    445.40356 0.0091624199 0.0075433012         3933 
 4052000    0.6121777   -9.4646583    446.22038 0.0091769575 0.0075400861         3888 
 4053000   0.61347205   -9.4770865    445.39679 0.0091577596 0.0075368773         3918 
 4054000   0.61171639   -9.4830762     444.9663 0.0091466515 0.0075336684         3913 
 4055000   0.60925759   -9.4800396    446.20589 0.0091698702 0.0075304615         3910 
 4056000   0.60297459   -9.4900895    446.05131 0.0091644336 0.0075272556         3909 
 4057000   0.59559735   -9.4903632    445.83318  0.009157694 0.0075240531         3904 
 4058000   0.59483655   -9.4826009    446.43531 0.0091678026 0.0075208529         3914 
 4059000   0.60748063    -9.492343    445.89849 0.0091545227 0.0075176532         3903 
 4060000   0.60113881   -9.4953495    445.07924 0.0091354523 0.0075144555         3907 
 4061000   0.58970298   -9.4857539    446.00781 0.0091522575 0.0075112616         3897 
 4062000   0.60956655   -9.4721018     445.8607 0.0091469863 0.0075080706         3903 
 4063000   0.60113147   -9.4673569     445.7507 0.0091424788 0.0075048797         3925 
 4064000   0.60333184   -9.5015083    445.39821 0.0091330013 0.0075016898         3904 
 4065000   0.60773754    -9.470667    445.57252 0.0091343281 0.0074985022         3899 
 4066000   0.59966985   -9.5012721    446.94772 0.0091602664  0.007495315         3898 
 4067000   0.60303748   -9.4872361    445.40817 0.0091264684 0.0074921317         3890 
 4068000   0.60842179    -9.478257    445.16784 0.0091193019   0.00748895         3924 
 4069000   0.59867394   -9.4722387    445.21331 0.0091179919  0.007485772         3887 
 4070000   0.60695694   -9.4816451     445.6026 0.0091237223  0.007482593         3923 
 4071000   0.60522754   -9.4841892    445.71092 0.0091236986 0.0074794163         3912 
 4072000   0.61187947   -9.4792628    445.65305 0.0091202736 0.0074762406         3900 
 4073000   0.59808032   -9.4863191    445.11858 0.0091070992 0.0074730693         3897 
 4074000   0.60606004   -9.4853288    445.64415 0.0091156143 0.0074698966         3927 
 4075000   0.60868392   -9.4664822    445.87713 0.0091181416 0.0074667269         3920 
 4076000   0.58692183   -9.4817299    446.30992 0.0091247531 0.0074635613         3923 
 4077000   0.60952345   -9.4825693     445.7642 0.0091113604 0.0074603952         3903 
 4078000   0.61546252   -9.4857241    445.52582 0.0091042549 0.0074572297         3927 
 4079000     0.606441   -9.4960865    446.17679 0.0091153222 0.0074540672         3911 
 4080000   0.59279987   -9.4891241     446.7012 0.0091237989 0.0074509089         3913 
 4081000   0.58961904   -9.4800946    445.61235 0.0090993293 0.0074477467         3904 
 4082000   0.60517677   -9.4953996    445.13854 0.0090874272 0.0074445899         3910 
 4083000   0.60763374   -9.4849539    445.68091 0.0090962713 0.0074414364         3921 
 4084000   0.59768197   -9.4937212    446.22086 0.0091050617 0.0074382843         3900 
 4085000   0.59576575   -9.4798962    445.33884 0.0090848396 0.0074351312         3906 
 4086000    0.6055728   -9.4752748     445.6957 0.0090898944 0.0074319828         3903 
 4087000   0.58917149   -9.4854116    445.28814 0.0090793602 0.0074288359         3918 
 4088000   0.60056638   -9.4915737    445.51482 0.0090817599 0.0074256899         3919 
 4089000   0.59879134   -9.4734366    445.39684 0.0090771345 0.0074225442         3936 
 4090000   0.59659067   -9.4833822    446.27312 0.0090927693 0.0074193997         3893 
 4091000   0.59188317   -9.4817049    445.57072 0.0090762388 0.0074162572         3917 
 4092000   0.59964039   -9.4883738    445.77256 0.0090781314 0.0074131199         3907 
 4093000   0.60552402   -9.4980402    445.88354  0.009078173 0.0074099849         3912 
 4094000   0.60724135   -9.4967035    445.56512 0.0090694739 0.0074068513         3922 
 4095000   0.60304422   -9.4895502    445.70828 0.0090701727 0.0074037193         3914 
 4096000   0.60151914   -9.4814542    445.89459 0.0090717486 0.0074005863         3912 
 4097000   0.59735601   -9.5113292    445.00637 0.0090514679  0.007397457         3896 
 4098000   0.60445916    -9.482314    445.66297 0.0090626113 0.0073943307         3912 
 4099000   0.58716936   -9.5008814    445.45975 0.0090562688  0.007391203         3913 
 4100000   0.59195248   -9.5037586    445.78647 0.0090607006 0.0073880794         3901 
 4101000   0.59079258   -9.4790266    445.68752 0.0090564805 0.0073849601         3909 
 4102000   0.60178051   -9.4880567    445.61241 0.0090527469 0.0073818403         3904 
 4103000   0.58939296   -9.4963974     445.5085 0.0090484301 0.0073787192         3921 
 4104000   0.59400859   -9.4756533    445.87882 0.0090537446 0.0073756022         3880 
 4105000     0.593862   -9.4894733    445.26394 0.0090390568 0.0073724845         3926 
 4106000   0.59105754     -9.51496    445.30447 0.0090376779 0.0073693736         3918 
 4107000   0.58350512   -9.4911815    445.88446 0.0090472457 0.0073662623         3927 
 4108000   0.59310739   -9.4687918    446.39974 0.0090554962 0.0073631563         3918 
 4109000   0.59427383    -9.497893    445.70008 0.0090391027 0.0073600504         3923 
 4110000    0.5930634   -9.5114138    445.80258 0.0090389817 0.0073569431         3908 
 4111000   0.60122793   -9.4911587    444.81545  0.009016773 0.0073538368         3927 
 4112000   0.58313449   -9.4879663    445.13207 0.0090209968 0.0073507321         3918 
 4113000   0.59087023   -9.5046077    445.15069 0.0090191809 0.0073476297         3919 
 4114000   0.58732868   -9.5102451     446.3909 0.0090421102 0.0073445284         3924 
 4115000   0.58709288   -9.5008946    446.11405 0.0090343065 0.0073414309         3925 
 4116000   0.59839928   -9.4859358     445.5761 0.0090212199 0.0073383324         3913 
 4117000   0.59948655   -9.4963161     445.6479 0.0090204822 0.0073352386         3898 
 4118000   0.61227744   -9.4862722    445.73272 0.0090200081 0.0073321479         3926 
 4119000   0.59096777   -9.4757769    445.43886 0.0090118731 0.0073290588         3919 
 4120000     0.594807   -9.5177557    445.12755 0.0090033889 0.0073259704         3906 
 4121000   0.58749104   -9.4884368    446.00999 0.0090190485 0.0073228848         3907 
 4122000   0.58886189   -9.4686814    445.66993 0.0090099857 0.0073198013         3917 
 4123000   0.59343088   -9.4885449    445.09107 0.0089961005 0.0073167167         3914 
 4124000   0.59389241   -9.5007569    445.52905 0.0090027694 0.0073136352         3949 
 4125000   0.59461371   -9.4870399    445.04527 0.0089908135 0.0073105557         3895 
 4126000   0.59871682   -9.4927693    446.01474 0.0090082149 0.0073074756         3916 
 4127000    0.5965805   -9.4978946    444.71919 0.0089798723 0.0073043978         3916 
 4128000   0.59557228   -9.5047449     445.6461 0.0089964086 0.0073013206         3930 
 4129000   0.58453979   -9.4871322    445.08465 0.0089828983  0.007298247         3934 
 4130000   0.59136719   -9.5043703    445.40189 0.0089871245 0.0072951748         3938 
 4131000   0.59264051   -9.5081901     445.3432  0.008983765 0.0072921008         3920 
 4132000   0.58432557   -9.4962366     444.8576 0.0089717973 0.0072890306         3930 
 4133000   0.59139179   -9.5024405    445.38604 0.0089802815  0.007285963         3916 
 4134000   0.59307966   -9.4933191    446.07795 0.0089920567 0.0072828954         3912 
 4135000    0.5885242   -9.5154037    444.68842 0.0089618786 0.0072798318         3896 
 4136000   0.60390444    -9.495248    444.83841 0.0089627338 0.0072767709         3906 
 4137000   0.58646902   -9.4851583    445.25079 0.0089688741   0.00727371         3903 
 4138000   0.58983792    -9.517014    445.30715 0.0089678418 0.0072706516         3911 
 4139000   0.58560985   -9.5149528    445.62887 0.0089721524 0.0072675948         3910 
 4140000   0.57900199   -9.5016602    445.45881 0.0089665621 0.0072645409         3915 
 4141000   0.59300441   -9.5177738    445.63399 0.0089679222 0.0072614881         3924 
 4142000    0.5787234    -9.515886    445.27034 0.0089584408 0.0072584362         3906 
 4143000   0.59288258    -9.504434    445.41849 0.0089592584 0.0072553858         3930 
 4144000   0.57011989   -9.4898389    444.94253 0.0089475252 0.0072523358         3903 
 4145000   0.58067661   -9.5167146    445.39954 0.0089545544 0.0072492884         3905 
 4146000    0.5892569   -9.5002821    445.32774 0.0089509515 0.0072462434         3915 
 4147000   0.58704268   -9.4946165    445.39536 0.0089501519 0.0072431989         3891 
 4148000   0.58192577   -9.4899414    444.78094 0.0089356505 0.0072401572         3908 
 4149000   0.59503593   -9.5092286    445.60913 0.0089501312 0.0072371157         3912 
 4150000   0.57450802   -9.4824565    445.71947 0.0089501902 0.0072340759         3924 
 4151000   0.58317781   -9.4957321    445.16125 0.0089368274 0.0072310375         3912 
 4152000   0.58843755   -9.4697847    445.70487 0.0089455858 0.0072280072         3932 
 4153000   0.58257355     -9.51602    446.01474 0.0089496497  0.007224976         3909 
 4154000   0.59509968   -9.4879187    444.86626 0.0089244556 0.0072219461         3921 
 4155000   0.59067798   -9.5019729    445.49509 0.0089349195 0.0072189176         3918 
 4156000   0.60344538   -9.4974808    444.99015  0.008922645 0.0072158877         3923 
 4157000   0.58189309   -9.4985302    444.64384 0.0089135563 0.0072128612         3918 
 4158000   0.57908577   -9.5076468    445.54804 0.0089295341 0.0072098386         3915 
 4159000   0.57533778   -9.4994319    444.94682 0.0089153406 0.0072068189         3915 
 4160000     0.597436   -9.5161084    444.68475 0.0089079477 0.0072037983         3906 
 4161000   0.59590465   -9.5066034    445.06771 0.0089134765 0.0072007819         3920 
 4162000   0.58069024   -9.5179372    445.07271 0.0089114351 0.0071977627         3918 
 4163000   0.58690332   -9.5016649    445.41375 0.0089161211 0.0071947461         3916 
 4164000   0.58576935   -9.5079947    444.77688 0.0089012344 0.0071917342         3912 
 4165000   0.58975929   -9.5057615     444.6099 0.0088957562 0.0071887231         3924 
 4166000   0.58763576   -9.5020903     445.2186 0.0089057969 0.0071857133         3918 
 4167000   0.59737972   -9.5250061    444.81249 0.0088955382 0.0071827029         3948 
 4168000   0.58166697    -9.500758    445.49735 0.0089070967 0.0071796959         3935 
 4169000   0.60229613   -9.5166536    445.44469 0.0089039076 0.0071766907         3902 
 4170000   0.58172194   -9.5180498     444.8324 0.0088895363 0.0071736858         3915 
 4171000   0.59107067   -9.5198737    444.93245 0.0088894039 0.0071706822         3907 
 4172000   0.59336407   -9.5286479      444.644 0.0088815116 0.0071676804         3941 
 4173000   0.58857137   -9.5023649    444.55604 0.0088776267 0.0071646779         3921 
 4174000   0.57776164   -9.5123746    445.48968 0.0088941399  0.007161681         3910 
 4175000   0.57952972   -9.4902631    445.43402 0.0088908985  0.007158684         3945 
 4176000    0.5856815   -9.5068968     444.9212 0.0088785361 0.0071556883         3915 
 4177000   0.58568459   -9.4948574    445.20647 0.0088821019 0.0071526939         3909 
 4178000   0.59069153   -9.5092103    444.78304 0.0088715303 0.0071497067         3944 
 4179000   0.58205183    -9.504052    444.87145 0.0088711704  0.007146719         3925 
 4180000   0.58655116   -9.5316767    445.36127 0.0088788131 0.0071437338         3916 
 4181000   0.57099655   -9.5065777    445.31087  0.008875685   0.00714075         3924 
 4182000   0.59412767   -9.5266965    444.64056 0.0088602057 0.0071377665         3907 
 4183000   0.58235855   -9.5002987    444.44232 0.0088541381 0.0071347855         3919 
 4184000   0.57483146   -9.5166531    444.96991 0.0088625301 0.0071318053         3937 
 4185000   0.57785087    -9.501579    445.21867 0.0088653658 0.0071288263         3900 
 4186000   0.58826829   -9.5079327     445.5952 0.0088707438 0.0071258484         3925 
 4187000   0.58824165   -9.5101723    445.92175 0.0088751244 0.0071228731         3897 
 4188000   0.57504844   -9.5231303    445.07946 0.0088562452  0.007119899         3909 
 4189000   0.57456908   -9.5283284    444.45814 0.0088417708  0.007116925         3919 
 4190000   0.58086049   -9.5045677    445.19297 0.0088542754 0.0071139541         3932 
 4191000   0.58010425   -9.5020642    445.30721 0.0088544343 0.0071109843         3919 
 4192000      0.57452   -9.4996081    445.33662 0.0088529066 0.0071080149         3919 
 4193000   0.57672227   -9.5323191    445.31226 0.0088503112  0.007105049         3927 
 4194000   0.57763066   -9.5084723    445.63555 0.0088546246 0.0071020842         3923 
 4195000   0.58847163    -9.520454    445.09973 0.0088418698 0.0070991233         3921 
 4196000   0.58518001   -9.4962035    444.99103 0.0088376039 0.0070961631         3905 
 4197000   0.59232151   -9.5213196    445.38779  0.008843376 0.0070932082         3914 
 4198000    0.5786542   -9.5240267    443.96834 0.0088130924 0.0070902486         3899 
 4199000    0.5773813   -9.5198869    445.12674 0.0088339831 0.0070872954         3927 
 4200000   0.58373644   -9.5354451    444.29413 0.0088153598  0.007084343         3938 
 4201000   0.57765694   -9.5080156    445.46711 0.0088365291  0.007081394         3918 
 4202000   0.56813401   -9.5283527    444.86891 0.0088225629 0.0070784444         3917 
 4203000   0.58454744   -9.5195431    444.62473 0.0088156224 0.0070754927         3893 
 4204000   0.57871778    -9.519314    444.83287 0.0088176511 0.0070725443         3911 
 4205000    0.5792008   -9.5021469    445.86469 0.0088360025 0.0070695975         3917 
 4206000   0.57298851   -9.5105817    444.78108 0.0088124323 0.0070666511         3920 
 4207000   0.56963441   -9.5166187    444.89266 0.0088125478 0.0070637066         3911 
 4208000   0.57617077   -9.5136855    444.81639  0.008808943 0.0070607656         3906 
 4209000   0.58080084   -9.5168937    445.02497 0.0088109799 0.0070578245         3897 
 4210000   0.57435587   -9.5148504    444.62824  0.008801034 0.0070548849         3895 
 4211000    0.5821543   -9.4954601    444.64493 0.0087992743 0.0070519492         3927 
 4212000   0.56379738   -9.5219695    444.96531 0.0088035238 0.0070490147         3924 
 4213000   0.56969696   -9.5294835    443.60437 0.0087745149 0.0070460802         3921 
 4214000   0.58005494   -9.5308669    445.33052 0.0088065679 0.0070431518         3921 
 4215000   0.57842407   -9.5349048     444.8765 0.0087955022 0.0070402243         3915 
 4216000   0.58880256   -9.5248133    444.74099 0.0087907375 0.0070372954         3921 
 4217000   0.58795583   -9.5272791    444.41846 0.0087822792 0.0070343685         3908 
 4218000   0.56923606   -9.5075788     445.2228 0.0087960881 0.0070314455         3905 
 4219000   0.57267547   -9.5173232    444.89779 0.0087875837 0.0070285222         3937 
 4220000   0.58693073   -9.5055742    443.94649 0.0087667158 0.0070256001         3916 
 4221000   0.58430406   -9.5157648    444.51778 0.0087759177 0.0070226815         3911 
 4222000   0.57368533   -9.5167299    445.13354 0.0087859929 0.0070197638         3904 
 4223000   0.58612884   -9.5236323    444.81564 0.0087776391 0.0070168468         3930 
 4224000   0.58940059   -9.5248644    444.61799 0.0087716618 0.0070139302         3950 
 4225000   0.57821772   -9.5035393    445.45623 0.0087861189 0.0070110169         3907 
 4226000   0.56404489   -9.5197354    444.99077 0.0087748613 0.0070081056         3912 
 4227000   0.57683058   -9.5364598    443.46383 0.0087426825 0.0070051963         3931 
 4228000   0.57577044   -9.5158592    444.67302 0.0087644478 0.0070022879         3924 
 4229000   0.57074542   -9.5030927    445.34108 0.0087755396 0.0069993818         3936 
 4230000   0.56394893   -9.5308467    445.12153 0.0087691396 0.0069964779         3917 
 4231000   0.58853792   -9.5249128    444.02024 0.0087453763 0.0069935737         3910 
 4232000   0.59048086   -9.5354978    444.62907 0.0087552984 0.0069906737         3900 
 4233000   0.57896301   -9.5293455    444.93134 0.0087591807  0.006987773         3925 
 4234000   0.56932566   -9.5171688    444.66667 0.0087519026 0.0069848739         3928 
 4235000   0.56411337    -9.530329    445.06827 0.0087577385 0.0069819788         3925 
 4236000   0.57681438   -9.5442144    444.03713 0.0087353857 0.0069790853         3905 
 4237000   0.57658514   -9.5324837    444.63392 0.0087450618 0.0069761923         3935 
 4238000   0.56112481   -9.5166797    444.47925 0.0087399569 0.0069733032         3914 
 4239000   0.58047205   -9.5378724    444.04947 0.0087294461 0.0069704143         3930 
 4240000   0.57743951   -9.5188029    445.43519 0.0087546224 0.0069675255         3926 
 4241000   0.56419864   -9.5189212     444.6833 0.0087377839 0.0069646391         3921 
 4242000   0.56752171   -9.5234284    444.99001 0.0087417495 0.0069617529         3917 
 4243000   0.56535916      -9.5286    444.91094 0.0087381361 0.0069588687         3920 
 4244000   0.56906751   -9.5035564    445.45474  0.008746755 0.0069559873         3929 
 4245000   0.57948263   -9.5321349    444.93511 0.0087344937 0.0069531057         3911 
 4246000   0.55732052   -9.5300431    444.31879 0.0087203404 0.0069502268         3938 
 4247000    0.5753868   -9.5201895    444.32053 0.0087183214 0.0069473508         3920 
 4248000    0.5621685   -9.5332837    444.47223 0.0087192449 0.0069444743         3927 
 4249000   0.58030314   -9.5241656    444.92143 0.0087260029  0.006941601         3895 
 4250000   0.56282639   -9.5209908    444.76554 0.0087208928 0.0069387274         3932 
 4251000   0.56581836   -9.5325833    445.05917 0.0087245975 0.0069358561         3902 
 4252000   0.57075343   -9.5282999    445.08449 0.0087230419  0.006932986         3909 
 4253000   0.57678033   -9.5295766    444.43355 0.0087082362 0.0069301174         3907 
 4254000   0.57716274   -9.5335365    444.75431 0.0087124727   0.00692725         3918 
 4255000   0.55921073   -9.5222132    444.64063 0.0087081988 0.0069243852         3906 
 4256000   0.57717391   -9.5449345    443.80898 0.0086898688 0.0069215218         3918 
 4257000   0.56805485   -9.5275589    445.62541 0.0087233853 0.0069186599         3910 
 4258000   0.56256405   -9.5286323    444.42224 0.0086977893 0.0069158009         3918 
 4259000    0.5565623   -9.5332401    444.34723 0.0086942793 0.0069129382         3931 
 4260000   0.57027331    -9.521448    444.17354 0.0086888409 0.0069100801         3901 
 4261000   0.56711423   -9.5297935    444.36923 0.0086906287 0.0069072238         3913 
 4262000   0.56777767   -9.5316454    444.39299 0.0086890542 0.0069043699         3924 
 4263000   0.57214906   -9.5342522    444.62122 0.0086914775 0.0069015195         3901 
 4264000   0.57359873   -9.5492607    445.19908 0.0087007324 0.0068986679         3928 
 4265000   0.56347279   -9.5247708    444.03624 0.0086759718 0.0068958186         3927 
 4266000   0.56359882   -9.5433295    444.19794 0.0086770968 0.0068929712         3928 
 4267000   0.56754698   -9.5251644    445.02725 0.0086912594 0.0068901257         3935 
 4268000   0.55604654   -9.5257206    444.27491 0.0086745335 0.0068872836         3915 
 4269000   0.57987615   -9.5457326     444.8457 0.0086836437 0.0068844427         3906 
 4270000   0.56806892   -9.5304177    443.82578 0.0086617054 0.0068816045         3910 
 4271000   0.56471429   -9.5261637    444.17436 0.0086664785 0.0068787655         3935 
 4272000    0.5642108   -9.5461752    444.49893 0.0086707812 0.0068759297         3929 
 4273000   0.56303451   -9.5356537    444.08587 0.0086606964 0.0068730929         3908 
 4274000   0.58257958   -9.5450872    444.85639 0.0086736935 0.0068702579         3912 
 4275000   0.58994575   -9.5481874     445.2857 0.0086800331 0.0068674278         3916 
 4276000    0.5675572   -9.5375885    445.27895 0.0086778716 0.0068645981         3912 
 4277000   0.55792685    -9.540407    444.36019 0.0086579415 0.0068617701         3894 
 4278000   0.55468471   -9.5586451    445.01259 0.0086686261 0.0068589427         3897 
 4279000   0.57298745   -9.5395983    444.25982   0.00865194 0.0068561163         3920 
 4280000   0.57709186   -9.5531938    444.34241 0.0086515266 0.0068532935         3934 
 4281000   0.57253308   -9.5214626    444.48482  0.008652278 0.0068504689         3907 
 4282000   0.56535266   -9.5330269    444.27644 0.0086462019 0.0068476468         3926 
 4283000   0.55759057   -9.5487352    444.93137  0.008656926 0.0068448284         3932 
 4284000   0.56284681   -9.5390538    444.78093 0.0086519789  0.006842008         3919 
 4285000   0.56724755   -9.5439981     444.4899 0.0086442999 0.0068391912         3893 
 4286000   0.56777601   -9.5502665    444.23259 0.0086372801 0.0068363764         3920 
 4287000   0.55887668   -9.5446022    444.40634 0.0086386428 0.0068335634         3912 
 4288000   0.57414309   -9.5319488    444.70379 0.0086424089 0.0068307525         3921 
 4289000   0.55806334   -9.5379307    444.69777 0.0086402769 0.0068279433         3922 
 4290000   0.56208072   -9.5258495    444.52714 0.0086349484 0.0068251349         3914 
 4291000   0.56109838   -9.5482921    444.85672 0.0086393366  0.006822328         3913 
 4292000   0.56243324   -9.5430169    444.15828 0.0086237628 0.0068195219         3931 
 4293000   0.56820877   -9.5497936    445.00879 0.0086382637 0.0068167172         3941 
 4294000   0.57975219   -9.5298847    444.62019 0.0086287105 0.0068139156         3910 
 4295000   0.56702377   -9.5220507    444.39261 0.0086222859 0.0068111145         3929 
 4296000   0.56731473   -9.5311645    444.90403 0.0086301993 0.0068083148         3915 
 4297000   0.56236672    -9.551482    444.67716  0.008623791 0.0068055172         3913 
 4298000   0.54284452   -9.5260209    444.79311 0.0086240327 0.0068027216         3916 
 4299000   0.55943266   -9.5469961    443.96986 0.0086060684 0.0067999269         3908 
 4300000   0.57256059    -9.561502    443.86483 0.0086020316  0.006797134         3945 
 4301000   0.55690104   -9.5383737    443.40939 0.0085912073 0.0067943421         3926 
 4302000    0.5682699   -9.5402027    443.90749 0.0085988589  0.006791549         3911 
 4303000   0.56906148   -9.5414731    444.30673 0.0086045924 0.0067887598         3914 
 4304000    0.5497054   -9.5249005    444.41607 0.0086047102 0.0067859736         3914 
 4305000   0.56047236   -9.5531334    444.37242 0.0086018664 0.0067831891         3927 
 4306000   0.55890525   -9.5381207    444.70216 0.0086062502 0.0067804047         3934 
 4307000   0.56084447   -9.5529979    443.82037 0.0085871908 0.0067776216         3924 
 4308000   0.55931325   -9.5680332    444.17411 0.0085920402 0.0067748395         3921 
 4309000   0.56619435   -9.5552456    444.09441 0.0085885049 0.0067720592         3929 
 4310000   0.56538816   -9.5337463     444.5209 0.0085947584 0.0067692848         3917 
 4311000   0.56009829   -9.5414793    444.58448 0.0085939936 0.0067665072         3924 
 4312000   0.56815192    -9.540018    443.51349 0.0085713027 0.0067637322         3922 
 4313000   0.56671511   -9.5272622    444.48075 0.0085880043 0.0067609592         3930 
 4314000   0.55806301   -9.5449879     444.5337 0.0085870363 0.0067581865         3920 
 4315000   0.55697565   -9.5658602    443.68461 0.0085686483 0.0067554152         3936 
 4316000   0.56459247   -9.5361495    444.34364 0.0085793875 0.0067526484         3938 
 4317000    0.5645426   -9.5453162    444.48521  0.008580133 0.0067498804         3914 
 4318000   0.56963999   -9.5444451    444.70318 0.0085823526 0.0067471144         3914 
 4319000   0.56961768   -9.5321679    444.37689 0.0085740698 0.0067443512         3913 
 4320000   0.55731798   -9.5318858    444.10242 0.0085667905 0.0067415904         3944 
 4321000   0.56240333   -9.5447727    444.64548 0.0085752812 0.0067388271         3926 
 4322000   0.56469407   -9.5478836    444.01678 0.0085611749 0.0067360664         3926 
 4323000   0.55387651   -9.5444875    444.36439 0.0085658954 0.0067333085         3931 
 4324000   0.57213728   -9.5373912    444.66313 0.0085696718 0.0067305495         3918 
 4325000   0.55131218   -9.5559155    444.07394 0.0085563379 0.0067277935         3928 
 4326000   0.57207372   -9.5442146    444.52044 0.0085629611 0.0067250373         3935 
 4327000   0.56433667   -9.5413164    443.56521 0.0085425854 0.0067222842         3936 
 4328000   0.55619247   -9.5548397    443.87727 0.0085466202 0.0067195312         3934 
 4329000   0.56423178   -9.5388915    444.27512 0.0085523046 0.0067167799         3930 
 4330000   0.55602336   -9.5586552    444.23632 0.0085495827 0.0067140275         3917 
 4331000   0.55914712   -9.5567066    444.21859 0.0085472675 0.0067112801         3920 
 4332000   0.55581652   -9.5641832    444.24576 0.0085458171 0.0067085348         3924 
 4333000   0.55848898   -9.5540527    444.41918 0.0085471801  0.006705791         3922 
 4334000   0.56376497   -9.5681118    443.88487 0.0085349345 0.0067030468         3908 
 4335000    0.5637378   -9.5677433    443.62016 0.0085278771 0.0067003042         3911 
 4336000   0.55853137   -9.5543578    443.48943 0.0085233978 0.0066975649         3935 
 4337000   0.57128702   -9.5561591    445.09909 0.0085523612 0.0066948277         3942 
 4338000   0.55982161   -9.5500789     443.8945 0.0085272495 0.0066920899         3929 
 4339000   0.55306327   -9.5538138    444.74887  0.008541693 0.0066893565         3907 
 4340000   0.55138656   -9.5316097    444.04248 0.0085261613  0.006686623         3914 
 4341000   0.54750919    -9.541222    443.73961 0.0085183831 0.0066838893         3912 
 4342000   0.55400282   -9.5409771    444.10644 0.0085234616 0.0066811587         3920 
 4343000   0.54876456   -9.5434418    444.39774 0.0085270885 0.0066784292         3945 
 4344000   0.55000683   -9.5507045    443.98559 0.0085172189 0.0066757029         3932 
 4345000   0.54971573   -9.5609806    444.03875 0.0085162782 0.0066729757         3912 
 4346000   0.55185956   -9.5289718    443.76936 0.0085091532 0.0066702514         3923 
 4347000   0.55647797   -9.5457739    444.84098 0.0085277391 0.0066675289         3932 
 4348000   0.56723414    -9.556897    444.21681  0.008513815 0.0066648082         3913 
 4349000   0.55614169   -9.5545694    443.95772 0.0085068928 0.0066620871         3898 
 4350000   0.56163807   -9.5726343    443.56905 0.0084974914  0.006659367         3894 
 4351000   0.55029402   -9.5528948    444.26008 0.0085087734 0.0066566479         3928 
 4352000   0.54392891   -9.5354177    443.58745 0.0084939386 0.0066539315         3934 
 4353000   0.55731779   -9.5615072    444.02737 0.0085004091 0.0066512167         3939 
 4354000   0.55905412   -9.5516921    443.84036 0.0084948774 0.0066485068         3936 
 4355000   0.55685781   -9.5449102    444.02147 0.0084963925 0.0066457958         3918 
 4356000   0.55959652   -9.5633212    444.03158 0.0084946353 0.0066430848         3918 
 4357000    0.5527116   -9.5536324    444.08463 0.0084937003 0.0066403781         3918 
 4358000   0.55915456   -9.5296828    444.35772 0.0084969733 0.0066376703         3926 
 4359000    0.5620815   -9.5768876    445.17238 0.0085105984 0.0066349663         3941 
 4360000   0.56286173   -9.5478393    444.12285 0.0084885865 0.0066322618         3939 
 4361000   0.56139654   -9.5527961    444.48545 0.0084935689 0.0066295595         3907 
 4362000   0.55802959   -9.5592287    444.24482 0.0084870248 0.0066268587         3939 
 4363000   0.55633111   -9.5593519    444.81423 0.0084959551   0.00662416         3916 
 4364000   0.55277115   -9.5378673     443.9573 0.0084776447  0.006621462         3916 
 4365000   0.55722476   -9.5581898    444.24057 0.0084811105  0.006618765         3897 
 4366000   0.55479772   -9.5526069    443.99071 0.0084743989 0.0066160701         3920 
 4367000   0.55878655   -9.5449699    444.30952 0.0084785421 0.0066133762         3904 
 4368000   0.55015935   -9.5684462    443.75428  0.008466008 0.0066106856         3919 
 4369000   0.54549493   -9.5587114    443.92724 0.0084673694 0.0066079944         3920 
 4370000   0.54476036   -9.5455238    443.38163 0.0084550274 0.0066053042         3936 
 4371000   0.55981216   -9.5657642    444.30545 0.0084707057 0.0066026187         3933 
 4372000    0.5447095   -9.5630142    443.95813  0.008462148 0.0065999309         3922 
 4373000   0.54591361   -9.5551849    444.28191 0.0084663829  0.006597247         3923 
 4374000   0.53793678   -9.5618738    443.43005 0.0084482177 0.0065945624         3916 
 4375000   0.56393769   -9.5562061    444.50292 0.0084667224 0.0065918796         3924 
 4376000   0.54280972   -9.5621371    444.10157 0.0084571445 0.0065891992         3904 
 4377000   0.56041608   -9.5569027    444.32705 0.0084595051 0.0065865207         3930 
 4378000   0.55984174   -9.5691837    443.63788 0.0084444548 0.0065838448         3933 
 4379000   0.54357344   -9.5705563    443.51018 0.0084400962 0.0065811684         3919 
 4380000   0.55207761   -9.5721758    444.05735 0.0084485797 0.0065784948         3928 
 4381000   0.53948373    -9.570809    443.58447 0.0084376564 0.0065758207         3942 
 4382000   0.55770249   -9.5748677    444.38986  0.008451047 0.0065731486         3913 
 4383000   0.54560655    -9.550433    443.83683 0.0084386042  0.006570478         3940 
 4384000   0.53104599   -9.5635812    444.07149 0.0084411398 0.0065678064         3919 
 4385000   0.54226868   -9.5489935    443.77153 0.0084335145 0.0065651387         3922 
 4386000   0.54782111    -9.557647    444.76293 0.0084504281 0.0065624735         3939 
 4387000   0.54535706    -9.562905    443.65802 0.0084275134 0.0065598085         3921 
 4388000   0.54676292   -9.5680414    443.73424 0.0084270405 0.0065571468         3909 
 4389000   0.54620414   -9.5645145    443.77709 0.0084259339 0.0065544856         3922 
 4390000   0.55487119   -9.5456411     445.2314  0.008451621 0.0065518277         3925 
 4391000   0.55774856   -9.5530339    443.66749 0.0084200161 0.0065491691         3913 
 4392000    0.5526137   -9.5464605    444.05253 0.0084254047 0.0065465117         3924 
 4393000   0.54596862   -9.5624427    443.75298 0.0084178045 0.0065438566         3925 
 4394000   0.54759902    -9.559781    443.65764 0.0084140806 0.0065412033         3917 
 4395000   0.54157749   -9.5691137    443.57013 0.0084105069 0.0065385522         3939 
 4396000   0.55936508   -9.5750501    443.42366  0.008405817 0.0065358995         3913 
 4397000   0.54628079   -9.5453429    444.30473 0.0084206036 0.0065332485         3920 
 4398000   0.54338697   -9.5451177    444.41302 0.0084207409 0.0065306002         3919 
 4399000   0.54845513   -9.5470243    443.71384 0.0084055816 0.0065279535         3917 
 4400000    0.5444343   -9.5709097    443.93902 0.0084079359   0.00652531         3913 
 4401000   0.54432875   -9.5550377    443.46707 0.0083970891 0.0065226663         3933 
 4402000   0.56034621   -9.5584285    443.44468 0.0083947577 0.0065200235         3903 
 4403000    0.5540748   -9.5375321    444.08121 0.0084048983 0.0065173831         3936 
 4404000   0.54970095   -9.5665917    444.11188 0.0084035703 0.0065147448         3926 
 4405000   0.54164979   -9.5656794    444.34562 0.0084060843 0.0065121068         3919 
 4406000   0.54413332   -9.5695028    443.97552 0.0083971766  0.006509472         3939 
 4407000   0.53918704   -9.5726645    443.65444 0.0083891997 0.0065068375         3942 
 4408000    0.5522932   -9.5733455    444.23894 0.0083983466 0.0065042028         3924 
 4409000   0.55221787    -9.541331    444.53286 0.0084019971 0.0065015717         3906 
 4410000   0.56258623   -9.5686662    444.03974 0.0083907736 0.0064989408         3919 
 4411000   0.55385465   -9.5629998    443.64218 0.0083813606 0.0064963128         3922 
 4412000   0.54152982   -9.5656891    444.13224 0.0083887171 0.0064936838         3918 
 4413000    0.5500624    -9.574214    444.05257 0.0083853117 0.0064910561         3936 
 4414000   0.53789633   -9.5771481    443.32996 0.0083697696 0.0064884276         3927 
 4415000    0.5450898   -9.5681477    443.71084  0.008375063 0.0064858034         3922 
 4416000   0.54995323   -9.5783865    443.80434 0.0083749308 0.0064831825         3925 
 4417000   0.54933418   -9.5881731    443.38032  0.008365035 0.0064805615         3945 
 4418000   0.53092069   -9.5579577    443.71262 0.0083694095 0.0064779405         3914 
 4419000   0.54096455   -9.5590705    443.64143 0.0083661732  0.006475323         3934 
 4420000   0.55066358   -9.5562793     443.8918 0.0083690008 0.0064727079         3928 
 4421000   0.54303881   -9.5747502    444.37106 0.0083761416 0.0064700935         3918 
 4422000    0.5519854   -9.5815723    443.50202 0.0083578702 0.0064674811         3924 
 4423000   0.55299246   -9.5804132    443.36053 0.0083533147 0.0064648694         3932 
 4424000   0.54629641   -9.5532671    443.76567  0.008359058 0.0064622595         3931 
 4425000   0.54308462   -9.5886968    443.91876  0.008360052 0.0064596521         3948 
 4426000   0.55910907   -9.5736488    444.01855  0.008360042 0.0064570466         3923 
 4427000   0.55031699   -9.5508197    444.13379 0.0083603229 0.0064544412         3938 
 4428000   0.55325483   -9.5784349    443.81769 0.0083524858 0.0064518359         3921 
 4429000   0.55262529   -9.5600983    442.98518 0.0083349361 0.0064492317         3944 
 4430000    0.5328056   -9.5691043    443.90604  0.008350377 0.0064466292         3931 
 4431000   0.53977894   -9.5702265    443.90103 0.0083483982 0.0064440301         3939 
 4432000   0.53891678   -9.5912699    444.08137 0.0083499054 0.0064414312         3936 
 4433000   0.53546066   -9.5714729    443.94165 0.0083453954 0.0064388337         3932 
 4434000   0.54412002   -9.5647106    443.99013 0.0083444244 0.0064362381         3934 
 4435000   0.54302852   -9.5502477    444.20996 0.0083466735 0.0064336442         3931 
 4436000   0.54065939   -9.5797423    443.94115  0.008339742 0.0064310522         3927 
 4437000    0.5437856   -9.5746668    443.23886 0.0083246724 0.0064284591         3945 
 4438000    0.5429618   -9.5944091    443.50283 0.0083277533 0.0064258696         3929 
 4439000   0.53664518   -9.5564327    443.34359 0.0083228879 0.0064232803         3923 
 4440000   0.54568964   -9.5963211    442.79568 0.0083107296 0.0064206913         3921 
 4441000   0.54885471   -9.5526562    444.51164 0.0083410576 0.0064181062         3919 
 4442000   0.52762043    -9.581468    443.13522 0.0083133576 0.0064155245         3934 
 4443000   0.54425271   -9.5595093    444.27669 0.0083328961   0.00641294         3940 
 4444000   0.53655311   -9.5729185    443.84234 0.0083228762  0.006410358         3935 
 4445000   0.53332853    -9.580993    443.63046 0.0083170315 0.0064077773         3923 
 4446000   0.54195938   -9.5717947    443.66737 0.0083158526 0.0064051973         3913 
 4447000    0.5422384   -9.5850437    443.59538 0.0083126336 0.0064026198         3927 
 4448000    0.5401567   -9.5946965    443.20777 0.0083035029 0.0064000437         3933 
 4449000    0.5424395   -9.5913239     443.2611 0.0083026355 0.0063974685         3914 
 4450000   0.52612126   -9.5913477    443.23348 0.0083002523 0.0063948928         3938 
 4451000   0.53393054   -9.5785304    443.39918 0.0083014899 0.0063923194         3929 
 4452000   0.55295469   -9.5621838    443.46271 0.0083008143 0.0063897457         3924 
 4453000   0.53798616    -9.577891    443.14452 0.0082929958 0.0063871768         3946 
 4454000   0.54073556    -9.573399    443.89419 0.0083051599 0.0063846084         3913 
 4455000   0.55356939   -9.5909002    443.43082 0.0082946282  0.006382041         3920 
 4456000    0.5415113   -9.5651921    443.26316 0.0082896312 0.0063794754         3911 
 4457000   0.54051882   -9.5639449    444.07604 0.0083029699 0.0063769119         3908 
 4458000   0.54171901   -9.5819319    443.74006 0.0082948269 0.0063743486         3930 
 4459000   0.53640822    -9.570778    443.14932 0.0082819265 0.0063717857         3911 
 4460000    0.5379524   -9.5606868     443.4887 0.0082864107 0.0063692236         3929 
 4461000   0.53275435   -9.5834061    443.56882 0.0082860498 0.0063666657         3921 
 4462000   0.54205875   -9.5734462    443.74702 0.0082875209 0.0063641095         3943 
 4463000    0.5399849   -9.5659752    443.41758 0.0082795127 0.0063615531         3905 
 4464000   0.54003557   -9.5699319    444.42091  0.008296388 0.0063589986         3930 
 4465000   0.52564491   -9.5570455     443.8112 0.0082831504 0.0063564453         3921 
 4466000   0.53466514   -9.5955503    443.50633 0.0082756069  0.006353892         3938 
 4467000   0.53033839   -9.5758866    443.52647 0.0082741301 0.0063513406         3944 
 4468000   0.53947794   -9.5796812    443.76808 0.0082767846 0.0063487908         3917 
 4469000   0.53176413    -9.571771     443.5078  0.008270079 0.0063462416         3929 
 4470000   0.54388639   -9.5841947    443.10683 0.0082607537 0.0063436935         3948 
 4471000   0.53670218   -9.5769901     443.4213 0.0082647673 0.0063411463         3931 
 4472000    0.5366245   -9.5802726      443.556 0.0082654293 0.0063386039         3949 
 4473000   0.53623405   -9.5856688     443.6879 0.0082660389 0.0063360615         3927 
 4474000    0.5397547   -9.5788328    443.01539 0.0082516649 0.0063335196         3943 
 4475000   0.53804595   -9.5822163    443.56756 0.0082601035 0.0063309784         3919 
 4476000   0.54070651   -9.5782122    442.90656 0.0082459517 0.0063284408         3915 
 4477000   0.52250621   -9.5760965    443.87992 0.0082622277 0.0063259048         3932 
 4478000   0.53439085   -9.5805544    443.72094 0.0082574241 0.0063233709         3899 
 4479000    0.5350478   -9.5777534    443.68571 0.0082549251 0.0063208376         3934 
 4480000   0.53959524   -9.5850636    443.38344 0.0082474597 0.0063183035         3947 
 4481000    0.5390836   -9.5814853    443.16771 0.0082416074 0.0063157715         3911 
 4482000   0.55215734   -9.5891394    443.44406 0.0082449066 0.0063132435         3923 
 4483000   0.52771476    -9.579115    443.88066 0.0082511834 0.0063107153         3935 
 4484000   0.53759806   -9.5955878    443.36399 0.0082397411  0.006308188         3936 
 4485000   0.54231025     -9.59634     443.6263 0.0082427777 0.0063056623         3941 
 4486000   0.53800354   -9.5936125    443.01945 0.0082296673 0.0063031381         3931 
 4487000   0.53257023   -9.5642559    443.00828 0.0082276258  0.006300616         3928 
 4488000   0.54164286    -9.607492    442.88429 0.0082234902 0.0062980947         3938 
 4489000   0.53792336   -9.5615947    443.32238 0.0082297911 0.0062955737         3926 
 4490000   0.52365496   -9.5912341    443.31519 0.0082278246 0.0062930527         3900 
 4491000   0.54492109   -9.5907821    443.23579 0.0082245192 0.0062905329         3913 
 4492000   0.53896405   -9.5745047     444.2778 0.0082420192 0.0062880162         3935 
 4493000   0.53496171   -9.5690408    442.79968 0.0082127694 0.0062855002         3917 
 4494000   0.53443798   -9.5720441    443.68708 0.0082273972 0.0062829843         3934 
 4495000   0.53608795   -9.5879964    444.12533 0.0082336918  0.006280472         3945 
 4496000   0.54195458    -9.596529    443.08615 0.0082125991 0.0062779619         3943 
 4497000   0.53008584   -9.6025243     443.8199   0.00822437 0.0062754539         3943 
 4498000   0.53720667   -9.5996805    444.05007 0.0082268058 0.0062729461         3938 
 4499000   0.53648264   -9.5912907     443.9729 0.0082235479 0.0062704396         3928 
 4500000   0.54183952   -9.6071843    443.62858 0.0082153441 0.0062679327         3943 
 4501000    0.5244631   -9.5911006    443.04838 0.0082027768 0.0062654282         3931 
 4502000    0.5255854   -9.5839065    443.63415 0.0082117976 0.0062629255         3949 
 4503000   0.52799899   -9.5866779     443.3321 0.0082043841  0.006260423         3945 
 4504000   0.52730392   -9.6018575    443.15769 0.0081993356 0.0062579215         3906 
 4505000   0.53532434   -9.5930406    442.95234  0.008193717 0.0062554224         3927 
 4506000   0.52778268   -9.5964978    442.73409 0.0081878624 0.0062529259         3935 
 4507000   0.51938244   -9.5972538    442.95297 0.0081900927 0.0062504283         3935 
 4508000   0.52082078   -9.5986122    443.82189 0.0082043383 0.0062479346         3928 
 4509000   0.52487563   -9.5884313    443.14081 0.0081899314 0.0062454411         3936 
 4510000   0.53375046   -9.5847983    443.17741 0.0081887918   0.00624295         3947 
 4511000   0.51710304   -9.5953232    443.61597 0.0081950781 0.0062404615         3942 
 4512000   0.52652612   -9.5809445    443.56301 0.0081922838 0.0062379727         3945 
 4513000   0.52093519   -9.6106341    443.37574 0.0081870104 0.0062354859         3926 
 4514000   0.53007415   -9.6006462     443.5358 0.0081881517  0.006232999         3928 
 4515000   0.52964155   -9.5803258    442.89625  0.008174534 0.0062305136         3931 
 4516000   0.52654009   -9.5994253    443.53559 0.0081845215 0.0062280279         3943 
 4517000   0.51677739    -9.596801    443.84153 0.0081883538 0.0062255454         3923 
 4518000   0.51875231   -9.5916077    442.62949 0.0081641857 0.0062230652         3926 
 4519000   0.52094501   -9.6005749    443.47451 0.0081779618 0.0062205853         3947 
 4520000   0.53044271   -9.6034617    443.33771 0.0081736303  0.006218107         3928 
 4521000   0.54246675   -9.5788614    442.87813 0.0081633512  0.006215631         3940 
 4522000   0.52709064   -9.5994952    443.34721 0.0081701904 0.0062131555         3913 
 4523000   0.51825668   -9.5849023    443.12139 0.0081642235 0.0062106798         3932 
 4524000   0.54818391   -9.6039409    443.65561 0.0081722592  0.006208207         3925 
 4525000   0.53243852   -9.5870448    443.10094 0.0081602383  0.006205735         3908 
 4526000   0.52502822   -9.6054533    442.96922   0.00815601 0.0062032649         3925 
 4527000   0.51985138   -9.5866735    443.53315 0.0081645893 0.0062007952         3908 
 4528000    0.5287208   -9.6057882    443.52523 0.0081626404 0.0061983272         3934 
 4529000   0.52391449   -9.5991977     443.0193 0.0081515291  0.006195862         3923 
 4530000   0.53198201   -9.6087656    443.32596 0.0081553708 0.0061933977         3922 
 4531000     0.515271   -9.5775384    443.31072 0.0081532907 0.0061909352         3914 
 4532000   0.52717678   -9.6100065    443.52426 0.0081554181 0.0061884732         3928 
 4533000   0.53006388   -9.5815607    443.00145 0.0081440078 0.0061860125         3932 
 4534000   0.51525994   -9.6108676    443.18995 0.0081456762 0.0061835522         3921 
 4535000   0.52903522   -9.5990039    442.81058 0.0081369089 0.0061810943         3932 
 4536000   0.52371287   -9.5875146    443.23856 0.0081429777  0.006178636         3918 
 4537000   0.53182369    -9.586737    443.97065 0.0081546295 0.0061761803         3906 
 4538000   0.52276407   -9.5837175    443.21377 0.0081389336 0.0061737256         3938 
 4539000   0.53174084   -9.6033852     443.2005  0.008136897 0.0061712709         3926 
 4540000   0.52243843   -9.6001124    443.36498 0.0081381237 0.0061688212         3928 
 4541000   0.53125911   -9.5968875    443.12577 0.0081319417 0.0061663715         3925 
 4542000   0.52279079   -9.5953481    442.74698 0.0081232016  0.006163922         3936 
 4543000   0.51890431   -9.5772377    443.94865  0.008143456 0.0061614744         3932 
 4544000   0.51077256   -9.5994786    442.93263 0.0081230309  0.006159029         3939 
 4545000   0.51988724   -9.5840579     443.9061 0.0081390925 0.0061565862         3911 
 4546000   0.52117922   -9.5819198    443.42718 0.0081285228 0.0061541421         3932 
 4547000   0.51879082   -9.6096022    443.64689 0.0081307619  0.006151701         3914 
 4548000   0.53342838   -9.6158561    442.88275 0.0081149728 0.0061492599         3923 
 4549000   0.52543291   -9.6072863    442.99844 0.0081153081 0.0061468211         3919 
 4550000   0.51660071   -9.5982995    443.67631 0.0081259398 0.0061443845         3942 
 4551000   0.53563341   -9.5980782    443.29694 0.0081172076 0.0061419479         3924 
 4552000   0.52447132   -9.5873753    442.96659 0.0081093766 0.0061395126         3919 
 4553000   0.51226051   -9.6042333    443.64432      0.00812 0.0061370806         3925 
 4554000   0.52714018   -9.5954603     443.0165 0.0081067285 0.0061346447         3926 
 4555000   0.52125542   -9.5974619    443.30599 0.0081102449 0.0061322121         3901 
 4556000   0.51702518   -9.5958502    443.25095 0.0081074581  0.006129781         3925 
 4557000    0.5207359   -9.6147205    442.89058  0.008099089  0.006127351         3934 
 4558000   0.51808244   -9.5962266    443.04681 0.0081001683 0.0061249241         3912 
 4559000   0.52644758   -9.6017875    443.43669 0.0081055182 0.0061224978         3930 
 4560000    0.5188389   -9.5988445    442.86482 0.0080932898 0.0061200716         3925 
 4561000   0.52018483   -9.6063163    443.40508 0.0081013863 0.0061176493         3930 
 4562000   0.52756002     -9.61134    443.07792 0.0080936344 0.0061152271         3928 
 4563000   0.52063927   -9.5921933    442.74994 0.0080858709 0.0061128037         3925 
 4564000   0.51937493   -9.6045797    443.23699  0.008092992 0.0061103822         3919 
 4565000   0.52495603   -9.6057835    443.22864 0.0080910668 0.0061079612         3942 
 4566000   0.52666542   -9.5905173    443.47135 0.0080937245 0.0061055421         3929 
 4567000   0.51539493   -9.6041546    442.70771 0.0080780182 0.0061031244         3908 
 4568000   0.51828424   -9.6043717    443.16156 0.0080845293 0.0061007087         3922 
 4569000   0.50799012   -9.5866483    443.35513 0.0080862905 0.0060982959         3919 
 4570000   0.51211957   -9.5940413    442.64489 0.0080715698 0.0060958836         3919 
 4571000    0.5283339   -9.6102275    443.41953 0.0080839264 0.0060934718         3932 
 4572000   0.52039272   -9.6031285    442.94053 0.0080734276 0.0060910612         3941 
 4573000   0.51788606    -9.611331    443.07478 0.0080741085 0.0060886517         3920 
 4574000   0.51342192    -9.619597    442.99537 0.0080708966 0.0060862455         3937 
 4575000   0.50902592   -9.6071421    442.68512 0.0080634813 0.0060838398         3931 
 4576000   0.50658898   -9.6071381    443.81331 0.0080822645 0.0060814361         3925 
 4577000   0.51574022   -9.6193112    442.57618 0.0080579744 0.0060790317         3928 
 4578000   0.52079555   -9.6029982    443.06208  0.008065059 0.0060766292         3941 
 4579000   0.52226443   -9.6108075    442.76962 0.0080579751 0.0060742258         3927 
 4580000   0.51305806   -9.6142998    442.96436  0.008059759 0.0060718269         3944 
 4581000   0.52187716   -9.5906841    442.89354 0.0080567115  0.006069429         3918 
 4582000    0.5117523   -9.6157169    442.99426 0.0080567848 0.0060670322         3926 
 4583000   0.52479287   -9.6047618    443.18435 0.0080584834 0.0060646378         3924 
 4584000   0.52457472   -9.6015694    442.55769 0.0080453332 0.0060622418         3905 
 4585000   0.51434345   -9.6064095    442.74256 0.0080469386 0.0060598478         3946 
 4586000   0.51771347   -9.6273452    443.05479 0.0080508575 0.0060574542         3930 
 4587000   0.51638725   -9.5963174    442.66021  0.008041934 0.0060550628         3937 
 4588000   0.50564999   -9.6057027    443.04945  0.008047251 0.0060526736         3931 
 4589000   0.52117396    -9.615592    443.13754  0.008047097 0.0060502846         3934 
 4590000   0.52808099   -9.6175752    442.07191 0.0080259969 0.0060478977         3937 
 4591000   0.51081074   -9.5972906    443.04946 0.0080419927 0.0060455117         3930 
 4592000   0.52299964   -9.6171085    443.41463 0.0080468682 0.0060431263         3943 
 4593000   0.51180368    -9.613753    443.10067 0.0080394199 0.0060407439         3931 
 4594000   0.53344227      -9.6205    442.45242  0.008025911  0.006038362         3937 
 4595000   0.52867043   -9.6051375    443.26729 0.0080389426 0.0060359816         3914 
 4596000   0.51704011   -9.6027653    443.37528 0.0080391515 0.0060336031         3923 
 4597000   0.52362309   -9.6016106    442.52536 0.0080219955 0.0060312251         3943 
 4598000   0.52171265   -9.6143988    442.67286 0.0080229241  0.006028848         3924 
 4599000    0.5058705    -9.606202    443.37551 0.0080339115 0.0060264718         3933 
 4600000   0.52069077   -9.6143904    442.72771 0.0080204296 0.0060240976         3938 
 4601000   0.50958308   -9.5944232    443.42154 0.0080312529  0.006021724         3940 
 4602000   0.51939651   -9.5902019    443.36395  0.008028465 0.0060193527         3936 
 4603000   0.51320801   -9.6068157    442.75996 0.0080157861 0.0060169816         3935 
 4604000   0.51427002   -9.6272239    442.40665 0.0080076501  0.006014612         3911 
 4605000   0.53422713   -9.6207039     442.4085 0.0080059447 0.0060122438         3944 
 4606000   0.51513859   -9.6152878    443.00855 0.0080150629 0.0060098778         3944 
 4607000   0.52157474   -9.6147181    442.93459 0.0080119853 0.0060075098         3929 
 4608000   0.52401715   -9.6168686    442.80071 0.0080078254 0.0060051416         3935 
 4609000   0.51649521   -9.6118747     442.2082  0.007995375 0.0060027787         3945 
 4610000   0.50259573   -9.6188163    442.84318  0.008005119 0.0060004175         3936 
 4611000    0.5096827   -9.6165089    442.18668 0.0079915181 0.0059980564         3924 
 4612000   0.50845561   -9.6304313    442.66473 0.0079984231 0.0059956948         3929 
 4613000   0.50905051   -9.6198939    442.67851 0.0079969382 0.0059933348         3931 
 4614000   0.51432533   -9.6141236    442.70755 0.0079957295 0.0059909774         3917 
 4615000   0.50467495   -9.6303915    442.73094 0.0079944192 0.0059886199         3940 
 4616000   0.51106962   -9.6127087    442.31095 0.0079851052 0.0059862638         3925 
 4617000   0.51835643   -9.6201579    442.47982 0.0079864238 0.0059839108         3958 
 4618000   0.52610493   -9.6268843    441.85224 0.0079733694 0.0059815568         3932 
 4619000   0.51693793   -9.6196595    442.75623 0.0079879525 0.0059792057         3919 
 4620000   0.51601723   -9.6196167    442.99942   0.00799061 0.0059768554         3941 
 4621000   0.52212665    -9.618489    442.65689 0.0079827038 0.0059745079         3921 
 4622000   0.50847552   -9.6122898    442.60162 0.0079799802 0.0059721594         3939 
 4623000   0.51453531   -9.6319009    442.63367 0.0079788317 0.0059698119         3923 
 4624000   0.51397893   -9.6284739    442.23273 0.0079698805 0.0059674675         3906 
 4625000   0.50751981   -9.6194368     442.6916 0.0079764253 0.0059651244         3929 
 4626000   0.51266931    -9.630681    443.41596 0.0079877497 0.0059627834         3920 
 4627000   0.51266286   -9.6243566    443.42684 0.0079862192 0.0059604415         3938 
 4628000   0.50640596   -9.6246326    442.78596 0.0079729537 0.0059581005         3925 
 4629000    0.5065324   -9.6211294    442.26099 0.0079617806 0.0059557629         3925 
 4630000   0.51632882    -9.630179    442.49128 0.0079642058 0.0059534252         3938 
 4631000   0.51819544    -9.619668    442.33522 0.0079596779   0.00595109         3932 
 4632000   0.51614486   -9.6215854    442.81209 0.0079665387 0.0059487552         3934 
 4633000   0.50020961   -9.6288758    442.59518 0.0079609177 0.0059464213         3938 
 4634000     0.520644   -9.6203111    442.51021 0.0079576717 0.0059440886         3944 
 4635000   0.52209438   -9.6208846    442.95231 0.0079639035 0.0059417565         3940 
 4636000   0.51073658   -9.6204519    442.79932 0.0079594356 0.0059394254         3932 
 4637000   0.50392199   -9.6206273    443.34837 0.0079675862  0.005937097         3937 
 4638000   0.49548564   -9.6188745    442.83173 0.0079565857 0.0059347684         3935 
 4639000   0.50082964   -9.6343717    442.48417  0.007948627 0.0059324404         3943 
 4640000   0.50700269   -9.6197834    443.07228 0.0079574762  0.005930114         3926 
 4641000   0.50977152   -9.6244331    442.52369 0.0079459113 0.0059277888         3929 
 4642000   0.50164057   -9.6198154    442.76934 0.0079486094 0.0059254652         3931 
 4643000   0.51360884   -9.6197576    442.78113  0.007947109 0.0059231438         3926 
 4644000   0.50811861    -9.603843    442.62676 0.0079426278  0.005920825         3940 
 4645000   0.50489543   -9.6405215    442.11684 0.0079317697 0.0059185058         3913 
 4646000   0.50907649   -9.6230185      442.374 0.0079346749 0.0059161871         3939 
 4647000   0.51112432   -9.6175847    443.23757 0.0079484536 0.0059138714         3919 
 4648000   0.51105079   -9.6287967    442.72538 0.0079375606 0.0059115544         3930 
 4649000   0.50726248   -9.6296203    441.93021 0.0079215997 0.0059092396         3933 
 4650000    0.5112828   -9.6390605    443.09715 0.0079408091 0.0059069281         3934 
 4651000   0.50230245   -9.6304803    442.13452  0.007921854 0.0059046158         3929 
 4652000   0.51342751   -9.6350077    443.24315 0.0079400105 0.0059023051         3941 
 4653000   0.50647647   -9.6291383    442.73772 0.0079292521 0.0058999956         3938 
 4654000   0.50141298   -9.6355805    443.11795 0.0079343566 0.0058976854         3932 
 4655000   0.51967808   -9.6355749    442.39352 0.0079196834  0.005895378         3939 
 4656000   0.51848696   -9.6249141    442.33684  0.007916968 0.0058930718         3926 
 4657000   0.50426274   -9.6200768     442.9048 0.0079254313 0.0058907658         3936 
 4658000   0.50859629     -9.62033    441.67009 0.0079016405 0.0058884619         3952 
 4659000   0.50798972   -9.6235754    442.15015  0.007908531 0.0058861599         3924 
 4660000   0.49388957   -9.6219947    442.16238 0.0079070527 0.0058838611         3920 
 4661000   0.49508786   -9.6248715    442.66911  0.007914416 0.0058815602         3929 
 4662000   0.50792213   -9.6243698    441.52811 0.0078923229 0.0058792623         3951 
 4663000   0.51065277   -9.6376906    442.70984 0.0079117492 0.0058769646         3933 
 4664000   0.51081477    -9.619159    442.59449 0.0079079919 0.0058746688         3935 
 4665000   0.50896516   -9.6143339    442.24869 0.0079001195 0.0058723749         3944 
 4666000   0.50453099   -9.6335827    442.73072 0.0079070353 0.0058700814         3943 
 4667000   0.50978232   -9.6440184    442.85904 0.0079076323 0.0058677895         3933 
 4668000   0.51262144   -9.6349566    442.60289 0.0079013656 0.0058654997         3927 
 4669000   0.50936871   -9.6148836    442.75586 0.0079024034 0.0058632086         3931 
 4670000   0.50581256   -9.6346129    442.67442 0.0078992581 0.0058609209         3938 
 4671000   0.50608517   -9.6435045    442.38132 0.0078923378 0.0058586337         3927 
 4672000   0.50245375   -9.6459035    441.56892 0.0078761579 0.0058563456         3963 
 4673000   0.49765125   -9.6319412    442.70215 0.0078946814 0.0058540603         3904 
 4674000   0.50828493   -9.6138688    442.38569   0.00788735 0.0058517769         3931 
 4675000   0.50143337   -9.6164605    442.18073 0.0078820094 0.0058494933         3941 
 4676000   0.50679617   -9.6347498    442.21095 0.0078808623 0.0058472099         3918 
 4677000   0.50275091   -9.6251364    442.10021 0.0078772042 0.0058449309         3932 
 4678000   0.51105182   -9.6312723    442.99925 0.0078915357 0.0058426522         3936 
 4679000   0.50794907   -9.6303081    442.32052 0.0078777609  0.005840374         3931 
 4680000   0.50430626    -9.621706    442.24668 0.0078747629 0.0058380965         3938 
 4681000   0.50854383   -9.6365279     442.5661  0.007878767 0.0058358193         3932 
 4682000   0.50144344    -9.632208    442.25635  0.007871571 0.0058335457         3943 
 4683000     0.500239   -9.6362772    442.17151 0.0078683804 0.0058312713         3943 
 4684000   0.50750003   -9.6397167    442.87705 0.0078792529 0.0058289991         3928 
 4685000   0.49101517   -9.6352092    442.32571 0.0078677643 0.0058267293         3904 
 4686000   0.51024221   -9.6168406    442.43184 0.0078679727 0.0058244594         3936 
 4687000   0.48986688   -9.6234747     441.9728 0.0078581324 0.0058221908         3931 
 4688000   0.50652055   -9.6321325    442.74733 0.0078702241 0.0058199234         3930 
 4689000   0.49869748   -9.6117285     443.1863 0.0078763471 0.0058176578         3913 
 4690000   0.49118491   -9.6181428    441.99242 0.0078534546 0.0058153931         3945 
 4691000   0.50303149   -9.6446058    442.36883  0.007858467 0.0058131304         3947 
 4692000   0.50624668   -9.6434711    441.85894 0.0078477363 0.0058108678         3937 
 4693000   0.50012922   -9.6362537    443.25845  0.007870915 0.0058086077         3921 
 4694000   0.49338677   -9.6487181    442.11829 0.0078489968 0.0058063477         3928 
 4695000   0.50377327   -9.6407058    442.05913 0.0078462749 0.0058040878         3920 
 4696000   0.50719837   -9.6346052    441.89812 0.0078417469 0.0058018301         3913 
 4697000   0.51489432   -9.6378854    442.67174 0.0078538028  0.005799574         3905 
 4698000   0.49798541   -9.6354213    442.91387  0.007856426 0.0057973195         3943 
 4699000   0.50110211   -9.6348845    442.59677 0.0078491306 0.0057950632         3918 
 4700000   0.50133203    -9.648784     442.5322 0.0078463157 0.0057928107         3929 
 4701000   0.50246017   -9.6334726    441.69109 0.0078297365 0.0057905594         3936 
 4702000   0.50019407   -9.6427228    442.97124 0.0078507593 0.0057883094         3922 
 4703000   0.49907584   -9.6265575     442.3629 0.0078383107 0.0057860584         3940 
 4704000   0.49359636   -9.6363803    442.34373 0.0078363048 0.0057838096         3953 
 4705000   0.50640965   -9.6360242     442.5235 0.0078378233 0.0057815615         3938 
 4706000    0.5073266   -9.6433782    442.35647    0.0078332 0.0057793153         3925 
 4707000   0.48669888   -9.6368252    442.10666 0.0078271132 0.0057770701         3939 
 4708000   0.49167199   -9.6303839    442.48462 0.0078321407 0.0057748265         3927 
 4709000   0.48965298   -9.6345469    442.61042 0.0078327037 0.0057725836         3950 
 4710000    0.4957562    -9.627955    442.53763 0.0078297528 0.0057703423         3928 
 4711000   0.49508241   -9.6463048     442.8693 0.0078339577 0.0057681026         3936 
 4712000   0.50119486   -9.6341746    442.28374 0.0078219394  0.005765865         3932 
 4713000   0.50126125   -9.6399749     442.5246 0.0078245385 0.0057636263         3943 
 4714000   0.49708263   -9.6486839    441.76062 0.0078093731 0.0057613899         3939 
 4715000   0.49978264    -9.652069    442.56111 0.0078218649 0.0057591547         3927 
 4716000    0.4944514   -9.6503159    441.69029 0.0078048184 0.0057569201         3938 
 4717000   0.49847287   -9.6398013    441.54728 0.0078006374 0.0057546873         3916 
 4718000   0.48600039   -9.6478894    443.08435  0.007826133 0.0057524556         3935 
 4719000   0.49928813   -9.6332026     442.0734 0.0078066222 0.0057502261         3938 
 4720000   0.49751707   -9.6254502    441.33245 0.0077918865 0.0057479974         3929 
 4721000   0.48627909   -9.6220609     442.4861 0.0078105998  0.005745768         3952 
 4722000   0.49591191   -9.6229402    442.20757 0.0078040302 0.0057435413         3950 
 4723000   0.49672751   -9.6533754    441.91648 0.0077972419 0.0057413154         3908 
 4724000    0.4976973   -9.6587792    443.11082 0.0078166599 0.0057390918         3923 
 4725000   0.48304502   -9.6426847    442.07787 0.0077967878 0.0057368681         3940 
 4726000    0.4878303   -9.6375188     442.1299 0.0077960555 0.0057346442         3950 
 4727000   0.49986875   -9.6498224     442.3128 0.0077976306  0.005732422         3933 
 4728000   0.48621863   -9.6546564    442.12207 0.0077926198 0.0057302019         3935 
 4729000   0.49297074   -9.6542311    441.59386 0.0077816639 0.0057279824         3940 
 4730000   0.50023088   -9.6676459    441.37316 0.0077761304 0.0057257642         3938 
 4731000   0.49075935   -9.6488398    442.63567  0.007796725  0.005723548         3940 
 4732000   0.49412843   -9.6518577    442.31142 0.0077893671 0.0057213337         3947 
 4733000    0.4973987   -9.6394458    441.80241 0.0077787593 0.0057191199         3935 
 4734000    0.4995192   -9.6694165    441.44779 0.0077708736 0.0057169033         3956 
 4735000   0.50048514   -9.6519399    442.27301 0.0077837559 0.0057146931         3927 
 4736000   0.49924934   -9.6378149    441.88642   0.00777531 0.0057124833         3938 
 4737000   0.49752749   -9.6522239    441.66867  0.007769838 0.0057102738         3932 
 4738000   0.49085934   -9.6560261    442.15479 0.0077767482 0.0057080646         3943 
 4739000    0.4955782   -9.6564804    442.60229 0.0077829761 0.0057058565         3937 
 4740000   0.50387939   -9.6536978    441.68685 0.0077652399 0.0057036515         3930 
 4741000   0.50180928   -9.6445346    442.45861 0.0077771674  0.005701445         3925 
 4742000   0.50361432   -9.6616216    442.61859 0.0077783388 0.0056992408         3938 
 4743000   0.49543389   -9.6561463    442.32886 0.0077716083  0.005697039         3959 
 4744000   0.50196804   -9.6529306    442.22965 0.0077682274 0.0056948373         3933 
 4745000   0.50002362   -9.6564426    442.09262 0.0077641838 0.0056926371         3934 
 4746000   0.50005634   -9.6510382    442.81537 0.0077752383 0.0056904391         3949 
 4747000   0.49004337   -9.6451775    442.16199 0.0077621304  0.005688242         3930 
 4748000   0.49004998   -9.6420494    441.84095 0.0077548609 0.0056860448         3928 
 4749000   0.49730744   -9.6404793    442.77868 0.0077696828 0.0056838486         3923 
 4750000   0.50340309   -9.6527102    441.89983 0.0077526286  0.005681654         3947 
 4751000   0.49355822   -9.6487672    441.56734 0.0077451648 0.0056794591         3944 
 4752000   0.48622203   -9.6313611    442.10984 0.0077530485 0.0056772669         3937 
 4753000   0.49141132   -9.6542406    442.24762  0.007753833 0.0056750767         3950 
 4754000   0.49655468   -9.6605469    441.40148   0.00773737 0.0056728865         3939 
 4755000   0.49016692    -9.652827    442.41938 0.0077535818 0.0056706975         3929 
 4756000    0.4780194   -9.6596904    441.97783 0.0077442148 0.0056685095         3936 
 4757000   0.48951761   -9.6580693     441.9166 0.0077415143 0.0056663224         3930 
 4758000   0.49526895   -9.6490246    442.22185 0.0077452335 0.0056641367         3942 
 4759000   0.50459552   -9.6605046    442.25425 0.0077441733 0.0056619512         3928 
 4760000   0.49184922   -9.6613735     442.3577 0.0077443574 0.0056597681         3907 
 4761000   0.48104533   -9.6396579    442.20292 0.0077400217  0.005657588         3928 
 4762000   0.47821967   -9.6403639    441.71776 0.0077299062 0.0056554064         3951 
 4763000   0.49455025   -9.6520307    441.38322 0.0077224301 0.0056532274         3957 
 4764000    0.4879294   -9.6462346    441.60253 0.0077246454 0.0056510503         3932 
 4765000    0.4855476   -9.6540505    441.75464 0.0077256846 0.0056488731         3930 
 4766000   0.51075905   -9.6629969    442.29719   0.00773355 0.0056466975         3930 
 4767000   0.49089639   -9.6477429    442.73768  0.007739628 0.0056445242         3922 
 4768000   0.48902644   -9.6507532    442.42453 0.0077325317 0.0056423494         3952 
 4769000   0.48853952   -9.6402868    442.33626 0.0077293678 0.0056401764         3931 
 4770000   0.49572592     -9.66339    441.66246 0.0077159758 0.0056380032         3929 
 4771000   0.48892354   -9.6601051    442.05033 0.0077211335 0.0056358334         3944 
 4772000   0.48113342   -9.6489532    442.07777 0.0077199946 0.0056336633         3933 
 4773000   0.50392031    -9.652647    441.93303 0.0077158501 0.0056314964         3937 
 4774000   0.48860321    -9.640641    442.23315 0.0077194728 0.0056293302         3929 
 4775000   0.49057152    -9.649668    442.32416 0.0077194443 0.0056271653         3946 
 4776000   0.48596705   -9.6616268    442.22661 0.0077161259 0.0056250007         3945 
 4777000   0.48010115   -9.6492263    442.02598 0.0077110107  0.005622837         3938 
 4778000   0.49554073   -9.6494541    442.21408 0.0077126775 0.0056206752         3942 
 4779000   0.47571286   -9.6442597    442.50791 0.0077161874 0.0056185146         3939 
 4780000   0.49444683   -9.6455545    441.95545 0.0077049416 0.0056163555         3954 
 4781000   0.48609285   -9.6589249    441.98057 0.0077037678 0.0056141961         3934 
 4782000   0.49208832   -9.6589204    442.37098 0.0077089604 0.0056120364         3953 
 4783000   0.48073826   -9.6417941    441.67558 0.0076952327 0.0056098781         3922 
 4784000   0.48134928   -9.6563511    441.58937 0.0076921226 0.0056077241         3932 
 4785000   0.47930249   -9.6611349     441.7875 0.0076939655 0.0056055708         3935 
 4786000   0.49391888   -9.6510478    441.96883 0.0076955152 0.0056034162         3947 
 4787000    0.4829746   -9.6420492    442.19799  0.007697897 0.0056012628         3941 
 4788000   0.48414418   -9.6464292    442.40538 0.0076998986 0.0055991116         3941 
 4789000   0.48404975   -9.6613023    441.41635 0.0076810807 0.0055969613         3948 
 4790000    0.4885235   -9.6748684    441.43169  0.007679744 0.0055948094         3949 
 4791000   0.48240337   -9.6620808    442.49426 0.0076966231 0.0055926619         3943 
 4792000   0.47593831    -9.651914    441.93172 0.0076852344  0.005590514         3941 
 4793000   0.48748957   -9.6464565    441.76299 0.0076806974 0.0055883674         3937 
 4794000   0.48451189    -9.673357    442.28725 0.0076882084 0.0055862223         3934 
 4795000   0.48999572    -9.665009    442.00371 0.0076816773 0.0055840788         3951 
 4796000    0.4803175   -9.6703702    441.95254 0.0076791865 0.0055819362         3934 
 4797000   0.48459405   -9.6564897    441.54981 0.0076705894 0.0055797936         3963 
 4798000   0.48782754   -9.6548943    442.09016 0.0076783757 0.0055776533         3945 
 4799000   0.49071034   -9.6603473    442.05176 0.0076761089 0.0055755132         3952 
 4800000   0.49222921   -9.6662559    442.71482 0.0076860212 0.0055733746         3948 
 4801000   0.47952413   -9.6447278    441.31402 0.0076601059 0.0055712377         3935 
 4802000      0.47942   -9.6624899    441.92355 0.0076690884 0.0055691017         3940 
 4803000   0.49556476   -9.6711091    441.43453  0.007659007 0.0055669672         3945 
 4804000   0.47725069   -9.6629729    441.44205 0.0076575431 0.0055648336         3957 
 4805000   0.48155314   -9.6517329    442.08114 0.0076670332 0.0055627005         3940 
 4806000   0.48186118   -9.6778552    441.91853 0.0076626184 0.0055605691         3920 
 4807000   0.47894037   -9.6511151    442.13449 0.0076647683 0.0055584387         3962 
 4808000   0.47491115   -9.6661762    442.07905 0.0076622132 0.0055563101         3936 
 4809000    0.4862151   -9.6587114     441.9721 0.0076587666 0.0055541812         3941 
 4810000   0.48078634   -9.6724394    441.83067  0.007654724 0.0055520528         3938 
 4811000    0.4805961   -9.6578276    441.64167 0.0076498591  0.005549928         3953 
 4812000   0.48338385   -9.6571441    441.98902 0.0076542847 0.0055478024         3952 
 4813000   0.48453354   -9.6589272    441.98006 0.0076525394 0.0055456766         3937 
 4814000   0.47845584   -9.6510875    441.75789 0.0076471037 0.0055435534         3939 
 4815000   0.48322591   -9.6655518    441.75689 0.0076454983 0.0055414315         3944 
 4816000   0.47854897   -9.6508555    441.43687 0.0076383734 0.0055393104         3933 
 4817000   0.46926509   -9.6661887    441.72633 0.0076417952 0.0055371899         3934 
 4818000   0.48257891    -9.653284    441.53473 0.0076368951 0.0055350711         3937 
 4819000   0.48435701   -9.6672357    441.94486 0.0076424027 0.0055329531         3964 
 4820000   0.48379973   -9.6639525    441.21309 0.0076281655 0.0055308373         3945 
 4821000   0.46890821   -9.6617151    441.10446 0.0076247055 0.0055287219         3930 
 4822000   0.48473415   -9.6672319    442.18321 0.0076417671 0.0055266065         3941 
 4823000   0.47646394   -9.6560869    441.55208 0.0076292778 0.0055244941         3937 
 4824000   0.48488624   -9.6578245    441.92583 0.0076341527 0.0055223824         3938 
 4825000   0.48587662   -9.6722603    440.97255 0.0076161062 0.0055202725         3923 
 4826000   0.47734503   -9.6554858    441.72527 0.0076275258 0.0055181629         3925 
 4827000   0.47634774   -9.6714599    441.38081 0.0076199988 0.0055160529         3908 
 4828000   0.47869707   -9.6765763    440.82876 0.0076088918 0.0055139454         3943 
 4829000   0.47480975   -9.6635737    442.10197 0.0076292879 0.0055118397         3924 
 4830000   0.47583092   -9.6532284    441.50824 0.0076174644  0.005509733         3934 
 4831000   0.47444118   -9.6601544    441.52598 0.0076161936 0.0055076275         3950 
 4832000   0.47613716   -9.6698913    442.36813 0.0076291412 0.0055055245         3930 
 4833000   0.48747754   -9.6596325    441.32099 0.0076095074 0.0055034249         3924 
 4834000   0.47817814   -9.6667798    441.67322 0.0076140053 0.0055013228         3936 
 4835000   0.47511559   -9.6757509    442.06875 0.0076192477 0.0054992236         3945 
 4836000   0.47649279    -9.662336    442.18041 0.0076195963  0.005497125         3942 
 4837000   0.48013291   -9.6826648     441.6912 0.0076095927 0.0054950264         3919 
 4838000   0.47455285   -9.6590262    441.59783 0.0076064116 0.0054929286         3923 
 4839000   0.47757225   -9.6703496    441.87982 0.0076096958 0.0054908322         3945 
 4840000   0.47442115   -9.6760771    441.32734 0.0075986113 0.0054887381         3955 
 4841000   0.46600405   -9.6624617    441.39931 0.0075982805 0.0054866437         3944 
 4842000   0.48795141   -9.6698684    440.76356 0.0075857697 0.0054845507         3942 
 4843000   0.47480664   -9.6830235    441.87446 0.0076033186 0.0054824601         3942 
 4844000    0.4617646   -9.6739003    441.35324 0.0075927822 0.0054803705         3934 
 4845000    0.4823642   -9.6604063    442.31414 0.0076077424 0.0054782834         3925 
 4846000     0.480061   -9.6599973    441.81604  0.007597607 0.0054761959         3933 
 4847000   0.46980532   -9.6525561    441.52178 0.0075909803 0.0054741098         3923 
 4848000   0.48578107   -9.6770064    440.90209 0.0075787626 0.0054720242         3931 
 4849000   0.48710385   -9.6551094    441.21891 0.0075826443 0.0054699412         3956 
 4850000   0.47501335   -9.6793769    441.64318 0.0075883708 0.0054678575         3932 
 4851000   0.47070072   -9.6660158    441.58895 0.0075858749 0.0054657749         3942 
 4852000    0.4823203   -9.6722789    442.67812 0.0076030181 0.0054636925         3940 
 4853000   0.46886481   -9.6842122    441.46755  0.007580664 0.0054616115         3962 
 4854000   0.47986341     -9.66644    441.82541 0.0075852459 0.0054595326         3967 
 4855000   0.47399768   -9.6736574     441.6244 0.0075802334 0.0054574535         3945 
 4856000   0.47935121   -9.6744962     440.5237 0.0075597834 0.0054553778         3944 
 4857000   0.47865496    -9.674213    441.37816 0.0075728872 0.0054533033         3945 
 4858000   0.47777712   -9.6675557    441.77806 0.0075781881 0.0054512289         3939 
 4859000   0.47776724   -9.6775784    440.84392 0.0075606079 0.0054491555         3933 
 4860000   0.48416434   -9.6840351    441.25623  0.007566122 0.0054470833         3926 
 4861000   0.47536388   -9.6837761    441.96683 0.0075767473 0.0054450134         3927 
 4862000   0.48950188   -9.6766493    441.66219 0.0075699676 0.0054429428         3938 
 4863000   0.47017567   -9.6724265    441.61122 0.0075675376  0.005440875         3912 
 4864000   0.47925848   -9.6707872    441.40955 0.0075625266  0.005438806         3943 
 4865000   0.47807773   -9.6817164    441.04282 0.0075546903 0.0054367381         3907 
 4866000   0.47272011   -9.6660197    441.47796 0.0075605898 0.0054346698         3963 
 4867000   0.47251484   -9.6836808     441.7027 0.0075628845  0.005432604         3930 
 4868000   0.47212512    -9.670371    441.38335  0.007555864 0.0054305397         3943 
 4869000   0.46466832   -9.6872335    441.36746 0.0075540402 0.0054284754         3964 
 4870000   0.47778902   -9.6812633    441.28938 0.0075511529 0.0054264129         3946 
 4871000   0.47494205    -9.684475    441.45812 0.0075524896 0.0054243521         3930 
 4872000   0.48083522   -9.6879086     441.3941 0.0075498444 0.0054222913         3941 
 4873000   0.48588955   -9.6783551    441.15697 0.0075442399 0.0054202322         3932 
 4874000   0.46841789   -9.6669744    441.68407 0.0075517042 0.0054181755         3917 
 4875000   0.47449581   -9.6727279    441.10618 0.0075402767 0.0054161193         3933 
 4876000   0.47639702   -9.6862554    441.02051 0.0075372661 0.0054140623         3948 
 4877000   0.47701875    -9.666143    441.01628 0.0075356483  0.005412006         3927 
 4878000   0.48439771    -9.678451    441.78798 0.0075472869 0.0054099526         3939 
 4879000   0.47117006    -9.679869    441.49161 0.0075406779 0.0054078988         3947 
 4880000   0.47605821   -9.6850318    440.95893 0.0075300364 0.0054058467         3950 
 4881000   0.46807192   -9.6686985    441.70776 0.0075412783 0.0054037958         3935 
 4882000   0.46799138   -9.6962745     441.4676 0.0075356344 0.0054017457         3938 
 4883000    0.4635438   -9.6829999    441.08276 0.0075275234 0.0053996971         3959 
 4884000   0.45354152   -9.6765584    441.54027 0.0075337885 0.0053976498         3934 
 4885000     0.470985    -9.680903    441.18839 0.0075262435 0.0053956038         3950 
 4886000   0.47644738    -9.662184    441.14343 0.0075239362 0.0053935591         3940 
 4887000   0.47225712   -9.6775553    441.16309 0.0075227319 0.0053915156         3949 
 4888000   0.46611879   -9.6902228    441.97289 0.0075349988 0.0053894713         3945 
 4889000   0.47221997   -9.6674323    441.47096 0.0075249022  0.005387431         3931 
 4890000   0.47341183     -9.67371    440.70463 0.0075103038 0.0053853896         3939 
 4891000   0.45623002   -9.6710584    441.09446 0.0075154103 0.0053833507         3942 
 4892000   0.47001794   -9.6793091    441.10854 0.0075141139 0.0053813112         3935 
 4893000    0.4808501   -9.6827242    441.35601 0.0075167929 0.0053792735         3944 
 4894000   0.47496473   -9.6944756    441.29867 0.0075142805 0.0053772387         3956 
 4895000   0.47644468   -9.6724898    441.01453 0.0075079083 0.0053752028         3945 
 4896000   0.45516001   -9.6774407    441.09125 0.0075076805 0.0053731682         3932 
 4897000   0.47050793   -9.7048067    441.16695 0.0075074357 0.0053711337         3950 
 4898000   0.47281289    -9.681982    441.22985 0.0075069731 0.0053691006         3935 
 4899000   0.45439908   -9.6723164     441.4256 0.0075087704 0.0053670702         3947 
 4900000   0.45617588   -9.6810163    441.30416 0.0075051727 0.0053650387         3937 
 4901000   0.47243802   -9.6953851    441.02454  0.007498887 0.0053630106         3937 
 4902000   0.46239037   -9.6660273     441.1105 0.0074988186 0.0053609817         3947 
 4903000   0.45125577   -9.6736775    441.11083 0.0074972947 0.0053589542         3950 
 4904000    0.4685561   -9.6678809    441.63344 0.0075046465 0.0053569287         3944 
 4905000   0.47215683   -9.6895405    440.77289 0.0074884963 0.0053549032         3940 
 4906000   0.47067402    -9.684121    440.77219 0.0074869579 0.0053528779         3954 
 4907000   0.46206805    -9.696717    441.97215 0.0075058106 0.0053508556         3927 
 4908000    0.4656276   -9.6758245    441.35417 0.0074937885 0.0053488328         3939 
 4909000   0.46566812   -9.6886003    442.46873 0.0075111824  0.005346813         3946 
 4910000    0.4652287   -9.6826399    441.58978 0.0074947348 0.0053447916         3947 
 4911000   0.47177033   -9.6752309     441.0912 0.0074847484 0.0053427734         3923 
 4912000   0.45856777    -9.690603    441.36161 0.0074878123 0.0053407559         3937 
 4913000   0.46416525   -9.6942079    441.01987 0.0074804917 0.0053387384         3948 
 4914000   0.45365585   -9.6825132    440.56706 0.0074712904 0.0053367212         3945 
 4915000   0.45572782   -9.6856646    441.23186  0.007481042 0.0053347059         3927 
 4916000   0.46764764   -9.6944953    441.12205 0.0074776588 0.0053326929         3943 
 4917000     0.456799   -9.6790208    441.34678 0.0074799468 0.0053306804         3945 
 4918000   0.46858305   -9.6963034    441.20971 0.0074761032 0.0053286679         3953 
 4919000   0.46637844   -9.6996806    440.91171  0.007469535 0.0053266565         3946 
 4920000   0.45901405   -9.6894104    441.32188 0.0074749641 0.0053246465         3944 
 4921000   0.46374979   -9.6755999    441.49874 0.0074764402 0.0053226373         3947 
 4922000   0.45921031    -9.679054    441.05736 0.0074674482 0.0053206291         3956 
 4923000   0.47242283   -9.6838108    441.09549 0.0074665769 0.0053186225         3928 
 4924000      0.45684   -9.6800769    441.65266   0.00747449 0.0053166172         3927 
 4925000   0.46057001   -9.6958191    441.60605 0.0074721835 0.0053146138         3942 
 4926000   0.46904761   -9.6793598    440.79088 0.0074568764 0.0053126099         3934 
 4927000   0.46022621   -9.6868507    440.80345 0.0074555756 0.0053106065         3961 
 4928000   0.47026364   -9.6946684    441.28814 0.0074622589 0.0053086057         3937 
 4929000   0.45392683    -9.677992    441.14007 0.0074582416 0.0053066054         3945 
 4930000   0.47013708    -9.706525    441.75273 0.0074670846 0.0053046064         3931 
 4931000   0.45620033   -9.6878694    441.70492 0.0074647624 0.0053026073         3951 
 4932000   0.46245334   -9.6957455    441.11536 0.0074532873 0.0053006087         3940 
 4933000   0.46369246   -9.7071934    441.02138 0.0074501888 0.0052986125         3936 
 4934000   0.46055746   -9.6871369    441.14594 0.0074507826 0.0052966154         3941 
 4935000   0.46302605   -9.7040795     441.2195 0.0074505151 0.0052946204         3951 
 4936000   0.47374283   -9.6897548    440.58342 0.0074382669 0.0052926262         3942 
 4937000   0.45332836   -9.6823923    441.36701 0.0074499867 0.0052906333         3937 
 4938000    0.4500402   -9.7085643    441.05902 0.0074432803  0.005288641         3948 
 4939000    0.4591744   -9.6973048    441.04191 0.0074414846 0.0052866499         3932 
 4940000   0.46528698    -9.679797    441.05094 0.0074401305   0.00528466         3937 
 4941000    0.4534222    -9.692715    441.40275 0.0074445583 0.0052826712         3940 
 4942000   0.45847266    -9.672274     441.3374 0.0074419499 0.0052806845         3948 
 4943000   0.46598451    -9.688512    441.49614 0.0074431205 0.0052786981         3934 
 4944000   0.47251382    -9.696812    441.28706 0.0074380909 0.0052767132         3945 
 4945000   0.45718793   -9.6903394    440.93417 0.0074306399 0.0052747292         3929 
 4946000   0.46825162    -9.676267    440.99628  0.007430184 0.0052727462         3926 
 4947000   0.46373443   -9.6997165    441.03616 0.0074293538 0.0052707642         3948 
 4948000   0.46550446   -9.6953204    440.59959 0.0074204998 0.0052687831         3926 
 4949000   0.46811639   -9.6979312    441.60923  0.007436001 0.0052668024         3930 
 4950000   0.45920897   -9.7135342    441.09396 0.0074258242 0.0052648224         3931 
 4951000   0.45410551   -9.7198519    440.46823 0.0074137923 0.0052628431         3942 
 4952000   0.45700277   -9.6975309    440.88159 0.0074192512 0.0052608657         3942 
 4953000   0.45755543   -9.6969357    441.14854 0.0074222447  0.005258889         3949 
 4954000   0.45683582   -9.6992724    440.36271 0.0074075278  0.005256913         3951 
 4955000   0.45900973   -9.6875987    440.72159 0.0074120684 0.0052549387         3932 
 4956000   0.46580346   -9.6910432    441.37938 0.0074216334 0.0052529659         3924 
 4957000   0.45200177   -9.6991538    440.90681 0.0074121917 0.0052509948         3946 
 4958000    0.4571585   -9.6880561    440.81494 0.0074091525 0.0052490237         3943 
 4959000   0.46219844   -9.6960814    441.60074 0.0074208634 0.0052470524         3940 
 4960000   0.45859151   -9.6908992    440.31605  0.007397783 0.0052450847         3924 
 4961000   0.45941865   -9.7126613    441.32514 0.0074132423 0.0052431182         3919 
 4962000   0.45397103   -9.6979925    440.88607 0.0074043744 0.0052411514         3952 
 4963000   0.45520835   -9.6977215    441.61029 0.0074150428 0.0052391854         3956 
 4964000   0.44640934   -9.6934379    441.19941 0.0074066514 0.0052372201         3944 
 4965000   0.46465677   -9.6967038     440.8573 0.0073994176 0.0052352554         3955 
 4966000   0.45552054   -9.6830559    441.26196  0.007404718 0.0052332922         3937 
 4967000   0.45232958     -9.70771    441.57917 0.0074085493 0.0052313295         3953 
 4968000   0.45547926   -9.6964063    441.09924 0.0073990077  0.005229369         3958 
 4969000   0.45158782   -9.7170761    441.31442 0.0074011274 0.0052274086         3920 
 4970000   0.45521007   -9.7018621    440.39557 0.0073842315 0.0052254482         3950 
 4971000   0.45587404   -9.7004462    441.89739 0.0074079224 0.0052234911         3961 
 4972000   0.45975929   -9.7139616    440.68721 0.0073861492 0.0052215335         3929 
 4973000   0.44461434   -9.7130586     440.5202 0.0073818654  0.005219576         3947 
 4974000   0.45669885   -9.6957288    440.55086  0.007380895 0.0052176208         3933 
 4975000   0.46027414   -9.7013011    441.19705 0.0073902353 0.0052156675         3940 
 4976000   0.45661317   -9.6954515    440.42197 0.0073757698 0.0052137164         3936 
 4977000   0.44795342   -9.7117555    441.25145 0.0073881765  0.005211763         3945 
 4978000    0.4671178   -9.6989317      440.659 0.0073767745 0.0052098122         3943 
 4979000   0.46094431   -9.6982288    440.76527 0.0073770715 0.0052078616         3954 
 4980000   0.45704258   -9.6883996    440.82781 0.0073766367 0.0052059122         3953 
 4981000   0.46072872   -9.7041106    440.61707   0.00737163 0.0052039626         3952 
 4982000   0.45630176   -9.7138398    441.15943 0.0073792224 0.0052020156         3946 
 4983000   0.45713946   -9.7083097    440.65295 0.0073692713 0.0052000697         3957 
 4984000   0.45341986   -9.6871959    440.88401 0.0073716562 0.0051981255         3951 
 4985000   0.45265562   -9.6932433    440.92503 0.0073708631 0.0051961818         3939 
 4986000   0.47153829   -9.7031171    440.99402 0.0073705378 0.0051942375         3948 
 4987000   0.45365051   -9.6864872    440.47372 0.0073603656 0.0051922963         3952 
 4988000   0.45817485   -9.6799007    441.65111 0.0073785604 0.0051903559         3940 
 4989000   0.45832877   -9.7012422    440.66522 0.0073606136 0.0051884157         3929 
 4990000   0.44958995   -9.6995459    440.77499 0.0073609717 0.0051864769         3942 
 4991000   0.44167951   -9.7170887    441.13524 0.0073655119 0.0051845378         3945 
 4992000   0.44898427   -9.7033187    440.46677 0.0073528774 0.0051825994         3927 
 4993000   0.46286471   -9.7080123    441.16757 0.0073631012 0.0051806618         3964 
 4994000   0.44654333   -9.6983282    441.17609  0.007361769 0.0051787265         3945 
 4995000    0.4562509   -9.7029606    439.68085 0.0073353495 0.0051767919         3950 
 4996000   0.45590314   -9.7174912     440.6625 0.0073502552 0.0051748585         3933 
 4997000   0.45511745   -9.7027087    441.10617 0.0073561833 0.0051729264         3932 
 4998000   0.45277145   -9.7050606    440.61655 0.0073465477 0.0051709951         3952 
 4999000   0.44795884   -9.7066405     441.2915 0.0073563295 0.0051690646         3950 
 5000000   0.44609654   -9.7190342    441.14589 0.0073524315 0.0051671344         3942 
 5001000   0.45599989    -9.710966    440.96733 0.0073479859 0.0051652061         3944 
 5002000    0.4517749   -9.7099784    440.50701 0.0073388479 0.0051632784         3953 
 5003000   0.45482771   -9.6929698    441.24607 0.0073496913 0.0051613531         3957 
 5004000   0.44050124   -9.7074324    441.35838  0.007350093 0.0051594279         3941 
 5005000   0.45686731   -9.7039908    440.23405 0.0073299042 0.0051575035         3944 
 5006000   0.45266876   -9.7122386    440.79728 0.0073378159 0.0051555806         3938 
 5007000   0.43959891   -9.7155444    440.69847 0.0073347059 0.0051536562         3955 
 5008000   0.45247899   -9.7139454    440.80763 0.0073350578 0.0051517344         3936 
 5009000   0.45004284   -9.6879375    440.94607 0.0073358966 0.0051498139         3941 
 5010000   0.45706704   -9.7064241     440.8445 0.0073327429 0.0051478935         3936 
 5011000   0.46005885   -9.6987774    440.69588  0.007328808 0.0051459752         3940 
 5012000   0.44416309   -9.7059022    441.26851 0.0073368667 0.0051440571         3940 
Loop time of 13120.5 on 48 procs for 5000000 steps with 4000 atoms

Performance: 65851.383 tau/day, 381.084 timesteps/s
99.4% CPU use with 48 MPI tasks x no OpenMP threads

MPI task timing breakdown:
Section |  min time  |  avg time  |  max time  |%varavg| %total
---------------------------------------------------------------
Pair    | 891.39     | 1093.9     | 1216.1     | 208.5 |  8.34
Neigh   | 92.247     | 97.441     | 101.13     |  22.0 |  0.74
Comm    | 813.91     | 946.16     | 1158       | 230.5 |  7.21
Output  | 18.421     | 18.426     | 18.527     |   0.3 |  0.14
Modify  | 10789      | 10845      | 10882      |  17.5 | 82.66
Other   |            | 119.1      |            |       |  0.91

Nlocal:        83.3333 ave          88 max          78 min
Histogram: 2 4 1 4 3 8 10 7 6 3
Nghost:        2437.21 ave        2448 max        2421 min
Histogram: 1 1 4 4 5 9 5 8 4 7
Neighs:        16898.5 ave       19257 max       14316 min
Histogram: 4 1 6 6 6 4 9 4 3 5
FullNghs:      33857.0 ave       36624 max       30374 min
Histogram: 1 3 2 6 5 7 9 10 3 2

Total # of neighbors = 1625136
Ave neighs/atom = 406.28400
Neighbor list builds = 265813
Dangerous builds = 1

#clear
#
#next RN
#
#jump SELF
Total wall time: 3:38:45
