
units lj                  # Use reduced LJ style units
atom_style atomic         # Uncharged point particles
atom_modify map hash      # Needed for indexing of clusters etc
                          # Used to be able to find where atoms are in relation to each other.

lattice fcc 1.0 spacing 1 1 1
Lattice spacing in x,y,z = 1.5874011 1.5874011 1.5874011
region box block 0 10 0 10 0 10 units lattice
create_box 2 box
Created orthogonal box = (0.0000000 0.0000000 0.0000000) to (15.874011 15.874011 15.874011)
  3 by 4 by 4 MPI processor grid
create_atoms 1 box
Created 4000 atoms
  using lattice units in orthogonal box = (0.0000000 0.0000000 0.0000000) to (15.874011 15.874011 15.874011)
  create_atoms CPU = 0.002 seconds
set type 1 type/fraction 2 0.25 78393
Setting atom values ...
  1031 settings made for type/fraction
mass 1 1.0
mass 2 1.0
pair_style lj/cut  3.5
pair_modify tail  yes
pair_coeff 1  1  1.0  1.0   # Intearaction between 1 and 1 set with epsilon = 1 and sigma = 1
pair_coeff 1  2  1.5  0.8
pair_coeff 2  2  0.5  0.88

write_data data.0
System init for write_data ...
Neighbor list info ...
  update every 1 steps, delay 10 steps, check yes
  max neighbors/atom: 2000, page size: 100000
  master list distance cutoff = 3.8
  ghost atom cutoff = 3.8
  binsize = 1.9, bins = 9 9 9
  1 neighbor lists, perpetual/occasional/extra = 1 0 0
  (1) pair lj/cut, perpetual
      attributes: half, newton on
      pair build: half/bin/atomonly/newton
      stencil: half/bin/3d
      bin: standard
WARNING: Not all mixed pair coeffs generated from mixing. Use write_data with 'pair ij' option to store all pair coeffs. (../write_data.cpp:312)


#############################
#   M E L T   S Y S T E M   #
#############################

velocity all create 2.4 6583654 mom yes dist gaussian # Assign velocities
                                                    # Temperature 2.4, random number seed, zero linear momentum
                                                                                # Gaussian distribution

timestep 0.002   # simulation timestep
thermo 1000       # output thermodynamic data every 1000 steps bf 100

# Define a fix  in this case with index 1 applied to all
# particles in the simulation. This fix is for simulations
# in the anisotropic NPT ensemble. Note that we use the MTK
# correction.
fix 1 all npt temp 2.4 2.4 0.1 iso 5.68 5.68 0.5 mtk yes tchain 5 pchain 5 # Use NPT ensemble
                                                                         # Set temperature and pressure and damping
                                                                         # Numbers of thermostats in chain and in barostat
run 10000          # run for 10000 steps
Per MPI rank memory allocation (min/avg/max) = 3.642 | 3.644 | 3.648 Mbytes
Step Temp E_pair E_mol TotEng Press Volume 
       0          2.4   -6.7340002            0   -3.1349002   -3.8290783         4000 
    1000    2.3360965   -4.9418408            0   -1.4385722    5.8204702    4276.1502 
    2000    2.4421272    -4.954683            0    -1.292408    5.7530281    4280.9788 
    3000    2.4105533   -4.9536496            0   -1.3387235    5.8375134    4272.5058 
    4000    2.3872988   -4.9237454            0   -1.3436925    5.8090833    4289.8388 
    5000    2.3153177   -4.9826224            0   -1.5105142    5.2628908    4302.9044 
    6000    2.3384154   -4.8642758            0   -1.3575296     5.789035    4316.2841 
    7000    2.3912532   -4.9338238            0   -1.3478407    5.4181415    4333.0647 
    8000    2.3531429    -4.852907            0    -1.324075    5.8768083    4315.0299 
    9000    2.4528244   -4.9130463            0   -1.2347295    5.6120214    4316.3304 
   10000    2.4196406    -4.889346            0   -1.2607924    6.0084399    4289.7823 
Loop time of 2.32979 on 48 procs for 10000 steps with 4000 atoms

Performance: 741697.623 tau/day, 4292.232 timesteps/s
99.6% CPU use with 48 MPI tasks x no OpenMP threads

MPI task timing breakdown:
Section |  min time  |  avg time  |  max time  |%varavg| %total
---------------------------------------------------------------
Pair    | 1.0245     | 1.0747     | 1.1396     |   2.8 | 46.13
Neigh   | 0.19532    | 0.20758    | 0.22478    |   1.1 |  8.91
Comm    | 0.72035    | 0.8002     | 0.85532    |   3.6 | 34.35
Output  | 0.00024045 | 0.00024541 | 0.00030732 |   0.0 |  0.01
Modify  | 0.20957    | 0.23221    | 0.25554    |   2.4 |  9.97
Other   |            | 0.01488    |            |       |  0.64

Nlocal:        83.3333 ave          90 max          75 min
Histogram: 1 2 6 3 8 3 11 4 4 6
Nghost:        1568.48 ave        1606 max        1535 min
Histogram: 1 1 7 8 12 6 7 4 0 2
Neighs:        8892.98 ave        9834 max        7877 min
Histogram: 2 2 9 5 7 5 4 7 2 5

Total # of neighbors = 426863
Ave neighs/atom = 106.71575
Neighbor list builds = 904
Dangerous builds = 191

# Equilibrate just above the melting temperature to avoid step fn in T

fix 1 all npt temp 1.25 1.25 0.1 iso 5.68 5.68 0.5 mtk yes tchain 5 pchain 5
run 2000
Per MPI rank memory allocation (min/avg/max) = 3.643 | 3.645 | 3.649 Mbytes
Step Temp E_pair E_mol TotEng Press Volume 
   10000    2.4196406    -4.889346            0   -1.2607924    6.0084399    4289.7823 
   11000    1.2164124   -6.7064264            0    -4.882264    5.7028082    3490.3489 
   12000     1.272934   -6.6847049            0   -4.7757812    5.4707271    3514.6572 
Loop time of 0.537376 on 48 procs for 2000 steps with 4000 atoms

Performance: 643125.473 tau/day, 3721.791 timesteps/s
99.6% CPU use with 48 MPI tasks x no OpenMP threads

MPI task timing breakdown:
Section |  min time  |  avg time  |  max time  |%varavg| %total
---------------------------------------------------------------
Pair    | 0.24332    | 0.26036    | 0.28158    |   1.9 | 48.45
Neigh   | 0.035582   | 0.037734   | 0.0403     |   0.5 |  7.02
Comm    | 0.16549    | 0.18754    | 0.2074     |   2.4 | 34.90
Output  | 5.1654e-05 | 5.2936e-05 | 6.7189e-05 |   0.0 |  0.01
Modify  | 0.042703   | 0.046949   | 0.054065   |   1.2 |  8.74
Other   |            | 0.004733   |            |       |  0.88

Nlocal:        83.3333 ave          92 max          74 min
Histogram: 1 0 8 8 4 6 13 5 1 2
Nghost:        1793.17 ave        1831 max        1775 min
Histogram: 6 9 13 7 2 1 7 2 0 1
Neighs:        10881.2 ave       12279 max        9611 min
Histogram: 2 3 7 6 13 6 2 4 1 4

Total # of neighbors = 522299
Ave neighs/atom = 130.57475
Neighbor list builds = 141
Dangerous builds = 9

#############################
# L I N E A R  Q U E N C H  #
#############################

# Define solid atoms. This closely follows ten Wolde  Ruiz-Montero and Frenkel  Faraday Discuss  1996  104  93-110
# Compute components of the per-atom q6 vector
compute q6 all orientorder/atom degrees 1 6 components 6 nnn NULL cutoff 1.3 # compute the Q6 parameter.
                                                                             # Use all neighbours within 1.3 unit cell.

# get number of connections
compute coord_number all coord/atom orientorder q6 0.5

# An atom is solid if it has 8 or more connections (of a possible 14)
variable is_solid atom c_coord_number>=8
group solid dynamic all var is_solid    # Must be dynamic to update
dynamic group solid defined

# do clustering
compute cluster solid cluster/atom 1.3 # Create a cluster where all atoms within are solid and max 1.3 units from another member

# define chunks one chunk per cluster
compute clus_chunks solid chunk/atom c_cluster nchunk every compress yes  # Says which atoms are in which chunk

# count the size of each chunk
compute size_chunks solid property/chunk clus_chunks count


# Find the maximum entry in the vector of chunk sizes
variable max_n equal max(c_size_chunks)


# Thermo style which includes this variable
# thermo_style custom step temp pe vol v_max_n

thermo ${N}  # Print the thermo information every 100 steps
thermo 1000  

# Reset the npt fix at a lower temperature (below freezing)
fix 1  all npt temp  ${temp} ${temp}  0.1  iso  5.68  5.68  0.5  mtk yes tchain  5  pchain  5
fix 1  all npt temp  0.45 ${temp}  0.1  iso  5.68  5.68  0.5  mtk yes tchain  5  pchain  5
fix 1  all npt temp  0.45 0.45  0.1  iso  5.68  5.68  0.5  mtk yes tchain  5  pchain  5

dump dmp2 all dcd ${N} traj.dcd
dump dmp2 all dcd 1000 traj.dcd


compute msd all msd com yes
variable twopoint equal c_msd[4]/6/(step*dt+1.0e-6)
fix 9 all vector 10 c_msd[4]
variable fit equal slope(f_9)/6/(10*dt)
thermo_style custom step temp pe c_msd[4] v_twopoint v_fit v_max_n

fix 1 all npt temp 1.25 ${temp} 0.1 iso 5.68 5.68 0.5 mtk yes tchain 5 pchain 5
fix 1 all npt temp 1.25 0.45 0.1 iso 5.68 5.68 0.5 mtk yes tchain 5 pchain 5
run 2000000 # 5000000  # Run for this many steps
Neighbor list info ...
  update every 1 steps, delay 10 steps, check yes
  max neighbors/atom: 2000, page size: 100000
  master list distance cutoff = 3.8
  ghost atom cutoff = 3.8
  binsize = 1.9, bins = 9 9 9
  4 neighbor lists, perpetual/occasional/extra = 1 3 0
  (1) pair lj/cut, perpetual
      attributes: half, newton on
      pair build: half/bin/atomonly/newton
      stencil: half/bin/3d
      bin: standard
  (2) compute orientorder/atom, occasional
      attributes: full, newton on
      pair build: full/bin/atomonly
      stencil: full/bin/3d
      bin: standard
  (3) compute coord/atom, occasional
      attributes: full, newton on
      pair build: full/bin/atomonly
      stencil: full/bin/3d
      bin: standard
  (4) compute cluster/atom, occasional
      attributes: full, newton on
      pair build: full/bin/atomonly
      stencil: full/bin/3d
      bin: standard
Per MPI rank memory allocation (min/avg/max) = 9.784 | 9.791 | 9.797 Mbytes
Step Temp PotEng c_msd[4] v_twopoint v_fit v_max_n 
   12000     1.272934   -6.6847049  1.11328e-30 7.7311105e-33 8.3333333e+20            3 
   13000    1.2667898   -6.7325699   0.51064985 0.0032733964  0.041742216            1 
   14000    1.2556934   -6.7054755    0.9925321 0.0059079289  0.040318028            1 
   15000     1.229539   -6.7067584    1.4926096 0.0082922754  0.041108199            1 
   16000    1.2375642   -6.7465383    1.9084175 0.0099396742  0.039788945            1 
   17000    1.2419095   -6.7442073    2.4261672  0.011892976  0.039492027            1 
   18000    1.2348363   -6.7152279    2.9381213  0.013602413  0.039727391            3 
   19000    1.2373854   -6.7477438    3.5412306  0.015531713   0.04072724            1 
   20000    1.2507769   -6.7775256    4.0757583  0.016982326  0.041673507            1 
   21000    1.2727201   -6.7661699    4.5975187  0.018244121  0.042272355            2 
   22000     1.257434   -6.7060716    5.1498477  0.019506999  0.042757868            1 
   23000    1.2547138    -6.742935    5.6624676  0.020516187  0.043131057            2 
   24000    1.2487169   -6.7545698    6.1763745  0.021445744  0.043181524            2 
   25000    1.2474942   -6.7737012    6.7471108  0.022490369  0.043400424            1 
   26000    1.2553312   -6.7274536    7.1923637  0.023052447  0.043433666            2 
   27000    1.2528402     -6.75592    7.6785226  0.023699143  0.043364376            2 
   28000    1.2528373   -6.7039062    8.1754368  0.024331657   0.04323926            1 
   29000    1.2637153   -6.7508729    8.6943557   0.02498378  0.043119453            3 
   30000    1.2687736   -6.7791786    9.1930943  0.025536373   0.04304573            1 
   31000    1.2450459   -6.7162408    9.6457885  0.025929539  0.042941088            1 
   32000    1.2510535   -6.7694488    10.111783  0.026332769  0.042814662            2 
   33000    1.2033931   -6.7256772    10.693132  0.027002857  0.042731206            1 
   34000    1.2402259    -6.733761    11.176157  0.027392541  0.042663878            2 
   35000    1.2583012   -6.7314463    11.604838  0.027630566   0.04257157            1 
   36000    1.2446088   -6.7287915    12.109974  0.028032347  0.042478491            1 
   37000    1.2245069   -6.7685407    12.491695  0.028134449  0.042362925            1 
   38000    1.2063022   -6.7188373    12.935144  0.028366543  0.042174596            1 
   39000    1.2419463   -6.7461744    13.501729  0.028849848  0.042036499            1 
   40000    1.2568883   -6.7626439    14.184163   0.02955034  0.042007629            3 
   41000    1.2405643   -6.8088151    14.670767  0.029818632   0.04203557            1 
   42000    1.2550252   -6.7216947    15.159971  0.030079307  0.042050077            2 
   43000    1.2520288   -6.7530051    15.602715  0.030237819  0.042055474            1 
   44000     1.217983   -6.7594866     16.17228  0.030629317  0.042037882            1 
   45000    1.2654488   -6.7490544    16.580792  0.030705169   0.04200896            1 
   46000     1.191912   -6.7700613    17.054437  0.030895719  0.041950873            1 
   47000    1.2383127   -6.7062927    17.501075  0.031030275  0.041881115            3 
   48000     1.245274   -6.7533241    17.979133  0.031213773  0.041824488            1 
   49000    1.2365406   -6.7720365    18.474277  0.031418837  0.041769842            1 
   50000     1.256454   -6.7456914    19.005564   0.03167594  0.041719936            1 
   51000    1.2362482   -6.7474304    19.579799  0.031993135  0.041687819            1 
   52000     1.231707   -6.7639896    20.094227  0.032202287  0.041680381            2 
   53000    1.2293803   -6.7794321    20.436342  0.032132613  0.041679607            3 
   54000    1.2410126   -6.7397322    20.918151  0.032281097  0.041645614            1 
   55000    1.2169325    -6.771297    21.402024  0.032427309  0.041598011            2 
   56000    1.2356539   -6.8068817    21.896808  0.032584535   0.04156187            3 
   57000    1.2119441   -6.7302496     22.28501  0.032580423   0.04150843            2 
   58000    1.2441116   -6.7522698    22.635484  0.032522246  0.041426028            1 
   59000    1.2296076   -6.7619258    22.978424    0.0324554  0.041337289            1 
   60000    1.2255532   -6.7528633    23.448981  0.032568029  0.041233185            1 
   61000    1.2168738   -6.7494617    23.845989  0.032576488  0.041128759            1 
   62000    1.2161186   -6.8071044    24.221666  0.032556002  0.041009653            1 
   63000    1.2429062   -6.7484363    24.700263  0.032672305  0.040888971            3 
   64000    1.2153453   -6.7308497    25.099483  0.032681618  0.040776228            2 
   65000     1.225583   -6.7778256    25.526598  0.032726408   0.04065959            1 
   66000    1.2490849   -6.7434499    26.082793  0.032932819  0.040556687            2 
   67000    1.2165023   -6.7475687    26.544605  0.033015678   0.04046015            2 
   68000    1.2504219    -6.769662    27.185672  0.033315774  0.040390586            3 
   69000    1.2112726   -6.7245423    27.680457  0.033430503  0.040333735            2 
   70000    1.1991185   -6.7558509    28.029042  0.033367907  0.040284112            2 
   71000    1.2309329   -6.7608898    28.318982  0.033238242  0.040212015            1 
   72000    1.2153219   -6.7740826    28.722288  0.033243388  0.040130181            2 
   73000    1.2163143   -6.7833864     29.17286  0.033302352  0.040052221            1 
   74000    1.2276316    -6.777406    29.696205  0.033441672  0.039982432            2 
   75000    1.2433936   -6.7760344    30.186226  0.033540251  0.039920739            3 
   76000    1.2301946   -6.7942935    30.625561  0.033580659  0.039863365            1 
   77000    1.2303717   -6.7828066    31.343751  0.033921808  0.039822272            4 
   78000    1.2109359   -6.7614109    31.949227  0.034133789  0.039801767            3 
   79000    1.2586835   -6.8081701    32.187198   0.03395274  0.039779877            1 
   80000    1.2145928   -6.7386108      32.7307  0.034094479  0.039756965            4 
   81000    1.2362771   -6.7757693     33.40216  0.034364362  0.039745502            1 
   82000    1.2105957   -6.7448388    34.068301  0.034622257  0.039748747            2 
   83000    1.2231005   -6.7609658    34.355429  0.034493402  0.039747415            3 
   84000    1.2235278     -6.75883    34.765911  0.034489991  0.039746403            1 
   85000    1.2062729   -6.7922168    35.220076  0.034529486  0.039732937            2 
   86000    1.2424779   -6.8003581    35.677051  0.034570786  0.039716994            1 
   87000    1.2182669   -6.7935318    36.245962  0.034718354  0.039708317            1 
   88000    1.2319585   -6.7674244    36.435966  0.034503755  0.039686935            2 
   89000     1.197828   -6.7882068    37.051621  0.034692529  0.039668379            2 
   90000    1.2077224   -6.8153106    37.432415  0.034659643  0.039657605            4 
   91000    1.2167787   -6.7611313    37.848463  0.034659765  0.039637544            1 
   92000    1.2507104   -6.8272921    38.170578  0.034574798  0.039613792            1 
   93000    1.2315495   -6.7675232    38.733938  0.034707829   0.03958693            1 
   94000    1.2378216   -6.8236332    39.000045  0.034574508  0.039553786            2 
   95000    1.2260996   -6.7956539    39.312953  0.034485046  0.039509262            2 
   96000    1.2305838   -6.7946984    39.858203  0.034599135  0.039469582            3 
   97000    1.1976115   -6.8276627     40.39031  0.034699579  0.039439165            3 
   98000    1.2170016   -6.7457875    40.930279  0.034804659  0.039413421            1 
   99000    1.1901007    -6.787532    41.195433   0.03467629  0.039382033            2 
  100000    1.1991106   -6.7865577    41.639758  0.034699798  0.039349119            2 
  101000     1.207616   -6.8061629    42.082413  0.034721463  0.039318589            1 
  102000    1.2251889   -6.7924275    42.618952  0.034819405  0.039286891            1 
  103000    1.1938603   -6.7982434    42.926158  0.034729901  0.039256031            2 
  104000     1.229712   -6.7760168    43.474886  0.034835646  0.039224902            1 
  105000    1.2162969     -6.82334     43.85148  0.034802761  0.039195162            2 
  106000    1.1978929   -6.7940725    44.088195  0.034660531  0.039164255            2 
  107000    1.2099637   -6.8056374    44.780308  0.034875629  0.039130074            1 
  108000    1.2055391   -6.7965073    45.091308  0.034792676   0.03910055            2 
  109000    1.2392611   -6.8006287    45.631656  0.034886587   0.03906565            3 
  110000    1.2115288   -6.8023968    46.019306  0.034863111  0.039033061            1 
  111000    1.1950863   -6.8243339    46.344108  0.034792874  0.038996243            2 
  112000    1.1920056   -6.8533106    46.661951  0.034718713  0.038957168            2 
  113000    1.2045489   -6.7547176     47.39209  0.034949919   0.03891893            2 
  114000    1.2332607   -6.7813257    47.903395  0.035017102  0.038887515            1 
  115000    1.2218886   -6.8009724    48.175765  0.034909975  0.038858183            3 
  116000    1.2022345   -6.8362991    48.401994  0.034771548  0.038827821            3 
  117000    1.2079646    -6.802394    48.936318  0.034854928  0.038796038            1 
  118000    1.1980267   -6.8254399    49.508948  0.034963946  0.038766611            2 
  119000    1.1831524   -6.8423186    49.804178  0.034876875  0.038738825            5 
  120000    1.2090918   -6.8009732    50.668675  0.035186579  0.038717569            1 
  121000    1.2160772   -6.8545419    51.154254  0.035230202   0.03869733            1 
  122000    1.1749976   -6.8235843    51.484768  0.035167191  0.038686798            1 
  123000    1.1872398   -6.8420121    52.243769  0.035395508  0.038678596            2 
  124000    1.1820129    -6.803382    52.753043  0.035452314   0.03867627            2 
  125000    1.2008346   -6.8500803    53.111884  0.035407922  0.038670776            1 
  126000    1.2213255   -6.8719078    53.571775  0.035431068  0.038665517            1 
  127000    1.2071867   -6.8672899    53.869997  0.035347767  0.038652921            2 
  128000    1.2225244   -6.8838815    54.297196  0.035349737  0.038640908            1 
  129000    1.2109545     -6.80022    54.935504  0.035488051  0.038633163            1 
  130000    1.2408631   -6.8260298     55.24387  0.035412737   0.03862735            3 
  131000    1.2038243   -6.8020949    55.927959  0.035577582  0.038618306            1 
  132000    1.1934028   -6.7875846    56.363791  0.035583201  0.038609983            2 
  133000    1.1975547   -6.8030725    56.875636  0.035636363    0.0386001            1 
  134000    1.1554762   -6.8435202    57.355469  0.035668824  0.038595849            1 
  135000    1.1950081   -6.8070858    57.732366  0.035637263  0.038593654            1 
  136000    1.1952612   -6.8321433    58.161072  0.035637912   0.03858918            4 
  137000    1.1856445   -6.7885214    58.538287   0.03560723   0.03858159            1 
  138000    1.2155605   -6.7813721    59.127072  0.035704753   0.03856911            2 
  139000     1.208672   -6.8462809     59.07119  0.035414382   0.03855762            2 
  140000    1.1973821   -6.8194533    59.706526  0.035539598   0.03854177            2 
  141000     1.191859    -6.852876    59.903692  0.035404073  0.038524312            2 
  142000    1.2043861   -6.8374671    60.464884  0.035484087  0.038505299            2 
  143000    1.2185148   -6.8456634    61.014171  0.035556043  0.038493908            1 
  144000    1.1849309     -6.84793     61.68424  0.035696898  0.038489044            1 
  145000    1.1555323   -6.8173212    62.288593  0.035798042  0.038487667            1 
  146000    1.2060633   -6.8297532    62.905359  0.035904885  0.038487096            3 
  147000    1.1841512   -6.8086988    63.185033  0.035819179  0.038486557            2 
  148000    1.1748572   -6.7965157    63.538609  0.035776244  0.038479277            1 
  149000    1.1993755   -6.8259679    63.545221  0.035539832  0.038465154            1 
  150000    1.1526887   -6.8222921    64.323106  0.035735059  0.038451301            3 
  151000    1.1946941   -6.8532998    64.587986  0.035644584   0.03843813            1 
  152000    1.1791969   -6.8312091    64.894111  0.035577912  0.038422755            1 
  153000    1.1969516   -6.8339868     65.55804  0.035706993  0.038404165            2 
  154000    1.2144382   -6.8059504    65.815005   0.03561418  0.038390026            2 
  155000    1.1674438    -6.844667    66.310649  0.035650887  0.038373471            2 
  156000    1.2040816   -6.8484357     66.88404  0.035728653  0.038361641            3 
  157000    1.1800773   -6.8479336    67.205846  0.035671893  0.038347615            2 
  158000    1.2082507   -6.8236399    67.418049  0.035558042  0.038330224            2 
  159000    1.1820903   -6.8073147    68.028569  0.035654386   0.03831125            2 
  160000    1.2174181   -6.8662857    68.323509  0.035585161  0.038291549            2 
  161000     1.202038   -6.8844142    68.689769  0.035553711  0.038278256            1 
  162000     1.187455   -6.8480821    69.169789  0.035581167  0.038258401            1 
  163000    1.1727557   -6.8508502     69.44595  0.035504064  0.038239872            1 
  164000    1.1818422   -6.8347321    70.202523  0.035672014  0.038223734            2 
  165000    1.1754595   -6.8466823     70.83863  0.035777086  0.038210131            1 
  166000    1.1784147   -6.8715037    70.973547   0.03562929  0.038197295            1 
  167000    1.2141335   -6.8377132     71.89388  0.035875189  0.038183427            3 
  168000    1.2106472   -6.8134712    72.283707  0.035855013  0.038173352            2 
  169000    1.1744772   -6.8412227    72.470806  0.035735111  0.038162653            1 
  170000    1.2198096   -6.8245137    73.134145  0.035850071  0.038152359            3 
  171000    1.1991799   -6.8234279    73.365251  0.035753046  0.038140639            2 
  172000    1.1637057   -6.8526631    74.010558  0.035857828  0.038131033            2 
  173000    1.1780018   -6.8059027    74.355558  0.035816742  0.038119997            1 
  174000    1.1807393   -6.8521497    74.783278  0.035815746  0.038111877            1 
  175000    1.1770856   -6.8238741    75.110001  0.035766667  0.038101321            1 
  176000    1.1706108    -6.849136    75.377665  0.035690182  0.038089067            1 
  177000    1.1451863   -6.8394824    75.830301  0.035701648  0.038076869            2 
  178000    1.1928048   -6.8955292    76.447732  0.035790136  0.038065236            5 
  179000    1.1832961   -6.8673637    76.910242  0.035805513  0.038054429            1 
  180000    1.2020808   -6.8877362    77.158782  0.035721658  0.038045828            1 
  181000    1.2184209   -6.9022378    78.032295  0.035926471  0.038039644            2 
  182000    1.1666234   -6.8660162    78.371084  0.035884196  0.038030264            1 
  183000    1.1846929   -6.8553491    78.756925  0.035863809  0.038020724            1 
  184000    1.1824854   -6.8418808     79.32004  0.035923931  0.038011937            1 
  185000    1.2188726   -6.8839928    79.525108  0.035822121  0.038002163            1 
  186000    1.1727218   -6.8662706    80.116778  0.035894614  0.037990862            2 
  187000      1.17998   -6.8984196    80.735668  0.035978462  0.037981574            1 
  188000      1.17881   -6.8376459    81.275507  0.036026377  0.037976701            3 
  189000    1.1734711   -6.8362937    81.658052  0.036004432  0.037971222            2 
  190000    1.1782386   -6.8655632    81.554698  0.035769604  0.037962094            2 
  191000    1.1965148   -6.8998511    82.105382  0.035822593  0.037950732            2 
  192000     1.193798   -6.8896438    82.518179  0.035815182  0.037941567            2 
  193000    1.1518624   -6.9145415    83.149419  0.035902167  0.037932232            3 
  194000    1.1687048   -6.8938347    83.150475  0.035717558   0.03792249            1 
  195000    1.1787681   -6.8312282    84.029222  0.035909924   0.03791191            3 
  196000    1.1533538     -6.83265    84.665816  0.035997371  0.037901739            2 
  197000    1.1648742   -6.8573188    84.777928  0.035862068  0.037890625            1 
  198000    1.1913023   -6.8600323    85.174559  0.035847878   0.03787865            2 
  199000    1.1708654   -6.8754421    85.592328  0.035842683  0.037866267            1 
  200000    1.1580304   -6.8764032    85.767896  0.035736623  0.037852877            2 
  201000    1.1253096   -6.8377773    86.241635  0.035755238  0.037837868            2 
  202000    1.1843351   -6.8819843      86.6154  0.035732426  0.037823984            2 
  203000     1.168632   -6.8692904    86.732416   0.03560444  0.037808956            2 
  204000    1.1440922   -6.8963031    87.408077  0.035705914  0.037792636            1 
  205000    1.1810337   -6.9062429    87.745281  0.035668813  0.037775505            1 
  206000    1.1698682   -6.8437285    88.051201  0.035619418  0.037757402            2 
  207000    1.1902388   -6.9045713    88.279564  0.035539277  0.037740402            3 
  208000    1.1800474   -6.9224693    88.632017  0.035509622  0.037720784            1 
  209000    1.1529377    -6.898711    89.136477   0.03554086   0.03770233            1 
  210000    1.1718249   -6.8686246    89.736047  0.035609543  0.037685124            1 
  211000    1.1916253   -6.9077836    90.141555   0.03560093  0.037669208            3 
  212000    1.1481363   -6.8371607     91.04492  0.035788097  0.037656225            1 
  213000    1.1758992   -6.8830485    91.289828  0.035715895   0.03764059            4 
  214000    1.1707949   -6.8633066    91.589382  0.035665647  0.037623628            1 
  215000    1.1868351   -6.9044677    91.536848  0.035479398  0.037609195            2 
  216000     1.173152   -6.9081903    92.346523  0.035627517  0.037592975            1 
  217000    1.1698554   -6.9394587    92.598191  0.035559981  0.037576525            1 
  218000     1.199496   -6.8500475    93.387746   0.03569868  0.037560371            1 
  219000    1.1501483   -6.8588646    93.877475  0.035722023  0.037546696            1 
  220000    1.1769988   -6.9180619    94.584949  0.035827632  0.037535211            1 
  221000    1.1256956    -6.915511    94.807171   0.03574931  0.037524791            1 
  222000    1.1843857   -6.8705579    95.595893  0.035884344  0.037516121            1 
  223000    1.1752598   -6.9058171    95.976191  0.035865542  0.037509863            1 
  224000      1.17572   -6.9183082    96.487166  0.035895523  0.037503166            2 
  225000    1.1712048   -6.9282899    96.745423  0.035831638   0.03749446            1 
  226000    1.1716394   -6.8750349    97.801094   0.03606235  0.037488652            2 
  227000    1.1567879   -6.9207631     98.20819  0.036052933  0.037487012            2 
  228000     1.155834   -6.9066509    98.513855  0.036006526  0.037483909            3 
  229000     1.162079   -6.9233205    98.671311   0.03590659  0.037479618            3 
  230000    1.1834491   -6.9078173    99.042557  0.035884984  0.037472693            1 
  231000    1.1692103   -6.8960902    99.507113  0.035897227  0.037466438            2 
  232000    1.1506959   -6.9244215    99.458506  0.035725038  0.037459888            2 
  233000    1.1732824    -6.891884    100.35091  0.035890882  0.037449481            3 
  234000    1.1594201    -6.916526    100.78272  0.035891283  0.037440532            4 
  235000    1.1610582   -6.9163487    100.68538  0.035704036  0.037429357            1 
  236000    1.1245412   -6.9424244    101.12491   0.03570795  0.037418065            2 
  237000    1.1840502   -6.9226774     101.4043  0.035655519  0.037406432            1 
  238000    1.1785017   -6.8877833    101.74774  0.035625958  0.037393255            3 
  239000    1.1660341   -6.8925473    101.92764  0.035539623  0.037378815            1 
  240000    1.1389085   -6.9369043    102.08715  0.035446925  0.037362495            1 
  241000    1.1776924   -6.9287612      102.652  0.035495159  0.037346436            2 
  242000      1.14839   -6.9066044    103.10574  0.035504733  0.037330701            2 
  243000    1.1480451   -6.9285926    103.22451  0.035399353  0.037313966            2 
  244000    1.1424603   -6.8910204    103.97591  0.035510897  0.037297496            2 
  245000    1.1602308   -6.8852122    104.51191   0.03554827  0.037283404            1 
  246000    1.1838994    -6.923946    104.54538  0.035415102    0.0372696            1 
  247000    1.1621088   -6.9287632    104.88037   0.03538474  0.037253134            2 
  248000    1.1512947   -6.8794986    105.60396    0.0354852  0.037236895            2 
  249000     1.176282   -6.9011555     106.0256    0.0354838  0.037219748            1 
  250000    1.1215044   -6.8797646    106.00438  0.035334792  0.037201163            1 
  251000    1.1229258   -6.8924445    106.39372   0.03532328  0.037182554            1 
  252000     1.143647   -6.9220113    107.16574  0.035438405  0.037164031            1 
  253000    1.1531832   -6.8837439    107.42576  0.035383979  0.037145556            1 
  254000    1.1543856   -6.9360648    107.72976  0.035344411  0.037126211            2 
  255000     1.135173   -6.9235008     107.9064   0.03526353  0.037106054            1 
  256000    1.1285201   -6.9602606    108.18097  0.035215158  0.037085592            1 
  257000    1.1920648   -6.9337348     108.8582  0.035297731  0.037067058            1 
  258000    1.1317191   -6.9123847    109.21573  0.035276399  0.037048516            1 
  259000    1.1513548   -6.9558331    109.84841   0.03534376  0.037030318            1 
  260000    1.1507252   -6.8971605    109.87958  0.035217814  0.037011894            2 
  261000    1.1422174   -6.9444447    109.83819  0.035069666  0.036992549            3 
  262000    1.1831337   -6.8863739    110.02869  0.034996402  0.036970874            3 
  263000    1.1602015   -6.9185766     110.6709  0.035066825  0.036948036            1 
  264000    1.1658406   -6.9112631    110.89616  0.035005103  0.036925206            1 
  265000    1.1434744   -6.8831101     111.4697  0.035053364  0.036901594            2 
  266000    1.1268343   -6.9043834    111.84263  0.035038418  0.036879857            2 
  267000    1.1404775   -6.9114762    112.39007   0.03507805  0.036859286            2 
  268000    1.1453851   -6.9129867    112.91443  0.035110208  0.036839537            2 
  269000    1.1277381   -6.9330543    113.41029  0.035133299  0.036818832            1 
  270000    1.1404173   -6.9016246    113.68329  0.035087436   0.03679901            2 
  271000    1.1462588   -6.8932224    114.25464  0.035133653  0.036780112            1 
  272000    1.1544425    -6.938663    114.15705  0.034974588  0.036760169            2 
  273000    1.1305293   -6.8989008    114.67108  0.035003382  0.036740406            1 
  274000     1.134698   -6.9116412    115.14375  0.035019389  0.036720071            4 
  275000     1.155947   -6.9144574    115.24674  0.034923254    0.0367002            1 
  276000    1.1500411   -6.9273761    115.50479  0.034874635  0.036677915            2 
  277000    1.1441079   -6.9425956    115.95909  0.034885408  0.036656933            2 
  278000    1.1522207   -6.9672083    116.04486  0.034785629  0.036636046            1 
  279000    1.1468236   -6.9362365    116.69521  0.034855201  0.036614605            2 
  280000    1.1481102   -6.9324564    117.34206  0.034923233  0.036593662            3 
  281000    1.1449997   -6.9752339    117.77615  0.034927684  0.036572074            2 
  282000    1.1332997    -6.962641    117.77149  0.034802449  0.036550305            1 
  283000    1.1431521   -6.9186789    118.42456  0.034871777  0.036528056            3 
  284000    1.1306926   -6.9247662    118.64877  0.034814779  0.036507575            2 
  285000    1.1569557   -6.9624316    119.07371  0.034816874  0.036487492            1 
  286000    1.1538546   -6.9719544    119.70231  0.034878297  0.036467047            2 
  287000    1.1209795   -6.9848643    119.52559  0.034705457  0.036447353            2 
  288000    1.1544166   -6.9703501    120.21663  0.034784905  0.036426552            2 
  289000    1.1434747   -6.9202763    120.57923  0.034769098  0.036407214            2 
  290000    1.1062507    -6.954677    121.36807  0.034875882  0.036387557            2 
  291000    1.1247868   -6.9901111      121.972  0.034928982   0.03636863            1 
  292000    1.1370312   -6.9843022    121.93833  0.034799751  0.036350408            2 
  293000    1.1275133   -6.9472117    122.85177  0.034940776  0.036332308            2 
  294000    1.1363642   -6.9432403     123.4976  0.035004988  0.036315681            1 
  295000     1.161174   -6.9313699    123.70108  0.034943808  0.036299796            1 
  296000    1.1320323   -6.9332797    124.27213  0.034986524  0.036284656            1 
  297000    1.1185251   -6.9316513    124.50263  0.034933398  0.036268548            1 
  298000    1.1590289   -6.9588476    124.65697  0.034859332   0.03625139            1 
  299000    1.1484891   -6.9925486     124.9437   0.03482266   0.03623444            1 
  300000    1.1469883   -6.9570675     125.3756  0.034826556  0.036216356            5 
  301000    1.1224536   -6.9472351    125.94028  0.034867187  0.036199964            2 
  302000    1.1448634   -6.9602509    126.18833  0.034820179  0.036183983            2 
  303000    1.1489722   -6.9418696    126.53541  0.034800716  0.036167988            1 
  304000    1.1205494   -6.9373296     127.2129  0.034871957   0.03615112            2 
  305000    1.1437124   -6.9424836    127.44561  0.034821206   0.03613478            2 
  306000    1.1238749   -6.9222767    127.48804  0.034718966  0.036118579            3 
  307000    1.1255615   -6.9743264    128.19994  0.034799114  0.036103556            3 
  308000    1.1289502   -6.9517153    128.57101  0.034786528  0.036088057            1 
  309000     1.127816   -6.9626172    128.83331  0.034744689  0.036073893            3 
  310000    1.1200889   -6.9568443    129.11671  0.034708792  0.036058504            1 
  311000    1.1198275   -6.9320102    129.89652  0.034806142  0.036043515            2 
  312000    1.1312541   -6.9716726    129.88397  0.034691232  0.036027794            1 
  313000    1.1282099   -7.0046014    129.87669  0.034578459  0.036011811            2 
  314000    1.1155995   -6.9585986    130.56556  0.034651158  0.035994747            4 
  315000    1.1388973   -6.9946822    130.57425  0.034543453  0.035977506            2 
  316000    1.1276586   -6.9552717    131.15193  0.034586479  0.035959815            3 
  317000    1.1140397   -6.9981793    131.33675  0.034525958  0.035941392            4 
  318000    1.1032886    -6.977136    131.99704  0.034590419  0.035923814            1 
  319000    1.1199528   -6.9561428    132.15345  0.034522844  0.035906498            2 
  320000    1.1062276   -6.9738523    132.33775  0.034462955  0.035889305            1 
  321000    1.1324517   -6.9690402    133.15008   0.03456648  0.035871972            2 
  322000    1.1033916   -6.9555912    133.09447   0.03444474  0.035854476            2 
  323000    1.1487878   -6.9208673    133.82457  0.034526463  0.035836746            1 
  324000     1.123597   -7.0042984    133.75711  0.034402549  0.035818304            6 
  325000    1.1155497    -7.003237    134.28493  0.034432033  0.035799952            2 
  326000     1.146393   -6.9802304    134.21302  0.034308032  0.035780735            1 
  327000    1.1137359   -6.9879652    134.78255  0.034348254   0.03576205            2 
  328000    1.1452969   -6.9965108    135.01565  0.034302758  0.035741706            2 
  329000    1.1207585   -6.9699496    135.32414  0.034276631  0.035723439            2 
  330000     1.122227   -6.9937756    135.36848  0.034183959   0.03570304            2 
  331000    1.1244733    -6.993666    135.85224  0.034202479  0.035682386            1 
  332000    1.1154779   -6.9995243    135.83455  0.034095016  0.035660191            1 
  333000    1.1175677   -7.0288069    136.29877  0.034108801   0.03563727            1 
  334000    1.1499677   -6.9943955    136.63493  0.034090552  0.035616067            1 
  335000    1.1415156   -7.0083729     137.3038  0.034155173  0.035594061            2 
  336000    1.1411767   -7.0247078    137.43211  0.034085344  0.035572442            1 
  337000    1.1381131   -7.0061755    137.79949  0.034075047  0.035551369            3 
  338000    1.0919356   -7.0022193    138.10581  0.034049756  0.035530376            3 
  339000     1.114049   -7.0084015    138.36284  0.034012499  0.035508307            2 
  340000    1.1032966   -6.9977782    138.72179  0.034000439  0.035486383            2 
  341000    1.1334034   -6.9697677    139.26571  0.034033653  0.035464839            3 
  342000    1.1257907    -7.007957    140.22291  0.034167377  0.035442913            1 
  343000    1.1286437   -6.9940594    139.92314  0.033994931  0.035421539            3 
  344000    1.1327545   -7.0141451    139.72313  0.033847657  0.035398596            1 
  345000    1.1291967   -6.9765613    140.44481  0.033923867  0.035375761            2 
  346000    1.1010182   -6.9933287    140.87537   0.03392952  0.035353617            2 
  347000    1.1080334   -6.9842587    140.72239  0.033795003  0.035331299            2 
  348000    1.1243841   -7.0188064     141.1694  0.033804934  0.035307849            1 
  349000    1.0910798    -7.055836     140.8877  0.033640808  0.035284044            1 
  350000    1.1393929   -6.9804417    141.96299  0.033800711  0.035259448            1 
  351000    1.1118529   -7.0285976    142.01658  0.033717137  0.035235254            2 
  352000    1.1263204   -6.9884413    142.60906  0.033761614  0.035211165            1 
  353000     1.105389   -6.9648352    142.75036   0.03369933  0.035187638            3 
  354000    1.0919341   -7.0073328    142.71805  0.033596528  0.035163621            3 
  355000    1.1351378   -7.0033376    142.83108  0.033528423   0.03513926            1 
  356000    1.0974596   -6.9899331    143.40673  0.033568991   0.03511441            3 
  357000    1.1111178   -6.9950958    143.43756  0.033482157  0.035089658            3 
  358000    1.1086973   -7.0159061    143.77806  0.033467892  0.035064053            2 
  359000      1.12361   -7.0329121    144.30455  0.033496879  0.035037793            2 
  360000    1.1100719   -6.9924201    144.61748  0.033476268  0.035012304            2 
  361000    1.1249716   -7.0108551    144.42802  0.033339802  0.034985244            3 
  362000    1.1062182   -6.9956504    144.93756     0.033365  0.034959098            2 
  363000    1.0903924   -6.9839755    145.72365  0.033453547  0.034932374            2 
  364000    1.0753003   -6.9928736    145.62984  0.033340166  0.034906318            1 
  365000    1.1225641   -7.0124046    146.09216  0.033354374   0.03488113            1 
  366000    1.1065652   -7.0065064    146.56175  0.033370162  0.034854541            2 
  367000     1.097105     -7.03357    146.14816  0.033185323  0.034828881            2 
  368000    1.0746212   -7.0380583     146.6499  0.033208762  0.034802022            3 
  369000    1.1146511   -7.0320715    147.07971  0.033215834  0.034774744            2 
  370000    1.1145961   -7.0220663    147.10763  0.033132349   0.03474815            3 
  371000    1.1282605   -7.0071074    147.67291  0.033170016  0.034721001            2 
  372000    1.1104957     -7.00916    147.55717  0.033054922   0.03469311            2 
  373000    1.1156299   -7.0018293    147.57198  0.032969611  0.034664155            3 
  374000    1.0914497   -7.0025237    147.84034  0.032941252  0.034636081            1 
  375000    1.0942429   -6.9418757    148.78616  0.033063592  0.034608691            1 
  376000     1.096272   -7.0131406    149.28763  0.033086797  0.034581867            2 
  377000    1.1228374   -7.0113246    149.67739  0.033085187  0.034555069            2 
  378000    1.0991516   -7.0562397    149.60291  0.032981241  0.034528425            3 
  379000    1.1180567   -7.0594776    150.08246  0.032999662    0.0345014            1 
  380000    1.0929064   -7.0366641    150.69276  0.033046657  0.034475711            1 
  381000    1.0792738   -7.0196294    150.99823  0.033026735  0.034449843            3 
  382000    1.0883118   -7.0498732    151.45483  0.033039884  0.034424581            2 
  383000    1.0976828   -7.0306534    151.19241  0.032896522  0.034398998            1 
  384000    1.1146274    -6.999184    151.82488  0.032948107  0.034373621            1 
  385000    1.1040654   -7.0411629    152.00688  0.032901922  0.034348224            2 
  386000    1.0813621   -6.9950904    152.58207  0.032940862  0.034322985            2 
  387000    1.0956017    -7.001743    152.65027  0.032870428  0.034298241            2 
  388000    1.1198678   -7.0572083      153.146  0.032892181  0.034272718            2 
  389000     1.104608   -6.9938059    154.15168  0.033023067  0.034247945            2 
  390000    1.1201877   -7.0124039    153.60337  0.032821234  0.034223746            1 
  391000    1.0871528   -7.0107577    153.91964  0.032804697  0.034198846            2 
  392000    1.1173523   -7.0579874    154.06058  0.032750973   0.03417373            2 
  393000    1.1050134   -7.0218909    154.50936  0.032762798  0.034148688            1 
  394000    1.0990554   -7.0235772    154.91976  0.032766446  0.034123859            1 
  395000    1.0946618   -7.0427716    155.48612  0.032802978  0.034098586            2 
  396000    1.1005157   -7.0540553    155.57208  0.032738231  0.034074533            2 
  397000    1.1059092   -7.0294131    156.51618  0.032853943  0.034051468            4 
  398000    1.0938419    -7.032083    156.38105  0.032743101  0.034027947            2 
  399000    1.1016264    -7.061439    156.94685  0.032779209  0.034003993            3 
  400000      1.11591   -7.0054932    157.51965  0.032816594  0.033980646            2 
  401000     1.083644     -7.08798    157.09663  0.032646847  0.033956587            2 
  402000    1.0805481   -7.0536412     158.2375  0.032802135  0.033933338            2 
  403000    1.0909642   -7.1026523    157.78655  0.032627491  0.033910455            1 
  404000    1.1027228   -7.0581489    159.02702  0.032802602  0.033887613            1 
  405000    1.0656649   -7.0432889    158.81287  0.032677546  0.033864674            1 
  406000    1.0885752   -7.0569732     159.1512  0.032666503  0.033841476            2 
  407000    1.1150361   -7.0341561    160.10038  0.032780585  0.033817985            4 
  408000    1.0879906   -7.0539719    159.75537  0.032629774  0.033794852            2 
  409000    1.0923682   -7.0695749    160.05614  0.032611275  0.033771701            2 
  410000    1.0910823   -7.0437635    160.42354  0.032606411  0.033749235            5 
  411000    1.0763196   -7.0328545    161.21556  0.032687665  0.033727173            3 
  412000    1.0986235   -7.0024749    162.06099  0.032779327  0.033705568            3 
  413000    1.0702654   -7.0398873    161.32237  0.032550923   0.03368397            1 
  414000    1.0771642   -7.0361783    162.06007  0.032620788  0.033662151            4 
  415000    1.0739753   -7.0835545    162.25575  0.032581476   0.03364046            2 
  416000     1.091385   -7.0692024    162.22799  0.032497593  0.033618958            1 
  417000    1.0847406    -7.063963    162.92286  0.032558525  0.033597801            2 
  418000    1.0995269   -7.0751608    163.46196   0.03258811  0.033576981            4 
  419000    1.0829665   -7.0526353    164.08124  0.032633501  0.033557077            1 
  420000    1.0900747   -7.0615742    163.92459  0.032524721  0.033536497            1 
  421000    1.1047887   -7.0571972    163.57714   0.03237869   0.03351561            4 
  422000    1.0951621   -7.0495008    164.86387  0.032556056  0.033494716            2 
  423000    1.0913246   -7.0871771     164.0769  0.032324054  0.033473737            1 
  424000    1.0966144   -7.0598657    165.14686   0.03245811  0.033452987            1 
  425000    1.0869527   -7.0648142    165.36974   0.03242544  0.033431972            3 
  426000    1.0852645   -7.0602423    165.89319  0.032451719  0.033410974            1 
  427000    1.1084845   -7.0261546    166.18392   0.03243246  0.033390392            3 
  428000    1.0831418   -7.0565859    166.64308  0.032446082  0.033369782            3 
  429000    1.0901733   -7.0733276    166.81184  0.032403233  0.033349005            2 
  430000    1.0687965   -7.0896502    166.81861  0.032329188   0.03332849            3 
  431000     1.062967   -7.1063932    166.88643  0.032267291  0.033306893            3 
  432000    1.0734841   -7.0828386    167.08839  0.032231557  0.033285267            3 
  433000    1.0656159   -7.0637109    168.00013  0.032332588  0.033264117            1 
  434000    1.0749768   -7.0758443    168.14616  0.032286129   0.03324332            1 
  435000    1.0652099   -7.0549298    168.91983   0.03236012  0.033222992            2 
  436000    1.0788625    -7.049542    169.09402  0.032319193  0.033203527            2 
  437000    1.0529026    -7.083056    169.04874  0.032236603  0.033183366            2 
  438000    1.0719107   -7.1069412    169.24594  0.032200521  0.033163045            1 
  439000    1.0862111   -7.0832439    170.10898  0.032290999  0.033142276            2 
  440000    1.0650237   -7.0833924    169.94551  0.032186649  0.033121387            5 
  441000    1.0997973   -7.0418954    170.38888  0.032197445  0.033101178            5 
  442000    1.0940229   -7.0953392    170.14143  0.032077946   0.03308046            2 
  443000     1.082094   -7.0813589    170.43004  0.032059827  0.033059417            1 
  444000     1.099828   -7.0576315    171.09558  0.032112534  0.033039132            5 
  445000    1.1071929   -7.0799599    171.26786  0.032072633  0.033018634            2 
  446000    1.0813441   -7.0845626    171.90485   0.03211974  0.032997689            2 
  447000    1.0772564   -7.0829981    171.84326  0.032036402  0.032976573            3 
  448000    1.0741752   -7.0665729    172.38438  0.032065546  0.032956015            5 
  449000    1.0771445   -7.0868773    172.75609   0.03206312  0.032935419            4 
  450000     1.079657   -7.0455101    173.15282  0.032065337  0.032914966            2 
  451000    1.0679588   -7.0605666    173.02176  0.031970022  0.032894789            1 
  452000    1.0553216   -7.0615814    173.54522  0.031995801  0.032874192            1 
  453000    1.0503369   -7.0905987    173.56457  0.031928728  0.032853809            3 
  454000    1.0800068   -7.1280282    173.25619  0.031801796  0.032832525            1 
  455000    1.0608076   -7.0576665    174.19717  0.031904243  0.032811381            2 
  456000    1.0589005   -7.0608543    175.19404  0.032016455  0.032790564            1 
  457000    1.0576845   -7.1010364    175.34312  0.031973581  0.032770677            4 
  458000    1.0873661   -7.1112739    174.95955  0.031833979  0.032750017            1 
  459000    1.0429472   -7.1008408    175.48817  0.031860596  0.032729137            2 
  460000    1.0453366   -7.0773433    175.90099  0.031866121  0.032708445            1 
  461000     1.051876   -7.0659534    176.10701   0.03183424  0.032687555            2 
  462000    1.0873985   -7.1172576    175.56167  0.031666967  0.032666524            1 
  463000    1.0952441   -7.0674616    176.30342  0.031732077  0.032644862            5 
  464000    1.0519974   -7.0582768    176.81149  0.031754938  0.032623487            3 
  465000    1.0717421    -7.083453    176.76582  0.031678462  0.032602195            2 
  466000    1.0799099   -7.0924168    177.45432  0.031733606  0.032580633            4 
  467000    1.0441021   -7.0805749    177.27354  0.031633393  0.032559042            2 
  468000    1.0894113   -7.1411257    177.13482    0.0315411  0.032537571            2 
  469000    1.0705387   -7.1106848    177.94677  0.031618118  0.032516778            6 
  470000    1.0552603   -7.1068491    178.10243  0.031578444  0.032495774            3 
  471000    1.0746844   -7.1140502    177.86949  0.031470185  0.032474349            3 
  472000    1.0475615    -7.101462    178.59069  0.031530842  0.032453429            2 
  473000    1.0528803   -7.1049149    178.93552  0.031524933  0.032432565            2 
  474000    1.0935176    -7.096161    179.38645  0.031537701  0.032411623            4 
  475000    1.0578817   -7.1296655    180.14103  0.031603689  0.032391309            2 
  476000    1.0554175   -7.1175071     179.9007  0.031495221  0.032370887            3 
  477000    1.0710633    -7.116815    180.22533  0.031485907  0.032350249            1 
  478000    1.0351033   -7.1048187    180.26648  0.031427211  0.032329655            2 
  479000    1.0826537    -7.105104    180.60086  0.031419773  0.032308563            3 
  480000    1.0861893   -7.1190014    181.00982  0.031425316  0.032287706            3 
  481000    1.0659197   -7.1217661    181.66292  0.031473132  0.032266629            2 
  482000     1.066758   -7.0747822    182.88774  0.031619596  0.032246117            3 
  483000    1.0781934   -7.1107177    182.48443  0.031484547  0.032226262            1 
  484000    1.0686452   -7.1471798    182.26386  0.031381518  0.032206296            2 
  485000    1.0603107   -7.1215605    182.67353  0.031387205  0.032186095            2 
  486000    1.0667339   -7.1323762    182.72018   0.03133062  0.032165983            3 
  487000    1.0469679    -7.146883    182.83035  0.031285138  0.032145945            2 
  488000    1.0411904   -7.1062721     183.5507   0.03134404  0.032125815            3 
  489000    1.0611716   -7.1187855    184.04509  0.031364194  0.032105958            2 
  490000    1.0289626   -7.1294291    183.82463  0.031262692  0.032085333            1 
  491000    1.0481692   -7.0969628    184.56995  0.031325518  0.032065243            2 
  492000     1.030893   -7.1269418    184.49339   0.03124888  0.032045173            1 
  493000    1.0436782   -7.1373353    184.70003  0.031220425  0.032024719            5 
  494000    1.0817125   -7.1164059    185.25419  0.031250707  0.032003776            2 
  495000    1.0550418   -7.1482281    185.31205  0.031197315  0.031982746            1 
  496000    1.0517203   -7.1094764    185.45405  0.031158274  0.031962724            2 
  497000    1.0554295   -7.1503339    186.28391  0.031234727  0.031942573            1 
  498000    1.0762858   -7.1210279    186.42904  0.031196292  0.031922258            3 
  499000    1.0410408   -7.1080387     186.5738  0.031157948  0.031902387            2 
  500000     1.048506   -7.1576512    186.29854  0.031049757  0.031881833            2 
  501000    1.0458205   -7.1412028    186.96115  0.031097995  0.031861481            2 
  502000    1.0229041   -7.1279606    187.12704  0.031063586  0.031841095            3 
  503000    1.0389327   -7.0805606    187.36723  0.031041622  0.031820513            2 
  504000     1.035869   -7.1185626    188.03895  0.031091097  0.031799909            4 
  505000    1.0470991   -7.1023707    187.57331  0.030952691  0.031779385            1 
  506000    1.0314197   -7.1272948    187.84864  0.030936864  0.031758914            2 
  507000    1.0232942   -7.1531013    188.42064  0.030969861  0.031738345            5 
  508000    1.0494476   -7.1055495    188.79981  0.030971097  0.031718188            2 
  509000     1.034745   -7.1652794    188.56517  0.030871836   0.03169749            3 
  510000    1.0448926   -7.1307223    189.21031  0.030916717  0.031676684            1 
  511000    1.0452906   -7.1373314    189.28829  0.030868932  0.031656375            4 
  512000    1.0648154   -7.1811056    189.39274  0.030825642  0.031635497            1 
  513000    1.0349787   -7.1206406    190.36167  0.030922949   0.03161484            2 
  514000    1.0434676   -7.1649578    189.86933  0.030782965  0.031594048            3 
  515000    1.0511964   -7.1630489    189.79169   0.03071063  0.031573459            1 
  516000    1.0385018   -7.1309146    190.81232  0.030815943  0.031552855            2 
  517000    1.0576406   -7.1671291    190.48275  0.030703215   0.03153178            2 
  518000    1.0539518   -7.1429206    190.63021  0.030667665  0.031510474            2 
  519000    1.0452054   -7.1466811    190.54056  0.030594181  0.031489173            2 
  520000     1.052127   -7.1497247    191.52474  0.030693067  0.031467639            2 
  521000    1.0613551   -7.1729488    191.64239  0.030652973  0.031446489            2 
  522000    1.0713682   -7.1578928    191.47921  0.030568201  0.031425312            1 
  523000    1.0385353   -7.1310931    192.32674  0.030644796  0.031404784            3 
  524000    1.0141244   -7.1384646    192.71631  0.030648268  0.031384731            2 
  525000    1.0403609   -7.1334957    192.83467  0.030608678   0.03136421            2 
  526000    1.0438038    -7.144812    193.01813  0.030579552  0.031343173            1 
  527000    1.0492675   -7.1370457     192.7767  0.030483348  0.031322177            1 
  528000     1.037968    -7.135326    192.67468  0.030409514  0.031300256            3 
  529000    1.0504311   -7.1636939    193.56964  0.030493012  0.031278582            1 
  530000     1.035661   -7.1552487    193.72391  0.030459734  0.031256892            9 
  531000    1.0208765   -7.1845256    193.58172  0.030380056   0.03123518            1 
  532000    1.0632243   -7.1691043    194.60352  0.030483008  0.031213753            1 
  533000    1.0269589   -7.1617221    194.67399  0.030436833  0.031192464            2 
  534000    1.0285147   -7.1776104    195.06979  0.030441603  0.031171413            2 
  535000    1.0340139   -7.1495381    195.63713  0.030473074  0.031150886            2 
  536000    1.0486322   -7.1502913    196.06545  0.030482812  0.031130183            2 
  537000    1.0585253   -7.1466451    196.00573  0.030416779  0.031109365            1 
  538000    1.0045321   -7.1546272    195.83155  0.030333264  0.031088267            2 
  539000    1.0404443   -7.1832495    196.30147   0.03034964  0.031067456            2 
  540000    1.0081639   -7.1203799    196.62613  0.030343538  0.031046812            3 
  541000    1.0400201   -7.1610584    197.02308  0.030348595  0.031026247            6 
  542000    1.0194959   -7.1779853     197.3793  0.030347371  0.031005207            1 
  543000    1.0189824   -7.1844064    196.31335  0.030127893  0.030984217            3 
  544000    1.0198756   -7.1465048    197.49537  0.030253579  0.030962861            2 
  545000    1.0057225   -7.1399943     197.8089  0.030246009  0.030941644            1 
  546000    1.0367564   -7.1512402    198.06473   0.03022966   0.03092049            2 
  547000    1.0356262   -7.1604608    197.34777  0.030065169  0.030899152            1 
  548000    1.0442102   -7.1696378    198.10506  0.030125465  0.030877591            2 
  549000     1.058198   -7.1591864    198.12035  0.030072912  0.030856056            1 
  550000    1.0189649   -7.1485201    198.49226  0.030074584  0.030834466            5 
  551000    1.0135231   -7.1642126    198.48294  0.030018594  0.030813047            3 
  552000    1.0412641   -7.1309468    199.83372  0.030168134  0.030791812            1 
  553000    1.0120148   -7.1509095    199.48699   0.03006133  0.030770582            2 
  554000    1.0524141   -7.1567332    199.71697  0.030041662  0.030749619            2 
  555000    1.0224834   -7.1637475    199.35284  0.029932858  0.030728561            5 
  556000    1.0244333   -7.1865142    199.67851  0.029927835  0.030706759            1 
  557000    1.0287846   -7.1580309     200.3548  0.029975285  0.030685195            2 
  558000    1.0524173   -7.1812551     200.5217   0.02994649  0.030663733            2 
  559000    1.0200492     -7.19937    200.12746  0.029834148  0.030642329            2 
  560000    1.0299231   -7.1930307    200.90728  0.029896916  0.030620927            2 
  561000    1.0140986   -7.1786803     200.3924  0.029767142  0.030599488            2 
  562000    1.0261299    -7.176691    201.60199  0.029893534  0.030577895            2 
  563000    1.0301181   -7.1809576    201.39542  0.029809861  0.030556546            2 
  564000    1.0450702   -7.1685407    202.38586  0.029903348  0.030535579            2 
  565000    1.0402194   -7.1674385    202.18322  0.029820534  0.030514449            2 
  566000     1.052468   -7.2039526    202.58492  0.029826991  0.030493759            2 
  567000     1.027691   -7.2120265    202.15462  0.029711144  0.030473035            1 
  568000    1.0187621   -7.1998184    202.80568  0.029754355  0.030452131            1 
  569000    1.0173314   -7.1602485    202.69457   0.02968579  0.030431292            2 
  570000    1.0081432   -7.2034947    202.96513  0.029673265  0.030410376            1 
  571000    1.0166246   -7.1743539    203.00088  0.029626515  0.030389241            3 
  572000    1.0179715   -7.2101756    204.08314  0.029732392  0.030367975            4 
  573000     1.004681   -7.1808824    204.23281   0.02970227  0.030346818            3 
  574000    1.0409943   -7.1961402    203.91261  0.029604038  0.030325628            2 
  575000    1.0193461   -7.1751448    204.85735  0.029689471  0.030304569            3 
  576000    1.0018453   -7.1888229    204.53497  0.029591286  0.030283911            3 
  577000     1.020616   -7.2130134     205.0089  0.029608448  0.030263048            2 
  578000    1.0216957   -7.1987912     205.3942  0.029612774  0.030242036            2 
  579000    1.0275036   -7.1907291    205.56385  0.029586047  0.030221293            2 
  580000    1.0167423   -7.1793664    205.97627  0.029594291  0.030200853            1 
  581000    1.0258413   -7.2181487    206.46853   0.02961396  0.030180144            2 
  582000    1.0175841    -7.224409    205.34662  0.029402437  0.030158764            1 
  583000    1.0296777   -7.2186333    206.13566  0.029464789  0.030137219            2 
  584000    1.0016241   -7.2292511    205.92704  0.029384566  0.030116121            2 
  585000    1.0059903    -7.213882    206.98364  0.029484849  0.030094895            2 
  586000    1.0187819   -7.2374798    205.97263  0.029290761  0.030073291            1 
  587000    1.0078383   -7.1943622    206.76063  0.029352731   0.03005202            2 
  588000    1.0103363   -7.1926526    207.60538  0.029422532  0.030030958            2 
  589000    1.0299018   -7.2100466    207.70706  0.029386964  0.030009505            3 
  590000    1.0138767   -7.1911048    207.57519   0.02931853  0.029988132            2 
  591000    1.0099634    -7.187897    207.83841  0.029306036  0.029967053            2 
  592000     0.990081   -7.1783208    207.63338  0.029227671   0.02994584            2 
  593000     1.030235   -7.2021911    207.92634  0.029219554  0.029924597            3 
  594000    1.0262957   -7.2288387    208.37795  0.029233719  0.029903277            1 
  595000    1.0222848   -7.1997662    209.49258  0.029340697  0.029882295            2 
  596000    1.0198618    -7.211017     208.8128   0.02919642  0.029860886            5 
  597000    1.0320387   -7.1711145    209.12684  0.029191352  0.029839815            4 
  598000    1.0302099   -7.1972133    209.60192   0.02920874   0.02981889            1 
  599000    1.0215344   -7.2117886    209.61866  0.029162307   0.02979795            3 
  600000    1.0406549   -7.2146265    209.62971  0.029115237  0.029776968            2 
  601000    1.0119798   -7.2553509    210.22117  0.029148804   0.02975592            2 
  602000   0.99769901   -7.1967648    210.26917  0.029107028  0.029734798            2 
  603000    1.0183752     -7.22514     210.2435   0.02905521  0.029713636            3 
  604000    1.0250338   -7.2253078    210.47978  0.029039704   0.02969243            3 
  605000    1.0371124    -7.207403    210.70423  0.029022621  0.029671349            6 
  606000    1.0013886   -7.2158222    210.59923   0.02896029  0.029649869            2 
  607000    1.0215803   -7.2498645    210.12277  0.028847167  0.029628214            4 
  608000   0.99723645   -7.1953609    212.12187  0.029073722  0.029607307            1 
  609000   0.99822075    -7.199159    211.84781   0.02898848  0.029586302            2 
  610000    1.0102686   -7.2091443    211.76137  0.028929149  0.029565326            3 
  611000   0.99349448   -7.1956037    211.51593  0.028848326  0.029543832            2 
  612000    1.0256634   -7.2474084    211.14031  0.028750042  0.029521864            2 
  613000   0.98999788   -7.2389358    211.90692  0.028807358   0.02949986            3 
  614000   0.99850492   -7.2409364    211.18667  0.028662686  0.029477606            3 
  615000    1.0148167   -7.2038283    212.34278  0.028772735   0.02945538            1 
  616000    1.0284799   -7.2607671    211.82282  0.028655684  0.029433014            2 
  617000    1.0330354   -7.2200249    212.55798  0.028708534  0.029410522            1 
  618000   0.99435703   -7.2609086    212.16719  0.028609384   0.02938817            2 
  619000    1.0001908   -7.2200671    212.58915  0.028619971  0.029365284            3 
  620000   0.99495104   -7.2516894    212.56061  0.028569975  0.029342763            1 
  621000   0.98587569    -7.258464    212.94613  0.028575702  0.029320669            2 
  622000    1.0188197   -7.2407403    213.91799  0.028659967  0.029298853            2 
  623000    1.0234604   -7.2419861    213.84156  0.028603741  0.029276875            2 
  624000   0.99736847   -7.2457493    213.59266  0.028524661  0.029254444            3 
  625000    1.0017337   -7.2448358     214.4004   0.02858672  0.029232471            3 
  626000    1.0236544   -7.2269372    214.34741     0.028534  0.029210912            4 
  627000    1.0001085   -7.2516254    214.85295  0.028555681  0.029189516            2 
  628000    1.0019068    -7.258437    215.13759  0.028547981  0.029167923            2 
  629000     1.028195   -7.2238944    215.37997  0.028534708  0.029146589            1 
  630000   0.99769672   -7.2104956    215.29558  0.028478251  0.029125223            2 
  631000     0.967028   -7.2740664    215.41991  0.028449539  0.029103525            6 
  632000   0.99366748   -7.2841651    215.53389  0.028419553  0.029081678            2 
  633000   0.98948369   -7.2480651    215.35733  0.028351413  0.029059813            1 
  634000   0.98016876   -7.2167256    215.75196  0.028358564  0.029037848            2 
  635000   0.98844904   -7.2533344    215.94177  0.028338815  0.029015645            2 
  636000   0.97952598   -7.2520964    215.59611  0.028248967  0.028993074            2 
  637000    1.0167728   -7.2278768    216.24494  0.028289501  0.028970843            2 
  638000   0.97180431   -7.2736899    215.63305  0.028165236  0.028948314            2 
  639000   0.99837703   -7.2410121    216.08575  0.028180197  0.028925874            2 
  640000    1.0062012   -7.2605921    216.28506  0.028162117  0.028903556            3 
  641000   0.98212589   -7.2544599    216.02126  0.028083887  0.028881417            4 
  642000   0.99425128   -7.2433788     216.8636  0.028149481  0.028859147            6 
  643000    1.0021133   -7.2504564    217.34223  0.028167734  0.028837122            1 
  644000    1.0060334   -7.2622001    217.32329  0.028121543  0.028815318            4 
  645000   0.99747769   -7.2397416    217.73443  0.028131063  0.028793532            2 
  646000   0.99052572   -7.3132598    217.42765  0.028047942  0.028771356            2 
  647000   0.99223848   -7.2313676    218.50031   0.02814275  0.028749898            2 
  648000   0.96863213   -7.2831143    218.43187  0.028090519  0.028728641            4 
  649000   0.99666779   -7.2382694    219.36158  0.028166612  0.028707191            1 
  650000    1.0015074   -7.2677062    219.19565  0.028102006  0.028685695            3 
  651000    1.0038042   -7.2292374    219.33781  0.028077036  0.028664246            3 
  652000    0.9768801    -7.265802    219.00538  0.027991485  0.028642726            2 
  653000   0.99450496   -7.3011042    219.05512  0.027954967  0.028620922            2 
  654000     1.006752   -7.2449236     219.7597     0.028002  0.028599179            3 
  655000    1.0002067   -7.2628803     220.0828  0.028000356  0.028577941            2 
  656000   0.96976371   -7.2172806    220.33155  0.027989272  0.028556744            2 
  657000   0.99716083   -7.2449134    221.06795  0.028040075  0.028535338            3 
  658000   0.98107004   -7.2579942    220.52629  0.027928862  0.028514167            5 
  659000   0.99997155   -7.2456732    220.52335  0.027886109  0.028492648            2 
  660000   0.98945201   -7.2526751    221.22543  0.027932504  0.028471052            1 
  661000   0.97978534   -7.2502056    221.13338  0.027878641  0.028449406            1 
  662000   0.98541528   -7.2767495    221.08096  0.027829929  0.028427579            1 
  663000   0.98201494   -7.2903153    221.11483  0.027792211  0.028405955            3 
  664000    1.0019756   -7.2493761    221.56476  0.027806822   0.02838464            3 
  665000    0.9521361   -7.2644131    222.59936  0.027894656  0.028363746            3 
  666000   0.98952745   -7.2626846    221.86538  0.027760933  0.028342698            3 
  667000    1.0033548   -7.2773476    222.57533  0.027808012  0.028321476            2 
  668000   0.97695097   -7.2489346    223.11386  0.027833565  0.028300399            3 
  669000   0.99137976   -7.2734221    222.00347  0.027653646  0.028278998            2 
  670000     1.010925   -7.2563565    222.77174  0.027707927  0.028257629            2 
  671000   0.98890401   -7.2839051    222.88132  0.027680244  0.028236473            1 
  672000   0.99813821   -7.2806616    223.37707  0.027700529  0.028215508            1 
  673000    1.0075086   -7.2974795    223.91006  0.027725366  0.028194511            1 
  674000    0.9961462   -7.2636213    223.65344  0.027652502  0.028173645            4 
  675000    0.9898955   -7.2535066    224.22407  0.027681984  0.028152735            2 
  676000   0.98187147   -7.2943593    224.01892  0.027615745  0.028131945            4 
  677000   0.97960854   -7.2548068     224.5555  0.027641002  0.028110983            1 
  678000   0.97033721   -7.2647546    223.98998  0.027530725  0.028090242            7 
  679000   0.94129088   -7.2827539    224.50105  0.027552902  0.028069456            4 
  680000   0.98280239   -7.2900568    224.54637  0.027517937  0.028048659            5 
  681000    1.0133761   -7.2868403    224.45055  0.027465804   0.02802791            1 
  682000   0.98723825   -7.3218013    224.88422  0.027478522  0.028006811            2 
  683000   0.99881894   -7.2879935     224.9914  0.027451367  0.027985951            2 
  684000    0.9876416   -7.3140081    225.72592  0.027500721  0.027964939            2 
  685000   0.97790869   -7.2697227    226.25521  0.027524965  0.027944309            4 
  686000   0.97789556   -7.2830932    225.77441  0.027426435  0.027923722            3 
  687000   0.97942096   -7.2370508    226.73592  0.027503144  0.027903243            1 
  688000    0.9761175   -7.2822697    226.41341  0.027424105  0.027882957            3 
  689000    0.9631094   -7.3063377    225.54659  0.027279462  0.027862004            5 
  690000   0.97113411   -7.2764382    226.68378  0.027377268  0.027841508            1 
  691000   0.98291764   -7.2910308    226.60712  0.027328403  0.027821032            2 
  692000   0.95315198     -7.28425    227.51269  0.027397964  0.027800469            4 
  693000   0.99201994   -7.3091514     227.4608  0.027352188  0.027780168            3 
  694000   0.95599035   -7.3148449    227.91754   0.02736762  0.027760005            2 
  695000    1.0005833   -7.3274357    227.50723  0.027279045  0.027740067            1 
  696000   0.97258472    -7.281419    228.57531  0.027367734  0.027719961            3 
  697000    0.9854407   -7.2624682    229.03735   0.02738371  0.027700171            1 
  698000   0.97908827   -7.3269664    228.57874  0.027289725  0.027680336            2 
  699000   0.97168189   -7.3080882    228.75638  0.027271862  0.027660656            3 
  700000   0.96203216   -7.3060627    229.31769  0.027299725   0.02764127            3 
  701000   0.99131048   -7.3109228    229.29439  0.027258011  0.027621909            3 
  702000   0.97544238   -7.2866296    229.80426  0.027279708  0.027602089            3 
  703000   0.96146231   -7.3026832    229.70486   0.02722912  0.027582552            5 
  704000   0.98357102   -7.3224905    230.27517  0.027257951  0.027563304            2 
  705000   0.97864426   -7.3037951    230.79533  0.027280772  0.027544023            4 
  706000   0.98014487   -7.3027042    231.07201  0.027274789   0.02752512            2 
  707000   0.98707432   -7.3222364    231.33632  0.027267365   0.02750605            2 
  708000   0.98435196   -7.2969135    231.32732  0.027227792  0.027487086            3 
  709000   0.97283201   -7.3373506    231.50399  0.027210154  0.027468452            2 
  710000   0.96823639    -7.325985    231.76946  0.027202988  0.027449731            2 
  711000   0.96859412   -7.2643174    233.12046  0.027323074  0.027431483            2 
  712000   0.98012298   -7.3214595    233.40785  0.027318335  0.027413489            3 
  713000   0.96258294    -7.331054     232.8411   0.02721378  0.027395357            2 
  714000   0.98568084   -7.3073317    234.11493  0.027324338  0.027377332            3 
  715000   0.97209655   -7.2844178    233.50261  0.027214756  0.027359466            2 
  716000   0.94571513   -7.3043311    233.73789   0.02720413  0.027341631            2 
  717000    0.9740079   -7.2980968    234.13252  0.027212055  0.027323828            2 
  718000   0.97480401   -7.2976515    234.39806  0.027204975  0.027305948            1 
  719000   0.96037756   -7.3223098    234.39624  0.027166926  0.027288112            1 
  720000   0.96105986   -7.3242674    234.40161  0.027129816  0.027270321            2 
  721000   0.95953907   -7.3226994    234.92822  0.027153054   0.02725252            1 
  722000   0.96013955   -7.3290937    234.50525  0.027066626  0.027234753            3 
  723000   0.97975598   -7.3287578    235.09331   0.02709697  0.027216724            2 
  724000   0.97451905   -7.3396788    234.67813  0.027011755  0.027198643            4 
  725000    0.9651881    -7.311824    235.06743  0.027019245  0.027180547            2 
  726000   0.95312016   -7.3326137    235.00332   0.02697467  0.027162441            1 
  727000   0.96072633   -7.2977154    235.52367  0.026997211  0.027144155            1 
  728000   0.96315525   -7.3225616    234.87608  0.026885998  0.027125751            5 
  729000   0.97509707   -7.3256694    235.30684  0.026898359  0.027107409            2 
  730000   0.95983856   -7.3349995    235.68526   0.02690471  0.027088893            4 
  731000    0.9456996   -7.3006524    235.87189   0.02688918  0.027070374            2 
  732000   0.96724286   -7.3470129     235.6581  0.026828108  0.027051755            4 
  733000   0.93991146   -7.3612664    235.75792  0.026802856  0.027033141            1 
  734000   0.97978696     -7.30853    236.66109  0.026868879  0.027014698            1 
  735000   0.96141814   -7.2966447    236.60776  0.026826277  0.026996414            3 
  736000   0.96637582   -7.3219673    236.86257  0.026818679   0.02697807            1 
  737000   0.96504364   -7.3564707    237.01947   0.02680003  0.026959742            2 
  738000   0.94186999   -7.3380641     236.8234  0.026741577  0.026941266            1 
  739000   0.94227877   -7.3584893    236.76702  0.026699032  0.026923088            2 
  740000   0.93047702   -7.3661786    237.98916  0.026800581  0.026904953            2 
  741000   0.95730095   -7.3469765    237.84794  0.026748531  0.026886815            2 
  742000   0.97151646   -7.3741752    238.26331  0.026759132  0.026868903            2 
  743000   0.95210908   -7.3151287     238.7539   0.02677814  0.026851024            2 
  744000   0.98031609   -7.3312555    238.43086  0.026705966  0.026832941            2 
  745000   0.95589734   -7.3541173    238.50821  0.026678771  0.026814678            1 
  746000    0.9545873   -7.3186268    238.72033  0.026666704  0.026796731            1 
  747000   0.97393976   -7.3437791    239.02616  0.026665123  0.026778853            2 
  748000   0.93001177   -7.3361299    239.52952  0.026685553  0.026761035            3 
  749000   0.92770216   -7.3284716     239.1637  0.026609223  0.026743093            3 
  750000   0.94451785   -7.3517887    240.01938   0.02666882  0.026725462            1 
  751000    0.9570595   -7.3615862    239.40382  0.026565004  0.026708026            2 
  752000   0.94059357   -7.3488867    240.52341  0.026653747  0.026690797            3 
  753000   0.97178111   -7.2963537    241.22883  0.026696418  0.026673357            2 
  754000   0.97986894    -7.354318    241.16194  0.026653619  0.026656301            1 
  755000   0.94803983   -7.3542499    240.79075  0.026577345  0.026639224            1 
  756000    0.9470482   -7.3722942    241.33695  0.026602397   0.02662223            1 
  757000   0.92785441   -7.3266672    242.27991   0.02667106  0.026605289            2 
  758000   0.97376295   -7.3043891    241.91289  0.026595525  0.026588244            4 
  759000   0.95910056   -7.3599142    241.74853  0.026542439  0.026571017            1 
  760000   0.95305132   -7.3749913    241.81366  0.026514655  0.026553869            5 
  761000   0.96935681   -7.3686892    241.72771  0.026470402  0.026536513            5 
  762000   0.94992903    -7.364037    242.22552  0.026490105  0.026519295            3 
  763000   0.92693556   -7.3850176    242.35993  0.026470067  0.026502209            2 
  764000   0.94383462   -7.3242421    242.62066  0.026463859  0.026485132            2 
  765000   0.94890341    -7.373904    243.22424  0.026495016  0.026467755            3 
  766000   0.94421875   -7.3836129    242.19224  0.026348155  0.026450395            2 
  767000   0.93695412   -7.3504479     242.9601   0.02639723  0.026433343            2 
  768000   0.94660957   -7.3328391     243.8126   0.02645536  0.026416394            2 
  769000   0.96071972   -7.3316945    244.16381  0.026459018  0.026399411            2 
  770000   0.94638267   -7.3841912    243.39678  0.026341643  0.026382116            3 
  771000   0.92147361   -7.3560853    243.46699  0.026315066   0.02636464            2 
  772000    0.9471133   -7.3605928    244.07241   0.02634633  0.026347417            4 
  773000   0.94277377     -7.38923     244.3505  0.026342227  0.026330277            3 
  774000   0.95417565    -7.371694    243.76612  0.026245276  0.026312996            1 
  775000   0.95864461   -7.3741312      244.511  0.026291505  0.026295628            1 
  776000   0.94932727   -7.3600549    243.67834  0.026168206  0.026278249            2 
  777000   0.93960289   -7.3607315    244.95724  0.026271691  0.026261041            2 
  778000   0.92863513   -7.3605992    244.58928  0.026198509  0.026243933            2 
  779000   0.94418125   -7.3422031    244.80317  0.026187759  0.026226744            1 
  780000   0.96065553   -7.3906227    244.48612  0.026120312  0.026209601            2 
  781000   0.94050772   -7.3481294    245.17806  0.026160698  0.026192364            2 
  782000    0.9306167   -7.3739071    245.23802  0.026133634  0.026174988            2 
  783000   0.92776535    -7.415021    244.69925  0.026042917  0.026157422            4 
  784000   0.95313482   -7.3765341    245.39171  0.026083303  0.026139788            3 
  785000   0.92726809   -7.3386166    246.07448  0.026122556   0.02612235            3 
  786000   0.94735284   -7.3862947     246.0064  0.026082103  0.026105029            5 
  787000   0.94117843   -7.4196132    246.20486  0.026069976  0.026087612            2 
  788000   0.92605391   -7.3937299    245.63653  0.025976791  0.026070211            2 
  789000   0.94313823   -7.4028908    246.24559  0.026008195  0.026052592            3 
  790000   0.94230842    -7.399981    246.93267   0.02604775  0.026035052            3 
  791000   0.94328249   -7.4004178     246.3851  0.025957132  0.026017397            1 
  792000   0.93247924   -7.3902202    246.64058  0.025951239   0.02599976            3 
  793000   0.92791194   -7.3862046    246.42448  0.025895805  0.025982404            2 
  794000   0.92591531   -7.3972819    246.84942   0.02590779  0.025964918            1 
  795000   0.95114615     -7.39245    247.17988  0.025909841  0.025947305            2 
  796000    0.9455513   -7.4037178    246.93068  0.025851202  0.025929774            2 
  797000   0.93939369   -7.3801434    246.86523  0.025811923  0.025912187            4 
  798000   0.93931416   -7.4506109    246.50604  0.025742068  0.025894246            2 
  799000   0.94316072   -7.3772825    247.18698   0.02578087  0.025876093            2 
  800000   0.93014471   -7.3732388    247.58375  0.025789973  0.025858043            1 
  801000   0.91489691   -7.3955496    247.40876  0.025739571  0.025840123            2 
  802000   0.92562254   -7.3847343    247.65724  0.025733296  0.025822167            2 
  803000   0.93613119   -7.3751465    247.30545  0.025664742  0.025804215            2 
  804000   0.93780914   -7.3968967    247.74229  0.025678098  0.025786311            4 
  805000   0.93864666   -7.3824314    248.48035  0.025722603  0.025768283            2 
  806000    0.9348598   -7.4070323    248.12129  0.025653565  0.025750532            3 
  807000   0.94526961   -7.4213936    248.32243  0.025642547  0.025732657            1 
  808000   0.91815599   -7.3776592    248.15967  0.025594025  0.025715004            5 
  809000   0.91198307   -7.4217184     247.9332   0.02553906  0.025697013            2 
  810000    0.9425147   -7.4126458    248.91152  0.025608182   0.02567906            2 
  811000   0.92056204   -7.4019273    248.36008  0.025519943  0.025660996            3 
  812000   0.92987947   -7.3934198    248.50866  0.025503762  0.025642889            4 
  813000   0.92634216   -7.4108582    247.84474   0.02540434  0.025624523            2 
  814000   0.93936157    -7.375852    249.15423   0.02550719  0.025606239            2 
  815000   0.91694284   -7.3762501    248.51613  0.025410647  0.025588015            5 
  816000   0.92604354   -7.3838246    249.50665  0.025480662  0.025569875            1 
  817000   0.92734727   -7.4020093    249.48607  0.025447375  0.025551976            2 
  818000   0.93976302   -7.4030711    249.77312   0.02544551  0.025534058            2 
  819000   0.92773548   -7.3793999    249.72152   0.02540919  0.025516107            4 
  820000   0.94483255   -7.4112277    249.87654  0.025393957  0.025498254            1 
  821000   0.93849181   -7.4298739    249.52684  0.025327532  0.025480101            2 
  822000   0.93352226   -7.4079992       249.89  0.025333536  0.025461905            2 
  823000   0.93755116   -7.3842411    250.37733  0.025352099  0.025443832            1 
  824000   0.91927143   -7.4200727    249.35972  0.025218418  0.025425738            2 
  825000   0.93727441   -7.4067555    249.99707  0.025252229  0.025407425            1 
  826000   0.91393023   -7.4171036    250.38471  0.025260766  0.025389194            2 
  827000   0.93309285   -7.4010596    251.04335  0.025296589  0.025371064            2 
  828000   0.93073373   -7.4470946    250.83189  0.025244755  0.025353015            7 
  829000   0.91815748   -7.4158004    251.66402  0.025297952    0.0253351            2 
  830000   0.90810861   -7.4405844    250.15649  0.025116113  0.025317103            2 
  831000   0.93010237   -7.4222097    250.43788  0.025114107  0.025298976            6 
  832000   0.92933869   -7.4228876     251.6756  0.025207893  0.025280937            3 
  833000   0.90985502   -7.4303174    251.94433  0.025204515  0.025263001            3 
  834000    0.9122924   -7.4170053    252.34624  0.025214452  0.025245114            2 
  835000   0.90288155   -7.4238018    251.71816  0.025121573  0.025227337            2 
  836000   0.90567961   -7.4207814    252.57253  0.025176688  0.025209501            1 
  837000   0.90519328   -7.4075945    252.33583  0.025123042  0.025191771            2 
  838000   0.91281819   -7.4172662    253.15088  0.025174113  0.025174318            2 
  839000   0.90948088   -7.4245489    252.98033  0.025127169   0.02515673            2 
  840000   0.92540639   -7.4400479    252.55632  0.025055191   0.02513918            3 
  841000   0.91915253   -7.4079783     253.5646  0.025125307  0.025121692            2 
  842000   0.93432271   -7.4335139    253.43542  0.025082682  0.025104495            4 
  843000   0.92972454   -7.4115213    253.69031  0.025078125  0.025087003            2 
  844000   0.90174375    -7.429808    253.62152  0.025041619  0.025069682            3 
  845000   0.89179103   -7.4352571    253.89518  0.025038973  0.025052118            3 
  846000    0.9171431   -7.4544737    253.08802  0.024929868  0.025034361            7 
  847000   0.92545344   -7.4187469    253.72132  0.024962743  0.025016793            2 
  848000   0.91173606   -7.3987086    254.48697  0.025008546  0.024999092            1 
  849000   0.90007767   -7.4675269    253.19691  0.024852464  0.024981308            5 
  850000   0.92882087   -7.4359867     253.5047  0.024853402  0.024963297            1 
  851000   0.91725467   -7.4422978    254.18927  0.024891233  0.024945426            2 
  852000   0.91329198   -7.4300894    253.90716  0.024834425   0.02492754            5 
  853000   0.88477082   -7.4043752    254.31872  0.024845517  0.024909786            3 
  854000   0.91132852   -7.4193941     254.5836  0.024842272  0.024892116            4 
  855000   0.91064801   -7.4544835     254.3375   0.02478923  0.024874187            3 
  856000   0.90002793   -7.4554517    253.96679  0.024724181  0.024856147            4 
  857000   0.90733537   -7.4276215    254.54737  0.024751786  0.024838188            1 
  858000   0.90172683   -7.4385499    254.09594  0.024679093   0.02482005            4 
  859000   0.93555759   -7.4445695    254.85466  0.024723968  0.024802074            3 
  860000   0.90242519   -7.4618779    255.29878  0.024738254   0.02478414            6 
  861000   0.90255092    -7.444869     255.7004  0.024748393  0.024766226            1 
  862000   0.91664456   -7.4067732    255.05287  0.024657083  0.024748562            3 
  863000   0.91167647   -7.4357582    255.43617  0.024665524  0.024730882            2 
  864000   0.91109769   -7.4040514    255.98095   0.02468952  0.024713298            2 
  865000   0.90033065   -7.4478227    255.79757  0.024643311  0.024695722            3 
  866000   0.91049531   -7.4540187    255.70732  0.024606171  0.024677955            4 
  867000   0.93024503   -7.4516092    255.70855  0.024577907  0.024660202            4 
  868000   0.90657806   -7.5114467    255.71612  0.024550319  0.024642402            4 
  869000   0.91645733   -7.4836334    256.40505  0.024588132  0.024624551            2 
  870000   0.89944242   -7.4718766    255.93742  0.024515078  0.024606642            4 
  871000   0.91151409   -7.4734144    256.60746  0.024551039  0.024588976            4 
  872000   0.89554486   -7.4742189    257.12556  0.024572397  0.024571531            2 
  873000   0.89127922   -7.4655167    256.53697  0.024488065  0.024554024            1 
  874000   0.90763511   -7.4775487    256.81975  0.024487009  0.024536388            2 
  875000   0.89662484   -7.4611364    257.10948  0.024486617  0.024518795            2 
  876000   0.91187731   -7.4886507    257.30687  0.024477442  0.024501154            6 
  877000   0.89408926    -7.480464    257.79846  0.024496243  0.024483711            1 
  878000   0.90135737   -7.4616594     257.8668  0.024474829  0.024466281            2 
  879000   0.89962025   -7.4772244    257.25776  0.024389246  0.024448679            2 
  880000   0.90102201   -7.4808681    258.17036   0.02444795  0.024431196            2 
  881000   0.91837981   -7.4892649    258.54965  0.024456077  0.024413872            3 
  882000   0.88001674   -7.5149997     258.5212  0.024425662  0.024396631            4 
  883000   0.91507636   -7.4665386    258.51462  0.024397378  0.024379381            2 
  884000   0.90953055   -7.4555305    259.35169  0.024448689  0.024362363            2 
  885000    0.8961332   -7.4947443    258.29522  0.024321584  0.024345417            2 
  886000   0.90773381     -7.48194    259.44658  0.024402425  0.024328317            3 
  887000   0.91086513   -7.4703127    259.15686  0.024347695  0.024311319            5 
  888000   0.90652756   -7.4658256    259.55759  0.024357882  0.024294346            2 
  889000   0.90665366   -7.4821869    260.26724  0.024397004  0.024277665            4 
  890000   0.88755627   -7.4680943    260.02488  0.024346899   0.02426097            4 
  891000   0.90990505   -7.4686863    260.36606  0.024351483  0.024244228            3 
  892000   0.90152304   -7.4663527    260.45297  0.024332302  0.024227558            1 
  893000   0.88425813   -7.4713688    261.02399  0.024358342  0.024210949            4 
  894000   0.90192324   -7.5011639    260.45867    0.0242784  0.024194414            6 
  895000   0.88862893   -7.4583854    261.20073  0.024320366  0.024177665            1 
  896000   0.89470867   -7.4575743    261.09499  0.024283388  0.024161166            2 
  897000   0.91457984   -7.4934621    260.04478  0.024158749  0.024144586            4 
  898000    0.9034459   -7.4889431    260.67205  0.024190056  0.024127765            2 
  899000   0.88932647   -7.4764454     261.6359  0.024252494  0.024110937            3 
  900000   0.90170793   -7.4712945    261.26351  0.024191065  0.024094291            2 
  901000   0.90549391    -7.476418    261.38494  0.024175448   0.02407759            3 
  902000   0.88963355    -7.477022    261.58146  0.024166802  0.024061043            6 
  903000   0.92475906   -7.5096543    262.43676   0.02421897  0.024044405            3 
  904000   0.87195035    -7.484269    261.58963  0.024114088  0.024027822            1 
  905000   0.90787741   -7.5200612    260.92885  0.024026597  0.024011169            5 
  906000   0.89500518   -7.4922915    261.92038  0.024091278  0.023994493            4 
  907000    0.8868557   -7.4840356    262.52736  0.024120486  0.023978022            2 
  908000   0.88781547   -7.4870424    263.21887  0.024157385   0.02396142            2 
  909000   0.90286621   -7.4860991    263.36885  0.024144559  0.023945137            1 
  910000   0.87633414   -7.4884014    263.24748  0.024106912  0.023928761            5 
  911000   0.89372151   -7.4974738    263.20312  0.024076393  0.023912467            2 
  912000   0.89916915   -7.4552056    263.72373  0.024097563  0.023896182            3 
  913000   0.87660499   -7.4965368    263.27279   0.02403001  0.023879672            3 
  914000   0.89127357   -7.4640927    263.68759  0.024041538  0.023863314            2 
  915000   0.88519418   -7.4946596    263.99338  0.024043113  0.023847021            1 
  916000   0.91092894   -7.4891439    262.85107  0.023912943  0.023830634            2 
  917000   0.87696857   -7.4698072    263.41455  0.023938072  0.023814217            2 
  918000   0.86973211   -7.5274415     263.8271  0.023949447  0.023797842            4 
  919000   0.89753279   -7.4782712    263.93302   0.02393299  0.023781476            2 
  920000   0.89790494   -7.4694717    264.09242  0.023921415  0.023765052            3 
  921000   0.89704881   -7.4833062    263.66219  0.023856513  0.023748761            2 
  922000   0.89946807   -7.5088359     264.1058  0.023870734  0.023732209            2 
  923000   0.89510823   -7.5463447     263.5786  0.023797273  0.023715853            1 
  924000   0.88259298   -7.4937786    264.00935  0.023810367  0.023699401            2 
  925000   0.88718703   -7.4945383    264.94516  0.023868933  0.023683006            2 
  926000   0.90256358   -7.5296422    263.70161  0.023731246  0.023666544            3 
  927000   0.88708223    -7.495418    265.09096  0.023830543  0.023650194            2 
  928000   0.89672542   -7.5181105    265.53918  0.023845113  0.023633812            2 
  929000   0.88335418   -7.5075123    264.91855  0.023763774  0.023617456            2 
  930000   0.87794262   -7.5254902    265.62534  0.023801554  0.023601185            2 
  931000   0.88975003   -7.5242304    265.28963  0.023745939  0.023585019            2 
  932000   0.88000202   -7.4932553    266.08775  0.023791823  0.023568935            3 
  933000   0.87328249   -7.5047642    266.05887  0.023763743  0.023553062            4 
  934000   0.88569662   -7.4907331    266.44291  0.023772565  0.023537407            5 
  935000   0.89378697   -7.5152022    266.93847  0.023791307   0.02352169            2 
  936000   0.89282715   -7.5374312    266.89875  0.023762353  0.023506038            3 
  937000   0.88114713   -7.5037998    266.95943  0.023742389  0.023490509            4 
  938000   0.88314655   -7.5083852    266.74905  0.023698387  0.023475013            2 
  939000   0.87453894   -7.4924194    267.83102  0.023769171  0.023459431            2 
  940000    0.8811054   -7.5143024    268.00166  0.023759012   0.02344401            4 
  941000   0.89277578   -7.4904667    267.98001  0.023731846  0.023428608            2 
  942000   0.86679603   -7.5127556    268.14148  0.023720938  0.023413206            3 
  943000   0.89156879   -7.5251637    267.84746    0.0236698  0.023397721            3 
  944000   0.89916391   -7.5029822     267.4971  0.023613798  0.023382111            4 
  945000   0.88765237   -7.5303767    267.25883  0.023567798  0.023366334            3 
  946000   0.85430774   -7.5197904    267.21945  0.023539416  0.023350461            3 
  947000   0.87924514   -7.4757286    268.06814  0.023589242  0.023334652            6 
  948000   0.85943433   -7.5031778     267.5001  0.023514425  0.023318706            3 
  949000   0.87330737   -7.5305938    268.57318  0.023583876   0.02330275            2 
  950000    0.8812645   -7.5404028    267.71241  0.023483544  0.023286876            5 
  951000   0.86810867    -7.538949    268.30165  0.023510485  0.023271188            2 
  952000   0.88487558   -7.5126401    269.18533  0.023563142  0.023255548            2 
  953000   0.86786382   -7.5088317     268.5292  0.023481042  0.023239884            3 
  954000   0.88354902    -7.541608    269.20899   0.02351581   0.02322423            3 
  955000   0.87189295   -7.5577681    268.99395  0.023472421  0.023208827            4 
  956000   0.88281822   -7.5162649    269.34968  0.023478878  0.023193487            7 
  957000   0.87423019    -7.512451    270.33608  0.023540237  0.023178259            4 
  958000   0.86422198   -7.5143504    270.24021  0.023507326  0.023163072            2 
  959000   0.86059578   -7.5315721    270.07566  0.023468514  0.023147993            4 
  960000   0.89581384   -7.5464502    270.24061  0.023458387  0.023132882            7 
  961000   0.89899543   -7.5221411     269.8642  0.023401335  0.023117604            2 
  962000   0.87486818   -7.5554663    270.51727  0.023433582   0.02310245            4 
  963000   0.86320046    -7.537055    270.40148  0.023399228  0.023087205            2 
  964000   0.87537966   -7.5467637    271.19614   0.02344365  0.023072013            5 
  965000   0.88413035   -7.5308617     270.3915   0.02334987  0.023056845            2 
  966000   0.85943815   -7.5550799    271.42004  0.023414427   0.02304164            3 
  967000   0.85324863   -7.5317557    271.59942  0.023405672  0.023026383            2 
  968000   0.86303794   -7.5248627    271.31505  0.023357012  0.023011351            3 
  969000   0.87272249   -7.5365212    271.56304  0.023354235  0.022996428            4 
  970000   0.85799014   -7.5614799    271.87722  0.023357149  0.022981435            4 
  971000   0.86361867    -7.536985    271.97262  0.023341282  0.022966452            4 
  972000    0.8774047   -7.5648495    271.68929  0.023292977  0.022951468            4 
  973000   0.85418933   -7.5895749    271.47599   0.02325077  0.022936455            3 
  974000   0.85317875   -7.5432556    271.84056   0.02325809  0.022921573            2 
  975000   0.86611191    -7.560111    272.54467  0.023294417    0.0229067            5 
  976000   0.89089103   -7.5147848    272.80983  0.023293189  0.022891988            3 
  977000   0.86885645   -7.5476246    273.10315  0.023294366  0.022877308            3 
  978000   0.84892221   -7.5591019    272.53407  0.023222058  0.022862445            2 
  979000   0.86314607   -7.5670675    273.10962  0.023247329  0.022847642            2 
  980000   0.86706206   -7.5739234     272.8723  0.023203427  0.022832802            3 
  981000   0.87252921    -7.547212    273.66595  0.023247192  0.022817992            3 
  982000   0.85493945   -7.5594965    272.86084  0.023155197  0.022803139            3 
  983000   0.85530573   -7.5431715    273.86277  0.023216579  0.022788306            6 
  984000   0.87565805   -7.5447714    272.92844  0.023113859  0.022773572            4 
  985000   0.87973306   -7.5495513    273.02555  0.023098608  0.022758752            2 
  986000   0.86669832   -7.5672327    273.26217   0.02309518  0.022744053            2 
  987000   0.83901249   -7.5851711    274.11482   0.02314377  0.022729357            1 
  988000   0.83362589   -7.5505302    274.71417  0.023170898  0.022714718            2 
  989000   0.84681053   -7.5702836    274.45542  0.023125667  0.022700171            3 
  990000   0.86442374   -7.5549511    274.02379  0.023065975  0.022685565            6 
  991000   0.83887471   -7.5442534    274.98257  0.023123324  0.022671184            3 
  992000    0.8633922   -7.5733783    275.02707  0.023103753  0.022656712            4 
  993000   0.86818771   -7.5738415     274.6066    0.0230452  0.022642252            3 
  994000   0.85917594   -7.5814692    274.34505  0.023000088  0.022627631            4 
  995000     0.841201   -7.5661124    275.32079  0.023058693  0.022613021            7 
  996000   0.86968392    -7.554739    275.79725  0.023075406   0.02259839            6 
  997000    0.8762036   -7.5641422    275.40745   0.02301968  0.022583909            2 
  998000   0.86428141   -7.5682131    275.24931  0.022983409   0.02256928            2 
  999000   0.85323281    -7.561357    275.53067  0.022983873  0.022554635            2 
 1000000   0.82830606   -7.5790725    275.17078  0.022930898  0.022540069            2 
 1001000   0.84372281    -7.578887    274.44729   0.02284776  0.022525215            6 
 1002000   0.85233547   -7.5821537    275.08096  0.022877658  0.022510471            3 
 1003000    0.8683647    -7.573039    275.53413    0.0228925  0.022495583            3 
 1004000   0.83505185   -7.5927285    275.29075  0.022849498  0.022480744            5 
 1005000   0.86362168   -7.5459465    276.02352  0.022887522  0.022465999            2 
 1006000    0.8364968   -7.6021943    275.56413  0.022826717  0.022451376            2 
 1007000    0.8637508   -7.5616824    275.99826  0.022839975  0.022436644            3 
 1008000   0.84217948   -7.5505136    275.78386  0.022799592   0.02242192            4 
 1009000   0.84863222     -7.58396    276.07356  0.022800921  0.022407269            5 
 1010000    0.8353015   -7.5695581    277.04476  0.022858479  0.022392653            3 
 1011000    0.8352145   -7.6071754    276.47754  0.022789115  0.022377984            2 
 1012000   0.84354719   -7.5922998    276.17718  0.022741863  0.022363367            2 
 1013000   0.83403658   -7.5863973    276.68281  0.022761008  0.022348725            2 
 1014000   0.86129734   -7.6117684    276.68825  0.022739008  0.022334021            2 
 1015000   0.85382244   -7.5918395    276.88023  0.022732367  0.022319297            3 
 1016000    0.8607945   -7.5986476    276.82408  0.022705387  0.022304716            3 
 1017000   0.85536717   -7.5728199    277.37985  0.022728601  0.022290174            5 
 1018000   0.84828821   -7.5711669    278.19397  0.022772918  0.022275624            1 
 1019000   0.86186482   -7.5984691    277.23098  0.022671817  0.022261296            2 
 1020000   0.85513447   -7.5930187    277.39231   0.02266277  0.022246857           11 
 1021000   0.84811365   -7.6098985    277.60929  0.022658284  0.022232485            2 
 1022000   0.86483269    -7.571081     277.4324   0.02262169  0.022218004            4 
 1023000   0.84307654   -7.6183874    277.12991  0.022574936   0.02220341            3 
 1024000   0.86477701   -7.5686818    278.38036  0.022654652  0.022188995            1 
 1025000   0.84818933   -7.6156204    277.77599  0.022583414  0.022174553            3 
 1026000   0.85322534   -7.5759776    278.03823  0.022582702  0.022160062            2 
 1027000   0.85426096   -7.6399489    277.63015  0.022527601  0.022145571            4 
 1028000   0.84772855   -7.5633423    278.76172  0.022597415  0.022131019            3 
 1029000   0.83556514   -7.6055057    278.33506  0.022540902  0.022116438            2 
 1030000   0.82601804   -7.6029815     278.6096   0.02254123  0.022101934            2 
 1031000   0.83574012   -7.6011787     278.4264  0.022504559  0.022087432            2 
 1032000   0.84427685   -7.5860272    278.42415   0.02248257  0.022072837            3 
 1033000   0.83312219   -7.5842395     279.1954  0.022523024  0.022058413            2 
 1034000   0.83062275   -7.5815224    279.74535  0.022545563  0.022044132            2 
 1035000   0.86924282   -7.5780977    279.61157  0.022513009    0.0220299            2 
 1036000   0.83931862   -7.6152089    279.46291   0.02247932   0.02201557            3 
 1037000   0.82077529   -7.6068969    279.34446  0.022448124   0.02200122            7 
 1038000     0.843789   -7.6208519    279.00937  0.022399596  0.021986862            2 
 1039000   0.85845164   -7.6622103    279.41288  0.022410401  0.021972373            2 
 1040000   0.84279894   -7.6164722     279.1222  0.022365561  0.021958072            1 
 1041000    0.8491602   -7.6341131     279.5476   0.02237813  0.021943712            5 
 1042000   0.84114802   -7.6026571    279.38541  0.022343683  0.021929332            3 
 1043000   0.84600596     -7.62478    279.61055  0.022340248  0.021914917            2 
 1044000   0.82885999   -7.6252002    279.95448  0.022346303  0.021900567            2 
 1045000   0.83480499   -7.6082459     279.6946  0.022304195   0.02188618            3 
 1046000   0.84692164   -7.6112154    279.47729  0.022265559  0.021871709            2 
 1047000   0.84580972   -7.6332286    279.86066  0.022274806  0.021857298            1 
 1048000    0.8406747   -7.6464265    279.72349  0.022242644  0.021842903            1 
 1049000   0.83665244   -7.6175074    280.13962  0.022254498  0.021828411            2 
 1050000   0.82909634   -7.6362687    279.63983  0.022193637  0.021813967            3 
 1051000    0.8372872   -7.6190389    280.51029  0.022241539  0.021799593            2 
 1052000   0.82639358   -7.5928692    280.55932  0.022224281  0.021785182            5 
 1053000   0.82936294   -7.6408371    280.56853  0.022203904   0.02177085            4 
 1054000    0.8303439   -7.6071888    281.31504   0.02224186  0.021756688            3 
 1055000   0.83299814   -7.6671114    280.12994  0.022127168  0.021742453            3 
 1056000   0.83901671   -7.6451872     280.4132  0.022128567  0.021728091            2 
 1057000   0.83528276   -7.6264059    281.42791  0.022187631   0.02171374            3 
 1058000   0.84187016   -7.6323548    280.94899  0.022128938  0.021699394            3 
 1059000   0.83346407   -7.6294048    281.66013  0.022164002  0.021685158            3 
 1060000   0.82180446   -7.6255062    281.79137   0.02215341  0.021670984            8 
 1061000   0.82158301   -7.6273622    281.59963   0.02211747   0.02165683            3 
 1062000   0.82877654   -7.6409457    281.24167  0.022068555  0.021642616            3 
 1063000   0.82942275   -7.6140169    281.68636  0.022082656  0.021628463            3 
 1064000   0.82332933   -7.6372538     282.6588  0.022138064  0.021614349            2 
 1065000    0.8286022   -7.6636042    281.91998  0.022059466  0.021600184            2 
 1066000   0.81948399   -7.6840113    281.66158  0.022018573  0.021585993            1 
 1067000   0.82434602    -7.657675    282.31615  0.022049059  0.021571739            2 
 1068000   0.81832045   -7.6677562    282.23352  0.022021966  0.021557404            2 
 1069000   0.83157696   -7.6104122    282.23629  0.022001582  0.021543149            3 
 1070000   0.83907908   -7.6062906    283.13783  0.022051233  0.021529054            2 
 1071000    0.8279957   -7.6511623    282.28767  0.021964494  0.021514942            3 
 1072000   0.83661156   -7.6736005    281.68853  0.021897429  0.021500748            2 
 1073000   0.83125448   -7.6251757     283.4704  0.022015408  0.021486497            2 
 1074000   0.82235474   -7.6352057    282.87774  0.021948925  0.021472385            5 
 1075000   0.81239626   -7.6225617    283.53798  0.021979688  0.021458423            3 
 1076000   0.81060122   -7.6588632    282.72889  0.021896599  0.021444306            4 
 1077000   0.83585672   -7.6481294     283.8516  0.021963138  0.021430234            2 
 1078000   0.80736566   -7.6944999    282.68231  0.021852374  0.021416092            2 
 1079000    0.8336509    -7.673358    282.91409  0.021850023  0.021401845            5 
 1080000   0.80288105   -7.6378648     282.8903  0.021827955   0.02138754            5 
 1081000   0.81871749   -7.6957709    282.82703  0.021802885  0.021373273            2 
 1082000   0.81961564   -7.6852235    283.31415  0.021820252  0.021358915            3 
 1083000   0.80729163   -7.6645364    282.69938  0.021752799  0.021344559            3 
 1084000     0.816125   -7.6835197     283.0137  0.021756896  0.021330218            4 
 1085000   0.80578605   -7.6633782    282.99056  0.021735066  0.021315789            2 
 1086000   0.80244584   -7.6480987     282.9254  0.021710052   0.02130144            4 
 1087000   0.82247332   -7.6773363    282.65811  0.021669588  0.021286991            1 
 1088000   0.81664316   -7.6711092    283.18988  0.021690401  0.021272573            2 
 1089000   0.81114746   -7.6542979    283.92739   0.02172692  0.021258265            3 
 1090000   0.81636247   -7.6471054    283.89628  0.021704609  0.021244072            4 
 1091000   0.81241009   -7.6692348    284.01112  0.021693486  0.021229991            2 
 1092000   0.81976516   -7.6480742    284.06591  0.021677802  0.021215901            2 
 1093000   0.82464951   -7.6516162    284.85173  0.021717881  0.021201919            2 
 1094000   0.82796566   -7.6619244    284.30601   0.02165646  0.021187818            3 
 1095000   0.83074003   -7.6840054    284.20655  0.021629113  0.021173633            3 
 1096000   0.83695715   -7.6470645    283.77718  0.021576732  0.021159457            4 
 1097000   0.81574517   -7.6577113    285.13634  0.021660312  0.021145336            2 
 1098000   0.82561613   -7.6554169    284.19512   0.02156915  0.021131051            5 
 1099000   0.81012249   -7.6514404    284.50919  0.021573339  0.021116811            3 
 1100000   0.79932378   -7.6655117    284.72299  0.021569923  0.021102632            6 
 1101000   0.80809247   -7.6714348    284.02536  0.021497529  0.021088361            4 
 1102000   0.82331515   -7.7015955     284.2345  0.021493837  0.021074048            5 
 1103000   0.81506761   -7.6640594     284.6544  0.021506074  0.021059844            3 
 1104000   0.81508458   -7.6884232    284.79561  0.021497254  0.021045587            2 
 1105000   0.80930372    -7.656298    284.72695  0.021472621  0.021031363            3 
 1106000   0.82484348   -7.6746766    285.08894  0.021480481  0.021017174            3 
 1107000   0.79758402   -7.6828368    284.53681  0.021419513  0.021002861            1 
 1108000    0.8054904   -7.6658515    285.27175  0.021455457  0.020988562            2 
 1109000   0.81306671   -7.6797699    284.89304  0.021407653  0.020974224            3 
 1110000   0.80755934   -7.6978033    284.49552  0.021358522   0.02095988            3 
 1111000   0.79217777   -7.6742801    283.77956  0.021285596  0.020945475            2 
 1112000   0.79661471   -7.6590305    285.39207  0.021387295  0.020931038            6 
 1113000   0.82046784   -7.6640125    285.21653  0.021354937  0.020916746            4 
 1114000   0.80945417   -7.6825626    285.51492  0.021358088  0.020902458            2 
 1115000   0.80554695   -7.6998109    285.03271  0.021302893   0.02088809            2 
 1116000   0.80982233    -7.665148    285.04789  0.021284938  0.020873669            2 
 1117000    0.8249323   -7.6857286    285.58213  0.021305739  0.020859353            2 
 1118000   0.81915503   -7.6728973    285.56034  0.021285058  0.020845125            2 
 1119000   0.81469684   -7.6949385    284.67826  0.021200347  0.020830848            4 
 1120000   0.80015235   -7.7027395    284.93999  0.021200892  0.020816526            3 
 1121000   0.79905216   -7.6780802    285.64125   0.02123411  0.020802252            2 
 1122000   0.79557674   -7.6776262    286.11615  0.021250456  0.020788071            5 
 1123000   0.80297451   -7.7044737    286.23165  0.021240105  0.020773929            3 
 1124000   0.80819584   -7.6697439     287.1154  0.021286729  0.020759889            1 
 1125000   0.81154405   -7.6830148    285.80121   0.02117046  0.020745832            3 
 1126000   0.78875077   -7.6788197    286.05306  0.021170297  0.020731712            7 
 1127000   0.82040763   -7.6687529    286.96097  0.021218646  0.020717648            2 
 1128000   0.82337991   -7.6674941    287.20024  0.021217512  0.020703614            2 
 1129000   0.79720887   -7.7065749    286.75117  0.021165572  0.020689517            3 
 1130000   0.80965659   -7.7190431    286.61938  0.021137122  0.020675357            4 
 1131000   0.79410168   -7.6715091     287.6729  0.021196058  0.020661256            3 
 1132000   0.79441519   -7.6935469    287.29642  0.021149619  0.020647119            3 
 1133000   0.80028441    -7.711696    286.65607  0.021083853   0.02063304            3 
 1134000     0.809366   -7.7256242    286.69639  0.021068224  0.020618846            4 
 1135000   0.80402321   -7.7090682    286.75902   0.02105426  0.020604593            2 
 1136000   0.80326087    -7.744338    286.27248  0.021000035  0.020590353            4 
 1137000   0.80311971   -7.7123484    287.37087  0.021062069  0.020576067            2 
 1138000   0.82375929   -7.7004491    286.53965  0.020982693  0.020561831            4 
 1139000   0.78005021   -7.7249262    286.33604  0.020949374  0.020547534            6 
 1140000   0.79567304   -7.7178291    287.39225  0.021008205  0.020533271            2 
 1141000   0.78507045   -7.7284459    287.04949   0.02096476  0.020519031            2 
 1142000   0.79655425   -7.6812175    286.21881  0.020885786  0.020504888            4 
 1143000   0.78852245   -7.7206333    287.06381   0.02092912  0.020490635            2 
 1144000   0.79893651   -7.7090375    287.46588  0.020940114  0.020476435            3 
 1145000   0.80540548   -7.7184166    287.10211   0.02089535  0.020462348            3 
 1146000   0.80537779   -7.7284549    287.77485  0.020926036  0.020448296            4 
 1147000   0.78400377   -7.7471998    287.54594  0.020891161  0.020434231            3 
 1148000   0.79569279   -7.7158214    287.92085  0.020900178  0.020420183            6 
 1149000   0.77935858    -7.718481    287.75356  0.020869855  0.020406147            5 
 1150000   0.79332899   -7.7396947    287.61634  0.020841763  0.020392107            3 
 1151000   0.79701235   -7.7227559    287.92437  0.020845958  0.020378086            4 
 1152000   0.78752952   -7.7304928    287.58817  0.020803542  0.020364041            4 
 1153000   0.79870454   -7.7436258    287.46575  0.020776652  0.020349926            2 
 1154000   0.79228928   -7.7429019    288.14237  0.020807508  0.020335794            3 
 1155000   0.79910132   -7.7099828    288.40489  0.020808434  0.020321743            3 
 1156000   0.80485993    -7.698967    288.15222  0.020772219  0.020307709            2 
 1157000     0.801993   -7.7425961    287.89603  0.020735813   0.02029366            1 
 1158000   0.78122556   -7.6994279     288.0017  0.020725511  0.020279555            5 
 1159000   0.79036868   -7.7306218    288.31522  0.020730171  0.020265447            2 
 1160000   0.79576944    -7.712611    288.83105  0.020749357  0.020251313            1 
 1161000    0.7988385   -7.7245102    288.07636  0.020677316  0.020237198            4 
 1162000   0.80043967   -7.6998103    288.82192  0.020712989  0.020223212            3 
 1163000   0.78675834    -7.738691    288.33988  0.020660639  0.020209207            4 
 1164000    0.7938745   -7.7246906     288.8334  0.020678221  0.020195219            4 
 1165000   0.79304808   -7.7390737    288.62391  0.020645487  0.020181204            5 
 1166000   0.77902599   -7.7362576    288.34819  0.020608075  0.020167131            5 
 1167000   0.78338567   -7.7223275    289.09555  0.020643784  0.020153131            3 
 1168000   0.77528272   -7.7096685    289.19307  0.020633067  0.020139184            2 
 1169000   0.79426573   -7.7083704    289.69337  0.020651082   0.02012541            3 
 1170000   0.79551381   -7.7100949    289.58215  0.020625509  0.020111682            3 
 1171000   0.78079739   -7.7477759    289.22175  0.020582248  0.020097893            3 
 1172000   0.77253209   -7.7481882    289.33236  0.020572551  0.020084123            4 
 1173000   0.79113946   -7.7661845     289.9559  0.020599311   0.02007036            2 
 1174000   0.77805314   -7.7577573    290.03436  0.020587334  0.020056624            3 
 1175000   0.78488926   -7.7475904    289.30924  0.020518386  0.020042811            3 
 1176000   0.79091125   -7.7253072    289.69144  0.020528022   0.02002906            2 
 1177000   0.78139793    -7.742589    289.69337  0.020510717  0.020015237            7 
 1178000   0.76708616   -7.7382576    290.06405  0.020519528  0.020001419            2 
 1179000    0.7759279   -7.7375049    289.92124   0.02049203  0.019987688            6 
 1180000   0.76844785   -7.7176612    289.47994  0.020443499  0.019974008            4 
 1181000   0.79915972   -7.7563145    289.45817  0.020424652  0.019960199            2 
 1182000   0.79237061   -7.7545215    290.34418  0.020469838  0.019946362            4 
 1183000    0.7928197   -7.7677415     289.6157  0.020401218  0.019932455            3 
 1184000   0.79409429   -7.7540266    290.05883  0.020415177   0.01991855            2 
 1185000   0.78969796   -7.7623051    289.79011  0.020379051  0.019904674            7 
 1186000   0.76577751   -7.7431832    290.40252  0.020404899  0.019890853            3 
 1187000   0.79012048   -7.7212115    290.38927  0.020386778  0.019877041            7 
 1188000   0.78009088   -7.7361037    290.79633  0.020398172  0.019863259            4 
 1189000   0.77726004   -7.7394645     290.4731  0.020358362  0.019849613            3 
 1190000   0.77821914   -7.7284322    290.77746  0.020362567   0.01983601            5 
 1191000   0.77472689   -7.7517043    291.18735   0.02037415  0.019822283            2 
 1192000   0.77302686   -7.7557904    290.77985  0.020328569  0.019808612            2 
 1193000   0.77474253   -7.7641388    291.07098  0.020331865  0.019794923            3 
 1194000   0.78447998   -7.7791993    290.87675  0.020301281  0.019781298            2 
 1195000   0.76366097   -7.7566108    291.20362  0.020307086  0.019767733            3 
 1196000   0.77517613    -7.751992    290.60643  0.020248497   0.01975412            7 
 1197000   0.78273565    -7.780982    291.45478  0.020290642  0.019740538            2 
 1198000   0.77793579   -7.7600521    290.96873  0.020239895  0.019726892            2 
 1199000   0.77425805   -7.7672101    291.18098  0.020237766  0.019713271            3 
 1200000   0.77153834   -7.7661762    291.42986  0.020238185  0.019699628            3 
 1201000   0.78582612   -7.7890132     291.3821   0.02021802   0.01968597            2 
 1202000   0.77393982   -7.8023656    291.63334  0.020218617  0.019672328            4 
 1203000   0.75498673   -7.7704924    291.50006  0.020192578  0.019658726            3 
 1204000   0.77339049   -7.7498287    292.04789  0.020213724  0.019645139            4 
 1205000   0.75453692   -7.8111782    291.45134  0.020155694  0.019631475            2 
 1206000   0.77249595   -7.7688435    291.01157  0.020108594  0.019617768            2 
 1207000    0.7656529   -7.7912099    291.66791  0.020137249  0.019604129            2 
 1208000   0.77526637   -7.7690685     292.8547  0.020202449  0.019590535            4 
 1209000   0.76512473   -7.7625477    292.22904  0.020142614  0.019576955            1 
 1210000   0.76276562   -7.7367674    291.77026   0.02009437  0.019563386            3 
 1211000   0.74582332   -7.7640244    291.69963  0.020072917  0.019549734            2 
 1212000   0.77048991   -7.7872067    291.19074  0.020021366  0.019536042            3 
 1213000   0.77325531   -7.8079932    291.78824  0.020045908  0.019522385            3 
 1214000   0.76648583   -7.7874231    291.26573  0.019993529   0.01950867            3 
 1215000   0.76202944   -7.7757706    291.03174  0.019961025   0.01949487            3 
 1216000   0.78747188   -7.7912627    291.20548  0.019956516  0.019481074            3 
 1217000   0.76491069    -7.803334    291.49889  0.019960209  0.019467347            2 
 1218000   0.76566462   -7.8013713    291.15983  0.019920623  0.019453656            3 
 1219000   0.76338673   -7.7761405    291.78937  0.019947318  0.019439912            2 
 1220000   0.77678363   -7.8043384    291.40677  0.019904834  0.019426181            2 
 1221000   0.76567194   -7.7724397    291.76776  0.019913169  0.019412476            8 
 1222000   0.76590704   -7.7957466    291.69821  0.019892131  0.019398745            2 
 1223000   0.75815049   -7.7967105      292.081  0.019901949  0.019384931            3 
 1224000   0.76465429   -7.8088521    292.09801  0.019886847  0.019371102            2 
 1225000   0.78152323   -7.8047198    291.66959  0.019841469  0.019357305            2 
 1226000   0.76043263   -7.7884755    291.12952  0.019788575   0.01934352            2 
 1227000   0.77010388   -7.7963022    291.61751   0.01980559  0.019329726            3 
 1228000   0.76679425   -7.7646335    292.30132  0.019835866   0.01931595            5 
 1229000   0.76854776   -7.7442895    292.81243  0.019854382  0.019302218            3 
 1230000   0.76759145   -7.7916089    292.59146   0.01982327  0.019288446            6 
 1231000   0.76441265   -7.7699766    292.20436  0.019780961  0.019274752            3 
 1232000   0.77061015   -7.7761393    292.34802  0.019774622  0.019261024            5 
 1233000   0.75754058   -7.7757696    292.41837  0.019763339  0.019247364            3 
 1234000   0.77345917   -7.7964341     292.8078  0.019773622  0.019233685            2 
 1235000   0.75587865   -7.8055032    292.38284  0.019728937  0.019220081            8 
 1236000   0.75585817   -7.8090931     292.8483  0.019744357  0.019206401            3 
 1237000   0.75779297   -7.8068261    292.25675  0.019688544  0.019192732            3 
 1238000   0.75763746   -7.8104813    292.45433  0.019685941  0.019179076            3 
 1239000   0.75905753   -7.8027653    292.51471  0.019674113  0.019165479            2 
 1240000   0.75785478   -7.7956259    292.36456  0.019648156  0.019151875            3 
 1241000   0.74674248   -7.7933366     292.8249  0.019663235   0.01913827            3 
 1242000   0.77109207    -7.796912    292.93837  0.019655017  0.019124691            4 
 1243000   0.74570933   -7.7888656    293.36183  0.019667594  0.019111206            2 
 1244000   0.76099193   -7.8154245    292.66079  0.019604822  0.019097672            2 
 1245000   0.75418686   -7.8006939    293.11593   0.01961954  0.019084137            4 
 1246000   0.75201451   -7.8125432    293.21021    0.0196101  0.019070569            1 
 1247000     0.748465   -7.8111518    292.79196  0.019566424  0.019057053            4 
 1248000   0.75215178   -7.8106133    293.41262  0.019592189  0.019043543            3 
 1249000   0.75683197   -7.8002005    293.49248  0.019581831  0.019030017            6 
 1250000   0.75320667   -7.7840441    293.61046  0.019574031  0.019016551            2 
 1251000   0.75683007   -7.7997942    293.04471  0.019520697  0.019003054            2 
 1252000   0.76080797   -7.8047815      292.842  0.019491614  0.018989489            4 
 1253000   0.76731364   -7.8204213    293.14202  0.019496011  0.018975863            3 
 1254000   0.74045409   -7.8221959    293.04726  0.019474167  0.018962183            5 
 1255000   0.76900282   -7.8697399    292.95394  0.019452453  0.018948475            2 
 1256000   0.73817601    -7.855958    292.98473  0.019439008  0.018934725            3 
 1257000   0.75142763   -7.8500261    293.21965  0.019439117  0.018920936            4 
 1258000   0.74406823   -7.8665529    292.60999   0.01938328  0.018907101            5 
 1259000   0.74967878    -7.828373     292.3745  0.019352297  0.018893292            3 
 1260000   0.74122133   -7.8274952    292.95427  0.019375283   0.01887956            1 
 1261000   0.74659611   -7.8606983    292.64597  0.019339543  0.018865728            1 
 1262000   0.73805125   -7.8052383    293.24739  0.019363932  0.018851952            3 
 1263000   0.76268568     -7.82787    292.53888  0.019301853  0.018838208            3 
 1264000    0.7469069   -7.8231525    293.06541  0.019321295  0.018824498            2 
 1265000   0.74255463   -7.8310894    292.62955  0.019277309  0.018810758            3 
 1266000   0.74749849   -7.8179844    293.26641  0.019304002  0.018796997            2 
 1267000   0.75027225   -7.8522166    293.00812  0.019271778  0.018783338            4 
 1268000   0.75159573   -7.8453467    293.37822  0.019280903  0.018769584            1 
 1269000   0.74507701   -7.8394249    292.82723  0.019229526  0.018755791            6 
 1270000   0.71953074   -7.8441308    294.12769  0.019299717  0.018742047            4 
 1271000   0.74244019   -7.8365676    293.47641  0.019241831  0.018728345            3 
 1272000   0.74366527   -7.8724816    293.15904  0.019205912  0.018714607            4 
 1273000   0.74295543   -7.8433648     292.9689  0.019178378  0.018700802            3 
 1274000   0.76225178   -7.8557281    293.36603    0.0191893  0.018687059            2 
 1275000   0.73812482   -7.8486201    293.08074  0.019155604  0.018673289            3 
 1276000   0.74877201    -7.835327    292.38879  0.019095401  0.018659641            2 
 1277000   0.73324691   -7.8396559    293.27806  0.019138479  0.018645907            4 
 1278000   0.73860956   -7.8347405    293.50283   0.01913816  0.018632207            4 
 1279000   0.74936813   -7.8328649    293.37148  0.019114639  0.018618576            6 
 1280000   0.74454036   -7.8421589    293.73569  0.019123418  0.018604905            2 
 1281000   0.72665672   -7.8075041    294.16356  0.019136323  0.018591309            3 
 1282000   0.73703818   -7.8250373    293.26121  0.019062741   0.01857767            3 
 1283000   0.74293792   -7.8147126    293.03162  0.019032971   0.01856399            4 
 1284000   0.75767438   -7.8314613    293.75343  0.019064994  0.018550292            4 
 1285000   0.73821151   -7.8296225     293.5112  0.019034449  0.018536636            6 
 1286000   0.74243416   -7.8435131    293.32649  0.019007678  0.018522944            4 
 1287000   0.75415074   -7.8444974    294.03458  0.019038758  0.018509316            2 
 1288000    0.7612978   -7.8183081     293.9263  0.019016971   0.01849567            2 
 1289000   0.73845581   -7.8571656    293.55444  0.018978177  0.018482026            7 
 1290000   0.73613714   -7.8660759    293.78643  0.018978451  0.018468312            5 
 1291000   0.73024139   -7.8618183    293.39398  0.018938419  0.018454573            3 
 1292000   0.71080171   -7.8676853    293.65838  0.018940814   0.01844078            7 
 1293000   0.72512979    -7.842346    293.18732  0.018895805  0.018427027           11 
 1294000   0.73004827   -7.8599284     294.0316  0.018935575  0.018413274            4 
 1295000    0.7502059   -7.8339727    293.48001  0.018885458  0.018399531            2 
 1296000   0.74074131   -7.8381773    293.26949  0.018857349  0.018385787            2 
 1297000   0.72993045   -7.8510397    293.96058  0.018887213  0.018372087            5 
 1298000   0.71833326    -7.855971    294.11474  0.018882559  0.018358374            1 
 1299000   0.73844714   -7.8275577    294.04719  0.018863689  0.018344715            2 
 1300000   0.72561949   -7.8318081    293.95034  0.018842971  0.018331051            3 
 1301000   0.73488957   -7.8628523    293.91892  0.018826474  0.018317347            2 
 1302000   0.72371217   -7.8852383    294.39527  0.018842503  0.018303671            6 
 1303000   0.74005235   -7.8708545    293.52579  0.018772435  0.018289984            3 
 1304000   0.73123537   -7.8432591    292.89632  0.018717812  0.018276305            4 
 1305000    0.7228617   -7.8554419    293.70658   0.01875521  0.018262654            4 
 1306000   0.72834161   -7.8712721    293.72098  0.018741767  0.018249004            5 
 1307000   0.73824248   -7.8661729    294.24705   0.01876097  0.018235415            3 
 1308000   0.73287452   -7.8644285    294.11268  0.018738065  0.018221824            2 
 1309000   0.73037878   -7.8841376    294.01854  0.018717758  0.018208253            4 
 1310000   0.72292621   -7.8789428    294.34232  0.018724066  0.018194636            3 
 1311000   0.73448385   -7.8818743    294.05994  0.018691835  0.018181063            3 
 1312000   0.71973663   -7.8991796    293.45214  0.018638983  0.018167467            4 
 1313000   0.73289598   -7.8682802    293.88329  0.018652151  0.018153846            2 
 1314000   0.72433476   -7.8614318    294.02862  0.018647173  0.018140273            3 
 1315000   0.72084093   -7.8738148    293.80935  0.018619097  0.018126722            4 
 1316000   0.72725263   -7.8686484    294.26394  0.018633735  0.018113114            2 
 1317000   0.73741827   -7.8923481    294.15432   0.01861265  0.018099525            3 
 1318000   0.71866466   -7.9087023    293.92854  0.018584253  0.018085956            3 
 1319000   0.73431881    -7.918068    294.15585  0.018584524  0.018072372            1 
 1320000    0.7173534   -7.9148377    293.41742  0.018523827  0.018058758            6 
 1321000   0.73564601   -7.9057066    294.63917  0.018586877  0.018045137            6 
 1322000   0.72297984   -7.9184623     294.0879  0.018538067  0.018031595            3 
 1323000   0.70606372   -7.8945602    294.45346  0.018547081  0.018018038            2 
 1324000   0.74952513   -7.9105706    293.83557  0.018494182  0.018004521            2 
 1325000   0.72271332   -7.9158098    293.95202  0.018487548  0.017991005            2 
 1326000   0.72335965   -7.8873686     295.0446   0.01854227  0.017977567            6 
 1327000   0.72982841   -7.8915121    294.57637  0.018498893   0.01796408            4 
 1328000    0.7194841    -7.900833    295.21215  0.018524859   0.01795064            8 
 1329000   0.73437311   -7.9141801    294.62598  0.018474165  0.017937191            3 
 1330000   0.70395428   -7.9027541    294.78198  0.018470049  0.017923728            5 
 1331000   0.73619028   -7.9057357    294.79559  0.018457024  0.017910338           11 
 1332000   0.72271019   -7.9134496    295.20352  0.018468689  0.017896944            3 
 1333000    0.7257431   -7.9252513     294.5033  0.018411059  0.017883514            2 
 1334000   0.72222745   -7.9025943    294.69758  0.018409394  0.017870149            4 
 1335000   0.70323242   -7.9430711    295.10897  0.018421284  0.017856674            2 
 1336000   0.72261695   -7.9195527    295.52068  0.018433176  0.017843275            5 
 1337000   0.73338698   -7.8922603    295.06394  0.018390921  0.017829954            4 
 1338000   0.70918714   -7.8601103     295.4575  0.018401688  0.017816602            1 
 1339000    0.7267555   -7.8690055    295.89271  0.018415031  0.017803315            2 
 1340000   0.73685318   -7.9036146    295.23229  0.018360217  0.017790036            5 
 1341000   0.71559333   -7.9293315    295.51203  0.018363909  0.017776758            2 
 1342000   0.73140928   -7.9056801    295.39522  0.018342972  0.017763451            2 
 1343000   0.71548107   -7.8970246    294.90919  0.018299156    0.0177502            3 
 1344000   0.72791067   -7.8805242    295.58666  0.018327546  0.017736914            3 
 1345000   0.71968712   -7.9203081    295.37593  0.018300863   0.01772369            3 
 1346000   0.71661558   -7.8989336    295.38733  0.018287972  0.017710418            2 
 1347000   0.71392372   -7.8956288    295.11891   0.01825779  0.017697137            3 
 1348000   0.71734822   -7.9350327     294.9009  0.018230768  0.017683807           10 
 1349000   0.72148592    -7.900665    294.68764   0.01820408  0.017670489            3 
 1350000    0.7156528    -7.941706    294.73496  0.018193516  0.017657184            6 
 1351000   0.72477006   -7.9086832    295.27465  0.018213339  0.017643854            2 
 1352000   0.71369601   -7.9123206    295.43584  0.018209803  0.017630591           12 
 1353000    0.7142983    -7.928507    295.25523   0.01818522  0.017617317            4 
 1354000   0.71603701   -7.8836324    295.87429   0.01820989  0.017604069            1 
 1355000   0.72330049   -7.9070232    295.60695  0.018180009  0.017590831            5 
 1356000   0.71218981   -7.8894267    295.13058  0.018137327  0.017577602            4 
 1357000   0.70750752   -7.8984387    295.49432  0.018146298  0.017564392            3 
 1358000   0.71286611   -7.8856836    295.79182  0.018151192   0.01755119            3 
 1359000   0.70204798   -7.9069343    295.60785  0.018126554  0.017538044            2 
 1360000   0.71877206   -7.9135359    295.32469  0.018095876  0.017524866            1 
 1361000   0.72088138   -7.9210356    295.47873  0.018092011  0.017511652            4 
 1362000   0.70558838   -7.8956363    295.30756  0.018068255  0.017498502            3 
 1363000   0.70520876   -7.9158592    296.08101  0.018102287  0.017485343            6 
 1364000   0.71565653   -7.9128529    295.73895  0.018068118  0.017472166            7 
 1365000   0.71487641   -7.9308349     296.1767  0.018081605  0.017458949            3 
 1366000   0.72350016   -7.9253938    295.27589  0.018013415  0.017445719            4 
 1367000   0.69902872   -7.9189594    295.49367  0.018013513  0.017432481            3 
 1368000   0.69708876   -7.9519646    295.37695  0.017993235  0.017419216            5 
 1369000   0.70189184   -7.9328221    295.13138  0.017965144   0.01740594            4 
 1370000   0.70928143   -7.9430294    294.86339  0.017935729  0.017392705            3 
 1371000   0.71418372   -7.9411215    295.16143  0.017940763  0.017379468            5 
 1372000   0.71847817   -7.9235337     295.6481  0.017957246  0.017366238            2 
 1373000   0.71587397    -7.958523    295.65282  0.017944454  0.017353016            5 
 1374000    0.7014744   -7.9311921    294.90516  0.017886048  0.017339775            3 
 1375000   0.71972212   -7.9449749    294.99707   0.01787861  0.017326527            6 
 1376000   0.70219127   -7.9409758    295.06946  0.017870001  0.017313257            6 
 1377000    0.7062108   -7.9343758    295.80084  0.017901285  0.017299999            4 
 1378000   0.70298238   -7.9339255    295.80782  0.017888717  0.017286745            1 
 1379000   0.69235763   -7.9646313    294.94183  0.017823412  0.017273503            3 
 1380000   0.70464587   -7.9478904    295.03792  0.017816299  0.017260226            4 
 1381000   0.69146463   -7.9344165     294.8446  0.017791733   0.01724699            2 
 1382000   0.69834739   -7.9276073    295.46011  0.017815974  0.017233736            4 
 1383000   0.69033333   -7.9478399    295.06582  0.017779333  0.017220539            3 
 1384000   0.69571759    -7.927321    295.61564  0.017799593  0.017207321            2 
 1385000   0.70678153   -7.9494675    295.75856  0.017795341  0.017194102            2 
 1386000   0.70471861   -7.9344052    295.19761  0.017748774  0.017180874            2 
 1387000   0.70292146   -7.9676678    295.50163  0.017754244  0.017167642            2 
 1388000   0.70042737   -7.9470609     295.5863  0.017746536  0.017154401            3 
 1389000   0.70850976   -7.9450614    295.06959  0.017702759  0.017141191            4 
 1390000   0.70400767    -7.974131    294.73225  0.017669799  0.017127931            6 
 1391000   0.71499782   -7.9684421    294.88923  0.017666501  0.017114637            4 
 1392000   0.69740077   -7.9706654    295.49546  0.017690102  0.017101371            3 
 1393000   0.70823044   -7.9840945    294.89277  0.017641348  0.017088094            2 
 1394000   0.70489164   -7.9474671    295.99571  0.017694627  0.017074799            5 
 1395000   0.69707847   -7.9555323    294.70732  0.017604978  0.017061547            2 
 1396000   0.69605377   -7.9711263    295.16918  0.017619937  0.017048315            1 
 1397000    0.6902756   -7.9635391    294.71014  0.017579942  0.017035125            4 
 1398000   0.69119314   -7.9463748    295.29845  0.017602435  0.017021926            6 
 1399000   0.69033472     -7.96434    295.70878  0.017614295  0.017008797            3 
 1400000   0.69689323   -7.9458707    295.05215  0.017562628  0.016995618            3 
 1401000   0.69540721   -7.9509528    295.41937  0.017571935  0.016982452            3 
 1402000   0.70502333   -7.9489178    295.63908  0.017572461  0.016969323            4 
 1403000   0.67596669   -7.9595296     295.3684  0.017543858  0.016956223            2 
 1404000   0.69918881   -7.9354923    295.53332  0.017541151  0.016943115           12 
 1405000   0.68298357   -7.9560986    295.68329  0.017537562  0.016930064            4 
 1406000    0.7114663   -7.9667102    295.58363  0.017519182  0.016916993            6 
 1407000    0.6891139   -7.9558108    295.63888  0.017510002  0.016903925            3 
 1408000   0.69936757   -7.9501699    295.80306  0.017507283  0.016890909            6 
 1409000   0.68196973   -7.9468273    296.27168  0.017522574    0.0168779            4 
 1410000   0.68874525   -7.9585283    295.90582  0.017488523  0.016864952            2 
 1411000   0.68388008   -7.9549382    295.77205  0.017468229  0.016851998            3 
 1412000   0.69644084   -7.9417751    296.39639  0.017492705  0.016839058            1 
 1413000   0.69105625   -7.9365445    295.82699  0.017446744  0.016826112            4 
 1414000   0.68633756   -7.9655058    295.67596  0.017425504  0.016813112            5 
 1415000   0.69180222   -7.9564596      295.909  0.017426914  0.016800073            2 
 1416000   0.68992534   -7.9780165     295.5239  0.017391943  0.016787039            2 
 1417000   0.67623463   -7.9649807    295.33819  0.017368748  0.016774026            3 
 1418000   0.67006557   -7.9504242    295.52202  0.017367302  0.016761032            4 
 1419000   0.69097798   -7.9624603    295.88479  0.017376368  0.016748069            8 
 1420000   0.68894021   -7.9579561     294.9649  0.017310147  0.016735062            3 
 1421000   0.69357381   -7.9995701    295.96719  0.017356743  0.016722045            4 
 1422000   0.69720704   -8.0094283    295.88804  0.017339899  0.016709034            3 
 1423000   0.68423702   -7.9841523    295.41088   0.01729977  0.016696064            6 
 1424000   0.67716693   -7.9967036    295.23987  0.017277614  0.016683135            4 
 1425000   0.68377138   -7.9916642    295.70637   0.01729277  0.016670206            5 
 1426000   0.67816839   -7.9839212    295.60072  0.017274469   0.01665729            3 
 1427000   0.67613582   -7.9847363    295.87391  0.017278317  0.016644373            6 
 1428000   0.69693118   -7.9877676    295.97636  0.017272197  0.016631435            3 
 1429000      0.68436   -7.9966852    296.38683  0.017284047  0.016618539            6 
 1430000   0.69109983   -8.0012262    295.68167  0.017230866  0.016605709           12 
 1431000   0.66977986   -7.9757372    295.92818  0.017233181   0.01659287            2 
 1432000   0.69718449   -8.0016817    295.79014  0.017213114  0.016580077            4 
 1433000   0.68990438   -7.9879739    296.01686  0.017214286  0.016567272            4 
 1434000   0.68538586   -7.9801399    296.37917  0.017223336  0.016554491            1 
 1435000   0.67689031    -8.010231    296.07056  0.017193413   0.01654169            3 
 1436000   0.67580351   -8.0110778    295.80535  0.017166049  0.016528899            1 
 1437000   0.67714812   -8.0130983    295.76404  0.017151708  0.016516054            4 
 1438000   0.68447348   -8.0406832    296.04573  0.017156104   0.01650322            4 
 1439000   0.67138528   -8.0147089    295.86087  0.017133476   0.01649038            3 
 1440000   0.69137796   -8.0028123    296.24547  0.017143835   0.01647756            5 
 1441000   0.68103248   -7.9879915    295.73212  0.017102251  0.016464783            2 
 1442000   0.67007014   -8.0040085    295.67197  0.017086914  0.016452002            4 
 1443000   0.68288926   -7.9659814    296.69965  0.017134422   0.01643922            5 
 1444000   0.67114445   -7.9976752    296.55883  0.017114429  0.016426502            2 
 1445000   0.68236511    -8.003288    295.76387   0.01705674  0.016413751            3 
 1446000   0.67065549   -7.9989606    296.07437  0.017062838  0.016400985            3 
 1447000   0.66717981   -7.9949149    296.46779  0.017073704  0.016388232            6 
 1448000   0.66824837   -7.9723968    296.17283  0.017044937  0.016375511            3 
 1449000   0.66998428   -8.0123185      296.117  0.017029963  0.016362775            6 
 1450000   0.66836802    -8.017612    296.90012  0.017063225  0.016349994            6 
 1451000   0.67402229   -8.0040532    295.74911  0.016985361  0.016337239            1 
 1452000   0.68484096   -8.0342252    295.62232  0.016966387  0.016324494            3 
 1453000     0.673796   -8.0230244    295.52461  0.016949106   0.01631171            2 
 1454000   0.66476854   -8.0243402    295.38178  0.016929263  0.016298971            3 
 1455000   0.67243551   -8.0055103    295.42231  0.016919949  0.016286242            5 
 1456000   0.67873322    -7.993025     296.1294  0.016948798  0.016273514            4 
 1457000   0.66607649   -8.0041784    296.51612  0.016959284  0.016260818            3 
 1458000   0.66391224   -8.0101888    296.26586  0.016933348  0.016248097            4 
 1459000   0.66461564   -8.0201587    295.61558    0.0168846  0.016235386            4 
 1460000   0.66040683   -8.0090854    296.17591  0.016905018  0.016222688            3 
 1461000   0.68399764   -8.0416943    295.74464  0.016868848  0.016209969            3 
 1462000   0.65525611   -8.0269416    295.84391  0.016862968  0.016197249            3 
 1463000   0.67403334   -8.0282818    295.40786  0.016826604  0.016184516            5 
 1464000   0.66465094   -8.0140622    295.31766  0.016809976  0.016171804            9 
 1465000   0.67122195   -8.0316538    295.95643  0.016834837  0.016159088            6 
 1466000   0.66428471   -8.0239358    296.10374  0.016831727  0.016146413            7 
 1467000   0.68081774   -8.0057229     296.0942  0.016819712  0.016133738            3 
 1468000   0.67541911   -8.0557996    295.75299  0.016788885  0.016121042            3 
 1469000    0.6587155   -8.0415532    296.03395  0.016793394  0.016108329            2 
 1470000    0.6623186    -8.020526    295.73564  0.016765059  0.016095639            6 
 1471000   0.65479701   -8.0483982    295.55615  0.016743494  0.016082935            6 
 1472000   0.66147482   -8.0266166    295.69009  0.016739702  0.016070268            2 
 1473000   0.67535778   -8.0374863    296.25777  0.016760453  0.016057615            3 
 1474000   0.67271954   -8.0360289    295.35126  0.016697832  0.016044985            3 
 1475000   0.66474855    -8.049957     295.4157  0.016690153  0.016032399            3 
 1476000   0.67388311   -8.0256948     295.5267  0.016685112   0.01601983            3 
 1477000   0.67581918    -8.031131    295.67622  0.016682251  0.016007218            5 
 1478000   0.67570828    -8.030338    296.08877  0.016694225  0.015994657            5 
 1479000   0.64666641    -8.048296    295.58105   0.01665433  0.015982073            3 
 1480000   0.66580217   -8.0519751    296.06262  0.016670193  0.015969489            5 
 1481000   0.66643727   -8.0526082    296.16113  0.016664479  0.015956896            4 
 1482000   0.65008086    -8.049264    296.43069  0.016668392  0.015944321            5 
 1483000   0.65017912   -8.0434059    296.05385  0.016635977  0.015931756            3 
 1484000   0.65686779   -8.0499633     295.5114  0.016594306  0.015919183            3 
 1485000    0.6623527   -8.0534432    295.97127  0.016608937  0.015906616            4 
 1486000   0.66973716   -8.0886227    296.07059  0.016603331  0.015894037            5 
 1487000   0.64538742   -8.0707307    295.74309  0.016573812  0.015881468            5 
 1488000   0.65464746   -8.0429133    295.60043  0.016554684   0.01586894            2 
 1489000   0.66312951   -8.0525776    295.83816  0.016556871  0.015856408            5 
 1490000    0.6725101    -8.069787    295.65105  0.016535293  0.015843875            3 
 1491000   0.65942028   -8.0776441     295.8041  0.016532758  0.015831347            3 
 1492000   0.66087901   -8.0686578    295.76029   0.01651923  0.015818855            3 
 1493000   0.65856631   -8.0742389    295.46182  0.016491506  0.015806345            3 
 1494000   0.64519635   -8.0493968    295.63882   0.01649034  0.015793814            4 
 1495000   0.66328827   -8.0642559      295.276  0.016459086  0.015781298            3 
 1496000   0.65313215    -8.056709    295.71579  0.016472582  0.015768823            5 
 1497000   0.63658434   -8.0744243    296.23795  0.016490645    0.0157564            5 
 1498000   0.65194732   -8.0398344    296.59395  0.016499441  0.015743976            3 
 1499000   0.66006456   -8.0451773    296.44292  0.016480038  0.015731582            2 
 1500000   0.65215161   -8.0723476    295.64063   0.01642448  0.015719158            5 
 1501000   0.65815056   -8.0797481    295.82763  0.016423919  0.015706737            4 
 1502000   0.65121887   -8.0705452    295.30768  0.016384137  0.015694307            3 
 1503000   0.65346792   -8.0856404    295.63919  0.016391616  0.015681869            4 
 1504000   0.65863304   -8.0939318    295.78545  0.016388821  0.015669453            3 
 1505000   0.66112353   -8.0905821    296.31931  0.016407492   0.01565702            6 
 1506000    0.6556331   -8.0783311    295.42383  0.016347047  0.015644619            4 
 1507000   0.67618522   -8.0553474    295.22638  0.016325281  0.015632199            5 
 1508000     0.664941   -8.0881651    295.91479  0.016352497  0.015619791            5 
 1509000   0.66609873   -8.0565332    295.03123  0.016292867  0.015607374            5 
 1510000   0.65089066   -8.0928381    294.91615  0.016275726  0.015594938            4 
 1511000   0.66942166   -8.0739462    295.89078  0.016318706  0.015582525            4 
 1512000   0.65322235   -8.0878304    295.43553  0.016282822  0.015570152            3 
 1513000   0.66407318    -8.085712    296.03748  0.016305215  0.015557763            3 
 1514000   0.65071982   -8.1197822    295.65247  0.016273253  0.015545379            4 
 1515000   0.65310095   -8.0735965    295.30601  0.016243455  0.015532991            5 
 1516000   0.62977031   -8.0831658     295.7411  0.016256657  0.015520588            4 
 1517000    0.6362857   -8.1020612    295.80066  0.016249212  0.015508238            3 
 1518000   0.66285561   -8.0734522    295.51116  0.016222615  0.015495905            2 
 1519000   0.64192205   -8.0827376    295.63945  0.016218974  0.015483575            2 
 1520000   0.65132079    -8.082124    295.57539  0.016204791  0.015471237            2 
 1521000   0.64071275   -8.0952704    295.83069  0.016208125  0.015458944            3 
 1522000   0.64488498   -8.0671213    296.00005  0.016206748  0.015446682            3 
 1523000   0.64015978   -8.0486653     296.1899  0.016206495  0.015434423            2 
 1524000   0.63795486    -8.100245    295.69095  0.016168578  0.015422169            3 
 1525000    0.6471321    -8.071911    295.64741  0.016155596  0.015409924            2 
 1526000   0.64149015   -8.0799561    295.98316  0.016163344  0.015397692            4 
 1527000   0.64237562   -8.0696933    295.81742  0.016143714  0.015385467            2 
 1528000   0.65070026   -8.0635765    295.95999  0.016140924  0.015373243            3 
 1529000   0.65100371   -8.0870257    296.09616  0.016137789  0.015361052            5 
 1530000   0.64921113   -8.0694148    295.50027  0.016094786  0.015348866            2 
 1531000   0.63923491   -8.0753277    295.82821  0.016102123   0.01533665            2 
 1532000   0.63562854   -8.0924651    295.97259  0.016099466  0.015324428            2 
 1533000   0.63681554   -8.0678575    296.19795  0.016101215  0.015312208            3 
 1534000   0.64003711   -8.0642166    296.20442   0.01609107  0.015300007            3 
 1535000   0.63535072   -8.0913512    295.68683  0.016052488  0.015287848            4 
 1536000   0.64512373   -8.0742118    295.76189   0.01604611  0.015275704            2 
 1537000   0.64949924   -8.0640053    296.36522  0.016068381  0.015263552            5 
 1538000   0.63647011   -8.1095197    295.86978  0.016031089  0.015251408            4 
 1539000   0.64735748   -8.0918013     295.5342  0.016002502  0.015239262            4 
 1540000    0.6342534   -8.1072292    295.71279  0.016001774  0.015227094            5 
 1541000   0.63311648   -8.1050065    295.91241  0.016002185  0.015214915            4 
 1542000   0.63143216   -8.0974679    295.53634  0.015971484  0.015202738            2 
 1543000   0.62692841    -8.090377    295.90945  0.015981284  0.015190584            2 
 1544000   0.64198196   -8.0805432     295.7819  0.015964049  0.015178463            2 
 1545000   0.63310363   -8.1170264    295.93862  0.015962169   0.01516634            3 
 1546000   0.62288368   -8.1235235    295.59453  0.015933297  0.015154213            4 
 1547000   0.62469159   -8.0917077    295.57976  0.015922202  0.015142112            2 
 1548000   0.62666747   -8.1146073    295.37031  0.015900641  0.015130003            4 
 1549000   0.64176971   -8.1054903    295.79052  0.015912983  0.015117916            3 
 1550000   0.65579818   -8.1238301    296.14731  0.015921898  0.015105826            3 
 1551000   0.63480876   -8.1183715    295.88252  0.015897406  0.015093747            3 
 1552000   0.63886795   -8.1052123     295.5715  0.015870463  0.015081664            2 
 1553000   0.63427788   -8.0959557    295.91351  0.015878596  0.015069616            5 
 1554000   0.64082488   -8.1218239    296.01874  0.015874021  0.015057559            3 
 1555000    0.6287316   -8.1203675    295.38261  0.015829722  0.015045508            7 
 1556000   0.62686331   -8.1032423    295.76657  0.015840112   0.01503348            3 
 1557000   0.64197129   -8.1338434    295.82326  0.015832973  0.015021443            5 
 1558000    0.6264192   -8.1157605    295.31199  0.015795464  0.015009431            7 
 1559000   0.62073305   -8.1171611    295.67217  0.015804585  0.014997439            6 
 1560000   0.62309373   -8.1214967    295.31581  0.015775417  0.014985461            6 
 1561000    0.6235839   -8.1262106    295.60691  0.015780852  0.014973482            2 
 1562000   0.62404115   -8.1044573    295.44624  0.015762177  0.014961493            6 
 1563000   0.62167249   -8.1034289    295.55847  0.015758076  0.014949505            5 
 1564000   0.62865717   -8.0900103    295.92846  0.015767714  0.014937544            4 
 1565000    0.6251545   -8.0969486     296.1164  0.015767646  0.014925615            4 
 1566000   0.62529356   -8.1128763    296.07249  0.015755241  0.014913682            2 
 1567000   0.63176457   -8.1187316    295.19042  0.015698278  0.014901727            4 
 1568000   0.62793666    -8.122015    295.32512  0.015695425  0.014889789            3 
 1569000    0.6297755   -8.1313956    295.77448  0.015709288  0.014877849            6 
 1570000   0.63052467   -8.1272727    295.98402  0.015710405  0.014865932            3 
 1571000   0.64190369   -8.1246332    295.32195  0.015665285  0.014854038            3 
 1572000   0.61722462   -8.1414505    295.83918  0.015682739  0.014842144            2 
 1573000   0.62376551   -8.1210556    295.71622  0.015666254  0.014830258            5 
 1574000   0.61827526    -8.107198     295.1036  0.015623867  0.014818369            4 
 1575000   0.63761104   -8.1454496    295.20352  0.015619234  0.014806478            4 
 1576000   0.60510947   -8.1121473    295.62356  0.015631533   0.01479459            3 
 1577000   0.61724271   -8.1377078    295.39664   0.01560963  0.014782708            3 
 1578000   0.63558601   -8.1474246    295.21285  0.015590032  0.014770816            4 
 1579000   0.61863896   -8.1246487    295.26166  0.015582735  0.014758945            4 
 1580000   0.62457441   -8.1356491    295.01562  0.015559895  0.014747086            3 
 1581000   0.63209537   -8.1293889     295.3094  0.015565538  0.014735248            3 
 1582000   0.61274229   -8.1419666    295.43277  0.015562198  0.014723426            2 
 1583000   0.62864707   -8.1342305    295.04594  0.015532003  0.014711601            6 
 1584000   0.61078385   -8.1497499    295.75656  0.015559583  0.014699779            2 
 1585000   0.63695105   -8.1472985    295.41986  0.015532064   0.01468797            2 
 1586000   0.61231676   -8.1177694    295.15826  0.015508526  0.014676161            3 
 1587000   0.61374702   -8.1441072    295.30859  0.015506647  0.014664343            4 
 1588000   0.62562489   -8.1618172    295.60624  0.015512502   0.01465256            2 
 1589000   0.61385025   -8.1425151    295.08334  0.015475317  0.014640753            3 
 1590000   0.61685221   -8.1541668    295.44462  0.015484519  0.014628955            3 
 1591000   0.60801542   -8.1604381    295.32603  0.015468575  0.014617179            2 
 1592000   0.61717128   -8.1467048    295.42745  0.015464167   0.01460542            5 
 1593000   0.60553237   -8.1299227    295.11827  0.015438286  0.014593649            3 
 1594000    0.6098871   -8.1457211    295.48759  0.015447908  0.014581904            3 
 1595000   0.62442426   -8.1632697    295.11205  0.015418602  0.014570169            5 
 1596000   0.62612154   -8.1490793    295.22473  0.015414825  0.014558438            3 
 1597000   0.60382783   -8.1280308    295.29972  0.015409086  0.014546732            3 
 1598000   0.61130117   -8.1459333    295.53727  0.015411831  0.014535029            3 
 1599000   0.61277155   -8.1389232     295.5955  0.015405227  0.014523323            2 
 1600000   0.61863051   -8.1741455    295.14586   0.01537218  0.014511604            3 
 1601000   0.60769751   -8.1535963    295.23638   0.01536729  0.014499907            2 
 1602000   0.62025631    -8.140352    295.52449  0.015372684  0.014488213            5 
 1603000   0.61576883   -8.1513629    295.25145    0.0153489  0.014476553            2 
 1604000   0.61911019   -8.1530104    295.34543  0.015344214  0.014464853            4 
 1605000   0.62552969   -8.1508388    295.10633   0.01532224  0.014453188            4 
 1606000   0.61268971   -8.1477387    295.34569  0.015325119  0.014441545            4 
 1607000   0.61135304   -8.1608544      295.203  0.015308183  0.014429906            4 
 1608000   0.62280768   -8.1712936    295.40328  0.015309042  0.014418273            2 
 1609000   0.61404936   -8.1683084    295.54278  0.015306753  0.014406626            3 
 1610000   0.62695672   -8.1661034    294.86269  0.015262044  0.014394995            3 
 1611000   0.60824805    -8.155703    295.41014  0.015280889  0.014383411            2 
 1612000   0.60998795   -8.1653415    295.02601  0.015251552  0.014371822            5 
 1613000   0.61824573   -8.1645558    294.68378  0.015224415  0.014360235            2 
 1614000   0.60841794    -8.169011    295.06943  0.015234894  0.014348643            2 
 1615000   0.59839479    -8.162916    294.94171   0.01521887  0.014337045            2 
 1616000   0.59531233   -8.1757181    295.12402  0.015218854   0.01432546            2 
 1617000   0.60380193   -8.1419255    295.36157  0.015221685   0.01431389            2 
 1618000    0.6158846   -8.1791998    295.42014  0.015215294  0.014302323            2 
 1619000   0.60109534    -8.171836    294.61876  0.015164647  0.014290732            3 
 1620000   0.60716816   -8.1730633    295.32135  0.015191428  0.014279175            2 
 1621000   0.60309398   -8.1503453    295.10854  0.015171116   0.01426764            2 
 1622000   0.59963338   -8.1662846     294.9439  0.015153304  0.014256118            4 
 1623000   0.60851437    -8.155549    295.04461  0.015149138  0.014244616            3 
 1624000   0.59476036   -8.1783616    295.27878  0.015151826  0.014233129            3 
 1625000   0.60419646   -8.1699344    295.27287  0.015142198  0.014221642            4 
 1626000   0.61067222   -8.1656393    295.02099  0.015119977  0.014210154            3 
 1627000   0.60771819   -8.1728675     294.4327  0.015080552  0.014198664            1 
 1628000   0.59496497   -8.1715045    295.05008  0.015102891  0.014187189            2 
 1629000   0.60890474   -8.1923698    294.82291  0.015081999  0.014175714            5 
 1630000    0.6165729   -8.1657384    295.62597  0.015113802  0.014164259            2 
 1631000   0.61486952   -8.2073309    294.98415  0.015071743  0.014152811            3 
 1632000   0.58509322   -8.1666942    294.94268   0.01506039  0.014141373            3 
 1633000   0.60312658   -8.1869027    294.99373  0.015053773  0.014129934            3 
 1634000   0.59838599   -8.1702929    294.30164  0.015009263  0.014118487            3 
 1635000   0.60755359   -8.1867161    295.41879  0.015057023  0.014107058            2 
 1636000   0.60299095    -8.191652    294.63646  0.015007969  0.014095615            7 
 1637000   0.59422605   -8.2060067    294.66024  0.015000012  0.014084199            4 
 1638000   0.59754458   -8.1955169     295.3771  0.015027325  0.014072779            4 
 1639000   0.59768457   -8.1919932    294.69407  0.014983428  0.014061377            4 
 1640000    0.5915345   -8.2072344    294.63618  0.014971351  0.014049976            5 
 1641000    0.6060609   -8.1986108    295.29136  0.014995499  0.014038579            3 
 1642000   0.60655603   -8.1943523    294.77586  0.014960204  0.014027203            3 
 1643000   0.58643232   -8.2108103     294.4047  0.014932273  0.014015821            2 
 1644000   0.59381573   -8.2043526    294.15242  0.014910402  0.014004444            2 
 1645000   0.59900522    -8.177899    294.22559  0.014905045  0.013993083            4 
 1646000   0.58308068    -8.241595     294.2712  0.014898299  0.013981711            3 
 1647000   0.58168173   -8.1974458    294.46636  0.014899128  0.013970358            3 
 1648000   0.60112414   -8.2226625    294.89533  0.014911778  0.013959015            2 
 1649000   0.59079028   -8.2190578    294.52553  0.014884047  0.013947697            4 
 1650000    0.6039411   -8.1890899    294.56916   0.01487723   0.01393638            3 
 1651000   0.59832284   -8.1988146    294.87876  0.014883846  0.013925085            4 
 1652000   0.57969758     -8.19689    294.35589  0.014848461  0.013913777            3 
 1653000   0.58538726   -8.2390443    294.84873  0.014864324  0.013902479            4 
 1654000   0.59675636   -8.1963093    294.74647  0.014850185  0.013891201            4 
 1655000   0.59979895   -8.2090129    294.36699  0.014822104  0.013879922            2 
 1656000   0.57233178   -8.2062952    294.52728   0.01482122  0.013868644            3 
 1657000   0.60087635   -8.2243768    294.25164  0.014798413  0.013857379            3 
 1658000   0.58535134   -8.2000293    294.49105  0.014801521  0.013846107            4 
 1659000   0.60634062   -8.2286335    294.27421  0.014781706  0.013834841            4 
 1660000   0.58329616    -8.216667    294.42075  0.014780158  0.013823604            3 
 1661000   0.59177912   -8.2275019    294.19908  0.014760138  0.013812382            5 
 1662000   0.58677375    -8.223448    294.38519  0.014760589  0.013801154            3 
 1663000   0.58973065   -8.2347434     294.3942  0.014752165  0.013789935            3 
 1664000    0.5833252   -8.2320837    294.13984  0.014730561  0.013778726            4 
 1665000   0.58462602   -8.2209801    294.33971  0.014731717  0.013767529            3 
 1666000   0.59188509   -8.2251999    294.58031  0.014734909   0.01375635            3 
 1667000   0.58874633   -8.2132898    294.77174   0.01473564  0.013745184            3 
 1668000   0.57860718   -8.2213372    294.52413  0.014714435  0.013734029            3 
 1669000   0.57984387   -8.2234595    294.42942   0.01470089  0.013722881            5 
 1670000   0.59042501   -8.2037216    294.24806  0.014683037  0.013711738            6 
 1671000   0.56964143    -8.208276    294.45006  0.014684324  0.013700612            4 
 1672000   0.58978787   -8.2190643    294.99824  0.014702863  0.013689479            3 
 1673000   0.58295561   -8.2397927    294.39987  0.014664269  0.013678353            5 
 1674000   0.59656107   -8.2265371    294.31067  0.014651069  0.013667228            4 
 1675000   0.59495043   -8.2171417    294.12582  0.014633126   0.01365611            9 
 1676000   0.59250614    -8.218296    294.71676  0.014653777  0.013645017            4 
 1677000    0.5926825   -8.2386697    294.15883  0.014617314  0.013633927            3 
 1678000   0.58498019   -8.2317525    294.32789  0.014616999  0.013622854            5 
 1679000   0.57254537   -8.2244402    294.60681  0.014622137  0.013611774            5 
 1680000   0.58655547   -8.2219957    294.46196  0.014606248  0.013600721            5 
 1681000   0.58151292    -8.249673    294.23063  0.014586091  0.013589679            3 
 1682000    0.5866588   -8.2274391    294.30801  0.014581253  0.013578649            4 
 1683000   0.57500425   -8.2543858    294.19134  0.014566812  0.013567612            3 
 1684000   0.59326292   -8.2420032    294.55123  0.014575971   0.01355658            3 
 1685000   0.57685643   -8.2142109    294.43138  0.014561394  0.013545579            3 
 1686000     0.592516   -8.2313444    294.35621  0.014549041   0.01353458            4 
 1687000   0.59005847   -8.2436887    293.99629  0.014522638  0.013523567            4 
 1688000   0.58369983   -8.2430863    293.91887  0.014510213  0.013512572           13 
 1689000   0.57386372   -8.2503477    293.85362  0.014498402  0.013501581            6 
 1690000   0.57345279   -8.2414218    294.32337  0.014512987  0.013490605            6 
 1691000   0.58103868   -8.2427071    294.27075  0.014501811  0.013479644            3 
 1692000   0.58709817   -8.2586445    294.18572  0.014489052  0.013468674            3 
 1693000   0.57521582   -8.2477223    294.15035  0.014478753  0.013457714            2 
 1694000   0.57866245   -8.2396274    294.46246   0.01448556   0.01344679            8 
 1695000   0.56271035   -8.2362286     294.0592  0.014457188  0.013435878            7 
 1696000   0.57653928   -8.2336506    294.37574  0.014464217  0.013424977            8 
 1697000   0.56947634    -8.238195     293.8135  0.014428084  0.013414072            3 
 1698000   0.58102581   -8.2401317    293.88884  0.014423284  0.013403171           13 
 1699000   0.57285737   -8.2515716    294.08023  0.014424182  0.013392273            6 
 1700000   0.56847704   -8.2584513    294.12168  0.014417729   0.01338138            4 
 1701000   0.57739295   -8.2417293    294.14252  0.014410275  0.013370504            5 
 1702000   0.56666188    -8.243971    294.25909  0.014407515  0.013359627            5 
 1703000   0.57641406   -8.2476256    293.56516  0.014365099  0.013348761            4 
 1704000   0.57384959    -8.233322    294.76344   0.01441527  0.013337904            7 
 1705000   0.57352114   -8.2457191    294.20196  0.014379372  0.013327062            3 
 1706000   0.56824415   -8.2406557    294.06496  0.014364252  0.013316225            5 
 1707000   0.57388548   -8.2483809    294.47634   0.01437592  0.013305409            3 
 1708000   0.58041126    -8.227581    294.39622  0.014363594  0.013294609            4 
 1709000   0.56672143   -8.2422762     294.2613   0.01434861  0.013283819            5 
 1710000   0.57141523   -8.2600273     293.9683  0.014325941  0.013273047            3 
 1711000   0.57613067   -8.2468209    293.81332  0.014310019   0.01326227            4 
 1712000   0.57494366   -8.2542203    294.25762  0.014323287  0.013251503            3 
 1713000   0.56136149   -8.2407287     293.5742  0.014281679  0.013240732            2 
 1714000   0.57306292   -8.2625255    294.00676  0.014294378  0.013229973            2 
 1715000    0.5725273    -8.252803    294.35573     0.014303  0.013219231            3 
 1716000   0.56387413   -8.2671236    293.98388  0.014276606    0.0132085            3 
 1717000   0.57859656   -8.2513307    294.03155  0.014270605  0.013197784            4 
 1718000   0.56866213   -8.2647232    294.62627  0.014291146   0.01318708            6 
 1719000   0.56960268   -8.2547481    294.09784  0.014257215  0.013176408            5 
 1720000   0.56093665   -8.2516415    293.77627  0.014233346  0.013165741            4 
 1721000    0.5612718   -8.2699313    294.04861  0.014238263  0.013155075            7 
 1722000   0.56229711   -8.2667862    294.55386  0.014254446  0.013144415            3 
 1723000    0.5587768    -8.266757    293.47402  0.014193945  0.013133764            3 
 1724000   0.57140747   -8.2543591    294.24558  0.014223008  0.013123109            4 
 1725000   0.56927888   -8.2547831    293.87201  0.014196716  0.013112471            3 
 1726000    0.5735267   -8.2641211    294.15946  0.014202369  0.013101835            3 
 1727000   0.57244523   -8.2610095    294.23896  0.014197981  0.013091204            4 
 1728000   0.55529511   -8.2564005    294.25883  0.014190723  0.013080588            2 
 1729000   0.56043952   -8.2744947    294.12205  0.014175923  0.013069974            3 
 1730000   0.54727252   -8.2702357    294.37263  0.014179799  0.013059374            4 
 1731000   0.56645589   -8.2605156    294.18813  0.014162725  0.013048809            3 
 1732000    0.5696804   -8.2509594     294.6571  0.014177112  0.013038241            4 
 1733000   0.56885496   -8.2789204    293.86598   0.01413089  0.013027664            2 
 1734000   0.55153572   -8.2729548     293.8771  0.014123275  0.013017086            5 
 1735000   0.55398678   -8.2606583    293.58792  0.014101245  0.013006506            3 
 1736000   0.55677328   -8.2678866     293.4714  0.014087529  0.012995947            4 
 1737000   0.56465388   -8.2708682    294.19002  0.014113895  0.012985402            5 
 1738000   0.55217721   -8.2723598    293.96703  0.014095082  0.012974857            3 
 1739000   0.55021028   -8.2691614    293.57362  0.014068124  0.012964309            7 
 1740000   0.55579863   -8.2856277    294.11848  0.014086134  0.012953779            3 
 1741000   0.56875708   -8.2726381    293.77705    0.0140617  0.012943275            3 
 1742000   0.56886863   -8.2921611    293.87705  0.014058412  0.012932775            4 
 1743000   0.55158628   -8.2676122    293.85393  0.014049241  0.012922271            4 
 1744000   0.54781003   -8.2764221    293.90528  0.014043639  0.012911785            8 
 1745000   0.56433577   -8.2931275    293.55479  0.014018853  0.012901295            5 
 1746000   0.54724843   -8.2829429    293.71168  0.014018312   0.01289082            2 
 1747000   0.56215189   -8.3024623    293.96253  0.014022254  0.012880356            2 
 1748000   0.55248859   -8.2630966    293.38771  0.013986828  0.012869916            4 
 1749000    0.5573811   -8.2770204    293.71506  0.013994428  0.012859473            4 
 1750000   0.55918809   -8.2860573    293.58123  0.013980058  0.012849041            4 
 1751000   0.55843404   -8.2871594    294.21607  0.014002288  0.012838604            2 
 1752000   0.54656413   -8.2634517    293.77923  0.013973517  0.012828171            4 
 1753000   0.54722364   -8.2768371    293.97538  0.013974871  0.012817754            2 
 1754000   0.55752866   -8.2832284     293.7179   0.01395467  0.012807341            3 
 1755000   0.54436377    -8.290565    293.63162  0.013942622  0.012796928            3 
 1756000   0.54897309    -8.293834    294.17317  0.013960382  0.012786535            3 
 1757000   0.54294963   -8.2970353    293.66634  0.013928398  0.012776137            2 
 1758000   0.54315528   -8.3153822    293.64589  0.013919505   0.01276576            3 
 1759000   0.54145125   -8.2884883    294.00686  0.013928693  0.012755383            7 
 1760000   0.55055901   -8.2957339    293.48896  0.013896257  0.012745023            5 
 1761000   0.54238652   -8.2835876    293.39715  0.013884022  0.012734674           14 
 1762000   0.54529649   -8.3003166    294.02217  0.013905702  0.012724329            3 
 1763000   0.54701312   -8.3133695     293.0763  0.013853105  0.012713985            2 
 1764000   0.56319907   -8.2848563    293.14902  0.013848687  0.012703654            4 
 1765000   0.55259607   -8.3070028    293.51437  0.013858091   0.01269334            4 
 1766000   0.54268819   -8.2803348    293.34787  0.013842387   0.01268303            4 
 1767000   0.54561518   -8.2825502    294.08834  0.013869475  0.012672742            5 
 1768000   0.55556151   -8.2933746    293.10323  0.013815198  0.012662455            3 
 1769000    0.5583209   -8.2977851    293.35946  0.013819458  0.012652168            4 
 1770000   0.54670008   -8.2855366    293.57617  0.013821853  0.012641891            2 
 1771000   0.53369079   -8.2825375    293.19099  0.013795925  0.012631644            4 
 1772000   0.55247394   -8.2951887    293.92516  0.013822666  0.012621399            5 
 1773000   0.55017111   -8.2904929    293.33685  0.013787218  0.012611161            3 
 1774000   0.54951199   -8.3047963    293.32956  0.013779104  0.012600915            3 
 1775000   0.54342409    -8.303502    293.83572  0.013795104  0.012590692            2 
 1776000   0.54933762   -8.3168655     293.2857  0.013761529  0.012580478            3 
 1777000   0.55198749   -8.3205377    293.38183  0.013758293  0.012570258            2 
 1778000   0.55735269   -8.3081248    293.25497  0.013744609  0.012560045            3 
 1779000   0.55113902   -8.3274393    293.47197  0.013747047  0.012549846            4 
 1780000   0.54803435    -8.331923    292.98388  0.013716474  0.012539658            3 
 1781000   0.53900164   -8.2982369    293.19129  0.013718477  0.012529482            5 
 1782000   0.53053917   -8.3212343    293.09513  0.013706282   0.01251931            3 
 1783000   0.53487018   -8.3005046     293.1312   0.01370028  0.012509164            3 
 1784000   0.53767735   -8.3200224    293.03596  0.013688152  0.012499012            3 
 1785000    0.5458382   -8.3049376    293.19373  0.013687849  0.012488871            5 
 1786000   0.54102114   -8.3252086    293.14529  0.013677925  0.012478742            3 
 1787000   0.52803472   -8.3061744    292.92613  0.013660051  0.012468619            3 
 1788000   0.53426849   -8.2914422    293.68321  0.013687696  0.012458501            4 
 1789000   0.54188658   -8.3027234    293.24522  0.013659643  0.012448394            3 
 1790000   0.53871641   -8.3051923    293.18525   0.01364922  0.012438301            4 
 1791000   0.54254406    -8.316449    292.93987  0.013630182  0.012428205            5 
 1792000   0.54641964   -8.3330873    293.17229  0.013633384  0.012418135            3 
 1793000   0.55034171   -8.3357399    292.75304  0.013606295  0.012408059            4 
 1794000   0.54509196   -8.3120701    292.86945  0.013604118  0.012397998            3 
 1795000   0.53693598   -8.3010904    293.14091  0.013609142  0.012387946            3 
 1796000   0.53085748    -8.313271    292.55277  0.013574275  0.012377908            6 
 1797000   0.53905818   -8.3144429    293.16065   0.01359491  0.012367878            4 
 1798000   0.54717189   -8.2955066    293.07592  0.013583423  0.012357869            3 
 1799000   0.52289541   -8.3262334    292.87345  0.013566493   0.01234787            5 
 1800000   0.53075613   -8.3176656    292.59449  0.013546041  0.012337865            6 
 1801000   0.53364284   -8.3240024    293.60112  0.013585097  0.012327877            5 
 1802000   0.53717531   -8.3334214    292.95071   0.01354748  0.012317884            3 
 1803000   0.53157414   -8.3306892    293.19084  0.013551065  0.012307908            4 
 1804000   0.52423562    -8.318811    293.06425  0.013537706  0.012297935            3 
 1805000   0.52750236   -8.3176415    293.55062   0.01355266  0.012287974            3 
 1806000   0.52844352   -8.3410128    293.28114  0.013532721  0.012278034            2 
 1807000   0.53008559   -8.3370947    293.02982  0.013513642  0.012268093            4 
 1808000   0.53526664   -8.3245741    292.62127  0.013487337  0.012258166            2 
 1809000   0.51087589   -8.3221313    292.70322  0.013483657  0.012248244            3 
 1810000   0.53674925   -8.3329115    293.20509  0.013499314  0.012238331            3 
 1811000   0.52499333   -8.3181956    292.98532  0.013481747  0.012228424            4 
 1812000   0.53230318   -8.3312104    293.15992  0.013482336  0.012218528            4 
 1813000   0.54078652   -8.3310746    293.41526  0.013486636  0.012208654            4 
 1814000    0.5441675   -8.3462665    293.21896  0.013470184  0.012198774            2 
 1815000   0.54001802   -8.3281133    293.44682  0.013473224  0.012188898            2 
 1816000   0.52707665   -8.3188963    292.84652  0.013438258   0.01217904            3 
 1817000   0.53260932   -8.3379565    293.06471  0.013440869  0.012169193            3 
 1818000   0.52950108   -8.3579985    292.61671   0.01341294  0.012159337            2 
 1819000     0.525251   -8.3448769    293.16451  0.013430663  0.012149495            4 
 1820000   0.52681658   -8.3382571    292.93209  0.013412642  0.012139668            3 
 1821000   0.53283403   -8.3388817    292.66232  0.013392931  0.012129855            4 
 1822000   0.53041247   -8.3483504    292.92521  0.013397604  0.012120045            4 
 1823000   0.51891936   -8.3249093    293.20308  0.013402957  0.012110248            4 
 1824000    0.5277878   -8.3275722    293.35469  0.013402535  0.012100465            5 
 1825000   0.52721546   -8.3484723    292.74802  0.013367489  0.012090686            4 
 1826000   0.52425391   -8.3422711    292.98702  0.013371076  0.012080923            7 
 1827000   0.51983656   -8.3362264    292.60841  0.013346488  0.012071169            2 
 1828000   0.53544313   -8.3394313    292.74335  0.013345339  0.012061416            2 
 1829000    0.5172837   -8.3376705    292.60244  0.013331622  0.012051668            2 
 1830000   0.51797879    -8.356217    293.24178  0.013353451  0.012041932            4 
 1831000   0.52836001   -8.3508892    293.01068   0.01333564  0.012032195            3 
 1832000   0.51859295   -8.3461264    293.17848  0.013335994  0.012022472            2 
 1833000   0.54347548   -8.3464239    292.77611  0.013310425  0.012012759            4 
 1834000   0.52442676   -8.3439109    293.10547  0.013318133  0.012003059            3 
 1835000   0.50420983   -8.3397701    292.93231  0.013303011  0.011993364            5 
 1836000   0.52754457   -8.3374109     292.7018  0.013285303  0.011983668            5 
 1837000   0.50906054   -8.3366924    292.50012  0.013268922  0.011973983            3 
 1838000   0.52631292   -8.3493389    292.24525  0.013250147  0.011964311            4 
 1839000   0.51139499   -8.3308819    292.51462  0.013255149  0.011954645            4 
 1840000    0.5191589   -8.3553619    292.73567  0.013257956  0.011944996            4 
 1841000    0.5137883   -8.3325892    292.86157  0.013256453  0.011935346            3 
 1842000   0.51723177   -8.3561116    292.95872  0.013253652    0.0119257            2 
 1843000   0.51338025   -8.3322548    292.82639  0.013240477  0.011916067            3 
 1844000    0.5200043   -8.3784757    292.98222  0.013240339  0.011906447            3 
 1845000   0.51438705   -8.3442466    292.70297   0.01322055  0.011896832            3 
 1846000    0.5167306   -8.3555612    292.16173  0.013188955  0.011887218            3 
 1847000    0.5206972   -8.3577564    292.68895  0.013205602  0.011877609            5 
 1848000   0.51747263   -8.3528853     292.4991  0.013189895  0.011868018            4 
 1849000   0.51522059   -8.3547126    292.33071  0.013175172  0.011858441            3 
 1850000   0.51065117    -8.357043    292.54798  0.013177837  0.011848869            4 
 1851000   0.51225176    -8.332464    292.48498  0.013167881  0.011839304            2 
 1852000   0.52596377   -8.3766377    292.56841  0.013164525  0.011829765            4 
 1853000    0.5158864   -8.3595022    292.36902  0.013148454  0.011820219            5 
 1854000   0.51048828   -8.3695461    292.82306   0.01316177  0.011810676            5 
 1855000   0.51637005   -8.3550098     292.9043  0.013158324  0.011801156            3 
 1856000   0.51413286   -8.3608755    292.51666   0.01313383  0.011791644            5 
 1857000   0.51631477   -8.3340191     293.0346      0.01315  0.011782148            2 
 1858000   0.51839367   -8.3556544    292.45578  0.013116962  0.011772658            3 
 1859000   0.50893625   -8.3472797    292.81761  0.013126126  0.011763173            4 
 1860000   0.50505682   -8.3584265    292.78638  0.013117669  0.011753681            3 
 1861000    0.5033328   -8.3605335    291.76192  0.013064746  0.011744202            3 
 1862000   0.50924575   -8.3603498    292.67223  0.013098471  0.011734732            3 
 1863000   0.51150862   -8.3633843    292.29933   0.01307476  0.011725271            5 
 1864000   0.50902487    -8.364461    292.73002     0.013087  0.011715819            3 
 1865000   0.51273557   -8.3354321    292.10804  0.013052191  0.011706387            3 
 1866000   0.51850567   -8.3434385    292.32627  0.013054943  0.011696964            2 
 1867000   0.50690112   -8.3507091    292.26636  0.013045276  0.011687547            4 
 1868000   0.51027238   -8.3473461    292.73481  0.013059191  0.011678136            2 
 1869000   0.51093006   -8.3612101    292.38701  0.013036696  0.011668728            4 
 1870000   0.51513202   -8.3630258    291.97715   0.01301146  0.011659328            3 
 1871000   0.49366739   -8.3700403    292.54175  0.013029652  0.011649942            2 
 1872000   0.51073415   -8.3624604    292.40586  0.013016642  0.011640557            2 
 1873000    0.5077429   -8.3671408    292.62309  0.013019358  0.011631189            2 
 1874000   0.51234111   -8.3598406    292.57043  0.013010069  0.011621832            4 
 1875000   0.50300331   -8.3700896    292.59245  0.013004109  0.011612476            2 
 1876000   0.50506009   -8.3680847     292.0386  0.012972575  0.011603131            4 
 1877000   0.50303932   -8.3812887    292.20785  0.012973177  0.011593794            4 
 1878000   0.51534155   -8.3718939    292.32357  0.012971404  0.011584466            4 
 1879000    0.4935853   -8.3652242     292.2371  0.012960666  0.011575135            2 
 1880000   0.50207916    -8.370448     291.9959  0.012943081  0.011565821            2 
 1881000   0.50104557   -8.3699456    292.61424  0.012963594   0.01155651            3 
 1882000   0.50545262   -8.3676423    292.14041  0.012935725  0.011547209            3 
 1883000   0.49518427   -8.3799201    292.09049  0.012926646   0.01153792            4 
 1884000    0.5085794   -8.3606034     291.9212  0.012912296  0.011528641            3 
 1885000   0.50393959   -8.3914698    292.09285  0.012913035  0.011519353            4 
 1886000   0.49850577   -8.3713225    291.89414  0.012897408  0.011510086            6 
 1887000   0.50249656   -8.3820821    292.22746  0.012905293  0.011500833            2 
 1888000   0.49180043   -8.3894489    292.20319  0.012897386   0.01149158            4 
 1889000   0.49363065   -8.3675579    291.68557  0.012867724  0.011482338            3 
 1890000   0.49059094   -8.3619423    292.35583  0.012890469  0.011473111            2 
 1891000   0.49965784   -8.3843628    292.40692  0.012885903  0.011463893            3 
 1892000   0.49350489   -8.3745853    292.10811  0.012865931  0.011454672            3 
 1893000   0.49731331   -8.3794145    292.06073  0.012857049   0.01144546            3 
 1894000    0.4923989    -8.372264    291.61811  0.012830786  0.011436247            4 
 1895000   0.50027949   -8.3885846     291.9608  0.012839085  0.011427049            3 
 1896000   0.48850668   -8.4028123    292.42544  0.012852735  0.011417853            3 
 1897000   0.49299639   -8.3781849    292.49173  0.012848873  0.011408666            2 
 1898000   0.48667537   -8.3947723    292.27795  0.012832717  0.011399484            3 
 1899000   0.49290354   -8.3834104    292.30192  0.012827011  0.011390312            5 
 1900000   0.49433982   -8.3792716    291.83018  0.012799569  0.011381155            5 
 1901000   0.49833794   -8.3744361    291.91182  0.012796415  0.011372002            2 
 1902000   0.48845827   -8.3928796    292.42495  0.012812169   0.01136287            3 
 1903000   0.49332376   -8.4058417    292.12741  0.012792407  0.011353739            2 
 1904000   0.51072457   -8.3910573    291.87713  0.012774734  0.011344613            4 
 1905000   0.49185076   -8.3977592    292.21455  0.012782789    0.0113355            3 
 1906000   0.49935866   -8.3808742    291.92097  0.012763247  0.011326401            2 
 1907000   0.49537089   -8.4008402    292.30535   0.01277335  0.011317311            2 
 1908000   0.48633183   -8.3788734    291.62928  0.012737128  0.011308219            3 
 1909000   0.49971288   -8.4039773    291.83109  0.012739265  0.011299145            5 
 1910000   0.48685811   -8.3989892     291.6926  0.012726553  0.011290072            3 
 1911000   0.48685139   -8.3901057    291.43939  0.012708852  0.011281009            3 
 1912000   0.48829702   -8.4085236    291.99996  0.012726637  0.011271959            4 
 1913000   0.49312467   -8.3979924    291.73649  0.012708507  0.011262915            3 
 1914000   0.49670629   -8.4042551     291.5969   0.01269579  0.011253874            3 
 1915000   0.48813826   -8.4032401    292.08202  0.012710271  0.011244842            4 
 1916000   0.49394932   -8.3897675    291.92938  0.012696998  0.011235824            4 
 1917000   0.48293303   -8.3913992    292.25217  0.012704407  0.011226812            5 
 1918000   0.48415181   -8.3937992    292.12114   0.01269209  0.011217808            5 
 1919000   0.49182107   -8.4078561    291.90399  0.012676046  0.011208815            4 
 1920000   0.48692884   -8.3933469    291.83787  0.012666574  0.011199831            5 
 1921000   0.48814713   -8.3989765    291.99404  0.012666755  0.011190857            3 
 1922000   0.48206267     -8.41525    291.64043  0.012644833  0.011181896            3 
 1923000   0.48734813   -8.4016478    291.84445  0.012647099  0.011172936            4 
 1924000    0.4837282    -8.391449    292.26352  0.012658676  0.011163989            4 
 1925000   0.48343611   -8.4064294    291.72193  0.012628655  0.011155051            4 
 1926000   0.48354657   -8.3998852    291.63667  0.012618409  0.011146117            3 
 1927000   0.47440401     -8.40233    291.53984  0.012607673  0.011137197            3 
 1928000    0.4828749   -8.4053318    291.85191  0.012614623   0.01112829            4 
 1929000   0.48337468   -8.4013826    291.82004  0.012606706   0.01111939            3 
 1930000   0.48587097   -8.4154306    291.65097  0.012592874  0.011110492            3 
 1931000    0.4981102   -8.3993283    291.65784   0.01258665  0.011101602            5 
 1932000   0.48058059   -8.4079748    291.45956  0.012571582  0.011092727            3 
 1933000   0.48147873   -8.4275783    291.63766  0.012572756  0.011083861            4 
 1934000    0.4774822   -8.4073207    291.36549  0.012554528  0.011074996            3 
 1935000   0.47942734   -8.4188486    291.81032  0.012567197  0.011066152            4 
 1936000   0.47859499   -8.4301104    291.94696  0.012566588  0.011057308            6 
 1937000   0.48093645   -8.4154981    292.06641  0.012565239  0.011048482            2 
 1938000    0.4735229   -8.4017828      291.414  0.012530702  0.011039657            4 
 1939000   0.48368127   -8.4245777    291.93745  0.012546736   0.01103085            4 
 1940000   0.47765662   -8.4147246    291.65401  0.012528093  0.011022048            3 
 1941000   0.47942058   -8.4109014    291.80895  0.012528291  0.011013249            4 
 1942000   0.48120436   -8.4042257    291.29184   0.01249965  0.011004461            5 
 1943000   0.47665281   -8.4058123    291.50712   0.01250245  0.010995681            4 
 1944000    0.4724377   -8.4252959    291.64006  0.012501717   0.01098691            4 
 1945000   0.47680683   -8.4187472    291.42971  0.012486277  0.010978139            4 
 1946000   0.47328409   -8.4279408    291.54916  0.012484976  0.010969376            3 
 1947000   0.46990016   -8.4198043     291.5266  0.012477598  0.010960628            3 
 1948000    0.4756124    -8.403828    291.91993  0.012488019  0.010951889            3 
 1949000   0.47062268   -8.4034265    291.14525  0.012448489  0.010943153            3 
 1950000   0.47436832   -8.4258474      291.584  0.012460855  0.010934431            3 
 1951000   0.47241383   -8.4315495    291.62168  0.012456077  0.010925729            4 
 1952000   0.47394238   -8.4172215    291.67958  0.012452168  0.010917019            3 
 1953000   0.47095914    -8.431252    291.83749   0.01245253  0.010908321            3 
 1954000   0.46666105   -8.4338718    291.65991  0.012438584  0.010899635            3 
 1955000   0.47301047   -8.4211806     291.6852  0.012433299   0.01089096            6 
 1956000   0.48100544    -8.449424    291.49482  0.012418832  0.010882284            3 
 1957000   0.48547012   -8.4281396    291.77041  0.012424221  0.010873624            3 
 1958000   0.46813183   -8.4285616    291.54991  0.012408491  0.010864962            4 
 1959000   0.47891906   -8.4159231    291.38026   0.01239494  0.010856314            4 
 1960000   0.47635815   -8.4260986    291.34959  0.012387312  0.010847671            3 
 1961000   0.46719462    -8.419081    291.54296  0.012389213  0.010839038            2 
 1962000   0.46397491   -8.4278407     291.8473  0.012395825  0.010830413            4 
 1963000   0.47577012   -8.4315662    291.24427   0.01236391  0.010821804            5 
 1964000   0.46712079   -8.4282285    291.74127  0.012378703  0.010813201            3 
 1965000   0.47502326   -8.4146682    291.38734  0.012357393  0.010804604            4 
 1966000   0.47365755   -8.4516845    291.90609  0.012373096  0.010796011            3 
 1967000   0.46482559   -8.4293563    291.46888  0.012348283  0.010787423            3 
 1968000   0.46453052   -8.4425434    291.74896  0.012353869  0.010778841            3 
 1969000   0.46294592    -8.431414    291.48172  0.012336284  0.010770273            5 
 1970000   0.45592243   -8.4303967    291.42925  0.012327802  0.010761715            5 
 1971000   0.47145057   -8.4471629    291.70618  0.012333256  0.010753161            4 
 1972000   0.47222609   -8.4479159    291.97543   0.01233838  0.010744605            2 
 1973000   0.46336611   -8.4294074    291.31169  0.012304092  0.010736072            2 
 1974000   0.46247008   -8.4302196     291.3841  0.012300916  0.010727535            2 
 1975000   0.45496827   -8.4352268      291.502  0.012299663  0.010719011            4 
 1976000   0.47041937   -8.4274262    291.54713  0.012295341  0.010710498            6 
 1977000    0.4575022   -8.4462565     291.1074  0.012270587  0.010701993            3 
 1978000   0.47757148   -8.4552129    291.47487  0.012279865  0.010693495            4 
 1979000   0.46559481   -8.4240855    291.27526  0.012265254  0.010685009            3 
 1980000   0.45974802   -8.4352982    290.85769  0.012241485  0.010676528            3 
 1981000   0.46427492      -8.4528    291.38162  0.012257346  0.010668058            3 
 1982000   0.46188597   -8.4226134    291.45291  0.012254158  0.010659596            3 
 1983000   0.46190895   -8.4561882    290.92889  0.012225958  0.010651144            3 
 1984000   0.45346329   -8.4501842    290.93935  0.012220235  0.010642695            6 
 1985000   0.47285736    -8.443849    290.93119  0.012213736   0.01063425            5 
 1986000    0.4698577   -8.4353045    290.97699  0.012209508  0.010625823            3 
 1987000   0.46151407   -8.4439194    290.95154  0.012202296  0.010617401            3 
 1988000   0.45634315   -8.4413694    291.16494  0.012205103  0.010608986            6 
 1989000   0.46149591   -8.4481814    291.35456  0.012206911  0.010600577            5 
 1990000   0.45762992   -8.4628891     291.2325  0.012195666  0.010592169            4 
 1991000   0.45974455   -8.4602541    291.63721  0.012206479  0.010583776            4 
 1992000   0.45727501    -8.426782    290.86458  0.012168029  0.010575391            3 
 1993000   0.44651248   -8.4632108    291.32041  0.012180984   0.01056702            3 
 1994000   0.45395706   -8.4596746    291.44398  0.012180039   0.01055865            3 
 1995000   0.45822578   -8.4460708    291.18817  0.012163249  0.010550282            4 
 1996000   0.44705626   -8.4416418    290.87189   0.01214395  0.010541931            3 
 1997000    0.4752913   -8.4349338    291.71035  0.012172857  0.010533586            3 
 1998000   0.44670275   -8.4564382    290.83258  0.012130154  0.010525261            2 
 1999000   0.45217045   -8.4593275    291.17817  0.012138493  0.010516931            6 
 2000000   0.44845326   -8.4600948    291.37141  0.012140475   0.01050861            4 
 2001000   0.45018987   -8.4512605    291.07485  0.012122058  0.010500291            4 
 2002000   0.45707603   -8.4525044    291.31694   0.01212608  0.010491989            5 
 2003000   0.44890977    -8.449951    291.09216  0.012110674  0.010483695            4 
 2004000   0.45624329   -8.4544138    290.86968  0.012095379  0.010475411            4 
 2005000    0.4475355   -8.4432527    291.20029  0.012103088  0.010467125            2 
 2006000   0.45543084   -8.4580583    291.18189   0.01209629   0.01045886            3 
 2007000   0.45239403   -8.4373288    290.43573  0.012059281  0.010450597            3 
 2008000   0.46054191   -8.4635369    291.01255  0.012077214  0.010442339            6 
 2009000   0.46069116   -8.4690816    290.79513  0.012062184  0.010434082            4 
 2010000   0.45275965    -8.441791    291.18089  0.012072176  0.010425841            3 
 2011000   0.45483133   -8.4494226    291.19641  0.012066816  0.010417611            3 
 2012000   0.45476049   -8.4655399     290.7718  0.012043232  0.010409388            3 
Loop time of 4709.76 on 48 procs for 2000000 steps with 4000 atoms

Performance: 73379.605 tau/day, 424.650 timesteps/s
99.4% CPU use with 48 MPI tasks x no OpenMP threads

MPI task timing breakdown:
Section |  min time  |  avg time  |  max time  |%varavg| %total
---------------------------------------------------------------
Pair    | 296.51     | 312.43     | 328.34     |  52.2 |  6.63
Neigh   | 30.714     | 31.989     | 33.236     |  11.6 |  0.68
Comm    | 295.11     | 315.53     | 337.72     |  59.8 |  6.70
Output  | 4.0377     | 4.0394     | 4.0694     |   0.2 |  0.09
Modify  | 3991.5     | 4003.9     | 4013.5     |   7.4 | 85.01
Other   |            | 41.83      |            |       |  0.89

Nlocal:        83.3333 ave          89 max          75 min
Histogram: 1 1 6 2 3 12 7 5 5 6
Nghost:        2000.23 ave        2029 max        1976 min
Histogram: 3 3 6 8 5 10 10 1 0 2
Neighs:        12802.6 ave       14164 max       11040 min
Histogram: 2 3 2 1 12 7 5 9 4 3
FullNghs:      25605.9 ave       27489 max       22613 min
Histogram: 1 1 3 4 3 9 11 5 6 5

Total # of neighbors = 1229082
Ave neighs/atom = 307.27050
Neighbor list builds = 107249
Dangerous builds = 1

#clear
#
#next RN
#
#jump SELF
Total wall time: 1:18:32
