
units lj                  # Use reduced LJ style units
atom_style atomic         # Uncharged point particles
atom_modify map hash      # Needed for indexing of clusters etc
                          # Used to be able to find where atoms are in relation to each other.

lattice fcc 1.0 spacing 1 1 1
Lattice spacing in x,y,z = 1.5874011 1.5874011 1.5874011
region box block 0 10 0 10 0 10 units lattice
create_box 2 box
Created orthogonal box = (0.0000000 0.0000000 0.0000000) to (15.874011 15.874011 15.874011)
  3 by 4 by 4 MPI processor grid
create_atoms 1 box
Created 4000 atoms
  using lattice units in orthogonal box = (0.0000000 0.0000000 0.0000000) to (15.874011 15.874011 15.874011)
  create_atoms CPU = 0.041 seconds
set type 1 type/fraction 2 0.74 78393
Setting atom values ...
  2966 settings made for type/fraction
mass 1 1.0
mass 2 1.0
pair_style lj/cut  3.5
pair_modify tail  yes
pair_coeff 1  1  1.0  1.0   # Intearaction between 1 and 1 set with epsilon = 1 and sigma = 1
pair_coeff 1  2  1.5  0.8
pair_coeff 2  2  0.5  0.88

write_data data.0
System init for write_data ...
Neighbor list info ...
  update every 1 steps, delay 10 steps, check yes
  max neighbors/atom: 2000, page size: 100000
  master list distance cutoff = 3.8
  ghost atom cutoff = 3.8
  binsize = 1.9, bins = 9 9 9
  1 neighbor lists, perpetual/occasional/extra = 1 0 0
  (1) pair lj/cut, perpetual
      attributes: half, newton on
      pair build: half/bin/atomonly/newton
      stencil: half/bin/3d
      bin: standard
WARNING: Not all mixed pair coeffs generated from mixing. Use write_data with 'pair ij' option to store all pair coeffs. (../write_data.cpp:312)


#############################
#   M E L T   S Y S T E M   #
#############################

velocity all create 2.4 9580093 mom yes dist gaussian # Assign velocities
                                                    # Temperature 2.4, random number seed, zero linear momentum
                                                                                # Gaussian distribution

timestep 0.002   # simulation timestep
thermo 1000       # output thermodynamic data every 1000 steps bf 100

# Define a fix  in this case with index 1 applied to all
# particles in the simulation. This fix is for simulations
# in the anisotropic NPT ensemble. Note that we use the MTK
# correction.
fix 1 all npt temp 2.4 2.4 0.1 iso 5.68 5.68 0.5 mtk yes tchain 5 pchain 5 # Use NPT ensemble
                                                                         # Set temperature and pressure and damping
                                                                         # Numbers of thermostats in chain and in barostat
run 10000          # run for 10000 steps
Per MPI rank memory allocation (min/avg/max) = 3.642 | 3.644 | 3.648 Mbytes
Step Temp E_pair E_mol TotEng Press Volume 
       0          2.4   -3.9840525            0  -0.38495247   -3.5781436         4000 
    1000    2.4133019   -3.5138352            0   0.10521273    5.7087109    3700.2962 
    2000    2.4014861   -3.5090414            0   0.09228727    5.6768067    3703.4352 
    3000    2.4250471   -3.5293457            0   0.10731561    5.6666896    3689.8366 
    4000    2.3925769   -3.5548008            0   0.03316731    5.4530704     3692.671 
    5000    2.4345411   -3.4713494            0   0.17954937    5.9026941    3708.5041 
    6000    2.3425268   -3.5174795            0 -0.0045677393    5.8365163    3662.3141 
    7000    2.3612635   -3.4892313            0  0.051778423     5.989598    3687.0825 
    8000    2.3762407   -3.5026547            0  0.060815254    5.3382016    3744.7815 
    9000    2.4232626   -3.4886167            0   0.14536849    5.7239865    3713.1806 
   10000    2.3822396   -3.4660519            0   0.10641422    5.8656184    3707.7477 
Loop time of 2.6136 on 48 procs for 10000 steps with 4000 atoms

Performance: 661157.204 tau/day, 3826.141 timesteps/s
99.6% CPU use with 48 MPI tasks x no OpenMP threads

MPI task timing breakdown:
Section |  min time  |  avg time  |  max time  |%varavg| %total
---------------------------------------------------------------
Pair    | 1.1836     | 1.2552     | 1.3137     |   2.7 | 48.03
Neigh   | 0.21537    | 0.22306    | 0.23086    |   0.7 |  8.53
Comm    | 0.8255     | 0.875      | 0.94584    |   3.3 | 33.48
Output  | 0.00025924 | 0.00026378 | 0.00033313 |   0.0 |  0.01
Modify  | 0.22017    | 0.24419    | 0.25832    |   2.2 |  9.34
Other   |            | 0.01586    |            |       |  0.61

Nlocal:        83.3333 ave          94 max          76 min
Histogram: 4 8 7 6 3 9 6 1 3 1
Nghost:        1726.35 ave        1756 max        1689 min
Histogram: 1 3 5 3 8 4 11 5 3 5
Neighs:        10292.5 ave       12377 max        9021 min
Histogram: 4 8 6 9 5 9 4 1 1 1

Total # of neighbors = 494042
Ave neighs/atom = 123.51050
Neighbor list builds = 902
Dangerous builds = 180

# Equilibrate just above the melting temperature to avoid step fn in T

fix 1 all npt temp 1.25 1.25 0.1 iso 5.68 5.68 0.5 mtk yes tchain 5 pchain 5
run 2000
Per MPI rank memory allocation (min/avg/max) = 3.644 | 3.646 | 3.649 Mbytes
Step Temp E_pair E_mol TotEng Press Volume 
   10000    2.3822396   -3.4660519            0   0.10641422    5.8656184    3707.7477 
   11000    1.2411624   -5.1746132            0   -3.3133349    5.5944593    2834.4783 
   12000    1.2593312   -5.2123864            0   -3.3238618    5.7376355    2811.4024 
Loop time of 0.711203 on 48 procs for 2000 steps with 4000 atoms

Performance: 485936.913 tau/day, 2812.135 timesteps/s
99.4% CPU use with 48 MPI tasks x no OpenMP threads

MPI task timing breakdown:
Section |  min time  |  avg time  |  max time  |%varavg| %total
---------------------------------------------------------------
Pair    | 0.30666    | 0.32552    | 0.35256    |   1.9 | 45.77
Neigh   | 0.042725   | 0.044257   | 0.047105   |   0.5 |  6.22
Comm    | 0.2464     | 0.27804    | 0.29943    |   2.5 | 39.09
Output  | 5.415e-05  | 5.5926e-05 | 7.4277e-05 |   0.0 |  0.01
Modify  | 0.050374   | 0.0583     | 0.064542   |   1.8 |  8.20
Other   |            | 0.005036   |            |       |  0.71

Nlocal:        83.3333 ave          91 max          77 min
Histogram: 2 2 8 6 11 9 3 4 1 2
Nghost:        2081.75 ave        2108 max        2060 min
Histogram: 1 6 6 9 7 8 4 5 0 2
Neighs:        13570.6 ave       15092 max       12237 min
Histogram: 3 4 3 10 10 4 7 2 3 2

Total # of neighbors = 651391
Ave neighs/atom = 162.84775
Neighbor list builds = 143
Dangerous builds = 11

#############################
# L I N E A R  Q U E N C H  #
#############################

# Define solid atoms. This closely follows ten Wolde  Ruiz-Montero and Frenkel  Faraday Discuss  1996  104  93-110
# Compute components of the per-atom q6 vector
compute q6 all orientorder/atom degrees 1 6 components 6 nnn NULL cutoff 1.3 # compute the Q6 parameter.
                                                                             # Use all neighbours within 1.3 unit cell.

# get number of connections
compute coord_number all coord/atom orientorder q6 0.5

# An atom is solid if it has 8 or more connections (of a possible 14)
variable is_solid atom c_coord_number>=8
group solid dynamic all var is_solid    # Must be dynamic to update
dynamic group solid defined

# do clustering
compute cluster solid cluster/atom 1.3 # Create a cluster where all atoms within are solid and max 1.3 units from another member

# define chunks one chunk per cluster
compute clus_chunks solid chunk/atom c_cluster nchunk every compress yes  # Says which atoms are in which chunk

# count the size of each chunk
compute size_chunks solid property/chunk clus_chunks count


# Find the maximum entry in the vector of chunk sizes
variable max_n equal max(c_size_chunks)


# Thermo style which includes this variable
# thermo_style custom step temp pe vol v_max_n

thermo ${N}  # Print the thermo information every 100 steps
thermo 1000  

# Reset the npt fix at a lower temperature (below freezing)
fix 1  all npt temp  ${temp} ${temp}  0.1  iso  5.68  5.68  0.5  mtk yes tchain  5  pchain  5
fix 1  all npt temp  0.45 ${temp}  0.1  iso  5.68  5.68  0.5  mtk yes tchain  5  pchain  5
fix 1  all npt temp  0.45 0.45  0.1  iso  5.68  5.68  0.5  mtk yes tchain  5  pchain  5

dump dmp2 all dcd ${N} traj.dcd
dump dmp2 all dcd 1000 traj.dcd


compute msd all msd com yes
variable twopoint equal c_msd[4]/6/(step*dt+1.0e-6)
fix 9 all vector 10 c_msd[4]
variable fit equal slope(f_9)/6/(10*dt)
thermo_style custom step temp pe c_msd[4] v_twopoint v_fit v_max_n

fix 1 all npt temp 1.25 ${temp} 0.1 iso 5.68 5.68 0.5 mtk yes tchain 5 pchain 5
fix 1 all npt temp 1.25 0.45 0.1 iso 5.68 5.68 0.5 mtk yes tchain 5 pchain 5
run 500000 # 5000000  # Run for this many steps
Neighbor list info ...
  update every 1 steps, delay 10 steps, check yes
  max neighbors/atom: 2000, page size: 100000
  master list distance cutoff = 3.8
  ghost atom cutoff = 3.8
  binsize = 1.9, bins = 8 8 8
  4 neighbor lists, perpetual/occasional/extra = 1 3 0
  (1) pair lj/cut, perpetual
      attributes: half, newton on
      pair build: half/bin/atomonly/newton
      stencil: half/bin/3d
      bin: standard
  (2) compute orientorder/atom, occasional
      attributes: full, newton on
      pair build: full/bin/atomonly
      stencil: full/bin/3d
      bin: standard
  (3) compute coord/atom, occasional
      attributes: full, newton on
      pair build: full/bin/atomonly
      stencil: full/bin/3d
      bin: standard
  (4) compute cluster/atom, occasional
      attributes: full, newton on
      pair build: full/bin/atomonly
      stencil: full/bin/3d
      bin: standard
Per MPI rank memory allocation (min/avg/max) = 9.841 | 9.847 | 9.852 Mbytes
Step Temp PotEng c_msd[4] v_twopoint v_fit v_max_n 
   12000    1.2593312   -5.2123864 1.504555e-30 1.0448298e-32 8.3333333e+20            2 
   13000    1.2355282   -5.1974206   0.70887683 0.0045440821  0.059450897            3 
   14000    1.2574528   -5.2140347     1.374224 0.0081799047  0.057391301            2 
   15000    1.2476384   -5.1971725    2.0278848  0.011266026  0.055876456            2 
   16000    1.2558631   -5.1936778    2.6273796  0.013684268  0.054761642            2 
   17000    1.2498598   -5.2374538    3.3142319  0.016246234  0.054554006            4 
   18000    1.2332256    -5.195115    4.0622332  0.018806635  0.055350861            2 
   19000    1.2422559    -5.239225    4.7085536   0.02065155  0.055760321            2 
   20000    1.2660435   -5.2525532    5.3306298  0.022210957   0.05572359            2 
   21000    1.2738515   -5.2657207    5.9998244  0.023808827  0.055699692            7 
   22000    1.2419048   -5.2526706    6.6937668  0.025355177   0.05559377            2 
   23000    1.2219464   -5.2083921    7.4035146  0.026824328  0.055776523            2 
   24000    1.2060867   -5.2882805    8.0730994  0.028031595  0.055886402            1 
   25000    1.2118805   -5.2347889    8.7283951   0.02909465  0.055963617            1 
   26000    1.2267702   -5.3112368    9.4208825  0.030195136  0.055943525            2 
   27000    1.2864742   -5.2485011    10.103331  0.031183119  0.056061833            2 
   28000    1.2069201    -5.223879    10.586637  0.031507849  0.055900663            1 
   29000     1.237856   -5.2451285    11.250761  0.032329773  0.055640508            3 
   30000    1.2193079   -5.3016742    11.869493  0.032970814  0.055472491            2 
   31000    1.2166515   -5.2372478     12.67349  0.034068522  0.055412537            3 
   32000    1.2309438   -5.2819059    13.382514  0.034850297   0.05545209            1 
   33000    1.2182266   -5.2977906     14.04705  0.035472348  0.055524941            1 
   34000    1.1932506   -5.2857285    14.769551   0.03619988  0.055590469            3 
   35000    1.2105176   -5.2705648    15.383244  0.036626771  0.055629719            3 
   36000    1.2335574    -5.260752    16.174519  0.037441016  0.055699735            2 
   37000    1.2144199   -5.2706149    16.840085   0.03792812  0.055787276            2 
   38000    1.2212643   -5.2876894    17.570991  0.038532874   0.05583982            2 
   39000    1.2217673    -5.301529    18.279665  0.039059113  0.055945536            2 
   40000    1.1863688   -5.2755581    18.835378   0.03924037  0.056046725            3 
   41000     1.221291    -5.267235    19.373401  0.039376831  0.055998907            2 
   42000    1.1979888   -5.3279122    19.859125  0.039403026  0.055870513            2 
   43000    1.1866993   -5.3122364    20.247988  0.039240286  0.055661753            1 
   44000    1.2190098    -5.336271    21.092861  0.039948599  0.055493028            2 
   45000    1.2099369   -5.3141278    21.726292  0.040233874  0.055359094            2 
   46000    1.1632819   -5.3076094    22.405004  0.040588776  0.055272256            2 
   47000     1.196145   -5.2980566    23.076633  0.040916015  0.055167834            5 
   48000    1.1844533   -5.3377755    23.645539  0.041051282  0.055073196            2 
   49000    1.1917252   -5.3401308    24.134699  0.041045407  0.054938329            4 
   50000    1.2004773   -5.3707353    24.578048  0.040963412  0.054788361            3 
   51000    1.1931875   -5.3621374    25.156845  0.041105956  0.054592726            2 
   52000    1.1945685   -5.3237283    25.784599  0.041321473  0.054420668            3 
   53000      1.16673   -5.3603139    26.493401  0.041656291  0.054282438            6 
   54000    1.1701354   -5.3197558    27.069798  0.041774379  0.054165022            2 
   55000    1.1885506   -5.3333748    27.625562  0.041856911  0.054041611            1 
   56000    1.1743834   -5.3208983    28.088735  0.041798712  0.053864871            3 
   57000    1.1882859   -5.3885783    28.487889   0.04164896  0.053664621            3 
   58000    1.1864562   -5.3480632    29.139755  0.041867463  0.053469753            2 
   59000    1.1749627   -5.3176648    29.698269  0.041946707  0.053299213            2 
   60000    1.1914005   -5.3702078    30.294533   0.04207574  0.053154162            3 
   61000    1.1512886   -5.3275587    31.170442  0.042582571  0.053024076            6 
   62000    1.1659321    -5.373174    31.712807   0.04262474   0.05292803            2 
   63000    1.1696891   -5.3763558    32.168073  0.042550361  0.052808272            2 
   64000    1.1548079   -5.3840383    32.602106  0.042450658  0.052674745            4 
   65000    1.1657086   -5.3912167    33.139754  0.042486863  0.052543075            3 
   66000    1.1655389   -5.3714001    33.574035  0.042391457  0.052389706            3 
   67000    1.1426075   -5.4242929    34.139429  0.042461976  0.052241088            3 
   68000    1.1657551   -5.3904477    34.721175   0.04255046  0.052098891            4 
   69000     1.139006   -5.3992883    35.252013  0.042574894  0.051956765            2 
   70000    1.1703583   -5.4328947    35.884197  0.042719281  0.051817198            5 
   71000    1.1669423   -5.3459327    36.612833  0.042972808  0.051688755            4 
   72000    1.1505547   -5.3622115    37.097799  0.042937268  0.051576096            4 
   73000    1.1699544   -5.4096121    37.521122  0.042832331  0.051451521            3 
   74000    1.1398258   -5.4193381    38.112032  0.042918955  0.051314091            8 
   75000    1.1483028   -5.3605029     38.73363  0.043037366  0.051208934            4 
   76000    1.1284404   -5.3692656    39.458127   0.04326549  0.051103685            3 
   77000    1.1262899   -5.4090662    39.859632   0.04313813  0.051011799            4 
   78000    1.1515521   -5.4858735    40.267567  0.043020904  0.050916505            3 
   79000    1.1282223   -5.4023202     41.13097  0.043387099  0.050825899            3 
   80000    1.1284202   -5.3658032    41.378962  0.043103085  0.050731672            3 
   81000    1.1323846   -5.4436458    41.595578  0.042793804  0.050609599            3 
   82000    1.1465572   -5.4405392    42.067428  0.042751451  0.050469052            3 
   83000    1.1475065   -5.4509951    42.602947  0.042774043  0.050324962            2 
   84000    1.1182592   -5.4361202    42.856613  0.042516481  0.050179841            2 
   85000    1.1213983   -5.4554613    43.610367  0.042755261  0.050046212            2 
   86000     1.138788   -5.4378249    44.174701  0.042804943  0.049924654            2 
   87000    1.1419376   -5.4760426    44.777315  0.042890149    0.0498133            5 
   88000    1.1341502    -5.416968    45.368431  0.042962529  0.049703349            3 
   89000    1.1084802   -5.4770051    45.629466  0.042724219  0.049583458            4 
   90000    1.1302981   -5.4570244    46.144465  0.042726356  0.049459393            3 
   91000    1.1315078   -5.4473768    46.581829  0.042657353  0.049332497            5 
   92000    1.1385615   -5.4675918    46.851731  0.042438162  0.049189687            3 
   93000    1.1204725    -5.464351    47.237909  0.042327875  0.049045296            3 
   94000    1.1083823   -5.4564236    47.857339  0.042426719  0.048903511            2 
   95000    1.1198553   -5.4775877    48.427841  0.042480562  0.048780399            3 
   96000    1.1241071   -5.4846426    49.174208  0.042685944  0.048663793            3 
   97000    1.1128728   -5.4821288     49.63968  0.042645773  0.048550721            3 
   98000     1.099173    -5.499329    49.926424  0.042454442  0.048439509            4 
   99000    1.0928423    -5.502965    50.542899  0.042544528  0.048324743            2 
  100000    1.0989699   -5.5071983    51.087938  0.042573282  0.048217868            3 
  101000     1.119472   -5.5175569    51.304627   0.04233055  0.048106796            3 
  102000    1.0872344   -5.5160703    51.828489  0.042343536  0.047996593            4 
  103000    1.1104849   -5.4904385    52.380769  0.042379263  0.047889435            3 
  104000    1.0888673   -5.5202752    53.015853  0.042480651   0.04778491            5 
  105000     1.113446   -5.5097248     53.42467  0.042400531  0.047686186            5 
  106000    1.1063811   -5.5309181     53.88817  0.042364914    0.0475807            2 
  107000    1.1371633   -5.5125652    54.191994  0.042205603  0.047477008            3 
  108000    1.0999445   -5.5421025    54.497065  0.042050204  0.047366989            4 
  109000    1.0863337   -5.5269315    55.065507  0.042099011  0.047250815            2 
  110000    1.0699004   -5.5416876    55.528708  0.042067203  0.047135056            2 
  111000    1.0941053   -5.5347393    55.792381  0.041886172  0.047024925            3 
  112000    1.0904186   -5.5556812    56.318705  0.041903798  0.046921222            3 
  113000    1.0933534   -5.5325292    57.002304  0.042037097  0.046818703            2 
  114000    1.0783725   -5.5284553    57.288382  0.041877472   0.04671624            4 
  115000    1.0577488   -5.5029897    57.567691  0.041715718  0.046610866            2 
  116000    1.1048163   -5.5306988    58.164966  0.041785176  0.046501971            4 
  117000    1.0745389   -5.5302381    58.484402  0.041655556   0.04639109            7 
  118000    1.0577731   -5.5385632    58.854534  0.041563936  0.046280148            4 
  119000    1.0828076   -5.5354791     59.30145  0.041527626  0.046165614            3 
  120000    1.0855122   -5.5847574    59.293865  0.041176295  0.046041662            4 
  121000    1.0847043   -5.5451493    60.138747   0.04141787   0.04592055            1 
  122000    1.0791227   -5.5592519    60.450759  0.041291502  0.045802148            1 
  123000    1.0721256   -5.5701125    60.744501  0.041154811  0.045687851            2 
  124000    1.0773084   -5.5744705     61.30808  0.041201667  0.045575777            5 
  125000    1.0802253   -5.5765015    61.963428  0.041308952  0.045469406            5 
  126000    1.0985349   -5.5651923    62.292151  0.041198512  0.045368051            3 
  127000    1.0657709   -5.5804437    62.713932  0.041150874  0.045267268            2 
  128000    1.0517942   -5.5808296    63.163718  0.041122212  0.045170289            2 
  129000    1.0572459   -5.6028749    63.571698  0.041066988  0.045071882            4 
  130000    1.0564159   -5.6061446    63.691038  0.040827588  0.044967741            5 
  131000    1.0507076   -5.5749312    64.178612  0.040826089  0.044864386            5 
  132000    1.0495145   -5.6097319    64.587867  0.040775169  0.044761712            3 
  133000    1.0511669    -5.615061    65.221613  0.040865672  0.044657322            2 
  134000    1.0731619   -5.6137593    65.497831  0.040732482   0.04455545            2 
  135000    1.0549292   -5.6089469    65.972385  0.040723694   0.04445448            3 
  136000     1.074294   -5.6171378    66.447508  0.040715385  0.044357382            5 
  137000    1.0659448   -5.5980597    66.873631  0.040677391   0.04426019            3 
  138000    1.0379832   -5.6109297    67.417399   0.04071099  0.044166629            3 
  139000      1.03874   -5.6254578     67.63677  0.040549622  0.044067962            4 
  140000    1.0411793   -5.6347943    68.017428  0.040486564  0.043972122            3 
  141000    1.0487991    -5.609046     68.50166  0.040485615  0.043879408            4 
  142000    1.0365775    -5.639301    68.881734  0.040423553  0.043789583            6 
  143000    1.0699923   -5.6633487    69.064769  0.040247534  0.043695374            3 
  144000    1.0495951    -5.658788    69.537416   0.04024156  0.043601813            9 
  145000    1.0529552   -5.6654273    69.898838  0.040171746  0.043507859            2 
  146000    1.0449571   -5.6471061    70.489469  0.040233715  0.043417121            5 
  147000    1.0221338   -5.6482796    71.001303  0.040250171  0.043332315            8 
  148000    1.0435495   -5.6981872    71.491384  0.040254157  0.043250911            3 
  149000     1.039679   -5.6527074    71.934296  0.040231709   0.04316941            2 
  150000     1.038689   -5.6294511    72.062938  0.040034966  0.043088385            3 
  151000    1.0164614   -5.6622885    72.526033  0.040025405  0.043003442            3 
  152000    1.0044035   -5.6555857    72.905235  0.039969975  0.042918424            5 
  153000     1.001757   -5.6768975    73.057664  0.039791756  0.042829082            5 
  154000    1.0304135   -5.6668123    73.407776  0.039722822  0.042741512            4 
  155000     1.004043   -5.6688932    73.760235   0.03965604  0.042650002            2 
  156000    1.0072872   -5.6958251    73.621906  0.039327941  0.042553285            4 
  157000     1.022778    -5.672796    74.035883  0.039297178  0.042454734           12 
  158000    1.0160899   -5.6931435    74.325475    0.0392012  0.042357143            3 
  159000    1.0082916   -5.6952432    74.870655  0.039240385  0.042260011            3 
  160000   0.98677711    -5.689925    74.977811  0.039050943  0.042160146            4 
  161000    1.0081829   -5.7108117    75.244693  0.038946528  0.042058725            3 
  162000    0.9929267   -5.7068314     75.63406   0.03890641  0.041953943            5 
  163000    1.0043906   -5.6974959    75.730454  0.038717001  0.041852321            3 
  164000   0.99867363   -5.6962072     76.09754  0.038667449  0.041746566            8 
  165000    1.0222044   -5.6828016    76.304901  0.038537829   0.04164142            7 
  166000   0.99500708   -5.7042838    76.608408  0.038458036  0.041534841            3 
  167000   0.99164775   -5.7240829    76.887243  0.038366888  0.041425673            4 
  168000   0.99905527   -5.7241189    77.282011  0.038334331   0.04131638            2 
  169000    1.0034627   -5.7334647     77.46832  0.038199368  0.041209881            5 
  170000   0.98871355   -5.7132574    78.070796  0.038269998  0.041102906            2 
  171000   0.98559057   -5.7347826    78.207841  0.038112983  0.040998131            6 
  172000   0.99945413    -5.736022    78.470549  0.038018677  0.040893743            5 
  173000   0.99664163   -5.7533868     78.70692  0.037912774  0.040785878            3 
  174000    1.0070394    -5.784035    78.992071  0.037831451  0.040678483            4 
  175000   0.98111583   -5.8002662    79.401564  0.037810268  0.040575915            4 
  176000   0.98709183     -5.77209    79.722943  0.037747606  0.040475922            5 
  177000   0.95782048   -5.7700157    80.164526  0.037742244  0.040375083            5 
  178000   0.97636028   -5.7582884    80.318106  0.037602109  0.040274523            3 
  179000    1.0000456   -5.7659306    80.615372  0.037530434  0.040170849            3 
  180000   0.97982082   -5.7775758    80.909388   0.03745805  0.040068989            2 
  181000   0.98534794   -5.7676938    81.028431  0.037305907  0.039963302            2 
  182000   0.97484912   -5.7795102    81.352374  0.037249255   0.03985946            4 
  183000    0.9829875   -5.7641948    81.710972  0.037209003  0.039759706            2 
  184000   0.97215976   -5.7631487     82.09229  0.037179479  0.039657691            3 
  185000   0.98064211   -5.7696981    82.426018  0.037128837  0.039556378            3 
  186000   0.97256943    -5.753127    82.840542  0.037114938  0.039456777            3 
  187000   0.95786557   -5.7945726     82.75542  0.036878529  0.039355612            6 
  188000   0.97102125    -5.797386    83.369401  0.036954522  0.039256814            5 
  189000   0.96901017   -5.7840376    83.779563  0.036939842  0.039159754            6 
  190000   0.96083033   -5.8221791     84.23411  0.036944785  0.039066477            9 
  191000   0.97240849   -5.8258002    84.267778  0.036766046  0.038973393           10 
  192000    0.9724633   -5.8062775    84.803558    0.0368071  0.038883161            6 
  193000   0.95921429   -5.8204362    84.991014  0.036697329  0.038793132            2 
  194000   0.95116666   -5.8213876    85.066762  0.036540705  0.038702911            6 
  195000   0.95153517    -5.850191    85.133132   0.03638168  0.038609108            4 
  196000   0.96908197   -5.8099708    85.657971  0.036419205  0.038513705            5 
  197000   0.93190627   -5.8102404    86.157939  0.036445829  0.038420304            3 
  198000   0.97606769   -5.8385259    86.277108  0.036311914  0.038326953            5 
  199000   0.95498904   -5.8287628    86.682213  0.036299084  0.038234887            6 
  200000   0.96265614   -5.8530378    86.807365  0.036169735  0.038141624            3 
  201000   0.95000921    -5.880323    87.489529  0.036272607  0.038050658            5 
  202000   0.93595813   -5.8374201    87.611768  0.036143469   0.03796342            7 
  203000   0.92654643   -5.8641234    87.792514   0.03603962  0.037875243            3 
  204000   0.94491422   -5.8883523    88.254901  0.036051839  0.037788566           10 
  205000   0.95337217   -5.8578235    88.905163   0.03614031  0.037699591            8 
  206000   0.94132415   -5.8859613    88.854024  0.035944184  0.037614433            7 
  207000   0.94812133   -5.8419568    89.165053  0.035895754  0.037527906            7 
  208000   0.94131213   -5.8720676    88.948074  0.035636247  0.037440568           12 
  209000   0.94125693   -5.8528238     89.16723  0.035553122  0.037352067            6 
  210000   0.94987111   -5.8895078    89.608229  0.035558821    0.0372629            6 
  211000   0.91567159   -5.8828261     89.91124  0.035509968  0.037174645            6 
  212000   0.92783077   -5.9207129    89.879736  0.035330085  0.037086425            6 
  213000   0.93521963    -5.900239    90.277265  0.035319744  0.036999606            4 
  214000   0.92080177   -5.8844255    90.753644  0.035340204  0.036912507            4 
  215000     0.921978    -5.884083    91.068757  0.035297968  0.036826973            3 
  216000   0.93090521   -5.9171995    91.178535  0.035176904  0.036742508            7 
  217000   0.92203136   -5.8849052    91.600852  0.035176978  0.036657403            4 
  218000   0.93710497   -5.9785041    91.499338  0.034976811  0.036571837           12 
  219000   0.90902012   -5.8884885    92.114397  0.035051141  0.036486378            3 
  220000   0.92957707   -5.9296277        92.15  0.034905303  0.036401669            3 
  221000     0.905834    -5.904138     92.60695  0.034919664   0.03631555            3 
  222000   0.89763424   -5.9148368    92.807314   0.03483758  0.036229865           11 
  223000   0.93028553   -5.9416762    92.820392  0.034686245  0.036145595            9 
  224000   0.94266976   -5.9292161    92.809994  0.034527527  0.036060023            4 
  225000   0.90298576   -5.9368576    92.974803  0.034435112  0.035973078            4 
  226000   0.91344446   -5.9292903    93.070878   0.03431817   0.03588406            6 
  227000   0.92735772   -5.9431231    93.477881  0.034316403  0.035795116            8 
  228000   0.90650733   -5.9590796    93.568291  0.034198937  0.035708143            6 
  229000   0.89396129   -5.9973812    93.800798  0.034134206  0.035621876            6 
  230000   0.90106739   -5.9969815    94.227792  0.034140504  0.035535574            3 
  231000    0.9027412   -5.9443547    94.042483   0.03392586  0.035448973            4 
  232000   0.89330879    -5.981041    94.659493  0.034001254   0.03536165            5 
  233000   0.91350043   -5.9817199    94.478194  0.033790484  0.035273675            3 
  234000   0.86903585   -5.9802471    94.775347  0.033751904  0.035185848            6 
  235000   0.89557866   -5.9795183    94.533199  0.033522411  0.035096944            5 
  236000   0.88674359   -5.9388223    95.124295  0.033589087  0.035006831            2 
  237000   0.90143572   -5.9508636    95.162777  0.033460892  0.034917025            3 
  238000   0.90027802   -6.0245485    95.082162  0.033292073  0.034824975            4 
  239000   0.91552756   -6.0143652    95.185755  0.033188897  0.034733959            6 
  240000   0.88024638   -5.9857223     95.56742  0.033183132  0.034643774            8 
  241000   0.88366157   -6.0110722     95.53697  0.033034914  0.034552676            5 
  242000   0.89175631   -5.9924548    96.112804  0.033096695  0.034463153            5 
  243000   0.87039165   -5.9925822    96.007726   0.03292446  0.034372884            6 
  244000   0.87404723   -5.9867356    95.883876  0.032747225  0.034281278            7 
  245000    0.8896993   -5.9836474    96.652245  0.032874913  0.034190517            4 
  246000   0.88547246   -6.0255946    96.700966   0.03275778  0.034100984            4 
  247000    0.8858124   -6.0294839    96.454505  0.032542006  0.034009946            5 
  248000   0.87336629   -6.0109041    96.558581   0.03244576   0.03391894            4 
  249000   0.87794142   -6.0037041    96.958214  0.032449201   0.03382705            4 
  250000   0.86278564   -6.0493593    97.195202  0.032398401   0.03373561            2 
  251000   0.87380592   -6.0444152    97.165693  0.032259526  0.033644754            7 
  252000   0.87703284   -6.0357299    96.955576  0.032062029  0.033553268           10 
  253000   0.87451036   -6.0243276    97.257669  0.032034805  0.033460268           10 
  254000   0.86495362   -6.0639123    97.470225   0.03197842  0.033368214            9 
  255000   0.85981145   -6.0831981    97.565101   0.03188402  0.033275662            4 
  256000   0.84776963   -6.0525947    98.101634  0.031934125  0.033185034            5 
  257000   0.84553799    -6.053337    98.264943  0.031862822  0.033094813            4 
  258000   0.84038712   -6.0880641    98.115694  0.031691116   0.03300401            9 
  259000   0.85609289      -6.0276    98.566921  0.031713939  0.032913835           10 
  260000   0.86627553    -6.062128     98.69487  0.031632971  0.032824572           13 
  261000    0.8536696   -6.0925878    98.758109  0.031531963  0.032734337           14 
  262000   0.84388218   -6.0918093    98.606511  0.031363394  0.032645056           10 
  263000   0.84373469   -6.0844287    98.994073  0.031366943   0.03255508            7 
  264000   0.84568689   -6.0917515     99.20247  0.031313911  0.032465417           16 
  265000   0.83709648   -6.1120338     99.05203  0.031148437  0.032375467            5 
  266000   0.84550226   -6.0969959    99.186818  0.031073565  0.032283996            5 
  267000   0.84926521   -6.1002793    99.218412  0.030967045  0.032192387            4 
  268000   0.82073938   -6.1170458    99.310614  0.030880166   0.03209983            9 
  269000    0.8460639   -6.0906022    99.257874  0.030749031  0.032007493            6 
  270000   0.85320004   -6.1111659    99.196618   0.03061624  0.031915844            8 
  271000   0.83297861    -6.095352    99.817006  0.030694036  0.031825086           14 
  272000   0.82744103   -6.1122051    100.01863  0.030642963   0.03173478           10 
  273000   0.84969164   -6.1431603    100.28445   0.03061186  0.031645065            7 
  274000   0.83502448   -6.1202445    100.46163  0.030554025  0.031556336            9 
  275000   0.83428774    -6.146192    100.26091  0.030382095  0.031467348            6 
  276000   0.80729067     -6.14276    100.45805  0.030331538  0.031378258            6 
  277000   0.83998491   -6.1662096    100.57421  0.030256984   0.03129016            5 
  278000   0.83856473   -6.1669529    100.89281  0.030243647  0.031202683           11 
  279000   0.82465974   -6.1399688     101.1344  0.030207408  0.031116167            9 
  280000   0.80780129   -6.1403496    101.24196  0.030131535  0.031029965            7 
  281000   0.81147828   -6.1510983     101.4535  0.030087039   0.03094361            6 
  282000   0.81546211     -6.17009    101.63855  0.030035033  0.030857743            5 
  283000   0.81514003   -6.1718758     101.3555  0.029845553  0.030771348            6 
  284000   0.82733434    -6.181748    101.46233  0.029771809  0.030685135            8 
  285000   0.80949313   -6.2138934    101.68977  0.029733849  0.030598823            8 
  286000   0.80385498   -6.1784504    101.86449  0.029680797  0.030512575           10 
  287000   0.80265646   -6.1743766     102.0462  0.029630139  0.030427271            6 
  288000   0.79957574   -6.1720462    102.24461  0.029584669  0.030341829            9 
  289000    0.8228911   -6.1831172    102.12194  0.029446926  0.030255393           10 
  290000   0.81447002   -6.2188795    101.96386  0.029299961  0.030168864            2 
  291000   0.79624321   -6.1928149    101.99769  0.029208961   0.03008271            2 
  292000   0.81660731   -6.1861688    102.37524  0.029216679  0.029997742            8 
  293000   0.80601921   -6.2299449    102.61656  0.029185596  0.029913679            5 
  294000   0.79909034     -6.21575    102.64795  0.029095224  0.029829188           10 
  295000   0.81075706   -6.2537081    102.26204  0.028887581  0.029744876           11 
  296000   0.79087685   -6.1969429    102.81214  0.028944859  0.029660772            4 
  297000   0.78098918   -6.2310651    102.66124   0.02880506  0.029576657           17 
  298000    0.7872706   -6.2347041    103.03303  0.028812369  0.029492509            7 
  299000   0.78811107   -6.2657783    103.04969  0.028720648  0.029408018           11 
  300000   0.80019611   -6.2373047    103.12607  0.028646131  0.029323455            8 
  301000   0.81283095   -6.2358038    103.19581  0.028570267     0.029239            7 
  302000   0.79543207   -6.2292962    103.21885  0.028482022  0.029154939            5 
  303000   0.77841011   -6.2693233    103.04843  0.028341151  0.029070477            9 
  304000   0.77804786   -6.2350621     103.2553  0.028304633  0.028986258           10 
  305000   0.77560345   -6.2420221    103.79852  0.028360252  0.028902338            7 
  306000   0.78024222   -6.2230298    103.57612  0.028207003  0.028818772           11 
  307000   0.78107681      -6.2536    103.75358  0.028163295   0.02873563           29 
  308000   0.76654054    -6.267263    103.51922  0.028008448  0.028651629            7 
  309000   0.77007549   -6.2530366     104.0235  0.028053801  0.028568871            9 
  310000   0.77774896   -6.2728261    103.91932  0.027935301  0.028486112            4 
  311000   0.77194035   -6.2638632    103.76577  0.027804333  0.028402945           10 
  312000   0.76043814   -6.2838198    103.98705  0.027774318  0.028320869            4 
  313000   0.75983336   -6.2874639     103.9042  0.027663524  0.028238851           12 
  314000   0.76605485   -6.2845278    104.17042  0.027646077  0.028156328            9 
  315000   0.76663963   -6.2987948    104.12397  0.027546024  0.028074296           11 
  316000   0.77288922   -6.3044954    104.22424  0.027485296  0.027992172            9 
  317000   0.75243888   -6.3059448    104.18731  0.027388882  0.027910442           12 
  318000   0.76963571   -6.2771276    104.45177  0.027372056   0.02782891            8 
  319000   0.75543852   -6.3253285    104.32783  0.027253874  0.027748269           10 
  320000   0.75249293   -6.3170328    104.65294  0.027253371  0.027668152            7 
  321000   0.76149324    -6.296827    104.70629  0.027182317  0.027588572            7 
  322000   0.75071941   -6.2978263    105.09587  0.027198725  0.027509229           14 
  323000   0.74089392   -6.3354942    104.66187  0.027002546    0.0274301            5 
  324000    0.7516654   -6.3229284    105.29161  0.027081176  0.027350632           13 
  325000   0.74485098   -6.3224229    105.27939  0.026994714  0.027271105            8 
  326000   0.73836418   -6.3531149    104.92341  0.026820913   0.02719143           10 
  327000   0.74743313    -6.363142     104.9462  0.026744699  0.027111714           16 
  328000    0.7516191   -6.3001281    105.32038  0.026758227  0.027031984            7 
  329000   0.75442081   -6.3703548    104.91274  0.026573643  0.026952361           13 
  330000   0.73356215   -6.3873976    104.93955  0.026499885   0.02687231           21 
  331000   0.72584439   -6.3677962    105.30552  0.026511963  0.026792783           14 
  332000   0.75108228   -6.3640464    105.57325   0.02649931   0.02671371            7 
  333000   0.73700726   -6.3833685    105.47121  0.026394197  0.026634847            9 
  334000   0.74509102   -6.4022466     105.3539  0.026285902  0.026556611            8 
  335000   0.74111636   -6.3910529    105.27554  0.026187946  0.026478548            8 
  336000   0.73825669   -6.3730786    105.39882  0.026140579  0.026399816           15 
  337000   0.72130258   -6.3550799    105.58155  0.026108197  0.026321725            9 
  338000   0.72978199    -6.389192    105.44419  0.025997089   0.02624397           12 
  339000   0.73321988   -6.3858996    105.72188  0.025988662  0.026166351           12 
  340000   0.72868222   -6.3859192    105.72799  0.025913722  0.026089265            8 
  341000   0.71020092    -6.390288    105.66351  0.025821971  0.026012512           13 
  342000   0.72298022    -6.424955    105.85001  0.025791912   0.02593539           19 
  343000    0.7214311   -6.4187992    106.03148  0.025760807  0.025858597            7 
  344000    0.7040743   -6.4213342    105.92221  0.025659449     0.025782            9 
  345000   0.70260558   -6.4427358     105.9995  0.025603743  0.025705364           13 
  346000   0.70867225   -6.3887291    106.21464  0.025581561  0.025629432           14 
  347000   0.69343693    -6.409365     106.1538  0.025493227  0.025554164           17 
  348000   0.71523534   -6.4261443    106.27371  0.025448686  0.025479238           12 
  349000    0.7012244   -6.4346355    106.26004  0.025372501  0.025403947            8 
  350000   0.71357441   -6.4479373    106.37085  0.025326392  0.025328454           11 
  351000   0.69551551   -6.4561588    106.05959  0.025180339   0.02525336           11 
  352000   0.69295976   -6.4414619    106.45106  0.025201482  0.025178526           12 
  353000   0.69479824   -6.4506076    106.28976  0.025092011  0.025103488            9 
  354000   0.70412644   -6.4279009    106.51783  0.025074818  0.025028866           29 
  355000   0.69829274   -6.4402186    106.37139  0.024969809  0.024954446           16 
  356000   0.70023022   -6.4235458    106.54713  0.024940808  0.024880224            7 
  357000   0.70960899    -6.453872    106.41801  0.024840805  0.024806308            4 
  358000    0.6892305   -6.4799585    106.49242  0.024788739  0.024732439           13 
  359000   0.70071424   -6.4593384    106.60253  0.024745248  0.024659002           13 
  360000   0.68500968   -6.4458393    106.64766  0.024686958  0.024585649           12 
  361000   0.69245572    -6.469955    106.63269  0.024615118  0.024512585           11 
  362000   0.69318242    -6.482028    106.87472  0.024602835  0.024439667           27 
  363000   0.68252914   -6.4633268    106.71194  0.024497691  0.024366995           13 
  364000   0.69089893   -6.4858145    106.65203  0.024416675  0.024294463            5 
  365000   0.68100039   -6.4928235    106.49755  0.024314508   0.02422208           14 
  366000   0.68815805   -6.5139048    106.69139  0.024292211  0.024149331            9 
  367000   0.67395436   -6.5120685    106.58724   0.02420237  0.024076862           10 
  368000    0.6652445   -6.5147788     107.0133  0.024233084  0.024004902           10 
  369000   0.68908113   -6.4941617    107.11068  0.024189405  0.023933172           12 
  370000   0.68818945   -6.5173775    106.69557  0.024030535  0.023861352           24 
  371000   0.66916973   -6.5157826    106.72392   0.02397213  0.023789562           19 
  372000    0.6852941   -6.5166219    107.02594  0.023975345  0.023718022            5 
  373000   0.66922931   -6.5181987    106.87614  0.023877601  0.023646754           14 
  374000   0.66644193   -6.5151824    107.01003   0.02384359  0.023575384           16 
  375000   0.67033166   -6.5268225    106.86199  0.023747108  0.023504339           25 
  376000   0.66454836   -6.5448523    106.90934  0.023694446  0.023433282           12 
  377000    0.6701913   -6.5392942    106.86306  0.023621365  0.023362532           25 
  378000    0.6671706   -6.5498695    106.87779  0.023562124  0.023291853           32 
  379000   0.65876036   -6.5445998    107.01006  0.023529037   0.02322145            9 
  380000   0.65592001   -6.5859381    107.07262  0.023480837  0.023151565            7 
  381000   0.66067016   -6.5796736    107.06344  0.023417201  0.023081816           14 
  382000   0.65073409   -6.5702337    107.27675  0.023402432  0.023012199           19 
  383000    0.6573924   -6.5786259    107.01947  0.023285351  0.022942938           25 
  384000   0.65441251   -6.5743464    107.11308  0.023245025  0.022873878           19 
  385000   0.65075571   -6.5851757    106.96866   0.02315339  0.022804994           20 
  386000   0.64138006   -6.5679387    107.27864  0.023160327   0.02273618           18 
  387000   0.63829444   -6.5731854    107.16971  0.023077026  0.022667794           23 
  388000   0.64722125    -6.585493    107.12272  0.023007458  0.022599305           49 
  389000   0.63741359    -6.607096    107.07975  0.022939106  0.022531105           31 
  390000   0.64291653   -6.6026529    107.10684  0.022886078  0.022462978           11 
  391000   0.63704631    -6.617223    106.98419  0.022801406  0.022394812           18 
  392000    0.6358707   -6.6231166    107.15204  0.022778919  0.022326756           40 
  393000   0.62925811   -6.5931746    107.03553  0.022696253  0.022258535           27 
  394000   0.65453733   -6.5983259    107.16768  0.022666599  0.022190482           21 
  395000   0.63391041   -6.6316486    107.01936  0.022577923  0.022122411           16 
  396000     0.645135   -6.6419363    107.12416  0.022542964  0.022054621           21 
  397000   0.62631325   -6.6288132    106.89628  0.022438346  0.021987061           28 
  398000   0.62714333   -6.6310859    107.14074  0.022433153  0.021919689           42 
  399000   0.63022184   -6.6426956    107.03701  0.022355266  0.021852186           16 
  400000   0.62447197   -6.6455403    106.88258  0.022267204  0.021784695           20 
  401000   0.63306508   -6.6428873    107.08889   0.02225455  0.021717367           31 
  402000   0.63053095   -6.6378785    106.94937  0.022170268  0.021650514           39 
  403000   0.61987916    -6.645059    106.79743  0.022083835  0.021583718           78 
  404000   0.63078619   -6.6629166    106.85599  0.022041253  0.021516899           36 
  405000   0.62967714   -6.6492495    107.00186  0.022016844  0.021450191           71 
  406000   0.62428313   -6.6331169    106.97451  0.021957002   0.02138378           29 
  407000   0.62558739    -6.677504    106.66496  0.021839672  0.021317482           25 
  408000   0.60999161   -6.6966101    106.97752  0.021849984  0.021251197           15 
  409000   0.62358297   -6.6960984     106.8423   0.02176901  0.021185113           28 
  410000   0.61050935   -6.6881431    106.70864  0.021688748   0.02111902           16 
  411000   0.60144785   -6.6875483    106.97421  0.021689824   0.02105337           41 
  412000   0.61065722   -6.6906157    106.99844  0.021642079  0.020987979           19 
  413000   0.61130579    -6.685206    106.62111  0.021513541  0.020922716           10 
  414000   0.60728243   -6.7155688    106.83522  0.021504675  0.020857727           33 
  415000   0.60664835   -6.7080369    106.83834  0.021453483  0.020793086           25 
  416000   0.59675134   -6.6919778    107.15711  0.021465768  0.020728716           43 
  417000   0.60585823   -6.7265085    106.99941  0.021382775  0.020664618           26 
  418000   0.60856358   -6.7296243    106.73355  0.021278617  0.020600786           28 
  419000   0.59383546   -6.7017387    106.98529  0.021277901   0.02053691           36 
  420000   0.60899621   -6.7272741    107.11371  0.021252721  0.020473491           41 
  421000   0.59386745   -6.7474295    107.04202  0.021188048  0.020409988           49 
  422000   0.59883438   -6.7520687    106.94473  0.021118628  0.020346549           83 
  423000    0.5882302   -6.7599737    106.91154  0.021062164  0.020283351           90 
  424000   0.59174299    -6.749267     107.1629  0.021061891  0.020220348           67 
  425000   0.59431531   -6.7803882    106.76862  0.020935023   0.02015759           48 
  426000   0.59386584   -6.7739188    106.83195  0.020898269  0.020094937           85 
  427000   0.56308742   -6.7791547    106.91675  0.020865877   0.02003228           55 
  428000   0.58943726   -6.7628289    107.05588  0.020844213  0.019969998           89 
  429000   0.59698255   -6.7678687    106.91484  0.020768229  0.019907673           91 
  430000   0.57317498   -6.7683239    106.72425  0.020682994  0.019845541           95 
  431000   0.57708393   -6.7919351    106.80389  0.020650404  0.019783677           49 
  432000   0.58150578    -6.783682    106.76753  0.020595589  0.019721954           90 
  433000   0.57614823   -6.7905648    106.72024  0.020538922  0.019660501           22 
  434000   0.58343962   -6.7723745    106.58862  0.020466325   0.01959893           66 
  435000   0.56776898   -6.7950101    106.66336  0.020433593   0.01953754           33 
  436000   0.57684385   -6.7892739    106.77582  0.020408223    0.0194763          103 
  437000   0.56284556   -6.8022023    106.62387  0.020332545  0.019415177           79 
  438000   0.56412589   -6.7899572    106.88682  0.020336153  0.019354196           69 
  439000   0.56760439   -6.8041362    106.65359  0.020245555  0.019293493           45 
  440000   0.55927174   -6.7963936    106.77256  0.020222075  0.019232991          113 
  441000   0.56722745   -6.8295567    106.49218  0.020123239  0.019172775           80 
  442000   0.57208051     -6.83903     106.5359  0.020085954  0.019112443           39 
  443000   0.56261474   -6.8417112    106.47797  0.020029716  0.019052166           58 
  444000   0.55810409   -6.8300251    106.71548  0.020029181  0.018992451           95 
  445000   0.56024831   -6.8270061    106.46681  0.019937604  0.018932803           49 
  446000   0.55749607   -6.8392599    106.67244  0.019931324  0.018873297           68 
  447000   0.53940896   -6.8391377    106.48404   0.01985161  0.018814151           76 
  448000   0.56666115     -6.84538    106.69373  0.019846305  0.018755242           45 
  449000   0.55021525   -6.8477666    106.52962  0.019771645  0.018696542          107 
  450000    0.5472252   -6.8685938     106.3709  0.019698315  0.018637989           37 
  451000   0.54198584   -6.8511705    106.56949  0.019691332  0.018579609          138 
  452000   0.53876963   -6.8585878    106.63428  0.019659713  0.018521537           75 
  453000   0.55556782   -6.8416395    106.43923  0.019580432  0.018463597           69 
  454000   0.53699027   -6.8544578    106.53675  0.019555204  0.018406048           59 
  455000   0.53468925   -6.8620511    106.73675  0.019548856  0.018348601           92 
  456000   0.53279556   -6.8893624    106.43381  0.019450623  0.018291239          228 
  457000   0.54022242    -6.885329    106.56016  0.019431101  0.018233929          147 
  458000   0.53888475   -6.8760318    106.38281  0.019356406  0.018176789          100 
  459000   0.53650614   -6.8795175    106.54994  0.019344578  0.018119922           58 
  460000   0.52714065   -6.8750362    106.60847  0.019313129  0.018063384           99 
  461000   0.52857059   -6.8868924    106.51934  0.019255122  0.018006916          383 
  462000   0.53551012   -6.9040261    106.37991  0.019188295  0.017950571          220 
  463000   0.52916713   -6.9024837    106.41727  0.019153576   0.01789447          138 
  464000   0.52271634   -6.9028534    106.38354  0.019106239  0.017838627          137 
  465000   0.52654616   -6.8968889    106.37075  0.019062858  0.017782683          218 
  466000   0.51717208   -6.9097111    106.04827  0.018964283  0.017727015           78 
  467000   0.52609134   -6.9127251    106.14179  0.018940362  0.017671421          125 
  468000   0.52533665   -6.9091933    106.21497  0.018912922  0.017616009          106 
  469000   0.51230626   -6.9184607    106.22983  0.018875236  0.017560831          109 
  470000   0.51658729   -6.9314252    106.08397  0.018809215  0.017505771          161 
  471000   0.52928651   -6.9246698    106.26677  0.018801622  0.017450982          268 
  472000   0.51090117   -6.9390043    106.25919   0.01876045  0.017396407          239 
  473000   0.51161958   -6.9256691    106.06239  0.018686116  0.017342003          236 
  474000   0.51907177   -6.9366873    106.28474  0.018685784  0.017287736          298 
  475000   0.49764635    -6.937882    106.09467    0.0186131  0.017233819          197 
  476000   0.50339012    -6.942318    106.30447  0.018610727  0.017179943          189 
  477000    0.5046184   -6.9600051    105.93772  0.018507639  0.017126095           94 
  478000   0.50390437   -6.9609795    105.81879  0.018448186   0.01707254          219 
  479000   0.51062265   -6.9654786    106.05607  0.018450952  0.017019085          401 
  480000     0.492975   -6.9579081    105.98016  0.018399333  0.016965927          175 
  481000   0.50548071   -6.9577172    105.96345  0.018358185   0.01691294          251 
  482000   0.50423038   -6.9537951    106.19111  0.018359458  0.016860135          335 
  483000   0.48628505    -6.968115    105.85438   0.01826335  0.016807602          260 
  484000   0.50138544   -6.9868163    105.92653  0.018238039  0.016755218          305 
  485000   0.50009427   -6.9808312    106.03356  0.018218824  0.016702955          247 
  486000   0.48379342   -6.9795265    106.04289  0.018182937  0.016650815          216 
  487000   0.48348085    -6.977777    105.96724  0.018132656  0.016598898          264 
  488000   0.48732764   -6.9819923    105.91274  0.018086192  0.016547032          243 
  489000   0.49648589    -6.986655    105.98054  0.018060759  0.016495404          231 
  490000   0.48799977   -6.9789876    105.82916  0.017998157  0.016443921          273 
  491000   0.47556579   -7.0096839     105.6704  0.017934555  0.016392427          219 
  492000   0.47713666   -7.0031692    106.01941  0.017957217  0.016341223          386 
  493000   0.48772994   -6.9831161    105.68442  0.017864169  0.016290179          182 
  494000   0.47075637   -6.9986509     105.8733  0.017859869  0.016239361          247 
  495000   0.48694939   -7.0067772    105.79402  0.017810441  0.016188762          205 
  496000   0.47424818   -7.0046181    105.68683  0.017756525  0.016138303          106 
  497000   0.46829324   -7.0096812    105.76768  0.017734353  0.016088042          140 
  498000   0.47481503    -7.003385    105.71946  0.017690672  0.016037955          364 
  499000   0.47340333    -7.015877    105.72983  0.017656952  0.015988015          411 
  500000   0.47875028   -7.0046447    105.52565  0.017587608  0.015938201          207 
  501000   0.47439123   -7.0184991     105.6562  0.017574218  0.015888534          152 
  502000   0.45792701   -7.0366089    105.62907  0.017534707  0.015838981          476 
  503000   0.45959085   -7.0250039    105.43633  0.017467913  0.015789668          378 
  504000   0.46679166   -7.0395699    105.50819  0.017445137  0.015740463          238 
  505000   0.45694248   -7.0341989    105.46094  0.017402795  0.015691489          428 
  506000   0.45663593   -7.0289912    105.56808  0.017386048  0.015642687          390 
  507000   0.45633748   -7.0265942    105.64813  0.017364913  0.015594184          166 
  508000    0.4568227   -7.0375314    105.44105   0.01729676  0.015545656          297 
  509000   0.45496042    -7.041737    105.33378  0.017245215  0.015497309          320 
  510000   0.45367633   -7.0293568    105.42553  0.017226393  0.015449197          290 
  511000   0.45542854   -7.0404776    105.53075  0.017209842  0.015401273          295 
  512000   0.44913582   -7.0353581    105.44706  0.017162608  0.015353487          276 
Loop time of 1296.78 on 48 procs for 500000 steps with 4000 atoms

Performance: 66626.428 tau/day, 385.570 timesteps/s
99.4% CPU use with 48 MPI tasks x no OpenMP threads

MPI task timing breakdown:
Section |  min time  |  avg time  |  max time  |%varavg| %total
---------------------------------------------------------------
Pair    | 91.662     | 99.255     | 109.38     |  44.6 |  7.65
Neigh   | 8.9147     | 9.2834     | 9.7419     |   6.6 |  0.72
Comm    | 80.478     | 90.917     | 98.499     |  46.5 |  7.01
Output  | 0.93472    | 0.93555    | 0.96312    |   0.4 |  0.07
Modify  | 1081.8     | 1084.6     | 1087.8     |   4.7 | 83.64
Other   |            | 11.74      |            |       |  0.91

Nlocal:        83.3333 ave          91 max          75 min
Histogram: 2 3 1 4 8 11 10 4 4 1
Nghost:        2395.69 ave        2419 max        2370 min
Histogram: 1 1 5 4 8 12 11 2 3 1
Neighs:        16560.6 ave       19164 max       13521 min
Histogram: 1 1 4 9 9 3 8 5 5 3
FullNghs:      33122.2 ave       36079 max       29597 min
Histogram: 2 2 2 3 10 10 9 4 4 2

Total # of neighbors = 1589864
Ave neighs/atom = 397.46600
Neighbor list builds = 26775
Dangerous builds = 0

#clear
#
#next RN
#
#jump SELF
Total wall time: 0:21:40
