
units lj                  # Use reduced LJ style units
atom_style atomic         # Uncharged point particles
atom_modify map hash      # Needed for indexing of clusters etc
                          # Used to be able to find where atoms are in relation to each other.

lattice fcc 1.0 spacing 1 1 1
Lattice spacing in x,y,z = 1.5874011 1.5874011 1.5874011
region box block 0 10 0 10 0 10 units lattice
create_box 2 box
Created orthogonal box = (0.0000000 0.0000000 0.0000000) to (15.874011 15.874011 15.874011)
  3 by 4 by 4 MPI processor grid
create_atoms 1 box
Created 4000 atoms
  using lattice units in orthogonal box = (0.0000000 0.0000000 0.0000000) to (15.874011 15.874011 15.874011)
  create_atoms CPU = 0.002 seconds
set type 1 type/fraction 2 0.55 78393
Setting atom values ...
  2215 settings made for type/fraction
mass 1 1.0
mass 2 1.0
pair_style lj/cut  3.5
pair_modify tail  yes
pair_coeff 1  1  1.0  1.0   # Intearaction between 1 and 1 set with epsilon = 1 and sigma = 1
pair_coeff 1  2  1.5  0.8
pair_coeff 2  2  0.5  0.88

write_data data.0
System init for write_data ...
Neighbor list info ...
  update every 1 steps, delay 10 steps, check yes
  max neighbors/atom: 2000, page size: 100000
  master list distance cutoff = 3.8
  ghost atom cutoff = 3.8
  binsize = 1.9, bins = 9 9 9
  1 neighbor lists, perpetual/occasional/extra = 1 0 0
  (1) pair lj/cut, perpetual
      attributes: half, newton on
      pair build: half/bin/atomonly/newton
      stencil: half/bin/3d
      bin: standard
WARNING: Not all mixed pair coeffs generated from mixing. Use write_data with 'pair ij' option to store all pair coeffs. (../write_data.cpp:312)


#############################
#   M E L T   S Y S T E M   #
#############################

velocity all create 2.4 9622624 mom yes dist gaussian # Assign velocities
                                                    # Temperature 2.4, random number seed, zero linear momentum
                                                                                # Gaussian distribution

timestep 0.002   # simulation timestep
thermo 1000       # output thermodynamic data every 1000 steps bf 100

# Define a fix  in this case with index 1 applied to all
# particles in the simulation. This fix is for simulations
# in the anisotropic NPT ensemble. Note that we use the MTK
# correction.
fix 1 all npt temp 2.4 2.4 0.1 iso 5.68 5.68 0.5 mtk yes tchain 5 pchain 5 # Use NPT ensemble
                                                                         # Set temperature and pressure and damping
                                                                         # Numbers of thermostats in chain and in barostat
run 10000          # run for 10000 steps
Per MPI rank memory allocation (min/avg/max) = 3.642 | 3.644 | 3.648 Mbytes
Step Temp E_pair E_mol TotEng Press Volume 
       0          2.4   -4.9973821            0   -1.3982821   -4.1559512         4000 
    1000    2.4668668   -4.6726143            0  -0.97323929    5.6378806    3661.9952 
    2000    2.4052258   -4.6983534            0   -1.0914166    5.4985469    3659.5442 
    3000     2.427348   -4.7104822            0   -1.0703706     6.158786    3606.2192 
    4000    2.3686513    -4.689139            0   -1.1370503    5.6829556    3640.9035 
    5000      2.40674   -4.7031761            0   -1.0939687    5.1923057    3673.9941 
    6000    2.4326941   -4.6981539            0    -1.050025    5.5520065    3651.8512 
    7000    2.3898871   -4.7225372            0   -1.1386027    5.4117849    3654.3137 
    8000    2.3759792   -4.7583451            0   -1.1952673    5.6068921    3619.1813 
    9000    2.4381209   -4.7246576            0   -1.0683904    5.6305339    3636.2564 
   10000    2.4542375   -4.6873797            0   -1.0069438    5.7323226    3652.1471 
Loop time of 2.64018 on 48 procs for 10000 steps with 4000 atoms

Performance: 654501.053 tau/day, 3787.622 timesteps/s
99.6% CPU use with 48 MPI tasks x no OpenMP threads

MPI task timing breakdown:
Section |  min time  |  avg time  |  max time  |%varavg| %total
---------------------------------------------------------------
Pair    | 1.2122     | 1.269      | 1.3643     |   2.8 | 48.07
Neigh   | 0.21555    | 0.22425    | 0.23172    |   0.8 |  8.49
Comm    | 0.77814    | 0.88745    | 0.94425    |   3.5 | 33.61
Output  | 0.00025145 | 0.00025577 | 0.00031881 |   0.0 |  0.01
Modify  | 0.21746    | 0.2434     | 0.25896    |   1.9 |  9.22
Other   |            | 0.01579    |            |       |  0.60

Nlocal:        83.3333 ave          95 max          75 min
Histogram: 3 1 9 10 8 5 7 3 1 1
Nghost:        1746.31 ave        1777 max        1717 min
Histogram: 3 2 5 7 7 9 5 4 5 1
Neighs:        10473.4 ave       11959 max        9303 min
Histogram: 5 2 6 11 9 3 3 4 2 3

Total # of neighbors = 502722
Ave neighs/atom = 125.68050
Neighbor list builds = 906
Dangerous builds = 218

# Equilibrate just above the melting temperature to avoid step fn in T

fix 1 all npt temp 1.25 1.25 0.1 iso 5.68 5.68 0.5 mtk yes tchain 5 pchain 5
run 2000
Per MPI rank memory allocation (min/avg/max) = 3.644 | 3.646 | 3.650 Mbytes
Step Temp E_pair E_mol TotEng Press Volume 
   10000    2.4542375   -4.6873797            0   -1.0069438    5.7323226    3652.1471 
   11000    1.2341565   -6.8168195            0   -4.9660476    5.8015586    2804.8849 
   12000    1.2577861   -6.8931727            0   -5.0069652    5.4598996    2801.1097 
Loop time of 0.65648 on 48 procs for 2000 steps with 4000 atoms

Performance: 526443.887 tau/day, 3046.550 timesteps/s
99.7% CPU use with 48 MPI tasks x no OpenMP threads

MPI task timing breakdown:
Section |  min time  |  avg time  |  max time  |%varavg| %total
---------------------------------------------------------------
Pair    | 0.29693    | 0.32432    | 0.34474    |   2.1 | 49.40
Neigh   | 0.041112   | 0.043834   | 0.046416   |   0.6 |  6.68
Comm    | 0.21321    | 0.23745    | 0.26988    |   2.8 | 36.17
Output  | 5.3339e-05 | 5.4315e-05 | 7.0718e-05 |   0.0 |  0.01
Modify  | 0.042836   | 0.045886   | 0.048734   |   1.0 |  6.99
Other   |            | 0.004934   |            |       |  0.75

Nlocal:        83.3333 ave          90 max          76 min
Histogram: 3 1 5 4 6 13 5 5 3 3
Nghost:        2091.25 ave        2119 max        2060 min
Histogram: 1 3 1 7 7 12 11 3 1 2
Neighs:        13641.5 ave       15385 max       11824 min
Histogram: 2 1 7 4 3 12 11 6 1 1

Total # of neighbors = 654794
Ave neighs/atom = 163.69850
Neighbor list builds = 143
Dangerous builds = 15

#############################
# L I N E A R  Q U E N C H  #
#############################

# Define solid atoms. This closely follows ten Wolde  Ruiz-Montero and Frenkel  Faraday Discuss  1996  104  93-110
# Compute components of the per-atom q6 vector
compute q6 all orientorder/atom degrees 1 6 components 6 nnn NULL cutoff 1.3 # compute the Q6 parameter.
                                                                             # Use all neighbours within 1.3 unit cell.

# get number of connections
compute coord_number all coord/atom orientorder q6 0.5

# An atom is solid if it has 8 or more connections (of a possible 14)
variable is_solid atom c_coord_number>=8
group solid dynamic all var is_solid    # Must be dynamic to update
dynamic group solid defined

# do clustering
compute cluster solid cluster/atom 1.3 # Create a cluster where all atoms within are solid and max 1.3 units from another member

# define chunks one chunk per cluster
compute clus_chunks solid chunk/atom c_cluster nchunk every compress yes  # Says which atoms are in which chunk

# count the size of each chunk
compute size_chunks solid property/chunk clus_chunks count


# Find the maximum entry in the vector of chunk sizes
variable max_n equal max(c_size_chunks)


# Thermo style which includes this variable
# thermo_style custom step temp pe vol v_max_n

thermo ${N}  # Print the thermo information every 100 steps
thermo 1000  

# Reset the npt fix at a lower temperature (below freezing)
fix 1  all npt temp  ${temp} ${temp}  0.1  iso  5.68  5.68  0.5  mtk yes tchain  5  pchain  5
fix 1  all npt temp  0.45 ${temp}  0.1  iso  5.68  5.68  0.5  mtk yes tchain  5  pchain  5
fix 1  all npt temp  0.45 0.45  0.1  iso  5.68  5.68  0.5  mtk yes tchain  5  pchain  5

dump dmp2 all dcd ${N} traj.dcd
dump dmp2 all dcd 1000 traj.dcd


compute msd all msd com yes
variable twopoint equal c_msd[4]/6/(step*dt+1.0e-6)
fix 9 all vector 10 c_msd[4]
variable fit equal slope(f_9)/6/(10*dt)
thermo_style custom step temp pe c_msd[4] v_twopoint v_fit v_max_n

fix 1 all npt temp 1.25 ${temp} 0.1 iso 5.68 5.68 0.5 mtk yes tchain 5 pchain 5
fix 1 all npt temp 1.25 0.45 0.1 iso 5.68 5.68 0.5 mtk yes tchain 5 pchain 5
run 500000 # 5000000  # Run for this many steps
Neighbor list info ...
  update every 1 steps, delay 10 steps, check yes
  max neighbors/atom: 2000, page size: 100000
  master list distance cutoff = 3.8
  ghost atom cutoff = 3.8
  binsize = 1.9, bins = 8 8 8
  4 neighbor lists, perpetual/occasional/extra = 1 3 0
  (1) pair lj/cut, perpetual
      attributes: half, newton on
      pair build: half/bin/atomonly/newton
      stencil: half/bin/3d
      bin: standard
  (2) compute orientorder/atom, occasional
      attributes: full, newton on
      pair build: full/bin/atomonly
      stencil: full/bin/3d
      bin: standard
  (3) compute coord/atom, occasional
      attributes: full, newton on
      pair build: full/bin/atomonly
      stencil: full/bin/3d
      bin: standard
  (4) compute cluster/atom, occasional
      attributes: full, newton on
      pair build: full/bin/atomonly
      stencil: full/bin/3d
      bin: standard
Per MPI rank memory allocation (min/avg/max) = 9.842 | 9.848 | 9.852 Mbytes
Step Temp PotEng c_msd[4] v_twopoint v_fit v_max_n 
   12000    1.2577861   -6.8931727 5.0337214e-30 3.4956397e-32 8.3333333e+20            1 
   13000    1.2224207    -6.926307   0.43707382 0.0028017552  0.035696187            4 
   14000     1.239241   -6.9589968   0.83490149 0.0049696515  0.032750295            2 
   15000    1.2593663   -6.9518558    1.2697583 0.0070542126  0.034062878            4 
   16000    1.2010778   -6.8991621    1.6809456 0.0087549248  0.034451092            3 
   17000    1.2312766   -6.9279346    2.1127064  0.010356404  0.034604302            3 
   18000    1.2380307   -6.9566739    2.5807589  0.011947957  0.035157124            3 
   19000    1.2440578   -6.9530046    2.9438713  0.012911716  0.035201433            1 
   20000    1.2232629   -6.9745654    3.3235759  0.013848233  0.034898177            1 
   21000     1.223667   -6.9458858    3.7545839  0.014899142  0.034602932            1 
   22000    1.2406172   -6.9556377    4.1137351  0.015582329  0.034393216            5 
   23000    1.2354189   -6.9829506     4.541786  0.016455746  0.034303238            3 
   24000    1.2502709   -6.9908879     4.908484  0.017043347  0.034094361            1 
   25000    1.2007204   -6.9964596    5.3062232   0.01768741   0.03395451            2 
   26000    1.2208939   -6.9958955    5.6791316  0.018202345  0.033845509            1 
   27000    1.2288387   -6.9796083    6.0454869   0.01865891  0.033641534            3 
   28000     1.242373   -6.9744282    6.3780008  0.018982145  0.033368885            1 
   29000    1.2212871   -6.9879678    6.7353965  0.019354587  0.033090446            3 
   30000    1.2333339   -6.9986373    7.1160682  0.019766856  0.032936861            3 
   31000    1.2163543   -7.0534229    7.5461479  0.020285343  0.032805805            4 
   32000    1.2182537   -7.0191762    7.9593549  0.020727486  0.032759593            2 
   33000    1.2187359   -7.0693289    8.3963407   0.02120288   0.03274942            4 
   34000    1.2561148     -7.03106    8.7830393  0.021527057  0.032783451            3 
   35000    1.2020683   -7.0021077    9.0677843  0.021589962  0.032730957            2 
   36000    1.2103429   -7.0181164    9.3597995  0.021666202  0.032602099            2 
   37000    1.1970416   -7.0666321    9.7063278  0.021861098  0.032433235            1 
   38000    1.2266565   -7.0583496    10.013004  0.021958343  0.032289261            4 
   39000    1.1974855    -7.044491    10.366609  0.022150873   0.03212379            4 
   40000    1.2081157   -7.0396062    10.645273  0.022177652   0.03193954            1 
   41000    1.1966093   -7.0835449    11.068178  0.022496296  0.031799166            3 
   42000    1.1863632   -7.0843698    11.272224  0.022365523  0.031628746            1 
   43000    1.1964528    -7.017723    11.665804  0.022608147  0.031426582            3 
   44000    1.1914038   -7.0791771    11.892839  0.022524315  0.031225734            1 
   45000    1.2075054   -7.0508839    12.261731  0.022706909  0.031047074            1 
   46000    1.1960314   -7.0638803    12.788701  0.023167937  0.030936411            2 
   47000    1.2146853    -7.074479     13.26744  0.023523829  0.030889645            2 
   48000    1.1492583    -7.055677    13.509083  0.023453268  0.030853343            4 
   49000    1.1932357   -7.0507213    13.870515  0.023589311  0.030787273            1 
   50000    1.1997038   -7.0759473    14.145316  0.023575526   0.03070279            2 
   51000     1.196967   -7.1115081    14.578848  0.023821647   0.03062882            3 
   52000     1.201062   -7.1389309    14.813516  0.023739609  0.030571394            5 
   53000    1.1943177   -7.1037353    15.215746  0.023924128  0.030505038            2 
   54000    1.1646159   -7.0899754    15.565134  0.024020268   0.03046091            4 
   55000    1.1259198   -7.1211032    15.937321  0.024147456   0.03041116            3 
   56000    1.1472827   -7.1145164    16.205464  0.024115274  0.030361501            4 
   57000    1.1754618   -7.1031712    16.475772  0.024087385   0.03029245            3 
   58000    1.1863372   -7.1041539    16.728092  0.024034615  0.030201827            3 
   59000     1.184526   -7.1252523    17.245766  0.024358427  0.030133781            1 
   60000    1.1741649   -7.1311091     17.47137  0.024265791  0.030073723            3 
   61000    1.1607523   -7.1399573    17.701136   0.02418188  0.029999145            6 
   62000    1.1698957   -7.1281497    18.054188  0.024266382  0.029911839            2 
   63000    1.1601085   -7.1565784    18.614302  0.024622093  0.029855418            2 
   64000    1.1674631   -7.1717105    18.901789  0.024611704  0.029818609            3 
   65000    1.1533919   -7.1452889    19.164493  0.024569863  0.029766484            2 
   66000    1.1584269   -7.1830684    19.373093  0.024460976  0.029703905            3 
   67000    1.1814979   -7.1886195    19.773725  0.024594185  0.029637747            1 
   68000    1.1781476   -7.1853202    20.138438  0.024679459   0.02958961            2 
   69000     1.157562   -7.1325656    20.432324   0.02467672  0.029535827            3 
   70000    1.1649324   -7.1351533      20.8033  0.024765833  0.029487842            2 
   71000    1.1637751   -7.1520951    21.162129   0.02483818  0.029437745            3 
   72000    1.1492984    -7.129918    21.428944  0.024802019  0.029387957            1 
   73000    1.1568999   -7.1734939     21.62178  0.024682397  0.029327899            4 
   74000    1.1536326    -7.146443     21.89304  0.024654324  0.029260053            2 
   75000    1.1502958   -7.1515595    22.087806  0.024542006  0.029179681            2 
   76000    1.1707977   -7.2097507    22.438274  0.024603371  0.029100139            6 
   77000    1.1466182   -7.1832222      22.7648  0.024637229  0.029030919            3 
   78000    1.1449041    -7.201954    23.109166   0.02468928  0.028964314            3 
   79000    1.1373845   -7.2059712    23.314032  0.024592861  0.028888828            3 
   80000    1.1675999   -7.2017345    23.612317  0.024596163  0.028822142            2 
   81000    1.1432438   -7.2064219    24.019209   0.02471112  0.028758255            2 
   82000    1.1471026   -7.2112764    24.319223  0.024714658   0.02870335            5 
   83000    1.1436247   -7.2653335     24.62813  0.024727038  0.028640916            1 
   84000     1.138446    -7.235891    25.026449  0.024827826  0.028585957            1 
   85000    1.1220995   -7.2289268    25.165853  0.024672404  0.028533057            2 
   86000    1.1489854   -7.2709465    25.268307  0.024484794  0.028463269            2 
   87000    1.1276945   -7.2701986    25.568969   0.02449135  0.028384146            5 
   88000    1.1358589   -7.2476067    25.816057  0.024447023  0.028311126            2 
   89000    1.1215683   -7.2780511    25.968284  0.024314872  0.028223499            2 
   90000    1.1442056   -7.2430739    26.464188  0.024503877  0.028142746            2 
   91000    1.1186568   -7.2460007    26.653337  0.024407818  0.028067907            3 
   92000    1.1241669    -7.311577    26.881158  0.024348875  0.027997036            2 
   93000    1.1171351   -7.2852483    27.274169  0.024439219  0.027925568            5 
   94000    1.1089258   -7.2981703    27.549187  0.024423038  0.027856771            5 
   95000    1.1392834   -7.2838882    27.711961  0.024308738  0.027779869            4 
   96000    1.1219475   -7.2832768    27.810287  0.024140874  0.027702067            3 
   97000     1.109506   -7.2807658    28.230126  0.024252686  0.027618015            4 
   98000    1.1270479   -7.2968151    28.408156  0.024156595  0.027537076            4 
   99000     1.102806   -7.2529192    28.677705  0.024139482  0.027457829            2 
  100000    1.1203939   -7.2695767    29.060026  0.024216688  0.027380598            3 
  101000     1.096386   -7.2549684    29.231709  0.024118571  0.027306664            3 
  102000    1.1265729   -7.3267604    29.406668  0.024025055  0.027232247            4 
  103000    1.1206998   -7.2724691    29.754829  0.024073486  0.027156825            3 
  104000    1.1068989   -7.3331027    29.936091  0.023987252  0.027080392            3 
  105000    1.0884771   -7.3542306    30.273729  0.024026769  0.027009242            5 
  106000    1.0727274   -7.3104883    30.644407  0.024091515   0.02694184            3 
  107000    1.1045926   -7.3113381    30.895674  0.024062052  0.026875946            6 
  108000    1.0973744   -7.3478212    30.857951  0.023810148  0.026806261            5 
  109000    1.1203909   -7.3459246    31.255188  0.023895403  0.026733845            4 
  110000    1.0891911   -7.3502042    31.437632  0.023816388  0.026658872            2 
  111000    1.0955923   -7.3027617    31.694673  0.023794799  0.026582222            5 
  112000    1.0969436   -7.3629164    31.951483  0.023773425  0.026508439            5 
  113000    1.0931473   -7.3308129    32.108439   0.02367879  0.026433908            1 
  114000    1.0879881   -7.3247595    32.406832  0.023689204   0.02636067            2 
  115000    1.0865878   -7.3483963    32.550438  0.023587274  0.026285268            5 
  116000    1.0789369   -7.3359305    32.896283  0.023632387  0.026211631            1 
  117000     1.047658   -7.3593154    33.005424  0.023508137  0.026142452            2 
  118000    1.0630772    -7.394014     33.28045  0.023503143  0.026069048            5 
  119000    1.0799577   -7.3958291    33.447436  0.023422574  0.025994799            5 
  120000    1.0412809   -7.4052315    33.515176  0.023274428  0.025917518           11 
  121000     1.082354   -7.4249062    33.520773  0.023085932  0.025834608            4 
  122000    1.0702701   -7.4116093     33.78995  0.023080567  0.025748929            4 
  123000    1.0631451   -7.4222174    33.943368  0.022996862  0.025660952            3 
  124000    1.0595415   -7.4461929    34.074549  0.022899562  0.025569889            3 
  125000    1.0800643   -7.3912656     34.29584  0.022863893  0.025480109            5 
  126000    1.0657097    -7.401557    34.436322  0.022775345  0.025388053            4 
  127000    1.0856491   -7.4219883     34.42394  0.022587887   0.02529469            5 
  128000    1.0720689      -7.3541     34.75829  0.022629095   0.02520179            6 
  129000    1.0648246   -7.3985707    34.963925  0.022586515  0.025108598            2 
  130000    1.0524854   -7.4188605    35.237796  0.022588331  0.025018444            3 
  131000    1.0505474   -7.4066641    35.548719  0.022613689  0.024934447            4 
  132000    1.0716672   -7.4250927    35.862911  0.022640727  0.024854224            6 
  133000    1.0528706   -7.4832155    35.899484  0.022493411  0.024774135            4 
  134000    1.0546377   -7.4447706    35.994218  0.022384464  0.024689617            2 
  135000    1.0454871   -7.4454865    36.150726  0.022315263   0.02460415            2 
  136000    1.0500685   -7.4481296    36.136127  0.022142235  0.024518217            3 
  137000    1.0563307   -7.4807549    36.207724  0.022024163  0.024427017            4 
  138000    1.0542786   -7.4588356    36.480554   0.02202932  0.024335916            3 
  139000     1.048393   -7.4751761    36.703827  0.022004692  0.024245792            9 
  140000    1.0695399   -7.4089814    36.754113  0.021877448  0.024157514            2 
  141000    1.0258783   -7.4393103    37.237899  0.022008215  0.024072469            2 
  142000    1.0452035   -7.4680813    37.283066  0.021879734  0.023988962            6 
  143000    1.0702917   -7.5058876    37.487478   0.02184585  0.023907289            5 
  144000    1.0310075   -7.5150649    37.730603   0.02183484  0.023828352            3 
  145000    1.0368716    -7.512213    37.954231  0.021812776   0.02375075            3 
  146000    1.0587992   -7.4812917    38.205741   0.02180693  0.023672174            6 
  147000    1.0048316   -7.5783153    38.071412  0.021582433  0.023592115            3 
  148000    1.0140372   -7.5413058    38.296244  0.021563201  0.023509123            7 
  149000    1.0363925   -7.5428817     38.49604  0.021530223  0.023428718            2 
  150000    1.0340398   -7.5186663    38.475267  0.021375148  0.023347166            3 
  151000    1.0067017   -7.5253197    38.552644  0.021276294   0.02326133            2 
  152000    1.0358278   -7.5208107    38.797489  0.021270553  0.023175889            5 
  153000     1.030382   -7.5781813    38.954767  0.021217193  0.023093105            4 
  154000    1.0046331   -7.5264287    39.141636  0.021180539  0.023012126            3 
  155000    1.0118114   -7.5502072    39.313402  0.021136238   0.02293043            5 
  156000    1.0078664   -7.5269272     39.53445   0.02111883   0.02284879            3 
  157000    1.0176142   -7.5623619    39.692097  0.021067992  0.022767495            5 
  158000    1.0187238   -7.5456353    39.875473  0.021031367  0.022685405            3 
  159000     1.022331   -7.5789929    39.933872  0.020929702  0.022606649            3 
  160000    1.0246595   -7.5675838    39.986169  0.020826129  0.022526176            3 
  161000    0.9955566   -7.5906674     40.22731  0.020821589  0.022445853            4 
  162000     1.009975   -7.6314349    40.342533  0.020752332  0.022367512            5 
  163000    1.0085889   -7.6002904     40.66114  0.020787904  0.022290548            2 
  164000    1.0122315   -7.6383275    40.634716  0.020647722  0.022215279            3 
  165000    1.0304194   -7.6151175    40.753365  0.020582507  0.022138847            4 
  166000     1.014273   -7.6446878    40.779132  0.020471452  0.022060836            7 
  167000   0.98756569   -7.6366325    41.068451  0.020493239  0.021984158            4 
  168000   0.99744157   -7.6098303    41.270542  0.020471499  0.021908515            5 
  169000    1.0120783    -7.642742      41.3845  0.020406558  0.021834184           10 
  170000   0.99964347   -7.6530615     41.66688  0.020424941  0.021760241            4 
  171000   0.96628919   -7.5925776    41.906793  0.020422414  0.021690286            4 
  172000   0.98391468    -7.626899    41.991491  0.020344715  0.021620821            2 
  173000   0.97529019    -7.659854    42.217615  0.020336038    0.0215518            2 
  174000   0.97147949   -7.6893297      42.1494  0.020186494   0.02148105            5 
  175000   0.98316288   -7.6330677    42.394573  0.020187892  0.021409315            4 
  176000   0.99823949   -7.6558382    42.598607  0.020169795  0.021338334            2 
  177000   0.97905419   -7.6890649    42.741754  0.020123236  0.021269166            3 
  178000    1.0127347    -7.691217      42.8206  0.020047097  0.021202263            3 
  179000   0.99003086   -7.6637143    43.188806  0.020106521   0.02113599            6 
  180000   0.96148469   -7.6369258    43.290246  0.020041781  0.021070309            3 
  181000   0.94537799   -7.6627945    43.309632  0.019939978  0.021004977            5 
  182000   0.96750196   -7.6614815    43.556607  0.019943501  0.020939719            7 
  183000   0.98382538   -7.6952701    43.771034  0.019932165   0.02087528            5 
  184000   0.95720109   -7.6786158    44.020943  0.019937021  0.020812769            5 
  185000   0.95268411   -7.6933812    44.059306  0.019846534  0.020750778            4 
  186000   0.97104379    -7.696405    43.995894  0.019711422  0.020687644            3 
  187000   0.99320533   -7.7038568    44.042096  0.019626602  0.020622951            3 
  188000   0.96755665   -7.6984818    44.308898  0.019640469  0.020558685            2 
  189000   0.96836566   -7.7382226    44.303633  0.019534229  0.020495747            6 
  190000    0.9734769   -7.7517476    44.452511  0.019496715  0.020433074            2 
  191000   0.97208325   -7.6895124    44.772783  0.019534373  0.020370182            5 
  192000   0.96775554   -7.7041738    44.807805  0.019447832  0.020307626            3 
  193000   0.96741901   -7.7003886    44.967422  0.019415985  0.020244292            3 
  194000   0.97430614   -7.7391679    44.971514  0.019317661  0.020180974            4 
  195000   0.95302192   -7.7143676    45.140747  0.019290917  0.020117547            5 
  196000   0.95486463   -7.7326346      45.0631  0.019159481  0.020054709            3 
  197000   0.95137192   -7.7489967    45.259397  0.019145261  0.019990455            7 
  198000   0.95954502   -7.7649248    45.408511  0.019111326  0.019927857            2 
  199000   0.94488003   -7.7130096    45.486478  0.019047939  0.019863657            4 
  200000   0.96243796   -7.7481939    45.422107  0.018925878  0.019799338            2 
  201000   0.91558121   -7.7123571    45.551038  0.018885173  0.019734348            4 
  202000   0.93906587   -7.7454529    45.603469  0.018813312  0.019669378            9 
  203000   0.95298215   -7.7891131     45.54574  0.018696937  0.019605253            8 
  204000   0.94595428   -7.7907767    45.720812  0.018676802  0.019539487            6 
  205000   0.92771061   -7.7788001    45.810136  0.018622006  0.019473683            5 
  206000   0.94064437   -7.7711093    45.996892  0.018607157  0.019409516            9 
  207000    0.9646303   -7.7919778    45.944171  0.018496043  0.019344706            7 
  208000   0.91813054   -7.7940527    46.238209  0.018524923  0.019280291            6 
  209000   0.94184265   -7.7941024    46.204999  0.018423046  0.019216334            6 
  210000   0.96489544   -7.8225614    46.360788  0.018397138  0.019152664           11 
  211000   0.92675351   -7.8073155    46.523762  0.018374313  0.019088952            5 
  212000   0.92959379   -7.8036535    46.546174  0.018296452  0.019026084            6 
  213000   0.93787158   -7.8152339    46.677274  0.018261844  0.018963906            4 
  214000   0.92218556   -7.8607201    46.733735  0.018198495  0.018900823            4 
  215000   0.91940115   -7.8660552    46.718488  0.018107941  0.018838185            7 
  216000   0.93242978   -7.8784068    46.897918  0.018093333  0.018776284            3 
  217000   0.92157847   -7.8318407     47.15254  0.018107734  0.018714339            5 
  218000   0.92395295   -7.8299902    47.106146  0.018006937  0.018652531            9 
  219000   0.90736015    -7.868564    47.297064  0.017997361  0.018591284            6 
  220000   0.92365924   -7.8538961    47.267376  0.017904309  0.018530229           10 
  221000    0.9194037   -7.8820715    47.193372  0.017795389  0.018467916           11 
  222000    0.8887028   -7.8800095    47.476091  0.017821355  0.018405803            4 
  223000    0.9165074   -7.8871957    47.440686  0.017728209  0.018344248            9 
  224000   0.92155784   -7.8509659    47.709102  0.017748922  0.018282462            4 
  225000   0.90421628   -7.8958547    47.588605  0.017625409  0.018221186           12 
  226000   0.92340655   -7.9143224    47.734386  0.017601175   0.01816001            5 
  227000   0.91679329   -7.8966927    47.743153  0.017526855  0.018099277            5 
  228000   0.90133045   -7.9236891    47.871734  0.017496979  0.018038128            7 
  229000   0.90975372   -7.8851123    47.990372  0.017463745  0.017977065           16 
  230000    0.8954273   -7.8859093    48.133437  0.017439651  0.017916434            4 
  231000    0.8954065   -7.9272923     48.05096  0.017334401  0.017855496            7 
  232000   0.91261298    -7.913206    48.030929  0.017252489  0.017794795           10 
  233000   0.90369893   -7.9204603    48.124714  0.017211986  0.017733387            7 
  234000   0.90503751    -7.920386    48.211911  0.017169484  0.017672771            8 
  235000   0.90618593   -7.8852903    48.438381  0.017176731  0.017612717           12 
  236000    0.8909145   -7.9372034    48.207988  0.017022595   0.01755259            7 
  237000   0.86630777   -7.9392532    48.290574  0.016979808  0.017492468            5 
  238000   0.89733646   -7.9473446    48.441828  0.016961424  0.017431866           11 
  239000   0.88503664   -7.9808765    48.539931  0.016924662  0.017371793            9 
  240000    0.8764751   -7.9442634    48.617203  0.016880973  0.017312073            4 
  241000   0.88735901   -7.9422375    48.606138  0.016807102  0.017252166            6 
  242000    0.8789044   -7.9723736    48.628262  0.016745269  0.017192286            6 
  243000   0.88337733   -7.9925929    48.635364  0.016678794  0.017131679            5 
  244000   0.87129847   -7.9537186     48.71424  0.016637377  0.017071086            6 
  245000   0.88053878   -7.9829884    48.666856  0.016553352  0.017010855            3 
  246000   0.85793598   -7.9853079    48.761988  0.016518289  0.016951048            8 
  247000   0.86093632   -7.9959704     48.83792  0.016477031  0.016891507            5 
  248000   0.87612509   -7.9974407    48.990359  0.016461814  0.016832109            7 
  249000    0.8757614   -7.9735622    48.898925  0.016365102  0.016773245            4 
  250000   0.88233097   -8.0178729    49.039671  0.016346557  0.016713962            2 
  251000   0.89721057   -8.0092311    49.098574  0.016300987  0.016654905            9 
  252000   0.85444729   -8.0254196    49.002888  0.016204659  0.016596146            4 
  253000    0.8608915   -8.0121539    49.203484  0.016206681  0.016537561            7 
  254000   0.85368341   -8.0351299    49.120384  0.016115611  0.016478871            7 
  255000   0.85926967   -7.9959696    49.225706  0.016086832  0.016420386            5 
  256000   0.86459177     -8.04101    49.193232  0.016013422  0.016361991            2 
  257000   0.83479868   -8.0181789    49.377155  0.016010751  0.016304029            5 
  258000   0.84295693   -8.0266924    49.316597  0.015929133  0.016245969           20 
  259000   0.84634309   -8.0485838     49.40375  0.015895672  0.016188119            8 
  260000    0.8455739   -8.0564566    49.426942  0.015841969  0.016130315            5 
  261000   0.82885453   -8.0716706    49.475449  0.015796759   0.01607289            7 
  262000   0.85599109   -8.0309375    49.770152  0.015830201  0.016016122           11 
  263000   0.86538331   -8.0476794    49.850558  0.015795487   0.01596016            4 
  264000   0.83373639   -8.0234243    49.856857  0.015737644  0.015904398            4 
  265000   0.84925781   -8.0470765    49.873254  0.015683413  0.015848958            7 
  266000   0.83730452   -8.0552184    49.819191  0.015607516  0.015793732            3 
  267000   0.85281464    -8.072689    50.033177  0.015615848  0.015738638            4 
  268000   0.83449673   -8.0780999    49.942318  0.015529328  0.015683973            6 
  269000   0.83593891   -8.0939442     49.86122  0.015446474  0.015628741            5 
  270000    0.8217004   -8.0818306    49.920038  0.015407419  0.015573343            5 
  271000   0.83754974   -8.0971469    49.898933  0.015344075  0.015518293            5 
  272000   0.80897463   -8.0962748     50.03858  0.015330447  0.015463491           10 
  273000   0.82909815    -8.125266    49.911421  0.015235477  0.015408352           12 
  274000    0.8354197    -8.123903    50.037019  0.015218072  0.015352554            5 
  275000   0.83239566   -8.1145811    50.017835   0.01515692  0.015297709            6 
  276000   0.84288547    -8.147932    50.069659  0.015117651  0.015242953            5 
  277000   0.82810756   -8.1587941    50.260562  0.015120506  0.015188651            5 
  278000   0.82984613    -8.142567    50.211743  0.015051482  0.015134652           11 
  279000   0.82701604   -8.1332463    50.339154  0.015035589  0.015080612            6 
  280000   0.81760359   -8.1486738    50.321479  0.014976631  0.015027032           10 
  281000   0.80988548   -8.1288366    50.415975  0.014951357  0.014973625           17 
  282000    0.8073087   -8.1594075     50.25335  0.014850281  0.014919839           29 
  283000   0.81689629   -8.1714524    50.341177  0.014823668  0.014866213           16 
  284000    0.8119946   -8.1382458    50.430527   0.01479769   0.01481269           11 
  285000   0.80194507   -8.1995148     50.32709  0.014715523  0.014758966           16 
  286000   0.80112551   -8.1942505    50.292138  0.014653886  0.014705323           17 
  287000   0.79844259   -8.2025867    50.424107  0.014641146  0.014651687           19 
  288000   0.80343205   -8.2194065    50.196207  0.014524365  0.014598304           14 
  289000   0.81764236    -8.175982    50.383513  0.014528118  0.014544755           11 
  290000   0.80269205    -8.209299    50.410514   0.01448578  0.014491553           25 
  291000   0.80239433    -8.234979    50.451711  0.014447798   0.01443813           11 
  292000   0.81025037   -8.1992921    50.410748  0.014386629  0.014384773            7 
  293000    0.8031044    -8.273763    50.401178  0.014334806  0.014331904           11 
  294000   0.80608667   -8.1980073    50.541687  0.014325875   0.01427923            7 
  295000   0.79975705   -8.1839265    50.534691  0.014275337  0.014226931           10 
  296000   0.80246537   -8.1894959    50.445351  0.014201957  0.014174564           10 
  297000   0.79028524   -8.2337689    50.468485   0.01416063  0.014122549           16 
  298000   0.79440083   -8.2119154    50.490039  0.014119138  0.014070464           16 
  299000   0.79961479   -8.1758913    50.720836  0.014136242  0.014018752           31 
  300000   0.78201761   -8.2206817    50.689183  0.014080329  0.013967561            8 
  301000    0.7910258   -8.2424928     50.66476  0.014026788  0.013916313            6 
  302000   0.78370602   -8.2460718    50.585699  0.013958526  0.013865131            9 
  303000   0.77916078   -8.2432578    50.650727  0.013930343  0.013814082           22 
  304000    0.7820636   -8.2806171    50.570552  0.013862542  0.013763016           12 
  305000   0.80660811   -8.2807328    50.612407  0.013828526  0.013712006           19 
  306000    0.7833153   -8.2661142    50.644572  0.013792095   0.01366081           27 
  307000    0.7903901   -8.2883487    50.553888  0.013722554   0.01360952           20 
  308000   0.76942151   -8.2606749    50.541634  0.013674685  0.013558366           19 
  309000   0.77090395   -8.2909703    50.521177  0.013624913  0.013507059           12 
  310000   0.78256701   -8.3072915    50.513512  0.013578901  0.013456059           18 
  311000   0.75989306   -8.2870326    50.518907  0.013536685  0.013405062           14 
  312000   0.76985359   -8.3097969    50.537451  0.013498251  0.013354182           25 
  313000   0.77106617    -8.296978     50.54793  0.013457915  0.013303577           24 
  314000   0.76788806   -8.3197266    50.582354  0.013424191  0.013253375           12 
  315000   0.76468346   -8.3467659     50.48837  0.013356712  0.013203467           16 
  316000   0.76721491   -8.3286539    50.651862  0.013357558  0.013153675           13 
  317000   0.77244418   -8.3635583     50.51059  0.013278283  0.013103875           14 
  318000   0.75566236   -8.3227601    50.659213  0.013275475  0.013054246           22 
  319000   0.76441536   -8.3466442    50.671619    0.0132371  0.013004831           26 
  320000   0.75707738   -8.3321348    50.562675  0.013167363  0.012955454           19 
  321000     0.763556   -8.3651952    50.543227  0.013121295  0.012905985           16 
  322000   0.76488529   -8.3350467    50.534879  0.013078385  0.012856692           25 
  323000   0.75903146    -8.368081    50.489964  0.013026306  0.012807299           22 
  324000   0.74299247   -8.3587307    50.608898  0.013016692  0.012758456           15 
  325000   0.74444355   -8.3601558     50.62415  0.012980551  0.012709831           17 
  326000   0.75274426   -8.3978215    50.480812  0.012904093  0.012661275           23 
  327000   0.75069791   -8.3719138    50.590821  0.012892666  0.012612895           33 
  328000   0.74776982   -8.3572884    50.568231   0.01284762  0.012564773           20 
  329000   0.74633388   -8.3951671    50.618564  0.012821318  0.012516809           25 
  330000   0.72720657    -8.392697    50.592592  0.012775907  0.012469058           26 
  331000   0.74439327   -8.3845848    50.468404  0.012706043  0.012421285           23 
  332000    0.7395833   -8.3925819     50.64242  0.012711451  0.012373763           19 
  333000   0.73749629   -8.4028172     50.57921   0.01265746  0.012326339            9 
  334000   0.74399082    -8.431829     50.60093  0.012624983  0.012279097           13 
  335000   0.73559997   -8.4003018    50.543587  0.012573032  0.012231922           37 
  336000   0.74527089   -8.4116421    50.524127  0.012530785  0.012184886           23 
  337000   0.72578995   -8.4580974    50.520292  0.012492654  0.012138061           15 
  338000   0.72973108   -8.4221347    50.627977  0.012482243   0.01209144           16 
  339000   0.72432325   -8.4307781    50.590232  0.012436144  0.012044977            9 
  340000   0.73275835    -8.427549    50.690344  0.012424104  0.011998863            6 
  341000   0.73843594   -8.4083702    50.598274   0.01236517  0.011952933            9 
  342000   0.72311757   -8.4375219    50.487622  0.012302052  0.011906994            9 
  343000    0.7161232   -8.4260819    50.532453  0.012277078  0.011861209            8 
  344000   0.72619392   -8.4411205    50.516308  0.012237478    0.0118155           12 
  345000   0.72062576   -8.4464774    50.584811  0.012218553  0.011770143           10 
  346000   0.69811443   -8.4406583     50.57711  0.012181385  0.011724925           16 
  347000   0.70439515   -8.4355569    50.660335  0.012166267  0.011679829           15 
  348000   0.69066105   -8.4635596    50.665694  0.012132589  0.011635054            3 
  349000   0.70566115   -8.4576362    50.514273   0.01206167  0.011590191           14 
  350000   0.69471032   -8.4607168    50.570253  0.012040536  0.011545713           11 
  351000   0.71081836   -8.4595198    50.361265  0.011956616  0.011501153           10 
  352000   0.70135401   -8.4454868    50.535348  0.011963861  0.011456764           13 
  353000    0.6977984   -8.4844431    50.437528  0.011906876  0.011412551           20 
  354000   0.70952148   -8.4797437    50.557584  0.011901503  0.011368465           13 
  355000   0.69556224   -8.4905096    50.604382  0.011878963  0.011324492           18 
  356000   0.69064109   -8.4823133    50.561212   0.01183549  0.011280926           21 
  357000   0.69305159   -8.5037964    50.513577  0.011791218  0.011237523           27 
  358000   0.68361118   -8.5195808    50.431084  0.011739079  0.011194343           28 
  359000   0.68384156   -8.5353345    50.461909  0.011713535  0.011151162           26 
  360000   0.69012652   -8.4925986    50.571325  0.011706325  0.011108058           19 
  361000   0.68605803   -8.5235636    50.473983  0.011651427  0.011065176           26 
  362000   0.70036889   -8.5122124    50.472974  0.011619009  0.011022631           28 
  363000   0.67810354   -8.5516481    50.649563   0.01162754  0.010980369           35 
  364000   0.68200691   -8.5283683    50.467658  0.011553951  0.010938168           27 
  365000   0.69157796   -8.5536825    50.477547  0.011524554  0.010895995           28 
  366000   0.69502605   -8.5714901    50.464013  0.011489985  0.010854124           41 
  367000    0.6956808   -8.5453583    50.546412  0.011477387   0.01081244           30 
  368000   0.67344046   -8.5510379     50.38362  0.011409334  0.010770952           16 
  369000   0.68588313   -8.5663548    50.537691  0.011413209  0.010729629           21 
  370000   0.66460891   -8.5625314    50.511921  0.011376559  0.010688383           41 
  371000    0.6705912   -8.5569223     50.41149  0.011323335  0.010647389           28 
  372000   0.67757431   -8.5534186    50.451968  0.011301964  0.010606478           56 
  373000   0.65863652   -8.5573196    50.423124   0.01126522  0.010565847           41 
  374000   0.67838191   -8.5587334     50.45501  0.011242204  0.010525469           47 
  375000   0.67810981   -8.5477794    50.496773  0.011221505  0.010485144           63 
  376000   0.66395573   -8.5694298    50.416599  0.011173892  0.010445047           45 
  377000   0.66368181   -8.6108173     50.31953  0.011122796  0.010405001           51 
  378000   0.66116251    -8.599091    50.371864  0.011104908  0.010365092           41 
  379000   0.66472044   -8.6098803    50.376411  0.011076608  0.010325188           61 
  380000   0.68096052   -8.5995809    50.296765  0.011029992  0.010285494           52 
  381000   0.66131977   -8.6231744    50.336306  0.011009691  0.010245971           46 
  382000   0.66616752   -8.6134509    50.356739  0.010985327  0.010206659           42 
  383000   0.65552276   -8.6051856    50.303011  0.010944955  0.010167474           58 
  384000   0.65215861   -8.6288483    50.379923  0.010933143   0.01012844           47 
  385000   0.65530442   -8.6288456    50.316917  0.010891108  0.010089579           27 
  386000   0.65505526   -8.6249097    50.418208   0.01088476   0.01005103           53 
  387000   0.64584251   -8.5951885    50.370024  0.010846258  0.010012629           40 
  388000   0.64701702   -8.6327859    50.310284  0.010805473 0.0099743095           30 
  389000   0.64494185   -8.6299411    50.288692   0.01077307 0.0099361365           47 
  390000   0.64756796   -8.6262082    50.255275  0.010738307 0.0098980067           56 
  391000   0.63775711   -8.6473735     50.15189  0.010688809 0.0098601962           36 
  392000   0.63596831   -8.6456988    50.296251   0.01069223 0.0098224932           49 
  393000   0.64349858   -8.6571622    50.315512  0.010669108 0.0097850223           49 
  394000    0.6417236   -8.6397562     50.35808  0.010651032 0.0097477481           57 
  395000   0.62452126   -8.6649214    50.353786  0.010623162 0.0097106154           54 
  396000   0.64441591   -8.6622877    50.351117  0.010595774 0.0096736342           51 
  397000   0.61679692   -8.6539451    50.255147  0.010548939 0.0096369021           52 
  398000   0.63952614   -8.6305607    50.256272   0.01052267 0.0096003337           51 
  399000   0.63712476   -8.6553378    50.267087  0.010498556 0.0095638595           54 
  400000   0.62916853   -8.6510327    50.223315  0.010463191 0.0095274873           57 
  401000   0.62055054   -8.6578656    50.218158  0.010436026 0.0094912538           47 
  402000   0.63560829   -8.6603517    50.201128  0.010406536 0.0094552451           49 
  403000   0.62397734   -8.6665297    50.262189  0.010393339 0.0094193901           72 
  404000   0.62334892   -8.7016921    50.231598  0.010361303  0.009383574           49 
  405000     0.619787   -8.6775597    50.247881   0.01033907 0.0093479978           53 
  406000   0.62021186   -8.6699956    50.234302  0.010310817 0.0093126381           52 
  407000   0.61521265     -8.68771    50.249052  0.010288504 0.0092774085           54 
  408000   0.61064609   -8.7074346    50.218882  0.010257125 0.0092422836           55 
  409000   0.61179063   -8.6834853    50.157485  0.010219537 0.0092073444           71 
  410000   0.61725727   -8.6828504    50.111699  0.010185305 0.0091726399           70 
  411000   0.62131304   -8.6933769    50.043584  0.010146712 0.0091380971           70 
  412000   0.60312426   -8.7094336    50.164147   0.01014647   0.00910359           57 
  413000   0.60556311   -8.7072184    50.269741  0.010143208 0.0090693349           61 
  414000   0.60916578   -8.7268795    50.107033  0.010085957 0.0090351203           70 
  415000   0.60655303   -8.7203338    50.154521  0.010071189 0.0090011117           56 
  416000   0.61137389   -8.7111898    50.147906  0.010045654 0.0089673164           62 
  417000    0.6078732   -8.7114865    50.090978  0.010010187 0.0089336577           52 
  418000   0.60976234    -8.709134    50.153376 0.0099986794 0.0089001253           56 
  419000   0.60202055   -8.7109306      50.1838 0.0099808672 0.0088667583           52 
  420000   0.60174614   -8.7337977    50.125495 0.0099455347 0.0088335776           55 
  421000   0.58661557   -8.7231787    50.144395 0.0099256523 0.0088005481           60 
  422000   0.58602244   -8.7225303    50.136624 0.0099005971 0.0087675647           45 
  423000   0.60180196   -8.7257582    50.013298 0.0098528956 0.0087347427           46 
  424000   0.58830532   -8.7416125    50.074176 0.0098416226 0.0087020243           53 
  425000   0.59553653   -8.7316314    50.109232 0.0098253396 0.0086694433           51 
  426000   0.59027995   -8.7465994    50.023388 0.0097854828 0.0086370151           66 
  427000   0.59056552   -8.7399809    50.073915 0.0097724269  0.008604806           47 
  428000   0.58193175    -8.737608    50.043096 0.0097435934 0.0085726893           53 
  429000   0.57206707   -8.7491782    50.028746 0.0097180935 0.0085407744           46 
  430000   0.58053436   -8.7670147    50.087512 0.0097068823 0.0085089661           57 
  431000   0.57296443   -8.7460601    50.069142 0.0096808085 0.0084772497           50 
  432000   0.58725648    -8.738139     50.14266  0.009672581 0.0084457559           50 
  433000   0.58036917   -8.7558264    50.122185  0.009646302 0.0084143935           43 
  434000    0.5660657   -8.7472219    50.020418  0.009604535  0.008383164           57 
  435000   0.56764207   -8.7701397    49.941634 0.0095673628 0.0083520142           59 
  436000   0.57062461   -8.7577154    49.994571 0.0095555373 0.0083209909           43 
  437000   0.57036052   -8.7654956     50.02642 0.0095397444 0.0082901863           44 
  438000   0.56771089   -8.7865489    49.940748 0.0095016644 0.0082594478           42 
  439000   0.57899413   -8.7740364    50.024148 0.0094958518 0.0082288777           61 
  440000   0.56352464   -8.7812293    49.937718 0.0094579011   0.00819848           52 
  441000    0.5633507   -8.7736993     49.85101   0.00942007 0.0081682058           40 
  442000   0.56584024   -8.7903467    49.867921 0.0094019458  0.008138006           54 
  443000   0.55739036   -8.7962826    49.957451 0.0093975642 0.0081079989           50 
  444000   0.54754257   -8.7839309    49.908691 0.0093672469 0.0080780882           31 
  445000   0.55233315     -8.79502    49.920069 0.0093483275 0.0080483434           48 
  446000   0.54587565   -8.8025639    49.861246 0.0093163764 0.0080187238           58 
  447000   0.54973443    -8.811328    49.771872 0.0092788724 0.0079892178           38 
  448000   0.56488963   -8.8211902    49.980967 0.0092970548 0.0079598169           45 
  449000   0.55476702   -8.7943537     49.91147 0.0092634503 0.0079306593           30 
  450000     0.540113   -8.8266477    49.800155 0.0092222509 0.0079015342           36 
  451000   0.54146408   -8.8245688    49.849327 0.0092108883 0.0078725314           36 
  452000   0.53880912   -8.8158309    49.810672 0.0091833834 0.0078437063           38 
  453000   0.55177584   -8.8162213    49.872437 0.0091744732 0.0078149884           57 
  454000    0.5449491   -8.8215905    49.931762 0.0091651545 0.0077864468           57 
  455000   0.54226382   -8.8483209    49.812936 0.0091232484 0.0077580079           56 
  456000   0.54996622   -8.8218315    49.808159 0.0091023683 0.0077297001           37 
  457000   0.53796534   -8.8198983     49.88746  0.009096911 0.0077015024           48 
  458000    0.5298747    -8.837455    49.906796  0.009080567 0.0076735236           38 
  459000   0.53903804   -8.8396092    49.821245 0.0090452515 0.0076455653           46 
  460000   0.52982236   -8.8356089    49.838125 0.0090286457 0.0076178073           35 
  461000   0.53167716   -8.8259869    49.823417 0.0090064021 0.0075901237           35 
  462000   0.53271603   -8.8443811    49.843862 0.0089905955 0.0075626636           38 
  463000   0.53067315   -8.8407604      49.8506 0.0089723902  0.007535266           31 
  464000   0.52104341   -8.8459779    49.834347 0.0089501342 0.0075080391           45 
  465000   0.52933015   -8.8446745    49.840113 0.0089319199 0.0074808817           37 
  466000   0.52716757   -8.8599612    49.712635 0.0088899562 0.0074538817           27 
  467000   0.51614014   -8.8336128    49.853754 0.0088961017     0.007427           34 
  468000   0.52405445    -8.861431    49.682357 0.0088465735 0.0074002345           27 
  469000   0.52213917   -8.8501993    49.756955 0.0088409657 0.0073735985           35 
  470000   0.51308922   -8.8680738    49.783649 0.0088268881 0.0073471169           44 
  471000   0.51201244   -8.8625386    49.776428 0.0088068698 0.0073207475           42 
  472000   0.51795031   -8.8797011    49.779125 0.0087886873  0.007294501           44 
  473000    0.5132006    -8.854953    49.755318 0.0087659123 0.0072683899           45 
  474000   0.51083169   -8.8750394     49.84826 0.0087637588 0.0072424112           37 
  475000   0.51428021   -8.8715993    49.730398 0.0087246312 0.0072165472           44 
  476000   0.50358538   -8.8723017    49.672961 0.0086962467 0.0071908261           41 
  477000   0.50089023   -8.8778515    49.747922 0.0086911115 0.0071652299           31 
  478000   0.49657415   -8.8807825    49.771037 0.0086769591 0.0071397551           46 
  479000   0.50252179   -8.8892507    49.748641 0.0086549479 0.0071143993           51 
  480000   0.50121396   -8.8775879    49.735412 0.0086346201  0.007089127           32 
  481000   0.50204291   -8.8904953    49.808646 0.0086293566 0.0070639972           39 
  482000   0.50106938    -8.887219    49.760167 0.0086030718 0.0070389987           46 
  483000   0.49617353   -8.8908693    49.803532 0.0085927418 0.0070141484           42 
  484000   0.49624309   -8.8971102     49.72821 0.0085620196 0.0069893759           32 
  485000   0.49459893   -8.8893859    49.693494  0.008538401 0.0069647087           54 
  486000    0.4980887    -8.903945    49.662202 0.0085154668 0.0069400695           39 
  487000   0.49101475   -8.8996154    49.678662 0.0085007977 0.0069155749           47 
  488000   0.48044398   -8.9060314    49.585707 0.0084675045  0.006891192           28 
  489000   0.49301927   -8.9194205    49.672199 0.0084649282 0.0068669738           50 
  490000   0.48419775   -8.9014161    49.672921 0.0084477757  0.006842877           41 
  491000   0.46872551   -8.9206022    49.665844 0.0084293693 0.0068188662           32 
  492000   0.47708224    -8.915243    49.665123 0.0084121143 0.0067949925           43 
  493000   0.48298189   -8.9388929    49.666018 0.0083952025 0.0067712068           39 
  494000   0.48292267   -8.9087018     49.73938 0.0083905836 0.0067475461           66 
  495000   0.46507545   -8.9443766    49.618043 0.0083532059 0.0067239676           30 
  496000   0.47196658   -8.9156092     49.62309 0.0083372127 0.0067005488           36 
  497000   0.47962375   -8.9266393    49.669325 0.0083281899 0.0066771834           45 
  498000   0.46295894   -8.9422593    49.688191 0.0083146237 0.0066539656           41 
  499000    0.4691942   -8.9370843    49.674419 0.0082956611 0.0066308806           57 
  500000   0.46515893    -8.943082    49.660782  0.008276797 0.0066078199           42 
  501000   0.47540351   -8.9341877    49.626177 0.0082545205 0.0065849196           39 
  502000   0.46515903   -8.9537122    49.622224 0.0082374209 0.0065620962           41 
  503000    0.4695619   -8.9668559    49.615705 0.0082199644 0.0065393625           40 
  504000   0.46987423   -8.9433461    49.687018 0.0082154461 0.0065167555           30 
  505000   0.45714337   -8.9532559    49.634249 0.0081904701 0.0064942562           38 
  506000    0.4665048   -8.9624549    49.692481 0.0081838736 0.0064718285           37 
  507000    0.4638294   -8.9678367    49.606482 0.0081535966 0.0064495076           38 
  508000    0.4637439   -8.9527382     49.60767 0.0081377411  0.006427282           29 
  509000    0.4496693   -8.9760856    49.544516  0.008111414 0.0064051709           48 
  510000   0.44449166   -8.9625832     49.59033 0.0081029951 0.0063831395           36 
  511000   0.45101388   -8.9735469     49.57371 0.0080844275 0.0063612267           36 
  512000   0.45663701   -8.9517642    49.584953 0.0080704676  0.006339351           38 
Loop time of 1289.48 on 48 procs for 500000 steps with 4000 atoms

Performance: 67003.520 tau/day, 387.752 timesteps/s
99.4% CPU use with 48 MPI tasks x no OpenMP threads

MPI task timing breakdown:
Section |  min time  |  avg time  |  max time  |%varavg| %total
---------------------------------------------------------------
Pair    | 92         | 99.313     | 105.79     |  25.7 |  7.70
Neigh   | 8.7454     | 9.1415     | 9.9454     |   7.5 |  0.71
Comm    | 81.899     | 88.642     | 95.33      |  27.8 |  6.87
Output  | 0.92675    | 0.92753    | 0.95104    |   0.4 |  0.07
Modify  | 1076       | 1080.2     | 1082.7     |   4.4 | 83.77
Other   |            | 11.28      |            |       |  0.87

Nlocal:        83.3333 ave          89 max          79 min
Histogram: 3 4 4 7 10 7 4 1 4 4
Nghost:        2373.60 ave        2391 max        2358 min
Histogram: 2 5 8 6 8 7 2 1 4 5
Neighs:        16253.1 ave       19138 max       13949 min
Histogram: 2 5 9 9 2 7 7 3 1 3
FullNghs:      32505.3 ave       34508 max       30690 min
Histogram: 3 4 5 6 11 6 4 1 4 4

Total # of neighbors = 1560256
Ave neighs/atom = 390.06400
Neighbor list builds = 26601
Dangerous builds = 0

#clear
#
#next RN
#
#jump SELF
Total wall time: 0:21:33
