
units lj                  # Use reduced LJ style units
atom_style atomic         # Uncharged point particles
atom_modify map hash      # Needed for indexing of clusters etc
                          # Used to be able to find where atoms are in relation to each other.

lattice fcc 1.0 spacing 1 1 1
Lattice spacing in x,y,z = 1.5874011 1.5874011 1.5874011
region box block 0 10 0 10 0 10 units lattice
create_box 2 box
Created orthogonal box = (0.0000000 0.0000000 0.0000000) to (15.874011 15.874011 15.874011)
  3 by 4 by 4 MPI processor grid
create_atoms 1 box
Created 4000 atoms
  using lattice units in orthogonal box = (0.0000000 0.0000000 0.0000000) to (15.874011 15.874011 15.874011)
  create_atoms CPU = 0.002 seconds
set type 1 type/fraction 2 0.9 78393
Setting atom values ...
  3586 settings made for type/fraction
mass 1 1.0
mass 2 1.0
pair_style lj/cut  3.5
pair_modify tail  yes
pair_coeff 1  1  1.0  1.0   # Intearaction between 1 and 1 set with epsilon = 1 and sigma = 1
pair_coeff 1  2  1.5  0.8
pair_coeff 2  2  0.5  0.88

write_data data.0
System init for write_data ...
Neighbor list info ...
  update every 1 steps, delay 10 steps, check yes
  max neighbors/atom: 2000, page size: 100000
  master list distance cutoff = 3.8
  ghost atom cutoff = 3.8
  binsize = 1.9, bins = 9 9 9
  1 neighbor lists, perpetual/occasional/extra = 1 0 0
  (1) pair lj/cut, perpetual
      attributes: half, newton on
      pair build: half/bin/atomonly/newton
      stencil: half/bin/3d
      bin: standard
WARNING: Not all mixed pair coeffs generated from mixing. Use write_data with 'pair ij' option to store all pair coeffs. (../write_data.cpp:312)


#############################
#   M E L T   S Y S T E M   #
#############################

velocity all create 2.4 9580093 mom yes dist gaussian # Assign velocities
                                                    # Temperature 2.4, random number seed, zero linear momentum
                                                                                # Gaussian distribution

timestep 0.002   # simulation timestep
thermo 1000       # output thermodynamic data every 1000 steps bf 100

# Define a fix  in this case with index 1 applied to all
# particles in the simulation. This fix is for simulations
# in the anisotropic NPT ensemble. Note that we use the MTK
# correction.
fix 1 all npt temp 2.4 2.4 0.1 iso 5.68 5.68 0.5 mtk yes tchain 5 pchain 5 # Use NPT ensemble
                                                                         # Set temperature and pressure and damping
                                                                         # Numbers of thermostats in chain and in barostat
run 10000          # run for 10000 steps
Per MPI rank memory allocation (min/avg/max) = 3.642 | 3.644 | 3.648 Mbytes
Step Temp E_pair E_mol TotEng Press Volume 
       0          2.4   -3.1995671            0   0.39953293    -2.596694         4000 
    1000    2.3972941   -2.2323713            0     1.362671     5.640862    4017.7843 
    2000    2.3884305   -2.2446895            0    1.3370606    5.8694791     3965.368 
    3000    2.4149435   -2.2779158            0    1.3435939    5.7806908    3957.7177 
    4000    2.3833757    -2.234218            0    1.3399517    5.6667813    4012.8527 
    5000    2.4085099   -2.2145259            0    1.3973358     5.907094    3987.1331 
    6000    2.4029906   -2.2737527            0     1.329832     5.819465    3958.5743 
    7000    2.4643796   -2.2962516            0    1.3993937    5.5093669    3999.2567 
    8000    2.3736904   -2.2440479            0    1.3155976    5.5519714    4018.4984 
    9000    2.3925376   -2.2061136            0    1.3817956    5.7407405    4032.8302 
   10000    2.4133027   -2.2233855            0    1.3956635    5.8592117    3989.0442 
Loop time of 2.57913 on 48 procs for 10000 steps with 4000 atoms

Performance: 669992.743 tau/day, 3877.273 timesteps/s
99.6% CPU use with 48 MPI tasks x no OpenMP threads

MPI task timing breakdown:
Section |  min time  |  avg time  |  max time  |%varavg| %total
---------------------------------------------------------------
Pair    | 1.0952     | 1.1665     | 1.3667     |   3.7 | 45.23
Neigh   | 0.21026    | 0.21804    | 0.24685    |   1.2 |  8.45
Comm    | 0.75264    | 0.90232    | 1.0214     |   6.9 | 34.99
Output  | 0.00025047 | 0.00025712 | 0.00031686 |   0.0 |  0.01
Modify  | 0.1974     | 0.27671    | 0.35271    |  10.8 | 10.73
Other   |            | 0.0153     |            |       |  0.59

Nlocal:        83.3333 ave          93 max          73 min
Histogram: 1 4 3 1 10 10 8 6 3 2
Nghost:        1648.35 ave        1679 max        1618 min
Histogram: 2 6 4 8 3 5 7 6 6 1
Neighs:        9566.42 ave       10827 max        8265 min
Histogram: 2 4 3 10 2 5 10 9 1 2

Total # of neighbors = 459188
Ave neighs/atom = 114.79700
Neighbor list builds = 910
Dangerous builds = 227

# Equilibrate just above the melting temperature to avoid step fn in T

fix 1 all npt temp 1.25 1.25 0.1 iso 5.68 5.68 0.5 mtk yes tchain 5 pchain 5
run 2000
Per MPI rank memory allocation (min/avg/max) = 3.643 | 3.645 | 3.649 Mbytes
Step Temp E_pair E_mol TotEng Press Volume 
   10000    2.4133027   -2.2233855            0    1.3956635    5.8592117    3989.0442 
   11000    1.2173137   -3.3576308            0   -1.5321167    5.6050295    3099.9561 
   12000    1.2529772   -3.3520905            0   -1.4730946    5.6521787    3106.5353 
Loop time of 0.626899 on 48 procs for 2000 steps with 4000 atoms

Performance: 551285.368 tau/day, 3190.309 timesteps/s
99.6% CPU use with 48 MPI tasks x no OpenMP threads

MPI task timing breakdown:
Section |  min time  |  avg time  |  max time  |%varavg| %total
---------------------------------------------------------------
Pair    | 0.27491    | 0.29782    | 0.35309    |   2.8 | 47.51
Neigh   | 0.039692   | 0.042249   | 0.049435   |   0.8 |  6.74
Comm    | 0.1789     | 0.23616    | 0.25901    |   3.4 | 37.67
Output  | 5.2166e-05 | 5.3627e-05 | 6.6929e-05 |   0.0 |  0.01
Modify  | 0.039965   | 0.045694   | 0.050592   |   1.4 |  7.29
Other   |            | 0.004919   |            |       |  0.78

Nlocal:        83.3333 ave          92 max          75 min
Histogram: 1 2 10 5 8 9 3 4 4 2
Nghost:        1948.62 ave        1977 max        1929 min
Histogram: 2 6 6 14 5 7 4 0 3 1
Neighs:        12308.6 ave       14550 max       10624 min
Histogram: 1 9 3 11 7 6 5 5 0 1

Total # of neighbors = 590811
Ave neighs/atom = 147.70275
Neighbor list builds = 143
Dangerous builds = 18

#############################
# L I N E A R  Q U E N C H  #
#############################

# Define solid atoms. This closely follows ten Wolde  Ruiz-Montero and Frenkel  Faraday Discuss  1996  104  93-110
# Compute components of the per-atom q6 vector
compute q6 all orientorder/atom degrees 1 6 components 6 nnn NULL cutoff 1.3 # compute the Q6 parameter.
                                                                             # Use all neighbours within 1.3 unit cell.

# get number of connections
compute coord_number all coord/atom orientorder q6 0.5

# An atom is solid if it has 8 or more connections (of a possible 14)
variable is_solid atom c_coord_number>=8
group solid dynamic all var is_solid    # Must be dynamic to update
dynamic group solid defined

# do clustering
compute cluster solid cluster/atom 1.3 # Create a cluster where all atoms within are solid and max 1.3 units from another member

# define chunks one chunk per cluster
compute clus_chunks solid chunk/atom c_cluster nchunk every compress yes  # Says which atoms are in which chunk

# count the size of each chunk
compute size_chunks solid property/chunk clus_chunks count


# Find the maximum entry in the vector of chunk sizes
variable max_n equal max(c_size_chunks)


# Thermo style which includes this variable
# thermo_style custom step temp pe vol v_max_n

thermo ${N}  # Print the thermo information every 100 steps
thermo 1000  

# Reset the npt fix at a lower temperature (below freezing)
fix 1  all npt temp  ${temp} ${temp}  0.1  iso  5.68  5.68  0.5  mtk yes tchain  5  pchain  5
fix 1  all npt temp  0.45 ${temp}  0.1  iso  5.68  5.68  0.5  mtk yes tchain  5  pchain  5
fix 1  all npt temp  0.45 0.45  0.1  iso  5.68  5.68  0.5  mtk yes tchain  5  pchain  5

dump dmp2 all dcd ${N} traj.dcd
dump dmp2 all dcd 1000 traj.dcd


compute msd all msd com yes
variable twopoint equal c_msd[4]/6/(step*dt+1.0e-6)
fix 9 all vector 10 c_msd[4]
variable fit equal slope(f_9)/6/(10*dt)
thermo_style custom step temp pe c_msd[4] v_twopoint v_fit v_max_n

fix 1 all npt temp 1.25 ${temp} 0.1 iso 5.68 5.68 0.5 mtk yes tchain 5 pchain 5
fix 1 all npt temp 1.25 0.45 0.1 iso 5.68 5.68 0.5 mtk yes tchain 5 pchain 5
run 5000000 # 5000000  # Run for this many steps
Neighbor list info ...
  update every 1 steps, delay 10 steps, check yes
  max neighbors/atom: 2000, page size: 100000
  master list distance cutoff = 3.8
  ghost atom cutoff = 3.8
  binsize = 1.9, bins = 8 8 8
  4 neighbor lists, perpetual/occasional/extra = 1 3 0
  (1) pair lj/cut, perpetual
      attributes: half, newton on
      pair build: half/bin/atomonly/newton
      stencil: half/bin/3d
      bin: standard
  (2) compute orientorder/atom, occasional
      attributes: full, newton on
      pair build: full/bin/atomonly
      stencil: full/bin/3d
      bin: standard
  (3) compute coord/atom, occasional
      attributes: full, newton on
      pair build: full/bin/atomonly
      stencil: full/bin/3d
      bin: standard
  (4) compute cluster/atom, occasional
      attributes: full, newton on
      pair build: full/bin/atomonly
      stencil: full/bin/3d
      bin: standard
Per MPI rank memory allocation (min/avg/max) = 9.821 | 9.828 | 9.834 Mbytes
Step Temp PotEng c_msd[4] v_twopoint v_fit v_max_n 
   12000    1.2529772   -3.3520905 1.6617355e-30 1.1539829e-32 8.3333333e+20            1 
   13000     1.248854   -3.3484587   0.97976418 0.0062805394  0.082057389            2 
   14000    1.2463208   -3.3446752    2.1083894  0.012549937  0.089343448            3 
   15000    1.2341383   -3.3620928    3.1816574  0.017675874   0.09052069            1 
   16000    1.2481298   -3.3336986     4.228939  0.022025723  0.090451834            1 
   17000    1.2703218   -3.3476261    5.3764042  0.026354922  0.090233395            2 
   18000    1.2688975   -3.3427509    6.5390559  0.030273406  0.091077715            2 
   19000    1.2522435    -3.342326     7.729073  0.033899442  0.092442356            3 
   20000    1.2352809   -3.3056435    8.8286809  0.036786169  0.093186215            3 
   21000    1.2524045   -3.3771955    9.9077216  0.039316355  0.093137558            1 
   22000    1.2530133    -3.370595    10.820308  0.040986013  0.092670804            1 
   23000     1.220587   -3.3757295    11.891416  0.043084841  0.092102303            2 
   24000    1.2315623   -3.4104439    12.919317   0.04485874  0.091558313            2 
   25000    1.2136462   -3.3613497    13.940931  0.046469769  0.090894442            2 
   26000    1.2315589   -3.3802011    15.035569  0.048190925  0.090452481            3 
   27000    1.2528376   -3.3650014    16.096713  0.049681212  0.090051654            1 
   28000    1.2389796   -3.3419109    17.040724   0.05071644  0.089673824            1 
   29000    1.2553069   -3.3708967    18.189649  0.052269104  0.089457742            3 
   30000    1.2247711   -3.3543177    19.405417  0.053903934  0.089359818            3 
   31000    1.2458424    -3.371676    20.443152   0.05495471   0.08934379            1 
   32000    1.2632193    -3.330262    21.540095  0.056093998  0.089418747            1 
   33000    1.2272651   -3.3873802    22.678437  0.057268779  0.089453518            2 
   34000    1.2240395   -3.3925973    23.668139  0.058010143  0.089653962            1 
   35000    1.2749025   -3.3728361    24.718463  0.058853482  0.089711681            1 
   36000    1.2237408   -3.3197452    25.884652  0.059918175  0.089697798            3 
   37000     1.246745   -3.3464647     26.95672  0.060713332  0.089726729            3 
   38000    1.2513182   -3.3770412    27.982985  0.061366194  0.089711417            1 
   39000    1.2490472   -3.3627558    29.154746  0.062296464  0.089724381            1 
   40000    1.2372844   -3.3518246      30.1264  0.062763334   0.08967429            2 
   41000     1.259105   -3.3577821     31.25145  0.063519207   0.08972503            2 
   42000    1.2539279   -3.3380427    32.594528  0.064671682  0.089855806            2 
   43000    1.2551076   -3.3275947    33.581832  0.065081068  0.089970701            2 
   44000     1.263197   -3.3887784    34.457624   0.06526065    0.0900176            2 
   45000    1.2509123    -3.347431     35.62119  0.065965166  0.089967857            1 
   46000    1.2493059   -3.3883967    36.466389  0.066062298  0.089864863            2 
   47000    1.2775173    -3.361593    37.529495  0.066541657  0.089769804            2 
   48000    1.2463774   -3.3854444    38.530391  0.066893039  0.089704409            2 
   49000    1.2108282   -3.3652936    39.556433  0.067272844  0.089626736            1 
   50000     1.255239   -3.3636459    40.707179  0.067845298  0.089579227            3 
   51000    1.2381494   -3.3768421    41.848952   0.06838064  0.089510014            3 
   52000    1.2367628   -3.3615636    42.746056  0.068503294  0.089444916            2 
   53000     1.218803   -3.3824563    43.903469  0.069030611  0.089398699            1 
   54000    1.2452229   -3.3257052     45.31473  0.069930138  0.089411349            3 
   55000    1.2169888   -3.3743874    46.329743  0.070196579  0.089476807            3 
   56000    1.2579915   -3.3901215    47.290566  0.070372865  0.089514154            2 
   57000    1.2323505   -3.3904318    48.328289  0.070655393  0.089519721            2 
   58000    1.2450009   -3.3734938    49.359559  0.070918906  0.089513588            1 
   59000    1.2414787   -3.3872462    50.388851  0.071170693  0.089474294            2 
   60000    1.2326646   -3.3593387    51.523586  0.071560535  0.089440349            1 
   61000    1.2560189   -3.3739661    52.241705  0.071368449  0.089387318            1 
   62000    1.2435312   -3.3515498    53.458415  0.071852707  0.089342657            1 
   63000    1.2468479   -3.3702621    54.619249  0.072247684  0.089320868            1 
   64000    1.2333198   -3.3761369     55.76275  0.072607746  0.089282391            1 
   65000    1.2545866   -3.3763175    56.574129  0.072530935  0.089229234            1 
   66000    1.2511086   -3.3822662     57.09104  0.072084647  0.089142753            2 
   67000    1.2440548   -3.3674192    58.359218  0.072586091  0.089078643            3 
   68000    1.2638206   -3.3792265    59.680284  0.073137603  0.088994338            2 
   69000    1.2309682   -3.3717631    60.835857  0.073473257  0.088935234            2 
   70000    1.2774763   -3.3765649    61.901746  0.073692554  0.088906442            3 
   71000    1.2294222   -3.3459412    63.152497  0.074122648  0.088893126            2 
   72000    1.2313155    -3.395531    63.934731  0.073998531  0.088883537            2 
   73000    1.2271816   -3.3468198    64.908611  0.074096587   0.08884582            1 
   74000    1.2393035   -3.3494902    65.612452  0.073887896   0.08879203            3 
   75000    1.2655972   -3.3556515    66.812427   0.07423603  0.088710839            2 
   76000    1.2116974   -3.4042311    67.552604  0.074070837  0.088644886            3 
   77000    1.2552766   -3.3717224    69.233781  0.074928334   0.08860081            2 
   78000    1.2257548   -3.3886232    69.872139  0.074649721  0.088567173            2 
   79000    1.2265978   -3.3420377    71.475638  0.075396242  0.088560567            2 
   80000    1.2349255   -3.3530015     72.41335  0.075430573   0.08853867            3 
   81000    1.2415276   -3.3874082    73.324582  0.075436812    0.0885272            2 
   82000    1.2521539   -3.3915393    74.616617  0.075829895  0.088508897            2 
   83000    1.2339853   -3.3802245    75.429009  0.075731936  0.088481848            2 
   84000    1.2192466   -3.3393884    76.881105  0.076270937  0.088468342            3 
   85000    1.2327201   -3.3469159    77.351811  0.075835108  0.088452877            1 
   86000    1.2292819   -3.3767453      78.2483  0.075821996  0.088425367            2 
   87000    1.2439697   -3.3546161    79.961487  0.076591462  0.088410352            1 
   88000    1.2240559   -3.3617792    80.825462  0.076539263  0.088402349            1 
   89000    1.2772227   -3.3629758     82.26132  0.077023708  0.088412301            1 
   90000    1.2398981   -3.3740529    83.373921  0.077198075  0.088438577            2 
   91000    1.2377826   -3.4015208     83.70454  0.076652509  0.088430478       -1e+20 
   92000    1.2465945    -3.383613    84.481548  0.076523141  0.088392904            1 
   93000    1.2136827   -3.3471359    85.474669  0.076590205  0.088336508            4 
   94000     1.254534   -3.3737546    86.213444  0.076430358  0.088291189            5 
   95000    1.2208902   -3.4148583    87.556727  0.076804146  0.088242848            2 
   96000    1.2404174   -3.3758803    89.061016  0.077309909  0.088198164            4 
   97000    1.2245346   -3.3983913    89.645522  0.077015053  0.088167235            1 
   98000    1.2450086   -3.3670598    90.915784   0.07730934  0.088129551            2 
   99000    1.2360705   -3.3514748    91.804709  0.077276691  0.088089936            1 
  100000    1.2383544   -3.3784299    93.224802  0.077687335  0.088048205            3 
  101000    1.2510519   -3.3428922    94.509155  0.077977851  0.088036355            1 
  102000    1.2246733   -3.3846802    95.680389  0.078170252  0.088042209            1 
  103000     1.224333   -3.3776848    96.617965  0.078169874  0.088052439            2 
  104000    1.2451413   -3.3613739    97.347818  0.078003059  0.088054659            1 
  105000    1.2313218   -3.3344829    98.351666  0.078056877  0.088052698            2 
  106000    1.2397245   -3.3669576    99.322689  0.078083874  0.088049862            2 
  107000    1.2406196   -3.4041347    100.50914  0.078278143  0.088053439            1 
  108000    1.2145591   -3.3560324    102.30129  0.078936179  0.088067419            2 
  109000    1.2300599   -3.3726795    103.11959  0.078837607  0.088079557            2 
  110000    1.2521725    -3.391477    104.16893  0.078915859  0.088098234            1 
  111000    1.2320153   -3.3850613    105.13664  0.078931413  0.088111586            1 
  112000    1.2291581   -3.3523179    106.95025  0.079576076  0.088133567            3 
  113000    1.2243061   -3.3503966    108.08689  0.079710093   0.08816108            2 
  114000    1.2266237   -3.3723293    108.67521  0.079440945  0.088187059            1 
  115000    1.2380648   -3.4033526    109.98621  0.079700153  0.088214819            1 
  116000    1.2377128   -3.3913941    111.15389  0.079851931  0.088240913            1 
  117000    1.2308198   -3.3442202     112.3528   0.08002336  0.088264149            2 
  118000    1.2502224   -3.3737406    112.78365  0.079649469  0.088302853            1 
  119000    1.2227837   -3.3700029     114.4917  0.080176264  0.088334288            1 
  120000    1.2127864   -3.3801086    115.35831  0.080109935  0.088365101            1 
  121000    1.2349481   -3.3595255    117.27497  0.080767883  0.088399828            1 
  122000    1.2272457   -3.3771891    117.24577  0.080085909  0.088430058            2 
  123000    1.2232971   -3.3851614    118.01513  0.079956049  0.088435387            2 
  124000    1.2351379   -3.3594419    119.52392  0.080325212  0.088445004            5 
  125000    1.2236119   -3.3972009    119.84851  0.079899004   0.08845952            1 
  126000    1.2309206   -3.3501059    122.28376    0.0808755  0.088473291            1 
  127000     1.232095   -3.3476714    123.11021  0.080780978   0.08849452            2 
  128000    1.2684302   -3.3657535    124.40434  0.080992408  0.088519174            2 
  129000    1.2248695   -3.4135751    124.36955  0.080342084   0.08853584            2 
  130000    1.2309278   -3.3513912    125.96033    0.0807438  0.088554357            1 
  131000    1.2538273   -3.3513526    127.87236   0.08134374  0.088579552            3 
  132000    1.2428667   -3.3796137    128.34756  0.081027499  0.088594319            2 
  133000    1.2044693   -3.3984316      129.267   0.08099436  0.088612093            2 
  134000    1.2232463   -3.3790775    130.47596  0.081141764  0.088626605            1 
  135000    1.2362974   -3.4042427    130.44748  0.080523135  0.088625615            1 
  136000    1.2455424   -3.3897876    131.86255  0.080798132  0.088631144            2 
  137000    1.2203045   -3.4045028    132.55628  0.080630338  0.088633001            2 
  138000    1.2196356   -3.3634496    134.15658  0.081012427  0.088631713            1 
  139000    1.2324131   -3.3946399    135.01183  0.080942344  0.088635055            1 
  140000    1.2267313   -3.3736666    135.83953  0.080856862  0.088630491            3 
  141000    1.2117544   -3.3568007    137.59181  0.081319035  0.088627929            1 
  142000    1.2133421   -3.4077647    138.06072  0.081021547  0.088624515            1 
  143000    1.2264426   -3.3689364    139.11404  0.081068788  0.088612532            1 
  144000    1.2241073   -3.3819418    140.44421  0.081275587  0.088599539            2 
  145000    1.2215859   -3.4132015    140.76809  0.080901201  0.088592405            1 
  146000    1.2399701   -3.3937004    141.88116  0.080982395  0.088579982            2 
  147000     1.217704    -3.398293    143.00125  0.081066466  0.088570151            1 
  148000    1.2159786   -3.3815697    144.00096  0.081081619  0.088555651            2 
  149000    1.2036179   -3.3958922    144.55083  0.080844985  0.088532509            3 
  150000    1.2392029   -3.3881211    146.05879  0.081143773  0.088506785            1 
  151000    1.1994913   -3.3820589    146.93029  0.081087358  0.088476157            1 
  152000    1.2232997   -3.3941869    147.55794  0.080897994  0.088446306            2 
  153000    1.2504981   -3.3824876    149.20194  0.081264672  0.088417135            2 
  154000     1.224282   -3.3594952    150.09155   0.08121837    0.0883921            1 
  155000    1.2444829   -3.3775701     151.6579  0.081536505  0.088371759            4 
  156000     1.240993   -3.3674835    152.27854  0.081345374  0.088348286            4 
  157000    1.2210405   -3.3760021    153.56883  0.081512116  0.088321857            2 
  158000    1.2087095   -3.3913551    154.52678  0.081501468  0.088292105            1 
  159000    1.2123074   -3.3875574    155.31587  0.081402445  0.088269312            2 
  160000    1.2370375   -3.3477739    157.69466  0.082132635   0.08824368            4 
  161000    1.2347231    -3.344253     157.6776  0.081613662  0.088220983            2 
  162000    1.1992756   -3.3761544    158.42854  0.081496162  0.088195141            2 
  163000    1.2122912   -3.3984622    158.70846  0.081139293  0.088170561            1 
  164000    1.2446015    -3.400252    159.94575  0.081273248  0.088137402            1 
  165000    1.2305245   -3.3813677    161.17761  0.081402832  0.088108296            1 
  166000    1.2440042   -3.3871464     162.3034  0.081477608  0.088079526            2 
  167000     1.191071   -3.3675092    163.03811  0.081356341  0.088057852            1 
  168000     1.223264   -3.4029898    163.84709  0.081273357  0.088033654            3 
  169000    1.2391314   -3.3629494    165.93124  0.081820138  0.088009416            1 
  170000    1.2295205   -3.3692608    167.14933  0.081935947  0.087991972            1 
  171000    1.2264458    -3.425758    167.67119  0.081711108  0.087972099            1 
  172000    1.2354175   -3.3937247    168.75801  0.081762601  0.087961033            1 
  173000    1.1874128   -3.3706765    169.47325  0.081634513  0.087949855            1 
  174000     1.232147   -3.4217642     171.4917   0.08213204  0.087943962            2 
  175000    1.2110498   -3.4071868    173.13562  0.082445534  0.087943328            2 
  176000    1.2049209   -3.3899063    173.40609  0.082105155  0.087943093            2 
  177000    1.2415677   -3.4010933    174.79628  0.082295799  0.087934481            1 
  178000    1.2140959   -3.3973427    175.63925  0.082228114  0.087933577            1 
  179000    1.2179962    -3.374536     176.4997   0.08216932  0.087932462            1 
  180000    1.2359748   -3.3837399    177.45564  0.082155389  0.087938678            1 
  181000    1.2384651   -3.4275853    178.50033  0.082182474  0.087943751            2 
  182000    1.2049599   -3.3992224    180.63601  0.082708796  0.087947965            2 
  183000    1.2176486   -3.3921011    182.17089  0.082955777  0.087956985            4 
  184000    1.2117837    -3.398831     183.5825  0.083144246  0.087970123            3 
  185000     1.195462   -3.4148525    183.40126  0.082613178  0.087987503            2 
  186000     1.235502   -3.4123697    185.85479  0.083268275  0.088005798            2 
  187000     1.205998   -3.3677042    186.82251  0.083254236  0.088025809            1 
  188000    1.2415173    -3.360478     187.8295  0.083257757  0.088043753            1 
  189000     1.201747   -3.3766638    187.87863  0.082838903  0.088053044            1 
  190000    1.1978752   -3.3991407    189.20507   0.08298468  0.088063687            2 
  191000    1.2080321   -3.3775245    189.79289  0.082806669  0.088075787            2 
  192000    1.2285483   -3.4043895    191.45301  0.083095924  0.088081533            2 
  193000    1.2319321   -3.3986562    192.32977  0.083043942  0.088087277            4 
  194000    1.2293511   -3.4017697    192.92003  0.082869426  0.088092519            3 
  195000    1.2111997   -3.3756976     196.1771  0.083836367  0.088102577            1 
  196000     1.208542   -3.4159611    195.74952  0.083226835  0.088117059            2 
  197000    1.2110033   -3.4114715    196.69249  0.083203252  0.088130588            2 
  198000    1.2300056   -3.3576878    198.27809  0.083450374  0.088143339            2 
  199000    1.2306633   -3.3949745    198.97766  0.083323976  0.088153924            1 
  200000    1.2205637   -3.3781306     201.4094  0.083920583  0.088172004            3 
  201000    1.2146813    -3.391777     202.0484  0.083767992   0.08818539            1 
  202000    1.1942898   -3.3901424    201.84466  0.083269249  0.088202254            5 
  203000    1.2088994   -3.3920044    203.38089  0.083489692  0.088209636            3 
  204000    1.2226485   -3.3847797    204.15375   0.08339614   0.08821922            1 
  205000     1.217701   -3.3684969    205.92612  0.083709803  0.088228979            1 
  206000    1.2354035   -3.4006105    206.36654  0.083481609  0.088241632            1 
  207000    1.2264133   -3.4037337    206.70546  0.083214759   0.08824531            2 
  208000    1.2299268   -3.4040867    207.27628  0.083043381  0.088243751            4 
  209000    1.2186441   -3.3881976    209.24189   0.08342978  0.088244219            1 
  210000    1.2194986   -3.4003653    209.67054  0.083202597  0.088246165            2 
  211000    1.2448415    -3.396639    210.44213  0.083113005  0.088239514            1 
  212000    1.2124993   -3.3966436    212.23178  0.083424443  0.088230475            1 
  213000    1.2278774    -3.419993    212.40262  0.083099618  0.088224831            2 
  214000    1.2328142   -3.4200143     213.0157  0.082950037  0.088218887            1 
  215000    1.2086568   -3.3991946    214.75297  0.083237585  0.088211691            2 
  216000       1.2158    -3.385584    215.88229  0.083287919  0.088203683            1 
  217000    1.1967915   -3.3927935    215.53621  0.082771203  0.088194258            2 
  218000    1.2457608   -3.3571492    217.82358  0.083265895  0.088184977            3 
  219000    1.1971035   -3.3909654    218.67308  0.083208934  0.088180965            2 
  220000    1.2611298   -3.3730071    220.35353  0.083467246  0.088178759            2 
  221000    1.2046671   -3.3922454    221.40122  0.083484622   0.08817788            1 
  222000    1.1980384   -3.3999453    223.18628  0.083778634  0.088180133            1 
  223000    1.2231076   -3.4016851    223.75783  0.083616528  0.088176894            2 
  224000     1.219658   -3.4008165     224.4954  0.083517633  0.088173576            2 
  225000    1.2053895   -3.3911579    225.35832  0.083466044  0.088167478            3 
  226000    1.2365641    -3.425598    226.08702  0.083365421  0.088160072            1 
  227000     1.229761   -3.4020829    226.38799   0.08310866  0.088149523            2 
  228000    1.2238367   -3.4007022    228.19812  0.083405744  0.088137506            6 
  229000    1.2440378   -3.4063698     229.3489  0.083460297   0.08812054            2 
  230000     1.184743   -3.3781661    229.04859  0.082988621  0.088103167            1 
  231000    1.2324159   -3.4208753    229.23475   0.08269652  0.088083094            5 
  232000    1.2090423   -3.3738072     231.1307  0.083021083  0.088059168            2 
  233000    1.2253234   -3.4004855     231.5588  0.082817883  0.088039369            1 
  234000    1.2161666   -3.4224204    231.98802  0.082616816  0.088020832            2 
  235000    1.2090598   -3.3694511    235.37522  0.083466388  0.088005661            1 
  236000    1.2005708   -3.4060657    235.79782   0.08326194  0.087989964            1 
  237000    1.2162572   -3.3899326    237.16694  0.083392031  0.087978077            1 
  238000    1.2139323   -3.4431367     237.5418  0.083172898  0.087963742            2 
  239000    1.2417287   -3.3977044    239.37402  0.083463744    0.0879432            2 
  240000    1.2449263   -3.3705169    240.69806  0.083575714  0.087927391            1 
  241000    1.2086152   -3.3947405    239.74694  0.082900048  0.087904807            1 
  242000    1.2037798   -3.3893871    240.85387   0.08293866  0.087880531            1 
  243000    1.2258046   -3.4154901    242.35027  0.083110517  0.087862158            3 
  244000    1.1755841   -3.4027598    242.49436  0.082819111  0.087841533            1 
  245000    1.1861167   -3.4029462     243.8235  0.082933163  0.087819626            1 
  246000    1.2042476     -3.40122    244.98725  0.082990261  0.087794101            1 
  247000    1.1881394   -3.3872665    246.73423  0.083243667  0.087767551            2 
  248000    1.1934396   -3.4100828    247.12922  0.083040733   0.08774321            1 
  249000    1.2031263   -3.4011611    247.89534  0.082963634   0.08772033            1 
  250000    1.2246518   -3.3877698    250.10105  0.083367016  0.087706981            3 
  251000      1.20794    -3.441652    248.89913  0.082635832  0.087685803            1 
  252000    1.2049241   -3.4377408    251.03795  0.083015195  0.087663282            2 
  253000     1.232196   -3.3954802     251.7586  0.082924439  0.087639967            1 
  254000    1.2121231   -3.4092516    253.40152   0.08313698  0.087619761            2 
  255000     1.207724   -3.4310299    253.77595  0.082933318  0.087596891            4 
  256000     1.223958   -3.4193485    255.38058    0.0831317  0.087576228            5 
  257000     1.213128    -3.421468    256.18352  0.083068586  0.087557815            1 
  258000     1.206081   -3.4081913    257.89881  0.083300648  0.087542854            1 
  259000    1.1748873   -3.4246365    257.19769  0.082753441  0.087525492            2 
  260000    1.2039436   -3.4098999    258.66907  0.082906752  0.087506192            1 
  261000      1.21263   -3.4100971    258.46554  0.082524118  0.087484047            4 
  262000    1.2132644   -3.3790306    261.60609  0.083208044  0.087464258            2 
  263000    1.2044796   -3.4204673    263.42481  0.083467937  0.087445486            1 
  264000    1.2004794    -3.376535    261.90169  0.082670987  0.087421712            3 
  265000    1.2147433   -3.3998561    263.40395  0.082831431  0.087403811            2 
  266000    1.2127904   -3.3931051    265.23417  0.083093413  0.087385306            7 
  267000     1.192485   -3.4049098    264.55535  0.082570335  0.087363905            2 
  268000    1.2055332   -3.4115133     265.9996  0.082711317  0.087336743            2 
  269000    1.2093899   -3.4008992     267.0017   0.08271428  0.087313951            2 
  270000    1.2340921    -3.436552    268.97818  0.083017956  0.087293611            2 
  271000    1.2104742   -3.3606626    271.04893   0.08334838  0.087271157            1 
  272000    1.2336998   -3.4071025    271.70619  0.083243317  0.087253362            3 
  273000    1.2114748   -3.4138428    272.98959  0.083330157  0.087239178            2 
  274000    1.2124998   -3.3822811     273.7899  0.083269435  0.087227246            1 
  275000    1.2127204   -3.3880856    274.95942  0.083321038  0.087215432            2 
  276000    1.2338295   -3.4408559    274.94845  0.083015836  0.087200622            2 
  277000    1.1862062   -3.4237627    277.14927  0.083378239  0.087184827            3 
  278000    1.2190728   -3.4056019    277.70259  0.083244181  0.087169809            2 
  279000    1.1914271   -3.4021721    278.66034  0.083231881   0.08715918            2 
  280000    1.1939851   -3.4142082    281.20003  0.083690485   0.08715239            6 
  281000    1.2079207   -3.4377499    282.65169  0.083823158  0.087143008            3 
  282000     1.213258    -3.426096    282.29255  0.083419783  0.087134182            2 
  283000    1.2064544   -3.4141931     283.0626  0.083351767  0.087123034            2 
  284000    1.1832135   -3.4193861    283.65976  0.083233497  0.087111803            1 
  285000    1.2179113   -3.4512052    284.79834  0.083274368  0.087104591            2 
  286000    1.2088634    -3.414352    285.11535  0.083075569  0.087094039            1 
  287000    1.1840254   -3.4134333    286.48466    0.0831837  0.087079936            2 
  288000      1.20766   -3.4057635    287.91364  0.083308346   0.08706568            4 
  289000    1.2239003   -3.4313052    288.38654  0.083156441  0.087051649            1 
  290000    1.1926991   -3.4496553    288.89254  0.083015097  0.087038525            2 
  291000    1.2030622   -3.4188786    291.09098  0.083359388  0.087024456            2 
  292000    1.1868127   -3.4211312    290.80488   0.08299226  0.087009963            4 
  293000    1.1751933   -3.3791731    293.36897  0.083438272  0.086996497            3 
  294000    1.1772161   -3.4270903     293.1825  0.083101615  0.086982754            3 
  295000    1.2074819   -3.4173282    295.11066  0.083364592   0.08696853            1 
  296000    1.2172585   -3.4087886    296.08312  0.083356734  0.086956483            1 
  297000     1.201526   -3.4217273    296.09106  0.083078298  0.086941277            2 
  298000    1.2252399   -3.4304559    298.38147  0.083440007  0.086924319            1 
  299000    1.1927897   -3.3985751    299.78002  0.083550729  0.086912582            2 
  300000    1.2211665   -3.4375836     300.2332  0.083398112  0.086900571            2 
  301000    1.2116719   -3.3969506    299.90522  0.083030237  0.086887383            2 
  302000    1.1948139   -3.4234264     302.5641   0.08348899  0.086876194            3 
  303000    1.1976219   -3.4470775    303.10571  0.083362406  0.086867121            2 
  304000    1.2309264    -3.411166    305.94564  0.083866679  0.086854254            3 
  305000    1.1802066   -3.4268725    304.08886  0.083084388   0.08684462            2 
  306000    1.2227669   -3.4345354    306.08594  0.083356737  0.086834487            3 
  307000    1.2163127    -3.420932    306.94939  0.083319596  0.086822563            3 
  308000    1.2303272   -3.4001964    308.89408  0.083575238  0.086812721            3 
  309000    1.1937693   -3.4513019    309.70878  0.083524481  0.086799657            3 
  310000    1.2179282   -3.3938682    311.11609  0.083633357  0.086790185            1 
  311000    1.1904642   -3.4092764    311.54759  0.083480062  0.086781493            2 
  312000    1.2176201   -3.3987664    312.31746  0.083418125   0.08677341            1 
  313000    1.1920693   -3.4315429    314.80663  0.083814331  0.086765114            3 
  314000    1.1930169    -3.384846    316.12189  0.083896467  0.086756066            2 
  315000    1.2129782   -3.4140427    314.59755  0.083226865  0.086746282            1 
  316000    1.1978414   -3.4122334    315.53537  0.083210805  0.086736996            1 
  317000    1.1933684   -3.4289861    317.73485   0.08352651  0.086729225            2 
  318000     1.200331   -3.4368534    318.11186  0.083362647  0.086723772            3 
  319000    1.2072349   -3.4043092    320.77316  0.083796542  0.086712245            2 
  320000    1.1825546   -3.4203217    319.49205  0.083201054  0.086702813            1 
  321000    1.2000063   -3.4505218    320.55206  0.083217046  0.086692321            6 
  322000    1.1870582   -3.4057253    322.97264  0.083585051  0.086684331            2 
  323000    1.2025312   -3.3956261    324.75393  0.083785844  0.086673394            2 
  324000    1.2138624   -3.4135939    323.53739  0.083214348  0.086662807            2 
  325000    1.2170698   -3.4121292    324.72564  0.083262984  0.086654596            3 
  326000    1.1967809   -3.4412683    325.75736   0.08327131  0.086645522            3 
  327000    1.2049655    -3.423751    325.49465  0.082949707   0.08663469            1 
  328000    1.1967137   -3.4163758    329.19931  0.083638035  0.086624234            1 
  329000    1.2056652   -3.4188371    329.41973  0.083439648  0.086613862            3 
  330000    1.1995828   -3.4309137    329.41054  0.083184479  0.086601143            2 
  331000    1.1891778   -3.4374844    331.10627  0.083360089   0.08659088            1 
  332000    1.1807226   -3.4414115    331.95495  0.083322026  0.086582568            1 
  333000    1.2144117   -3.4236819    333.85225   0.08354661  0.086572836            1 
  334000    1.1893236   -3.4216123    333.84008  0.083293434  0.086561574            2 
  335000    1.1756457   -3.4301765    334.79228  0.083281663  0.086549881            2 
  336000    1.1971177    -3.409089     335.7713  0.083276612  0.086538443            3 
  337000    1.1940723   -3.4051001    339.17264  0.083870583  0.086528586            1 
  338000    1.2060756   -3.4143443    338.71605  0.083509874  0.086516116            2 
  339000    1.2015112   -3.3993465    340.80777  0.083777721  0.086502499            2 
  340000     1.211304   -3.4362662    339.37054  0.083179053  0.086492076            2 
  341000    1.1809009   -3.4074725     339.9086  0.083066617  0.086481152            2 
  342000    1.2012365   -3.4445493    343.62035  0.083728154  0.086471576            1 
  343000    1.1843629   -3.4303444    343.43946  0.083440103  0.086459313            3 
  344000    1.1872856   -3.4288563    342.41165  0.082948558   0.08644718            2 
  345000     1.197392   -3.4284753    346.14283  0.083609379  0.086437964            2 
  346000    1.1914088   -3.4334896     348.1542  0.083852168  0.086429058            1 
  347000    1.1902528   -3.4832548    346.12337  0.083122806  0.086419634            1 
  348000    1.1572369   -3.4370299    349.20469  0.083621813  0.086410835            2 
  349000    1.1953425   -3.4146697    351.37437  0.083900279  0.086406297            3 
  350000    1.2013507    -3.418954    352.04559  0.083820377  0.086400447            2 
  351000    1.2047664   -3.4194247    353.03134  0.083815609  0.086395426            2 
  352000    1.1947213    -3.426678    353.35299  0.083653644  0.086388267            2 
  353000    1.1897959   -3.4384923      353.802  0.083522662  0.086382886            3 
  354000     1.172435   -3.4181166    354.87414   0.08353911  0.086376912            4 
  355000    1.1986729   -3.4292445    356.94584  0.083790102  0.086369977            2 
  356000    1.1870204    -3.409503    356.60472  0.083474888  0.086364144            3 
  357000    1.1950538   -3.4486214    360.27208  0.084097123  0.086356511            1 
  358000    1.1835114   -3.4170542    360.52714  0.083921588   0.08635067            1 
  359000    1.1786504   -3.4120399    360.36756  0.083650779  0.086345328            1 
  360000    1.2073216   -3.3956255    362.38277  0.083884901  0.086342577            3 
  361000    1.1846267    -3.417915    363.07973  0.083813418  0.086338293            2 
  362000     1.198846   -3.4390958    363.61892  0.083706012  0.086331774            3 
  363000    1.2195595   -3.4171645    366.81335  0.084208759  0.086325488            2 
  364000    1.2201864   -3.4446121    365.57972   0.08369499   0.08632143            2 
  365000    1.1912855   -3.3901463    365.94588  0.083549287  0.086317356            2 
  366000    1.2156912   -3.4407628    367.14693  0.083594475  0.086312843            2 
  367000    1.1993953   -3.3754545    370.17096  0.084053352  0.086310537            2 
  368000    1.1681856   -3.4557934    371.95216  0.084228297  0.086309004            1 
  369000     1.196439   -3.4300107    371.09773  0.083807075  0.086306036            1 
  370000    1.1606065   -3.4261987    370.88739  0.083533196  0.086300498            2 
  371000     1.185666   -3.3993409    372.82575   0.08374343  0.086295838            1 
  372000    1.1825053   -3.4436385    373.82739  0.083742695  0.086288701            2 
  373000    1.2140573   -3.4503279    374.08391  0.083575493  0.086281964            2 
  374000    1.2042354   -3.4521969    375.23145  0.083607721  0.086274858            2 
  375000     1.181956   -3.4478951    376.39111  0.083642468   0.08626496            2 
  376000    1.2016507   -3.4140684    377.46385  0.083657767  0.086255353            1 
  377000    1.2129183   -3.4389962     377.6032  0.083466666  0.086248116            1 
  378000    1.1749768   -3.4549464    379.17046  0.083591371  0.086238122            1 
  379000    1.1816184   -3.4411415    381.54396  0.083892691   0.08622923            2 
  380000    1.1736254   -3.4383513    381.37182   0.08363417  0.086221712            1 
  381000    1.1943259   -3.4570653    382.81031  0.083729288  0.086216815            1 
  382000    1.2076602   -3.4275224     384.3979  0.083856436  0.086213508            2 
  383000    1.1960532   -3.4185696    386.29268  0.084049756   0.08621027            2 
  384000    1.1852409   -3.4412143    383.96756  0.083326293  0.086204479            8 
  385000    1.2022534   -3.4451382    384.78756   0.08328735  0.086196336            4 
  386000    1.1940141   -3.4309157    386.43909  0.083428128  0.086186374            1 
  387000    1.2048367   -3.4632637    387.00221  0.083333808  0.086176943            1 
  388000    1.1929427   -3.4813562    388.01144   0.08333579  0.086166667            5 
  389000    1.1793188   -3.4514319    388.54052  0.083234901  0.086155014            1 
  390000    1.1680894    -3.425412    390.83017   0.08351072  0.086144821            3 
  391000    1.1970353   -3.4169427     392.4923  0.083651385  0.086135986            3 
  392000    1.2116243   -3.4378508    394.03832  0.083766651  0.086129201            2 
  393000    1.2040842   -3.4154445    395.88555  0.083945197  0.086126321            3 
  394000    1.1525411   -3.4267035    396.17839  0.083794075  0.086121412            2 
  395000     1.193901   -3.4367734    397.78795  0.083921509  0.086116657            3 
  396000    1.1672052    -3.439604    397.00887  0.083545637  0.086111135            2 
  397000    1.2059149   -3.4578551    398.41806  0.083630994  0.086106573            3 
  398000    1.1842374   -3.4380243     401.1302  0.083988734  0.086099797            2 
  399000    1.1764176   -3.4421593      400.868  0.083723476  0.086090721            3 
  400000    1.1859188   -3.4113967     399.1236   0.08315075  0.086080075            1 
  401000      1.18507     -3.41869    401.66115  0.083470728   0.08606845            2 
  402000    1.1912671   -3.4374918    404.82997  0.083919977  0.086058815            4 
  403000    1.1928455   -3.4190193    401.96472  0.083119255  0.086050245            3 
  404000    1.1883226   -3.4526493    404.63942  0.083465228  0.086040893            2 
  405000    1.1987702    -3.417227    406.72329   0.08368792  0.086030141            5 
  406000    1.1883631   -3.4340411    407.26202  0.083592369  0.086021001            3 
  407000    1.2214361    -3.418161    407.06725  0.083347104  0.086012425            2 
  408000    1.1816121   -3.4374382    407.50375  0.083231974  0.086001879            3 
  409000    1.1734253   -3.4613006    408.66303  0.083264677  0.085989473            2 
  410000    1.1596077   -3.4255958    410.72662   0.08348102  0.085977909            1 
  411000    1.2010916   -3.4674286    409.89606    0.0831095  0.085965062            1 
  412000    1.1690513   -3.4332233    413.32112  0.083600549  0.085950521            2 
  413000    1.1472139   -3.3992835    412.14902  0.083161627  0.085935706            1 
  414000    1.1997112   -3.4505175    411.40268  0.082810524  0.085920366            3 
  415000    1.1776618   -3.4451335    413.40832  0.083013718  0.085905736            1 
  416000    1.1757531   -3.4547918    415.17976  0.083169023  0.085890679            1 
  417000    1.1857774   -3.4175083     417.5949  0.083452219  0.085875246            3 
  418000    1.1919974   -3.4684956    416.40372  0.083015096  0.085861149            2 
  419000    1.2002149   -3.4196232    417.77416  0.083089531  0.085847091            2 
  420000    1.1938966   -3.4581891    418.48507  0.083032753  0.085833612            1 
  421000    1.1826205   -3.4421725     417.3948  0.082619714  0.085820842            2 
  422000    1.1871003   -3.4374106     419.9306  0.082924683  0.085808549            1 
  423000    1.1805489   -3.4244001    422.26179  0.083187902  0.085796006            1 
  424000     1.184633   -3.4269178     422.9424  0.083125471  0.085781366            3 
  425000     1.178888   -3.4213913    424.40306  0.083216285  0.085768759            2 
  426000    1.1688322    -3.436865    423.03024  0.082752394  0.085756972            2 
  427000    1.2023956   -3.4469903    426.40018  0.083216272  0.085743079            2 
  428000    1.1663351   -3.4525855    425.82744  0.082910328  0.085728118            1 
  429000    1.1811976    -3.413503    426.04635  0.082759586   0.08570966            1 
  430000    1.1887706   -3.4445805    429.08485  0.083155979  0.085694428            1 
  431000    1.1983527   -3.4405286     430.5492  0.083246171  0.085679974            2 
  432000    1.1889122   -3.4310915    428.37814  0.082634671  0.085665153            3 
  433000    1.1773617    -3.442991    431.49108  0.083042932  0.085649046            1 
  434000     1.157178   -3.4332462    431.62555   0.08287741  0.085637806            4 
  435000    1.2159691   -3.4559045    433.64348  0.083073464  0.085623368            1 
  436000    1.1865743   -3.4140501     437.2697  0.083576014  0.085612855            2 
  437000    1.1689989   -3.4038093    435.92578  0.083128486  0.085602749            2 
  438000    1.1894133   -3.4626218     436.7886  0.083102854  0.085590421            2 
  439000    1.1866048   -3.4407686    437.67533  0.083081876  0.085579016            1 
  440000    1.1905289   -3.4375987    438.18749  0.082990056  0.085567404            3 
  441000     1.192922   -3.4388733    440.52624   0.08324381  0.085554214            2 
  442000    1.1793055   -3.4240383     442.8477  0.083493156  0.085544157            2 
  443000    1.1848824   -3.4285985    442.66629  0.083270558  0.085533847            2 
  444000    1.1802033   -3.4357942    444.08032  0.083348409   0.08552289            2 
  445000    1.1880087   -3.4604436    442.31326  0.082830198   0.08551094            1 
  446000    1.1675979   -3.4665328    446.93166  0.083507411  0.085500076            2 
  447000    1.1451503   -3.4460971    445.82285  0.083113879  0.085488653            1 
  448000    1.1929337   -3.4240417    448.12326   0.08335626  0.085475807            1 
  449000    1.1986998   -3.4214422     445.1957  0.082627264  0.085462313            4 
  450000    1.2024747   -3.4909104    446.23213  0.082635579   0.08544626            3 
  451000     1.175391   -3.4626132    447.65149  0.082714613  0.085428945            2 
  452000    1.1731645   -3.4572564    448.90831  0.082763331  0.085411842            1 
  453000    1.1962811   -3.4749813    445.83235   0.08201478  0.085393067            2 
  454000    1.1670373   -3.4665076    447.30961  0.082105288  0.085373473            3 
  455000    1.1747722   -3.4963324    448.56618  0.082154978  0.085353025            2 
  456000    1.1839949   -3.4292317    453.95239  0.082959136   0.08533317            3 
  457000    1.1944595   -3.4421288     452.2873  0.082473979  0.085314619            2 
  458000    1.1701499   -3.4232296     454.5789  0.082710862  0.085297356            1 
  459000    1.1962699   -3.4543564    452.18511  0.082096062  0.085280091            1 
  460000    1.1927646   -3.4411577    456.00055  0.082608796  0.085260991            2 
  461000    1.1723641   -3.4307373    457.87029  0.082767587   0.08524254            2 
  462000    1.1547014   -3.4403802     456.1352  0.082275469   0.08522554            1 
  463000    1.1799884   -3.4616497    459.89922  0.082775238  0.085208363            3 
  464000    1.1710346   -3.4258234     460.4476  0.082695331   0.08518998            1 
  465000    1.1721599   -3.4457319    458.59871  0.082186149   0.08517241            1 
  466000    1.1761929    -3.450251    461.39047  0.082509025  0.085153481            2 
  467000    1.1851737    -3.431832    461.72672  0.082392349  0.085134912            3 
  468000    1.1809129   -3.4599263    462.38827  0.082334094   0.08511409            6 
  469000    1.1711493   -3.4724868    462.78391   0.08222884  0.085093787            2 
  470000    1.1904135   -3.4454921    465.03952  0.082453815  0.085074367            1 
  471000    1.1689095   -3.4595608    464.55592  0.082193191  0.085054899            3 
  472000    1.1919202   -3.4587421    466.18301  0.082306322  0.085036249            2 
  473000    1.1827766   -3.4342736     467.8405   0.08242433   0.08501821            2 
  474000    1.1600025   -3.4631876    468.49765  0.082365972  0.085000151            3 
  475000    1.1846803   -3.4626322    467.17173  0.081959952  0.084980865            2 
  476000    1.1559023   -3.4582014    469.29132  0.082158844  0.084959662            1 
  477000    1.1830852   -3.4389691    469.38179  0.082002408  0.084937867            2 
  478000    1.1754952   -3.4883911    470.90864  0.082097043  0.084917543            3 
  479000    1.1420923   -3.4570069    472.59382  0.082218828  0.084897108            2 
  480000    1.1855055   -3.4573596    473.45994  0.082197906   0.08487676            1 
  481000    1.1636365   -3.4524301     471.8715  0.081751818  0.084855767            2 
  482000    1.1472683    -3.445285    475.98537  0.082293459  0.084834528            2 
  483000    1.2000626   -3.4309729     475.1785  0.081983868  0.084813239            3 
  484000    1.1661746   -3.4279486    474.72718  0.081736773  0.084791617            2 
  485000     1.197258   -3.4672001    474.20913  0.081479231  0.084768127            3 
  486000      1.19834   -3.4414255     479.8606  0.082280624   0.08474688            3 
  487000    1.1577319   -3.4224199    478.07569  0.081806245  0.084726991            6 
  488000    1.1768422   -3.4700613    478.43376  0.081699755   0.08470483            5 
  489000    1.1768923    -3.438343    480.30063  0.081850823  0.084683952            2 
  490000    1.1942578   -3.4589126    481.16627  0.081830999  0.084664736            2 
  491000    1.1701412   -3.4861569    482.47008   0.08188562  0.084644659            2 
  492000    1.1935777   -3.4770305    483.17009  0.081837752   0.08462591            2 
  493000    1.1467729   -3.4461036    484.20435  0.081846577  0.084605713            2 
  494000    1.1406041   -3.4712892    484.53984   0.08173749   0.08458604            2 
  495000    1.1426176   -3.4598174    485.98923  0.081816369  0.084563367            4 
  496000    1.1564948   -3.4624675    487.36085  0.081881862  0.084542415            2 
  497000      1.19559   -3.4884076    486.67707   0.08160246  0.084522926            1 
  498000    1.1732948   -3.4937896    487.73196   0.08161512  0.084501941            2 
  499000    1.1589494   -3.4061202    492.19121  0.082196261  0.084481029            3 
  500000    1.1732133   -3.4637058     491.4832  0.081913866  0.084461835            2 
  501000    1.1523893   -3.4658443    491.08391  0.081683951  0.084442272            5 
  502000    1.1562182   -3.4581741    491.67282  0.081618994  0.084421495            2 
  503000    1.1720959   -3.4586627    491.88055  0.081491145   0.08439989            3 
  504000    1.1695846   -3.4475497    494.85848  0.081821838  0.084379753            1 
  505000    1.1765509   -3.4507722    492.87684  0.081332812  0.084359493            3 
  506000    1.1908772   -3.4265937    497.29802    0.0819002  0.084338353            2 
  507000    1.1951909   -3.4793783    495.86878  0.081503745  0.084316341            4 
  508000    1.1802372   -3.4434878    498.16142  0.081719393  0.084294921            2 
  509000    1.2028048    -3.483949    497.96857   0.08152727  0.084273869            1 
  510000    1.1787495   -3.4686927    498.85701  0.081512584  0.084252439            4 
  511000    1.1690299   -3.4446288    499.97314  0.081535085  0.084229935            2 
  512000    1.1578993   -3.4305533    500.87155  0.081522062  0.084208519            1 
  513000    1.1820237   -3.4665763    502.48027  0.081624475  0.084187219            2 
  514000    1.1709781   -3.4336004    504.73677  0.081831512  0.084168205            3 
  515000    1.1708913   -3.4666489     503.9607  0.081547039  0.084149811            3 
  516000    1.2029074   -3.4658579    504.26792  0.081438617  0.084129372            1 
  517000     1.158326   -3.4751754    505.64468  0.081503011  0.084109274            2 
  518000    1.1488691   -3.4709203    505.00636   0.08124298  0.084087655            3 
  519000    1.1749133   -3.4596624     507.6512  0.081511111  0.084067078            2 
  520000    1.1625788   -3.4772163    509.70486  0.081683471  0.084046713            3 
  521000    1.1579146   -3.4608122    510.31213  0.081623822   0.08402708            1 
  522000     1.169088   -3.4799798    510.84689  0.081552823  0.084009521            5 
  523000    1.1557944   -3.4534958    512.21165  0.081614348  0.083990385            3 
  524000     1.157314   -3.4709341    512.69553  0.081535549  0.083970841            3 
  525000    1.1299294   -3.4589962    511.98139  0.081266887  0.083949545            2 
  526000    1.1880042   -3.4726914    514.26146  0.081473615  0.083928645            2 
  527000    1.1788622   -3.4699045    512.77767  0.081084388  0.083909745            1 
  528000    1.1614879   -3.4669092    516.12346   0.08145888  0.083890162            3 
  529000    1.1596247   -3.4749978    515.82682  0.081258163  0.083868497            2 
  530000    1.1784134   -3.4514536    515.24664  0.081013622  0.083846132            1 
  531000     1.136836   -3.5055794    514.97672  0.080818694  0.083822705            3 
  532000    1.1884883   -3.4726873    516.48732  0.080903402   0.08379942            3 
  533000    1.1516274   -3.4643887    516.63959   0.08077542  0.083776871            1 
  534000    1.1480992   -3.4501287    521.33734  0.081357263  0.083754243            1 
  535000    1.1705794    -3.479942    520.69229  0.081104718  0.083733547            2 
  536000    1.1765496   -3.4740429    522.62721  0.081254231  0.083712575            3 
  537000    1.1635768   -3.4864884    523.58408   0.08125141  0.083692339            4 
  538000    1.1698239   -3.4425033    526.59824  0.081567261   0.08367217            1 
  539000    1.1571884   -3.5039683    523.51786  0.080939682  0.083651551            3 
  540000    1.1739717   -3.4964759    523.93281  0.080853829   0.08363248            3 
  541000    1.1601358   -3.4693587    526.41448  0.081086642  0.083613009            2 
  542000    1.1524249   -3.4500127    527.91716  0.081168074  0.083592044            2 
  543000     1.152787   -3.4409978    529.54807  0.081268887  0.083572312            7 
  544000    1.1511048   -3.4415535    531.08571  0.081355041  0.083551538            2 
  545000    1.1815932   -3.4960746    530.24636  0.081077425  0.083531146            1 
  546000    1.1768784    -3.473932    532.55032  0.081280574  0.083510274            1 
  547000    1.1519801   -3.4951306    529.93797  0.080733999  0.083488968            4 
  548000    1.1628247   -3.4266578    534.92258  0.081344675  0.083468218            1 
  549000    1.1580633   -3.4459373    534.62855  0.081151874  0.083448871            1 
  550000    1.2049453   -3.5024685    532.75601  0.080720608  0.083427322            1 
  551000    1.1856109   -3.4769236    535.70007   0.08101937  0.083405539            2 
  552000    1.1747819   -3.4405397    535.46148  0.080836576  0.083383283            3 
  553000    1.1583534   -3.4595196    537.88359  0.081055393  0.083361282            1 
  554000    1.1741895   -3.4291478    537.73885  0.080887311  0.083339803            2 
  555000    1.1634518   -3.4904455    536.92883  0.080619945  0.083318281            2 
  556000    1.1411969    -3.471943    539.10079  0.080800478  0.083297913            1 
  557000     1.145605   -3.4753255    540.31444  0.080836989  0.083279364            2 
  558000    1.1480278   -3.4401107    543.11855  0.081110895  0.083260303            2 
  559000    1.1584645   -3.4700473    542.91427  0.080935342  0.083242554            2 
  560000    1.1441711   -3.4819998    542.76532  0.080768649  0.083223215            2 
  561000    1.1590034   -3.4908004    545.41268  0.081017926  0.083207296            3 
  562000    1.1427865   -3.4857329    547.27969  0.081150606  0.083192634            7 
  563000     1.159706    -3.498045    548.47091  0.081182787  0.083178761            2 
  564000    1.1640091   -3.4983681    549.20308  0.081147027  0.083163337            3 
  565000     1.205945   -3.4745467    551.07569    0.0812796  0.083148659            2 
  566000    1.1837484   -3.4687229    551.77294  0.081238655  0.083135086            2 
  567000    1.1571689    -3.464766    555.31828  0.081616443  0.083121454            1 
  568000    1.1325544   -3.4874961    554.46472  0.081347523  0.083106794            2 
  569000    1.1963584   -3.5076002    553.19555  0.081018681  0.083091462            2 
  570000    1.1708725    -3.487232     554.2673   0.08103323   0.08307593            2 
  571000    1.1590352   -3.4728402    556.41287  0.081204447  0.083061471            4 
  572000    1.1869904   -3.5035517    556.31095  0.081047633  0.083047216            2 
  573000    1.1675116   -3.4679187    559.84176  0.081419686  0.083031202            1 
  574000    1.1448572   -3.4625563    559.93637  0.081291575  0.083016452            3 
  575000    1.1784708    -3.447575    561.78254   0.08141776  0.083001669            1 
  576000    1.1512582   -3.5059452    560.53395  0.081095769  0.082986045            1 
  577000    1.1663891   -3.4521332    562.78748  0.081280687  0.082969104            3 
  578000    1.1492889   -3.4777394    562.79157  0.081140654  0.082954714            1 
  579000    1.1531857   -3.4501242    564.30344  0.081218112  0.082940578            1 
  580000    1.1501644   -3.5149933    562.18699  0.080773993   0.08292521            1 
  581000    1.1693163   -3.4762609    564.06854  0.080904839  0.082908572            2 
  582000    1.1864896    -3.451999    566.06392  0.081051536  0.082891857            2 
  583000    1.1683585   -3.4795898    563.77524  0.080585369  0.082874466            2 
  584000     1.152203   -3.4539704    569.32824  0.081239761  0.082855964            1 
  585000    1.1679454    -3.473256    567.99758  0.080911336  0.082837807            1 
  586000    1.1391959   -3.5039392    567.50015  0.080702524  0.082819773            1 
  587000    1.1901582   -3.4687187    568.20557  0.080665186  0.082801969            3 
  588000    1.1483506   -3.5055835    565.43881  0.080135885  0.082782397            2 
  589000    1.1647941   -3.4869041    568.87267  0.080485663  0.082764661            4 
  590000    1.1521338   -3.4946089    570.29655   0.08055036  0.082746436            3 
  591000    1.1357241    -3.497592    570.63557  0.080461868  0.082727957            2 
  592000    1.1607746   -3.5036675    574.62212  0.080887123  0.082710083            2 
  593000    1.1745353   -3.4845786    575.62654  0.080891869  0.082693761            2 
  594000    1.1509777   -3.4486041    576.52825   0.08088219  0.082676545            2 
  595000    1.1743028   -3.4777161    576.93241  0.080802858  0.082660425            1 
  596000     1.177613   -3.4946535     580.0047  0.081096854  0.082644892            1 
  597000     1.143049   -3.5122235    578.66443   0.08077393  0.082628411            1 
  598000    1.1342159   -3.4568003    580.06389  0.080833876  0.082611959            2 
  599000    1.1342146   -3.4897546    580.42848  0.080749649  0.082597103            2 
  600000    1.1600002   -3.4703501    581.40251  0.080750349  0.082581337            2 
  601000    1.1427385   -3.5032404    579.86433  0.080402709  0.082565743            5 
  602000    1.1503783    -3.475819    583.88239  0.080825359  0.082548964            2 
  603000    1.1632139   -3.4847905    582.58133  0.080511516   0.08253088            3 
  604000     1.152764   -3.4942365    581.71654  0.080258904  0.082513271            1 
  605000    1.1648189   -3.4616735    583.46723  0.080367388  0.082495885            2 
  606000    1.1460244   -3.4876218    587.84556  0.080836848  0.082477023            4 
  607000    1.1878438   -3.4589096    586.61594  0.080534862  0.082459196            1 
  608000    1.1522484   -3.5051536    586.72576  0.080417457   0.08244306            4 
  609000    1.1682413   -3.4604666    588.64272  0.080547718  0.082426799            1 
  610000    1.1432483    -3.493694    590.12356  0.080617973  0.082408997            2 
  611000    1.1552328   -3.4594782     590.9636  0.080600601  0.082391324            2 
  612000    1.1784213   -3.5206796     590.8725  0.080456495  0.082376548            4 
  613000    1.1632695   -3.4951224    590.09362  0.080219362  0.082359874            1 
  614000    1.1573111   -3.5071547     593.8091  0.080592983  0.082344003            3 
  615000    1.1702323   -3.4984412    596.20629   0.08078676  0.082328096            2 
  616000    1.1464029   -3.5139915    595.94275  0.080619961   0.08231123            1 
  617000    1.1441971   -3.4777898    595.48254  0.080427139  0.082295829            4 
  618000    1.1523609   -3.4855621    596.84345  0.080480508  0.082279777            3 
  619000    1.1477442   -3.4906351    597.75324  0.080472973  0.082264428            5 
  620000    1.1615211   -3.5242479    596.85552  0.080222516  0.082248699            4 
  621000    1.1484745   -3.4377984    600.90502  0.080636745  0.082233231            1 
  622000    1.1675957   -3.4905708    597.99951  0.080117833  0.082217391            2 
  623000    1.1613804   -3.5030728    599.00441   0.08012365  0.082200575            3 
  624000    1.1371547   -3.5097446    601.39535   0.08031455  0.082184075            1 
  625000     1.163672   -3.4939782    601.52054  0.080202739    0.0821681            3 
  626000    1.1504413   -3.4828635    603.38612  0.080322966  0.082151875            2 
  627000    1.1550878   -3.4696712    606.13513  0.080560225  0.082135287            2 
  628000    1.1342447   -3.4937073    603.99682  0.080148198  0.082118767            3 
  629000     1.148455   -3.4943273    606.22797  0.080316371  0.082102663            1 
  630000    1.1585513   -3.4823619    607.40541  0.080344631   0.08208689            2 
  631000     1.143574    -3.483141    609.43996  0.080485995  0.082069986            3 
  632000    1.1420239     -3.49148    609.01128   0.08030212  0.082054593            2 
  633000    1.1794569   -3.4868505    611.77766   0.08053945  0.082040332            2 
  634000    1.1630046   -3.4913976     611.9793  0.080438919   0.08202606            2 
  635000    1.1407913   -3.4680009    614.79524   0.08068179  0.082010803            3 
  636000    1.1241461   -3.4901257    614.49973  0.080516212   0.08199444            1 
  637000    1.1435827   -3.4665248    615.52484  0.080523919  0.081979891            2 
  638000     1.156166   -3.4839359    614.48114  0.080261382  0.081965349            2 
  639000    1.1516099   -3.4968679    617.42751   0.08052002   0.08195061            1 
  640000    1.1463558   -3.4907627     615.6486  0.080162578  0.081935047            2 
  641000    1.1439078   -3.4817652    618.19925  0.080369117  0.081920976            2 
  642000    1.1720774   -3.4852532    616.91811  0.080077637  0.081905201            1 
  643000     1.131334   -3.5033428    620.89004  0.080467864  0.081889593            2 
  644000    1.1518546   -3.4890244    620.84672  0.080337309  0.081875182            2 
  645000       1.1611   -3.5050424    621.22308   0.08026138  0.081861019            1 
  646000    1.1438042   -3.4847669    621.43671  0.080164694  0.081845897            4 
  647000    1.1637186   -3.4863964    623.15771  0.080262456  0.081832099            2 
  648000    1.1461693   -3.4578305    627.54016  0.080702181  0.081819327            2 
  649000    1.1454825   -3.5088649    623.11022  0.080009016  0.081805471            2 
  650000    1.1772175   -3.4645313     626.5079  0.080321525  0.081792139            1 
  651000    1.1448392   -3.4714979    626.73118  0.080226725  0.081778174            2 
  652000    1.1360456   -3.5064335    629.36147  0.080439861  0.081764598            1 
  653000     1.128018   -3.5327001    627.18576   0.08003902  0.081750426            4 
  654000    1.1460804   -3.4950493     628.4641  0.080079523  0.081736494            5 
  655000    1.1669836   -3.5134352    631.35904  0.080325578  0.081723012            1 
  656000    1.1613412   -3.4922257    632.33525   0.08032714  0.081709052            4 
  657000    1.1489233   -3.5171275    634.72301  0.080507738   0.08169502            2 
  658000    1.1279801   -3.5054547    633.83037  0.080272336   0.08168137            2 
  659000    1.1426144   -3.5130492    637.87529  0.080662024  0.081668769            1 
  660000     1.110321   -3.4807648    636.85284  0.080410712  0.081655242            4 
  661000    1.1505433     -3.53676    636.95749  0.080302255  0.081641524            1 
  662000    1.1286587    -3.503313    638.80536  0.080413565   0.08162959            4 
  663000    1.1421759    -3.532317    636.18757  0.079963245  0.081617135            1 
  664000     1.137273   -3.4727693    640.97718  0.080443923  0.081605143            2 
  665000    1.1479323   -3.4826885    642.55167  0.080520259  0.081591213            2 
  666000    1.1572559   -3.4908237    641.85006   0.08031157  0.081578129            2 
  667000    1.1554048   -3.4933494    640.83696  0.080064588   0.08156475            2 
  668000    1.1411127   -3.4797376    643.80908  0.080315504  0.081552057            4 
  669000    1.1395125   -3.4866564    643.49837  0.080156748  0.081538872            3 
  670000    1.1564997   -3.4703042    645.33084  0.080265029  0.081526548            3 
  671000     1.164675    -3.488451     645.3778  0.080151242   0.08151377            2 
  672000    1.1268245   -3.4996329    648.88985  0.080467491  0.081500772            2 
  673000    1.1459851   -3.4937349     649.3273  0.080402093  0.081488052            2 
  674000    1.1510107   -3.5148214    649.40608  0.080292541  0.081476636            1 
  675000    1.1268587   -3.5153292    648.96878  0.080119602  0.081464627            2 
  676000    1.1529567   -3.5005875    651.44723  0.080306611  0.081453024            2 
  677000    1.1440219   -3.4885919    651.45958  0.080189509  0.081443278            2 
  678000       1.1484   -3.5025712    654.61458  0.080459019  0.081432499            2 
  679000    1.1450539   -3.5088489    654.64276  0.080343981  0.081421725            1 
  680000    1.1394218   -3.4807869    659.33151  0.080800431  0.081412424            1 
  681000    1.1389134   -3.4938595    657.20433  0.080421479  0.081402765            1 
  682000    1.1654502   -3.4899239    658.50193  0.080462112  0.081394293            4 
  683000    1.1564356   -3.4788279     660.3749  0.080572828  0.081384145            2 
  684000     1.122458   -3.4682327    662.03469  0.080657248  0.081374919            2 
  685000    1.1496364   -3.5140839    658.92135  0.080160748  0.081365612            2 
  686000    1.1221573   -3.5054521    660.18086  0.080196898  0.081354706            1 
  687000    1.1734335   -3.4888622    662.18082  0.080322759  0.081344187            1 
  688000    1.1285581   -3.5113652    662.45919  0.080239728   0.08133473            4 
  689000    1.1352014   -3.5252154    661.12837  0.079962309  0.081324587            4 
  690000    1.1496191   -3.4888707    665.13683  0.080330535  0.081315651            1 
  691000    1.1498351   -3.4930589     667.3025  0.080475458   0.08130651            1 
  692000    1.1333007   -3.4967178    667.45349  0.080377347  0.081296934            3 
  693000    1.1417573   -3.4644739    669.38175  0.080493236  0.081286948            4 
  694000    1.1314122   -3.4599386    671.74256   0.08066073  0.081277246            2 
  695000    1.1404857   -3.4815372    667.60896  0.080049036  0.081266717            2 
  696000    1.1375787   -3.5070114    670.88477  0.080326241  0.081256845            2 
  697000    1.1631578   -3.5036716    669.60767  0.080058306  0.081246146            2 
  698000    1.1542576   -3.4862304    670.33938  0.080030967  0.081235326            2 
  699000    1.1437568   -3.4765792    676.79101  0.080685624  0.081225021            4 
  700000    1.1464541   -3.5224792     672.7237  0.080086155  0.081215226            2 
  701000    1.1380104   -3.4583694    675.53504  0.080306115  0.081205093            1 
  702000    1.1414109   -3.4906889     674.8561  0.080111123  0.081194403            1 
  703000    1.1431583   -3.4929258    673.66124  0.079855529  0.081183181            4 
  704000     1.144408   -3.4533117    679.66435  0.080452693  0.081171515            2 
  705000     1.150005   -3.5021335    675.80046  0.079881851  0.081160168            1 
  706000    1.1324234   -3.5115136    677.30352  0.079946119  0.081148228            3 
  707000    1.1627099   -3.5011211    679.08242  0.080042717   0.08113575            3 
  708000    1.1327924   -3.4763694    675.80617  0.079544041  0.081122801            4 
  709000    1.1275707   -3.4685818    680.76707  0.080014936  0.081110075            1 
  710000    1.1232854   -3.5411537    678.88185  0.079680968  0.081095991            4 
  711000    1.1441525   -3.4997546    679.91303   0.07968976  0.081080883            2 
  712000    1.1192846   -3.5071165    683.47129  0.079994299  0.081067847            2 
  713000    1.1381571   -3.4710806     682.0137  0.079711746  0.081054479            2 
  714000    1.1521186   -3.5238654    682.90718  0.079704386  0.081041351            2 
  715000    1.1407553   -3.4863049    686.01028  0.079954579  0.081028131            2 
  716000    1.1260868   -3.5175638     687.4842  0.080014455  0.081014241            2 
  717000    1.1449393   -3.4953597    686.12278  0.079744628  0.081000279            2 
  718000    1.1085096   -3.5149041    686.05919  0.079626183   0.08098676            2 
  719000    1.1425379   -3.5253588    685.95232  0.079503051  0.080972524            4 
  720000    1.1347592   -3.5097144    688.08291  0.079639226  0.080958084            2 
  721000    1.1352536   -3.5042325    689.04064  0.079639464  0.080943091            3 
  722000    1.1100253    -3.516186     688.0974  0.079420291  0.080928491            2 
  723000     1.156756   -3.5208086    689.32658  0.079452118  0.080914594            3 
  724000    1.1208817   -3.5063782     689.2948   0.07933872  0.080900718            2 
  725000    1.1547099   -3.4878656    690.54737  0.079373261  0.080885548            2 
  726000    1.1163259   -3.4913176    694.35051  0.079700472  0.080871051            2 
  727000    1.1361683   -3.5225573    691.51885  0.079266259  0.080856476            1 
  728000    1.1548794   -3.5537394     693.9876  0.079439973  0.080840982            3 
  729000    1.1283168   -3.5483392    697.24962  0.079703889  0.080826994            1 
  730000    1.1565026   -3.5154669    695.23452  0.079364672   0.08081435            3 
  731000    1.1285888   -3.4958724    699.74257  0.079770015  0.080801821            1 
  732000     1.124092   -3.5163288    702.33349  0.079955998  0.080788068            2 
  733000    1.1386234   -3.5087067    700.74421  0.079666236  0.080776382            2 
  734000      1.12984   -3.5096834    700.42746  0.079521737  0.080764106            1 
  735000    1.1453937   -3.4882436    701.62036  0.079548794  0.080750919            5 
  736000    1.1322083   -3.5004519    702.19851  0.079506171  0.080737205            3 
  737000    1.1287917   -3.5192078     699.4583  0.079088455  0.080724118            2 
  738000    1.1407731    -3.492678    706.56662  0.079783945  0.080710958            3 
  739000     1.128448   -3.5102903     705.7013  0.079578406  0.080697912            5 
  740000    1.1361466   -3.5145751     704.6152  0.079348559  0.080683751            1 
  741000    1.1126815   -3.5360111    704.13381  0.079187338  0.080668485            1 
  742000    1.1426036    -3.514119    706.39855  0.079334967  0.080654122            2 
  743000    1.1253216   -3.5041553    705.81942  0.079163237  0.080639692            4 
  744000    1.1361014   -3.5143993    702.88327  0.078727965  0.080625387            3 
  745000    1.1502233   -3.4849533    714.92458  0.079969192  0.080610991            1 
  746000     1.147823   -3.5510063    712.73269  0.079617145  0.080597323            2 
  747000    1.1614256   -3.5466273    709.15557  0.079111509  0.080583142            3 
  748000    1.1438404   -3.5223483    713.50338  0.079490127  0.080569023            5 
  749000    1.1411818   -3.5147713    710.31206  0.079028934  0.080555611            2 
  750000    1.1243334   -3.5249251    712.73655   0.07919295  0.080542379            5 
  751000    1.1336369    -3.494664    715.89016  0.079437435  0.080530108            2 
  752000    1.1045556     -3.50921    715.50619   0.07928925  0.080517028            1 
  753000    1.1336059   -3.5274812    713.89261   0.07900538  0.080504239            1 
  754000      1.12046   -3.5032401    716.50842  0.079189701  0.080490264            3 
  755000    1.1620827   -3.4951638    718.34299  0.079287306  0.080477364            3 
  756000    1.1273188   -3.5027795    720.00243  0.079365347  0.080464832            2 
  757000    1.1484044    -3.527321    718.30745  0.079073916   0.08045191            4 
  758000    1.1288406   -3.5100471    722.02763  0.079378587  0.080439793            3 
  759000    1.1479669   -3.5117755    720.47827  0.079103895  0.080426484            3 
  760000      1.13924   -3.5330034    722.48759  0.079220131   0.08041295            3 
  761000    1.1182456   -3.5033199    724.34016  0.079318896  0.080400011            3 
  762000     1.122976   -3.5227112    721.88149   0.07894592  0.080386798            3 
  763000    1.1168345   -3.4949758    725.07706  0.079191466  0.080374381            2 
  764000    1.1133871     -3.50265    725.67792  0.079153351  0.080361358            1 
  765000    1.1308346   -3.5243412    726.61202  0.079151636  0.080347081            1 
  766000    1.1031252   -3.5262135     726.0286  0.078984834   0.08033254            3 
  767000    1.1364712   -3.5097246     731.9589  0.079526174   0.08031883            2 
  768000    1.1171798   -3.5136191    730.28079  0.079240537  0.080305658            5 
  769000    1.1490435   -3.5289178    730.00405  0.079107505  0.080292872            1 
  770000     1.126462   -3.5214151    730.37325  0.079044724  0.080279355            3 
  771000    1.1154636   -3.5282277    733.69546  0.079301282  0.080267133            3 
  772000    1.1113543   -3.5345663    732.04123  0.079019995   0.08025502            2 
  773000    1.1501652   -3.5318884    733.73348  0.079100203  0.080241604            3 
  774000    1.1175268   -3.5132262    735.50801  0.079189063  0.080229537            1 
  775000    1.1242468   -3.5011018    742.92333  0.079884229  0.080217913            4 
  776000    1.1307096   -3.4964849    737.79985  0.079231084  0.080206279            1 
  777000    1.1317713   -3.5498839    738.73979  0.079229921  0.080194275            2 
  778000    1.1187025   -3.5407072    737.61421   0.07900752  0.080182479            1 
  779000    1.1287108   -3.5312877     737.6531  0.078910259  0.080170561            3 
  780000     1.126515   -3.5135527    737.30439  0.078771837  0.080158789            3 
  781000    1.1313951   -3.5097931     742.8515  0.079262857  0.080147616            2 
  782000    1.1400372   -3.5211329    740.93088  0.078956829  0.080135507            2 
  783000    1.1203083   -3.5167448     743.3462  0.079113048  0.080123334            2 
  784000    1.1224204   -3.4998953    746.17699   0.07931303   0.08011207            6 
  785000    1.1285773   -3.5583863    742.58374  0.078830546  0.080100952            2 
  786000    1.1331471   -3.5568422    743.91856  0.078871772  0.080088589            2 
  787000    1.1486578   -3.4928388    750.35749  0.079453356  0.080076916            3 
  788000    1.0987641   -3.4950546    748.07695  0.079111353  0.080065237            2 
  789000    1.1468353   -3.5165622    749.36029   0.07914663  0.080053388            2 
  790000    1.1165219   -3.5085086    753.17635  0.079448982  0.080043025            5 
  791000    1.1408519   -3.5417287    751.51671  0.079173694  0.080032653            3 
  792000    1.1174669   -3.5164311    750.96951  0.079016152  0.080021936            4 
  793000    1.1246787   -3.5312723    755.39848  0.079381934  0.080011046            2 
  794000    1.1361542   -3.5283195    753.06551  0.079037102  0.080000489            2 
  795000    1.1258447   -3.5282398    757.41648  0.079393761  0.079988911            3 
  796000    1.1211903   -3.4789994    755.64365  0.079108422  0.079977733            1 
  797000    1.1215546   -3.5366256    756.54525  0.079103434  0.079967027            1 
  798000    1.1043726   -3.5323743    756.96052  0.079047673  0.079954979            1 
  799000    1.1097335   -3.5309352    757.02803  0.078955781  0.079943939            2 
  800000    1.1202226   -3.5388498      761.472      0.07932  0.079932463            3 
  801000    1.1399347   -3.5362635    759.00548  0.078964365  0.079922037            3 
  802000    1.1306692   -3.5330191    759.88922  0.078957733   0.07991166            1 
  803000    1.1298625   -3.5065032    759.35489  0.078803953  0.079901428            1 
  804000     1.129814   -3.5045862    762.62239  0.079044609  0.079890837            1 
  805000    1.1196797    -3.533915    762.18617   0.07890126  0.079879312            2 
  806000     1.120449   -3.5386909    763.08763  0.078896571  0.079868191            3 
  807000    1.1185919   -3.5191656    768.03559  0.079309747    0.0798563            1 
  808000    1.1516131   -3.5055254    764.71726  0.078869355   0.07984463            2 
  809000    1.0753662   -3.5383671    764.27042  0.078725836    0.0798331            1 
  810000    1.1240349   -3.5359324    766.98196  0.078907609  0.079820711            7 
  811000    1.1149808   -3.5040095    764.41914  0.078546973  0.079808602            1 
  812000    1.1160175   -3.5280773    770.04374  0.079027478  0.079796525            2 
  813000    1.1050915    -3.546755    768.01177  0.078721994  0.079784116            3 
  814000     1.091222   -3.5354039    771.78128  0.079011188  0.079771402            2 
  815000    1.1309691   -3.5453084    770.98041  0.078832352  0.079759352            2 
  816000    1.1233929   -3.5342967    772.15678  0.078855881   0.07974753            2 
  817000    1.1178637   -3.5177703    770.35983  0.078576074  0.079734667            2 
  818000    1.1062815    -3.512546    775.52307  0.079006018  0.079721506            2 
  819000    1.1011655   -3.5425846    769.00226  0.078246058  0.079707399            2 
  820000    1.1153321   -3.4971959    777.16914  0.078980603  0.079693744            1 
  821000    1.1432109   -3.5252954    771.66761  0.078325986  0.079680542            2 
  822000    1.1105152   -3.4881378    775.15597  0.078584344  0.079667652            3 
  823000    1.1267017   -3.5221079    778.93704  0.078871714  0.079655234            3 
  824000    1.1224246    -3.557688    776.70517   0.07855028  0.079641475            2 
  825000    1.1119919   -3.5170369    779.19639  0.078706706  0.079628828            4 
  826000    1.1204586   -3.5549623    777.14174  0.078404131   0.07961625            2 
  827000    1.1146929   -3.5063342    781.18639  0.078716888  0.079602496            1 
  828000     1.123043   -3.5326196    778.30739  0.078332064  0.079589634            4 
  829000    1.1247765   -3.5020665    779.33296  0.078340667  0.079577164            1 
  830000    1.1042631   -3.5281323    782.62217  0.078576523   0.07956485            2 
  831000    1.1140087   -3.5366209    780.91012  0.078310281   0.07955134            3 
  832000    1.1057101   -3.5207965    781.84311  0.078309606  0.079537836            1 
  833000     1.128798   -3.4994867    785.38375  0.078569803  0.079523962            2 
  834000    1.1610535   -3.5230356     784.4515  0.078382444  0.079510389            2 
  835000    1.1342916   -3.5482126    788.21823  0.078664494  0.079496052            2 
  836000    1.1228464    -3.565693    784.52839  0.078202591  0.079482728            2 
  837000    1.1170306   -3.5003096    788.82874   0.07853731     0.079469            1 
  838000    1.1183987   -3.5506867    785.23255  0.078085974   0.07945544            1 
  839000    1.1510443   -3.5357633    789.60791  0.078427484  0.079441831            2 
  840000    1.1277196   -3.5330141    789.54378  0.078327756  0.079429284            1 
  841000    1.1103519    -3.546084    788.12389  0.078093925  0.079416467            1 
  842000    1.1294466    -3.536943    791.96075  0.078380914    0.0794032            1 
  843000    1.1225795   -3.5359886    793.35128  0.078425393  0.079390826            3 
  844000    1.1262184    -3.541469    794.50591  0.078446476  0.079378022            3 
  845000    1.1067517   -3.5780419    795.99682  0.078500673  0.079365484            1 
  846000    1.1053177   -3.5240784    796.62028  0.078469295  0.079353099            3 
  847000    1.1136612   -3.5516555    797.41094  0.078454441  0.079341798            4 
  848000    1.0985991   -3.5548982    796.01634  0.078224876  0.079330008            2 
  849000    1.1390487   -3.5281621    797.81098  0.078308891  0.079317296            1 
  850000    1.1295903   -3.5597065    802.44689  0.078671263  0.079304883            3 
  851000    1.1334041   -3.5317969    799.17892  0.078258805  0.079292166            2 
  852000    1.1008744   -3.5390176     799.6728  0.078215258  0.079278933            3 
  853000    1.1020476   -3.5250464    800.21682  0.078176711  0.079265524            1 
  854000    1.1016946   -3.5566106    798.34171  0.077902197  0.079252109            1 
  855000    1.1167863   -3.5251064    801.70738  0.078139121  0.079238891            2 
  856000    1.1528033   -3.5162076    803.74384   0.07824609  0.079225362            1 
  857000    1.1100084   -3.5188717    806.97777   0.07846925  0.079211748            2 
  858000    1.1048335   -3.5451048    802.62632  0.077955159  0.079198718            1 
  859000    1.0825994   -3.5153122    802.76362  0.077877728  0.079185062            3 
  860000    1.0958315   -3.5508425    805.82397  0.078083718  0.079170752            2 
  861000    1.1036553   -3.5139559    803.67693  0.077785223  0.079157383            4 
  862000    1.1135269   -3.5405454     807.3554  0.078050599  0.079143883            3 
  863000    1.0920891    -3.551304    809.53187  0.078170323   0.07913056            4 
  864000    1.0948514   -3.5661645    807.23129  0.077857956  0.079116426            1 
  865000    1.1225114   -3.5251821     807.3699    0.0777813  0.079102671            2 
  866000    1.1470768   -3.5435783    812.53605  0.078188612  0.079088364            2 
  867000    1.1121117   -3.5496445    812.70962  0.078115111  0.079074351            2 
  868000    1.1004269   -3.5552326    810.08337  0.077772981  0.079060342            1 
  869000    1.1255224   -3.5444202    813.04825  0.077967803  0.079047052            2 
  870000    1.0891501   -3.5575601    814.47649  0.078014989  0.079033094            2 
  871000    1.1183153   -3.5445012    810.85749  0.077579171  0.079019383            1 
  872000    1.0995782   -3.5557141     811.2909  0.077531623  0.079005732            1 
  873000    1.0972509   -3.5428035     814.9302  0.077790206  0.078991201            1 
  874000    1.1007572   -3.5398302    816.13809   0.07781637  0.078977441            6 
  875000    1.1285326   -3.5168626    820.23102   0.07811724  0.078963295            3 
  876000    1.0912428   -3.5302471    821.18814  0.078119115  0.078949775            2 
  877000    1.1160813   -3.5523024    820.75716  0.077989088  0.078936683            1 
  878000    1.1365791   -3.5105546    820.20718  0.077848062  0.078923338            1 
  879000    1.1270843   -3.5763209    821.03395  0.077837879  0.078910118            3 
  880000    1.0929062   -3.5222736    826.04891  0.078224329  0.078897189            4 
  881000    1.1047359   -3.5356653    824.54016  0.077992826  0.078883986            2 
  882000    1.1321865   -3.5545167    822.09131  0.077673026  0.078870995            3 
  883000    1.1193084   -3.5471275    823.07596  0.077677988  0.078857323            4 
  884000    1.0997797   -3.5531183    824.00319  0.077677526  0.078843628            4 
  885000     1.078946   -3.5405307    826.41426  0.077816785  0.078829855            2 
  886000    1.1109325   -3.5403636    826.12717  0.077701953  0.078816828            2 
  887000    1.1056298   -3.5131291    829.61963  0.077942468  0.078802931            3 
  888000    1.1121339    -3.529407    829.21198   0.07781644  0.078789451            3 
  889000    1.1131109   -3.5393293    832.79313  0.078064598  0.078776554            2 
  890000    1.0949367   -3.5683393    826.37848  0.077376262  0.078764491            3 
  891000    1.1167343   -3.5607585    831.50209   0.07776862   0.07875269            3 
  892000    1.1398024   -3.5351875    832.83134  0.077805618  0.078741389            1 
  893000     1.110816   -3.5603013     833.4214  0.077773554  0.078729965            2 
  894000    1.0972856   -3.5736596    832.63573  0.077613323  0.078718191            2 
  895000    1.0949799   -3.5120372     835.9107  0.077831536  0.078705887            2 
  896000    1.1339474   -3.5524298    836.66279  0.077814619  0.078693967            2 
  897000    1.1053988   -3.5158274    842.15599  0.078238201  0.078683232            1 
  898000    1.0962623   -3.5278288     834.3518  0.077426856  0.078671676            2 
  899000    1.1209449   -3.5581814    841.30445  0.077985211  0.078660264            2 
  900000    1.1003669   -3.5468925    843.36054  0.078088939   0.07864925            3 
  901000    1.0954858   -3.5402725    843.84118  0.078046724  0.078638738            3 
  902000     1.117976   -3.5731244     841.0937  0.077706365  0.078626612            3 
  903000    1.0957384   -3.5688021    842.90371  0.077787349  0.078614768            2 
  904000    1.1125874   -3.5639278    842.69093  0.077681686  0.078602847            1 
  905000    1.1232523   -3.5714841    842.38802  0.077567958  0.078590426            2 
  906000    1.0938507   -3.5430082    843.32941   0.07756893  0.078578174            1 
  907000    1.0968102   -3.5352061    846.03802   0.07773227  0.078565163            1 
  908000    1.0928099   -3.5716509    844.33373  0.077490247  0.078551329            1 
  909000    1.1216704    -3.523732    844.78079  0.077445984  0.078538481            2 
  910000    1.1208557   -3.5408795    850.52983  0.077887347  0.078525398            5 
  911000    1.1050252   -3.5559512    848.37191  0.077604455  0.078512492            1 
  912000    1.0882398    -3.556455    848.98335  0.077575233  0.078498997            2 
  913000    1.1153269   -3.5630403    847.23492  0.077330679  0.078485376            2 
  914000    1.0786954    -3.531212    852.73598  0.077747628  0.078471778            2 
  915000    1.1167149   -3.5467567    851.07772  0.077511632  0.078457967            3 
  916000    1.1040433    -3.558771    849.65272  0.077297373  0.078444541            3 
  917000     1.124864   -3.5676231    850.40279  0.077281242  0.078429956            3 
  918000    1.1245761   -3.5655705     850.1167  0.077171088  0.078415165            6 
  919000    1.0677197   -3.5357668     850.2143  0.077095965  0.078400681            2 
  920000    1.0755505   -3.5717384    851.67603  0.077144568  0.078385968            2 
  921000    1.0987797   -3.5528554    854.71122  0.077335435  0.078371752            3 
  922000    1.0997022   -3.4939707    857.79471  0.077530252  0.078358546            1 
  923000    1.1117498   -3.5594488    859.53055  0.077602975  0.078345256            3 
  924000    1.1270239   -3.5437752    858.00571  0.077381467  0.078331784            4 
  925000    1.1055584   -3.5448725    859.22775  0.077407905  0.078319363            5 
  926000    1.1081691    -3.543047    859.28438  0.077329408  0.078306446            5 
  927000     1.095596   -3.5502051    861.93583  0.077484343  0.078293058            2 
  928000    1.1026749   -3.5712355    861.53456  0.077364813  0.078280292            2 
  929000    1.1020568   -3.5392764    861.62488  0.077289638  0.078267284            2 
  930000    1.1280545   -3.5362782    865.69277  0.077571037  0.078254478            2 
  931000    1.0880474    -3.562183    863.27019  0.077270873  0.078240934            2 
  932000    1.0952877   -3.5667594    861.63894  0.077042108  0.078227324            2 
  933000    1.0730871   -3.5827744     863.3301  0.077110584  0.078213075            2 
  934000    1.1292015   -3.5534956    861.76843  0.076888689  0.078199695            3 
  935000    1.0838184   -3.5446043    866.04401  0.077187523  0.078185995            1 
  936000    1.1079252   -3.5441391    866.78612  0.077171129  0.078171286            2 
  937000    1.0851528   -3.5624643    863.97223  0.076838512  0.078156955            1 
  938000     1.132713   -3.5859172    861.90984  0.076573369  0.078142322            1 
  939000    1.1220023   -3.5643331    866.73433  0.076919979  0.078128735            2 
  940000    1.0990984   -3.5586308     868.4731  0.076992296     0.078115            1 
  941000    1.1201016    -3.527004     869.6833   0.07701765  0.078100727            2 
  942000    1.0796965   -3.5424382    868.67264  0.076846483  0.078085589           11 
  943000    1.1032228   -3.5724902    869.12874  0.076805297  0.078070608            3 
  944000    1.1157962   -3.5564396    870.86161  0.076876907  0.078055701            1 
  945000    1.0740388   -3.5394892    874.04402  0.077076192  0.078041476            2 
  946000    1.0821507   -3.5623064    870.40726  0.076674353  0.078026605            2 
  947000    1.1175423   -3.5677635    868.53051   0.07642824   0.07801167            2 
  948000    1.1019479   -3.5322941     873.8251  0.076813036  0.077995969            2 
  949000    1.1084624   -3.5821253    871.28018  0.076508621  0.077980264            2 
  950000    1.1153211    -3.595355    873.95621  0.076662826  0.077964948            2 
  951000    1.1125608    -3.567898    877.64976  0.076905868  0.077949451            1 
  952000    1.1251067   -3.5569021     878.6376  0.076911555  0.077933516            3 
  953000    1.0858759   -3.5401695    876.64941  0.076656996  0.077918834            3 
  954000    1.1057363   -3.5532677    878.00688   0.07669522  0.077902786            2 
  955000    1.0994689   -3.5550225    875.43167  0.076390198  0.077887657            3 
  956000    1.0756853    -3.556654     874.3643  0.076217251  0.077872157            2 
  957000    1.0968444   -3.5646119     877.9151  0.076446804  0.077856116            2 
  958000    1.1102464     -3.51821    882.06125  0.076727666  0.077840427            1 
  959000    1.1145145   -3.5834001    881.62452  0.076609708  0.077824639            1 
  960000    1.1017651   -3.5870213    878.46252  0.076255427   0.07780917            2 
  961000     1.084381   -3.5403416    881.47627  0.076437415   0.07779315            2 
  962000    1.0910276   -3.5724015    880.06092  0.076235353  0.077777705            1 
  963000    1.1106007   -3.5657522    883.35165  0.076440953  0.077761569            3 
  964000    1.1000868   -3.5469473    884.54387  0.076464719  0.077745955            2 
  965000    1.0996009   -3.5388438    889.94464  0.076851869  0.077730586            2 
  966000    1.0990416   -3.5585941    883.73898  0.076236972   0.07771509            3 
  967000    1.0906947   -3.5409312    885.99429  0.076352489  0.077700038            3 
  968000    1.1028712    -3.579254     886.8883  0.076350577  0.077684745            5 
  969000     1.065201   -3.5455912     885.2914  0.076134451  0.077669214            3 
  970000    1.0942999   -3.6108407    886.04327  0.076120556  0.077652811            4 
  971000    1.0937232   -3.5768581    888.81348  0.076279907    0.0776364            2 
  972000    1.1402432   -3.5503041    887.58185  0.076095837  0.077619511            1 
  973000    1.0819776   -3.5227688    886.09686  0.075890447  0.077602682            2 
  974000    1.1017915   -3.5555172    891.77396  0.076298251  0.077586179            1 
  975000    1.0991999   -3.5615776    892.70581  0.076299642  0.077569382            1 
  976000    1.0950513   -3.5631949    893.93645  0.076326541  0.077553162            2 
  977000    1.0944865   -3.5544712    895.40968  0.076374077  0.077536679            4 
  978000    1.0898781   -3.5585397    892.62115   0.07605838  0.077520844            3 
  979000    1.1071279    -3.547363    897.54293  0.076399637   0.07750387            5 
  980000     1.089521   -3.5769367    890.14619  0.075692703  0.077487923            3 
  981000    1.1144055   -3.5572901    897.34165  0.076226779  0.077471615            2 
  982000    1.0811117   -3.5627776    893.78163  0.075847049  0.077455126            3 
  983000    1.0810044   -3.5924977    894.42736  0.075824632   0.07743818            2 
  984000     1.093987   -3.6064757    896.12655  0.075891476  0.077421672            3 
  985000     1.102717    -3.551387    901.07806  0.076233338   0.07740627            1 
  986000     1.114871   -3.5430242    905.73848  0.076549906  0.077390828            5 
  987000     1.082832   -3.5707821    900.83475  0.076058321  0.077375356            1 
  988000    1.0796621   -3.5513879    903.52267  0.076208052  0.077359506            1 
  989000    1.0978127   -3.5972064    900.96676  0.075915636  0.077344245            2 
  990000    1.0943857   -3.5801374    903.52712  0.076054471  0.077328726            1 
  991000    1.0737854   -3.5353547     906.4802  0.076226051  0.077313775            2 
  992000    1.0915838   -3.5552747    904.21687  0.075959079  0.077298639            3 
  993000    1.0644036   -3.5610301    905.50127  0.075990372  0.077283497            5 
  994000    1.1108133   -3.5712284     910.9686  0.076372284  0.077268708            4 
  995000    1.0670712   -3.5882179    909.12723  0.076141309  0.077254778            2 
  996000    1.0955416   -3.5968596    908.77821   0.07603566  0.077240163            3 
  997000    1.0923591   -3.6076914    912.06642  0.076234237  0.077226287            2 
  998000    1.0961786   -3.5666014    917.25881  0.076591417  0.077212562            5 
  999000    1.1115202   -3.5360003    919.27007  0.076682522   0.07719912            3 
 1000000    1.0958219   -3.5846986    917.31407  0.076442839  0.077186651            2 
 1001000    1.0824399    -3.549536    920.31723  0.076616486  0.077173828            2 
 1002000    1.0967905   -3.5786599    917.24598  0.076284596  0.077161207            1 
 1003000    1.1128166   -3.5808685    919.48148  0.076394274  0.077147909            3 
 1004000    1.0838944   -3.5604214    920.59974  0.076411001  0.077135044            2 
 1005000    1.0797139   -3.5590319    922.41242  0.076485276  0.077122538            2 
 1006000    1.0713428   -3.5899041    921.76735  0.076355811  0.077109043            5 
 1007000    1.1102132   -3.5719566    921.25154  0.076237301  0.077096095            1 
 1008000    1.0796021   -3.5647972    922.58606  0.076271995  0.077083345            2 
 1009000    1.1077254   -3.5536501    924.28196  0.076336469  0.077070153            2 
 1010000    1.0970495   -3.5782996    924.47979   0.07627721  0.077056846            2 
 1011000    1.0572592   -3.5537788    926.14634  0.076339131  0.077043852            2 
 1012000     1.104542   -3.5580349    926.23342  0.076270868  0.077030685            2 
 1013000    1.0787097   -3.5526042    924.65131  0.076065425  0.077017434            4 
 1014000    1.0907341   -3.5543933    927.84912  0.076253215  0.077004468            2 
 1015000    1.0921302   -3.5600785    929.47871  0.076311881  0.076991539            1 
 1016000    1.0814097   -3.5717325    928.98932  0.076196631  0.076977902            4 
 1017000    1.0877188   -3.5562758    930.59081  0.076252934  0.076964652            2 
 1018000    1.0911725   -3.5741075    933.18365  0.076390279  0.076952441            6 
 1019000    1.0872174   -3.5957132     929.2222  0.075991347  0.076939006            3 
 1020000    1.1024585   -3.5768676    932.56468  0.076189925  0.076925523            3 
 1021000    1.0848917    -3.564359    933.67408   0.07620585  0.076912256            2 
 1022000    1.0698588    -3.576947    928.87398  0.075739888  0.076898485            2 
 1023000     1.098742   -3.5811134    932.80871  0.075986373  0.076885541            1 
 1024000    1.1104872    -3.580386    931.96826  0.075843771  0.076872005            6 
 1025000    1.0975788   -3.5597241    931.34501  0.075719106  0.076858164            1 
 1026000    1.0876774   -3.5532673    932.97845  0.075777976  0.076844748            3 
 1027000    1.0873776   -3.5824277    935.63575  0.075919811  0.076831077            3 
 1028000    1.0792064   -3.6069796    934.65191  0.075766206  0.076818106            2 
 1029000     1.092267    -3.561477    938.28444  0.075986754  0.076805123            1 
 1030000    1.0861219   -3.5770625    940.43665  0.076087108  0.076792195            2 
 1031000    1.0962111   -3.6511282    938.17908  0.075830834  0.076779063            3 
 1032000    1.0781364   -3.6173047    941.27866  0.076007643  0.076765457            3 
 1033000    1.0742529   -3.5822817    937.07073  0.075594606  0.076752046            1 
 1034000    1.1024209    -3.563121    944.48893  0.076119353  0.076738775            3 
 1035000    1.0775026   -3.6010009    942.81687  0.075911181  0.076725208            2 
 1036000    1.1055979   -3.5797709     945.5466   0.07605748  0.076712771            2 
 1037000    1.1028341   -3.5712954    946.28091  0.076043146   0.07670001            3 
 1038000    1.0699378   -3.5889931    944.93372  0.075861731  0.076686908            2 
 1039000    1.0666576   -3.5852452    946.47783  0.075912563  0.076673463            1 
 1040000    1.0905439   -3.5881506    942.62419  0.075530785  0.076659624            4 
 1041000    1.0492664   -3.6086355    945.85576   0.07571692  0.076645514            3 
 1042000    1.0940337   -3.5686819     949.3361  0.075922593  0.076631144            1 
 1043000     1.104187   -3.5894926    945.53101  0.075545782  0.076616721            3 
 1044000    1.0913044   -3.5642677    947.75765  0.075651153  0.076601964            2 
 1045000     1.092633   -3.5528998    950.93376  0.075832038  0.076587998            2 
 1046000    1.0655228   -3.5843628    947.98286  0.075524447  0.076574203            5 
 1047000    1.0716672   -3.5844162    949.38218  0.075563689  0.076560499            3 
 1048000    1.1089221    -3.584867    952.98431  0.075778015  0.076546955            3 
 1049000    1.0786992   -3.5978236    957.50138  0.076064616  0.076534049            3 
 1050000    1.0815978   -3.6075916    951.62045  0.075525433  0.076520634            2 
 1051000    1.0858378    -3.578002    958.39916  0.075991053  0.076507839            1 
 1052000    1.0690587   -3.5631748    959.12125  0.075976018  0.076494882            3 
 1053000    1.1150139   -3.5946132    953.23336  0.075437904  0.076481744            5 
 1054000    1.0858898   -3.5999913    953.79113  0.075410431  0.076468306            4 
 1055000     1.064698   -3.5868502    959.91006   0.07582228  0.076455026            3 
 1056000    1.0976835   -3.5762109    960.40117  0.075789233  0.076441887            2 
 1057000    1.0872008   -3.5911558    959.84614  0.075673773  0.076428736            3 
 1058000    1.0813827   -3.6143595    957.72155  0.075434905  0.076415729            1 
 1059000    1.0995426   -3.5673742    964.33738  0.075884276   0.07640344            3 
 1060000    1.0908927   -3.5663087    971.09029  0.076343576  0.076391573            2 
 1061000    1.0722777   -3.5993611    960.24697  0.075419963  0.076379877            1 
 1062000    1.0885696   -3.5807909    963.41524  0.075597555  0.076367797            1 
 1063000    1.0995226    -3.601112    965.72611  0.075707597   0.07635664            2 
 1064000    1.0878815   -3.5624688    968.17078  0.075827912  0.076344742            3 
 1065000    1.0757005   -3.6021329     967.6759  0.075717989  0.076332231            3 
 1066000    1.0842112   -3.5994692    968.37601  0.075701689  0.076320213            4 
 1067000    1.0704167   -3.5796105    967.36365  0.075551675  0.076308359            2 
 1068000    1.0700911   -3.5810337     968.3144  0.075555119  0.076296128            3 
 1069000    1.0781087   -3.5646166    973.78578  0.075910959  0.076284158            2 
 1070000    1.0714613   -3.6109323    971.60569  0.075670225  0.076272139            2 
 1071000    1.0766645   -3.5614432     968.1335  0.075329404  0.076259778            2 
 1072000    1.0521806   -3.6095871    973.88471  0.075706212  0.076246882            1 
 1073000    1.0580858   -3.5776937    971.01243  0.075412584  0.076235008            4 
 1074000    1.0797922   -3.5916213    972.31496  0.075443433  0.076223375            2 
 1075000    1.0991909   -3.5946969    975.60636    0.0756284  0.076211334            2 
 1076000    1.1035071   -3.5534289    975.65875  0.075562171  0.076199673            3 
 1077000    1.1060636   -3.5633536    978.96218  0.075747616  0.076187831            2 
 1078000    1.0842813   -3.5601508    983.18079  0.076003462  0.076176279            2 
 1079000    1.0904937   -3.5817716    977.95569  0.075529479  0.076164706            2 
 1080000    1.0794199   -3.5937527    981.44165  0.075728522  0.076153012            3 
 1081000    1.0710156   -3.6053122    982.74489  0.075758934  0.076141307            2 
 1082000    1.0656393   -3.5733253    981.74603  0.075611986  0.076129784            2 
 1083000    1.0963842   -3.5793577    979.16724  0.075343739  0.076118472            3 
 1084000       1.0666   -3.5601103    983.55278  0.075611376  0.076107025            3 
 1085000    1.0881153   -3.5883657    981.37055  0.075374082  0.076095728            1 
 1086000    1.0717351   -3.6061559    984.47746  0.075543083  0.076084028            5 
 1087000    1.0791986   -3.5784738     986.2078   0.07560624  0.076072166            1 
 1088000    1.0844218   -3.5747656    989.80828  0.075812521  0.076061222            3 
 1089000    1.0886262   -3.5565454    985.81785  0.075437546  0.076050004            2 
 1090000    1.0813828   -3.5772495    988.41559  0.075566941  0.076038404            2 
 1091000    1.0766871   -3.6173148    985.82651  0.075299917  0.076026469            2 
 1092000    1.0882566   -3.5868349    989.53006  0.075513588  0.076013859            4 
 1093000    1.0958124     -3.56316    989.54264  0.075445459  0.076002196            2 
 1094000    1.0761302   -3.6271684    989.39868   0.07536553  0.075990888            3 
 1095000     1.072109   -3.6026916    990.18854  0.075356815  0.075979597            2 
 1096000    1.0871897   -3.5883508    996.78747  0.075789801   0.07596832            4 
 1097000    1.0928059   -3.5529682    997.34363  0.075762961  0.075957003            1 
 1098000    1.0610578   -3.6104457    993.28256  0.075385744  0.075945271            5 
 1099000    1.0534278    -3.613089    991.99481  0.075219503  0.075933016            2 
 1100000    1.0870747   -3.5789526    992.82824  0.075214261  0.075920963            3 
 1101000    1.0872697   -3.5987951    996.63499  0.075434074  0.075909644            3 
 1102000    1.0699279   -3.5876045    997.72389  0.075447965  0.075897338            2 
 1103000     1.081485   -3.5597461    998.55141  0.075442083  0.075885126            2 
 1104000    1.0669761   -3.5716501    997.57462  0.075300017   0.07587343            2 
 1105000     1.073268   -3.6020832    1002.5857  0.075609784  0.075861573            7 
 1106000    1.0740178   -3.5546599    1000.2579  0.075366027  0.075849707            1 
 1107000    1.1041239   -3.6018642    1001.1536  0.075365373  0.075838671            1 
 1108000    1.0950125   -3.6058096    1003.9631  0.075508657  0.075827095            1 
 1109000    1.0731388   -3.6311983    1003.0015  0.075368313  0.075814926            2 
 1110000    1.0792753   -3.5912893    1001.6526  0.075199145  0.075802131            3 
 1111000    1.0856703   -3.6017394     1001.169  0.075095188  0.075789863            4 
 1112000    1.0602711   -3.5822006    1002.3003  0.075112434  0.075777933            3 
 1113000    1.1019536   -3.6090399    1002.2879  0.075044016  0.075765798            2 
 1114000    1.0685477   -3.6082531    1001.4215  0.074911844  0.075752939            2 
 1115000    1.0559626   -3.5864018    1000.5963  0.074782985  0.075739795            2 
 1116000    1.0846348   -3.5933607    1004.5892  0.075014125  0.075727305            4 
 1117000     1.091337   -3.6043011    1004.1384  0.074913336  0.075714986            2 
 1118000    1.0726568    -3.598218    1004.7167   0.07488944  0.075702834            2 
 1119000    1.0556275   -3.6071536    1007.5019  0.075029929  0.075690479            3 
 1120000    1.0618783   -3.6156854    1006.0689  0.074856314  0.075678016            2 
 1121000    1.0812291   -3.5851815     1007.252  0.074877492  0.075665486            2 
 1122000    1.0614249   -3.5737732    1011.2078   0.07510456  0.075652956            3 
 1123000    1.0633941   -3.6085107    1013.9161   0.07523865  0.075640547            1 
 1124000    1.0675945   -3.6129161    1012.8822  0.075095063  0.075628922            3 
 1125000    1.0488438   -3.5779103    1016.4121  0.075289784  0.075617176            2 
 1126000    1.0868805   -3.6154517    1016.0868  0.075198844  0.075604672            3 
 1127000    1.0458875   -3.5872518    1015.4406  0.075084338  0.075592719            2 
 1128000    1.0743631   -3.6022175    1012.3037  0.074786027  0.075580933            2 
 1129000    1.0712329   -3.5934596    1016.3614  0.075019291   0.07556823            3 
 1130000    1.0748659   -3.6152414    1019.5337  0.075186853  0.075556018            2 
 1131000     1.075509   -3.5928556    1020.5238  0.075193323  0.075544835            2 
 1132000    1.0695629   -3.5926285    1019.5022  0.075051694  0.075533069            3 
 1133000    1.0441384   -3.5989329    1021.9415  0.075164865  0.075521191            2 
 1134000    1.0403538   -3.6136745    1020.8283  0.075016776  0.075510003            2 
 1135000    1.0642378   -3.5680868    1022.6113  0.075081592  0.075498181            2 
 1136000    1.0725568   -3.5682036     1024.664  0.075166083  0.075487371            2 
 1137000    1.0592519   -3.5854608    1027.7203  0.075323971  0.075476272            2 
 1138000    1.0526432     -3.58424    1028.0803  0.075284145   0.07546573            2 
 1139000    1.0448133   -3.6120828     1028.365  0.075238882  0.075455166            3 
 1140000    1.0790412   -3.6146418    1027.3513  0.075098782   0.07544431            1 
 1141000    1.0596896   -3.5532577    1026.6069  0.074978595  0.075433733            4 
 1142000    1.0616354   -3.6249559    1026.7608  0.074924168  0.075423113            9 
 1143000    1.0696855   -3.5976925    1033.1242   0.07532256  0.075412066            1 
 1144000    1.0382656   -3.6364555    1027.3309   0.07483471  0.075400254            3 
 1145000    1.0792455   -3.5916765    1038.9885  0.075617794  0.075389682            1 
 1146000    1.0549217   -3.5989607    1032.7142  0.075095563  0.075379478            4 
 1147000    1.0560744   -3.5916535     1032.919  0.075044971  0.075368797            2 
 1148000    1.0773217   -3.6124611    1031.4351  0.074871886  0.075358201            3 
 1149000    1.0857764   -3.5912574    1034.9456  0.075061328  0.075346748            5 
 1150000    1.0834211     -3.61497    1032.5198  0.074820273  0.075335414            2 
 1151000    1.0647282   -3.6036576    1036.7612  0.075062349  0.075324183            3 
 1152000    1.0649639   -3.6143576    1036.6269  0.074987476  0.075313533            3 
 1153000    1.0502451   -3.5817665     1038.669  0.075070038  0.075302772            2 
 1154000    1.0906707   -3.6170305    1036.1467  0.074822839  0.075291272            3 
 1155000    1.0915188    -3.606561    1039.3678  0.074990461  0.075280084            2 
 1156000    1.0829746   -3.6189129    1040.6635  0.075018994  0.075269064            5 
 1157000    1.0514839   -3.6000912    1039.3645  0.074860598  0.075257482            2 
 1158000    1.0672963   -3.6010456    1038.4685  0.074731472  0.075246191            2 
 1159000    1.0368591   -3.6115657    1037.2982  0.074582847  0.075234741            1 
 1160000    1.0582471   -3.6201054    1042.9736  0.074926264  0.075223823            2 
 1161000    1.0678318   -3.5949882    1042.3024  0.074813552   0.07521288            3 
 1162000    1.0844915   -3.6491087     1041.791  0.074712493  0.075202017            3 
 1163000    1.0609601   -3.5864552    1051.9566  0.075376653  0.075191317            1 
 1164000    1.0732005   -3.6046821    1044.2596  0.074760852  0.075181052            1 
 1165000    1.0507473   -3.5966588    1048.6319  0.075009433  0.075170786            1 
 1166000    1.0624674   -3.6005965    1047.2828  0.074848686  0.075160547            2 
 1167000    1.0635964   -3.5956374    1048.5402  0.074874333  0.075149635            2 
 1168000    1.0844042   -3.5915648    1047.2607  0.074718941   0.07513827            2 
 1169000    1.0646561   -3.6186929    1047.2897   0.07465709  0.075126646            3 
 1170000    1.0651449   -3.6135802    1046.5718  0.074542152  0.075115089            2 
 1171000    1.0599787   -3.6272396    1048.2011  0.074594445  0.075103517            3 
 1172000     1.074782   -3.6287425    1049.3471  0.074612282    0.0750916            1 
 1173000    1.0554794   -3.6026728    1045.6997   0.07428955  0.075079775            1 
 1174000    1.0676275   -3.6215616    1049.1825  0.074473488  0.075067667            3 
 1175000    1.0561482   -3.6181841    1052.0443  0.074613074  0.075055591            1 
 1176000     1.058548   -3.6001034    1054.9953  0.074758735  0.075043486            2 
 1177000    1.0766386   -3.6089805    1053.2671   0.07457286  0.075031449            4 
 1178000    1.0697228   -3.6028961     1053.854  0.074551077  0.075019597            3 
 1179000    1.0627778    -3.595505    1060.1346  0.074931764  0.075007768            3 
 1180000    1.0482548   -3.6134949    1055.5454  0.074544164  0.074996426            6 
 1181000    1.0555843   -3.6165935    1055.5977  0.074484737  0.074984207            1 
 1182000    1.0490889    -3.620144    1058.5339  0.074628728  0.074972005            7 
 1183000    1.0611403   -3.5790257    1058.2912  0.074548547   0.07496033            3 
 1184000    1.0716693   -3.6073198     1058.359  0.074490361  0.074948294            4 
 1185000    1.0726109   -3.6080921    1059.7038  0.074522067   0.07493623            3 
 1186000    1.0784275   -3.6077194    1058.3616  0.074364924  0.074924047            1 
 1187000    1.0566064   -3.5900621    1058.8734  0.074338207  0.074911648            1 
 1188000       1.0632   -3.5796258    1063.1083  0.074572692  0.074899224            2 
 1189000    1.0642848   -3.6042558    1057.7595  0.074135092  0.074886896            2 
 1190000    1.0517687   -3.5970602    1061.6002  0.074341753  0.074874544            2 
 1191000    1.0724507   -3.5804643    1065.0257  0.074519012  0.074862445            2 
 1192000    1.0649665   -3.6198968    1062.8382  0.074303564  0.074850494            8 
 1193000    1.0621948   -3.6010751    1064.7204  0.074372754  0.074838485            2 
 1194000    1.0571411   -3.6494328    1061.7104  0.074100388  0.074825688            5 
 1195000    1.0437933     -3.62026    1060.4075  0.073947522  0.074812652            1 
 1196000    1.0397537   -3.6185154    1062.0258  0.073998454   0.07479967            3 
 1197000    1.0707776   -3.6163707    1066.3787  0.074239679  0.074786509            3 
 1198000    1.0857927     -3.64101     1059.675  0.073711397  0.074772894            2 
 1199000    1.0541579   -3.6017143    1066.8514  0.074148693  0.074759303            3 
 1200000     1.045739   -3.5879292    1064.3486    0.0739131  0.074746022            3 
 1201000    1.0176724   -3.6154753    1063.3359   0.07378129  0.074732788            6 
 1202000     1.059629   -3.6181601    1068.5638   0.07408235  0.074718897            2 
 1203000    1.0498084   -3.5824893    1067.3702  0.073938086  0.074705462            1 
 1204000    1.0638124   -3.6044467    1067.8723  0.073911429  0.074691925            2 
 1205000    1.0507012   -3.6250058    1067.7356  0.073840635   0.07467865            4 
 1206000    1.0621533   -3.5981841    1064.5963  0.073562487  0.074664792            1 
 1207000    1.0557228   -3.6052808    1068.1102  0.073744148  0.074651403            2 
 1208000    1.0716838   -3.6163322     1068.199  0.073689224  0.074638145            2 
 1209000    1.0711321   -3.6518781    1072.2254  0.073905804  0.074624406            2 
 1210000    1.0822357   -3.6285596    1067.4543  0.073516137   0.07461153            1 
 1211000    1.0660848   -3.6583126    1073.7082  0.073885782  0.074597983            4 
 1212000     1.047979   -3.6231188    1071.1759  0.073650706  0.074584149            2 
 1213000    1.0410491   -3.6248187    1078.2322  0.074074763  0.074571191            3 
 1214000    1.0584861    -3.606895    1074.3878  0.073749849  0.074558596            4 
 1215000    1.0492328   -3.6385695    1073.5823  0.073633905  0.074545839            5 
 1216000    1.0517925   -3.5885339    1082.5805  0.074190004  0.074532584            1 
 1217000     1.053501   -3.6066021    1078.9935  0.073883425  0.074520133            4 
 1218000    1.0337465   -3.6123044    1080.8948  0.073952847  0.074507105            1 
 1219000    1.0521802   -3.6215959    1078.4172  0.073722807  0.074494773            2 
 1220000     1.042321   -3.6325891    1078.1556  0.073644511  0.074482033            2 
 1221000    1.0763374   -3.5780257    1084.8892  0.074043764  0.074469329            2 
 1222000    1.0752683   -3.6201484    1079.8233  0.073637702  0.074456888            4 
 1223000    1.0589186    -3.636185    1081.6699  0.073703317   0.07444467            3 
 1224000    1.0527474   -3.6557567    1082.9493  0.073730209  0.074431777            4 
 1225000    1.0511927   -3.6225318     1085.446  0.073839867  0.074418665            3 
 1226000    1.0400635   -3.6166039    1084.2845  0.073700684  0.074405414            2 
 1227000    1.0618103   -3.6394334    1084.8838  0.073681325  0.074392586            3 
 1228000    1.0697355   -3.6416852    1085.3874  0.073655498  0.074379641            1 
 1229000    1.0526555   -3.6784929    1080.6374  0.073273485   0.07436593            2 
 1230000    1.0683415   -3.6116394    1085.1632  0.073520545   0.07435245            2 
 1231000    1.0683151   -3.6288586    1089.7328  0.073770158  0.074338785            2 
 1232000    1.0530784   -3.6328704    1086.9425  0.073521543  0.074325083            2 
 1233000    1.0344593   -3.6466058    1084.7685  0.073314985  0.074311363            4 
 1234000    1.0562308   -3.6323274    1089.2618  0.073559008  0.074298236            2 
 1235000    1.0664126    -3.607811    1091.3603  0.073641048  0.074284603            4 
 1236000    1.0798837   -3.6175872    1093.0442  0.073694997  0.074271033            2 
 1237000    1.0342291   -3.6293696    1089.4944  0.073396284   0.07425797            2 
 1238000    1.0857922   -3.5871332    1088.4102  0.073264016  0.074244131            2 
 1239000    1.0899913    -3.640404    1092.8532  0.073503714  0.074230594            9 
 1240000    1.0846595   -3.6384498    1090.6236  0.073294594  0.074216985            3 
 1241000    1.0532523   -3.6263398    1090.0173  0.073194823  0.074203005            2 
 1242000      1.06587   -3.6375257    1093.2412  0.073352202  0.074189269            3 
 1243000    1.0486764   -3.6292102     1094.026  0.073345802  0.074175569            3 
 1244000     1.059449   -3.6273105    1097.4153  0.073513889  0.074162213            4 
 1245000    1.0504669   -3.6409267     1094.644  0.073269345  0.074148886            2 
 1246000    1.0696058    -3.657408    1091.9296  0.073028998  0.074135432            1 
 1247000    1.0457411   -3.6202038    1097.5339  0.073344952   0.07412213            2 
 1248000    1.0651343   -3.6434431    1097.7595   0.07330125  0.074109032            4 
 1249000    1.0474569   -3.6183126    1102.2484  0.073542063   0.07409543            2 
 1250000    1.0340914   -3.6213867     1108.676  0.073911735   0.07408218            2 
 1251000    1.0399237   -3.6182491     1107.094  0.073747271  0.074068998            1 
 1252000     1.046139   -3.6332168       1099.9  0.073209529  0.074056507            2 
 1253000    1.0495945   -3.6426135    1104.1465  0.073433526  0.074043686            2 
 1254000    1.0477674   -3.6250249     1105.299  0.073451556  0.074031099            3 
 1255000    1.0639875   -3.6296445    1105.3194  0.073394384  0.074018661            3 
 1256000    1.0751428   -3.6083298    1102.3444  0.073138564  0.074005774            2 
 1257000    1.0352461   -3.6360353    1102.8802  0.073115895  0.073993174            2 
 1258000    1.0651335   -3.6220393    1106.4288  0.073292849  0.073980306            1 
 1259000    1.0587338   -3.6293943    1108.1483  0.073348442  0.073967567            5 
 1260000    1.0472135   -3.6322999    1112.9863  0.073610206  0.073955046            2 
 1261000    1.0540241   -3.6199823    1113.8643  0.073609856  0.073942636            2 
 1262000    1.0340191   -3.6423141    1110.0894  0.073302258  0.073929565            2 
 1263000    1.0281638   -3.6079754    1109.1665  0.073183328  0.073916703            5 
 1264000    1.0494698    -3.643069     1111.508  0.073279798  0.073904044            3 
 1265000    1.0577052   -3.6260557    1116.9264  0.073578815  0.073890932            3 
 1266000    1.0330551   -3.6374515    1109.8723  0.073056364  0.073877936            4 
 1267000    1.0395994   -3.6519451    1105.8802  0.072736133   0.07386464            2 
 1268000    1.0486518   -3.6188726    1106.0429  0.072689467  0.073850686            3 
 1269000    1.0350533   -3.6327098    1111.2139  0.072971759  0.073836697            5 
 1270000    1.0634426   -3.6424333    1112.6089  0.073005831  0.073823112            3 
 1271000    1.0210555    -3.631415    1114.2626  0.073056822  0.073809274            2 
 1272000    1.0550749   -3.6242244    1113.7616  0.072966561  0.073795973            2 
 1273000    1.0330605   -3.6506234    1110.4563  0.072692869  0.073781575            2 
 1274000    1.0308365   -3.6275602    1118.3768    0.0731539  0.073767862            2 
 1275000    1.0360836   -3.6237018    1120.2742  0.073220535  0.073754546            3 
 1276000    1.0451674   -3.6593318    1114.0418  0.072756129   0.07374092            2 
 1277000    1.0396264   -3.6585026    1116.5569  0.072863282  0.073726597            4 
 1278000     1.035522   -3.6134203    1125.5203  0.073390734  0.073712858            4 
 1279000    1.0629185   -3.6267944    1118.0816  0.072848683  0.073699521            7 
 1280000     1.047525   -3.6502326    1122.1211  0.073054761  0.073686082            3 
 1281000    1.0222707   -3.6397861    1121.0196  0.072926074  0.073672993            4 
 1282000    1.0644648   -3.6287248    1121.2021   0.07288105  0.073659731            5 
 1283000    1.0627918   -3.6397081    1122.5591  0.072912388  0.073645925            5 
 1284000    1.0532011    -3.635991    1123.4662  0.072914471  0.073632568            2 
 1285000    1.0506652   -3.6190448    1125.4455  0.072986089  0.073619162            4 
 1286000    1.0483732   -3.6548031     1121.896  0.072699325  0.073605567            2 
 1287000    1.0504253   -3.6294163    1124.2575  0.072795749  0.073591448            4 
 1288000    1.0470004   -3.6086509     1124.983  0.072786169  0.073578109            1 
 1289000    1.0743207   -3.6260193    1128.0403  0.072927354  0.073564606            2 
 1290000    1.0614786   -3.6554175    1123.2249  0.072559749  0.073550916            5 
 1291000    1.0288945   -3.6274582    1128.2308  0.072826672  0.073537147            3 
 1292000    1.0308525   -3.6074632    1132.4144  0.073040146  0.073523347            2 
 1293000    1.0617125   -3.6439837     1130.855  0.072883156  0.073509882            1 
 1294000    1.0305175   -3.6342142    1131.5975  0.072874643   0.07349591            3 
 1295000    1.0364197   -3.6250196    1129.5563  0.072687018   0.07348239            1 
 1296000    1.0394814   -3.6141753    1131.4554  0.072753048  0.073469029            3 
 1297000    1.0384029   -3.6456402    1128.3057  0.072494587  0.073455227            2 
 1298000    1.0502934   -3.6499813    1128.0596  0.072422933  0.073441755            2 
 1299000    1.0349829   -3.6317181    1134.8063  0.072799994  0.073427854            2 
 1300000    1.0650889   -3.6376665    1129.1188  0.072379409  0.073413672            1 
 1301000    1.0351241    -3.652552    1135.1377   0.07270931  0.073399683            3 
 1302000    1.0429247   -3.6589904    1132.3005  0.072471872  0.073385864            4 
 1303000    1.0489995   -3.6549388    1133.7959   0.07251189   0.07337223            8 
 1304000    1.0326188   -3.6375958    1133.3357  0.072426871  0.073358818            1 
 1305000    1.0199331   -3.6167611    1137.1055  0.072612104  0.073345269            4 
 1306000    1.0176728   -3.6429037    1133.8059  0.072345963  0.073331934            2 
 1307000    1.0332046   -3.6151919    1138.8759  0.072613869  0.073318514            1 
 1308000    1.0247598   -3.6498724    1139.0742  0.072570986  0.073304587            4 
 1309000    1.0154627   -3.6404603    1140.1803  0.072585965  0.073291383            1 
 1310000    1.0371628    -3.666162    1144.3555  0.072796152   0.07327868            1 
 1311000    1.0303461   -3.6649924    1142.8463  0.072644693  0.073265812            5 
 1312000     1.047627   -3.6381726    1146.1082  0.072796506  0.073252554            1 
 1313000    1.0265267   -3.6287872    1146.0858  0.072739644  0.073239199            2 
 1314000    1.0355786   -3.6379693    1144.5623  0.072587666  0.073225989            3 
 1315000    1.0490273   -3.6588323    1143.0319   0.07243548   0.07321221            1 
 1316000    1.0339049   -3.6410653    1145.1542   0.07251483  0.073198718            4 
 1317000    1.0386516   -3.6419457    1142.8901   0.07231651  0.073184971            2 
 1318000    1.0285937   -3.6547305    1143.5811  0.072305331  0.073171072            5 
 1319000    1.0331051   -3.6487259    1144.4326  0.072304307  0.073157175            4 
 1320000    1.0592422   -3.6367343    1141.6298  0.072072587  0.073143066            6 
 1321000    1.0613082   -3.6172797    1143.6572  0.072145924  0.073128555            1 
 1322000    1.0452495   -3.6413202    1147.6335  0.072341998  0.073114331            2 
 1323000    1.0225141   -3.6484549    1147.8649  0.072301897  0.073100024            2 
 1324000    1.0594853   -3.6215536    1145.4542  0.072095558  0.073085851            3 
 1325000    1.0196915   -3.6113002    1147.9614  0.072198831  0.073071084            1 
 1326000    1.0427962   -3.6188171      1147.76  0.072131722  0.073056488            1 
 1327000    1.0241034   -3.6701214    1147.5511  0.072064246  0.073041912            2 
 1328000    1.0503904    -3.638427    1153.4941  0.072382915  0.073027031            2 
 1329000    1.0580662   -3.6669423    1148.1754  0.071994945  0.073012201            2 
 1330000    1.0574857   -3.6693709    1152.9559  0.072240346   0.07299771            3 
 1331000    1.0137471   -3.6587379    1151.6586  0.072104845  0.072983181            2 
 1332000    1.0308377   -3.6274423    1155.0786  0.072264679  0.072968511            1 
 1333000    1.0250672    -3.622886    1150.1329  0.071901284  0.072953925            2 
 1334000    1.0406562   -3.6753901    1150.1241  0.071846834  0.072939066            2 
 1335000     1.073365   -3.6173776    1154.7514  0.072081862  0.072924399            2 
 1336000    1.0406592   -3.6434045     1153.639  0.071958521  0.072909297            2 
 1337000    1.0402782   -3.6543097    1151.9805  0.071801326  0.072894007            3 
 1338000    1.0279094   -3.6408188    1154.2155  0.071886863  0.072878625            4 
 1339000    1.0136077   -3.6301665    1155.0006  0.071882038  0.072863189            1 
 1340000    1.0121666   -3.6577017    1152.7692  0.071689626  0.072848162            2 
 1341000    1.0341328   -3.6428182    1156.3781  0.071860434  0.072832625            3 
 1342000    1.0763634   -3.6327082    1153.0189  0.071598293   0.07281755            3 
 1343000    1.0376674    -3.669983     1152.891  0.071537046  0.072802374            1 
 1344000    1.0358356   -3.6501545    1151.2823   0.07138407  0.072786959            3 
 1345000    1.0409523   -3.6263018    1158.5754   0.07178286  0.072771294            1 
 1346000    1.0347507   -3.6486347    1158.4418  0.071721262  0.072755739            4 
 1347000    1.0338836   -3.6358792    1158.9915  0.071702024  0.072740394            6 
 1348000    1.0240052   -3.6179001     1159.215  0.071662651  0.072725149            1 
 1349000    1.0221972   -3.6470682    1159.0197  0.071597463  0.072709952            1 
 1350000    1.0172948   -3.6492405    1163.3675  0.071812811  0.072694389            1 
 1351000    1.0331329   -3.6264761    1161.1394  0.071622216  0.072678845            3 
 1352000    1.0320239    -3.637113    1162.6385  0.071661643  0.072663578            3 
 1353000    1.0393047   -3.6193733    1164.6384  0.071731854  0.072648464            1 
 1354000    1.0361546    -3.649303    1161.0776  0.071459726  0.072633682            2 
 1355000    1.0480126   -3.6786469    1164.9735  0.071646588  0.072619471            2 
 1356000    1.0509876   -3.6560193    1163.5253   0.07150475  0.072605117            2 
 1357000    1.0407127   -3.6304542    1168.3663  0.071749344  0.072590411            3 
 1358000    1.0407447   -3.6433885    1166.5816  0.071586988  0.072576138            2 
 1359000    1.0315117   -3.6491019    1166.1971  0.071510739  0.072561643            1 
 1360000    1.0673384   -3.6285004    1170.9164  0.071747328  0.072547375            1 
 1361000    1.0545962   -3.6438606    1173.3607  0.071844274  0.072532671            1 
 1362000    1.0502974   -3.6537819     1173.878  0.071823179  0.072518141            3 
 1363000    1.0361185   -3.6413689    1170.4023  0.071557979   0.07250388            2 
 1364000    1.0315527   -3.6615428    1174.2064  0.071737929  0.072489111            1 
 1365000    1.0410684   -3.6449838    1170.4287  0.071454746  0.072474488            2 
 1366000    1.0271489    -3.671193    1172.4209  0.071523968  0.072460072            3 
 1367000    1.0342667    -3.652942    1176.6271   0.07172806  0.072446253            6 
 1368000     1.032759   -3.6655866    1176.8636  0.071690036  0.072432105            4 
 1369000    1.0105945   -3.6536224    1176.1434  0.071593826  0.072418102            2 
 1370000    1.0596489   -3.6546257    1182.8108   0.07194713  0.072404579            3 
 1371000    1.0420867   -3.6471953    1177.7298  0.071585812   0.07239043            4 
 1372000    1.0372618    -3.629286    1176.2666  0.071444766   0.07237631            2 
 1373000    1.0159764    -3.674633    1177.7524  0.071482907  0.072361907            3 
 1374000   0.98662924   -3.6605598    1179.6106  0.071543584  0.072347681            1 
 1375000    1.0311759   -3.6433247     1181.552  0.071609212  0.072333244            5 
 1376000    1.0255828   -3.6863126    1182.6301   0.07162246   0.07231936            2 
 1377000    1.0232232   -3.6921425    1179.8763  0.071403793  0.072305611            5 
 1378000    1.0287624   -3.6208002    1181.9001  0.071474363  0.072291617            3 
 1379000    1.0453124   -3.6306503    1187.2377  0.071745089  0.072278275            4 
 1380000    1.0175085   -3.6288136    1189.1489  0.071808506  0.072265251            3 
 1381000    1.0365917   -3.6612136    1185.8183  0.071555532  0.072251814            4 
 1382000    1.0267452   -3.6971516     1184.306  0.071412568    0.0722377            2 
 1383000    1.0206276   -3.6606934    1186.7263  0.071506767  0.072223793            4 
 1384000    1.0446976   -3.6517459    1184.7902  0.071338523  0.072210028            1 
 1385000    1.0441768   -3.6382003    1192.8732  0.071773359  0.072196602            3 
 1386000    1.0569767   -3.6668509    1189.6188  0.071525905  0.072182629            3 
 1387000     1.017971   -3.6551354    1187.1206  0.071324239  0.072168742            2 
 1388000    1.0279938   -3.6926971    1186.6847  0.071246677  0.072155123            4 
 1389000    1.0534384   -3.6471183     1189.359  0.071355833  0.072141276            3 
 1390000    1.0203565   -3.6802937    1187.2958  0.071180802  0.072127216            5 
 1391000    1.0402976    -3.643756    1192.6582  0.071450888   0.07211281            8 
 1392000    1.0524217   -3.6510969    1193.7841  0.071466959  0.072098918            3 
 1393000    1.0330507   -3.6778562    1193.3359  0.071388846   0.07208556            2 
 1394000    1.0217916   -3.6443211    1195.7822  0.071483871  0.072071626            2 
 1395000    1.0226833   -3.6703186    1191.1483  0.071155814   0.07205758            2 
 1396000    1.0339137   -3.6434887    1198.7806  0.071560446  0.072043971            4 
 1397000    1.0352451    -3.670123    1198.0374  0.071464891  0.072030599            1 
 1398000    1.0214485   -3.6684711    1200.1162  0.071537685  0.072016687            2 
 1399000    1.0389397   -3.6869668    1190.5596    0.0709173  0.072003147            3 
 1400000    1.0339302   -3.6713179    1195.7314   0.07117449  0.071989566            4 
 1401000     1.050068   -3.6670703    1203.2509  0.071570954  0.071976118            3 
 1402000    1.0262348   -3.6961054    1199.8183  0.071315874  0.071962974            4 
 1403000    1.0041349   -3.6853038    1201.1307  0.071342999  0.071949323            1 
 1404000    1.0344651   -3.6532922    1198.5374  0.071138259  0.071935634            1 
 1405000    1.0292923    -3.672932    1205.7281  0.071514122  0.071922239            1 
 1406000     1.031262   -3.6652707    1200.8773  0.071175753  0.071908563            3 
 1407000    1.0236672   -3.6721132    1205.2129  0.071381956  0.071895576            3 
 1408000    1.0099617   -3.6714883    1207.4338  0.071462704  0.071882621            1 
 1409000    1.0159001   -3.6754494      1208.79  0.071492193  0.071869919            2 
 1410000    1.0087772   -3.6422328    1213.4799  0.071718672  0.071857627            2 
 1411000    1.0123208   -3.6709601    1210.9877  0.071520655  0.071844804            3 
 1412000    1.0428381   -3.6968735    1213.5152  0.071619168  0.071832245            3 
 1413000    1.0171616   -3.6407703    1213.0624  0.071541779  0.071820143            3 
 1414000    1.0345839   -3.6465188    1212.9543  0.071484815  0.071807772            3 
 1415000    1.0423036   -3.6688141    1216.0625  0.071617343  0.071795765            4 
 1416000    1.0160079   -3.6829409    1214.9574  0.071501729  0.071783729            5 
 1417000    1.0285605   -3.6860949    1218.9499  0.071686066  0.071771706            3 
 1418000    1.0263559   -3.6788439    1218.4873  0.071608328  0.071760141            3 
 1419000    1.0353696   -3.6760158    1220.3396  0.071666643  0.071748364            2 
 1420000    1.0185658    -3.644265    1211.8275  0.071116638  0.071736584            2 
 1421000    1.0477527   -3.6348412    1219.5371  0.071518711  0.071724835            2 
 1422000    1.0463281   -3.7026899    1216.9649  0.071317678  0.071712768            4 
 1423000    1.0350868    -3.692937    1212.0546  0.070980005  0.071700304            3 
 1424000    1.0241457   -3.6373044    1220.5424  0.071426873  0.071687584            2 
 1425000    1.0228359   -3.6723562    1219.0871  0.071291643  0.071675648            2 
 1426000    1.0123401   -3.6564101    1219.9282  0.071290802  0.071663518            3 
 1427000    1.0410869   -3.6601048    1224.5438  0.071510384  0.071651556            3 
 1428000    1.0437687   -3.6571487    1221.5785  0.071287262  0.071639423            1 
 1429000     1.020962   -3.7001188    1220.8827  0.071196801  0.071627222            4 
 1430000    1.0411845   -3.6702121    1220.1728  0.071105642  0.071614776            3 
 1431000    1.0118243   -3.6677378    1221.9685  0.071160524   0.07160276            2 
 1432000    1.0522984   -3.6799398    1224.3393  0.071248798  0.071590612            5 
 1433000    1.0404225   -3.6750768    1222.3182  0.071081539  0.071578673            2 
 1434000    1.0080345    -3.681821    1228.6413  0.071399427  0.071566481            3 
 1435000    1.0272357   -3.6706184    1228.9691  0.071368708  0.071553973            4 
 1436000    1.0303302   -3.6646258    1225.9826  0.071145692  0.071541767            2 
 1437000    1.0271876   -3.7104082    1227.9438  0.071209919  0.071529087            3 
 1438000    1.0105044   -3.6901891    1230.1169  0.071286329  0.071516568            2 
 1439000    1.0267854   -3.6360107     1234.362  0.071482627  0.071504117            2 
 1440000   0.99958071   -3.6609629    1232.4763  0.071323859  0.071491642            2 
 1441000    1.0145539   -3.6659475     1229.465  0.071100222  0.071479535            5 
 1442000    1.0148055   -3.6867122    1230.4466  0.071107638  0.071466932            3 
 1443000    1.0147822   -3.6734807    1230.7859  0.071077958  0.071454495            3 
 1444000    1.0232222   -3.6807429    1229.0394  0.070927943  0.071441676            4 
 1445000    1.0245169   -3.6613569    1235.5713  0.071255554  0.071429135            2 
 1446000    1.0047147   -3.6582981      1236.26  0.071245968  0.071416434            4 
 1447000    1.0312843   -3.6598278    1231.3065  0.070911452  0.071403331            3 
 1448000    1.0286938   -3.6822869      1232.21   0.07091448  0.071390031            2 
 1449000    1.0154181   -3.6723145    1235.9717   0.07108188  0.071377162            1 
 1450000    1.0316875   -3.6634652    1234.9006    0.0709713  0.071364607            3 
 1451000    1.0263126   -3.7013788    1231.3463  0.070718257  0.071351867            2 
 1452000    1.0408706   -3.6955711    1232.9622  0.070762295  0.071338639            3 
 1453000    1.0172166   -3.6670423    1236.9672  0.070943291  0.071325809            3 
 1454000    1.0096163   -3.6620289    1237.8247  0.070943646  0.071313186            4 
 1455000    1.0392304   -3.6423051    1242.6328  0.071170266  0.071301115            2 
 1456000    1.0076364   -3.6934494    1235.3649  0.070705408  0.071288591            3 
 1457000    1.0439206   -3.6968317    1236.8034  0.070739156  0.071275685            2 
 1458000    1.0072652   -3.6587077    1236.9934  0.070701499  0.071263129            9 
 1459000    1.0278863   -3.6934295    1237.5437  0.070684467  0.071250865            3 
 1460000    1.0167267   -3.6563658    1239.9954  0.070775991   0.07123829            4 
 1461000    1.0063699   -3.6805037    1237.6479  0.070593649    0.0712259            4 
 1462000    1.0254873   -3.6703676    1240.5307  0.070709687   0.07121327            5 
 1463000    1.0189776    -3.687743    1239.8226  0.070621016  0.071200454            2 
 1464000    1.0221761    -3.692749    1241.2096  0.070651728  0.071187879            2 
 1465000    1.0081163   -3.7032049    1241.1814  0.070601902  0.071175379            3 
 1466000    1.0229835   -3.6729549     1248.402  0.070964191  0.071162883            4 
 1467000    1.0420703   -3.6805894    1242.2276  0.070565077  0.071150422            4 
 1468000    1.0320245    -3.682141    1244.4226  0.070641611   0.07113751            3 
 1469000    1.0146001   -3.6732906      1241.07  0.070403338  0.071124212            2 
 1470000     1.008925   -3.6515047    1241.8495  0.070399631   0.07111109            2 
 1471000    1.0441147   -3.6649179    1244.3268  0.070492114  0.071098085            4 
 1472000    1.0071197   -3.6691597     1246.812  0.070584918  0.071085275            2 
 1473000    1.0200936   -3.6899704    1246.6095  0.070525545  0.071072247            2 
 1474000    1.0260281    -3.668182    1244.5345  0.070360388   0.07105892            3 
 1475000    1.0142351    -3.646685    1250.2468  0.070635411  0.071045559            2 
 1476000    1.0063753   -3.6684868    1248.2666  0.070475758  0.071032312            3 
 1477000    1.0092773   -3.6678043    1246.5834  0.070333075  0.071018943            4 
 1478000    1.0079384   -3.6782593      1247.26  0.070323635  0.071005533            3 
 1479000     1.048069   -3.6696471    1250.0304  0.070432185  0.070992218            4 
 1480000     1.033313   -3.6679929    1249.4228  0.070350383  0.070978933            2 
 1481000    1.0096281   -3.6916758    1247.4263  0.070190542   0.07096496            2 
 1482000    1.0040316   -3.6800193      1255.29  0.070585355  0.070951319            3 
 1483000     1.010981   -3.6769717    1251.4352  0.070321151  0.070937725            4 
 1484000    1.0000719   -3.6813832    1250.9254  0.070245139  0.070923852            4 
 1485000    1.0293322   -3.6820089    1252.2825  0.070273991  0.070910367            6 
 1486000    1.0276003   -3.7004322    1251.8795  0.070204097   0.07089638            3 
 1487000    1.0068784   -3.6949128    1252.3516  0.070183343  0.070882522            6 
 1488000    1.0126452    -3.660112    1258.8222  0.070498555  0.070869247            5 
 1489000   0.99106106   -3.6943061    1247.8368  0.069836398  0.070855572            1 
 1490000    1.0126459   -3.6745601     1255.082  0.070194744  0.070841951            2 
 1491000    1.0089614   -3.6810803    1254.8193  0.070132982   0.07082872            5 
 1492000    1.0240854   -3.6825791    1256.3777  0.070173015  0.070815143            4 
 1493000   0.99753235   -3.7151575    1251.2361  0.069839031  0.070801251            3 
 1494000    1.0468901    -3.696835      1257.69  0.070152275  0.070787065            5 
 1495000    1.0308104   -3.7017103    1256.1055  0.070017028  0.070773429            4 
 1496000   0.99718026   -3.6681104    1262.9956  0.070354035  0.070759842            5 
 1497000    1.0083817   -3.6749382    1256.7583  0.069959827  0.070746445            2 
 1498000    1.0405452     -3.67936    1262.0519  0.070207605  0.070733248            5 
 1499000    1.0054488   -3.6987871    1260.7047  0.070085876  0.070719547            3 
 1500000    1.0158324   -3.6737264    1256.5463   0.06980813  0.070705968            1 
 1501000    0.9837569   -3.6670871    1263.6706  0.070157153  0.070692834            4 
 1502000    1.0084671   -3.6555292    1267.9042  0.070345327  0.070679888            3 
 1503000    1.0004952     -3.69227    1264.8421  0.070128746  0.070666691            1 
 1504000    1.0072193   -3.6962774    1265.3433  0.070109892  0.070653516            4 
 1505000    1.0293997    -3.714987    1267.1168  0.070161508  0.070640055            2 
 1506000     1.004106   -3.7149085    1264.1072  0.069948381  0.070626137            5 
 1507000    1.0230143   -3.6746546    1267.5187  0.070090618  0.070612718            4 
 1508000    1.0219223   -3.6995316    1268.1951  0.070081513  0.070599752            2 
 1509000   0.99855511   -3.6777922    1267.1139  0.069975365  0.070586553            2 
 1510000    1.0020451   -3.7149037    1266.4476   0.06989225  0.070572777            2 
 1511000    1.0043595   -3.6893365    1267.9579  0.069929288  0.070559117            4 
 1512000    1.0193622   -3.7023095    1267.3239  0.069848101   0.07054578            2 
 1513000    1.0271159   -3.7025652    1270.8385  0.069995514  0.070532299            1 
 1514000    1.0077974   -3.6975751    1268.0908   0.06979804  0.070518476            2 
 1515000    1.0095639   -3.7009338    1269.6807  0.069839424  0.070505156            2 
 1516000    1.0490239   -3.7038368    1266.9362   0.06964249  0.070491593            2 
 1517000   0.99403403   -3.7077645    1271.6697  0.069856609   0.07047818            3 
 1518000    1.0152372   -3.6973402    1273.3166     0.069901   0.07046504            6 
 1519000    0.9993765   -3.6779778    1276.7826  0.070045127  0.070451768            2 
 1520000     1.000262   -3.6835458    1277.2855  0.070026618  0.070438285            6 
 1521000    0.9971681   -3.7073791    1280.5038  0.070156903  0.070424975            4 
 1522000    1.0192963   -3.7009451    1270.6642  0.069572068  0.070411625            3 
 1523000    0.9988887    -3.708642    1277.5512  0.069903217  0.070398655            2 
 1524000    1.0157142   -3.7104374    1277.9748  0.069880511  0.070385285            3 
 1525000   0.99988401     -3.70136    1278.5478  0.069865998  0.070372274            3 
 1526000    1.0030331   -3.6844799    1278.6964  0.069828332  0.070359487            3 
 1527000    1.0127996   -3.6971159    1278.4816  0.069770879  0.070346307            2 
 1528000    0.9892873   -3.6646865    1281.5864  0.069894549  0.070333164            3 
 1529000   0.99607917   -3.7093431    1274.2478  0.069448866   0.07032017            4 
 1530000    1.0136479   -3.7103867    1278.8024  0.069651549  0.070307208            2 
 1531000    1.0124725   -3.6747258    1280.7198  0.069710418  0.070294106            2 
 1532000    1.0028819   -3.6867875    1279.6517  0.069606817  0.070280832            1 
 1533000    1.0210268   -3.6414753    1287.4905  0.069987525  0.070267828            5 
 1534000     0.996767   -3.7191711    1288.1118  0.069975649  0.070254858            3 
 1535000    1.0081692   -3.7102033    1283.6861  0.069689799   0.07024129            2 
 1536000    1.0355298   -3.6959948    1282.0681  0.069556646  0.070227872            5 
 1537000   0.99814785   -3.7095471    1283.5949  0.069594169  0.070214363            3 
 1538000    1.0164401   -3.6956927    1283.4545  0.069541314  0.070200868            3 
 1539000   0.98834779   -3.7072565    1281.5723  0.069394214  0.070187091            2 
 1540000    1.0087457    -3.696617    1284.2707  0.069495167  0.070173266            3 
 1541000    1.0363899   -3.7195615    1282.0686  0.069330988  0.070158972            2 
 1542000    1.0024277   -3.7026944    1285.1531  0.069452718  0.070144855            3 
 1543000    1.0276324   -3.6824427     1288.178  0.069571075    0.0701309            2 
 1544000    0.9998794   -3.6693646    1283.4232  0.069269389   0.07011706            4 
 1545000   0.99974811   -3.7182754    1283.9169  0.069251182  0.070103147            1 
 1546000    1.0119455   -3.7095694    1285.2113  0.069276161  0.070088905            3 
 1547000    1.0033335   -3.7125037     1282.416  0.069080801    0.0700746            5 
 1548000    1.0185365    -3.723475    1285.6046  0.069207827  0.070060551            2 
 1549000    1.0133007     -3.70184    1286.4686  0.069209632  0.070046333            3 
 1550000   0.99421204    -3.734658     1281.872  0.068917852  0.070031609            4 
 1551000    1.0083238   -3.6920939    1290.0925  0.069315094   0.07001715            2 
 1552000    1.0121735   -3.7207135    1286.3324  0.069068534  0.070002546            1 
 1553000    1.0023195   -3.6963582    1284.6353  0.068932994  0.069987952            3 
 1554000   0.98326881   -3.7062923     1284.853   0.06890031  0.069973265            3 
 1555000   0.99162243   -3.6910048    1289.0347  0.069080103  0.069958442            1 
 1556000   0.99885549   -3.6820937    1287.7805  0.068968537  0.069943511            3 
 1557000    1.0250306   -3.7031059    1287.4554  0.068906842  0.069928874            2 
 1558000    1.0038015   -3.6902477    1291.5633  0.069082333  0.069914292            2 
 1559000   0.97870512   -3.7027945    1290.3606  0.068973735  0.069899627            2 
 1560000   0.97973279   -3.7053679    1291.8968  0.069011583  0.069884955            4 
 1561000     1.000703   -3.7219314    1293.5291  0.069054509  0.069870686            3 
 1562000    1.0054679   -3.7230926    1289.5372  0.068797334  0.069855532            4 
 1563000    1.0009656   -3.7077043    1292.2972  0.068900468  0.069840448            3 
 1564000   0.98798466   -3.7077295    1292.7266  0.068879293  0.069825534            3 
 1565000    1.0011041   -3.6739883    1298.6482  0.069150597  0.069810973            3 
 1566000    1.0094162   -3.6909967     1292.537  0.068781234  0.069796369            2 
 1567000    1.0119325   -3.7061162    1298.7722   0.06906893  0.069781941            3 
 1568000    1.0110858    -3.698533    1296.6802    0.0689137  0.069767348            4 
 1569000     1.003932   -3.6885309    1298.8888   0.06898708  0.069752636            2 
 1570000   0.98814171   -3.7269693    1295.1795  0.068746256  0.069738183            2 
 1571000    1.0076256   -3.7139774    1294.0546   0.06864283  0.069723051            4 
 1572000    1.0091059   -3.7126748    1298.1298  0.068815193  0.069708174            2 
 1573000    1.0140463   -3.6733821    1299.6973  0.068854488  0.069693503            3 
 1574000    1.0147774    -3.680182    1301.8592  0.068925202  0.069679096            3 
 1575000    0.9867428   -3.7216393    1298.2937  0.068692786  0.069664132            1 
 1576000    1.0190043   -3.6983772    1300.2349  0.068751846  0.069649505            6 
 1577000     1.000079   -3.6996636    1298.7513  0.068629853  0.069635192            3 
 1578000   0.98971441   -3.6772962    1303.2919  0.068826149  0.069620604            4 
 1579000    1.0079852   -3.6958497     1303.528   0.06879502  0.069606277            5 
 1580000   0.98955258   -3.7144644    1307.4803  0.068959929  0.069592028            3 
 1581000   0.98621499   -3.7141331    1307.9307  0.068940054  0.069577828            3 
 1582000   0.99997403   -3.6856533    1307.2951  0.068862993  0.069563623            2 
 1583000   0.99676092   -3.6827674    1307.2165  0.068815358  0.069549388            2 
 1584000   0.99670198   -3.7265147    1301.3394  0.068462719  0.069535284            2 
 1585000   0.98929175   -3.6762559    1308.5577  0.068799038  0.069520913            3 
 1586000   0.98751946   -3.7316829     1304.184  0.068525852  0.069506231            4 
 1587000    1.0203222    -3.712194    1299.6711    0.0682457  0.069491889            3 
 1588000    1.0111797   -3.7235945    1304.3874  0.068450222  0.069477212            2 
 1589000    1.0208974   -3.7135217    1305.6747  0.068474655  0.069462307            2 
 1590000   0.97071185   -3.7140431    1304.9112  0.068391573  0.069447648            3 
 1591000   0.98942005   -3.6911952    1310.7761  0.068655776  0.069433063            2 
 1592000   0.99670174   -3.6934272    1311.0347  0.068626186  0.069418501            4 
 1593000   0.99989402   -3.7250063    1310.0138  0.068529703  0.069403754            2 
 1594000     0.996299   -3.7005855    1309.7436  0.068472585  0.069389302            4 
 1595000    1.0241711   -3.7202712    1310.1962    0.0684533  0.069374813            2 
 1596000   0.98778125   -3.7141098    1313.3469  0.068574921   0.06936037            4 
 1597000    1.0131321   -3.7180317    1311.4514  0.068433075  0.069345586            3 
 1598000   0.98756345   -3.7172963    1309.4731  0.068287081  0.069330979            4 
 1599000   0.98817277   -3.7102123    1317.5573  0.068665691   0.06931654            4 
 1600000   0.99323201   -3.7098493    1311.8645  0.068326275  0.069302072            4 
 1601000    1.0033713   -3.7159754    1317.6462  0.068584539  0.069287533            3 
 1602000   0.98894468   -3.7002711    1316.1031  0.068461459  0.069273138            4 
 1603000   0.98464545   -3.7010259    1319.0506   0.06857198  0.069258799            2 
 1604000   0.99686539   -3.7003041    1318.2134  0.068485733  0.069244746            3 
 1605000   0.98222291   -3.6947927    1320.2753   0.06855012  0.069230261            2 
 1606000   0.98486647    -3.670932    1323.6509  0.068682589  0.069215932            1 
 1607000    1.0100518   -3.6997486    1314.7423  0.068177886  0.069201456            3 
 1608000   0.99599181   -3.6810811    1316.3151  0.068216995  0.069186471            4 
 1609000    1.0121445   -3.7178673    1318.6825  0.068297211  0.069171992            2 
 1610000   0.98645021   -3.7265983    1318.9984  0.068271137  0.069157335            2 
 1611000   0.99589409   -3.7132191    1320.4375    0.0683032  0.069142287            2 
 1612000    1.0026737   -3.7239496    1321.2846  0.068304621  0.069127843            4 
 1613000   0.99058775   -3.7248734    1318.2582  0.068105921  0.069113212            2 
 1614000   0.97325869    -3.718869    1325.1151  0.068417754  0.069098448            4 
 1615000    1.0062567    -3.711029    1327.0415  0.068474795  0.069083765            3 
 1616000   0.98011897   -3.7364151    1323.8796  0.068269369  0.069069196            2 
 1617000   0.98167569   -3.7328465    1327.8007  0.068429225  0.069054643            2 
 1618000   0.99350344   -3.7472441    1324.2767  0.068205434  0.069040461            5 
 1619000   0.99303516   -3.7126078    1325.8138  0.068242425  0.069026251            4 
 1620000   0.96986005   -3.7010421    1324.2179  0.068118205  0.069012026            5 
 1621000   0.98145125   -3.7122985    1325.7253  0.068153676  0.068997864            3 
 1622000   0.98306583   -3.7152636    1327.8537  0.068221008  0.068983091            4 
 1623000   0.96473202   -3.7163434    1324.7535  0.068019792  0.068968107            4 
 1624000    1.0155834    -3.747154    1321.4424  0.067808004  0.068953137            4 
 1625000   0.98720148   -3.6874072    1326.3974  0.068020377  0.068938359            3 
 1626000   0.97956304   -3.7207555     1327.614  0.068040899  0.068923685            3 
 1627000   0.98444902   -3.6678623    1330.5497  0.068149442  0.068908826            2 
 1628000   0.99938211   -3.7130081    1327.2062  0.067936436  0.068893995            3 
 1629000    1.0032809   -3.7180539    1328.1157  0.067941258  0.068879065            4 
 1630000   0.98488142   -3.7239264    1331.4812  0.068071638  0.068864454            3 
 1631000    1.0153322   -3.7159084    1333.1327  0.068114282   0.06885003            2 
 1632000   0.99875119   -3.7056015    1334.5987  0.068147402  0.068835455            5 
 1633000    1.0020039   -3.7121052    1337.3453  0.068245832   0.06882066            6 
 1634000    1.0020875   -3.6935352    1337.0167  0.068187308  0.068805886            1 
 1635000     1.006194   -3.7221782    1335.6628  0.068076596  0.068791226            5 
 1636000   0.99757554   -3.7178487     1338.686  0.068188977  0.068776768            1 
 1637000   0.97034325   -3.7395166    1337.3987  0.068081789  0.068762434            4 
 1638000   0.99069085   -3.7212503     1339.079  0.068125715   0.06874814            4 
 1639000   0.98357871   -3.7047582     1336.088   0.06793207  0.068733768            3 
 1640000    1.0007454   -3.6836613     1341.655  0.068173529  0.068719285            6 
 1641000    0.9817954   -3.7176405    1341.1334  0.068105492  0.068705216            5 
 1642000   0.95496014   -3.7461623    1340.5418  0.068033992   0.06869097            2 
 1643000   0.98509197   -3.7547079    1329.7594  0.067445697  0.068676745            2 
 1644000   0.98801528    -3.741538    1338.8424  0.067865083  0.068662451            2 
 1645000    1.0079811   -3.7291083    1336.5239  0.067706376  0.068648066            4 
 1646000   0.95309867   -3.7134842    1342.3165   0.06795851  0.068634103            2 
 1647000   0.99285732    -3.732046    1342.0107  0.067901776  0.068619969            5 
 1648000   0.97464062   -3.7281239    1340.6928  0.067793933  0.068605972            2 
 1649000   0.98100025      -3.7049    1348.7519  0.068160091  0.068592061            4 
 1650000    1.0118383   -3.7452491    1340.2043  0.067687084  0.068578007            4 
 1651000   0.99551806   -3.7386562    1348.5243  0.068066034  0.068564456            4 
 1652000   0.99398169   -3.7122028     1353.642  0.068282991  0.068551191            6 
 1653000   0.98686314    -3.699204    1350.6972  0.068093226  0.068537537            4 
 1654000    1.0072332   -3.7287081    1343.7588  0.067702479  0.068524001            4 
 1655000   0.99326383   -3.7128003    1349.1278  0.067931914   0.06851019            2 
 1656000   0.97745876   -3.7687983    1348.1738  0.067842883  0.068496239            4 
 1657000   0.98218049   -3.7301544    1348.4658  0.067816627  0.068482373            4 
 1658000   0.97486784   -3.7473818    1350.9015  0.067898143  0.068468614            3 
 1659000   0.99728928   -3.7011128    1359.1434   0.06827122  0.068455178            3 
 1660000   0.99088365   -3.7425478    1358.0136  0.068173372  0.068441922            3 
 1661000   0.99148489   -3.7235378    1351.5365  0.067807369  0.068428501            3 
 1662000   0.98937202   -3.7578853    1349.7128  0.067675131  0.068415207            3 
 1663000   0.97685492   -3.7299112    1355.0707  0.067902919  0.068401935            3 
 1664000   0.99971734   -3.7248013    1358.9564  0.068056709  0.068388733            5 
 1665000    1.0040282   -3.7104805    1360.3647   0.06808632  0.068375804            1 
 1666000   0.99965091   -3.7142793    1362.1771  0.068136111  0.068362832            4 
 1667000   0.98423184   -3.6981944    1364.2593  0.068199327  0.068350021            4 
 1668000    0.9904157   -3.7422848    1366.3957  0.068265175  0.068337642            5 
 1669000   0.99329753   -3.7364947    1365.3982  0.068174468  0.068325299            3 
 1670000    1.0027192   -3.7457744    1362.1295  0.067970535  0.068312584            3 
 1671000    0.9729221   -3.7047465     1370.818  0.068363157  0.068300166            3 
 1672000   0.99217392   -3.7058461    1367.4895  0.068156374  0.068287368            3 
 1673000   0.97633807   -3.7152021    1368.4763  0.068164789   0.06827546            6 
 1674000   0.98588472   -3.7395132    1368.1548  0.068108066  0.068263175            9 
 1675000   0.98428556    -3.718821    1373.2977  0.068323269  0.068250553            4 
 1676000   0.98201553   -3.7140565    1369.2825  0.068082861   0.06823842            5 
 1677000   0.98616349   -3.7533268    1363.1018  0.067735133  0.068226022            2 
 1678000   0.97255117   -3.7343029    1369.4042  0.068007756  0.068213588            3 
 1679000   0.98466896   -3.7320839    1368.9435  0.067944385  0.068201009            3 
 1680000   0.98566491   -3.7247986    1369.7886  0.067945863  0.068188254            4 
 1681000   0.97924302   -3.7065591    1374.4482  0.068136438  0.068175639            4 
 1682000   0.97203814   -3.7040432    1375.2589   0.06813609  0.068162993            5 
 1683000    1.0088865   -3.7292354    1372.5959  0.067963749  0.068150157            6 
 1684000   0.99297493   -3.7198256    1366.2174  0.067607748  0.068137136            2 
 1685000   0.97287951   -3.7254996    1370.3538  0.067772194  0.068124182            3 
 1686000   0.96105784   -3.7354547    1375.4928  0.067986001  0.068111579            5 
 1687000   0.98676679    -3.750145    1372.2947  0.067787723  0.068099076            2 
 1688000   0.97478338   -3.7277845     1377.851   0.06802187  0.068086461            4 
 1689000   0.95688983   -3.7193221    1375.8645  0.067883587  0.068074225            3 
 1690000   0.96078339   -3.7513186     1373.749  0.067739103  0.068061928            2 
 1691000   0.98032641   -3.7021225    1379.3121  0.067973199  0.068049573            5 
 1692000    1.0068815   -3.7220131    1382.4623  0.068088172  0.068037581            6 
 1693000   0.97070521   -3.7368346    1379.2611  0.067890386   0.06802553            3 
 1694000   0.99133009   -3.7437234    1376.5834  0.067718586  0.068013257            2 
 1695000   0.97546045   -3.7349948    1383.6783  0.068027448  0.068001063            2 
 1696000   0.98102514   -3.7708667    1378.1268  0.067714561  0.067988892            2 
 1697000   0.97592541   -3.7405419    1383.4268  0.067934926  0.067976758            3 
 1698000   0.97138874   -3.7610199    1384.4228  0.067943796   0.06796437            2 
 1699000   0.98380817   -3.7234784     1385.381  0.067950807  0.067952113            2 
 1700000   0.98359642   -3.7240904    1382.5101  0.067770104  0.067939566            3 
 1701000   0.98787457   -3.7328533    1380.0297  0.067608743  0.067927448            5 
 1702000   0.96872544   -3.7477355    1385.2438  0.067824313  0.067915135            4 
 1703000   0.99222099   -3.7151493    1386.5793  0.067849837  0.067902913            5 
 1704000   0.99089387   -3.7319156    1387.3996  0.067850136  0.067890666            2 
 1705000   0.97986386   -3.7161237    1383.2063  0.067605391  0.067878559            2 
 1706000   0.97320774   -3.7565949    1379.1984   0.06736999  0.067866221            3 
 1707000   0.96947312    -3.720213    1389.8273   0.06784941  0.067853797            2 
 1708000    0.9709115   -3.7232167    1386.8184  0.067662879  0.067841139            1 
 1709000   0.99821561    -3.714622    1392.9424  0.067921905  0.067828674            2 
 1710000    0.9920491   -3.7615958    1387.0925  0.067597102  0.067816291            5 
 1711000   0.98322253   -3.7388253    1385.4477  0.067477482  0.067803725            4 
 1712000   0.98355274   -3.7423309    1390.6396  0.067690792  0.067791465            3 
 1713000   0.98537626    -3.742891     1389.201  0.067581289  0.067778935            3 
 1714000   0.99582386   -3.7381905    1387.5923  0.067463647  0.067766317            1 
 1715000   0.96285296   -3.7302419    1391.8301   0.06763023  0.067753839            3 
 1716000   0.95438175   -3.7652465    1384.7741  0.067248161  0.067741128            3 
 1717000    0.9788993   -3.7532738    1388.6001  0.067394684    0.0677284            5 
 1718000   0.97738512   -3.7524688    1386.5821  0.067257572   0.06771599            4 
 1719000    1.0062522   -3.7519784    1385.4578  0.067163942  0.067703202            2 
 1720000   0.98150701   -3.7507182    1396.1368  0.067642289  0.067690533            2 
 1721000   0.97623129   -3.7522303    1391.7017   0.06738823  0.067678131            2 
 1722000   0.96621871   -3.7279052    1387.7307  0.067156925  0.067665484            6 
 1723000   0.97475295   -3.7168932    1391.7554  0.067312605  0.067652893            2 
 1724000   0.97229958   -3.7579095    1393.1884  0.067342825  0.067640441            4 
 1725000   0.98642745   -3.7623892    1390.2751   0.06716305  0.067627581            2 
 1726000   0.98952095   -3.7383447    1394.6435  0.067335047  0.067614762            5 
 1727000   0.95931409   -3.7549771     1394.659  0.067296803  0.067601915            2 
 1728000   0.97156259   -3.7596987    1392.5907  0.067158117  0.067589149            2 
 1729000   0.99195166   -3.7499314    1398.4145  0.067399967  0.067576517            3 
 1730000   0.97021708   -3.7245091    1398.5957  0.067369733  0.067564281            3 
 1731000   0.94778904   -3.7084127    1399.1443  0.067357226  0.067551416            3 
 1732000   0.97316183   -3.7324679    1394.8544  0.067111933  0.067538804           11 
 1733000   0.98086371   -3.7427813    1404.6486  0.067544171  0.067526107            4 
 1734000   0.97539319   -3.7636947    1397.2284  0.067148617  0.067513596            2 
 1735000   0.97891596   -3.7507066     1399.898  0.067238138  0.067500646            2 
 1736000    0.9617511   -3.7495941    1399.6365   0.06718685  0.067487833            3 
 1737000   0.98312074   -3.7036617    1402.8881  0.067304167  0.067475168            3 
 1738000   0.97558413   -3.7330448    1396.7874  0.066972929  0.067462485            2 
 1739000   0.96989142   -3.7457428    1402.4431  0.067205437  0.067449855            3 
 1740000   0.96284444    -3.739421    1404.0379  0.067243194  0.067436858            4 
 1741000   0.98674362   -3.7318392     1403.786  0.067192514  0.067424171            2 
 1742000    0.9753036   -3.7331718    1402.7562  0.067104677  0.067411541            6 
 1743000   0.93882897   -3.7447072    1399.2798  0.066899973  0.067398556            4 
 1744000   0.95545112   -3.7404111    1399.9987  0.066895964  0.067385468            2 
 1745000   0.98119663   -3.7380093    1405.2141  0.067106691  0.067372345            4 
 1746000   0.97218591   -3.7404897    1406.2989  0.067120033  0.067359533            2 
 1747000    0.9895381   -3.7293151      1401.89  0.066871303   0.06734661            2 
 1748000   0.97819176   -3.7329649     1403.991   0.06693321  0.067333831            4 
 1749000   0.97045195   -3.7646639    1406.1355  0.066997119  0.067321181            3 
 1750000   0.95797341   -3.7709585    1404.3403  0.066873346   0.06730807            3 
 1751000   0.95963076   -3.7609785     1407.243  0.066973303   0.06729504            3 
 1752000   0.95794117   -3.7493332    1413.6568  0.067240143  0.067282026            3 
 1753000   0.96123779     -3.72547     1407.055  0.066887954   0.06726921            2 
 1754000   0.96045945   -3.7718184    1412.2383  0.067096083  0.067256378            4 
 1755000    0.9768269   -3.7436114    1407.7726  0.066845804  0.067243569            1 
 1756000   0.95674433   -3.7292163     1402.451  0.066555189  0.067230767            1 
 1757000   0.95891924   -3.7274322    1412.8123  0.067008739  0.067217853            5 
 1758000   0.97819842   -3.7580454     1412.615  0.066961274  0.067204872            3 
 1759000   0.96171499   -3.7685928    1409.7307   0.06678656  0.067192089            6 
 1760000   0.96715836   -3.7410306    1414.1556  0.066958124  0.067179298            5 
 1761000   0.96996864   -3.7447203    1413.7402  0.066900443  0.067166654            3 
 1762000   0.97640305   -3.7466037      1413.94  0.066871925  0.067153684            2 
 1763000   0.95705257   -3.7537568    1414.6048  0.066865419  0.067140735            5 
 1764000   0.97911476   -3.7435899    1417.5656  0.066967383  0.067127789            6 
 1765000   0.97161455   -3.7553552    1412.9981  0.066713793  0.067115066            2 
 1766000   0.96156685   -3.7572274    1415.4483  0.066791635  0.067101981            3 
 1767000   0.98786607   -3.7410074    1419.9154  0.066964506  0.067089418            4 
 1768000   0.96367431   -3.7288372    1416.1489  0.066749099  0.067076406            3 
 1769000   0.97010573   -3.7609608    1414.6816  0.066642244   0.06706337            2 
 1770000   0.97401376   -3.7598342    1417.4493  0.066734899  0.067050414            6 
 1771000   0.98081576   -3.7455742    1419.6919  0.066802745  0.067037364            2 
 1772000   0.96666824   -3.7261683    1420.9024  0.066821974  0.067024452            2 
 1773000   0.97757683   -3.7768016    1416.1823  0.066562432  0.067011329            4 
 1774000   0.97067431   -3.7537007    1414.5863  0.066449938  0.066998299            4 
 1775000   0.96537498   -3.7583667    1420.8451  0.066706341  0.066985206            5 
 1776000   0.94984705   -3.7462062    1419.1294   0.06658828   0.06697207            2 
 1777000   0.95981393   -3.7497113    1417.3529  0.066467498  0.066958782            2 
 1778000   0.99082738    -3.752204    1422.1903  0.066656837  0.066945857            6 
 1779000   0.95724082   -3.7431597    1425.0095  0.066751427  0.066932867            4 
 1780000   0.98860253   -3.7376415     1422.322   0.06658811  0.066919736            3 
 1781000   0.95846153   -3.7638102    1419.2545  0.066407192  0.066906806            4 
 1782000   0.97180715   -3.7717393    1422.9225  0.066541455  0.066893877            2 
 1783000   0.98584164   -3.7696578    1426.7659  0.066683767  0.066880987            1 
 1784000    0.9641399   -3.7451246    1428.8002  0.066741413  0.066868132            4 
 1785000   0.96792619   -3.7424102    1425.3311  0.066542067  0.066855531            3 
 1786000   0.97284575   -3.7564987     1427.372  0.066600039  0.066842558            2 
 1787000   0.96323451   -3.7566604    1428.4364  0.066612403  0.066829616            2 
 1788000   0.95197324   -3.7589431    1427.1927  0.066517186  0.066816624            3 
 1789000   0.96541835   -3.7680558    1424.3584   0.06634798   0.06680399            2 
 1790000   0.96177875   -3.7686343    1425.1227  0.066346497  0.066791456            4 
 1791000   0.97180506   -3.7849581    1431.7443  0.066617548  0.066778545            5 
 1792000    0.9539582   -3.7684587    1429.5638  0.066478974  0.066765691            4 
 1793000   0.95460459   -3.7612162    1429.8203  0.066453817  0.066753116            2 
 1794000      0.96029   -3.7680887    1429.8795  0.066419522  0.066740267            5 
 1795000    0.9488077   -3.7450614    1428.6383  0.066324896  0.066727876            2 
 1796000   0.95979195   -3.7504767    1436.0144  0.066630213  0.066715288            1 
 1797000   0.98169134   -3.7913046    1431.4167  0.066379923  0.066702471            2 
 1798000   0.99534473   -3.7484649    1435.5688  0.066535446  0.066689566            3 
 1799000   0.95367557   -3.7292038    1438.2952  0.066624753  0.066677037            3 
 1800000   0.95375552   -3.7751959    1438.9325  0.066617246  0.066664398            3 
 1801000   0.94821766    -3.766371    1430.5171  0.066190869  0.066651789            6 
 1802000   0.97348221   -3.7732622     1432.679  0.066254118  0.066639143            2 
 1803000    0.9480152   -3.7459403    1436.9107  0.066412953  0.066626574            2 
 1804000   0.98143923   -3.7457644    1436.8593  0.066373764  0.066613945            1 
 1805000   0.97707092    -3.779501    1436.4181  0.066316626  0.066601604            2 
 1806000   0.93182667   -3.7681259    1438.8219   0.06639082  0.066589068            3 
 1807000   0.96624467   -3.7477998    1442.6868   0.06653232  0.066576557            3 
 1808000    0.9606404   -3.7404101    1444.0886   0.06656013  0.066564473            4 
 1809000     0.968445   -3.7281253    1446.3414  0.066627116  0.066552108            3 
 1810000   0.95713784   -3.7365697    1444.7887  0.066518817  0.066540154            2 
 1811000   0.95471405   -3.7765113    1441.8718  0.066347863  0.066527668            6 
 1812000   0.97292255   -3.7818806    1443.3348  0.066378531  0.066515361            3 
 1813000   0.96246513   -3.7551889    1445.2645  0.066430619  0.066502829            1 
 1814000   0.96202509   -3.7677273    1442.3176  0.066258616  0.066490531            3 
 1815000   0.95528014   -3.7950562    1439.9801   0.06611479   0.06647834            2 
 1816000   0.95272598   -3.7494024    1443.7904  0.066253233  0.066466063            3 
 1817000   0.96606848   -3.7661542    1445.8714   0.06631221  0.066453995            2 
 1818000    0.9522854   -3.7370152    1446.1094  0.066286645  0.066441878            3 
 1819000   0.96967407   -3.7422171    1441.7616  0.066051018  0.066429884            3 
 1820000   0.95204639   -3.8086252    1449.2659  0.066358329  0.066418009            3 
 1821000   0.96212202   -3.7644923    1451.2406  0.066412255  0.066406049            8 
 1822000   0.94253057   -3.7632536    1452.1373  0.066416818  0.066394243            2 
 1823000   0.94200197   -3.7135642    1451.4513  0.066349027    0.0663825            4 
 1824000   0.95374005   -3.7767649    1448.5182  0.066178646  0.066370936            2 
 1825000   0.96445571   -3.7825338    1454.9823  0.066437549  0.066358898            2 
 1826000   0.96675899   -3.7595463    1449.7196  0.066160991   0.06634724            4 
 1827000   0.97660351   -3.7592999    1453.3677  0.066291176  0.066335357            3 
 1828000   0.93895697   -3.7563991    1458.9274  0.066508363  0.066323602            2 
 1829000   0.96454523   -3.7806955    1458.6395  0.066458881  0.066311967            3 
 1830000   0.97242964   -3.7823571    1454.5973  0.066238492  0.066299816            1 
 1831000   0.95349944   -3.7684613    1457.1612  0.066319005  0.066287605            4 
 1832000   0.97324926   -3.7707416    1458.0955  0.066325304  0.066275659            3 
 1833000   0.94470003   -3.7599489    1455.9213  0.066190277  0.066263624            1 
 1834000   0.95877226   -3.7519081     1461.994  0.066430116  0.066251545            4 
 1835000     0.954986   -3.7916896    1453.8023  0.066021903  0.066239692            2 
 1836000   0.96278772   -3.7606679    1454.9104  0.066036237  0.066227859            3 
 1837000   0.96708906   -3.7657172    1459.3075  0.066199758  0.066216039            2 
 1838000   0.94397657   -3.7376404    1461.3789  0.066257657  0.066204343            2 
 1839000   0.97221611   -3.7758486    1456.2187  0.065987798  0.066192422            7 
 1840000   0.93614142   -3.7570465     1463.172  0.066266849  0.066180478            4 
 1841000   0.95440972     -3.77362    1460.1893  0.066095842   0.06616839            4 
 1842000    0.9558935   -3.7846998    1457.5564  0.065940844  0.066156707            3 
 1843000   0.97142175   -3.7719249     1461.302  0.066074426  0.066145026            5 
 1844000   0.96908492   -3.7811235    1461.7193   0.06605745  0.066133452            4 
 1845000   0.95646692   -3.7810113    1468.6837  0.066336209  0.066121836            6 
 1846000   0.97416307   -3.7597795    1468.5966  0.066296345  0.066110458            2 
 1847000   0.95223105   -3.7211756    1471.2587  0.066380557  0.066099147            3 
 1848000   0.95229509   -3.7499638    1474.7829  0.066503558  0.066087794            4 
 1849000   0.94127023   -3.7403324    1468.2573  0.066173486  0.066076311            3 
 1850000   0.97130147   -3.7689046    1469.5449  0.066195717  0.066064903            2 
 1851000   0.96054915   -3.7928269    1469.8388  0.066173184  0.066053554            4 
 1852000   0.95617716   -3.7667175    1475.1158  0.066374901   0.06604202            3 
 1853000   0.93076941   -3.7925001    1464.1705  0.065846849  0.066030647            5 
 1854000   0.96091073    -3.785792    1466.5458  0.065918097  0.066018869            3 
 1855000   0.96219215   -3.7797864    1473.1693  0.066180111  0.066007352            8 
 1856000    0.9831506   -3.7595105    1476.5536  0.066296406  0.065995865            2 
 1857000   0.95872152   -3.7585655    1478.4411   0.06634541  0.065984572            2 
 1858000   0.95827683    -3.795077    1468.8768  0.065880733  0.065973072            2 
 1859000   0.95235538   -3.8148442     1471.871  0.065979516  0.065961028            2 
 1860000   0.95207425   -3.7413597    1470.3053  0.065873895  0.065949222            6 
 1861000   0.97295361   -3.7849678    1472.3814  0.065931463  0.065937507            5 
 1862000   0.96676151   -3.7874057    1478.3216  0.066161905  0.065925988            3 
 1863000   0.93705796   -3.7916796    1473.6809  0.065918811  0.065914212            5 
 1864000   0.96409298   -3.7988785     1469.121  0.065679587  0.065902495            2 
 1865000   0.96534486   -3.7936194    1472.8196  0.065809635  0.065890869            4 
 1866000   0.95978492   -3.7594952     1473.212  0.065791889  0.065879177            3 
 1867000   0.94455157   -3.7824066    1477.3081  0.065939481  0.065867338            2 
 1868000   0.94907268   -3.7892989    1473.3188  0.065726212  0.065855232            2 
 1869000   0.95622766   -3.7710718    1477.4216  0.065873978  0.065843377            5 
 1870000   0.95879099   -3.7469278    1481.6129  0.066025531  0.065831801            4 
 1871000   0.93727855   -3.7929611    1479.3992  0.065891643  0.065820159            4 
 1872000   0.98110387   -3.7622577    1479.7342   0.06587136  0.065808315            2 
 1873000   0.97429685   -3.7899602    1474.3764  0.065597812  0.065796538            2 
 1874000   0.95388308   -3.7917884    1477.6947  0.065710367  0.065784776            2 
 1875000   0.94764934   -3.7862644    1471.3326  0.065392558  0.065772879            3 
 1876000   0.95041235   -3.7850189    1479.5288  0.065721783  0.065760813            7 
 1877000   0.94973643   -3.7859223    1481.1028  0.065756649  0.065748975            2 
 1878000   0.96012755   -3.7619346     1475.978  0.065494231  0.065737022            2 
 1879000   0.94648771   -3.7821382    1479.4393  0.065612886  0.065725247            6 
 1880000   0.93163465   -3.8124288    1484.0636  0.065782963  0.065713549            2 
 1881000   0.93010157   -3.7788007     1478.639  0.065507663  0.065701857            2 
 1882000   0.95085926    -3.775928     1493.954  0.066150991  0.065690338            3 
 1883000   0.97028821   -3.7853739    1491.0675  0.065988118  0.065678557            2 
 1884000   0.95677661   -3.7869465    1485.8991  0.065724485  0.065666899            3 
 1885000   0.97141556   -3.7920522    1485.5462  0.065674013  0.065655096            2 
 1886000   0.94391094   -3.8044029    1490.7775  0.065870339   0.06564333            2 
 1887000   0.94632118   -3.7999714    1485.2234  0.065590153  0.065631516            4 
 1888000   0.93469918    -3.778686    1486.1189  0.065594935  0.065619625            1 
 1889000   0.93569708   -3.7696911    1488.2256  0.065653152   0.06560789            3 
 1890000   0.92847934   -3.7645746    1489.3229  0.065666794  0.065595909            3 
 1891000   0.96322722   -3.7868512    1486.9989  0.065529655  0.065583602            4 
 1892000   0.94142656   -3.7958595    1483.7899  0.065353679  0.065571645            3 
 1893000   0.94045793   -3.7771405    1482.7998  0.065275567  0.065559178            3 
 1894000   0.93964508   -3.7725614    1487.6711  0.065455432  0.065547243            3 
 1895000   0.92170096   -3.7780962    1484.8342  0.065296139  0.065534749            3 
 1896000   0.96089582   -3.8009737    1487.7664  0.065390576  0.065522193            4 
 1897000   0.93940844   -3.7811888    1491.2719  0.065510101  0.065509773            4 
 1898000   0.95665566   -3.7700441    1489.9876  0.065419195  0.065497461            3 
 1899000   0.94476814    -3.797165    1486.0758  0.065213085  0.065484889            5 
 1900000   0.95658876   -3.7660521    1492.5052  0.065460753  0.065472532            2 
 1901000   0.94138648   -3.8083946     1492.528  0.065427318  0.065460445            3 
 1902000   0.94958317   -3.8097348    1493.5298  0.065436814  0.065447912            6 
 1903000    0.9493061   -3.7717782    1492.5337  0.065358806  0.065435624            3 
 1904000   0.93025953   -3.8226517    1486.8631  0.065076292  0.065423348            6 
 1905000   0.93206084   -3.7751868    1493.1111  0.065315445  0.065410935            4 
 1906000   0.94724119    -3.816626    1490.6824  0.065174992  0.065398711            2 
 1907000   0.94657393   -3.8023101    1489.2925   0.06508008  0.065386492            3 
 1908000   0.97234966   -3.8223831    1491.9941  0.065163962  0.065373998            6 
 1909000   0.95700003    -3.824631    1489.7519  0.065031948  0.065361596            7 
 1910000   0.94512352   -3.7969951    1497.0648  0.065316964   0.06534917            4 
 1911000   0.95032545   -3.7965912    1489.8177  0.064966758  0.065336739            5 
 1912000   0.96319678   -3.7967636    1490.3388  0.064955491  0.065324001            4 
 1913000   0.94852357   -3.8216658    1496.0047  0.065168351  0.065311578            4 
 1914000   0.94883703   -3.7821942    1492.9711  0.065002226  0.065299164            2 
 1915000   0.95523508   -3.8082556    1496.5417  0.065123661  0.065286903            4 
 1916000   0.93614558   -3.7920636    1497.9259  0.065149873  0.065274518            1 
 1917000   0.95054292   -3.7901186    1495.4671  0.065009003   0.06526215            3 
 1918000   0.94183226   -3.8001122    1502.0298  0.065260247  0.065249911            4 
 1919000   0.95558058   -3.7664253    1502.9724  0.065267172  0.065237665            1 
 1920000   0.95581442   -3.7706207    1499.1309  0.065066444  0.065225352            7 
 1921000   0.94516083   -3.8186216    1500.8593  0.065107555  0.065212959            2 
 1922000   0.93787025   -3.8083556    1497.9991  0.064949668  0.065200347            3 
 1923000   0.91952953   -3.7616356    1502.0111  0.065089753  0.065187836            3 
 1924000   0.94592254    -3.799853    1497.3418  0.064853682  0.065175091            3 
 1925000   0.92330087   -3.7966868    1500.1112  0.064939878  0.065162497            2 
 1926000   0.93157593   -3.7851048    1502.3971  0.065005065  0.065150099            3 
 1927000   0.94269871   -3.7663599    1504.0648  0.065043453  0.065137792            6 
 1928000   0.94864131   -3.7813108    1499.0401  0.064792536  0.065125259            2 
 1929000    0.9347691   -3.7640054    1505.3457  0.065031351  0.065113209            2 
 1930000   0.95749014   -3.8155005    1498.8268  0.064716185  0.065100426            6 
 1931000   0.95651943   -3.7905819    1500.4208  0.064751459  0.065087718            3 
 1932000   0.95503335   -3.7845956    1505.3895  0.064932257  0.065075184            5 
 1933000   0.95292035   -3.7771767    1508.3559  0.065026552  0.065062643            1 
 1934000   0.94489285    -3.819288    1501.7033  0.064706278  0.065049876            4 
 1935000   0.93923114   -3.7712404    1505.1502  0.064821285  0.065037076            4 
 1936000   0.94504922   -3.7812418    1498.8584  0.064516974   0.06502401            2 
 1937000   0.94065918    -3.790486     1507.934  0.064874117  0.065010875            3 
 1938000   0.93122632   -3.8193137    1499.3177  0.064470147  0.064997788            2 
 1939000   0.93289836   -3.7765625    1501.6638  0.064537726  0.064984522            2 
 1940000   0.94951298   -3.7970999    1501.9524  0.064516854  0.064971517            3 
 1941000    0.9352398   -3.7850602    1503.4995  0.064550039  0.064958275            3 
 1942000   0.91968963   -3.7667063    1508.0794   0.06471333  0.064945212            2 
 1943000   0.95167267   -3.7682392    1503.7769  0.064495492   0.06493217            3 
 1944000   0.93234396   -3.8284956     1501.011   0.06434375  0.064919004            5 
 1945000   0.94943215   -3.8063583    1507.1583  0.064574049  0.064905437            2 
 1946000   0.94828807   -3.7913795    1504.5803  0.064430469  0.064892229            3 
 1947000   0.94147603   -3.8298531    1506.6492  0.064485928  0.064879066            2 
 1948000   0.93800443   -3.8023155    1505.3305   0.06439641  0.064865803            3 
 1949000   0.96798243    -3.820219    1505.5606  0.064373209  0.064852699            3 
 1950000   0.95699224   -3.7953915    1509.2934  0.064499717  0.064839477            5 
 1951000   0.95050557   -3.8013585    1504.7366  0.064272021  0.064826281            5 
 1952000   0.93364298   -3.7889854    1511.1429  0.064512591  0.064812879            4 
 1953000   0.93639021    -3.779346    1514.1962  0.064609841  0.064799812            3 
 1954000   0.95297211   -3.8192782     1509.348  0.064370008  0.064786821            2 
 1955000   0.96169379    -3.801439     1508.914  0.064318586  0.064773266            3 
 1956000   0.92884927   -3.8003798    1509.1262  0.064294743  0.064760044            4 
 1957000   0.94628475   -3.7929825    1516.2324  0.064564487  0.064746945            3 
 1958000   0.95870447   -3.8200152    1507.9357    0.0641784  0.064733872            2 
 1959000   0.94805182   -3.7880664    1514.9801  0.064445299   0.06472089            2 
 1960000   0.94302188    -3.806946    1511.1038  0.064247612  0.064707813            1 
 1961000   0.91705033   -3.7762623    1516.7484  0.064454715   0.06469481            3 
 1962000   0.94294283   -3.7869073    1512.8125  0.064254693  0.064681611            3 
 1963000   0.93023427    -3.796206    1509.1878  0.064068086  0.064668424            2 
 1964000   0.95227303    -3.801256    1517.9476  0.064407144  0.064655114            2 
 1965000   0.95360151   -3.8045754    1516.6403  0.064318927  0.064641926            2 
 1966000    0.9277966   -3.8138085    1513.8331  0.064167222  0.064629157            2 
 1967000   0.93004833   -3.7576475     1522.534  0.064503221  0.064616448            2 
 1968000   0.93032258   -3.8120037     1518.774  0.064311231  0.064603761            8 
 1969000   0.94972202   -3.8261881    1517.1576  0.064210157  0.064590785            2 
 1970000   0.93003938   -3.8077869    1520.6162  0.064323868  0.064578246            4 
 1971000   0.93047814   -3.8020018    1522.3562  0.064364798  0.064565423            4 
 1972000   0.93552766   -3.7687463    1524.3892  0.064418071  0.064552838            2 
 1973000    0.9601011   -3.8183528    1513.8143  0.063938768  0.064540057            4 
 1974000   0.95027503   -3.7938474     1520.305  0.064180387  0.064527301            3 
 1975000   0.93064685   -3.8109035    1517.4364  0.064026852  0.064514513            3 
 1976000   0.94971384   -3.7872602     1521.001  0.064144779  0.064501968            3 
 1977000   0.93129124   -3.8039775    1522.4506  0.064173434    0.0644893            1 
 1978000   0.93971585   -3.8087179    1523.2009  0.064172603  0.064476459            3 
 1979000   0.93366658   -3.7985141    1524.9001  0.064211729   0.06446381            2 
 1980000   0.92448423   -3.8127733     1524.962  0.064181901  0.064450797            3 
 1981000   0.93654508   -3.8085969    1529.7614  0.064351398  0.064438017            2 
 1982000   0.93928826   -3.8018812    1528.3229  0.064258447  0.064425375            2 
 1983000     0.922477     -3.80449    1529.5552  0.064277828  0.064412462            2 
 1984000   0.93744021   -3.7941064    1529.7942  0.064255469  0.064399797            4 
 1985000   0.95760107   -3.8278771    1527.4395  0.064124245  0.064386837            4 
 1986000   0.92177091   -3.7945546     1530.706  0.064229018  0.064374055            2 
 1987000     0.923529   -3.8369223    1524.1947  0.063923616  0.064361343            2 
 1988000   0.91570718   -3.7886489    1528.6845  0.064079665  0.064348463            7 
 1989000   0.94973184   -3.8130844    1523.3161  0.063822527  0.064335519            3 
 1990000     0.927115   -3.7955268    1528.7926   0.06401979  0.064322724            4 
 1991000   0.92276486   -3.8129228    1524.1003  0.063791241  0.064309801            3 
 1992000   0.94156619   -3.8021563    1522.3588  0.063686363  0.064296724            4 
 1993000   0.94280498   -3.8088223    1533.1286  0.064104727  0.064283604            2 
 1994000   0.94428798    -3.789161    1532.8034  0.064058984  0.064270495            5 
 1995000   0.91629771   -3.7687038    1532.8135  0.064027298  0.064257269            9 
 1996000    0.9362738   -3.8237958    1524.7628  0.063659103  0.064243971            4 
 1997000   0.92936708   -3.7776619    1529.8717  0.063840414   0.06423089            7 
 1998000     0.914491   -3.8153855    1533.9527  0.063978673  0.064217924            4 
 1999000   0.92920706     -3.82764    1528.5478  0.063721351   0.06420492            2 
 2000000   0.93753706   -3.8220933    1529.6597   0.06373582  0.064191868            8 
 2001000   0.91826937   -3.8112865    1534.2164  0.063893738  0.064178914            2 
 2002000   0.94339218   -3.7936597    1533.5281  0.063833172  0.064165933            4 
 2003000   0.95261896   -3.8384585    1527.8747  0.063566097  0.064153024            3 
 2004000   0.92836038   -3.8277229    1530.3366   0.06363675   0.06413993            3 
 2005000   0.91746814   -3.8132255    1532.1175  0.063679033  0.064126797            3 
 2006000   0.91801626   -3.7940319    1533.6985  0.063712964  0.064113812            5 
 2007000   0.92284649    -3.824313    1538.5105   0.06388102  0.064100937            2 
 2008000   0.92442551   -3.8207793    1538.4099  0.063845031  0.064087985            6 
 2009000   0.92716334   -3.7954608    1541.4455   0.06393917  0.064074935            4 
 2010000   0.92425576   -3.8213821    1539.4178   0.06382329  0.064061919            4 
 2011000   0.91625157   -3.7981894    1535.1509  0.063614741  0.064048903            4 
 2012000   0.90518817   -3.8041197    1544.5719  0.063973324  0.064036008            2 
 2013000   0.93964307   -3.7952423    1545.8047  0.063992576  0.064023146            7 
 2014000   0.91269708   -3.7999589    1538.7131  0.063667372  0.064010364            7 
 2015000   0.91832232   -3.8087719    1542.3503  0.063786199   0.06399767            2 
 2016000    0.9182978   -3.8270356    1547.5868  0.063971017  0.063984772            3 
 2017000   0.92160543   -3.8003351    1541.4723  0.063686674   0.06397202            5 
 2018000   0.95037683   -3.8023121    1546.4484  0.063860605  0.063959179            5 
 2019000   0.90860997   -3.8063584    1543.1893  0.063694458  0.063946163            2 
 2020000   0.92282827   -3.8379268    1538.8627  0.063484433  0.063933119            3 
 2021000   0.92986118    -3.848748    1540.0798  0.063503208  0.063919863            7 
 2022000   0.92506144   -3.8062752    1544.8412  0.063668033  0.063906796            2 
 2023000   0.93840332   -3.8247765    1539.0573  0.063398305   0.06389379            2 
 2024000   0.93396236   -3.8091974    1541.3539  0.063461542  0.063880673            2 
 2025000   0.93998337   -3.8252105    1541.1594  0.063422198  0.063867697            2 
 2026000   0.92251312   -3.8262454     1547.288  0.063642974  0.063854677            3 
 2027000   0.94875624   -3.8085132    1547.7239  0.063629498  0.063841618            3 
 2028000   0.93447085   -3.8354177    1541.8207   0.06335555  0.063828782            3 
 2029000   0.92568857   -3.8058766    1544.3015  0.063426214  0.063815704            3 
 2030000   0.92949034   -3.8124833     1547.635  0.063531815   0.06380294            3 
 2031000   0.94092884   -3.8402186    1540.8015  0.063220151  0.063790213            5 
 2032000   0.92357505   -3.8205256    1548.2671  0.063495204   0.06377728            4 
 2033000   0.92189947    -3.845264    1545.1167  0.063334837  0.063764344            5 
 2034000   0.92763767   -3.8252513     1550.581  0.063527572  0.063751283            3 
 2035000   0.95975157    -3.804187    1547.4113  0.063366557  0.063738759            2 
 2036000   0.93711526   -3.8310216    1552.9981  0.063564101  0.063726049            3 
 2037000   0.94794908   -3.8192145     1556.931  0.063693788  0.063713576            5 
 2038000   0.91297452   -3.8302788    1551.8325  0.063454062  0.063700776            1 
 2039000   0.94167139   -3.8147547    1553.9796  0.063510693  0.063688331            2 
 2040000   0.90832096    -3.815662    1557.3931  0.063619001  0.063675875            6 
 2041000   0.92320446   -3.8602493    1549.5728  0.063268527  0.063663401            8 
 2042000   0.94404564   -3.8265014    1559.0004  0.063622282  0.063650801            2 
 2043000   0.91299238   -3.8115855    1554.0398  0.063388798  0.063638491            2 
 2044000   0.94393672   -3.8346706    1558.4315  0.063536836  0.063625975            3 
 2045000   0.92208055   -3.8031008    1561.3679  0.063625422  0.063613518            2 
 2046000   0.93625193   -3.7980416    1560.7446   0.06356894  0.063601408            6 
 2047000   0.93311888   -3.8147186    1557.0226  0.063386363  0.063589091           10 
 2048000   0.93968758   -3.8271042    1565.2632  0.063690724  0.063576865            2 
 2049000    0.9081591   -3.7961884    1562.6552  0.063553569  0.063564818            3 
 2050000   0.94083319   -3.8011205    1554.9887  0.063210923   0.06355251            2 
 2051000   0.93814687   -3.8328116    1560.9829  0.063423653   0.06354011            5 
 2052000   0.90914388   -3.8129966    1559.9897  0.063352406  0.063527733            3 
 2053000   0.91608337   -3.8278745    1560.9922  0.063362243  0.063515508            4 
 2054000   0.90957898   -3.8042898    1565.8983  0.063530442  0.063503123            5 
 2055000   0.91818557   -3.8061104    1562.8624  0.063376416  0.063491033            3 
 2056000   0.93012376   -3.8169327    1563.8631  0.063386148  0.063478765            3 
 2057000   0.92318159     -3.82942    1564.9114  0.063397806  0.063466528            4 
 2058000   0.90485964   -3.7855766     1569.012  0.063533041  0.063454228            3 
 2059000   0.93441303   -3.8254084    1559.6985  0.063125245  0.063442063            3 
 2060000   0.92936615   -3.7837751    1569.8242  0.063504217  0.063429942            4 
 2061000   0.92246795   -3.8360447    1564.0509  0.063239968  0.063417884            5 
 2062000   0.90344778   -3.8176442    1566.6841  0.063315718  0.063405578            4 
 2063000   0.92561003   -3.8084341    1569.7914  0.063410545   0.06339345            2 
 2064000   0.91504464   -3.8251554    1572.0841   0.06347239  0.063380985            3 
 2065000   0.93660882   -3.8182972    1572.3999  0.063454395  0.063368859            6 
 2066000   0.90814529   -3.8424021    1571.4767  0.063386444  0.063356654            3 
 2067000   0.92663668   -3.8366539    1575.9298   0.06353531  0.063344442            3 
 2068000   0.90232638   -3.8449256    1565.6476  0.063090248   0.06333213            4 
 2069000   0.92004025   -3.8134567    1577.5302  0.063538353  0.063320011            3 
 2070000   0.92046677   -3.8260661     1573.839  0.063359058  0.063307924            3 
 2071000   0.92913682   -3.8219715    1573.6744  0.063321843  0.063295922            5 
 2072000   0.93862848   -3.8400758    1571.9433  0.063221658  0.063283649            3 
 2073000   0.92510525   -3.8347386    1575.2545  0.063324268  0.063271366            3 
 2074000   0.90351345   -3.8467022    1569.6368  0.063068017  0.063259301            3 
 2075000   0.91371044   -3.8296471    1574.5942  0.063236714  0.063247221            2 
 2076000   0.92947439   -3.8433671    1570.4601  0.063040307  0.063235205            2 
 2077000   0.93075924   -3.8372332    1571.8797  0.063066909  0.063223203            3 
 2078000   0.91713533    -3.825987    1573.9425  0.063119286  0.063211272            5 
 2079000   0.90377995    -3.849815    1575.0193  0.063132088   0.06319895            2 
 2080000   0.93156928   -3.8144691    1581.7913   0.06337305  0.063186841            2 
 2081000   0.91571732    -3.828652     1578.289  0.063202347   0.06317492            3 
 2082000   0.93619934   -3.8413945     1574.221  0.063009165  0.063162669            3 
 2083000   0.91452234   -3.8235179    1581.7979  0.063282042  0.063150515            2 
 2084000   0.92038739   -3.8258162    1580.8015  0.063211834  0.063138409            5 
 2085000   0.92698159   -3.8453497    1581.5365  0.063210892  0.063126404            4 
 2086000   0.92014813   -3.8542767    1579.8201  0.063112019  0.063114619            4 
 2087000   0.91094158   -3.8112556    1584.7516  0.063278693  0.063102694            4 
 2088000   0.93572728   -3.8252616    1588.1245  0.063383001  0.063090915            5 
 2089000   0.92849563   -3.8331801    1583.6358  0.063173601  0.063079066            5 
 2090000    0.9238179   -3.8499091     1581.977  0.063077233  0.063067158            2 
 2091000   0.90880144   -3.8416544    1582.9298  0.063085039  0.063055319            2 
 2092000   0.92508931   -3.8175985    1580.9115  0.062974487  0.063043533            2 
 2093000   0.88833863   -3.8407171    1584.9573  0.063105484  0.063031847            5 
 2094000   0.91674734   -3.8407116    1588.0074  0.063196729  0.063020055            2 
 2095000   0.91762296   -3.8368945    1585.3561  0.063061102  0.063008081            2 
 2096000   0.94231329   -3.8273925    1585.4848  0.063036132  0.062996086            3 
 2097000   0.92688872   -3.8470082    1590.1265  0.063190529  0.062984431            4 
 2098000   0.94070256   -3.8352752    1588.3141  0.063088421  0.062972665            1 
 2099000   0.89327612   -3.8644847    1585.3386  0.062940233  0.062960929            5 
 2100000   0.92589732   -3.8434425    1589.1763   0.06306255  0.062949043            4 
 2101000   0.93447882   -3.8170925    1593.5232  0.063204949   0.06293717            3 
 2102000     0.911988   -3.8196413    1596.5029  0.063293011  0.062925614            3 
 2103000   0.88238085    -3.801806     1594.196    0.0631715  0.062914001            3 
 2104000    0.8988023   -3.8254239    1594.8808  0.063168601  0.062902362            4 
 2105000   0.93046725   -3.8557973     1592.307  0.063036698  0.062890742            3 
 2106000   0.90977153   -3.8363239    1586.9626  0.062795291  0.062878883            2 
 2107000    0.9014462   -3.8235228    1595.9554  0.063121159  0.062867086            4 
 2108000   0.92637445   -3.8288986     1592.308  0.062947028  0.062855425            2 
 2109000   0.90817833   -3.8359574    1597.0932  0.063106258  0.062843706            4 
 2110000   0.92302403   -3.8172361    1593.4984  0.062934378  0.062832088            4 
 2111000   0.91890991    -3.826675    1595.5485  0.062985492   0.06282056           11 
 2112000   0.91467249   -3.8244868    1595.7129  0.062962157  0.062808846            2 
 2113000   0.91453723   -3.8370376    1600.0805   0.06310461  0.062796809            5 
 2114000   0.90760759   -3.8734175    1593.3375   0.06280895  0.062784997            3 
 2115000   0.91280986   -3.8430092    1597.8298  0.062956256  0.062773358            7 
 2116000    0.9174445   -3.8160475    1600.4268  0.063028781  0.062761535            2 
 2117000     0.911092   -3.8509326    1597.4126  0.062880359  0.062749745            7 
 2118000   0.92406035   -3.8306112    1595.6597    0.0627817  0.062737949            5 
 2119000   0.89304811   -3.8587404    1593.0624  0.062649929  0.062726303            5 
 2120000    0.9249511   -3.8325566    1602.4753  0.062990381  0.062714629            4 
 2121000   0.91858146    -3.845794     1602.931  0.062978587     0.062703            4 
 2122000   0.92252434    -3.823973     1600.308  0.062845902  0.062691364            3 
 2123000   0.92388333   -3.8271353    1607.2267  0.063087876  0.062679587            4 
 2124000   0.88035805   -3.8738778    1603.1222  0.062897135  0.062667798            4 
 2125000   0.92248358   -3.8569593    1595.4518  0.062566735  0.062656012            3 
 2126000   0.92394236   -3.8367881    1602.4965  0.062813439  0.062644003            5 
 2127000   0.91388778   -3.8439296    1604.0326  0.062844092  0.062632203            3 
 2128000   0.91550232   -3.8309274    1598.6821  0.062605032  0.062620459            5 
 2129000   0.91496609   -3.8365751    1603.5955  0.062767946  0.062608686            4 
 2130000   0.90664476   -3.8274705    1606.5459  0.062853908  0.062596893            6 
 2131000   0.90335442   -3.8562198    1605.3264  0.062776724  0.062585168            3 
 2132000    0.9049583   -3.8643935    1598.1555  0.062466991  0.062573386            3 
 2133000   0.92167598   -3.8292194     1606.615  0.062768205  0.062561722            3 
 2134000   0.91680707   -3.8604964     1608.309  0.062804944  0.062550112            7 
 2135000   0.90331197   -3.8574603    1606.1789  0.062692387  0.062538286            4 
 2136000   0.91238136   -3.8238356    1610.1871   0.06281941  0.062526764            6 
 2137000    0.9089534   -3.8509572    1607.0361  0.062667139  0.062514915            3 
 2138000   0.89010252   -3.8223936    1609.8646  0.062748073  0.062503376            3 
 2139000   0.91506978    -3.851034    1603.7889  0.062482037  0.062491714            5 
 2140000   0.90901851    -3.856071     1608.436  0.062633801  0.062479955            3 
 2141000   0.92206322    -3.827283    1614.0395   0.06282265  0.062468222            6 
 2142000   0.92246335   -3.8450498    1612.1455  0.062719634  0.062456375            1 
 2143000   0.91409932   -3.8409178    1607.1046  0.062494346  0.062444697            5 
 2144000   0.91333567    -3.858298    1612.7629  0.062685125  0.062432817            2 
 2145000   0.88203979   -3.8392171    1612.6364  0.062650987  0.062421039            3 
 2146000   0.91235894   -3.8163589     1616.002  0.062752486  0.062409272            2 
 2147000   0.91109076   -3.8621091    1606.7402  0.062363773  0.062397539            3 
 2148000   0.91009319   -3.8433835    1615.6287  0.062679575  0.062386076            3 
 2149000    0.8950965   -3.8342297    1618.4151  0.062758457  0.062374514            5 
 2150000   0.89627255   -3.8541439    1610.5255  0.062423468  0.062363045            3 
 2151000   0.88406332   -3.8530055    1610.8003  0.062405095  0.062351591            5 
 2152000   0.91648127   -3.8472521    1608.6988  0.062294719  0.062339901            5 
 2153000   0.89293137   -3.8248225    1618.4661  0.062643834  0.062328281            3 
 2154000   0.89957101   -3.8953832    1607.6824  0.062197553  0.062316789            3 
 2155000   0.91273109   -3.8506575     1622.415  0.062738399  0.062305386            5 
 2156000   0.90586271   -3.8610003    1619.0829  0.062580508  0.062294024            3 
 2157000   0.89808904   -3.8496209    1617.5332  0.062491624  0.062282995            2 
 2158000   0.91518253   -3.8469418    1622.0966  0.062638886   0.06227176            2 
 2159000   0.89996257   -3.8607466    1625.8131  0.062753322   0.06226063            4 
 2160000    0.9061709   -3.8452621    1619.1082  0.062465594  0.062249423            5 
 2161000   0.91113913   -3.8543808    1622.8858  0.062582363   0.06223797            4 
 2162000    0.9079616   -3.8525166    1620.2747  0.062452771  0.062226633            3 
 2163000   0.92365195   -3.8415698    1624.8465  0.062600034  0.062215409            2 
 2164000   0.89314273   -3.8752122    1617.1738  0.062275637  0.062204161            3 
 2165000    0.9312621   -3.8729037    1619.8892  0.062351395  0.062192832            9 
 2166000    0.9197536   -3.8223739    1624.4635  0.062498597  0.062181289            3 
 2167000   0.89137795   -3.8377183    1620.2817   0.06230894  0.062170001            2 
 2168000   0.90022212   -3.8636321    1620.2096  0.062277429  0.062158662            3 
 2169000   0.87898779   -3.8732828    1619.2158  0.062210534  0.062147208            5 
 2170000   0.89396653   -3.8504556    1625.3974  0.062419255  0.062135863            8 
 2171000   0.91033516    -3.845616    1625.3563  0.062388926  0.062124605            3 
 2172000   0.89637973   -3.8522116    1625.4397  0.062363402  0.062113653            2 
 2173000   0.90293472   -3.8475469     1625.783  0.062347869  0.062102626            6 
 2174000   0.90463375   -3.8593365    1627.7532  0.062394711  0.062091314           10 
 2175000   0.93272211    -3.847459    1624.5744  0.062244231  0.062080058            2 
 2176000   0.90129156   -3.8322967    1629.0591  0.062387375  0.062069022            5 
 2177000   0.91330937   -3.8418277    1627.6143  0.062303411  0.062058096            2 
 2178000   0.88920857    -3.850245    1634.0041  0.062519287  0.062047102            3 
 2179000   0.91081852    -3.845448    1632.5462   0.06243484   0.06203616            3 
 2180000   0.90277557   -3.8444466    1628.9275  0.062267872  0.062025048            3 
 2181000    0.9092812   -3.8664806    1628.8607  0.062236768  0.062013652            2 
 2182000   0.90572433   -3.8695366    1628.2821   0.06218615  0.062002377            6 
 2183000   0.89638615    -3.873314    1628.3595  0.062160616  0.061991127            2 
 2184000   0.90215113   -3.8541218    1630.9881  0.062232453   0.06197982            5 
 2185000   0.90690492   -3.8566357    1630.9253  0.062201573  0.061968457            4 
 2186000   0.89800304   -3.8662601    1631.3077  0.062187697  0.061957056            3 
 2187000   0.90955163   -3.8359765    1631.3118  0.062159418  0.061945735            2 
 2188000   0.88903315   -3.8827124    1636.5207  0.062329399  0.061934596            5 
 2189000   0.88490258   -3.8093227    1635.9114  0.062277731   0.06192358            2 
 2190000   0.89553072   -3.8297939    1633.1532  0.062144337  0.061912167            6 
 2191000   0.89316616   -3.8657291    1631.8582  0.062066718  0.061900882            3 
 2192000   0.91336693   -3.8755342    1635.6415  0.062182235  0.061889628            6 
 2193000   0.90589044   -3.8452244    1638.5573  0.062264678  0.061878468            3 
 2194000   0.91563265   -3.8437002    1633.3273  0.062037651  0.061867203            1 
 2195000   0.91205999   -3.8502999    1630.0042  0.061883226  0.061856037            3 
 2196000   0.88515582   -3.8488941    1638.1404  0.062163799  0.061844918            6 
 2197000   0.89983418   -3.8539669    1640.1741  0.062212641  0.061833927            4 
 2198000   0.89773214   -3.8419528     1637.904  0.062098271  0.061822778            4 
 2199000   0.89817209   -3.8896061    1635.5113  0.061979356  0.061811636            4 
 2200000   0.88674779   -3.8510694    1637.9559  0.062043786  0.061800431            3 
 2201000    0.9147089   -3.8318956    1638.2242  0.062025752  0.061789327            4 
 2202000   0.89900684   -3.8776199    1635.9421  0.061911223  0.061778219            6 
 2203000    0.9213189   -3.8729033    1634.2571  0.061819377  0.061767049            3 
 2204000   0.89655331   -3.8693437    1643.9649  0.062158382  0.061755925            2 
 2205000   0.87655533   -3.8625169    1643.3909  0.062108501  0.061744901            1 
 2206000   0.88537135   -3.8738217     1643.453  0.062082692  0.061733769            5 
 2207000    0.9019632   -3.8827686    1640.2959  0.061935355  0.061722551            4 
 2208000   0.90886702   -3.8384749    1649.1187  0.062240289  0.061711622            3 
 2209000   0.89939906   -3.8608024    1648.0441  0.062171576  0.061700443            3 
 2210000   0.90124609   -3.8761964    1640.2662   0.06185016  0.061689194            5 
 2211000   0.90805533   -3.8648878     1643.735  0.061952924  0.061677826            3 
 2212000   0.88316567   -3.8664004     1650.418  0.062176689  0.061666635            4 
 2213000    0.8971356   -3.8645349    1643.2704   0.06187944  0.061655434            3 
 2214000   0.89198891   -3.8697347    1645.4856  0.061934869  0.061644255            2 
 2215000   0.90997862   -3.8526125     1646.856  0.061958467  0.061632903            3 
 2216000   0.89678501   -3.8570846    1645.9083  0.061894867  0.061621764            4 
 2217000    0.8778357   -3.8625862    1644.8449  0.061826978  0.061610643            3 
 2218000   0.89492685   -3.8519778    1645.7778  0.061834154  0.061599325            6 
 2219000    0.8864227   -3.8302983    1646.5369  0.061834794  0.061588129            2 
 2220000   0.89536151   -3.8932325    1647.8256  0.061855315     0.061577            3 
 2221000    0.8961257   -3.8636336    1646.1687  0.061765299  0.061565739            3 
 2222000    0.8825983   -3.8835013    1647.0378  0.061770095  0.061554474            4 
 2223000    0.9008859   -3.8702413    1646.1938  0.061710669  0.061543205            3 
 2224000   0.88640293   -3.8553023    1654.3753  0.061989482  0.061531939            6 
 2225000   0.90625569   -3.8533363     1652.403  0.061887753  0.061520971            3 
 2226000    0.9078439   -3.8784813    1649.4883  0.061750834  0.061509682            4 
 2227000   0.89536915   -3.8442959    1660.1602  0.062122446  0.061498576            2 
 2228000   0.88593996   -3.8619584      1651.58  0.061773637  0.061487545            3 
 2229000   0.89740722   -3.8835598    1652.5386  0.061781761  0.061476384            2 
 2230000   0.89202302   -3.8801409    1653.3643  0.061784912  0.061464906            4 
 2231000   0.88891453   -3.8746442    1657.4877  0.061911239  0.061453882            2 
 2232000   0.90474396   -3.8832711    1653.2765  0.061726273  0.061442726            2 
 2233000   0.88092423   -3.8575085    1655.5194  0.061782334  0.061431553            4 
 2234000   0.88605794   -3.8684606    1656.7402  0.061800216  0.061420267            7 
 2235000   0.87597369   -3.8449303    1654.5145  0.061689577  0.061408961            6 
 2236000   0.89813356   -3.8680753    1658.7067  0.061818229  0.061397652            3 
 2237000   0.89556226   -3.8802385    1652.5936  0.061562867  0.061386505            3 
 2238000   0.89432962   -3.8947011    1651.0046  0.061476191  0.061375108            2 
 2239000   0.88880071   -3.8796758    1655.0798  0.061600409  0.061363731            3 
 2240000   0.92553967   -3.8771982     1655.942  0.061604985  0.061352514            2 
 2241000   0.89093504   -3.8474641    1657.9746  0.061653077  0.061341263            3 
 2242000    0.8960011   -3.8809412    1651.9912  0.061403183   0.06132992            5 
 2243000   0.89262851   -3.8768209    1657.1053  0.061565809  0.061318581            3 
 2244000   0.90915633   -3.8875695    1654.8638  0.061455131  0.061307166            3 
 2245000   0.89843678   -3.8824332     1658.993  0.061581033   0.06129561            3 
 2246000   0.87113095   -3.8794776     1656.796  0.061472099  0.061284008            4 
 2247000   0.88462052   -3.8658628      1658.22  0.061497553  0.061272392            4 
 2248000    0.8875407   -3.8421671    1660.6373  0.061559804  0.061261025            4 
 2249000   0.87357038   -3.8895965    1658.4256  0.061450481  0.061249726            2 
 2250000   0.90225328   -3.8568673    1665.6422  0.061690451  0.061238303            2 
 2251000   0.90467664   -3.8624374    1657.5627   0.06136394  0.061226868            5 
 2252000   0.87720153    -3.868974    1663.0129   0.06153837  0.061215399            3 
 2253000   0.91250125   -3.8653679    1661.2062  0.061444229  0.061203845            7 
 2254000   0.89761822   -3.8478713    1664.7724  0.061548815  0.061192351            3 
 2255000   0.89719671   -3.8810973     1653.602  0.061108721  0.061180727            3 
 2256000   0.90207431   -3.8407038    1655.3219  0.061145166  0.061169102            6 
 2257000   0.90504279   -3.8624653    1656.7375   0.06117034  0.061157538            3 
 2258000   0.88696728   -3.8715888    1662.0851  0.061340608  0.061146003            4 
 2259000   0.88021965   -3.8991265    1658.9594  0.061198149  0.061134391            3 
 2260000   0.90749163    -3.907133    1658.5813  0.061157129  0.061122607            9 
 2261000   0.90138363   -3.8864197    1662.2179  0.061264111  0.061111015            2 
 2262000   0.89934449   -3.8491693      1664.33  0.061314841  0.061099431            4 
 2263000   0.89461767   -3.9288753    1661.0619  0.061167398  0.061087737           10 
 2264000   0.88815313   -3.8878809    1665.2818  0.061295707  0.061076132            3 
 2265000    0.8862591   -3.8927416     1657.028  0.060964975  0.061064488            4 
 2266000   0.88415306   -3.8600964    1663.9929  0.061194207  0.061052921            2 
 2267000   0.89441539   -3.8869908    1666.4297   0.06125679  0.061041243            3 
 2268000   0.87753306   -3.9135602    1661.3012  0.061041343  0.061029606            4 
 2269000    0.8865759   -3.8691536    1659.7973  0.060959208  0.061017871            3 
 2270000   0.89876847   -3.8695327    1662.5539  0.061033551  0.061006207            1 
 2271000   0.90870204   -3.8630287    1668.0219  0.061207321  0.060994395            3 
 2272000   0.88797073   -3.8907637    1656.5193  0.060758482  0.060982649            3 
 2273000   0.90332137   -3.8720998     1666.694  0.061104782   0.06097096            1 
 2274000   0.87142524   -3.8631574    1665.9442  0.061050432  0.060959293            4 
 2275000   0.88333878   -3.8866661    1659.5094  0.060787891  0.060947563            2 
 2276000   0.88243329   -3.8555898    1664.8762  0.060957683  0.060935602            3 
 2277000   0.89609399    -3.854433    1669.0643  0.061084188  0.060923942            4 
 2278000   0.89903904   -3.8818531    1666.9475  0.060979935  0.060912292            3 
 2279000   0.89119212   -3.8746932    1671.8443  0.061132233  0.060900622            4 
 2280000   0.87426344   -3.8670882    1674.0667  0.061186649  0.060889222            3 
 2281000   0.90150198   -3.8620493    1680.0686  0.061379095  0.060877782            6 
 2282000   0.88905757   -3.9006744    1673.1815  0.061100697  0.060866294            3 
 2283000    0.8876739   -3.8865659    1669.5094  0.060939898  0.060854751            3 
 2284000   0.88385437   -3.8821796     1672.312  0.061015469  0.060843092            5 
 2285000   0.86729189   -3.8725424     1673.992  0.061050036  0.060831559            6 
 2286000   0.87397929   -3.8786192    1679.9271  0.061239687  0.060820249            2 
 2287000    0.8675134    -3.883755    1675.3168  0.061044919  0.060808798            5 
 2288000   0.89398691   -3.8475976    1675.6145  0.061029083  0.060797464            2 
 2289000   0.87940543   -3.8845208    1676.7378  0.061043317  0.060786164            3 
 2290000   0.88366305   -3.8807912    1681.3523  0.061184582  0.060774758            6 
 2291000    0.9131982   -3.8735005     1681.026  0.061146004  0.060763411            7 
 2292000   0.87757765   -3.9057282    1678.2215   0.06101736  0.060752061            4 
 2293000   0.88050397   -3.9162019    1681.6167  0.061114142  0.060740628            3 
 2294000   0.90119114   -3.8803052    1677.4718  0.060936929  0.060729314            5 
 2295000   0.86956513   -3.8664173    1681.8981  0.061071102  0.060718123            4 
 2296000   0.88547946   -3.8893792    1678.0368  0.060904354  0.060706704            2 
 2297000   0.87554545   -3.8912836    1678.6713   0.06090086  0.060695316            3 
 2298000    0.8870219   -3.8569614    1685.8952  0.061136321  0.060684039            5 
 2299000   0.88344517   -3.9182773    1676.0773  0.060753854  0.060672749            9 
 2300000   0.87579827   -3.8879578     1674.793  0.060680906  0.060661266            3 
 2301000   0.88403758   -3.8637397    1685.0666  0.061026605  0.060650102            4 
 2302000   0.87515623   -3.8861472    1682.9923  0.060925003  0.060638847            6 
 2303000    0.8708652    -3.846851    1688.7715  0.061107667  0.060627501            3 
 2304000   0.86799012   -3.8483596    1678.9183  0.060724766  0.060616357            5 
 2305000   0.88654926   -3.9088881    1682.3831  0.060823684  0.060605066            3 
 2306000   0.88040575   -3.9095525    1679.4716  0.060692092  0.060593668            5 
 2307000    0.8748777   -3.8914908    1689.0737  0.061012631   0.06058224            3 
 2308000   0.88180573   -3.9104311    1684.7515  0.060830139  0.060570668            3 
 2309000   0.88456996   -3.9191891    1687.9297  0.060918497  0.060559238            2 
 2310000   0.88168975   -3.8934263    1688.4292  0.060910143  0.060547889            6 
 2311000   0.88543488   -3.8889821    1686.4246  0.060811503  0.060536638            2 
 2312000   0.87661753   -3.8966699    1688.3122  0.060853238   0.06052537            6 
 2313000   0.89602835    -3.877754    1691.7277   0.06094998  0.060514178            6 
 2314000   0.87478382   -3.8883237     1690.518  0.060880076  0.060502807            2 
 2315000   0.87220833    -3.915007    1690.8581  0.060866021  0.060491471            3 
 2316000   0.90539903   -3.9139621    1689.0661  0.060775263  0.060480361            5 
 2317000   0.87604926   -3.9079792    1683.9714  0.060565795  0.060468913            3 
 2318000    0.8764869   -3.9057565    1688.3997  0.060698868  0.060457619            5 
 2319000   0.87486207   -3.8850331    1690.8218  0.060759731  0.060446147            2 
 2320000   0.87480904    -3.896362    1692.8252  0.060805503  0.060434699            5 
 2321000   0.87614075   -3.9041491    1690.9394  0.060711597  0.060423488            2 
 2322000   0.88963018   -3.8709573    1693.3233  0.060771007  0.060412113            4 
 2323000   0.87246777   -3.8879154    1684.6642  0.060434217  0.060400659            3 
 2324000   0.88835377   -3.9171908    1692.1185  0.060675505  0.060389198            3 
 2325000   0.87271965   -3.8913381     1696.988  0.060823942  0.060377933            2 
 2326000   0.86268617   -3.8908685    1688.8235  0.060505285  0.060366555            4 
 2327000   0.85096972   -3.9106361    1693.6061  0.060650555  0.060354969            3 
 2328000   0.87317472   -3.8885716     1687.417  0.060402955  0.060343309            3 
 2329000   0.89049944   -3.8801055    1690.3433  0.060481727  0.060331826            3 
 2330000   0.88347732   -3.9055336    1692.3592  0.060527868  0.060320302            5 
 2331000   0.89790909   -3.8684274    1691.1242  0.060457751  0.060308578            4 
 2332000   0.87470879   -3.9116162    1691.5388  0.060446639  0.060296958            3 
 2333000   0.90021794   -3.9131862    1691.2964  0.060412072  0.060285296            8 
 2334000   0.86388392   -3.8863782    1691.3688  0.060388774  0.060273675            2 
 2335000   0.88244584   -3.8820254    1692.3015    0.0603962   0.06026204            5 
 2336000   0.89280398   -3.8968911     1691.301  0.060334654  0.060250558            3 
 2337000   0.86883235   -3.8834875    1695.6181  0.060462776  0.060239127            3 
 2338000   0.88615783   -3.8924738    1695.2205  0.060422743  0.060227579            6 
 2339000   0.89569122   -3.8939975    1693.4612  0.060334231  0.060215972            2 
 2340000   0.86459861   -3.9042397    1695.9174  0.060395919  0.060204375            6 
 2341000   0.89321976   -3.9139017    1695.3383  0.060349504  0.060192638            4 
 2342000   0.87125256   -3.8881572    1687.4588  0.060043366  0.060181052            4 
 2343000   0.87004678   -3.8850968    1692.8639  0.060209984  0.060169325            4 
 2344000   0.88508221    -3.901777    1692.0727  0.060156168  0.060157815            4 
 2345000   0.88317707   -3.8806029    1701.7519  0.060474483  0.060146278            7 
 2346000    0.8752933   -3.8905884    1699.4014  0.060365209  0.060134682            8 
 2347000   0.87103634   -3.9269568    1700.0505  0.060362539  0.060123242            5 
 2348000   0.89377339   -3.8868709    1700.1969  0.060342027  0.060111445            3 
 2349000   0.86897861   -3.9115334    1697.3633  0.060215813  0.060099828            3 
 2350000   0.90382353   -3.8959067    1700.3205  0.060295052   0.06008821            5 
 2351000   0.87805047   -3.8978211    1694.2807  0.060055319  0.060076654            8 
 2352000   0.87391582   -3.9156063    1693.1569   0.05998997  0.060064678            4 
 2353000   0.86324955   -3.8944566    1699.7367  0.060197502  0.060053133            6 
 2354000   0.86041408   -3.8815139    1702.8169  0.060280971  0.060041348            3 
 2355000   0.86448523   -3.8984757    1698.9569  0.060118788  0.060029735            2 
 2356000   0.88636093    -3.894041    1706.2083  0.060349756  0.060018008            3 
 2357000   0.88240515   -3.8974874    1696.9646  0.059997334  0.060006434            5 
 2358000   0.88212029   -3.9361371     1698.612   0.06003011  0.059994761            4 
 2359000    0.8808406   -3.9217551    1696.8056  0.059940849  0.059982995            3 
 2360000   0.88942575   -3.9148113    1700.7222   0.06005375  0.059971302            4 
 2361000   0.85854897    -3.896641     1697.055  0.059898878   0.05995965            6 
 2362000   0.89008774   -3.8881957    1709.0532  0.060296824  0.059948104            4 
 2363000   0.86983106   -3.9064638    1698.0887  0.059884636   0.05993644            4 
 2364000   0.86257961   -3.8951861    1708.6873  0.060232914  0.059924707            2 
 2365000   0.86185543   -3.9102433    1701.9631   0.05997051  0.059912975            3 
 2366000   0.87599511   -3.8972495     1704.332  0.060028601  0.059901114            2 
 2367000   0.88495404    -3.921067    1694.3124  0.059650486  0.059889317            7 
 2368000   0.87088283   -3.8824351     1705.968  0.060035472  0.059877476            3 
 2369000   0.86058847   -3.9118364    1698.6325  0.059752094  0.059865587            2 
 2370000   0.87057828   -3.9013095    1700.0592  0.059777046  0.059853868            4 
 2371000   0.86923374   -3.8969832    1706.1406  0.059965577  0.059841951            3 
 2372000   0.88043775   -3.8897151    1703.5936  0.059850813  0.059830162            7 
 2373000   0.87799176   -3.9014022    1708.0363  0.059981609  0.059818492            2 
 2374000   0.86012816   -3.9171703    1702.8538  0.059774423  0.059806873            4 
 2375000   0.87588778   -3.8796814    1707.3884  0.059908366  0.059795316            3 
 2376000   0.87169361   -3.9076074    1703.0877  0.059732313  0.059783781            5 
 2377000   0.86532537   -3.9062743    1710.3052  0.059960216  0.059771939            6 
 2378000   0.86961281    -3.911715    1713.7719  0.060056487  0.059760489            3 
 2379000   0.86780215   -3.9083998    1708.6956  0.059853424  0.059748924            9 
 2380000   0.87065059    -3.914647    1719.8779  0.060219813  0.059737373            3 
 2381000   0.88514462   -3.8846709    1712.8848  0.059949769  0.059725672            3 
 2382000    0.8656167   -3.8869785    1707.1542  0.059724117  0.059714025            3 
 2383000   0.88240111   -3.9142414    1709.0787  0.059766356  0.059702526            4 
 2384000   0.85618553   -3.8810209    1716.5835  0.060003619  0.059690919            3 
 2385000   0.86421268   -3.9095115    1709.5992  0.059734423  0.059679116            6 
 2386000   0.87129341   -3.9087621    1712.4341  0.059808401  0.059667548            3 
 2387000   0.88638126   -3.9123334    1713.7278  0.059828508  0.059655825            2 
 2388000   0.86638512   -3.9084859    1714.1942  0.059819731  0.059644166            4 
 2389000   0.87151218   -3.8945964     1717.039  0.059893925  0.059632592            2 
 2390000   0.86642078   -3.9297525    1709.8606  0.059618571  0.059621111            3 
 2391000   0.87400878   -3.8636321    1717.1205  0.059846664  0.059609678            3 
 2392000   0.85777048   -3.9184748    1717.1978  0.059824337  0.059598087            3 
 2393000   0.86107976   -3.9005563    1711.8089  0.059611678  0.059586403            3 
 2394000   0.85706335   -3.9257802    1717.8451  0.059796892  0.059574911            7 
 2395000   0.87574791   -3.8857519    1722.0982   0.05991991  0.059563476            4 
 2396000   0.85479448   -3.9023817    1722.1592  0.059897023  0.059551901            4 
 2397000   0.85759014   -3.9174135    1718.4821  0.059744198  0.059540437            4 
 2398000   0.86188512   -3.9162492    1717.9305  0.059700116  0.059528979            3 
 2399000   0.88129332   -3.8990215    1724.8744  0.059916439  0.059517499            3 
 2400000   0.84339861    -3.892294    1719.8589  0.059717324  0.059506179            3 
 2401000   0.87987687   -3.8991108    1718.8508  0.059657462  0.059494795            3 
 2402000   0.88410892   -3.9078483    1720.4871  0.059689394  0.059483308            5 
 2403000   0.88679121   -3.9078174    1724.9648  0.059819836   0.05947184            5 
 2404000   0.86816754   -3.9325377    1716.6506  0.059506745  0.059460399            4 
 2405000   0.86883982   -3.8976869    1725.8243  0.059799872  0.059448943            2 
 2406000   0.86598169   -3.9394097    1715.2622  0.059409193  0.059437497            4 
 2407000   0.86120453    -3.914916    1719.1387  0.059518719  0.059425793            2 
 2408000   0.86643332    -3.927487    1723.5028  0.059645031  0.059414327            5 
 2409000   0.85385471    -3.904491    1723.0723  0.059605381    0.0594027            3 
 2410000   0.86757963    -3.902996    1721.1932   0.05951567   0.05939099            3 
 2411000   0.87286454   -3.8962809    1720.2638  0.059458862  0.059379439            3 
 2412000   0.85822826   -3.9439969    1717.5806  0.059341508  0.059367774            6 
 2413000   0.84385829    -3.908006    1732.6466  0.059837223  0.059356476            4 
 2414000   0.86397586   -3.9022291    1717.7356  0.059297693   0.05934496            3 
 2415000   0.87498559    -3.894704    1731.7894  0.059758088  0.059333636            2 
 2416000   0.87237772   -3.9270008    1725.8623  0.059528915  0.059322369            5 
 2417000   0.86054818   -3.9143501    1728.3983  0.059591722  0.059311011            2 
 2418000   0.87073468   -3.9384194    1717.1232  0.059178494  0.059299559            5 
 2419000   0.86981114   -3.9101781    1725.8992  0.059456359  0.059288071            3 
 2420000    0.8781193   -3.9203307    1728.7887  0.059531292  0.059276693           10 
 2421000   0.87098522   -3.8889692     1727.013   0.05944558  0.059265278            3 
 2422000   0.85918686   -3.9000991     1735.248  0.059704376  0.059254088           11 
 2423000   0.85973415   -3.9275224    1728.0016  0.059430513  0.059242393            3 
 2424000     0.854746   -3.9001606    1728.8348  0.059434639  0.059230922            5 
 2425000   0.84984167    -3.907768     1723.651  0.059231992  0.059219571            2 
 2426000   0.87257318   -3.9256388    1728.6628  0.059379734  0.059207882            9 
 2427000   0.84690961   -3.9167284    1730.6743  0.059424333  0.059196504            4 
 2428000   0.85681861   -3.9063458    1733.4761  0.059496024  0.059185227            5 
 2429000   0.85158471   -3.9216497    1730.2599  0.059361189  0.059173974            6 
 2430000   0.86214509    -3.925709    1732.8575   0.05942584  0.059162721            4 
 2431000   0.86505327   -3.9343004    1734.9497  0.059473114  0.059151383            5 
 2432000   0.87599917   -3.9361483    1744.5801  0.059778648  0.059140282            4 
 2433000    0.8683363   -3.9153777    1737.1047  0.059498036  0.059129267            4 
 2434000   0.86785543    -3.921953    1740.7865  0.059599648  0.059118124            6 
 2435000   0.85848973   -3.8902459    1734.8772  0.059372936  0.059107084            8 
 2436000   0.84767458   -3.8822188    1745.9337  0.059726797  0.059096186            3 
 2437000   0.85736394   -3.9274895    1739.2408  0.059473424  0.059085149            3 
 2438000   0.87711488   -3.9275416    1731.3522  0.059179388  0.059073927            6 
 2439000   0.87182063   -3.9279843    1735.9463  0.059312091  0.059062814            4 
 2440000   0.88680172   -3.9069154    1738.1832  0.059364181  0.059051786            4 
 2441000   0.87178065   -3.8985047    1741.5644  0.059455293  0.059040759            5 
 2442000   0.85822198   -3.9145662    1739.1955  0.059350107  0.059029656            6 
 2443000   0.85690201   -3.9323343    1743.2413  0.059463818   0.05901868            3 
 2444000   0.86389898   -3.8854661    1738.4514  0.059276166  0.059007666            7 
 2445000   0.86871081   -3.9332459    1743.3287  0.059418155  0.058996672            2 
 2446000   0.85710078   -3.9426869    1740.0895  0.059283506  0.058985651            9 
 2447000   0.86414864   -3.9333059    1746.6296  0.059482004  0.058974716            5 
 2448000   0.85892205   -3.9084953    1744.6048   0.05938878  0.058963801            5 
 2449000   0.86602762   -3.9019566    1747.4942  0.059462848  0.058952953            3 
 2450000   0.85563682   -3.9495747     1739.735  0.059174662  0.058941931            5 
 2451000   0.85089329   -3.9359698    1746.0319  0.059364611  0.058930988            3 
 2452000   0.85435486   -3.9328191     1743.901  0.059267977  0.058920101            3 
 2453000   0.85726881   -3.9161807    1749.2604  0.059425885  0.058909234            3 
 2454000   0.86900042   -3.9457198    1746.5239  0.059308744  0.058898417            2 
 2455000   0.86580994   -3.9148311    1747.4328  0.059315438   0.05888743            2 
 2456000   0.86491978   -3.9199651    1743.8045  0.059168175  0.058876585            2 
 2457000   0.86946243   -3.9381995     1747.266  0.059261496  0.058865618            3 
 2458000   0.85654494   -3.9176494    1747.7498  0.059253792  0.058854697            4 
 2459000   0.85046717   -3.9248076     1744.038  0.059103903  0.058843691            4 
 2460000   0.86916554   -3.9053232    1748.2575  0.059222816  0.058832797            3 
 2461000   0.86990644     -3.92909      1748.73  0.059214751  0.058821853            5 
 2462000    0.8600847   -3.9326631     1752.808   0.05932873  0.058810928            2 
 2463000   0.85035464   -3.9267471    1752.7812  0.059303736  0.058800143            7 
 2464000   0.86291822   -3.9220715    1750.7332  0.059210402  0.058789167            4 
 2465000   0.86800129   -3.9416491    1750.0818  0.059164362  0.058778147            6 
 2466000    0.8308401   -3.9368064    1750.9784  0.059170669  0.058767142            4 
 2467000   0.84408349   -3.8975287    1752.1926  0.059187699  0.058756268            3 
 2468000   0.87271269   -3.9313988    1754.6302  0.059246024  0.058745296            3 
 2469000    0.8395414   -3.9487385    1749.6599  0.059054271  0.058734349            2 
 2470000   0.85340755   -3.9485394    1747.6542  0.058962694  0.058723434            5 
 2471000   0.84709621   -3.9474846    1755.8636   0.05921569  0.058712473            6 
 2472000   0.84992664   -3.9262095    1760.6938  0.059354565  0.058701445            4 
 2473000   0.86071832   -3.9450248    1758.6754  0.059262547  0.058690639            3 
 2474000   0.85739974   -3.9274061    1753.7843  0.059073846  0.058679719            2 
 2475000   0.85177286   -3.9375721      1757.65  0.059180135  0.058669027            5 
 2476000   0.87655817   -3.9106636    1758.6084  0.059188491  0.058658383            3 
 2477000   0.86850688   -3.8968169    1758.0262  0.059145007  0.058647473            5 
 2478000   0.85222968   -3.9247409    1756.7611  0.059078596   0.05863673            7 
 2479000    0.8583067   -3.9270818    1754.3424  0.058973458   0.05862587            4 
 2480000   0.86353682   -3.9235698    1755.4518  0.058986957   0.05861497            5 
 2481000   0.86171679   -3.9356051    1760.7828   0.05914224  0.058604027            4 
 2482000   0.85823227   -3.9343963    1758.2076  0.059031949  0.058593073            4 
 2483000    0.8430229   -3.9511199    1758.9641  0.059033565  0.058582136            5 
 2484000   0.84294787   -3.9374093    1752.1493  0.058781175  0.058571307            3 
 2485000   0.85091285   -3.9405228    1763.3733  0.059133912  0.058560417            4 
 2486000   0.85449028   -3.9235836     1762.302  0.059074215   0.05854971            5 
 2487000   0.84245747   -3.9289231    1763.5464  0.059092159  0.058538959            2 
 2488000   0.84176462   -3.9301858    1760.6935  0.058972853  0.058528146            7 
 2489000   0.85189173   -3.9457596    1756.6153   0.05881262  0.058517491            4 
 2490000   0.84550023   -3.9193834    1762.8789  0.058998624  0.058506801            4 
 2491000   0.84784514   -3.9266776    1765.3472  0.059057513  0.058496141            3 
 2492000   0.86238588    -3.923464    1759.4555  0.058836795  0.058485402            5 
 2493000   0.84933343   -3.9505216    1765.8344  0.059026422  0.058474762            4 
 2494000   0.85430111   -3.9515248    1765.3261  0.058985769  0.058463934            8 
 2495000   0.84076647   -3.9324233    1762.4842  0.058867208  0.058453072            9 
 2496000   0.85143899   -3.9419845    1763.5396  0.058878858  0.058442056            3 
 2497000   0.84012631   -3.9366717     1762.873  0.058833034  0.058431276            4 
 2498000   0.85840756   -3.9216579    1766.9828  0.058946584  0.058420502            3 
 2499000   0.86764768   -3.9564879    1763.5674  0.058809103  0.058409609            6 
 2500000   0.86670191   -3.9357945     1760.484  0.058682799  0.058398848            5 
 2501000   0.85738452    -3.949131    1763.2691  0.058752135  0.058387866            2 
 2502000   0.86412955   -3.9006213    1767.2901  0.058862579  0.058376981            4 
 2503000   0.83964752   -3.9626928     1766.343   0.05880753  0.058366049            7 
 2504000   0.85267932   -3.9324066     1765.666  0.058761516  0.058354971            3 
 2505000   0.84039021   -3.9396203    1761.6993  0.058606099  0.058343891            4 
 2506000   0.86493358   -3.9457493    1766.9876  0.058758565  0.058332951            5 
 2507000   0.85057495   -3.9361322    1759.5464  0.058487782  0.058321993            3 
 2508000   0.86769179    -3.940542    1768.9998  0.058778569  0.058310987            5 
 2509000   0.86303212    -3.921752    1769.3582  0.058767046  0.058300194            2 
 2510000   0.83944399   -3.9676509    1768.8687  0.058727379  0.058289329            5 
 2511000   0.85034795   -3.9732782    1767.6156  0.058662404  0.058278326            5 
 2512000   0.86435066   -3.9354278    1767.9428  0.058649907  0.058267205            5 
 2513000   0.85739155   -3.9456614     1771.318  0.058738494  0.058256243            5 
 2514000   0.85444398   -3.9748244    1764.7365  0.058496968   0.05824523           14 
 2515000   0.85745531   -3.9507437    1772.2955   0.05872417  0.058234245            3 
 2516000   0.85760693   -3.9582936    1769.8839  0.058620957  0.058223388            7 
 2517000   0.83322243   -3.9193532     1768.953  0.058566847  0.058212372            3 
 2518000   0.88220125   -3.9325069    1777.3181  0.058820428  0.058201464            5 
 2519000   0.85776862   -3.9628297    1768.4953  0.058505205  0.058190474            5 
 2520000    0.8504022   -3.9754614    1767.6596  0.058454351  0.058179526            5 
 2521000   0.83170097    -3.932721     1772.542  0.058592557  0.058168673            4 
 2522000   0.84560761   -3.9488542    1768.0761   0.05842176   0.05815778            4 
 2523000   0.85022336   -3.9109954    1770.7429  0.058486685  0.058146964            4 
 2524000   0.85953078    -3.915849    1773.3821  0.058550649  0.058136088            8 
 2525000   0.85165315   -3.9242149     1774.256  0.058556305  0.058124996            3 
 2526000   0.86583333   -3.9491835     1772.601  0.058478522  0.058113861            3 
 2527000   0.81879138   -3.9565816     1765.551  0.058222892  0.058102632            3 
 2528000    0.8412169   -3.9220706    1766.4946  0.058230968  0.058091393            4 
 2529000   0.86254049   -3.9511178    1774.4099   0.05846876  0.058080231            3 
 2530000   0.84831693   -3.9366524    1764.9921  0.058135443  0.058069006           11 
 2531000   0.86736634   -3.9502017    1774.3574  0.058420829  0.058057949            3 
 2532000   0.84432824   -3.9489136    1768.1917  0.058194828   0.05804667            3 
 2533000   0.83511086    -3.944824    1774.7342  0.058387096  0.058035564            4 
 2534000    0.8593339   -3.9492501    1775.7028  0.058395908  0.058024423            6 
 2535000   0.83397484    -3.947343     1775.882  0.058378762  0.058013227            6 
 2536000   0.85276173   -3.9610645    1774.2792  0.058303075  0.058001953           12 
 2537000   0.83210573   -3.9468572    1774.3849  0.058283567  0.057990684            6 
 2538000   0.83787339    -3.965141    1777.6514  0.058367855  0.057979466            7 
 2539000    0.8403794   -3.9638876    1772.5255  0.058176628  0.057968135            6 
 2540000   0.85149787   -3.9776246    1767.8742  0.058001122   0.05795666            4 
 2541000   0.82585323   -3.9625183    1770.9314  0.058078559  0.057945168            4 
 2542000   0.84370362   -3.9470158    1776.5249  0.058239079   0.05793378            4 
 2543000   0.84467853   -3.9508838    1775.2522  0.058174472  0.057922561            3 
 2544000   0.84529265   -3.9312333    1778.9819  0.058273777  0.057911359            6 
 2545000   0.85299854   -3.9570142    1772.1782    0.0580281  0.057900116            5 
 2546000   0.85429019   -3.9430475    1779.9914  0.058261045  0.057888844            4 
 2547000   0.84309194   -3.9420252    1777.8118  0.058166855  0.057877809            4 
 2548000   0.85795224   -3.9562044    1778.9415  0.058180976  0.057866805            5 
 2549000   0.82454659      -3.9362    1781.0848  0.058228221  0.057855673            3 
 2550000   0.84950292   -3.9649816    1776.8001  0.058065364  0.057844364            5 
 2551000   0.83404146   -3.9432008    1778.7166  0.058105207  0.057833137            5 
 2552000   0.82900589   -3.9780992    1776.4908  0.058009756  0.057821871            5 
 2553000   0.86623012   -3.9530971    1783.8867  0.058228446  0.057810558            3 
 2554000   0.82353126   -3.9485127    1784.7335  0.058233278  0.057799188            3 
 2555000   0.83834243   -4.0119435    1773.9518  0.057858834  0.057787837            6 
 2556000   0.82584097    -3.975199     1777.021  0.057936261  0.057776452            6 
 2557000   0.86669657   -3.9781137    1781.3913  0.058056032  0.057764978            3 
 2558000   0.82595826   -3.9618934    1780.4841  0.058003781  0.057753506            9 
 2559000    0.8544934   -3.9704232    1777.7043  0.057890591  0.057742101            3 
 2560000   0.85032952   -3.9571586    1779.0509  0.057911814  0.057730613            5 
 2561000    0.8248207   -3.9605334    1774.3837  0.057737332   0.05771915            2 
 2562000   0.85385625    -3.954671    1779.6039  0.057884591  0.057707764            5 
 2563000   0.85093576   -3.9491698    1782.8823    0.0579686  0.057696328            2 
 2564000   0.80764661   -3.9612584    1780.0691  0.057854558  0.057684881            3 
 2565000   0.84099788    -3.968899    1781.0419  0.057863609  0.057673414            7 
 2566000   0.86097408   -3.9407312    1780.2748  0.057816147  0.057661921            4 
 2567000   0.84050503   -3.9767791    1773.7751  0.057582623  0.057650193            6 
 2568000   0.80778486   -3.9593355    1777.7652   0.05768968  0.057638572            6 
 2569000   0.84675292     -3.96035    1781.3573  0.057783744    0.0576269            3 
 2570000   0.82178441   -3.9675615    1783.7443  0.057838662   0.05761532            3 
 2571000   0.83771778    -3.965755    1777.9116   0.05762711  0.057603603            3 
 2572000   0.83202879     -3.98305    1777.6432   0.05759601  0.057591994           10 
 2573000   0.81980626   -3.9505973    1779.4482  0.057632085  0.057580395            4 
 2574000   0.83691403   -3.9725067    1777.0936  0.057533462   0.05756873            3 
 2575000   0.83333419   -3.9688711     1780.582  0.057624014  0.057557049            3 
 2576000   0.82855384   -3.9516887    1783.2509  0.057687983  0.057545511            4 
 2577000   0.85250567   -3.9439881    1790.9193  0.057913571   0.05753418            3 
 2578000   0.83050999   -3.9603952    1788.8987  0.057825792  0.057522788            6 
 2579000   0.84620327   -3.9351526    1784.1234  0.057649071  0.057511418            4 
 2580000   0.83978039   -3.9326628    1781.4335  0.057539842  0.057499944            5 
 2581000    0.8294418   -3.9536794    1787.1839  0.057703213  0.057488484            6 
 2582000     0.833189   -3.9640492    1780.8516  0.057476491  0.057477023            4 
 2583000   0.83099724   -3.9567361    1787.5924  0.057671712  0.057465623            4 
 2584000   0.84641997   -3.9446772    1784.2303  0.057540967  0.057454341            3 
 2585000   0.82901733   -3.9622215     1786.386    0.0575882  0.057442964            4 
 2586000   0.84470213   -3.9414588    1787.8999  0.057614716   0.05743146            3 
 2587000   0.83629972   -3.9379044    1786.9325  0.057561283  0.057420082            5 
 2588000   0.84427079   -3.9630026    1786.2975  0.057518597  0.057408641            3 
 2589000   0.82659107   -3.9620792    1787.3462  0.057530133  0.057397284            3 
 2590000   0.82316289   -3.9531182    1793.4974  0.057705838  0.057385808           10 
 2591000   0.84629228   -3.9387328    1789.6089  0.057558499  0.057374419            2 
 2592000   0.83437751   -3.9318313     1786.617  0.057440105  0.057363074            4 
 2593000   0.82429454   -3.9740359    1788.8983  0.057491267  0.057351614            2 
 2594000    0.8553496   -3.9693791    1787.8923  0.057436786  0.057340152            3 
 2595000   0.83005934    -3.954484    1787.9555  0.057416684  0.057328799            5 
 2596000   0.83888132   -3.9730374    1785.0153  0.057300181  0.057317428           12 
 2597000   0.83218187   -3.9619646    1790.8206  0.057464401  0.057306101            4 
 2598000   0.83067637   -3.9718782    1791.9253  0.057477717  0.057294698            4 
 2599000   0.83326199   -3.9574205    1800.6346  0.057734853  0.057283422            2 
 2600000   0.84046594   -3.9616618    1795.1851  0.057537984  0.057272409            5 
 2601000   0.82543461   -3.9433804    1800.7343  0.057693654  0.057261299            6 
 2602000   0.84373888   -3.9806733    1792.1754  0.057397369  0.057250031            3 
 2603000   0.82220604    -3.951189    1795.8259  0.057492186  0.057238833            6 
 2604000    0.8424913   -3.9699065    1795.9169  0.057473019    0.0572276            6 
 2605000   0.83089195   -3.9775279    1802.7517  0.057669601  0.057216545            4 
 2606000   0.83723851   -3.9721444     1794.593  0.057386574  0.057205322            3 
 2607000   0.81780184   -3.9797184    1798.5533  0.057491155   0.05719406            3 
 2608000   0.84343275   -3.9737952    1799.3056  0.057493149  0.057182811            2 
 2609000   0.84229205   -3.9724998     1794.148  0.057306375   0.05717158            3 
 2610000   0.84250059   -3.9571629    1803.1043  0.057570379  0.057160401            4 
 2611000   0.83250137   -3.9571265    1798.4101  0.057398509  0.057149109            4 
 2612000   0.80883783   -3.9576259    1804.1855  0.057560793  0.057137904            7 
 2613000   0.85671903   -3.9471963    1796.5232  0.057294399  0.057126639            8 
 2614000   0.83707648   -3.9606485    1799.8892  0.057379788  0.057115537            4 
 2615000   0.83913226    -3.941275    1802.6255  0.057445044  0.057104392            3 
 2616000   0.81906445   -3.9505715    1800.1979  0.057345753  0.057093192            4 
 2617000   0.82977234   -3.9461294    1802.1038  0.057384531  0.057082092            6 
 2618000   0.83612469   -3.9777559    1800.2068  0.057302228  0.057070765            3 
 2619000   0.83218733    -3.978002     1803.661  0.057390256  0.057059442            3 
 2620000    0.8162257   -3.9934014    1796.3983  0.057137351  0.057048092            3 
 2621000   0.83399235   -3.9660683    1805.8826  0.057417098  0.057036785            6 
 2622000   0.84093478   -3.9564853    1807.2626   0.05743906  0.057025635            3 
 2623000   0.82029787   -3.9618879    1805.5836   0.05736382  0.057014433            2 
 2624000   0.83225213   -3.9919999      1798.69  0.057123031  0.057003059            6 
 2625000    0.8328883   -3.9463192    1804.6036  0.057289003  0.056991784            3 
 2626000   0.82345795   -3.9720235    1803.4908  0.057231872  0.056980561            4 
 2627000   0.83349984   -3.9622555     1803.748  0.057218246  0.056969202            3 
 2628000   0.82845107   -3.9322068    1803.1329  0.057176968  0.056957897            2 
 2629000   0.82936597   -3.9831739    1805.9419  0.057244259  0.056946564            7 
 2630000   0.82666714   -3.9814937    1805.2665  0.057201094  0.056935212            6 
 2631000   0.85040962   -3.9980197    1808.8423  0.057292612  0.056923956            2 
 2632000   0.83533311   -3.9998088    1803.1502  0.057090621  0.056912663            4 
 2633000   0.83079916   -3.9603965    1804.7048  0.057118141   0.05690135            5 
 2634000   0.82411687   -3.9919203    1799.0957     0.056919  0.056890119            5 
 2635000   0.85863141   -3.9842349    1800.0367  0.056927157  0.056878897            5 
 2636000   0.83827472   -3.9550064    1807.8859    0.0571537  0.056867517            5 
 2637000   0.83416845   -3.9800169    1809.8352  0.057193628  0.056856271            6 
 2638000   0.82670548   -4.0090301    1803.2569  0.056964142  0.056845047            4 
 2639000   0.82387646    -3.961765    1808.3959  0.057104836  0.056833898            5 
 2640000   0.82380054   -3.9747032    1810.9996  0.057165393  0.056822747            8 
 2641000   0.83075914   -3.9714414    1805.7582  0.056978361  0.056811642           10 
 2642000   0.83020537   -3.9904181    1801.9568  0.056836891  0.056800321            3 
 2643000   0.82613982   -3.9788851    1810.7914  0.057093941  0.056788963            2 
 2644000   0.83129408   -3.9904457    1805.9985  0.056921283  0.056777611            5 
 2645000   0.82622824   -3.9769856    1812.9561  0.057118971  0.056766494           17 
 2646000   0.81120008   -3.9716054    1817.0398  0.057225995  0.056755194            4 
 2647000   0.82510285   -3.9918884    1805.4642   0.05683995  0.056744067            9 
 2648000   0.81735528   -3.9758356    1810.4377  0.056975004   0.05673277            4 
 2649000   0.81719598   -3.9889214      1809.05   0.05690984  0.056721507            7 
 2650000   0.82762606   -3.9822753    1810.9949  0.056949525  0.056710234            5 
 2651000   0.81972742   -3.9719409    1815.0017  0.057053997  0.056698938            3 
 2652000   0.82231057   -3.9922273    1812.5378   0.05695506  0.056687669           11 
 2653000    0.8245566   -3.9588932    1820.6452  0.057188253  0.056676381            2 
 2654000   0.84524878   -3.9763054    1811.9603  0.056894007  0.056665181            4 
 2655000   0.82650746   -3.9902426    1812.5501   0.05689109  0.056654036            3 
 2656000   0.82163495   -3.9948416    1814.3359  0.056925701  0.056642494            3 
 2657000   0.83687207   -3.9642981    1814.0187  0.056894328  0.056631151            5 
 2658000   0.82675622   -3.9584767    1815.7028  0.056925721  0.056619886            5 
 2659000   0.83464824   -4.0150172    1811.9533  0.056786804  0.056608605            7 
 2660000   0.82446057   -3.9857835    1813.4599  0.056812655  0.056597404            3 
 2661000    0.8216554   -3.9915179    1818.2918  0.056942623  0.056586297            3 
 2662000   0.81833671   -4.0053522     1813.816  0.056781116  0.056575105            8 
 2663000   0.81774681   -3.9751482    1817.0225  0.056860137  0.056563961            3 
 2664000   0.81491503   -3.9891933    1819.3366  0.056911179  0.056552812            3 
 2665000   0.83628927   -3.9967847    1816.1388  0.056789831   0.05654164            3 
 2666000   0.80890216   -4.0007624    1819.9147  0.056886557  0.056530439            4 
 2667000   0.82257972   -3.9871664    1814.3504  0.056691363  0.056519324           15 
 2668000   0.84089952    -3.977823    1814.3627  0.056670501  0.056508311            3 
 2669000   0.82455352   -3.9872773    1818.0878  0.056765573  0.056497149            5 
 2670000   0.81687019    -3.969846    1817.2542  0.056718295  0.056485975            4 
 2671000   0.82202946   -3.9920468    1824.4125  0.056920396  0.056474857            3 
 2672000   0.81417179    -3.976716    1823.6362  0.056874882  0.056463855            6 
 2673000   0.82551516   -3.9861258    1821.5991  0.056790097  0.056452713            9 
 2674000   0.84559847    -3.984586    1824.4036  0.056856257  0.056441678            3 
 2675000   0.83884548   -3.9523317    1824.9852  0.056853122  0.056430635            3 
 2676000   0.82759239   -3.9587235    1825.1984  0.056838516  0.056419615            6 
 2677000   0.83466517   -4.0012632    1822.1684   0.05672296  0.056408537           12 
 2678000   0.83852936   -4.0057294    1824.0951  0.056761736  0.056397427            4 
 2679000    0.8221265   -3.9748461    1828.9897  0.056892798  0.056386243            3 
 2680000   0.82783096    -3.978538    1822.7735  0.056678281     0.056375            5 
 2681000   0.83300468   -3.9928911    1822.7754    0.0566572  0.056363916            7 
 2682000   0.81352249   -3.9960474    1817.0353  0.056457721  0.056352746            4 
 2683000   0.83586256   -3.9790973    1822.9731  0.056621105  0.056341499            5 
 2684000   0.80480478     -3.98331     1821.795  0.056563431  0.056330303            5 
 2685000   0.82529287   -3.9730605    1829.8055  0.056790985  0.056319185            5 
 2686000   0.81113209   -4.0127703    1817.7216  0.056394938  0.056308175            6 
 2687000   0.83552259    -4.004621    1823.3541  0.056548633  0.056296951            2 
 2688000   0.81674692   -4.0087995    1820.0742  0.056425911  0.056285907            5 
 2689000   0.79955268   -4.0110637    1823.2664  0.056503855  0.056274751            4 
 2690000   0.81770639   -3.9910962    1824.7626  0.056529201  0.056263481            3 
 2691000   0.80953688      -3.9832    1830.4834  0.056685352  0.056252253            4 
 2692000   0.82473477   -3.9890942    1827.8352  0.056582317  0.056241303            5 
 2693000   0.81327647   -4.0202208    1821.9796  0.056380109  0.056230088            3 
 2694000   0.83507242   -4.0012918    1825.8293  0.056478262  0.056218968            5 
 2695000   0.82128914   -4.0048412    1823.9437  0.056399002   0.05620787            9 
 2696000   0.81915273   -3.9797297    1829.1656   0.05653949  0.056196534            4 
 2697000   0.81686373   -4.0094866     1830.799  0.056568998   0.05618529            6 
 2698000   0.80289787   -3.9590838    1830.1237  0.056527171  0.056174061            3 
 2699000   0.83248191   -4.0000087    1827.0028  0.056409868  0.056162763            3 
 2700000   0.82222221   -3.9930522    1830.8149  0.056506634    0.0561515            4 
 2701000   0.81907244   -3.9828762    1832.6677  0.056542875  0.056140364            3 
 2702000   0.81803261   -3.9614404    1829.4285   0.05642205  0.056129212            6 
 2703000   0.82395886   -4.0053655    1825.5516  0.056281651  0.056117979            5 
 2704000   0.84053844   -3.9973856    1825.2126  0.056250389    0.0561067            4 
 2705000   0.82769305   -3.9898753    1830.8814  0.056404234  0.056095542            5 
 2706000   0.83131259   -4.0116823    1826.7043  0.056254753  0.056084392            5 
 2707000   0.81369425   -4.0176567    1831.1921  0.056372124  0.056073216            7 
 2708000   0.82310929   -4.0010867    1825.5475  0.056177605  0.056061995            6 
 2709000   0.83962121   -4.0133737    1833.9011  0.056413839  0.056050697            2 
 2710000   0.83061248   -4.0125422    1827.3474  0.056191493  0.056039449            5 
 2711000   0.81945465   -3.9918774    1829.4499  0.056235397   0.05602812            4 
 2712000   0.82535513    -3.994808    1832.0304  0.056293953  0.056016838            3 
 2713000   0.81337566   -3.9629861    1829.8965  0.056207658  0.056005617            3 
 2714000   0.83146678   -3.9860423    1832.4509  0.056265379  0.055994445            6 
 2715000   0.81247956   -3.9868938    1834.2781   0.05630074  0.055983233            3 
 2716000   0.80503641    -4.002511    1834.9371  0.056300229  0.055972001            5 
 2717000   0.81675941   -3.9934197    1834.7085  0.056272498  0.055960794           10 
 2718000    0.8174295    -3.991995    1838.5114  0.056368391  0.055949506            2 
 2719000   0.83205164   -3.9846312     1831.986  0.056147665  0.055938365            5 
 2720000   0.84101543   -4.0025851    1832.1332   0.05613153  0.055927207           10 
 2721000   0.80595708   -3.9978215    1837.5744  0.056277545   0.05591596            4 
 2722000   0.82344936   -4.0139996     1826.112  0.055905952   0.05590466            4 
 2723000    0.8084138   -3.9957815    1837.1769  0.056224046  0.055893454            8 
 2724000   0.81428083   -3.9799017    1837.1135  0.056201466  0.055882379           30 
 2725000   0.82024966   -3.9994692    1837.5064  0.056192857  0.055871105            3 
 2726000   0.80530094    -3.993042    1838.7819  0.056211233  0.055860027            8 
 2727000   0.84414837     -3.98318    1843.8047  0.056344112  0.055848802            5 
 2728000   0.80453849   -3.9978876    1830.3186  0.055911491  0.055837685            3 
 2729000   0.80636611   -3.9917741    1839.6937  0.056177283  0.055826591            4 
 2730000   0.82187444   -3.9943699    1833.7827  0.055976274  0.055815434            6 
 2731000   0.80021341   -3.9637377    1837.1686  0.056059093   0.05580424            7 
 2732000   0.81652423   -3.9979013    1836.1429  0.056007287  0.055793036            5 
 2733000   0.81935606   -3.9616375    1840.7747  0.056128024  0.055781773            5 
 2734000   0.82001903   -3.9972484    1839.0857  0.056056015  0.055770614            5 
 2735000   0.81288826   -3.9841371    1842.7184  0.056146204  0.055759307            3 
 2736000   0.83601472   -4.0439931    1837.3676  0.055962707  0.055747922            6 
 2737000   0.81355552   -4.0074456    1840.7224  0.056044403  0.055736627            4 
 2738000   0.79823438   -3.9779197    1838.6415  0.055960602  0.055725302            7 
 2739000   0.79242018   -4.0242725     1843.287  0.056081507  0.055714174            8 
 2740000   0.79437979   -3.9894574    1847.8065  0.056198493  0.055703013            2 
 2741000   0.79757382   -4.0096112    1845.5732  0.056110092   0.05569184            7 
 2742000   0.82669035    -4.000431    1841.1063  0.055953876  0.055680795            4 
 2743000   0.81512792   -3.9846887    1846.3919  0.056094055  0.055669639            4 
 2744000   0.81284904   -3.9843332    1844.1014   0.05600405   0.05565856            3 
 2745000   0.81714682    -4.028281    1841.5663  0.055906687  0.055647384            2 
 2746000    0.8130072   -4.0134643    1841.9236  0.055897173    0.0556362            4 
 2747000   0.81889643   -4.0233867    1841.4702   0.05586307  0.055625056            4 
 2748000   0.82673207   -4.0066913    1846.3856    0.0559918   0.05561392            2 
 2749000   0.80067323   -4.0126334    1843.7342  0.055891057  0.055602712            3 
 2750000   0.82243951   -3.9793473    1847.0089  0.055969966  0.055591597            2 
 2751000   0.80624179   -4.0118151    1844.6965  0.055879574  0.055580498            4 
 2752000   0.81418329   -4.0287322    1841.5185  0.055763035  0.055569304            5 
 2753000   0.81187699   -4.0112041    1843.2251  0.055794438  0.055558232            6 
 2754000   0.79824067   -3.9814538    1846.5168  0.055873785  0.055547181            7 
 2755000   0.82201782   -4.0259756    1845.9168  0.055835353  0.055536164            2 
 2756000   0.82723566   -3.9871894    1857.0219  0.056150881  0.055525209            4 
 2757000   0.79413159   -3.9857236    1854.3495  0.056049736  0.055514377            3 
 2758000   0.78926968   -4.0075297    1846.3673  0.055788232  0.055503436            5 
 2759000   0.81449941   -4.0317534    1849.4373  0.055860736  0.055492432            7 
 2760000    0.8018965   -4.0042426    1849.8333  0.055852453  0.055481376            3 
 2761000   0.80635869   -3.9926267    1851.4232  0.055880212  0.055470271            6 
 2762000   0.81008974   -4.0239062    1848.8133  0.055781235  0.055459316            3 
 2763000   0.79139365   -4.0148356    1853.3319  0.055897331   0.05544827            5 
 2764000   0.81152949   -4.0076108    1854.7589  0.055920132  0.055437287            3 
 2765000   0.82439973   -4.0198221    1852.9731  0.055846084  0.055426104            3 
 2766000   0.81391301   -4.0125894    1850.7858  0.055759996  0.055415072            5 
 2767000   0.80870988   -3.9924165    1852.3154  0.055785911  0.055403973            4 
 2768000   0.79108546   -4.0036918    1850.3915  0.055707836  0.055392845            4 
 2769000   0.81402037    -3.995146    1847.3573  0.055596403  0.055381765            3 
 2770000   0.81498587   -3.9947885    1854.2237  0.055782902  0.055370724            4 
 2771000   0.77775531   -4.0224919     1854.261  0.055763893  0.055359735            5 
 2772000   0.80237989   -4.0233776    1850.5556  0.055632383  0.055348738            5 
 2773000   0.82719352   -4.0249343    1852.9474  0.055684199  0.055337763            4 
 2774000   0.79138465   -4.0287189    1851.4168  0.055618145  0.055326709            6 
 2775000   0.81370051   -4.0143063    1850.5877  0.055573203  0.055315507            9 
 2776000   0.79984403    -4.018249    1848.2073  0.055481728  0.055304344            9 
 2777000    0.7922468    -4.025521    1853.5749  0.055622821  0.055293221            4 
 2778000   0.80455027   -4.0211459    1855.7974  0.055669468  0.055282199            8 
 2779000   0.80371289   -4.0306648    1855.5603  0.055642325  0.055271121            6 
 2780000    0.7940539   -4.0249673    1846.5368  0.055351822  0.055259965            5 
 2781000   0.80230939   -4.0299354    1849.1164  0.055409218  0.055248724            4 
 2782000   0.80985343   -3.9862876    1857.5028  0.055640509  0.055237558            6 
 2783000   0.81242173   -4.0057566    1853.8224  0.055510314  0.055226488            8 
 2784000   0.79118916   -4.0091447    1859.7503  0.055667812  0.055215536            5 
 2785000   0.80138941   -4.0208871    1859.6625  0.055645197  0.055204419           14 
 2786000   0.82668392   -4.0290629    1850.8141  0.055360554  0.055193238            4 
 2787000   0.80662544    -4.027238     1858.457  0.055569219   0.05518205            6 
 2788000   0.82401633   -4.0380743    1854.5178  0.055431547  0.055170797            4 
 2789000   0.81550093   -4.0169931    1853.2345  0.055373325  0.055159601            4 
 2790000   0.82160102   -4.0206609     1857.412  0.055478257  0.055148476            7 
 2791000   0.78280256   -4.0193324    1853.8085  0.055350786  0.055137254            2 
 2792000    0.8121101   -4.0209792    1856.5474  0.055412709  0.055126056            3 
 2793000   0.78173655      -4.0159    1853.4785  0.055301303  0.055114951            3 
 2794000   0.79809137   -3.9968435     1857.001  0.055386573  0.055103828            4 
 2795000   0.80510854   -4.0145144    1855.2319  0.055314009  0.055092627            4 
 2796000   0.80171676   -4.0157213    1853.3274  0.055237465  0.055081359            3 
 2797000   0.78378929   -4.0085509    1862.4378   0.05548915   0.05507007            6 
 2798000   0.79904291   -4.0387989    1860.0562  0.055398385  0.055059016            5 
 2799000   0.80027902   -4.0283203    1857.6199  0.055306059  0.055047779           11 
 2800000    0.7986043   -4.0166085    1860.9506  0.055385433   0.05503654            4 
 2801000   0.79860966   -3.9944088    1863.8429  0.055451712  0.055025343            2 
 2802000   0.80338122   -4.0094002    1855.8541  0.055194328  0.055014191            4 
 2803000     0.796528   -3.9997878    1859.9788  0.055297265  0.055003013            3 
 2804000   0.79751437   -4.0395254    1855.4012  0.055141501  0.054991616            5 
 2805000   0.80144347   -4.0143827     1859.965  0.055257428  0.054980274            4 
 2806000   0.80550295   -4.0187587    1858.7741  0.055202368  0.054969023            4 
 2807000   0.79233258   -4.0225193    1856.8583  0.055125824  0.054957742            5 
 2808000   0.80365565   -3.9982797    1864.7154  0.055339369  0.054946395            5 
 2809000   0.80544359    -4.025453     1862.192  0.055244807  0.054935084            5 
 2810000   0.80795349   -4.0161221    1863.9036  0.055275907  0.054923671           10 
 2811000   0.81646234   -4.0312686    1864.9594  0.055287542  0.054912292            2 
 2812000   0.81533532   -4.0271851    1851.2379  0.054861248  0.054900822            4 
 2813000   0.80495411   -4.0344187    1853.8868  0.054920216  0.054889293            2 
 2814000   0.80279472   -4.0200727    1859.1945   0.05505788  0.054877833            4 
 2815000    0.7935402   -4.0197487    1854.8697  0.054910292  0.054866248            5 
 2816000   0.79726084   -4.0308236     1860.354  0.055053089  0.054854658            8 
 2817000   0.79420958   -4.0291453    1859.5852  0.055010802  0.054843215            6 
 2818000   0.77919615   -4.0304892    1856.2429  0.054892445  0.054831751            4 
 2819000   0.79208304   -4.0062804    1862.3758   0.05505427  0.054820202            4 
 2820000   0.78639962   -4.0270865    1859.1589  0.054939684  0.054808791            4 
 2821000   0.80609416   -4.0350051    1857.0284  0.054857274  0.054797293            5 
 2822000   0.82498205   -4.0069606    1859.9283  0.054923468  0.054785858            7 
 2823000   0.79821861   -4.0162424    1862.2168  0.054971566  0.054774423            4 
 2824000   0.82290732   -4.0371358    1855.3638  0.054749877   0.05476279            4 
 2825000   0.81684626   -4.0298385    1861.8802  0.054922721  0.054751385            3 
 2826000   0.79294254   -4.0259728    1861.6094  0.054895298  0.054739968            3 
 2827000   0.80337267   -4.0365543    1859.2602  0.054806631  0.054728502            4 
 2828000   0.79436215   -4.0198524    1867.9446  0.055043157  0.054717048           14 
 2829000   0.78422918    -4.022243    1862.8519  0.054873686   0.05470566            6 
 2830000    0.8042722   -4.0444336    1863.2548  0.054866162  0.054694389            5 
 2831000   0.79242483   -4.0267759    1861.3265  0.054790019  0.054683024            2 
 2832000   0.79370604   -4.0163852    1863.1399  0.054824033  0.054671551            6 
 2833000   0.79028502   -4.0371904    1864.7475  0.054851967  0.054660281            4 
 2834000   0.79487545   -4.0186272    1865.0798  0.054842385  0.054649068            7 
 2835000    0.8031248   -4.0239284     1867.269  0.054887389  0.054637808            4 
 2836000   0.83001647   -4.0399223    1864.6443  0.054790912  0.054626396            4 
 2837000   0.79206773   -4.0341642    1868.6625  0.054889627  0.054615051            3 
 2838000   0.79730084   -4.0230403    1870.9802  0.054938343  0.054603787            7 
 2839000   0.80259036   -4.0361624    1867.0923  0.054804871  0.054592434            6 
 2840000   0.79143477   -4.0195022    1868.1504  0.054816619   0.05458106            5 
 2841000   0.79366351   -4.0097939    1868.3591  0.054803447  0.054569858            7 
 2842000   0.77588947    -4.029759    1863.8394  0.054651636  0.054558408            4 
 2843000   0.79774442   -4.0435492     1864.781  0.054660014  0.054546931            3 
 2844000   0.80250504   -4.0632317    1862.8529  0.054584297  0.054535321            3 
 2845000   0.81689725   -4.0735781    1863.4521  0.054582663  0.054523818            9 
 2846000   0.79478971    -4.053865    1861.8269  0.054515897  0.054512343            3 
 2847000   0.79538412   -4.0310095     1868.298  0.054686161   0.05450091            3 
 2848000   0.80173817   -4.0491766    1866.6481  0.054618684  0.054489622            8 
 2849000   0.80158703   -4.0204945    1879.6597  0.054980101  0.054478223            5 
 2850000   0.78444417   -4.0572991     1868.369  0.054630674  0.054466818           13 
 2851000   0.78958252   -4.0208698    1869.6331  0.054648461  0.054455444            7 
 2852000    0.7927118   -4.0358595    1872.5457  0.054714401  0.054443978            6 
 2853000    0.8106692   -4.0402456    1875.5999  0.054784436  0.054432674            7 
 2854000   0.78046161    -4.030339    1874.6269  0.054736828  0.054421417            5 
 2855000   0.78986862   -4.0435729    1878.0638  0.054817974  0.054410012            6 
 2856000   0.78267596   -4.0395396    1869.9715  0.054562662  0.054398739            6 
 2857000   0.79406038   -4.0561835    1863.8615  0.054365346  0.054387309            6 
 2858000   0.78819264   -4.0201334    1870.0474  0.054526691  0.054375888            3 
 2859000    0.7961128   -4.0397236     1872.747  0.054586306  0.054364458           11 
 2860000   0.80440002   -4.0233473    1873.0619  0.054576395  0.054353247            3 
 2861000   0.78525133   -4.0237179    1874.1986  0.054590427  0.054341819            5 
 2862000   0.80760907   -4.0371377    1872.5147  0.054522326  0.054330601            6 
 2863000   0.78985235   -4.0313814     1875.884  0.054601352  0.054319292            5 
 2864000   0.79079986   -4.0417142    1875.3836  0.054567727  0.054308183            4 
 2865000   0.77498149   -4.0414543    1873.8379  0.054503721  0.054296877           12 
 2866000   0.75503055   -4.0605938    1874.4332  0.054502013  0.054285612            4 
 2867000   0.79685825   -4.0404281    1878.1295   0.05459044  0.054274377            3 
 2868000   0.79205936   -4.0456966    1879.6262  0.054614893  0.054263174            4 
 2869000    0.7803419    -4.036283    1875.9418   0.05448884  0.054251958            6 
 2870000   0.78856378   -4.0305425    1879.5142  0.054573582  0.054240728            3 
 2871000   0.78733192   -4.0043671    1880.1355  0.054572608  0.054229555            5 
 2872000    0.7945492   -4.0336963    1876.7864  0.054456428   0.05421845            6 
 2873000   0.79757382   -4.0351884     1875.861  0.054410633  0.054207245           10 
 2874000   0.80299208   -4.0388855    1882.8009  0.054592928  0.054196002            2 
 2875000   0.77956217   -4.0429817    1875.5156  0.054362772  0.054184708           10 
 2876000   0.78394668   -4.0493369    1876.9139  0.054384384  0.054173488            5 
 2877000   0.78317511   -4.0374724    1876.2366  0.054345863  0.054162319            4 
 2878000    0.7699899   -4.0248778    1879.7895  0.054429855   0.05415088            3 
 2879000    0.7953947    -4.038876    1877.1358  0.054334137  0.054139779            7 
 2880000   0.79111719    -4.037544    1883.9231  0.054511663  0.054128496            5 
 2881000   0.79494708   -4.0593275    1882.5268  0.054452355  0.054117318            6 
 2882000   0.78976689   -4.0155227      1881.62   0.05440724  0.054106053            6 
 2883000   0.79162723   -4.0309971    1882.0849  0.054401805  0.054094933            6 
 2884000   0.81622676   -4.0590456    1884.6396  0.054456761  0.054083711            4 
 2885000   0.78431864   -4.0489853    1881.8766  0.054358075  0.054072548            3 
 2886000   0.76922895   -4.0629234    1879.4143  0.054268142    0.0540613            6 
 2887000   0.76191451   -4.0623995    1874.8091  0.054116416  0.054050037           11 
 2888000    0.8033662   -4.0487049    1881.0582  0.054277996  0.054038884            4 
 2889000   0.78474864   -4.0681411    1878.2253  0.054177492  0.054027801            5 
 2890000   0.80488768   -4.0530542    1881.5584  0.054254855  0.054016511            4 
 2891000   0.80868128    -4.024142    1891.8719  0.054533376  0.054005465            3 
 2892000   0.79421161   -4.0457518    1882.9376  0.054257077  0.053994489            6 
 2893000   0.77735389    -4.061278    1876.3871  0.054049634  0.053983302            2 
 2894000   0.78488378   -4.0565065    1885.4456  0.054291799  0.053972178            3 
 2895000   0.79493755   -4.0392782    1884.8008  0.054254485  0.053961097            5 
 2896000   0.77779935   -4.0374476    1883.7463  0.054205407  0.053950013            6 
 2897000   0.78865439   -4.0529903    1883.8656  0.054190129  0.053938852            4 
 2898000   0.78290853   -4.0351268    1883.1034  0.054149512   0.05392787            5 
 2899000   0.79652587   -4.0552928    1888.0984  0.054274416  0.053916821            5 
 2900000   0.79119539    -4.060535    1890.2948  0.054318816  0.053905618            6 
 2901000   0.78260815   -4.0353756    1891.3252   0.05432969  0.053894627            3 
 2902000    0.7704981    -4.040147    1888.6294  0.054233558   0.05388349            2 
 2903000   0.78659672   -4.0642716    1886.8496  0.054163783  0.053872294            4 
 2904000    0.7894087   -4.0414755    1889.6923  0.054226708  0.053861065            6 
 2905000   0.78641232   -4.0763408    1881.2621  0.053966209  0.053849926            6 
 2906000   0.79800074   -4.0238376    1891.6531  0.054245616   0.05383887            3 
 2907000   0.78670409   -4.0763324    1883.9996  0.054007557  0.053827918            3 
 2908000   0.77971705   -4.0736276    1881.9995  0.053931667  0.053816683            3 
 2909000   0.79851316   -4.0523311    1881.1763  0.053889548  0.053805549            5 
 2910000   0.78181755   -4.0707301    1887.6262  0.054055734  0.053794465           12 
 2911000   0.78998215   -4.0780311    1889.5057  0.054090969  0.053783384            4 
 2912000   0.79691108   -4.0290646    1888.6941  0.054049166  0.053772302            4 
 2913000   0.78078751   -4.0861707    1890.3306   0.05407743  0.053761299           10 
 2914000   0.78026374   -4.0725179     1888.957  0.054019588  0.053750228            2 
 2915000   0.77595519   -4.0492416    1886.3007  0.053925119    0.0537392            5 
 2916000   0.78606697   -4.0715267    1890.5786  0.054028881  0.053728161            2 
 2917000   0.80351583   -4.0346671     1894.024  0.054108787  0.053717128            4 
 2918000    0.7757052     -4.06707    1896.5062  0.054161132   0.05370615            7 
 2919000   0.79530415   -4.0432645    1896.5812  0.054144719  0.053695225            3 
 2920000   0.78053936   -4.0618126    1892.3628  0.054005788  0.053684259            3 
 2921000   0.78862791   -4.0565303    1900.0632  0.054206983  0.053673241            3 
 2922000   0.78982942    -4.058854    1896.7147  0.054092934  0.053662223            5 
 2923000   0.79584869   -4.0620913     1895.759  0.054047184   0.05365133            6 
 2924000   0.78862676   -4.0704183     1896.438  0.054048049  0.053640421            6 
 2925000    0.7839847   -4.0522915     1895.667  0.054007606  0.053629461            5 
 2926000    0.7827088   -4.0329038    1896.1961  0.054004217  0.053618537            3 
 2927000   0.79074182   -4.0655376    1893.1645  0.053899457  0.053607638            6 
 2928000   0.78375672   -4.0694841    1893.9849  0.053904398  0.053596545            5 
 2929000   0.79230796    -4.051932    1898.6509  0.054018745  0.053585635            3 
 2930000   0.78734236    -4.068617    1897.8984  0.053978907  0.053574579            4 
 2931000   0.78761365   -4.0709496    1897.6675  0.053953927  0.053563556            5 
 2932000   0.78012498   -4.0604918    1898.2999  0.053953498   0.05355267            3 
 2933000   0.78391243   -4.1012024    1894.4432  0.053825526  0.053541546            4 
 2934000   0.78276275    -4.054974    1899.5806  0.053953096  0.053530476            6 
 2935000   0.78491785   -4.0517855    1895.2823  0.053812671   0.05351945            4 
 2936000   0.80087874    -4.051927    1898.9547  0.053898577  0.053508496            5 
 2937000   0.77607987   -4.0745431    1893.4297  0.053723461  0.053497403            4 
 2938000   0.77993653   -4.0545837    1894.9209  0.053747474  0.053486343            9 
 2939000   0.79429889   -4.0590171    1894.3695   0.05371355  0.053475229            5 
 2940000   0.78988165   -4.0669954    1895.8987  0.053738625  0.053464354            5 
 2941000   0.79583655   -4.0471157    1897.0325  0.053752478  0.053453237            5 
 2942000   0.78157465   -4.0576978    1901.0929   0.05384922  0.053442098            3 
 2943000   0.79191532   -4.0839458    1901.1713  0.053833144  0.053430994            4 
 2944000   0.77008887   -4.0483692    1902.5885  0.053854974  0.053419974           10 
 2945000   0.78373146   -4.0308121    1902.6732  0.053839084  0.053409047            9 
 2946000   0.75065339   -4.0490173     1900.756  0.053766576  0.053398166           10 
 2947000    0.7749605   -4.0641074    1895.7183  0.053605879  0.053387059            4 
 2948000    0.7886848   -4.0624318    1905.9455  0.053876796   0.05337614            5 
 2949000    0.7847507   -4.0496025    1905.2576  0.053839085  0.053365176            4 
 2950000   0.78227186   -4.0721287    1901.9004     0.053726  0.053354253            2 
 2951000   0.77983337   -4.0816321    1902.2118  0.053716587  0.053343361            4 
 2952000   0.77088461   -4.0479251    1907.1781  0.053838588  0.053332369           12 
 2953000   0.79255427   -4.0515586    1908.7284  0.053864105  0.053321445            4 
 2954000   0.78187689   -4.0379822    1903.6622  0.053702952  0.053310555            6 
 2955000   0.77506254   -4.0783497    1903.7155  0.053686281  0.053299576            6 
 2956000   0.77315078   -4.0551517    1907.3299  0.053770013  0.053288579            4 
 2957000   0.77653251   -4.0731496    1895.9672  0.053431609  0.053277513           11 
 2958000   0.78560778   -4.0507435    1906.6251  0.053713801  0.053266529            7 
 2959000   0.78309107   -4.0613498    1908.0344  0.053735338    0.0532556            3 
 2960000   0.77851295   -4.0481881    1908.5555  0.053731856  0.053244663            5 
 2961000   0.77985424   -4.0568805    1907.3544  0.053679907   0.05323368            6 
 2962000   0.79607483   -4.0606879    1906.4456  0.053636213  0.053222786            5 
 2963000   0.79371351   -4.0796755    1902.2781  0.053500904  0.053211853            4 
 2964000   0.77356603   -4.0669823    1904.3376  0.053540757  0.053200807            5 
 2965000   0.78719532   -4.0729958    1912.6378  0.053755981  0.053189861            3 
 2966000   0.76704356   -4.0651975    1905.9528  0.053550033  0.053178847            2 
 2967000   0.77077338    -4.056002    1910.8347  0.053669102   0.05316801            4 
 2968000   0.76725226   -4.0528261    1905.7117   0.05350718   0.05315709            3 
 2969000   0.76621155   -4.0551262    1911.9612  0.053664566  0.053146161            9 
 2970000   0.77813793   -4.0466373     1909.785  0.053585438  0.053135237            4 
 2971000   0.77728449   -4.0715784    1911.0058  0.053601642  0.053124305            5 
 2972000   0.77138429   -4.0756382     1903.357   0.05336914  0.053113257           10 
 2973000   0.76775016   -4.0699371    1908.2611  0.053488652   0.05310223            5 
 2974000   0.77782035   -4.0915926    1905.6472  0.053397423  0.053091213            4 
 2975000   0.78132169   -4.0573957    1904.5978  0.053350078  0.053080191            8 
 2976000   0.75539432   -4.0762603    1907.5994  0.053416202  0.053069239            5 
 2977000   0.76537169   -4.0493794    1906.5822  0.053369786  0.053058281            3 
 2978000   0.76096954   -4.0623361    1911.3518  0.053485331  0.053047413            3 
 2979000    0.7825666   -4.0790215     1913.173  0.053518323  0.053036641            4 
 2980000   0.77561535   -4.0633852    1916.7351  0.053599976  0.053025943            9 
 2981000   0.79363267   -4.0736587    1911.5047  0.053435779  0.053015199            7 
 2982000    0.7822228   -4.0796364    1909.6664  0.053366488  0.053004361            7 
 2983000   0.75717476   -4.0780987    1914.1171  0.053472933  0.052993558            3 
 2984000    0.7704617   -4.0734715    1911.9046  0.053393226  0.052982729            4 
 2985000   0.76073146   -4.0717048    1918.7526  0.053566517  0.052972018            6 
 2986000   0.77440324   -4.0622634    1916.9147  0.053497284  0.052961323           10 
 2987000   0.80555901   -4.0452489    1908.5693  0.053246549  0.052950598            5 
 2988000   0.76704661   -4.0685154    1914.6706   0.05339889  0.052939952            3 
 2989000   0.75891971     -4.04968    1919.5077  0.053515883  0.052929234            4 
 2990000   0.77202954   -4.0818847    1911.5709  0.053276781  0.052918428            3 
 2991000   0.77194175   -4.0760867    1915.5022  0.053368501  0.052907768            4 
 2992000   0.76889257   -4.0549494    1914.1679    0.0533135  0.052896936            4 
 2993000   0.77323792   -4.0444695    1916.7658  0.053368019  0.052886111            4 
 2994000   0.76596781   -4.0877574    1913.8388  0.053268727  0.052875239            8 
 2995000   0.75715743   -4.0857698    1917.5656  0.053354634  0.052864254            8 
 2996000   0.76265222   -4.0902492    1917.7293  0.053341381  0.052853441            8 
 2997000   0.78324152   -4.0475343    1911.9776  0.053163654  0.052842668            4 
 2998000   0.77265351   -4.0495185    1921.6038  0.053413493  0.052831864            4 
 2999000   0.76531185   -4.0803618    1921.8206  0.053401707  0.052821079            6 
 3000000   0.77552916   -4.0986186    1911.9049  0.053108469  0.052810278            6 
 3001000   0.77302535   -4.0768819    1917.9038  0.053257353  0.052799333            7 
 3002000   0.77413824   -4.0668719    1919.5998  0.053286691   0.05278849            3 
 3003000   0.78724367   -4.0719332    1916.5575  0.053184524  0.052777684            4 
 3004000   0.76609544   -4.1036247    1913.9323  0.053093995  0.052766799            3 
 3005000   0.75301603   -4.0989419    1918.2078  0.053194891  0.052755872            3 
 3006000   0.78236293   -4.0546805    1920.2453  0.053233679  0.052745005            6 
 3007000   0.77978829   -4.0459094    1921.7127  0.053256643  0.052734092            5 
 3008000   0.76367196    -4.067579    1918.9467   0.05316231  0.052723283            7 
 3009000   0.76781341   -4.0810767    1909.3985  0.052880206  0.052712426            8 
 3010000   0.78936879   -4.0855717    1916.1655  0.053049985  0.052701586            9 
 3011000   0.77424105   -4.0876732    1917.8197  0.053078151  0.052690759            3 
 3012000   0.77014449   -4.0736135    1925.2902  0.053267213  0.052680018            4 
 3013000   0.76924881   -4.0817009    1915.0725  0.052966934   0.05266931           11 
 3014000   0.77449354   -4.0792952    1924.5257   0.05321073  0.052658555            5 
 3015000   0.75684116   -4.0967468    1922.2767   0.05313092  0.052647795            4 
 3016000   0.77962128   -4.1158656    1920.3074  0.053058893  0.052636848            8 
 3017000    0.7738589   -4.0761191    1918.4715  0.052990594   0.05262616            7 
 3018000   0.77343973   -4.0796392      1923.11  0.053101115    0.0526154            4 
 3019000   0.77956954   -4.0648654    1924.2198  0.053114161  0.052604592            3 
 3020000   0.76656657   -4.0668887    1921.8381  0.053030852  0.052593814            5 
 3021000   0.76450942   -4.0772266    1922.5081   0.05303178  0.052582955            4 
 3022000   0.77444982   -4.0726469    1920.9475  0.052971196  0.052572032            5 
 3023000   0.77156489    -4.092633    1919.5867  0.052916162  0.052561244            4 
 3024000   0.77226384   -4.1019358    1922.1335  0.052968847  0.052550279           12 
 3025000   0.76006509   -4.0921423     1923.428  0.052986998  0.052539474            8 
 3026000   0.76792257   -4.0958033    1920.3574  0.052884924   0.05252856           10 
 3027000   0.78538659   -4.0950062     1923.403    0.0529513  0.052517596            5 
 3028000   0.76902042   -4.1018911    1920.7129  0.052859779  0.052506621            5 
 3029000      0.77276    -4.088029     1921.029  0.052851024   0.05249563            5 
 3030000   0.78814672   -4.0933344    1920.3659  0.052815344  0.052484646            6 
 3031000   0.78084395   -4.0804205    1918.1752  0.052737689   0.05247368            6 
 3032000   0.76223482   -4.0833085    1921.2423  0.052804594  0.052462776            8 
 3033000   0.76914808   -4.0506824    1925.0764  0.052892526  0.052451872            2 
 3034000   0.78735898   -4.1053951    1920.8239  0.052758291  0.052440951            8 
 3035000   0.77390498   -4.0787155    1921.3678  0.052755843  0.052429906            6 
 3036000   0.78122219   -4.0877039    1921.3479   0.05273792  0.052418898            6 
 3037000   0.75885286   -4.0858199    1922.5648  0.052753946  0.052407773           10 
 3038000   0.77560364   -4.1045893    1923.5451  0.052763472  0.052396705            6 
 3039000   0.76338062   -4.1032439    1922.6041  0.052720307   0.05238571            5 
 3040000   0.76093511   -4.0958711    1921.3703  0.052669141  0.052374552            3 
 3041000   0.75421924   -4.0786161    1919.4662  0.052599645  0.052363513            6 
 3042000   0.77405748    -4.097607    1924.9432   0.05273239   0.05235253            8 
 3043000   0.77018194   -4.0980149    1926.1663  0.052748556  0.052341461            5 
 3044000   0.76935525   -4.0833883    1930.2158  0.052842089  0.052330474            2 
 3045000   0.76261413   -4.1037207     1920.191  0.052550383  0.052319475            6 
 3046000   0.76237626   -4.0826962    1924.7947  0.052659081  0.052308403            4 
 3047000   0.76506148   -4.1069456    1926.3034   0.05268306  0.052297391            2 
 3048000   0.75627233   -4.0984616    1917.6358  0.052428801  0.052286216            3 
 3049000   0.75150953   -4.0947989    1919.8021  0.052470812  0.052275066            5 
 3050000   0.76765162   -4.0607875    1926.3879  0.052633548  0.052263895            3 
 3051000   0.74326754   -4.0792649    1927.1236  0.052636394  0.052252823            5 
 3052000   0.76226998   -4.0939148    1926.4631  0.052601112  0.052241758            4 
 3053000   0.74945562   -4.1094139    1919.5913  0.052396313  0.052230596            7 
 3054000   0.76492276   -4.0711504    1924.9586   0.05252561  0.052219458            5 
 3055000   0.76588176   -4.0636756    1921.9207  0.052425551  0.052208471            4 
 3056000   0.76599055   -4.0989417    1920.4168  0.052367387  0.052197298            5 
 3057000   0.77015084   -4.0906835    1927.3507  0.052539274  0.052185986           10 
 3058000   0.76544797   -4.0819329    1928.2879  0.052547632  0.052174849            5 
 3059000   0.76848191   -4.0716694    1922.8547  0.052382442  0.052163796            5 
 3060000   0.75848751   -4.0746566    1925.6883  0.052442492  0.052152749            7 
 3061000   0.75549335   -4.0799345    1925.3731  0.052416778  0.052141643            6 
 3062000   0.75555005   -4.0852638    1925.6644  0.052407589  0.052130558            4 
 3063000   0.75307511   -4.0863392     1930.214  0.052514255  0.052119454            5 
 3064000   0.75330912   -4.0876052    1929.6911  0.052482895  0.052108407            6 
 3065000   0.76409858   -4.0992076    1928.4856  0.052432996  0.052097366            5 
 3066000   0.76203697   -4.1117152    1926.7579  0.052368937  0.052086223            6 
 3067000   0.75952087   -4.0845054    1930.9167   0.05246486   0.05207514            7 
 3068000   0.77758493    -4.099141    1929.4346  0.052407501   0.05206407            3 
 3069000   0.76790709   -4.1100632    1927.0717  0.052326265  0.052053117            2 
 3070000   0.76369349   -4.0691885    1934.9711  0.052523646  0.052042081            6 
 3071000   0.76191652   -4.1017878    1922.3087  0.052162942  0.052031083            4 
 3072000   0.76486198   -4.0848677    1934.1699  0.052467717  0.052019983            8 
 3073000   0.75111253   -4.0939633    1927.6323  0.052273356  0.052009048            6 
 3074000    0.7716193   -4.1088059    1932.9895  0.052401581  0.051998086            6 
 3075000   0.76086168   -4.0816515    1934.2276  0.052418092   0.05198702            6 
 3076000    0.7713703   -4.1211079    1929.9909  0.052286273  0.051976155            4 
 3077000   0.76390865   -4.0763839    1929.2933  0.052250387  0.051965263            6 
 3078000   0.77075232   -4.0998825    1938.0191  0.052469652  0.051954397            5 
 3079000    0.7575833   -4.1106739    1930.1609   0.05223993  0.051943566            6 
 3080000    0.7546551   -4.0923984    1942.5484  0.052558127  0.051932686            3 
 3081000   0.75291396   -4.1053359    1933.6291  0.052299824   0.05192187            9 
 3082000   0.75291224   -4.1082802    1931.7194  0.052231218   0.05191094           10 
 3083000   0.75102033   -4.0978743     1928.998  0.052140717  0.051900035            8 
 3084000   0.76028908   -4.1002001    1934.4871  0.052272133  0.051889213            4 
 3085000   0.77391445   -4.1069125    1934.6012  0.052258272  0.051878353            3 
 3086000   0.75205524   -4.0862287    1937.2347  0.052312452   0.05186754            7 
 3087000   0.77557291   -4.0992783    1939.5394   0.05235772  0.051856572            4 
 3088000   0.75462951   -4.1010903    1935.4859  0.052231376    0.0518458            9 
 3089000   0.76381142   -4.1333066    1935.9901   0.05222807  0.051834803            8 
 3090000   0.76613988   -4.0997535    1933.8044  0.052152221  0.051823822            3 
 3091000   0.76317147   -4.1037193    1934.6833  0.052159045  0.051812853            5 
 3092000    0.7508732   -4.1213681    1930.2298  0.052022149  0.051801941           12 
 3093000   0.74996096   -4.1143293    1934.9727  0.052133115  0.051790927           11 
 3094000   0.75215909   -4.1343253      1934.34  0.052099225  0.051779907            7 
 3095000   0.75346982   -4.0902064    1938.6279  0.052197844  0.051768902            8 
 3096000     0.766855   -4.1263484    1943.0351  0.052299611  0.051757998           13 
 3097000   0.75484657   -4.1138059    1942.0634  0.052256575  0.051747004            5 
 3098000   0.75956922   -4.1033602    1934.3096  0.052031137  0.051736006            4 
 3099000   0.76597774   -4.1093408    1937.1833  0.052091624  0.051725164            4 
 3100000   0.75827621   -4.1357945    1930.7254  0.051901219  0.051714226           12 
 3101000   0.76007866   -4.0929887    1942.9602   0.05221327  0.051703285            6 
 3102000   0.75320928   -4.0973084     1938.016  0.052063614  0.051692325            7 
 3103000   0.75779482   -4.1296657    1939.0798  0.052075406  0.051681338            6 
 3104000   0.78593229   -4.0858694    1942.9552  0.052162671  0.051670375            4 
 3105000   0.72941347    -4.120865    1939.9239  0.052064516  0.051659378            5 
 3106000   0.74958375   -4.0848768     1940.562  0.052064874  0.051648391            8 
 3107000   0.75770895   -4.0941904    1944.9703  0.052166354  0.051637529            4 
 3108000   0.76174949   -4.1117372    1943.8619  0.052119849  0.051626651            4 
 3109000   0.77071429    -4.101615    1938.9818  0.051972281  0.051615688            6 
 3110000   0.77087575   -4.0863413     1945.778  0.052137673  0.051604882            6 
 3111000   0.76550099   -4.1043003    1942.1249  0.052023061  0.051593996            4 
 3112000    0.7569029   -4.1103703    1938.1789  0.051900677  0.051582991            6 
 3113000   0.76371876   -4.1143185    1939.2493   0.05191266  0.051571946            6 
 3114000   0.74371154   -4.1051993    1936.1593  0.051813298  0.051561065            8 
 3115000    0.7664675   -4.0984645    1938.3392  0.051854981  0.051550089            4 
 3116000    0.7575913   -4.1213544    1939.4696  0.051868571  0.051539102            9 
 3117000   0.75396875   -4.1203315    1942.1312  0.051923089  0.051528141            7 
 3118000   0.74707967   -4.0797886    1942.7501  0.051922976  0.051517106            8 
 3119000   0.76040278   -4.1300774     1937.201  0.051758068  0.051506084            3 
 3120000   0.75257873   -4.1416179    1938.6466   0.05178009  0.051495076            6 
 3121000   0.77026676   -4.1286013    1938.4587  0.051758482  0.051483958            6 
 3122000    0.7824082   -4.1036492    1943.0197  0.051863647  0.051472852            4 
 3123000   0.75320689   -4.1127398    1939.8869  0.051763446  0.051461856            6 
 3124000   0.74116045   -4.1206899    1942.2494  0.051809896  0.051450778            4 
 3125000   0.75092985   -4.0936011    1947.7823  0.051940861  0.051439882            5 
 3126000    0.7494586   -4.1197426     1943.643  0.051813898  0.051428899            3 
 3127000   0.76071385   -4.1069218    1944.0541  0.051808285  0.051417985            6 
 3128000   0.74057517   -4.0951653    1939.0759  0.051659098  0.051406949            4 
 3129000    0.7594225   -4.1292511    1934.3341  0.051516301  0.051395975            4 
 3130000   0.74872005    -4.135557    1941.0834  0.051679536  0.051384898            5 
 3131000     0.759072   -4.1009937    1946.5646  0.051808915  0.051373892            7 
 3132000   0.75611504   -4.1365487    1947.4197  0.051815126  0.051363017            8 
 3133000   0.74256858   -4.1082436    1946.5349  0.051775054  0.051352165            7 
 3134000   0.75576696   -4.1062226    1943.9695  0.051690319  0.051341314            4 
 3135000   0.75325943   -4.0959591    1947.3531  0.051763772  0.051330402            4 
 3136000   0.74478845   -4.1236642    1948.7209  0.051783613  0.051319345            6 
 3137000   0.75497955   -4.0896081    1943.1584  0.051619339   0.05130842            3 
 3138000   0.76517876   -4.1102583    1948.3107  0.051739714   0.05129746            8 
 3139000   0.74069498   -4.1293329    1944.4721  0.051621325   0.05128652            7 
 3140000   0.74155382   -4.1350699      1939.95  0.051484874  0.051275565            9 
 3141000   0.75146737   -4.1142614    1945.8426  0.051624816  0.051264673           11 
 3142000   0.75127179   -4.0999403    1946.5395  0.051626871  0.051253742            5 
 3143000   0.74415697   -4.1421531    1948.8931  0.051672846  0.051242915            7 
 3144000   0.75001625   -4.1348913    1949.6859  0.051677425  0.051231985            5 
 3145000   0.75081144   -4.1304938     1946.011  0.051563619  0.051221031            6 
 3146000    0.7602594   -4.1084479    1952.3618  0.051715454  0.051210203            9 
 3147000   0.75209358   -4.1367995     1942.503  0.051437957  0.051199351            7 
 3148000   0.74539724   -4.1084062    1947.0774   0.05154271  0.051188568            5 
 3149000   0.75476652   -4.1094677    1952.8431  0.051678922  0.051177733            7 
 3150000   0.74559418   -4.1176699    1949.2714  0.051568027  0.051166835            6 
 3151000   0.76290748   -4.1233114    1949.3951  0.051554932  0.051156128           11 
 3152000   0.75677192    -4.121578    1954.3539  0.051669677  0.051145384            7 
 3153000   0.75627381    -4.139754    1951.0941  0.051567134  0.051134585            6 
 3154000   0.75040736   -4.1090585    1948.3856  0.051479222   0.05112382            5 
 3155000   0.74692811   -4.1271022    1949.5581  0.051493875  0.051113025            6 
 3156000   0.73432967   -4.1111842    1951.8401  0.051537815  0.051102286            5 
 3157000   0.74224597   -4.1100849    1956.0113  0.051631593  0.051091476            4 
 3158000   0.75636298   -4.1197217    1950.6006  0.051472466  0.051080603            2 
 3159000   0.73925274   -4.1502599    1948.5309  0.051401575  0.051069862            8 
 3160000   0.75585447   -4.1194993    1952.9283  0.051501275  0.051059048            4 
 3161000   0.75071043   -4.1438004    1947.2377  0.051334959  0.051048299            5 
 3162000   0.73778594    -4.117817    1954.0732  0.051498872  0.051037391           10 
 3163000   0.75448883   -4.1124131    1954.3705  0.051490423  0.051026724            3 
 3164000   0.74063408   -4.1249022     1959.611  0.051612172  0.051015992            6 
 3165000   0.73416854   -4.1309799    1948.1682  0.051294582  0.051005221            5 
 3166000   0.73613587   -4.1316476    1956.0802  0.051486635  0.050994493            5 
 3167000   0.73620111     -4.11801    1952.7176  0.051381897  0.050983796            8 
 3168000   0.73933657   -4.1125988    1955.2713  0.051432851  0.050973123            5 
 3169000   0.74943539   -4.1108826    1953.8964  0.051380467  0.050962351            7 
 3170000   0.75289672   -4.1059919    1956.2241  0.051425451  0.050951656            4 
 3171000   0.72984074      -4.1302    1951.9637  0.051297269  0.050940899            7 
 3172000     0.757473   -4.1387875    1959.2394  0.051472241  0.050930123            6 
 3173000   0.73473701   -4.1173739    1959.9526  0.051474749  0.050919462            5 
 3174000   0.74092525   -4.1095957    1960.3679  0.051469437  0.050908736            6 
 3175000   0.74230566   -4.1628688    1951.4275  0.051218569  0.050897862           20 
 3176000   0.73539547   -4.1267094    1958.4571  0.051386887  0.050887072            5 
 3177000   0.73318112   -4.1165426    1950.1158  0.051151919  0.050876213            4 
 3178000   0.73909033   -4.1383025    1953.9957  0.051237564  0.050865366           15 
 3179000   0.74839198   -4.1290381      1956.98  0.051299674  0.050854499            3 
 3180000   0.75228614   -4.1389085    1957.3781  0.051293976  0.050843622            8 
 3181000   0.75133092   -4.1040744    1959.2562  0.051327052  0.050832838            4 
 3182000   0.75702821   -4.1237654    1959.4973  0.051317235  0.050822057            7 
 3183000   0.75435074   -4.1461075    1953.3251   0.05113952  0.050811343            7 
 3184000   0.74637048   -4.1337764      1953.54  0.051129084   0.05080051            3 
 3185000   0.73313403   -4.1099798    1960.9495  0.051306895  0.050789737            7 
 3186000   0.74227559   -4.1073159    1960.6282  0.051282385   0.05077912            7 
 3187000   0.75645741    -4.127191    1955.1292  0.051122507  0.050768478            4 
 3188000   0.73446752   -4.1322364    1958.9256  0.051205708  0.050757746            7 
 3189000   0.73563791   -4.1464455     1957.936  0.051163791  0.050746967            8 
 3190000   0.72610333   -4.1213684    1959.7716  0.051195706  0.050736299            4 
 3191000   0.75686296   -4.1183327    1963.0509    0.0512653  0.050725676            5 
 3192000   0.75319669   -4.1255568    1959.7686  0.051163549  0.050714987            9 
 3193000   0.74328373   -4.1426526    1963.8683  0.051254522  0.050704333            7 
 3194000   0.74269609   -4.1438212    1961.5228  0.051177279  0.050693728            9 
 3195000   0.73637131   -4.1412772    1962.3086  0.051181759  0.050683051           11 
 3196000   0.73363707   -4.1326658    1960.2206  0.051111302  0.050672464            3 
 3197000   0.75213507   -4.1247749     1965.636  0.051236471  0.050661859            8 
 3198000   0.74591265   -4.1398554    1964.0306  0.051178618  0.050651203            5 
 3199000   0.72860058    -4.120681    1966.2863  0.051221379  0.050640614            6 
 3200000   0.73058002   -4.1101262    1966.9261  0.051222033  0.050630015            3 
 3201000   0.74699935    -4.165398    1958.7961   0.05099438  0.050619421            9 
 3202000   0.73718231   -4.1221203    1964.8743   0.05113664  0.050608731            5 
 3203000   0.74149291   -4.1208533    1964.2395   0.05110416  0.050598087            5 
 3204000   0.74871276   -4.1420136    1972.0672  0.051291802  0.050587432            5 
 3205000   0.72722524   -4.1269054    1964.5477  0.051080284  0.050576698            4 
 3206000   0.74030711   -4.1538333    1964.4023  0.051060571  0.050565971            6 
 3207000   0.73577426   -4.1383823    1964.3349  0.051042899  0.050555182            8 
 3208000   0.73467097   -4.1260033    1969.8274  0.051169665  0.050544507            4 
 3209000   0.73765877   -4.1310554    1969.6331  0.051148673  0.050533797            4 
 3210000   0.74168665     -4.14306     1965.678  0.051030063  0.050523062           11 
 3211000   0.74400497   -4.1463233    1959.8257   0.05086229  0.050512282            6 
 3212000   0.74420497   -4.1357934    1971.3597  0.051145695   0.05050162            5 
 3213000   0.74462335   -4.1524517    1967.7417  0.051035939  0.050491051            4 
 3214000   0.74137876   -4.1329362    1970.3253  0.051087049  0.050480375           10 
 3215000   0.73406437   -4.1256665    1966.6387  0.050975602  0.050469704            6 
 3216000   0.73143356   -4.1366625    1970.1615  0.051051035  0.050459066            7 
 3217000   0.72678641   -4.1439748    1969.3582  0.051014356  0.050448337            7 
 3218000    0.7293802   -4.1281882    1970.9865   0.05104067  0.050437747            6 
 3219000   0.74626346   -4.1460055    1965.3381  0.050878589  0.050427102            3 
 3220000   0.73042456   -4.1245216    1973.9951  0.051086829  0.050416577            5 
 3221000   0.76071648   -4.1508817    1972.5074   0.05103248  0.050406063            8 
 3222000   0.73310171   -4.1473647    1971.2789  0.050984868  0.050395568           10 
 3223000   0.73794098   -4.1492058    1970.6635  0.050953136  0.050385032            4 
 3224000   0.71487401   -4.1485695    1971.2994  0.050953768  0.050374444            3 
 3225000   0.72272088   -4.1499109    1971.6307  0.050946529  0.050363926            4 
 3226000   0.72482834   -4.1129909    1970.3005  0.050896376  0.050353513            4 
 3227000   0.71944394   -4.1399176    1967.8247   0.05081667  0.050343081            6 
 3228000   0.72820245   -4.1629196    1975.2179  0.050991787  0.050332535            8 
 3229000   0.73228522   -4.1392502    1965.6846  0.050729964     0.050322            9 
 3230000    0.7392651   -4.1398877    1978.6912  0.051049824  0.050311449            6 
 3231000   0.72891783   -4.1337113    1974.8549  0.050935079  0.050300919            4 
 3232000   0.73882153    -4.130164    1978.9067  0.051023791  0.050290555            5 
 3233000   0.74912073   -4.1448664     1972.219  0.050835628  0.050280127            6 
 3234000    0.7255421   -4.1212863    1973.7214  0.050858622  0.050269715            3 
 3235000   0.74070559   -4.1216948    1972.0151  0.050798945  0.050259293            5 
 3236000   0.73555667   -4.1391237    1974.7769  0.050854369  0.050248788            6 
 3237000   0.74277364   -4.1238901    1970.4374  0.050726943  0.050238366            8 
 3238000   0.74725002   -4.1474208    1979.0401  0.050932678  0.050227937            3 
 3239000   0.74464401   -4.1437549    1978.3595  0.050899441  0.050217455            8 
 3240000   0.73042301   -4.1519135    1970.7129   0.05068706  0.050206987            5 
 3241000   0.75029218    -4.144498    1980.5523  0.050924415  0.050196456           12 
 3242000   0.73058124   -4.1436608    1981.5679  0.050934811   0.05018609            6 
 3243000   0.72916873   -4.1728947    1973.1845  0.050703683  0.050175509            6 
 3244000   0.72275127   -4.1545716    1966.6286  0.050519641  0.050164953            7 
 3245000   0.72920698   -4.1223237    1970.4981  0.050603444  0.050154354           16 
 3246000   0.72767301   -4.1259919     1971.076   0.05060269   0.05014384            8 
 3247000   0.70621083   -4.1479967    1978.1314  0.050768181  0.050133228            7 
 3248000   0.73239482     -4.13612    1975.4841  0.050684628  0.050122679            5 
 3249000   0.73060764   -4.1117426     1972.486   0.05059213  0.050112278            7 
 3250000   0.72229145   -4.1379675    1981.3255  0.050803217  0.050101885            3 
 3251000   0.73526922   -4.1515565    1977.7982  0.050697176  0.050091433            5 
 3252000   0.73511208   -4.1319698    1981.5834  0.050778583  0.050080987            7 
 3253000   0.73304828   -4.1368321     1981.152  0.050751922  0.050070571           10 
 3254000   0.72910169   -4.1602959    1973.4143  0.050538165  0.050060177            7 
 3255000   0.73174368   -4.1508782    1977.8936  0.050637318  0.050049708            7 
 3256000   0.73435537   -4.1326914    1981.7645  0.050720835  0.050039338            7 
 3257000   0.73188091   -4.1555791    1980.9688  0.050684904  0.050029062            6 
 3258000   0.73171641   -4.1404417     1979.944  0.050643136  0.050018611            5 
 3259000   0.73017392   -4.1678698    1986.6041  0.050797894  0.050008256           13 
 3260000   0.73072792   -4.1404897    1988.7317  0.050836699  0.049997833            6 
 3261000   0.72274717   -4.1330629    1982.5913  0.050664195  0.049987434            5 
 3262000   0.72543554   -4.1624531    1981.9775  0.050632983   0.04997692            6 
 3263000   0.71244385   -4.1570767    1981.7319  0.050611194  0.049966449            5 
 3264000   0.73581537   -4.1592818    1981.9158  0.050600383  0.049955925            8 
 3265000   0.71837459   -4.1597326    1985.5237  0.050676971  0.049945521           10 
 3266000    0.7157694   -4.1603204     1980.259  0.050527122  0.049935092            5 
 3267000   0.72401444   -4.1556161    1982.5907  0.050571132  0.049924592            8 
 3268000   0.70851297   -4.1410843    1982.0697  0.050542373  0.049914103            9 
 3269000   0.73809826   -4.1378639    1980.4231  0.050484937  0.049903661            3 
 3270000   0.72808672   -4.1533808    1988.2426  0.050668773  0.049893129            5 
 3271000   0.73032845   -4.1572782    1983.7473  0.050538757  0.049882683            8 
 3272000   0.72436746   -4.1594436    1979.4998  0.050415132  0.049872262            9 
 3273000   0.71289893   -4.1352289    1988.6356  0.050632334  0.049861712            9 
 3274000   0.73051235   -4.1500362    1981.5067  0.050435418   0.04985118            5 
 3275000   0.72157419   -4.1731503    1979.8452   0.05037774  0.049840656            4 
 3276000   0.71860174   -4.1347151    1988.0837   0.05057193  0.049830191            7 
 3277000   0.72899509   -4.1453888    1983.7109  0.050445299  0.049819777            8 
 3278000   0.75932571   -4.1642126    1986.3038  0.050495826  0.049809301            4 
 3279000   0.73272148   -4.1539702    1987.7937  0.050518291   0.04979889            7 
 3280000   0.70512658   -4.1660903     1982.418   0.05036631  0.049788348            8 
 3281000   0.74002261   -4.1878632    1986.7665  0.050461406  0.049777803            8 
 3282000   0.71303195   -4.1584768    1983.8316  0.050371511  0.049767332            4 
 3283000   0.73318412   -4.1788586    1981.8646  0.050306238   0.04975681            7 
 3284000   0.72696001   -4.1104755    1985.1059   0.05037317  0.049746298            3 
 3285000   0.74786443   -4.1573991    1983.4157  0.050314961  0.049735862           19 
 3286000   0.73063266   -4.1751051    1982.5227  0.050277001   0.04972538            9 
 3287000   0.70845979   -4.1981492    1983.4696  0.050285712  0.049714853            6 
 3288000   0.71998032   -4.1491087     1991.359  0.050470373  0.049704299            4 
 3289000   0.74055538   -4.1685679    1981.3423  0.050201235  0.049693844            6 
 3290000    0.7231934    -4.172535    1983.1489  0.050231736   0.04968341            6 
 3291000   0.71981385   -4.1396458    1991.2392  0.050421331  0.049672975            7 
 3292000   0.72407735   -4.1591983    1990.6204  0.050390351  0.049662553            3 
 3293000   0.72326901   -4.1753789     1981.987   0.05015657  0.049652052            5 
 3294000   0.70690258   -4.1311854    1990.6933  0.050361599  0.049641622            6 
 3295000     0.735353   -4.1459711    1986.9108  0.050250652  0.049631289            3 
 3296000   0.72954831   -4.1739861    1986.0438  0.050213485  0.049620889            8 
 3297000   0.73130466   -4.1820132    1992.4366  0.050359837  0.049610494            4 
 3298000   0.73172526   -4.1552765    1982.0383  0.050081824  0.049600122            5 
 3299000    0.7262775   -4.1858919    1983.5105  0.050103832  0.049589624            9 
 3300000   0.73086717   -4.1551189    1984.0054  0.050101148  0.049579081            6 
 3301000   0.69831857   -4.1580587    1985.0098  0.050111325  0.049568618            7 
 3302000   0.71605623   -4.1512707    1983.3819  0.050055065  0.049558134            5 
 3303000   0.72318147   -4.1548013    1990.4592  0.050218468   0.04954771            6 
 3304000   0.72055571   -4.1801354    1988.7259  0.050159553  0.049537228            4 
 3305000   0.72298081   -4.1649632    1992.7189  0.050245056  0.049526774            3 
 3306000   0.69293583   -4.1718373    1981.7763   0.04995403  0.049516235            5 
 3307000   0.72262344   -4.1622862    1985.4732  0.050032083   0.04950575            7 
 3308000   0.74074516   -4.1755768    1987.2295  0.050061202  0.049495222            7 
 3309000   0.71759876   -4.1814177    1982.5584  0.049928438  0.049484751            6 
 3310000   0.73069782   -4.1894719    1985.8983   0.04999744  0.049474156            4 
 3311000   0.71151447   -4.1588366    1985.1984  0.049964725  0.049463646            5 
 3312000   0.73246669   -4.1540313    1987.7497  0.050013831  0.049453118            4 
 3313000   0.73945949   -4.1707851    1991.7411  0.050099131   0.04944261            6 
 3314000   0.72962408   -4.1744629      1989.31  0.050022881  0.049432251           12 
 3315000   0.71384531   -4.1721962    1992.2534  0.050081784  0.049421757            7 
 3316000   0.70357535   -4.1901793    1986.2309  0.049915333  0.049411269            6 
 3317000   0.72767146   -4.1755969    1984.0601  0.049845746  0.049400702            6 
 3318000   0.72574222   -4.1585266    1991.8636  0.050026712  0.049390272            4 
 3319000   0.73294466   -4.1618172    1986.8349  0.049885381  0.049379816            5 
 3320000   0.73636975   -4.1563226    1991.0783  0.049976864  0.049369295            3 
 3321000   0.72259352   -4.1732249    1990.5079  0.049947503  0.049358863            5 
 3322000   0.72136914   -4.1800545    1987.3385  0.049852962  0.049348482            6 
 3323000   0.72587851   -4.1800084    1992.9955  0.049979824  0.049338023            9 
 3324000   0.72582078   -4.1786121    1998.0581   0.05009171  0.049327549            6 
 3325000    0.7406853   -4.1629958    1994.0465  0.049976103  0.049317108            8 
 3326000   0.73656439   -4.1696373    1990.6016  0.049874764  0.049306623            7 
 3327000   0.71685434   -4.1751371    1990.9112  0.049867529  0.049296096            8 
 3328000   0.70275396   -4.1712366    1992.3057  0.049887462  0.049285606            9 
 3329000   0.73665168   -4.1585332    1996.2919  0.049972262  0.049275207            8 
 3330000   0.71990881   -4.1961121    1991.7668  0.049844014   0.04926479           15 
 3331000   0.72732609   -4.2081742    1992.7541  0.049853749  0.049254338            5 
 3332000   0.72221356   -4.1533388    1992.4255  0.049830569  0.049243933            5 
 3333000   0.71719832   -4.1639309    1994.2134  0.049860322  0.049233574            2 
 3334000   0.71387368   -4.1608435    1994.3391  0.049848508  0.049223177            8 
 3335000   0.72770936   -4.1708564     1994.891   0.04984735  0.049212877            6 
 3336000   0.73128215   -4.1761371    1992.1143  0.049763046  0.049202495            4 
 3337000   0.71904958   -4.1803284    1996.6674  0.049861836  0.049192107            6 
 3338000   0.71515278    -4.187216    1997.4542  0.049866542  0.049181737            3 
 3339000   0.72121722   -4.1495297    2004.4821  0.050027007  0.049171384            6 
 3340000   0.70739073   -4.1728588     1992.353  0.049709406  0.049161128            6 
 3341000   0.72408629   -4.1556689    2002.0275  0.049935835  0.049150788           10 
 3342000   0.71933602   -4.1719523    1991.1781  0.049650361  0.049140493            9 
 3343000   0.71616325   -4.1733743    1994.6577  0.049722247  0.049130151            3 
 3344000   0.72663518   -4.1739983    2001.1681  0.049869619  0.049119832            8 
 3345000   0.71793362   -4.1912978    1997.2986  0.049758312  0.049109508            7 
 3346000     0.719982    -4.198522    2001.9765  0.049859944  0.049099202            3 
 3347000   0.73242156   -4.1772231    1999.8239  0.049791453  0.049088851            7 
 3348000   0.71282543   -4.1832404    1997.0367  0.049707206  0.049078526            7 
 3349000   0.71382344   -4.1972797    1999.2134  0.049746525  0.049068232            5 
 3350000   0.71502699   -4.1709034    2000.7347  0.049769519  0.049058077            8 
 3351000   0.71819416   -4.1664478    2005.2873  0.049867883  0.049047846            5 
 3352000   0.71286028   -4.1477171    2005.1932  0.049850667  0.049037665            7 
 3353000   0.71099265    -4.182084    2000.6857  0.049723773  0.049027403            8 
 3354000   0.71872625   -4.1780465    2000.0544  0.049693261   0.04901714            5 
 3355000   0.71136747   -4.1654866    2004.4854  0.049788509   0.04900691           11 
 3356000   0.71890597    -4.205399    2002.1221  0.049714991  0.048996732            5 
 3357000    0.7111524   -4.1712093    2000.8269  0.049668031  0.048986504            4 
 3358000   0.71252394   -4.1736156    1997.6254  0.049573788  0.048976203            6 
 3359000   0.71059342   -4.2073797    1996.9393  0.049542009  0.048965894            7 
 3360000    0.7033282   -4.1555549    2002.0192  0.049653254  0.048955609            3 
 3361000   0.71170276   -4.1889799    2005.4968  0.049724706  0.048945344            9 
 3362000   0.72747164   -4.1695267    2002.2181  0.049628646  0.048934977            7 
 3363000    0.7186571   -4.1849839    1999.4122   0.04954436  0.048924632            8 
 3364000   0.71493668   -4.1777559    1999.4368  0.049530243  0.048914265           17 
 3365000   0.71016057   -4.1747337     2002.387  0.049588583  0.048904052            5 
 3366000   0.72876633   -4.1754349    2006.7615  0.049682152  0.048893801            8 
 3367000   0.69132139   -4.1986283    2003.3747  0.049583574  0.048883552            5 
 3368000   0.71763773   -4.1809094    2007.2406  0.049664504  0.048873285            8 
 3369000   0.70877928   -4.1819892    2005.2701   0.04960102   0.04886309            8 
 3370000   0.72562517   -4.2222849    2000.1134  0.049458788  0.048852862            9 
 3371000   0.71999443   -4.1755105    2003.0055  0.049515611  0.048842567            6 
 3372000   0.71727611   -4.1845764     2008.744  0.049642744  0.048832362            6 
 3373000   0.70406203   -4.1843109    2009.7939  0.049653964  0.048822133           11 
 3374000   0.71845153   -4.1912531    2007.9513  0.049593739  0.048811886            6 
 3375000   0.72317205    -4.176267    2006.0831  0.049532916  0.048801652            6 
 3376000   0.70454067   -4.1798213    2009.3797  0.049599617  0.048791484            3 
 3377000   0.70330544   -4.1814712    2005.4319  0.049487511  0.048781254           12 
 3378000   0.71427936    -4.170628    2003.1548  0.049416686  0.048770995            7 
 3379000   0.69579325   -4.2117275    2003.0022  0.049398298  0.048760751            6 
 3380000   0.71825053   -4.2016413    2007.3639   0.04949122  0.048750495            8 
 3381000   0.72272445   -4.1494903    2004.1122  0.049396436  0.048740272            5 
 3382000   0.70185255   -4.2062504    2003.4875  0.049366438  0.048730051            4 
 3383000   0.70427844   -4.1867811    2008.5831  0.049477364  0.048719794           11 
 3384000   0.71790966   -4.1871536    2011.2093  0.049527417  0.048709556            7 
 3385000   0.71156924   -4.2254215      2009.59  0.049472919  0.048699413            4 
 3386000   0.71330905   -4.1970597    2007.7192  0.049412266  0.048689321            6 
 3387000    0.6963552   -4.1892239    2013.8106   0.04954755  0.048679194            8 
 3388000   0.70223576   -4.1833994    2012.5989  0.049503121  0.048669029            5 
 3389000   0.71144269   -4.1775259    2009.9895  0.049424351  0.048658934           10 
 3390000   0.71384939   -4.1894356    2010.4784   0.04942179   0.04864882            4 
 3391000   0.72858409   -4.1919959    2015.1154  0.049521168  0.048638714            5 
 3392000   0.71105521   -4.1690489    2017.7707  0.049571804  0.048628589            4 
 3393000   0.70787834    -4.184755    2010.9721  0.049390218   0.04861842            6 
 3394000   0.69866497   -4.1811882     2008.102  0.049305195  0.048608171            5 
 3395000   0.70114516   -4.2217943     2010.248  0.049343347  0.048597967            8 
 3396000   0.70626627   -4.1857258    2009.6075  0.049313101  0.048587758           10 
 3397000   0.71364086   -4.1936359     2011.955  0.049356171  0.048577555            5 
 3398000   0.72480925   -4.1987181    2006.7794   0.04921472  0.048567274           13 
 3399000   0.70521361   -4.1962423    2004.7662  0.049150883  0.048557003            8 
 3400000   0.68727098   -4.1971643    2003.5141  0.049105737  0.048546776           10 
 3401000   0.70754703   -4.1837621    2007.7255  0.049194489  0.048536459            6 
 3402000   0.71376644   -4.1946835    2009.2574  0.049217553  0.048526194            6 
 3403000   0.70447554   -4.1880869    2012.6612  0.049286443  0.048515859            8 
 3404000   0.69979152   -4.2058419    2005.5858  0.049098751  0.048505658            9 
 3405000   0.67223135   -4.1900354    2012.6731  0.049257784  0.048495332            3 
 3406000   0.69186036    -4.200072    2011.9661  0.049226025  0.048485129            4 
 3407000   0.70367554   -4.1950794     2011.307  0.049195454  0.048474879           11 
 3408000   0.69905991   -4.1750133    2010.8225  0.049169173  0.048464672            5 
 3409000   0.71951305   -4.1769713    2013.6429  0.049223695  0.048454449            4 
 3410000   0.70346734   -4.2224078    2008.9362  0.049094238  0.048444248            4 
 3411000   0.68688275   -4.2120313    2011.2292  0.049135864  0.048433904            5 
 3412000     0.720763   -4.1756735    2015.7242  0.049231247  0.048423672            9 
 3413000   0.69975207   -4.1803193    2011.8283    0.0491217  0.048413466            5 
 3414000   0.70356715   -4.2110373    2013.3874  0.049145367   0.04840319            3 
 3415000   0.70259141   -4.1693424    2013.1171  0.049124379  0.048393022            7 
 3416000   0.70308321    -4.175509    2016.6291  0.049195674  0.048382922            5 
 3417000   0.68960254   -4.1956231    2014.1718  0.049121348  0.048372795            3 
 3418000   0.71878124   -4.1815269    2018.4959  0.049212403  0.048362625           12 
 3419000   0.70247634   -4.2116845     2011.219  0.049020645  0.048352389            8 
 3420000    0.7039471   -4.2060776    2011.7324   0.04901882  0.048342162           10 
 3421000   0.70428957   -4.1866455     2012.987  0.049035054  0.048331878            4 
 3422000   0.69867913   -4.2295945    2008.4516  0.048910277  0.048321593            4 
 3423000   0.69924982   -4.2427364    2003.2184  0.048768586  0.048311247            9 
 3424000   0.69404415   -4.2012794    2010.2103   0.04892451  0.048300949            3 
 3425000   0.71167209   -4.1977939    2013.3998  0.048987828   0.04829075            4 
 3426000   0.72479584   -4.2115878    2013.7582  0.048982248  0.048280458            5 
 3427000   0.68791586   -4.1947042    2015.3902  0.049007641   0.04827024            6 
 3428000   0.70691239   -4.1873463    2018.1259  0.049059847  0.048260008            5 
 3429000    0.7023343   -4.2111548      2018.51  0.049054875  0.048249824            7 
 3430000   0.69239864   -4.1993595    2014.7818  0.048949995  0.048239514            4 
 3431000   0.71111406   -4.2054833     2015.294  0.048948168  0.048229292            8 
 3432000   0.69972261   -4.2021688    2016.2859  0.048957991  0.048219051            5 
 3433000   0.70059507   -4.2013576    2017.5483  0.048974373  0.048208731           13 
 3434000   0.70544601   -4.2011916    2014.9655  0.048897434  0.048198448            6 
 3435000   0.70150613   -4.1950434    2017.9383   0.04895532  0.048188149            4 
 3436000   0.70688109   -4.2035575    2013.4109  0.048831268  0.048177858           10 
 3437000   0.70890533   -4.2021319    2015.3557  0.048864216  0.048167556           12 
 3438000   0.70155223   -4.1873304    2007.1981  0.048652272  0.048157245            8 
 3439000   0.69905236   -4.2024386    2015.2859  0.048834106  0.048146892            9 
 3440000   0.69710059   -4.2034948    2014.2111  0.048793873  0.048136627           13 
 3441000   0.69436794   -4.2102612    2017.4897  0.048859093  0.048126395           11 
 3442000   0.71535282   -4.2180844    2013.0087   0.04873641  0.048116172           11 
 3443000   0.71916771   -4.2073257    2012.3765  0.048706953  0.048105939            8 
 3444000   0.69048444   -4.2152791    2014.3511   0.04874059  0.048095565            5 
 3445000    0.7062891   -4.1844118    2023.8124  0.048955307  0.048085315           10 
 3446000   0.69543601   -4.1949054    2018.7988  0.048819858  0.048075186           16 
 3447000   0.71055267   -4.1902114    2016.2964  0.048745199  0.048065009            7 
 3448000   0.70929213   -4.2019414    2013.8274   0.04867139  0.048054817            6 
 3449000   0.69789978   -4.2189505     2015.419  0.048695732  0.048044569            9 
 3450000   0.68992956   -4.1906313     2019.379   0.04877727  0.048034358            4 
 3451000   0.70042998   -4.2086568    2019.3032  0.048761306  0.048024162            4 
 3452000    0.7136211   -4.1952539     2019.796  0.048759078  0.048013951            4 
 3453000   0.69025326   -4.2164546    2020.4583   0.04876094  0.048003742            6 
 3454000   0.69523236   -4.2095881    2020.0346  0.048736601  0.047993526            6 
 3455000   0.69632163    -4.207767    2018.2924  0.048680472  0.047983251            6 
 3456000   0.68750679   -4.1949816    2019.3343  0.048691509  0.047973115            5 
 3457000   0.69447548    -4.209073    2019.5836  0.048683434  0.047962917            5 
 3458000   0.69683354   -4.2044431    2022.5392  0.048740582  0.047952738            4 
 3459000   0.70221629   -4.2166727    2015.5879  0.048559023  0.047942578            5 
 3460000   0.69543531   -4.2220331    2021.7244  0.048692784  0.047932438            5 
 3461000   0.68418619   -4.2298929    2016.0646  0.048542439  0.047922241           12 
 3462000   0.69613883   -4.2153262    2019.7015  0.048615962  0.047911924            6 
 3463000   0.69109592   -4.2015296    2017.3748  0.048545933  0.047901656            7 
 3464000   0.70449242   -4.2049744    2020.1521  0.048598732  0.047891444            5 
 3465000   0.69223267   -4.1948415    2019.0563  0.048558352  0.047881284            7 
 3466000   0.69813589   -4.2315475    2017.2711   0.04850142  0.047871084            8 
 3467000   0.70793188    -4.215117    2024.4374  0.048659682  0.047860899            5 
 3468000   0.68160301    -4.230376    2027.6882  0.048723766  0.047850698           10 
 3469000   0.70420039   -4.2164409    2023.4832  0.048608706  0.047840499            4 
 3470000   0.68055288   -4.2258256    2021.0667  0.048536665  0.047830309            7 
 3471000   0.70045953   -4.2298346    2018.2224  0.048454393  0.047819967            6 
 3472000   0.70914034   -4.2104563    2019.9107   0.04848096  0.047809724            5 
 3473000   0.70501047   -4.2242138    2021.8549  0.048513652  0.047799524            6 
 3474000   0.69372386   -4.2185037    2022.3309  0.048511105  0.047789271            6 
 3475000    0.6876198   -4.2072436    2023.4912  0.048524969  0.047779142            5 
 3476000    0.6935059   -4.2130113     2024.329  0.048531095  0.047768968            4 
 3477000   0.70251367    -4.214271    2026.6649   0.04857312  0.047758751            6 
 3478000   0.69666437   -4.2065855    2028.7843  0.048609935  0.047748621            5 
 3479000   0.68896856   -4.1996213     2032.132  0.048676152  0.047738531            7 
 3480000   0.69579086   -4.1987692     2023.296  0.048450575  0.047728432            6 
 3481000   0.71968474   -4.2249075    2028.9803  0.048572736   0.04771831            5 
 3482000   0.67953589   -4.2130813    2030.1638  0.048587111  0.047708223            5 
 3483000   0.68741214   -4.2278289    2021.5845  0.048367894  0.047698138           19 
 3484000   0.70855443    -4.218715    2022.6574  0.048379673  0.047688036           19 
 3485000   0.69923681   -4.2234827     2027.806  0.048488906  0.047677937            5 
 3486000   0.68566752   -4.2432769     2019.697  0.048281148  0.047667783           10 
 3487000   0.67792275   -4.2345408    2024.4054  0.048379825   0.04765763            5 
 3488000   0.68519443   -4.2501964    2015.6493  0.048156758  0.047647392            6 
 3489000   0.69581686   -4.2158322    2029.5946  0.048476034  0.047637288            7 
 3490000   0.68953657   -4.2202268    2026.2907  0.048383256  0.047627178            5 
 3491000    0.6870947   -4.2112973    2028.0843   0.04841221   0.04761704            6 
 3492000   0.70772412   -4.2221109    2029.1951  0.048424854  0.047606901           10 
 3493000   0.69765306   -4.2176124    2029.7218  0.048423557  0.047596806            5 
 3494000   0.68201968   -4.2297654    2027.6113   0.04835936  0.047586703            5 
 3495000   0.71283237   -4.2350669    2027.2428  0.048336739  0.047576586            6 
 3496000   0.70572199   -4.1956462    2032.5535  0.048449502  0.047566467            4 
 3497000   0.69381026   -4.2113513    2030.8232  0.048394415  0.047556407            7 
 3498000   0.69071601   -4.2237518    2022.8281  0.048190112  0.047546238            8 
 3499000   0.67843259   -4.2201549    2033.8323  0.048438419  0.047536067           12 
 3500000   0.69321713   -4.2316164    2024.7333  0.048207935  0.047525958           14 
 3501000   0.70090456   -4.2504556    2024.1263  0.048179718  0.047515789            6 
 3502000   0.69597907   -4.2329997    2028.7786  0.048276666  0.047505624           10 
 3503000   0.67981017   -4.2497048     2022.245  0.048107457  0.047495445            6 
 3504000   0.69597968   -4.2110952    2030.3361  0.048286152  0.047485255           12 
 3505000    0.6767667   -4.2260476    2030.9061  0.048285927  0.047475093            5 
 3506000    0.6822316   -4.2273522    2026.3681  0.048164293  0.047464978            5 
 3507000   0.69894084   -4.2032879    2026.1126  0.048144488  0.047454847            8 
 3508000   0.68440331   -4.2138195    2026.2871  0.048134908  0.047444745            5 
 3509000   0.69529029    -4.219636    2025.9401  0.048112951  0.047434674            8 
 3510000   0.69091083   -4.2399098    2030.1916  0.048200181  0.047424543            5 
 3511000   0.69597312   -4.2126677    2025.6198  0.048077941  0.047414421            6 
 3512000   0.68676818   -4.2583693    2023.0699  0.048003748  0.047404205            6 
 3513000   0.68464045   -4.2313429    2024.7118  0.048029031  0.047393949            3 
 3514000   0.68824434    -4.229448    2022.8692  0.047971667  0.047383681            9 
 3515000   0.69012471   -4.2037093    2030.8838  0.048148028  0.047373496            3 
 3516000   0.68351684   -4.2152526    2028.1661  0.048069921   0.04736341            9 
 3517000   0.68764505   -4.2318946    2028.9883  0.048075735  0.047353332            8 
 3518000   0.68204001   -4.2374197    2029.6944  0.048078795  0.047343136            5 
 3519000   0.68323356   -4.2209279    2029.4763  0.048059967  0.047333015           11 
 3520000   0.70314335   -4.2157328    2025.0322  0.047941102  0.047322841            8 
 3521000   0.69283707    -4.226922    2029.4226  0.048031398  0.047312652            8 
 3522000    0.6888659   -4.1825917    2033.2645  0.048108663  0.047302503            3 
 3523000     0.700402   -4.2380994    2029.7228  0.048011231  0.047292401           11 
 3524000    0.6920725   -4.2216892    2027.7351  0.047950603  0.047282216            6 
 3525000   0.68526634   -4.2273489    2030.6798  0.048006616  0.047272011            6 
 3526000    0.6922561   -4.2376637    2029.1062  0.047955809  0.047261875            8 
 3527000   0.69091404   -4.2395064    2032.1246   0.04801353  0.047251683           13 
 3528000   0.69509609   -4.2208675    2036.9455  0.048113791  0.047241566            6 
 3529000   0.67774044   -4.2415141    2032.7648  0.048001436  0.047231452            9 
 3530000   0.68585393   -4.2381325    2031.3036  0.047953344  0.047221318            6 
 3531000   0.67508415   -4.2126432    2033.6245  0.047994537  0.047211182            9 
 3532000   0.69050701   -4.2336957    2026.4779  0.047812332  0.047201083           10 
 3533000   0.68422113   -4.2236314    2027.2144   0.04781617  0.047190895           10 
 3534000   0.68451714   -4.2294907    2030.0354  0.047869161   0.04718082           12 
 3535000   0.69440369   -4.2263851    2028.1157  0.047810366  0.047170682            3 
 3536000   0.68706074   -4.2284449    2032.8269  0.047907873  0.047160534            9 
 3537000   0.67398968   -4.2526461    2025.5919  0.047723869  0.047150313            7 
 3538000   0.70290509   -4.2331073    2031.8081  0.047856796  0.047140098            4 
 3539000   0.68318367    -4.235561    2034.3344   0.04790276  0.047129879            6 
 3540000   0.66501702   -4.2596444    2031.6359  0.047825705  0.047119666           10 
 3541000   0.68883023   -4.2558053    2034.8633   0.04788815  0.047109464            6 
 3542000    0.6900131   -4.2332379    2037.2777  0.047931435  0.047099334            4 
 3543000   0.68247334   -4.2218966    2038.8436  0.047954738  0.047089206            8 
 3544000   0.68511737   -4.2262714    2038.4517   0.04793199  0.047079123            7 
 3545000   0.67993622   -4.2317685    2035.0477  0.047838451   0.04706895            3 
 3546000   0.67618508   -4.2436248    2034.3298  0.047808088  0.047058807            6 
 3547000   0.68690087   -4.2608234    2036.7084  0.047850494  0.047048637            4 
 3548000   0.67686554   -4.2291981    2033.0283   0.04775057  0.047038458            3 
 3549000   0.68373289   -4.2453461    2031.1317  0.047692583   0.04702833            8 
 3550000   0.66787544   -4.2487356    2030.6235  0.047667219   0.04701816            6 
 3551000   0.68147996   -4.2369083     2035.966   0.04777917  0.047008013           13 
 3552000   0.69516095   -4.2218498    2038.6802  0.047829396  0.046997915           16 
 3553000   0.68486665    -4.265408    2035.5617  0.047742791  0.046987779            5 
 3554000   0.68446668   -4.2401915    2034.5727  0.047706169  0.046977693           14 
 3555000   0.69271169   -4.2218119    2037.1933  0.047754179  0.046967603            7 
 3556000   0.67797612   -4.2681253    2035.1373   0.04769257  0.046957523           11 
 3557000   0.69728913   -4.2314278    2037.9397  0.047744816  0.046947474            5 
 3558000   0.69587793   -4.2275366    2041.4006  0.047812454  0.046937456            7 
 3559000   0.68888561   -4.2468448    2037.6029  0.047710098  0.046927376            7 
 3560000   0.69213601   -4.2294185    2040.0145  0.047753148  0.046917316            4 
 3561000   0.68190628   -4.2376255    2042.2918   0.04779303  0.046907317            9 
 3562000   0.67431658     -4.23329    2042.7966  0.047791424  0.046897268            5 
 3563000    0.6792205   -4.2554874    2031.2781   0.04750861  0.046887169            3 
 3564000   0.68652057   -4.2436877    2038.7757  0.047670588  0.046877052           13 
 3565000   0.67826159   -4.2538848    2040.8804  0.047706415  0.046867037            9 
 3566000   0.68372765   -4.2510347     2036.991  0.047602144  0.046856945            3 
 3567000    0.6920993   -4.2324161     2043.146  0.047732594  0.046846853            9 
 3568000   0.68230324   -4.2636321    2034.5658   0.04751882  0.046836767            6 
 3569000   0.67633188   -4.2456471    2038.3232  0.047593239  0.046826761            6 
 3570000   0.68631812   -4.2347372    2037.7652  0.047566882  0.046816712            7 
 3571000    0.6866241   -4.2422433    2039.2149  0.047587391  0.046806664            6 
 3572000   0.68533781   -4.2423505     2037.892  0.047543207  0.046796617            9 
 3573000     0.670255   -4.2377864    2036.4449   0.04749615  0.046786511            5 
 3574000   0.67807199   -4.2497033    2038.3296  0.047526805  0.046776476            6 
 3575000   0.68724564   -4.2473808    2038.5259  0.047518087  0.046766444            7 
 3576000   0.69446564   -4.2710271    2034.2767  0.047405777  0.046756392            6 
 3577000   0.68104651   -4.2585581    2039.1022  0.047504944  0.046746296           11 
 3578000   0.66887026   -4.2525666    2045.5431  0.047641678  0.046736333            8 
 3579000   0.68185977   -4.2525177    2039.8847  0.047496617  0.046726296            6 
 3580000   0.67603495   -4.2666751    2044.0088  0.047579348   0.04671623           10 
 3581000   0.67900384   -4.2386761    2041.3956  0.047505251  0.046706239            9 
 3582000   0.68621223   -4.2275571    2043.6528  0.047544499  0.046696346            5 
 3583000    0.6761891    -4.251322    2039.3195  0.047430446  0.046686399            7 
 3584000   0.67062129   -4.2386776    2040.6776  0.047448792  0.046676325            6 
 3585000   0.68574811   -4.2446246    2051.4282  0.047685453  0.046666364            4 
 3586000   0.66895264   -4.2363493    2041.2361  0.047435307  0.046656436            9 
 3587000   0.69152045   -4.2442717    2046.6152  0.047547049  0.046646474            4 
 3588000   0.68975672   -4.2818987    2043.5838  0.047463393  0.046636568            7 
 3589000   0.66819873   -4.2335926    2044.3686  0.047468388  0.046626652            8 
 3590000   0.67146198    -4.242866    2048.2657  0.047545629  0.046616771            5 
 3591000   0.66686098   -4.2478208    2048.1482  0.047529662  0.046606794            9 
 3592000   0.65527258   -4.2445119     2039.169  0.047308115  0.046596783            7 
 3593000   0.66984701   -4.2698995    2044.9544   0.04742913  0.046586701           22 
 3594000   0.67727354   -4.2558941    2048.7102   0.04750302  0.046576711           19 
 3595000    0.6756597   -4.2259209    2048.0207  0.047473821  0.046566735            4 
 3596000    0.6837274   -4.2608786    2049.7713  0.047501189  0.046556706            5 
 3597000   0.66677149   -4.2622601    2051.5053  0.047528156  0.046546656           11 
 3598000   0.66008436   -4.2587694    2046.6721  0.047403004  0.046536715           14 
 3599000   0.68681339   -4.2508505    2047.7903  0.047415725  0.046526813            6 
 3600000   0.67703042   -4.2482032    2043.4573  0.047302253  0.046516925            3 
 3601000   0.67355364    -4.252904    2046.3309  0.047355616  0.046506943           14 
 3602000    0.6896165   -4.2392524    2045.3903  0.047320707  0.046496989           10 
 3603000   0.68484207   -4.2411412    2045.9597  0.047320745  0.046486974            5 
 3604000   0.67740794   -4.2759777    2043.2772  0.047245589  0.046477021            3 
 3605000   0.67241996   -4.2773655    2043.1518  0.047229584  0.046466949            7 
 3606000   0.66117668   -4.2517427    2044.2175  0.047241114  0.046456869            5 
 3607000   0.66411621   -4.2619633    2043.3998  0.047209126  0.046446801            6 
 3608000   0.68508305   -4.2819927    2041.8099  0.047159321  0.046436707            7 
 3609000   0.66883315   -4.2516359    2051.8134  0.047377238  0.046426704            5 
 3610000   0.67882727   -4.2802007    2046.0101   0.04723015  0.046416774            6 
 3611000    0.6788297   -4.2717767    2048.1464  0.047266371  0.046406727            5 
 3612000   0.67516902   -4.2761038    2043.8843  0.047154954  0.046396668           16 
 3613000   0.68649898   -4.2486356    2045.2767  0.047174018  0.046386544           11 
 3614000   0.68365122   -4.2786015     2042.825  0.047104432  0.046376463            3 
 3615000   0.68741212   -4.2662381    2047.7206  0.047204254   0.04636635            4 
 3616000   0.67964423    -4.268718    2043.6513  0.047097421  0.046356238           12 
 3617000   0.66553594   -4.2141063    2053.0515  0.047300974  0.046346177            8 
 3618000   0.66209493   -4.2778137    2041.6092   0.04702435  0.046336223            5 
 3619000   0.67323907   -4.2848372    2040.3071  0.046981373  0.046326108            9 
 3620000   0.66845924   -4.2439109    2047.2512  0.047128252  0.046316035           11 
 3621000   0.68859136   -4.2628729    2048.1527  0.047135982  0.046306019           17 
 3622000   0.66729654   -4.2571278    2045.1913  0.047054835  0.046296008            8 
 3623000   0.66604796   -4.2614032    2055.0154  0.047267811  0.046285979            5 
 3624000   0.66160959   -4.2460818    2046.7053  0.047063679  0.046275929            4 
 3625000    0.6684698    -4.257338    2052.4881  0.047183633  0.046265902            8 
 3626000    0.6775858   -4.2440817    2046.3862  0.047030388  0.046255882            6 
 3627000    0.6481536   -4.2814452    2049.3841    0.0470863  0.046245743            7 
 3628000   0.65681942   -4.2674233    2041.2847  0.046887281  0.046235613            6 
 3629000   0.67843515   -4.2820447    2039.9088  0.046842767  0.046225461            7 
 3630000   0.66886213   -4.2772655    2045.8061  0.046965245  0.046215411           17 
 3631000   0.66062346   -4.2568841     2047.564  0.046992656  0.046205347           12 
 3632000   0.67544427   -4.2584362    2044.2204     0.046903  0.046195225            7 
 3633000   0.67908663   -4.2682307    2038.1286  0.046750359  0.046185044            9 
 3634000   0.66494342   -4.2772039     2043.971  0.046871468  0.046174899            8 
 3635000   0.68311674   -4.2606445    2045.5249  0.046894197  0.046164776            6 
 3636000   0.67690156    -4.247174    2049.9661  0.046983089  0.046154706            8 
 3637000   0.68171102     -4.23723    2050.1667  0.046974766  0.046144645            6 
 3638000    0.6601135   -4.2783303    2053.0871  0.047028749  0.046134617            7 
 3639000      0.66703   -4.2591573    2048.3745  0.046907908  0.046124505           15 
 3640000   0.66317163    -4.262435    2049.0136  0.046909653  0.046114492            8 
 3641000   0.67773115   -4.2831368    2044.8924  0.046802444  0.046104401            7 
 3642000   0.66291254   -4.2642651    2049.1545  0.046887115   0.04609426            8 
 3643000   0.67550016   -4.2681198    2049.9685  0.046892866   0.04608415            4 
 3644000   0.65696439   -4.2590492    2048.0109  0.046835229  0.046073999            6 
 3645000   0.66067768   -4.2912512    2049.4236  0.046854677  0.046063912            9 
 3646000   0.66459419   -4.2534235    2051.1979   0.04688238  0.046053835            6 
 3647000   0.66273058   -4.2836044    2052.4647  0.046898472  0.046043664           14 
 3648000   0.67921594   -4.2747712    2048.9705  0.046805796  0.046033539            6 
 3649000   0.67009666   -4.2529205     2055.178   0.04693473  0.046023533            6 
 3650000   0.67172499   -4.2679555     2048.039  0.046758882  0.046013488            3 
 3651000   0.66081057   -4.2648768    2050.3039   0.04679777  0.046003355           23 
 3652000   0.66854937    -4.268154     2049.965  0.046777223  0.045993251           13 
 3653000   0.66703014   -4.2803046    2043.9363   0.04662689  0.045983153           10 
 3654000   0.67781116   -4.2635306    2046.8823  0.046681314  0.045973002            8 
 3655000   0.66570263   -4.2754289    2049.6373  0.046731357  0.045962875            8 
 3656000   0.66256031   -4.2884588    2050.6193  0.046740958  0.045952793            4 
 3657000   0.65841489   -4.2627523    2052.9558   0.04678142   0.04594267           11 
 3658000   0.66025152   -4.2768968    2050.5225  0.046713198  0.045932593            7 
 3659000   0.67789564   -4.2801276    2050.9507  0.046710183  0.045922392            6 
 3660000   0.66229235    -4.282166    2047.4377  0.046617434  0.045912297            5 
 3661000   0.68691668   -4.2655191    2050.1424  0.046666267  0.045902108            9 
 3662000    0.6637508   -4.2804943    2045.5564  0.046549163  0.045891994            4 
 3663000   0.67523665   -4.2973061     2047.187   0.04657355  0.045881879           10 
 3664000   0.67788354   -4.2807274    2050.4159  0.046634276  0.045871734            6 
 3665000   0.67020219   -4.2736014    2048.6981  0.046582493   0.04586169            7 
 3666000   0.66556415   -4.2841708    2045.0094  0.046485938  0.045851651            9 
 3667000   0.65905167   -4.2785603    2047.8772  0.046538433  0.045841494            7 
 3668000   0.66299396   -4.2937855    2046.6109  0.046496975  0.045831345            7 
 3669000   0.66525228     -4.28389    2049.5317  0.046550643  0.045821247           10 
 3670000   0.65690927   -4.2694518     2045.366   0.04644337  0.045811203           17 
 3671000   0.65013513   -4.2916204    2049.5357  0.046525373  0.045801088            7 
 3672000   0.65335378   -4.2957792    2052.4702  0.046579299  0.045790971            4 
 3673000   0.67087054   -4.2768228    2054.7757  0.046618923  0.045780848            8 
 3674000   0.66374498   -4.3041513    2055.7351  0.046627997  0.045770784            6 
 3675000   0.66790398   -4.2642848    2048.2682  0.046445991  0.045760729            4 
 3676000   0.66585765   -4.2613615    2050.6316  0.046486934  0.045750712            7 
 3677000   0.64784286   -4.2436244    2052.7488  0.046522274  0.045740658            4 
 3678000   0.66805612   -4.2732041    2056.1711  0.046587164  0.045730575           19 
 3679000   0.66595959   -4.2716712    2049.0743  0.046413752   0.04572049            4 
 3680000   0.66576001   -4.2698879    2049.9021  0.046419885  0.045710314           14 
 3681000   0.67446984   -4.2612633    2053.4415  0.046487402   0.04570022            6 
 3682000   0.66045007    -4.301273    2049.8018  0.046392401  0.045690164            6 
 3683000   0.66117031   -4.2668969    2050.7194  0.046400566  0.045680114            9 
 3684000   0.66106239     -4.28799    2046.9294  0.046302239  0.045670035            5 
 3685000   0.67366919   -4.2745191    2051.0675  0.046383255  0.045659922           14 
 3686000   0.66108457   -4.2943545    2055.9171   0.04648031  0.045649883            8 
 3687000   0.65558163   -4.2806106    2050.4476  0.046344084   0.04563973            8 
 3688000   0.64999644   -4.2769012    2055.8805  0.046454277  0.045629603            8 
 3689000   0.65584262   -4.2853527    2057.0934  0.046469084  0.045619485            9 
 3690000   0.65103555   -4.2903337    2052.3172  0.046348627  0.045609398           15 
 3691000   0.66369481   -4.2788439    2052.2482  0.046334512  0.045599208           10 
 3692000   0.68227808   -4.2905456    2053.9799  0.046361048  0.045589088            9 
 3693000   0.67460014   -4.2843586    2048.8144  0.046231934  0.045578973           10 
 3694000   0.66467228   -4.2905441    2054.5785  0.046349452  0.045568841            9 
 3695000    0.6557603   -4.2743724    2053.5392   0.04631347  0.045558774            6 
 3696000   0.65519275    -4.272088    2051.6086  0.046257408  0.045548628            9 
 3697000    0.6751654     -4.27479    2047.4995  0.046152275  0.045538438            8 
 3698000   0.67880227   -4.2992441    2051.1119  0.046221198  0.045528251            6 
 3699000   0.65113103   -4.2722436    2053.9618  0.046272906  0.045518085            9 
 3700000   0.66255792    -4.285339    2053.1285  0.046241632  0.045507964            5 
 3701000   0.66532335   -4.2545922    2058.5756  0.046351787  0.045497956            6 
 3702000    0.6523253   -4.2936218    2053.4248  0.046223321  0.045487861            5 
 3703000   0.66231324   -4.2778046    2055.3244  0.046253588  0.045477753            9 
 3704000   0.65353545   -4.2636277    2053.8994   0.04620904  0.045467619            7 
 3705000   0.65936659   -4.2826599    2050.4674  0.046119375  0.045457479            5 
 3706000    0.6530351   -4.2677299    2051.8168  0.046137273  0.045447296           10 
 3707000   0.66388794   -4.2932685    2052.1959  0.046133349  0.045437165           17 
 3708000   0.65002291   -4.2717595    2052.6824  0.046131841  0.045427089            7 
 3709000   0.67548329   -4.2800477    2055.3683  0.046179749  0.045416971            5 
 3710000   0.65669206   -4.2739234    2056.2906  0.046188018  0.045406921            4 
 3711000   0.66127762   -4.3006792     2049.501  0.046023108  0.045396844            5 
 3712000   0.67073541   -4.2905767    2056.3292  0.046164001  0.045386751            6 
 3713000   0.66212741   -4.2839346    2055.8919  0.046141751  0.045376647           13 
 3714000   0.63974357   -4.2763995    2051.3693  0.046027852  0.045366548            8 
 3715000   0.66478362   -4.2846795    2053.5545   0.04606448  0.045356409           10 
 3716000   0.65022489    -4.292169    2051.5867  0.046007955  0.045346217            7 
 3717000   0.63945555   -4.2963906    2053.0063  0.046027403  0.045336076            9 
 3718000   0.65938834   -4.2763992    2057.9284  0.046125344  0.045325999            6 
 3719000   0.65260016   -4.3159745    2050.4573  0.045945534  0.045315804           11 
 3720000   0.65344203   -4.3051888    2052.1431  0.045970948  0.045305637            8 
 3721000    0.6568363   -4.2920583    2053.7672  0.045994964  0.045295474           10 
 3722000   0.64810861   -4.2744166    2054.1449  0.045991064   0.04528527            5 
 3723000    0.6628339   -4.2794575    2055.6059  0.046011413  0.045275097           13 
 3724000   0.65914181   -4.2921201     2049.948  0.045872449  0.045264868           10 
 3725000    0.6567711   -4.2973959    2056.9787  0.046017422  0.045254714            8 
 3726000   0.66144079   -4.2888777    2052.2728  0.045899821   0.04524452           16 
 3727000   0.65593434   -4.2691335     2054.298  0.045932788  0.045234349            6 
 3728000   0.64806895   -4.3288379    2048.4355  0.045789419  0.045224135           29 
 3729000   0.66245578   -4.3047776    2050.6995  0.045827735  0.045213869            6 
 3730000   0.65557962   -4.2809776    2052.5071  0.045855833  0.045203681            5 
 3731000   0.66368543   -4.2847619    2056.8903  0.045941444    0.0451935            8 
 3732000   0.65691903   -4.2957496    2052.0123   0.04582021  0.045183331            9 
 3733000   0.64717483   -4.3068117    2050.6316  0.045777114  0.045173116           13 
 3734000   0.66352528   -4.2885588    2051.3459  0.045780796  0.045162927            9 
 3735000   0.66925926   -4.2914367    2057.8345  0.045913309  0.045152821            5 
 3736000   0.66045967   -4.2744891    2062.5513  0.046006231  0.045142682           12 
 3737000   0.65153893    -4.280171    2055.2321  0.045830705  0.045132561            7 
 3738000   0.65483911   -4.2694476    2056.4179  0.045844879  0.045122392            4 
 3739000   0.65334691   -4.3076146      2046.02  0.045600875  0.045112146            4 
 3740000   0.63872051   -4.2950322    2054.1246  0.045769264  0.045101918           11 
 3741000   0.64360415   -4.2987096    2053.3087  0.045738855  0.045091701           10 
 3742000   0.65692774   -4.2831165    2057.6985  0.045824392  0.045081538            8 
 3743000   0.66688067   -4.3228852    2051.2532  0.045668653  0.045071315            9 
 3744000   0.65333187   -4.3156452     2056.998  0.045784321  0.045061079           21 
 3745000   0.66205468    -4.296294    2052.9091   0.04568111   0.04505081            6 
 3746000   0.63285024   -4.2963348     2049.744  0.045598505  0.045040599            7 
 3747000   0.66737862   -4.2787046    2056.5707  0.045738161  0.045030347            7 
 3748000    0.6472178   -4.3151711    2053.6893  0.045661894  0.045020092           12 
 3749000   0.66221318   -4.2791671    2050.2728   0.04557377  0.045009836            8 
 3750000   0.65108235   -4.2826446    2053.0475  0.045623277  0.044999638            4 
 3751000   0.65342437   -4.3023849    2050.1177  0.045546026  0.044989383           13 
 3752000   0.65977218   -4.3365864    2044.0356  0.045398801  0.044979077           12 
 3753000   0.67086019   -4.2754524    2050.3153  0.045526142  0.044968782            7 
 3754000   0.66185552   -4.3008523    2051.2685  0.045535174  0.044958497           12 
 3755000   0.64413491   -4.2859072    2056.6778  0.045643094  0.044948227            7 
 3756000   0.66234906   -4.2974518    2052.5889  0.045540222  0.044938011            9 
 3757000   0.65398696   -4.2968773     2051.543  0.045504902  0.044927756           11 
 3758000   0.65663166    -4.304364    2053.0646  0.045526534  0.044917445           10 
 3759000    0.6392889   -4.2753611    2058.6208  0.045637598  0.044907126            7 
 3760000   0.65109334   -4.2906911    2051.4021  0.045465473  0.044896905           14 
 3761000   0.64648511   -4.2688657    2053.8857  0.045508414  0.044886645            7 
 3762000     0.642855   -4.2756259     2052.347  0.045462232  0.044876401            9 
 3763000   0.65882425   -4.2915112    2056.2244  0.045536016  0.044866187            9 
 3764000   0.64748956    -4.295434    2052.9516   0.04545146  0.044855936            5 
 3765000     0.652655   -4.2941497    2051.6364   0.04541028  0.044845684           17 
 3766000   0.64545231   -4.3024579    2054.8655  0.045469675  0.044835402            4 
 3767000   0.64579606   -4.3143761    2055.0666  0.045462052   0.04482515            6 
 3768000   0.65313527   -4.2946093    2053.3764  0.045412606  0.044814884            6 
 3769000   0.65870563   -4.3167987     2059.896  0.045544707  0.044804701            8 
 3770000   0.64604709   -4.3109691    2052.1372  0.045361122  0.044794442            9 
 3771000   0.64772019   -4.2996483    2057.0953   0.04545866  0.044784137            9 
 3772000   0.64158099   -4.3172482    2055.7484  0.045416853  0.044773873            8 
 3773000   0.65161682   -4.2922602    2058.6476  0.045468848  0.044763584           10 
 3774000   0.65110167    -4.310826    2052.4521  0.045319998  0.044753363            8 
 3775000     0.663593   -4.3185727    2054.2244  0.045347118  0.044743135            7 
 3776000   0.66239923    -4.304813    2052.2389  0.045291288  0.044732879            5 
 3777000   0.64722249   -4.3073149    2056.4497  0.045372203  0.044722635           14 
 3778000   0.63726184   -4.3144589    2056.5242  0.045361837  0.044712395            9 
 3779000   0.65915246   -4.3097389    2048.4423  0.045171614  0.044702095           16 
 3780000   0.63928881   -4.3280198    2053.4379  0.045269794   0.04469181            5 
 3781000   0.62844251   -4.3158786    2054.4629  0.045280413   0.04468153           10 
 3782000   0.64293457   -4.3182492    2062.2741  0.045440555  0.044671266            9 
 3783000    0.6338091   -4.3137706    2056.4164  0.045299506   0.04466094            4 
 3784000   0.65809389     -4.30953    2060.9724   0.04538787  0.044650616            8 
 3785000   0.63454359   -4.3034767    2054.7137  0.045238083  0.044640391           12 
 3786000    0.6549325   -4.3100476    2050.6346   0.04513635  0.044630107           11 
 3787000   0.63824508   -4.3053853    2057.5479  0.045276557  0.044619834           14 
 3788000   0.64611175   -4.3134632     2055.419   0.04521777  0.044609514            9 
 3789000   0.65303053    -4.296864     2062.151  0.045353897   0.04459924            5 
 3790000   0.63857923   -4.2864247    2062.4806  0.045349177   0.04458907           11 
 3791000   0.64952512   -4.3269012    2056.7913  0.045212154  0.044578808           12 
 3792000   0.64217486   -4.3366351    2052.0447  0.045095919   0.04456851            9 
 3793000   0.65040127   -4.2949894    2056.4199  0.045180154  0.044558134            7 
 3794000    0.6376865   -4.3166743    2054.2123  0.045119756  0.044547872            8 
 3795000   0.63891021   -4.2954546    2054.7278  0.045119187  0.044537568           14 
 3796000   0.66268373    -4.321942    2061.0323  0.045245703  0.044527323            6 
 3797000   0.62316496    -4.321406    2059.8048  0.045206848  0.044517063            6 
 3798000   0.65581706   -4.3308061    2058.8499  0.045173994  0.044506862            3 
 3799000   0.64114404   -4.3134511    2054.8332  0.045073993   0.04449667           23 
 3800000   0.63914101   -4.3084729    2057.1831  0.045113664  0.044486506           16 
 3801000      0.63317   -4.2921089     2065.212  0.045277822  0.044476333            6 
 3802000   0.65172178   -4.3019301    2052.3642  0.044984311  0.044466121            8 
 3803000   0.63539891   -4.2912984    2062.5765   0.04519626  0.044455942            9 
 3804000   0.64660794   -4.3208559     2062.259  0.045177424  0.044445811            8 
 3805000   0.62942801   -4.3217614    2064.3622  0.045211611  0.044435622            9 
 3806000   0.63238123   -4.2824099    2066.0498  0.045236683  0.044425447            8 
 3807000   0.64111673    -4.308991    2055.6268  0.044996647  0.044415282            8 
 3808000   0.64568982   -4.3066527    2056.8849  0.045012362  0.044405059            8 
 3809000   0.64312103   -4.3065363    2060.5936  0.045081685  0.044394835           10 
 3810000   0.64324414    -4.308876    2060.4467  0.045066637  0.044384632            4 
 3811000   0.64872331   -4.2993542    2062.7754  0.045105733  0.044374428            6 
 3812000   0.64439627   -4.3155154    2062.8283  0.045095057  0.044364163           18 
 3813000   0.62588629   -4.3134845    2060.6212  0.045034995  0.044353954            8 
 3814000   0.62492094   -4.3126883    2059.6395  0.045001737  0.044343754            6 
 3815000   0.64072616    -4.321021    2065.0031    0.0451071  0.044333606           17 
 3816000   0.66195116   -4.3189628     2060.041  0.044986919  0.044323512            6 
 3817000   0.63002482   -4.3106842    2064.5258  0.045073047  0.044313373            5 
 3818000   0.65071432   -4.3245591    2062.5398  0.045017894   0.04430321           11 
 3819000   0.65008371    -4.310657    2065.8498  0.045078333  0.044293049           13 
 3820000   0.64095331   -4.3365295    2064.5902  0.045039054  0.044282908            7 
 3821000   0.63786345    -4.323979    2059.4497  0.044915154  0.044272697            8 
 3822000   0.64927849   -4.3245764    2065.5075  0.045035485  0.044262516           18 
 3823000   0.64598386   -4.3219241    2058.9382  0.044880508  0.044252303            8 
 3824000   0.62783952   -4.3257848     2064.885  0.044998366  0.044242128           11 
 3825000   0.62569569   -4.3076155    2060.3822  0.044888502  0.044231999           11 
 3826000   0.63730397   -4.3172284    2063.9015  0.044953421  0.044221829           12 
 3827000     0.647849   -4.3087798    2065.3091  0.044972327  0.044211583            7 
 3828000   0.63545087   -4.2955444    2065.8728   0.04497285  0.044201472            5 
 3829000   0.62882193   -4.3043647    2064.7054  0.044935698   0.04419133            4 
 3830000   0.63834853    -4.337148    2061.5119  0.044854481  0.044181191            7 
 3831000   0.64126767   -4.3039223    2063.9142  0.044895028  0.044171028           21 
 3832000   0.63131402   -4.2988104    2059.5917  0.044789311  0.044160843           13 
 3833000   0.64171207   -4.3295464    2065.4017  0.044903941  0.044150715            8 
 3834000   0.63068649   -4.3152257    2059.2317  0.044758122  0.044140524           13 
 3835000   0.62063349   -4.3551223    2064.6012  0.044863128  0.044130355            5 
 3836000   0.64913896   -4.3285088     2060.828  0.044769464  0.044120145           11 
 3837000    0.6288836   -4.3115404    2066.4692  0.044880314  0.044109971           14 
 3838000   0.62835411   -4.3271122    2061.1466  0.044753053  0.044099803           19 
 3839000   0.64410907   -4.3437695    2063.3339  0.044788874  0.044089558            5 
 3840000     0.644044   -4.2997733    2064.9334  0.044811923   0.04407942            8 
 3841000    0.6471685   -4.3263613    2065.8692  0.044820559   0.04406929            7 
 3842000   0.63157934   -4.3490917    2064.5028  0.044779256  0.044059128           10 
 3843000   0.62696541    -4.343945     2066.402  0.044808787   0.04404896            7 
 3844000   0.64426022   -4.3564008    2061.5556  0.044692066  0.044038854            6 
 3845000    0.6380342   -4.3343844    2065.9836   0.04477641  0.044028683           10 
 3846000   0.65157507   -4.3344788    2059.6565  0.044627677   0.04401856            6 
 3847000   0.62901974    -4.326598    2063.2244  0.044693364  0.044008458            5 
 3848000   0.64949407   -4.3029157    2065.1881  0.044724275  0.043998358            6 
 3849000   0.63330144   -4.3333815    2067.2533  0.044757368  0.043988283            5 
 3850000   0.63083177   -4.3258741    2068.6668  0.044776337  0.043978129            6 
 3851000   0.62226587   -4.3250016    2067.4679  0.044738767  0.043967943           25 
 3852000   0.63269196   -4.3306221    2066.3112  0.044702128  0.043957849           10 
 3853000   0.63939485   -4.3303686    2068.0501  0.044728137  0.043947744           15 
 3854000   0.64095183   -4.3509011    2066.6617   0.04468651  0.043937662           11 
 3855000   0.62434811   -4.3163339    2062.0017  0.044574184  0.043927554            8 
 3856000   0.63998389   -4.3369441    2066.9508   0.04466958  0.043917402            5 
 3857000   0.64159344   -4.3215602    2064.2628  0.044599921  0.043907238            7 
 3858000   0.63100498   -4.3041629    2071.1866  0.044737918  0.043897101            4 
 3859000   0.63739203   -4.3364765    2063.2148  0.044554177     0.043887            6 
 3860000   0.63069712   -4.3289922     2069.056   0.04466874  0.043876859            8 
 3861000   0.61719379   -4.3251163    2059.1395  0.044443139  0.043866741           11 
 3862000   0.62628061   -4.3383451    2061.3324  0.044478948  0.043856557            6 
 3863000   0.64425969   -4.3348679    2060.4239  0.044447835   0.04384636           10 
 3864000   0.63555864   -4.3326527    2061.5695   0.04446104  0.043836147           13 
 3865000   0.63468453   -4.3157466    2066.3262  0.044552095   0.04382598            4 
 3866000   0.64098285   -4.3371158    2063.1096  0.044471236  0.043815819           10 
 3867000   0.62846507   -4.3447413    2064.7733  0.044495589  0.043805635           15 
 3868000   0.62739804   -4.3408553    2065.1685  0.044492599  0.043795494           12 
 3869000   0.62918298   -4.3137203    2066.4731    0.0445092  0.043785367           20 
 3870000   0.61756167   -4.3232839    2066.9811  0.044508637  0.043775283           15 
 3871000   0.63531648   -4.3456915    2062.4544  0.044399689  0.043765095            9 
 3872000   0.63576896   -4.3437453     2062.665  0.044392755  0.043754965            9 
 3873000   0.64214653   -4.3396483     2063.678  0.044403089  0.043744824           11 
 3874000   0.63288389   -4.3263236    2062.1531  0.044358827  0.043734661           15 
 3875000   0.62340899   -4.3054953    2070.1439  0.044519224  0.043724497            9 
 3876000   0.61645217   -4.3185598    2062.2627  0.044338294  0.043714432           14 
 3877000   0.64401013   -4.3267257    2068.2955  0.044456528  0.043704334            8 
 3878000   0.63767056   -4.3120357    2068.2479  0.044444041  0.043694248            7 
 3879000   0.62983439   -4.3311238    2066.8143  0.044401785   0.04368419           11 
 3880000   0.63036283    -4.350803    2064.3073  0.044336497  0.043674135           10 
 3881000   0.61679218   -4.3464159    2069.1686  0.044429455  0.043664091            4 
 3882000   0.63558093   -4.3185287    2070.0371  0.044436654  0.043654018            6 
 3883000   0.62436296   -4.3384437    2071.6953  0.044460796  0.043643957           14 
 3884000   0.63987089   -4.3630991    2065.4155  0.044314613  0.043633878           11 
 3885000   0.61293421   -4.3359941    2067.4179  0.044346159  0.043623834           12 
 3886000   0.62072191   -4.3499382      2072.73  0.044448662  0.043613764           11 
 3887000   0.62232411   -4.3423968      2063.12  0.044231197  0.043603693           11 
 3888000   0.63287406   -4.3333626    2067.4668   0.04431299  0.043593611           10 
 3889000   0.63665999   -4.3755563    2069.0945  0.044336474  0.043583465           10 
 3890000   0.63414049   -4.3516075    2067.0091  0.044280401    0.0435733           17 
 3891000   0.62115304   -4.3444295    2062.7274   0.04417732  0.043563153            6 
 3892000    0.6310511    -4.309082    2066.2718   0.04424186  0.043552997            8 
 3893000   0.63136884   -4.3414575    2069.1286  0.044291648  0.043542848            9 
 3894000   0.63522511   -4.3120044    2060.8844  0.044103844  0.043532649            4 
 3895000   0.61776748   -4.3563946    2066.3418  0.044209281  0.043522517           13 
 3896000   0.62327228   -4.3428963    2072.6487  0.044332835  0.043512426           11 
 3897000   0.62622946   -4.3438522    2072.5539  0.044319432  0.043502311            8 
 3898000   0.64000582   -4.3399355    2066.7062  0.044183047    0.0434922            8 
 3899000   0.63122144   -4.3294373    2064.9018   0.04413315  0.043482038            9 
 3900000    0.6280602   -4.3366322     2071.569  0.044264294  0.043471942            8 
 3901000   0.61246032   -4.3523232    2066.1094  0.044136319  0.043461822            8 
 3902000   0.62800583   -4.3529745    2066.5877  0.044135224  0.043451697           10 
 3903000   0.62225714   -4.3708412     2064.678  0.044083141  0.043441585            7 
 3904000   0.62781513   -4.3467616    2065.8969  0.044097867  0.043431473            7 
 3905000   0.61865198   -4.3640865    2064.4604   0.04405592  0.043421286           10 
 3906000   0.63360085   -4.3377006     2069.321   0.04414834  0.043411175           10 
 3907000   0.63303422   -4.3434963    2065.7641  0.044061175   0.04340108            4 
 3908000   0.62061757    -4.332801     2073.161   0.04420763  0.043391002            4 
 3909000    0.6298127   -4.3566404    2071.1044  0.044152477  0.043380923           11 
 3910000   0.63766314   -4.3357629    2069.4112  0.044105098  0.043370906            9 
 3911000   0.61556052   -4.3500277    2065.2542  0.044005246  0.043360898           14 
 3912000   0.61862329   -4.3538633    2072.8358    0.0441555  0.043350873           15 
 3913000    0.6312554   -4.3378457    2063.5591  0.043946654  0.043340809            6 
 3914000   0.62026162    -4.367617    2068.8947  0.044049028  0.043330756            7 
 3915000   0.61763859   -4.3395881    2073.5648  0.044137182  0.043320686            9 
 3916000   0.63101768   -4.3352516    2073.5752  0.044126133   0.04331065            5 
 3917000   0.61779741   -4.3315475    2074.4248  0.044132942  0.043300641           11 
 3918000   0.62898945   -4.3398249    2071.8504  0.044066923  0.043290654            6 
 3919000   0.62227485   -4.3534079    2073.6904  0.044094803  0.043280644           10 
 3920000   0.62540348   -4.3602488    2077.1591  0.044157295  0.043270662            7 
 3921000   0.62418915    -4.318849    2073.3277  0.044064604  0.043260712            6 
 3922000   0.63377859   -4.3549839    2073.5773  0.044058672  0.043250743           33 
 3923000   0.61463659   -4.3294504    2073.3728  0.044043096  0.043240741            7 
 3924000   0.62045201   -4.3557522    2070.7555   0.04397629  0.043230687           10 
 3925000   0.60941028   -4.3483219    2067.2983  0.043891684  0.043220648            9 
 3926000   0.61147166    -4.341233    2074.4712  0.044032756   0.04321063           10 
 3927000   0.62495865   -4.3420842    2071.1693  0.043951474  0.043200637            6 
 3928000   0.62419618   -4.3597011    2067.7634  0.043868028  0.043190589           13 
 3929000   0.62492805   -4.3555601    2069.1284  0.043885815    0.0431805            9 
 3930000   0.61374866   -4.3212536     2075.257  0.044004601  0.043170523            6 
 3931000   0.63057889   -4.3507338    2077.8403   0.04404817  0.043160569            5 
 3932000   0.64024362   -4.3433608    2069.7811  0.043866163  0.043150601            7 
 3933000   0.62219326   -4.3472979    2070.7868   0.04387632  0.043140604            9 
 3934000   0.63290862   -4.3385444     2067.072  0.043786476  0.043130605            5 
 3935000   0.62644026    -4.344901    2071.0529  0.043859654  0.043120581            6 
 3936000   0.64123742   -4.3680671    2071.3513   0.04385483  0.043110528            8 
 3937000   0.62773692   -4.3574125    2071.1411  0.043839241   0.04310045            9 
 3938000   0.63368125   -4.3672962     2069.887  0.043801571  0.043090387           10 
 3939000   0.62462926   -4.3603982    2075.3463  0.043905948  0.043080339            7 
 3940000   0.61814781   -4.3437863    2073.9394  0.043865046  0.043070279            8 
 3941000   0.62912334   -4.3423044    2075.3833  0.043884448  0.043060294           10 
 3942000   0.60613755    -4.347229    2072.2343  0.043806746  0.043050336           16 
 3943000   0.61566635   -4.3484339    2072.2239  0.043795416   0.04304027            5 
 3944000   0.61295138   -4.3278003    2074.3631  0.043829511  0.043030182           10 
 3945000    0.6223778   -4.3486095    2070.1984  0.043730427   0.04302015           18 
 3946000   0.64029168   -4.3414809    2071.6166  0.043749294  0.043010101           16 
 3947000   0.62326442   -4.3417013    2071.6191  0.043738263  0.043000064           15 
 3948000     0.609519   -4.3661535    2073.4044  0.043764869  0.042990011           13 
 3949000   0.61524298   -4.3468161     2076.866  0.043826835  0.042980012            9 
 3950000   0.61154933   -4.3427411    2071.9651  0.043712344  0.042969966            8 
 3951000   0.63862966   -4.3595029    2072.5988  0.043714647   0.04295991            7 
 3952000   0.60724269   -4.3680391    2066.4004  0.043572883  0.042949857           15 
 3953000   0.60945352   -4.3639082     2073.096   0.04370301  0.042939784           15 
 3954000   0.60666997   -4.3682642     2070.524   0.04363775  0.042929698           15 
 3955000   0.60866277   -4.3433507     2071.329  0.043643679  0.042919669           20 
 3956000   0.63630558   -4.3537958    2076.2827  0.043736997  0.042909657            8 
 3957000   0.60883376   -4.3617891    2072.7454  0.043651448  0.042899655           11 
 3958000   0.63085988   -4.3834372    2074.3251  0.043673679  0.042889619           14 
 3959000   0.61757003   -4.3806784    2070.2786  0.043577473  0.042879526           11 
 3960000   0.61923479   -4.3822879    2069.4477  0.043548983  0.042869475            7 
 3961000   0.61621428   -4.3787032    2067.9126  0.043505692  0.042859449            7 
 3962000    0.6185658    -4.374489    2067.5233  0.043486524  0.042849419            7 
 3963000   0.62563621   -4.3590164    2075.8285  0.043650192  0.042839378           15 
 3964000   0.61660364   -4.3478124     2077.441  0.043673078    0.0428294            6 
 3965000   0.61464017   -4.3582439    2074.4387  0.043598963  0.042819401            7 
 3966000   0.61299467   -4.3730359      2078.22  0.043667422  0.042809431           11 
 3967000   0.61781089   -4.3599002    2074.6404   0.04358122  0.042799488            7 
 3968000   0.62428482   -4.3639498    2082.2147  0.043729306  0.042789571           14 
 3969000   0.62466172   -4.3623775    2075.5358  0.043578058  0.042779641           22 
 3970000   0.61436727   -4.3796958    2074.9286  0.043554336  0.042769706            9 
 3971000   0.61405193   -4.3572346    2072.8196  0.043499111  0.042759771           13 
 3972000    0.6025082   -4.3726278    2082.6172  0.043693714  0.042749847            6 
 3973000   0.61843937    -4.379971    2076.4506  0.043553372  0.042739972            6 
 3974000   0.60913528   -4.3820495    2073.9445  0.043489862  0.042729988            9 
 3975000   0.61261676    -4.369678    2071.7085  0.043432045  0.042719988            8 
 3976000    0.6191605   -4.3748895    2079.9136  0.043593092  0.042710008            6 
 3977000   0.61726833   -4.3738028    2075.1268  0.043481829  0.042700042            6 
 3978000   0.60627262   -4.3501592    2081.2631  0.043599444   0.04269013           14 
 3979000   0.61874265   -4.3781544     2074.133   0.04343916   0.04268019           14 
 3980000   0.61543081    -4.352473     2077.477  0.043498261  0.042670218            5 
 3981000   0.62150134    -4.368724    2076.9902  0.043477146  0.042660227           12 
 3982000   0.60691247   -4.3758954    2075.7515  0.043440305  0.042650226            8 
 3983000   0.61991898   -4.3613443     2075.605  0.043426333   0.04264024            3 
 3984000   0.62111588   -4.3714189    2076.2661  0.043429261  0.042630278            9 
 3985000   0.61945918   -4.3506715       2080.6  0.043508991  0.042620299           10 
 3986000   0.61829906   -4.3427676     2079.622  0.043477631  0.042610396            7 
 3987000   0.61864662   -4.3665742    2074.1815  0.043353013  0.042600443            7 
 3988000   0.62008317   -4.3560011    2071.2793  0.043281496  0.042590483           17 
 3989000   0.62328139   -4.3565679    2077.5483  0.043401611  0.042580515            5 
 3990000   0.60554389   -4.3915325    2075.8425  0.043355107   0.04257055            4 
 3991000   0.61246196   -4.3741411    2078.4928  0.043399582  0.042560585            8 
 3992000   0.60713935   -4.3888192    2076.1273  0.043339331    0.0425506            9 
 3993000   0.60405725   -4.3363836    2070.8376  0.043218081  0.042540659            9 
 3994000    0.6083032   -4.3648391    2078.6514  0.043370293  0.042530718            9 
 3995000   0.62476411   -4.3647059    2078.4848  0.043355963  0.042520724            7 
 3996000   0.61367359   -4.3771705    2083.1279   0.04344194  0.042510745           17 
 3997000   0.59772353   -4.3531367    2078.1137  0.043326531  0.042500814            8 
 3998000   0.60946911   -4.3796906    2075.5395  0.043262037  0.042490823            7 
 3999000   0.61474136   -4.3682388     2070.789  0.043152225  0.042480794            7 
 4000000   0.61697171    -4.372486    2073.8709  0.043205644  0.042470764            9 
 4001000   0.60687156   -4.3785054    2081.6391  0.043356643  0.042460829           14 
 4002000   0.60875003   -4.4026351    2076.9705  0.043248595  0.042450868            9 
 4003000   0.62116791   -4.3791758    2074.6927  0.043190372  0.042440852            6 
 4004000   0.62159261   -4.3867144    2074.3193  0.043171813  0.042430827            4 
 4005000   0.60202469   -4.3693966    2076.1547  0.043199224  0.042420834           12 
 4006000   0.59092067   -4.3911964     2077.903  0.043224808  0.042410899            9 
 4007000   0.62814968    -4.392408    2074.5635   0.04314457  0.042400851           13 
 4008000   0.61089154   -4.3681774    2076.5981  0.043176107  0.042390843           18 
 4009000   0.61448572   -4.3913632    2073.7725  0.043106603  0.042380845            9 
 4010000   0.60030592   -4.3858587    2071.6713  0.043052188  0.042370853            9 
 4011000    0.6040499   -4.3686045    2077.6656  0.043165993  0.042360838            6 
 4012000   0.61107272   -4.3917876    2078.0086  0.043162358  0.042350861            8 
 4013000   0.62415722   -4.3814461    2069.8636  0.042982466  0.042340836            6 
 4014000   0.59617828   -4.3522239    2076.9924  0.043119757  0.042330875            8 
 4015000   0.61137314   -4.3651279    2076.7203  0.043103368  0.042320923           27 
 4016000   0.61165608    -4.371481    2077.2039  0.043102671  0.042311078           12 
 4017000   0.62079027   -4.3697751    2080.3118  0.043156413  0.042301103           13 
 4018000   0.60682558   -4.3783661    2076.9042  0.043074999  0.042291177           12 
 4019000   0.61624559   -4.3660636    2076.4299  0.043054447  0.042281224           11 
 4020000   0.60848891   -4.3839794    2081.6209  0.043151345  0.042271292            7 
 4021000   0.60068281   -4.4063642    2081.2297  0.043132507  0.042261272           10 
 4022000   0.61331112    -4.367782     2076.903  0.043032136  0.042251342            5 
 4023000   0.60316174   -4.3742553    2074.3298  0.042968137  0.042241453            6 
 4024000   0.60119213   -4.3898228    2077.0867  0.043014553  0.042231517            6 
 4025000   0.60025308   -4.3720059       2075.7  0.042975156  0.042221594            8 
 4026000   0.60179388   -4.3671505     2083.083    0.0431173  0.042211681            7 
 4027000   0.61698862   -4.3629024    2079.7399  0.043037412  0.042201818           13 
 4028000     0.610446   -4.3905938    2078.5441  0.043001988   0.04219197           11 
 4029000   0.60625021   -4.3929199    2077.1779  0.042963058  0.042182057           16 
 4030000   0.61801783   -4.3912265    2082.9787  0.043072348  0.042172175           10 
 4031000   0.59254307   -4.3756001    2079.2604  0.042984794  0.042162288            6 
 4032000   0.62372763   -4.3734746    2080.1961  0.042993471  0.042152366            8 
 4033000   0.60485787   -4.3893892    2078.3137  0.042943916  0.042142471           16 
 4034000    0.6053783   -4.3930706    2075.7413   0.04288013  0.042132571           13 
 4035000   0.61449199   -4.3870218    2082.8149   0.04301559  0.042122695            6 
 4036000   0.60107686    -4.356584     2079.714  0.042940907  0.042112875           10 
 4037000   0.59976047    -4.363166    2077.5502  0.042885604  0.042102977            8 
 4038000   0.61294882   -4.3726926    2075.6923  0.042836641  0.042093079           12 
 4039000   0.60281743    -4.387108    2075.0879  0.042813565  0.042083163            9 
 4040000   0.58280274   -4.3856827    2077.4371  0.042851426  0.042073239            9 
 4041000   0.60441044   -4.3866596    2077.6912  0.042846061  0.042063282           15 
 4042000   0.61963474   -4.3836658    2080.2554  0.042888327  0.042053356            6 
 4043000   0.60813164   -4.3888226    2082.6255   0.04292657  0.042043417           17 
 4044000   0.59459953    -4.383485    2076.8241  0.042796409  0.042033472            5 
 4045000   0.61030999   -4.3890002    2080.5851   0.04286331  0.042023576            7 
 4046000    0.6025905   -4.3742641    2081.2332  0.042866064  0.042013691            4 
 4047000   0.59292969   -4.3933374     2076.164  0.042751092  0.042003767           10 
 4048000    0.5977873   -4.3987757    2079.2571  0.042804205  0.041993807           17 
 4049000   0.60618687   -4.3806255    2077.6902  0.042761385  0.041983914           11 
 4050000   0.60740823   -4.3758199    2078.2124  0.042761571  0.041974005           12 
 4051000   0.60230867   -4.3988199    2077.9741  0.042746114  0.041964094            7 
 4052000   0.61034679   -4.3790648    2074.9984  0.042674366  0.041954124           12 
 4053000   0.60471559   -4.3806371    2078.3048  0.042731821  0.041944162            6 
 4054000   0.59401146   -4.3756668    2078.9823  0.042735205  0.041934267            7 
 4055000   0.60263046   -4.3904045    2075.8223  0.042659727  0.041924334            7 
 4056000   0.61014675   -4.3856658    2077.8658  0.042691193  0.041914363            8 
 4057000   0.60280364   -4.4077438    2081.1259  0.042747635  0.041904415           13 
 4058000   0.59845426   -4.3789676    2082.3032  0.042761278  0.041894515            6 
 4059000   0.61649376   -4.3995365    2078.4797  0.042672246  0.041884635           21 
 4060000   0.60280984   -4.3859446    2078.5531   0.04266324  0.041874731            5 
 4061000    0.6009259   -4.3934349    2077.1326  0.042623586  0.041864761            3 
 4062000   0.60811421   -4.3887917     2075.151   0.04257244  0.041854838            4 
 4063000   0.58916161   -4.3810112    2078.7621  0.042636025  0.041844923           12 
 4064000   0.60083657   -4.4099385    2080.8796  0.042668955  0.041835021           14 
 4065000   0.61015963   -4.3898823    2078.3708  0.042607027  0.041825065            7 
 4066000   0.61622759    -4.385638    2083.1844  0.042695203   0.04181519           16 
 4067000   0.59866181   -4.4144066    2077.5567  0.042569394  0.041805246           17 
 4068000   0.59907291   -4.3771874    2081.5313   0.04264035  0.041795345           16 
 4069000   0.61134772   -4.3800868    2073.3767  0.042462863   0.04178544           17 
 4070000   0.59785721   -4.3990192     2078.233  0.042551864  0.041775487            4 
 4071000   0.59803333   -4.4073891    2080.2424  0.042582544  0.041765552           22 
 4072000   0.60203283   -4.3798328    2076.3507  0.042492443  0.041755635            6 
 4073000   0.59938075   -4.4127488    2079.3794  0.042543976  0.041745702           14 
 4074000   0.61453637    -4.409932    2081.6189  0.042579342  0.041735764           10 
 4075000   0.60235029   -4.3940311    2082.9492  0.042596098   0.04172582           15 
 4076000   0.59418956   -4.4140572    2078.7942    0.0425007  0.041715849           16 
 4077000   0.60670463    -4.403653    2080.0642  0.042516234  0.041705907           10 
 4078000   0.58758132   -4.3922312    2076.8809  0.042440757   0.04169599            8 
 4079000   0.60068743    -4.419188    2077.8376  0.042449899  0.041686065            5 
 4080000   0.59994413   -4.3900701    2081.5051  0.042514402  0.041676129            4 
 4081000   0.60170595   -4.4185533    2081.8033  0.042510073  0.041666176            8 
 4082000   0.59344777   -4.4031584    2080.2483  0.042467915  0.041656249           11 
 4083000   0.60540676   -4.4182969     2076.458  0.042380154  0.041646337           18 
 4084000   0.59528483   -4.3798663      2082.92  0.042501633  0.041636408           13 
 4085000   0.61170769   -4.3966701    2080.9869  0.042451793  0.041626477           12 
 4086000   0.60308576   -4.4029452    2080.7986  0.042437564  0.041616545            8 
 4087000   0.60561115   -4.3968504    2077.3181  0.042356213   0.04160658            5 
 4088000   0.60865808   -4.4141914    2077.6291  0.042352192  0.041596639            9 
 4089000   0.60365008   -4.3989545    2083.8786  0.042469197  0.041586732           26 
 4090000   0.59869355    -4.410883    2077.1119  0.042320943  0.041576808           15 
 4091000   0.60056302   -4.4040524    2079.7352  0.042364034   0.04156689            8 
 4092000   0.60694221   -4.3955828    2085.0215  0.042461337  0.041557055           11 
 4093000   0.59465809   -4.4108861     2085.323  0.042457101  0.041547169            4 
 4094000     0.589104   -4.4130487    2079.7807  0.042333918  0.041537194           18 
 4095000   0.58964494   -4.3932061    2081.4605  0.042357763  0.041527235           13 
 4096000   0.59117748    -4.389781    2084.1705  0.042402557  0.041517308           15 
 4097000   0.59926079   -4.4135367    2079.9781  0.042306933  0.041507421            9 
 4098000   0.60895733   -4.4162629    2081.5577  0.042328732  0.041497495           24 
 4099000   0.60809723   -4.4063464    2083.1351  0.042350474  0.041487583           19 
 4100000   0.60040042   -4.4111812    2081.8403  0.042313827   0.04147764           11 
 4101000   0.59396947   -4.3871242    2081.4412    0.0422954  0.041467744            6 
 4102000   0.59358545   -4.3965221    2081.0347  0.042276831  0.041457832            9 
 4103000   0.59889009   -4.4122499    2078.2287  0.042209536  0.041447924            7 
 4104000    0.5815084   -4.4116815    2075.7984  0.042149903  0.041438003           10 
 4105000   0.59754748   -4.4331618    2078.8097  0.042200765  0.041428072           20 
 4106000   0.59700204   -4.4109604     2079.375   0.04220196  0.041418197           21 
 4107000   0.60820845   -4.3781193    2083.1782  0.042268854  0.041408369           14 
 4108000   0.59010872    -4.410183    2083.6599  0.042268337  0.041398553            5 
 4109000   0.60396769   -4.4108317    2080.5294   0.04219456  0.041388739           15 
 4110000   0.58882605   -4.4000501     2083.896  0.042252554  0.041378854            9 
 4111000   0.57995074   -4.3969086    2084.6585  0.042257733  0.041369021           14 
 4112000   0.59707325   -4.4176673    2078.7316  0.042127342  0.041359165            9 
 4113000   0.58538499   -4.3923436    2079.2416  0.042127433  0.041349328           10 
 4114000   0.58464585   -4.4084297    2079.9562  0.042131668   0.04133949            6 
 4115000    0.5787296   -4.4147002    2082.0132  0.042163086  0.041329667           12 
 4116000   0.59790431   -4.4227052    2080.2361  0.042116864  0.041319803           11 
 4117000   0.58973929   -4.4034711    2083.3568  0.042169801  0.041309944            9 
 4118000   0.58389022   -4.4150608    2082.0724  0.042133568  0.041300084           12 
 4119000   0.60084834   -4.4070946    2092.8631   0.04234165   0.04129025           14 
 4120000   0.57893676   -4.4022859    2078.7577  0.042046069  0.041280448           16 
 4121000   0.57797798   -4.3943529     2084.018  0.042142238  0.041270608            6 
 4122000   0.58305039   -4.4187198    2084.2151     0.042136  0.041260751            4 
 4123000   0.59279573    -4.420765    2082.4175  0.042089447  0.041250918           29 
 4124000   0.59063163   -4.4031167     2082.245  0.042075755  0.041241071           39 
 4125000   0.59983066   -4.4455285    2082.5194    0.0420711  0.041231201           22 
 4126000   0.59607133   -4.4265025    2082.5757   0.04206204  0.041221327            9 
 4127000   0.58109683   -4.4202583    2082.7667  0.042055705  0.041211472           24 
 4128000   0.59695598   -4.4125119    2082.1005  0.042032067  0.041201623           15 
 4129000   0.59555392   -4.4247296    2082.1171  0.042022224  0.041191806            7 
 4130000   0.59970954   -4.4111765    2078.5801   0.04194068  0.041181932           19 
 4131000   0.59221288   -4.4207637    2082.5149  0.042009902   0.04117209           16 
 4132000   0.58985037   -4.4075789    2084.6214   0.04204222  0.041162288            9 
 4133000   0.60887989   -4.4189461     2083.496  0.042009356  0.041152464           17 
 4134000   0.59723314   -4.4275369    2086.3618  0.042056963  0.041142636           10 
 4135000   0.60224654   -4.4188192    2091.9354  0.042159116  0.041132841            3 
 4136000   0.59513388      -4.4125    2089.5681  0.042101228  0.041123059            8 
 4137000   0.59705562   -4.4175856    2083.5225  0.041969272  0.041113302            6 
 4138000   0.59698512   -4.4133013    2078.0887  0.041849699  0.041103469            5 
 4139000   0.59649462   -4.4279153    2081.0032  0.041898269  0.041093645            5 
 4140000     0.597475   -4.4144054    2084.6968  0.041962495  0.041083829            7 
 4141000   0.59134397   -4.4013184    2086.3629   0.04198589  0.041074041            7 
 4142000   0.57472738   -4.4248927    2085.9508  0.041967464  0.041064234           10 
 4143000   0.59007553   -4.4283178    2086.3946   0.04196626  0.041054443            7 
 4144000   0.59270692   -4.4137571    2082.9507  0.041886878  0.041044669           13 
 4145000   0.58550989   -4.4152492    2086.0799  0.041939685   0.04103487           11 
 4146000   0.59370464   -4.4271766    2084.5944   0.04189971  0.041025046            9 
 4147000   0.59708437   -4.4372123    2081.5247  0.041827921  0.041015177            9 
 4148000   0.59514606   -4.4241515    2083.3857  0.041855226  0.041005305           19 
 4149000   0.58800822   -4.4403867    2084.1623  0.041860735   0.04099549           13 
 4150000   0.60633944   -4.4259173    2084.5424  0.041858282  0.040985669           11 
 4151000   0.58245456    -4.436018    2076.2469  0.041681661  0.040975824           14 
 4152000   0.59839411   -4.4488712    2087.4727   0.04189693  0.040965952           39 
 4153000   0.58045662   -4.4195628    2082.8791  0.041794669  0.040956089            7 
 4154000   0.58764699   -4.4308122    2090.6244  0.041939986   0.04094628           12 
 4155000   0.58123597   -4.4152648    2083.6604  0.041790221  0.040936498           31 
 4156000   0.59768756   -4.4351982    2081.6052  0.041738956  0.040926691           14 
 4157000   0.59708022   -4.4210834    2084.3853  0.041784647  0.040916906            9 
 4158000    0.5734126   -4.4280573    2086.1227  0.041809417  0.040907063           14 
 4159000   0.60214867   -4.4332177    2080.8829  0.041694376  0.040897195            7 
 4160000    0.5872931   -4.4310459    2084.1923  0.041750648  0.040887332           11 
 4161000   0.58233756   -4.4240157    2086.8386  0.041793612  0.040877534           14 
 4162000   0.58381539   -4.4417878    2085.0692  0.041748143  0.040867731           10 
 4163000   0.57251916   -4.4063012    2081.4982  0.041666631  0.040857938            4 
 4164000   0.58171335   -4.4337491    2082.7052  0.041680779  0.040848121            9 
 4165000   0.58435604   -4.4184198    2089.8419  0.041813563  0.040838295           10 
 4166000   0.59704555    -4.430048    2085.1962  0.041710597  0.040828458            9 
 4167000   0.60351368   -4.4168438     2089.997  0.041796597  0.040818651            6 
 4168000   0.57938618    -4.426928    2084.1516  0.041669697  0.040808851           22 
 4169000   0.61394332   -4.4331764    2085.2988  0.041682635  0.040799029            6 
 4170000   0.59503952   -4.4555202    2077.8291  0.041523363  0.040789158           14 
 4171000   0.59106537   -4.4151296    2085.5737  0.041668139  0.040779301            8 
 4172000   0.58460777   -4.4170804    2087.9836  0.041706288  0.040769446            7 
 4173000   0.58089958   -4.4309575    2083.8407  0.041613562   0.04075959           13 
 4174000   0.58649366   -4.4130719     2082.226  0.041571355  0.040749717            7 
 4175000   0.59030856   -4.3990145    2086.7589  0.041651874   0.04073988            9 
 4176000   0.58311854   -4.4424229    2082.1751  0.041550429  0.040730009           15 
 4177000   0.59115067   -4.4390806    2077.7465  0.041452128  0.040720109           24 
 4178000   0.57666772   -4.4288899    2082.5138  0.041537295  0.040710231           16 
 4179000   0.58964771   -4.4205744    2082.4707  0.041526496   0.04070038           15 
 4180000   0.58794026    -4.441689    2078.2249  0.041431916   0.04069047            6 
 4181000   0.58673776   -4.4328063    2080.8479  0.041474287  0.040680545           30 
 4182000   0.56487289   -4.4194166    2084.2677  0.041532514  0.040670683           14 
 4183000   0.58364101   -4.4332125    2081.6224  0.041469885  0.040660859            8 
 4184000   0.57860584   -4.4724095    2081.3173  0.041453897  0.040651005            9 
 4185000   0.59117625   -4.4446372    2081.3006   0.04144366  0.040641124           10 
 4186000   0.58332475   -4.4468886    2081.2444  0.041432641  0.040631223           10 
 4187000   0.58114103   -4.4341772     2081.195  0.041421762  0.040621331            9 
 4188000   0.58354119   -4.4318976    2082.3006  0.041433872  0.040611471           13 
 4189000   0.58113595   -4.4412661    2084.7413  0.041472534  0.040601586           12 
 4190000   0.58766572   -4.4046783    2083.4043  0.041436045  0.040591736           19 
 4191000   0.57794323   -4.4299014    2079.7832  0.041354155  0.040581897            9 
 4192000   0.57838005   -4.4168541    2083.3858  0.041415907  0.040572078            7 
 4193000   0.59479004   -4.4321027    2084.8475   0.04143508  0.040562238           10 
 4194000   0.57339421   -4.4341409    2082.6632  0.041381799  0.040552373           12 
 4195000   0.57925086   -4.4328847    2081.7803  0.041354397  0.040542502            6 
 4196000   0.59033255   -4.4212596    2087.1185  0.041450558  0.040532631           13 
 4197000   0.57303658   -4.4167456     2081.591  0.041330931  0.040522746           12 
 4198000   0.58403799   -4.4404207    2082.2293  0.041333755  0.040512899            6 
 4199000   0.58166295   -4.4350647    2082.3171  0.041325654  0.040503028           10 
 4200000   0.59045746   -4.4396517     2086.526  0.041399326  0.040493223           11 
 4201000   0.58220379   -4.4219476    2084.1105  0.041341556  0.040483402            5 
 4202000   0.58014369   -4.4248035    2089.4486  0.041437582  0.040473586            7 
 4203000   0.58027374   -4.4334523    2086.0455  0.041360248  0.040463761           11 
 4204000   0.57536363   -4.4499009    2084.8938   0.04132758  0.040453956           21 
 4205000   0.57513593   -4.4257829    2083.0327   0.04128087  0.040444158           14 
 4206000   0.57772511    -4.453059    2082.3357  0.041257245  0.040434343           15 
 4207000   0.58134603   -4.4599048    2081.2085   0.04122511   0.04042449           13 
 4208000   0.58159574   -4.4396533    2080.6425  0.041204106  0.040414646           12 
 4209000   0.57699091   -4.4495147    2084.6084  0.041272836  0.040404827           15 
 4210000   0.57837796   -4.4332021    2084.3852  0.041258615  0.040395001           10 
 4211000   0.56771989   -4.4560465    2084.3721  0.041248557  0.040385174           11 
 4212000   0.57915182   -4.4332093    2080.9358  0.041170779  0.040375329           12 
 4213000   0.56660602   -4.4340398     2080.125  0.041144969  0.040365447           10 
 4214000   0.59031639   -4.4328736    2083.2861  0.041197715   0.04035565           20 
 4215000   0.57846484   -4.4459936    2080.9759  0.041142268  0.040345817           10 
 4216000   0.60910711   -4.4348246    2083.4037  0.041180498  0.040335992           20 
 4217000   0.57303053   -4.4574197    2085.4519  0.041211207   0.04032616           18 
 4218000   0.58190012   -4.4529304    2082.6532  0.041146144  0.040316323            9 
 4219000   0.57530424   -4.4394582    2082.7235  0.041137779  0.040306498           11 
 4220000   0.58313168   -4.4550388    2082.6099  0.041125789  0.040296645           12 
 4221000   0.56404589   -4.4586504    2084.1124  0.041145708  0.040286781           10 
 4222000   0.58226973   -4.4451434    2083.4001  0.041121903  0.040276983           10 
 4223000   0.57740488   -4.4633769    2084.2209  0.041128362  0.040267177            7 
 4224000   0.55733262   -4.4452299    2084.9323   0.04113266  0.040257352           16 
 4225000   0.57457485    -4.466207    2081.5826  0.041056855  0.040247472           15 
 4226000   0.56316109   -4.4311704    2085.0506  0.041115528  0.040237635           17 
 4227000   0.58374715   -4.4454555    2086.9136  0.041142528  0.040227813           11 
 4228000   0.58636101    -4.448747    2082.5731  0.041047246  0.040218018           24 
 4229000   0.57279477   -4.4253069    2089.3649  0.041171374  0.040208222            7 
 4230000   0.57391299   -4.4324073    2087.0456  0.041115949  0.040198457            6 
 4231000   0.57672151    -4.438185    2084.8389   0.04106277  0.040188685           21 
 4232000   0.56858561   -4.4530862    2088.0507  0.041116311  0.040178923           21 
 4233000   0.57370037   -4.4380627    2084.6658  0.041039959   0.04016913           22 
 4234000    0.5687985   -4.4590281    2085.1234  0.041039273  0.040159338           10 
 4235000   0.57122363   -4.4799065    2078.7524  0.040904219  0.040149553           19 
 4236000   0.57463271   -4.4429021    2080.1308  0.040921679  0.040139756            9 
 4237000   0.56269715   -4.4041369    2084.0778  0.040989651   0.04012996           10 
 4238000   0.57524626   -4.4418788    2082.0563   0.04094023  0.040120222            8 
 4239000   0.56046949   -4.4236908    2088.6445  0.041060087  0.040110472           12 
 4240000    0.5721152   -4.4615119    2086.0267  0.040998953  0.040100708           20 
 4241000   0.56746705   -4.4469816    2079.0813  0.040852813  0.040090925            8 
 4242000   0.57521576   -4.4566259    2082.9763  0.040919697  0.040081142            7 
 4243000   0.56066362   -4.4551035    2082.9162  0.040908874  0.040071327           15 
 4244000   0.58508797   -4.4735953    2085.2659  0.040945371  0.040061529            9 
 4245000   0.57448632   -4.4587516    2083.1596  0.040894378  0.040051757            9 
 4246000   0.58473782   -4.4490457    2083.2871  0.040887249  0.040041974            8 
 4247000   0.57375101   -4.4447535    2085.9738  0.040930339  0.040032162           16 
 4248000   0.57478387   -4.4671668    2079.4907  0.040793524  0.040022345           13 
 4249000    0.5770691   -4.4728182     2082.771  0.040848258  0.040012568           19 
 4250000   0.58502709   -4.4413709    2086.8335  0.040918305  0.040002775           18 
 4251000   0.59144028   -4.4564421    2085.0528  0.040873771  0.039993013           24 
 4252000   0.57470229   -4.4351437    2087.6554  0.040915166  0.039983312           23 
 4253000   0.58037936   -4.4532607     2086.557  0.040884023  0.039973544           16 
 4254000   0.57149267   -4.4308838    2084.6587  0.040837226  0.039963824           14 
 4255000   0.57632891   -4.4311075    2087.7909  0.040888972  0.039954068            7 
 4256000   0.57284802    -4.449872    2087.6989  0.040877563   0.03994437           19 
 4257000   0.56034572   -4.4538104    2085.0147  0.040815415  0.039934609           12 
 4258000    0.5663486   -4.4646751    2086.2053  0.040829132  0.039924826           10 
 4259000   0.56917647   -4.4665192    2086.6737   0.04082871  0.039915049            6 
 4260000   0.56836957   -4.4672923    2085.8514   0.04080304  0.039905272            7 
 4261000   0.56783912   -4.4483288    2082.7602  0.040733009  0.039895458           15 
 4262000   0.57415286   -4.4446714    2089.9706  0.040864433   0.03988574            9 
 4263000   0.56228393   -4.4530215    2088.7975  0.040831917  0.039876001           16 
 4264000   0.56095463   -4.4658924    2080.4304  0.040658818  0.039866249           22 
 4265000   0.57041501   -4.4459202    2088.1231  0.040799593  0.039856518            5 
 4266000    0.5735594   -4.4481038    2082.1727  0.040673792  0.039846741            7 
 4267000   0.57322895   -4.4784233    2084.8471  0.040716489  0.039836972           11 
 4268000   0.56694794   -4.4647467    2083.1283  0.040673389  0.039827223           11 
 4269000   0.57884881   -4.4616111    2087.4346  0.040747923  0.039817441           21 
 4270000   0.56249372   -4.4774902    2078.4259  0.040562567  0.039807676           10 
 4271000   0.56732812   -4.4761935    2084.0676  0.040663147   0.03979787           18 
 4272000   0.56196923   -4.4482361    2085.3885  0.040679394   0.03978814           23 
 4273000   0.56254945   -4.4676306    2083.1861  0.040626923  0.039778379           25 
 4274000   0.56646647   -4.4604846    2085.1511  0.040655731  0.039768605           14 
 4275000   0.56588802   -4.4883143    2079.4748  0.040535571  0.039758789           11 
 4276000   0.56461344   -4.4558821    2082.3809  0.040582728  0.039749036           17 
 4277000   0.56523901   -4.4663201     2082.315  0.040571955  0.039739254            9 
 4278000   0.57032382   -4.4537134    2084.8078  0.040611029  0.039729483            8 
 4279000   0.55982464   -4.4527078    2088.2617  0.040668803   0.03971978           21 
 4280000   0.56635633   -4.4556418     2086.802  0.040630879  0.039710068           18 
 4281000   0.57008383   -4.4489425    2084.0599  0.040568012  0.039700373           11 
 4282000   0.56506539   -4.4774166    2087.5933  0.040627302  0.039690659           11 
 4283000   0.55789833   -4.4721917    2087.8359  0.040622538  0.039680937           13 
 4284000    0.5813985   -4.4730338    2081.5442  0.040490667    0.0396712           20 
 4285000   0.55668868   -4.4873259    2082.9632  0.040508813  0.039661432           11 
 4286000   0.57556214   -4.4775448    2079.7983  0.040437827  0.039651705           21 
 4287000   0.56904603   -4.4526226    2088.6105  0.040599691  0.039642011            8 
 4288000   0.54943435   -4.4811734    2084.5301  0.040510924  0.039632336           11 
 4289000   0.57217674   -4.4565518    2087.2539    0.0405544   0.03962263           14 
 4290000   0.57469659   -4.4663939    2087.8218  0.040555978  0.039612938           35 
 4291000   0.56126466   -4.4712587    2088.8268  0.040566044  0.039603234           11 
 4292000   0.56505244   -4.4888562    2086.3142  0.040507808  0.039593514           12 
 4293000   0.57262514    -4.467127    2091.9701  0.040608162  0.039583798           21 
 4294000   0.55308471   -4.4538933    2082.2026  0.040409148  0.039574081           11 
 4295000   0.55757567   -4.4621626    2089.3734  0.040538871  0.039564379           12 
 4296000    0.5612632   -4.4751854    2087.3418  0.040490025  0.039554694            8 
 4297000   0.54539839    -4.464632    2092.6655  0.040583846   0.03954501            7 
 4298000   0.55819695   -4.4785199    2089.9037  0.040520856  0.039535335           10 
 4299000   0.56114335   -4.4621433    2087.3185  0.040461319  0.039525638            6 
 4300000   0.56587261    -4.467707     2085.323  0.040413236  0.039515983           21 
 4301000   0.56131333   -4.4709085    2083.3834  0.040366261  0.039506306           10 
 4302000    0.5653136   -4.4733164    2077.9988  0.040252572  0.039496616           22 
 4303000   0.55755762   -4.4687897    2083.3849  0.040347526  0.039486873           19 
 4304000   0.55581589   -4.4678194    2086.5886  0.040400181  0.039477194           28 
 4305000   0.56139205   -4.4693867    2089.9529  0.040455921  0.039467535           11 
 4306000   0.55288239   -4.4618491    2088.4259  0.040416973   0.03945783           10 
 4307000   0.56426744   -4.4754173    2084.0849  0.040323598  0.039448133           18 
 4308000   0.55438389   -4.4624708     2085.451  0.040340664  0.039438427           21 
 4309000   0.56340549   -4.4744092    2086.1868  0.040345533  0.039428726           13 
 4310000   0.55261013   -4.4895259    2087.0528  0.040352915     0.039419           15 
 4311000   0.57001556   -4.4593501    2087.5753  0.040353655  0.039409283           20 
 4312000   0.55835453   -4.4654979    2086.2635  0.040318945  0.039399635           15 
 4313000   0.56668568   -4.4905065    2083.6454  0.040259011  0.039389958           16 
 4314000   0.57216084   -4.4876572    2086.1387  0.040297843  0.039380244            8 
 4315000   0.56704434   -4.4753688    2085.5998  0.040278096  0.039370567           17 
 4316000   0.55072773   -4.4682381     2093.881  0.040428657  0.039360909            5 
 4317000   0.56942662   -4.4662304    2088.3008  0.040311574  0.039351263           15 
 4318000   0.55794241   -4.4607602     2091.715   0.04036813   0.03934164            8 
 4319000   0.57184098   -4.4843295    2087.7577  0.040282429  0.039332038           12 
 4320000   0.55013686   -4.4780037    2082.9427  0.040180223  0.039322357           14 
 4321000   0.56395063   -4.4701775    2085.5764  0.040221715  0.039312676           11 
 4322000   0.56421899    -4.484806    2086.7978  0.040235959  0.039303007            9 
 4323000   0.56433269   -4.4908815    2085.1813  0.040195492  0.039293318           13 
 4324000   0.56231716   -4.4853561    2084.6156  0.040175293   0.03928364           22 
 4325000   0.54773205   -4.4768619    2087.1094  0.040214054  0.039273947           12 
 4326000   0.55868221   -4.4629981    2086.0757  0.040184846   0.03926432           13 
 4327000   0.56331325   -4.4771216    2088.9651  0.040231206  0.039254672           17 
 4328000   0.56927223   -4.4758145    2086.5708  0.040175809  0.039245026            9 
 4329000   0.57501841   -4.4855864    2080.1215   0.04004238  0.039235358           15 
 4330000   0.56467636   -4.4788644    2085.9203  0.040144732  0.039225686           23 
 4331000   0.55338555   -4.4655064    2088.2881  0.040181023  0.039216005           19 
 4332000   0.56847595   -4.4632128    2087.7414   0.04016123  0.039206387           11 
 4333000   0.54766936   -4.4664905    2090.2913  0.040201002  0.039196788            7 
 4334000   0.56050013   -4.4759417    2089.6119  0.040178662  0.039187188           10 
 4335000   0.56887015   -4.4818516    2083.7376  0.040056471   0.03917755           13 
 4336000   0.55728357   -4.4642027    2084.0282  0.040052817  0.039167904           12 
 4337000   0.57590038   -4.4702011    2090.7083  0.040171937  0.039158263           13 
 4338000   0.55937139   -4.4860504    2086.7997  0.040087591  0.039148628            8 
 4339000   0.55874865    -4.471969    2087.1236  0.040084574  0.039139019           10 
 4340000   0.55872886   -4.4678087    2089.4149  0.040119334  0.039129386           12 
 4341000    0.5489823   -4.4777067    2082.0493  0.039968695   0.03911977           19 
 4342000   0.55577008   -4.4738069    2094.4559  0.040197602  0.039110134           35 
 4343000      0.57299   -4.4961791    2084.5608  0.039998481    0.0391005           11 
 4344000   0.55556979   -4.5034807    2083.9346   0.03997726  0.039090853            9 
 4345000   0.57054406   -4.4889312    2083.3807  0.039957436  0.039081154           11 
 4346000    0.5522684   -4.4988728    2085.9687  0.039997865  0.039071462           11 
 4347000   0.55498816   -4.4726835    2084.1658  0.039954103  0.039061831           19 
 4348000   0.57018622   -4.4924802    2089.9698  0.040056152  0.039052189           20 
 4349000   0.56969387   -4.4771399    2085.8801  0.039968577  0.039042583           12 
 4350000   0.56284779   -4.4784293     2090.159   0.04004136   0.03903294            7 
 4351000   0.56937379   -4.4718318    2087.5722  0.039982613  0.039023319           10 
 4352000   0.56175024   -4.4739299    2089.1991  0.040004579  0.039013703            9 
 4353000   0.54476063   -4.4843815    2090.0346  0.040011382  0.039004127           16 
 4354000   0.55948152   -4.4856319    2090.5561  0.040012174  0.038994517            6 
 4355000   0.54369616    -4.500684    2085.2689  0.039901817  0.038984903           30 
 4356000   0.55820098   -4.4736884    2089.5995  0.039975504  0.038975323            8 
 4357000   0.54759137   -4.4878209    2089.3568  0.039961687  0.038965737           11 
 4358000   0.56752036   -4.4867392    2090.4629  0.039973667  0.038956159           39 
 4359000   0.54922431   -4.4778862    2086.5458  0.039889612  0.038946578           16 
 4360000   0.55758614   -4.4865303    2090.9965   0.03996553  0.038937017           28 
 4361000   0.56602124   -4.4669937     2087.737   0.03989408  0.038927454           17 
 4362000   0.55715675   -4.5014035    2088.5675    0.0399008  0.038917918            8 
 4363000   0.54893212   -4.4996655    2089.0181  0.039900261   0.03890836           19 
 4364000    0.5527029     -4.48892    2087.7167  0.039866267  0.038898795            6 
 4365000   0.55335982   -4.5081944     2091.098  0.039921687  0.038889258            7 
 4366000   0.55620225   -4.4939434    2088.9673  0.039871876  0.038879694            6 
 4367000   0.55386085   -4.4774172    2089.5908  0.039874642  0.038870145           11 
 4368000   0.57129281   -4.4904924    2093.6168  0.039942322  0.038860625            4 
 4369000   0.55531761   -4.4984818    2089.7286  0.039859017  0.038851069            8 
 4370000   0.55655021   -4.5062532    2084.4018  0.039748317  0.038841471           10 
 4371000   0.56236649   -4.4747813    2089.9556  0.039845107   0.03883189            5 
 4372000   0.55571942   -4.4887038    2093.1412  0.039896713  0.038822332           21 
 4373000   0.55966466   -4.5072182    2086.7917  0.039766593  0.038812793            7 
 4374000   0.55673841     -4.49465    2088.6864  0.039793598  0.038803255           11 
 4375000   0.55870531   -4.4838504     2087.765  0.039766953  0.038793713           28 
 4376000   0.55693503   -4.4942179    2092.9528  0.039856658  0.038784149           20 
 4377000   0.55674976   -4.5017132    2089.9164  0.039789741  0.038774588           16 
 4378000   0.55497051   -4.5257796    2087.7012  0.039738488   0.03876502           16 
 4379000   0.54604359   -4.4953374    2090.9109  0.039790495  0.038755487           13 
 4380000   0.53727671   -4.5008734    2088.4003  0.039733644  0.038745969           15 
 4381000   0.55454442   -4.4968262    2090.2172  0.039759134  0.038736435           15 
 4382000   0.55491431   -4.5009376    2095.7349  0.039854992  0.038726927           11 
 4383000    0.5563022   -4.4885896     2093.418  0.039801849  0.038717445           13 
 4384000   0.55481001   -4.5018149     2090.523   0.03973774  0.038707925           12 
 4385000   0.55765965   -4.5009862    2091.9465   0.03975573   0.03869838           17 
 4386000     0.564279   -4.4942516     2084.615  0.039607368  0.038688859           19 
 4387000     0.551364   -4.4904129    2094.1176  0.039778847   0.03867933           18 
 4388000   0.54583138    -4.496366    2084.9603  0.039595874  0.038669811           19 
 4389000   0.54402408   -4.5054886    2090.3384  0.039688965  0.038660309            9 
 4390000   0.53850755   -4.5054127     2085.249  0.039583315  0.038650792            9 
 4391000   0.55427289   -4.5199174    2089.7971  0.039660615  0.038641291           10 
 4392000   0.55187363   -4.4988004    2089.1194  0.039638726  0.038631782           15 
 4393000    0.5521532   -4.4936384    2091.6817  0.039678308  0.038622265           51 
 4394000    0.5396314   -4.4909508     2090.472  0.039646336  0.038612692            5 
 4395000   0.53844573   -4.4963623    2084.5395  0.039524829  0.038603175           14 
 4396000   0.54377116   -4.4946351    2090.1813  0.039622787  0.038593651           17 
 4397000   0.54308928   -4.4874891    2091.3146  0.039635255  0.038584117           16 
 4398000   0.54254566   -4.5176769    2084.3428  0.039494141   0.03857458           27 
 4399000   0.54234309   -4.5018265    2088.1593  0.039557461  0.038565008            6 
 4400000   0.55479399   -4.4983309    2089.5217  0.039574275   0.03855546            8 
 4401000   0.52863905   -4.5062371    2087.0904  0.039519245   0.03854589           19 
 4402000    0.5356442   -4.4908455    2087.9422  0.039526394  0.038536329           10 
 4403000   0.55204357   -4.4978267    2093.0669  0.039614408  0.038526796           16 
 4404000    0.5441756   -4.4954896    2090.3425  0.039553861  0.038517284           15 
 4405000    0.5537263   -4.5259355    2081.8233  0.039383718  0.038507728           17 
 4406000   0.55878003    -4.528696    2082.0865  0.039379757  0.038498134           54 
 4407000   0.54559394    -4.505475    2089.1297  0.039504004  0.038488596           22 
 4408000   0.55149163   -4.5178982    2085.7135  0.039430457  0.038479039           12 
 4409000   0.54203566   -4.5034827     2085.355  0.039414738  0.038469474           30 
 4410000   0.55969616   -4.5059689    2087.2025  0.039440713  0.038459907           15 
 4411000   0.53785202   -4.5156286    2091.4828  0.039512634  0.038450363           10 
 4412000   0.53012869   -4.5166987    2087.4154  0.039426855  0.038440828           20 
 4413000   0.54675955   -4.5107767     2089.742  0.039461855  0.038431311           11 
 4414000    0.5438488   -4.4818742    2093.1643  0.039517526  0.038421809            8 
 4415000   0.54473339   -4.5045301    2093.1546  0.039508393  0.038412294           13 
 4416000    0.5435772   -4.5129418    2093.2192  0.039500665  0.038402821           12 
 4417000   0.54018381    -4.511263    2092.5134  0.039478405  0.038393375           17 
 4418000   0.54635913    -4.508222    2089.2056  0.039407076  0.038383907           13 
 4419000   0.52704592   -4.5056626    2094.3708  0.039495565  0.038374432           21 
 4420000   0.54193573   -4.5124646    2088.4431  0.039374871  0.038364939            9 
 4421000   0.54675909   -4.5099307    2086.7446  0.039333948  0.038355438           10 
 4422000     0.550572    -4.514427    2084.4565  0.039281932  0.038345937           16 
 4423000   0.53303654   -4.5038875    2090.5218  0.039387328  0.038336418           15 
 4424000   0.55859824   -4.5228074    2090.2385  0.039373088  0.038326904           10 
 4425000   0.53706124   -4.4873924    2088.7916  0.039336941  0.038317392           16 
 4426000   0.54925907   -4.5068691    2088.2253  0.039317391  0.038307907           13 
 4427000   0.54858581   -4.5332856    2086.5091  0.039276204  0.038298414           20 
 4428000   0.53756754   -4.5167657    2090.1716  0.039336262  0.038288932            9 
 4429000   0.53292974   -4.5223436    2090.5611  0.039334708  0.038279474           10 
 4430000   0.53898393   -4.5143768    2092.4503  0.039361367  0.038269996           14 
 4431000   0.53763513   -4.5157601    2089.8348  0.039303295  0.038260528           21 
 4432000   0.55264631   -4.5058125    2089.3234  0.039284812  0.038251071           23 
 4433000   0.54572483   -4.5254907    2091.4173  0.039315311  0.038241648           11 
 4434000   0.54968338   -4.5234461    2094.0535  0.039355989  0.038232221           14 
 4435000   0.54228832   -4.5119076    2090.5491  0.039281268  0.038222798           48 
 4436000   0.53940716   -4.5180752    2092.4455  0.039308038  0.038213371            4 
 4437000   0.55439377   -4.5057797    2093.4807  0.039318621  0.038203914           23 
 4438000   0.52694184   -4.5116743    2087.0321  0.039188675  0.038194462            7 
 4439000   0.55306417   -4.5169167    2091.6335  0.039266229  0.038184966           14 
 4440000   0.54461382   -4.4999558    2088.3214  0.039195221  0.038175536           10 
 4441000   0.53919438   -4.5047674    2091.1422  0.039239328   0.03816608            7 
 4442000   0.53769292   -4.5339902    2085.1668  0.039118393  0.038156617           12 
 4443000   0.53956282    -4.524315    2087.3911  0.039151307  0.038147159           11 
 4444000   0.54125252   -4.5269728    2091.7607  0.039224436  0.038137664           18 
 4445000   0.54511225   -4.5236005    2091.7612   0.03921562  0.038128158           21 
 4446000   0.53677922   -4.5247796    2092.5159  0.039220945  0.038118685           16 
 4447000   0.54063976   -4.5298041    2086.2037  0.039093839  0.038109171           15 
 4448000   0.54092844   -4.5312833    2091.3454  0.039181381  0.038099704           14 
 4449000   0.54698485   -4.5232634     2085.382  0.039060875   0.03809024           12 
 4450000    0.5405426   -4.5129405    2094.1533  0.039216353  0.038080828           12 
 4451000   0.54872374   -4.5095069    2093.1759  0.039189244   0.03807142           11 
 4452000   0.53358427   -4.5123237    2089.1097  0.039104329  0.038062012           26 
 4453000   0.54092912   -4.5183977    2093.6542  0.039180594  0.038052606           18 
 4454000   0.54643611    -4.511573    2089.3973  0.039092151  0.038043212           20 
 4455000   0.53917694   -4.5011687    2095.1771   0.03919149  0.038033807           27 
 4456000   0.53428216   -4.5103412    2098.1783  0.039238822  0.038024434            9 
 4457000   0.54249087   -4.5259715    2092.3409  0.039120876  0.038015052           23 
 4458000   0.54787948   -4.5171466    2095.5788  0.039172626  0.038005635           15 
 4459000   0.53291168    -4.526697    2086.4912  0.038994005  0.037996184           11 
 4460000   0.54120275   -4.5221227    2086.4988  0.038985404  0.037986703           10 
 4461000   0.53317029   -4.5197996    2090.3667  0.039048918  0.037977233           12 
 4462000    0.5432689   -4.5329558    2091.7923  0.039066792  0.037967806           15 
 4463000   0.52992269   -4.5278795    2092.0465  0.039062785  0.037958363           12 
 4464000   0.52710158   -4.5196405    2086.0937  0.038942909  0.037948962           11 
 4465000   0.53553525   -4.5339762    2091.9312  0.039043136  0.037939546           20 
 4466000   0.53495773   -4.5235606    2091.3728  0.039023973  0.037930123           16 
 4467000   0.54332062   -4.5145465    2089.8087  0.038986059  0.037920684            8 
 4468000   0.53919088   -4.5200994    2094.8368  0.039071113   0.03791123           20 
 4469000    0.5339527   -4.5143759    2092.1838    0.0390129  0.037901808           15 
 4470000    0.5251492    -4.529363    2090.6565  0.038975698  0.037892402           16 
 4471000   0.53790691   -4.5073858    2091.9757   0.03899157  0.037882961           10 
 4472000    0.5308793   -4.5232452    2090.9469  0.038963679  0.037873552           36 
 4473000   0.54349735   -4.5179843    2091.4622  0.038964568  0.037864146           39 
 4474000   0.54095538    -4.505365    2093.7528  0.038998525  0.037854719           32 
 4475000   0.53476586   -4.5295609    2089.1152  0.038903448  0.037845285           18 
 4476000   0.52762173   -4.5244414    2088.8316  0.038889477  0.037835856           30 
 4477000   0.53781353   -4.5127559    2087.8488  0.038862497  0.037826456           18 
 4478000   0.52271924    -4.519146    2094.1755  0.038971556  0.037817075            6 
 4479000   0.54614169   -4.5391235    2084.2284  0.038777786   0.03780766           18 
 4480000   0.52404948   -4.5146717    2087.9297  0.038837978   0.03779826            8 
 4481000   0.55253522   -4.5250182    2095.6551   0.03897298  0.037788847           11 
 4482000   0.54363058   -4.5209216    2093.4599   0.03892347  0.037779454            7 
 4483000   0.53953953   -4.5125309    2089.8521  0.038847723  0.037770054           20 
 4484000     0.534882     -4.53019     2089.956  0.038840991  0.037760668            5 
 4485000    0.5317101   -4.5475913    2089.5806  0.038825355  0.037751229           14 
 4486000   0.54162183    -4.537824     2087.724  0.038782211  0.037741821            8 
 4487000   0.53443058   -4.5121757    2091.3253  0.038840451  0.037732398           14 
 4488000   0.53578962   -4.5489327    2082.1198  0.038660869  0.037722945            8 
 4489000   0.54430199   -4.5474781    2088.2162   0.03876543  0.037713491           10 
 4490000   0.51887624    -4.555255    2087.7993  0.038749059  0.037704016           13 
 4491000   0.52601971   -4.5434167    2090.0935  0.038783001  0.037694538           13 
 4492000   0.52848662    -4.539812    2087.2468  0.038721557   0.03768503           16 
 4493000   0.53005938    -4.560463    2086.3216  0.038695779  0.037675525           25 
 4494000   0.53493639   -4.5405629    2089.2361  0.038741212  0.037666026           43 
 4495000   0.52939492   -4.5341486    2089.4354  0.038736289  0.037656605           15 
 4496000    0.5277583   -4.5262737    2090.4516  0.038746508  0.037647157           11 
 4497000   0.54363844   -4.5362209    2087.8061  0.038688869  0.037637727           12 
 4498000   0.54226183   -4.5388503    2090.7477  0.038734765  0.037628336           13 
 4499000   0.52022522   -4.5344967    2088.8597  0.038691185  0.037618917           26 
 4500000   0.52673026   -4.5408378    2093.2042  0.038763041  0.037609502           14 
 4501000   0.53067779   -4.5526744       2089.8  0.038691402  0.037600069           17 
 4502000   0.52599078   -4.5501566    2086.5677  0.038622977  0.037590624           12 
 4503000   0.53739953   -4.5432932    2091.6025  0.038707575   0.03758117           17 
 4504000   0.53226987   -4.5423733    2086.8292  0.038610665   0.03757174           58 
 4505000   0.53572446   -4.5432025    2090.0409  0.038661504  0.037562316           48 
 4506000   0.54226332   -4.5314378    2088.3175  0.038621052  0.037552869           35 
 4507000   0.54128342   -4.5510081    2082.2047  0.038499459  0.037543426           43 
 4508000   0.52793855   -4.5363982    2086.8653  0.038577073   0.03753399           41 
 4509000   0.53540616   -4.5341268    2090.3412  0.038632757   0.03752456           47 
 4510000   0.51534905   -4.5425076    2092.0773   0.03865627  0.037515184           22 
 4511000   0.54071214   -4.5468134    2091.1385  0.038630357  0.037505824           16 
 4512000   0.52223859   -4.5353198    2093.1063   0.03865814  0.037496425           30 
 4513000    0.5284711   -4.5455448    2094.2284  0.038670294  0.037487007           24 
 4514000   0.53399688   -4.5241668    2090.8823  0.038599954  0.037477657           34 
 4515000    0.5356195   -4.5502295    2088.2646   0.03854309  0.037468263           36 
 4516000   0.53050632   -4.5278521    2085.9408  0.038491674  0.037458829           53 
 4517000   0.52333557   -4.5352567    2086.8524  0.038499971  0.037449428           48 
 4518000   0.52354554   -4.5253924    2087.7363  0.038507753  0.037440008           26 
 4519000    0.5374823   -4.5459198    2084.4682  0.038438964  0.037430637           19 
 4520000    0.5264792   -4.5447101    2089.4519  0.038522344  0.037421235           13 
 4521000    0.5265319   -4.5406524    2090.6928  0.038536695  0.037411847           14 
 4522000    0.5282729   -4.5475254      2089.76  0.038510983  0.037402433           11 
 4523000   0.53229836   -4.5389955    2091.2156  0.038529286   0.03739303           21 
 4524000   0.52432973   -4.5466094     2090.861  0.038514239   0.03738365           37 
 4525000   0.52598018   -4.5498651    2093.4201  0.038552857  0.037374269           38 
 4526000   0.52579067   -4.5497743    2086.0572  0.038408771  0.037364883           24 
 4527000   0.51964583   -4.5532795    2091.8067  0.038506124  0.037355492           18 
 4528000   0.51448394   -4.5348647    2089.7955  0.038460606  0.037346095            9 
 4529000   0.52499349   -4.5493295    2087.7394  0.038414283  0.037336716           45 
 4530000   0.52846971   -4.5508572     2085.918  0.038372297  0.037327302           91 
 4531000   0.52845725   -4.5731685    2085.1501  0.038349704  0.037317889           33 
 4532000   0.52872126   -4.5466187    2085.6865  0.038351106  0.037308479           18 
 4533000   0.53680157   -4.5391497    2089.7288  0.038416958   0.03729907           23 
 4534000   0.52830888   -4.5444698    2087.4975  0.038367473  0.037289709           17 
 4535000   0.52237007   -4.5521054    2089.8286  0.038401849  0.037280323           49 
 4536000   0.51468207    -4.522995    2088.3534  0.038366281   0.03727094           20 
 4537000   0.53055476   -4.5356455    2092.1864  0.038428227  0.037261596           17 
 4538000   0.53054365   -4.5509303     2084.522  0.038279014  0.037252218           20 
 4539000   0.52148282   -4.5535338    2087.0897  0.038317722   0.03724282           16 
 4540000   0.52830638   -4.5615596    2087.6637  0.038319817  0.037233443           18 
 4541000   0.51694401   -4.5419498    2090.7666  0.038368321  0.037224079           20 
 4542000   0.51906163   -4.5454197    2087.9828    0.0383088  0.037214723            7 
 4543000   0.53290981   -4.5384598    2089.8127  0.038333933  0.037205373           26 
 4544000   0.52396265   -4.5587587     2088.997  0.038310538  0.037196004           18 
 4545000   0.52227104   -4.5568631    2086.5027  0.038256374  0.037186644           15 
 4546000   0.52968575    -4.550651    2090.3969  0.038319346  0.037177314           11 
 4547000   0.51735718   -4.5534277    2088.8993  0.038283471  0.037167993           16 
 4548000   0.54063594   -4.5577985    2091.2831  0.038318732  0.037158662           11 
 4549000    0.5294774   -4.5457639    2090.0523  0.038287761  0.037149354           10 
 4550000   0.52848713   -4.5388258    2095.7988  0.038384594  0.037140056           12 
 4551000   0.52480181   -4.5602265    2091.3689  0.038295044  0.037130755           15 
 4552000    0.5223876   -4.5383406     2091.778  0.038294121   0.03712147           18 
 4553000   0.51279401   -4.5437613    2095.7722  0.038358815  0.037112185           21 
 4554000   0.53029498    -4.561667    2095.2946  0.038341651  0.037102903            8 
 4555000   0.54321783   -4.5579996    2093.0875  0.038292855  0.037093604           11 
 4556000   0.52421667   -4.5387766    2092.1016  0.038266417  0.037084322            4 
 4557000   0.52204317    -4.564654    2091.2541  0.038242522  0.037075033           15 
 4558000   0.52432603   -4.5639465     2082.905  0.038081488  0.037065697           23 
 4559000   0.51534596   -4.5373965    2090.1881  0.038206261  0.037056379           13 
 4560000   0.53519504   -4.5599499    2090.7797  0.038208694  0.037047085           17 
 4561000   0.51915678   -4.5555204    2087.0863  0.038132834   0.03703777           20 
 4562000   0.52246006   -4.5667493    2090.2193  0.038181706  0.037028458           17 
 4563000   0.52233254   -4.5411626    2092.6207  0.038217194  0.037019157           24 
 4564000   0.52077275   -4.5460281     2088.564   0.03813475  0.037009869           11 
 4565000   0.52722771   -4.5603046    2088.8843  0.038132243  0.037000549           13 
 4566000   0.51915907   -4.5647976    2091.3985  0.038169779  0.036991211           47 
 4567000   0.52746661   -4.5672507    2093.9887  0.038208684  0.036981862           16 
 4568000   0.51976858   -4.5615321    2091.0453  0.038146622  0.036972556           23 
 4569000   0.53270824   -4.5619466    2087.6114  0.038075644  0.036963226           25 
 4570000   0.51163108   -4.5541083    2091.9875   0.03814711  0.036953928           11 
 4571000   0.51939881   -4.5341474    2090.5104  0.038111835  0.036944656            9 
 4572000   0.52572348    -4.544926    2090.6134  0.038105377  0.036935338           14 
 4573000   0.52348258   -4.5747053    2092.4643  0.038130774  0.036926022           12 
 4574000   0.52783518   -4.5525692    2093.5464  0.038142152   0.03691673           13 
 4575000   0.51290347   -4.5529774    2092.4168  0.038113238   0.03690744           19 
 4576000   0.52231708   -4.5542965    2091.1813   0.03808241  0.036898161           31 
 4577000   0.50471174   -4.5522629    2092.8227  0.038103975  0.036888883           24 
 4578000   0.52844683   -4.5749322    2087.1261  0.037991956  0.036879605           25 
 4579000   0.50620729   -4.5572298    2093.3238  0.038096451  0.036870368           14 
 4580000   0.52646591   -4.5414485    2094.7863  0.038114743  0.036861146           12 
 4581000   0.52266542   -4.5794283     2094.753  0.038105817  0.036851894           16 
 4582000   0.51612324   -4.5601278    2090.1194   0.03801323  0.036842631           43 
 4583000   0.51487738   -4.5876987    2086.0368    0.0379307  0.036833346           14 
 4584000   0.52681042   -4.5608179    2092.9619  0.038048318  0.036824052           26 
 4585000   0.52409433   -4.5575375    2089.1405  0.037970566  0.036814774           13 
 4586000   0.50992901   -4.5591558     2091.368  0.038002761  0.036805494           24 
 4587000   0.50537207   -4.5666472     2089.759  0.037965245  0.036796207            5 
 4588000   0.52114352   -4.5451905    2090.1461  0.037964002  0.036786939           21 
 4589000   0.50973891    -4.553841    2094.1886  0.038029139  0.036777721           19 
 4590000   0.51334259   -4.5585461    2092.9553  0.037998463  0.036768512           13 
 4591000   0.51210952   -4.5598416    2092.2767  0.037977868  0.036759269           23 
 4592000   0.51256534   -4.5893075    2090.5823  0.037938849  0.036750002           23 
 4593000   0.51798168   -4.5679484    2089.8679  0.037917626  0.036740731           14 
 4594000   0.51756431   -4.5869091    2087.4427  0.037865381  0.036731473           12 
 4595000   0.51491448   -4.5509787    2090.5018  0.037912618  0.036722242           12 
 4596000   0.52150022   -4.5753017    2093.8844  0.037965703  0.036713027           38 
 4597000   0.52142874   -4.5688904    2089.6109  0.037879975  0.036703806           18 
 4598000   0.51148903   -4.5791502    2091.2785   0.03790196  0.036694576           23 
 4599000    0.5143845   -4.5742175    2089.9211  0.037869121  0.036685327           11 
 4600000   0.51460842   -4.5788014    2087.3343  0.037814027   0.03667608           18 
 4601000   0.51630932   -4.5843381    2089.3671  0.037842627  0.036666862           38 
 4602000   0.50843186   -4.5700422    2090.9145  0.037862425  0.036657626           11 
 4603000   0.50661814   -4.5670463    2090.9331  0.037854534  0.036648407           19 
 4604000   0.51313916   -4.5715995      2093.62  0.037894946  0.036639209           22 
 4605000   0.51430003   -4.5863857    2095.4932  0.037920615  0.036630018           19 
 4606000   0.50954108   -4.5693662    2092.5357  0.037858875  0.036620818           23 
 4607000   0.51213563   -4.5631338    2097.9689  0.037948934  0.036611646           14 
 4608000    0.5159454   -4.5764466    2090.6521  0.037808379  0.036602467           12 
 4609000   0.51129612   -4.5633345    2091.3773  0.037813287  0.036593297           12 
 4610000   0.52622975   -4.5810059    2087.2074  0.037729707  0.036584103           34 
 4611000   0.52333743   -4.5710285    2096.3725  0.037887163  0.036574919           17 
 4612000   0.52651893   -4.5859089    2090.6518  0.037775582  0.036565722           14 
 4613000   0.50805479   -4.5689612    2096.7547  0.037877641  0.036556543           23 
 4614000   0.51372815   -4.5606964    2095.6479  0.037849441  0.036547372           23 
 4615000   0.50971093   -4.5747974    2089.5137  0.037730475   0.03653821           32 
 4616000   0.50584957   -4.5783623    2092.4889  0.037776013  0.036529037           26 
 4617000   0.51671237   -4.5835428    2088.2145  0.037690681  0.036519867           47 
 4618000   0.50545081   -4.5881306    2089.1468  0.037699344  0.036510679           20 
 4619000   0.51262722    -4.602564    2094.4125  0.037786182  0.036501479           25 
 4620000   0.51647055   -4.5768658      2092.22  0.037738455  0.036492315           32 
 4621000   0.52000221   -4.5941695     2089.103  0.037674079  0.036483162           29 
 4622000   0.51161558   -4.5731039    2090.7033   0.03769478   0.03647397           20 
 4623000   0.52133781     -4.59171    2093.3655  0.037734615  0.036464794           16 
 4624000   0.51934739   -4.5469688     2090.539  0.037675516  0.036455648           48 
 4625000   0.50472433   -4.5578271    2098.4293  0.037809538  0.036446503           24 
 4626000   0.51700683   -4.5820179    2089.5517  0.037641441  0.036437313           25 
 4627000   0.51704239    -4.584737    2091.7783  0.037673407  0.036428127           23 
 4628000   0.51605802   -4.5674175    2094.2261  0.037709343  0.036418951           15 
 4629000   0.51189822   -4.5860873    2089.6109  0.037618113   0.03640978           21 
 4630000   0.51175021   -4.5859288    2091.0568  0.037636012  0.036400634           21 
 4631000   0.50755704   -4.5829084    2087.1362  0.037557334  0.036391493           40 
 4632000    0.5110058   -4.5860868    2094.9942  0.037690597   0.03638233           21 
 4633000   0.50900992   -4.5942125    2086.2297  0.037524817  0.036373165           12 
 4634000   0.50137635   -4.5778478    2094.6631  0.037668377     0.036364           14 
 4635000   0.51059445   -4.5866962    2091.2107  0.037598178  0.036354861           17 
 4636000   0.51568895   -4.5781595    2089.6227  0.037561524   0.03634573           11 
 4637000   0.51252763   -4.5692735    2093.6719  0.037626194  0.036336582           17 
 4638000   0.49653653   -4.6035593    2089.9582  0.037551355   0.03632743           11 
 4639000   0.50762767   -4.5810476    2091.6314  0.037573317  0.036318275           24 
 4640000   0.51645648   -4.5877185     2093.283  0.037594881  0.036309125           58 
 4641000   0.50599442   -4.5753798    2098.1866  0.037674829   0.03629998           31 
 4642000   0.51711291    -4.590925    2092.0707  0.037556921  0.036290856           18 
 4643000    0.5073394   -4.5865275    2092.2885  0.037552741  0.036281704           32 
 4644000   0.49838675    -4.592672    2089.9664  0.037502986  0.036272545           44 
 4645000   0.49885445   -4.5752982     2087.784  0.037455759   0.03626339           18 
 4646000   0.50316423   -4.5712378    2095.2571  0.037581738  0.036254247           46 
 4647000    0.5023021   -4.5898724    2089.4192  0.037468961  0.036245128           26 
 4648000   0.51267449   -4.5793295    2092.0759  0.037508532  0.036236003           19 
 4649000   0.50849264   -4.5822503    2089.8682  0.037460892  0.036226895           16 
 4650000   0.49964035   -4.5833854    2090.5107  0.037464349  0.036217782           44 
 4651000   0.50376553   -4.5894629    2087.9972  0.037411259  0.036208642           67 
 4652000   0.51052121   -4.5808913    2091.3944  0.037464072  0.036199533           64 
 4653000   0.50482081   -4.5822374    2091.2078   0.03745268  0.036190398           22 
 4654000   0.52177381   -4.5789138    2090.3545  0.037429353  0.036181273           45 
 4655000   0.51157898   -4.5910878    2094.0336  0.037487174  0.036172152           33 
 4656000    0.5096495   -4.5904944    2088.9035  0.037387304  0.036162983           21 
 4657000   0.50695164   -4.5871766    2087.9723  0.037362613   0.03615385           22 
 4658000   0.50503733   -4.6084019    2090.8604  0.037406262  0.036144725           22 
 4659000   0.50757349    -4.596438    2089.6359   0.03737633  0.036135619           37 
 4660000    0.5016392   -4.5795286     2094.843  0.037461427  0.036126489           21 
 4661000   0.51331569   -4.5843426    2091.0683  0.037385903  0.036117387           14 
 4662000   0.50684579   -4.5919849    2095.7677  0.037461885   0.03610828           14 
 4663000   0.50780008   -4.5930982     2091.238  0.037372899  0.036099174           10 
 4664000   0.50273187   -4.5817621    2088.3517  0.037313317  0.036090057           12 
 4665000   0.51549573   -4.6029534    2091.2706   0.03735746  0.036080937           21 
 4666000   0.50214227   -4.5989173    2088.1976  0.037294571  0.036071793           22 
 4667000   0.50512883   -4.5939162    2089.0543  0.037301877  0.036062668           26 
 4668000   0.51519521   -4.5946621     2093.151  0.037367019  0.036053555           75 
 4669000   0.51220114   -4.5965438    2087.8672   0.03726471  0.036044438           36 
 4670000   0.51190609    -4.577134    2094.4021  0.037373343  0.036035318           53 
 4671000   0.51155692   -4.5860731    2086.9013  0.037231523  0.036026197           42 
 4672000   0.51551341   -4.5933249    2087.7415   0.03723854  0.036017064           18 
 4673000   0.49593642   -4.6005408    2091.5072  0.037297724  0.036007932           24 
 4674000    0.4976012   -4.5840878    2090.2298  0.037266969  0.035998812           22 
 4675000   0.50965688    -4.583869    2090.6229  0.037266005  0.035989716           27 
 4676000   0.50778946   -4.5938716    2089.5578  0.037239054  0.035980602           19 
 4677000   0.51003835   -4.6106304    2093.1482  0.037295064  0.035971464           17 
 4678000   0.50425661   -4.5947827    2088.1755   0.03719851  0.035962329           22 
 4679000   0.51442309   -4.5952628     2093.848  0.037291587   0.03595317           14 
 4680000   0.50031314   -4.6084078    2089.0547  0.037198267  0.035944023           15 
 4681000   0.50132434   -4.5720212    2095.3153  0.037301774  0.035934902           17 
 4682000    0.5028902   -4.6041078    2090.5871  0.037209651  0.035925803           17 
 4683000   0.50062647   -4.5972759    2088.5528  0.037165506  0.035916711           16 
 4684000   0.49420208   -4.5915041    2087.5068  0.037138962   0.03590759           21 
 4685000   0.49656273   -4.6014458    2087.9086  0.037138181  0.035898453           35 
 4686000   0.48871279   -4.5923094    2092.9726  0.037220312   0.03588933           40 
 4687000   0.50640422   -4.5873427    2092.2773  0.037200008  0.035880206           50 
 4688000   0.48908238   -4.5798138    2088.0596    0.0371171  0.035871131           16 
 4689000   0.49425408   -4.5777199    2092.1699  0.037182233  0.035862041           18 
 4690000   0.50262574   -4.5798123      2087.93  0.037098969  0.035852956           14 
 4691000   0.50786017   -4.6061955    2092.8536  0.037178526  0.035843863           27 
 4692000   0.50004677   -4.6017566    2082.5707   0.03698797  0.035834802           13 
 4693000   0.50164422   -4.6200957    2087.1486  0.037061378  0.035825716           54 
 4694000   0.49526292   -4.5812343    2093.6936  0.037169678  0.035816646           34 
 4695000   0.49169994   -4.6142722    2091.2098  0.037117675  0.035807585           27 
 4696000   0.49129026   -4.5955456    2090.8834  0.037103978  0.035798543           17 
 4697000     0.501816   -4.5988565    2089.4269  0.037070238   0.03578948           10 
 4698000   0.50080637    -4.608652    2090.0775  0.037073887  0.035780394           12 
 4699000   0.50312895   -4.6062679    2092.2148  0.037103901  0.035771341           25 
 4700000   0.49689083    -4.579305    2090.0803  0.037058162  0.035762277           15 
 4701000   0.49326107   -4.6131165    2095.0699  0.037138727  0.035753241           16 
 4702000   0.49299483   -4.5924268    2090.1777  0.037044125  0.035744186           29 
 4703000   0.49353476   -4.6019293    2095.4347  0.037129398  0.035735157           21 
 4704000   0.48985368   -4.5959243    2090.8508    0.0370403  0.035726144           28 
 4705000     0.509975   -4.5936406    2096.9261   0.03714003  0.035717159           16 
 4706000   0.50019831   -4.6028774    2086.5659   0.03694868  0.035708154           24 
 4707000   0.50322545   -4.6034888    2091.2352  0.037023496  0.035699144           14 
 4708000   0.51121407   -4.5804515    2096.3611  0.037106364   0.03569016           26 
 4709000     0.493995   -4.5845848    2088.5226  0.036959769   0.03568118           26 
 4710000   0.49362948   -4.5786795    2091.3111  0.037001257  0.035672191           12 
 4711000   0.50046375   -4.6104422     2095.124  0.037060851  0.035663173           13 
 4712000   0.49302433   -4.6026557    2087.5143  0.036918405   0.03565412           27 
 4713000   0.49990175    -4.624997    2088.2205  0.036923058  0.035645062           29 
 4714000   0.50939132   -4.6068281    2088.9631  0.036928354  0.035636025           63 
 4715000   0.49733627   -4.6073979    2088.5731  0.036913628  0.035626986           53 
 4716000   0.48381476   -4.5979895     2088.874  0.036911118  0.035617934           66 
 4717000   0.50486068   -4.6194124    2096.5408  0.037038739  0.035608899           37 
 4718000   0.50693778   -4.6300795    2087.6166  0.036873263  0.035599824           24 
 4719000   0.50283663   -4.6168189    2086.4441  0.036844743  0.035590757           17 
 4720000   0.49309094   -4.6120412    2090.3323  0.036905585  0.035581706           12 
 4721000   0.49751444   -4.6014209     2089.905  0.036890225  0.035572666            9 
 4722000   0.50562336   -4.6256146    2089.1131  0.036868436  0.035563631           17 
 4723000   0.50634875   -4.6135163    2087.9062  0.036839336  0.035554554           20 
 4724000    0.4902492   -4.5929849    2086.6636  0.036809617   0.03554552           29 
 4725000    0.4938329   -4.5943164    2091.2832  0.036883302   0.03553649           16 
 4726000    0.5022692    -4.601882    2091.0265  0.036870971  0.035527461           10 
 4727000   0.49577382   -4.6183297    2087.5701  0.036802238  0.035518433           18 
 4728000   0.50645517   -4.6208641    2091.8423  0.036869753  0.035509361           32 
 4729000   0.49760146   -4.6003299    2092.1127  0.036866721  0.035500333           11 
 4730000   0.49068048   -4.6114052    2088.8881  0.036802117  0.035491275           18 
 4731000   0.49169164    -4.626379    2086.7622   0.03675689  0.035482238           34 
 4732000   0.49061675   -4.6235199    2085.3734  0.036724665  0.035473151           24 
 4733000   0.48844079   -4.6143721    2092.9993  0.036851174  0.035464076           41 
 4734000   0.49191258   -4.6076393    2091.4996   0.03681699   0.03545505           11 
 4735000   0.49610651   -4.6173089    2092.8727  0.036833381  0.035446017           16 
 4736000   0.48553747   -4.6194485     2089.442  0.036765237  0.035436967           15 
 4737000   0.49494739    -4.624603    2088.6713  0.036743918  0.035427915           14 
 4738000   0.49298503    -4.617194    2089.5514  0.036751643  0.035418883           13 
 4739000   0.49409814   -4.6223688    2090.0594   0.03675282  0.035409841           10 
 4740000   0.47751287   -4.6200586     2088.261   0.03671345  0.035400817           45 
 4741000   0.49573719   -4.6191726    2086.6053  0.036676603  0.035391764            9 
 4742000   0.49179922    -4.618238    2091.0909  0.036747696  0.035382757           19 
 4743000   0.50292623   -4.6002254    2090.3434  0.036726814  0.035373749           41 
 4744000   0.49187733   -4.6114035     2088.963  0.036694826  0.035364737           35 
 4745000   0.49624719   -4.6149167    2087.5453  0.036662193  0.035355715           26 
 4746000   0.50413554   -4.6126168    2090.0181  0.036697887    0.0353467           26 
 4747000   0.49589836   -4.6171918    2089.1943  0.036675695    0.0353377           32 
 4748000   0.48694201   -4.6045291    2090.3325  0.036687948  0.035328709           19 
 4749000   0.49540588   -4.6101281    2092.5268  0.036718727  0.035319718           36 
 4750000   0.49150712   -4.6121712    2089.8087   0.03666331  0.035310721           67 
 4751000   0.49262185   -4.6472013     2085.465  0.036579404  0.035301689           31 
 4752000   0.48130832   -4.6420592    2086.2389  0.036585278  0.035292659           23 
 4753000   0.49259608   -4.6386296    2084.0807  0.036539742  0.035283653           27 
 4754000   0.48860155   -4.6231186    2089.7688  0.036631763  0.035274683           40 
 4755000   0.48466527   -4.6089391    2087.2922  0.036580656  0.035265731           29 
 4756000   0.49377444   -4.6180386     2090.563  0.036630275  0.035256797           57 
 4757000   0.49351917   -4.6211487    2088.2009  0.036581194  0.035247844           37 
 4758000   0.48019533   -4.6371976    2091.7961  0.036636474  0.035238882           26 
 4759000   0.49329519    -4.615281    2090.1911  0.036600671  0.035229885           23 
 4760000   0.48828665   -4.6261233    2089.9208  0.036588249  0.035220901           51 
 4761000   0.48305439   -4.6389045    2091.0914  0.036601055  0.035211921           25 
 4762000   0.49523516   -4.6329726    2084.7617    0.0364826  0.035202917           35 
 4763000    0.4756287   -4.6419161    2088.6592  0.036543131  0.035193918           17 
 4764000   0.49661136   -4.6214971     2086.451  0.036496833  0.035184916           36 
 4765000   0.48889451   -4.6358294    2087.2594  0.036503313  0.035175928           54 
 4766000   0.48481377   -4.6341811    2088.8932   0.03652422  0.035166966           28 
 4767000   0.48928824   -4.6277279    2088.7209  0.036513546  0.035157997           16 
 4768000   0.47940381   -4.6023081    2086.8971  0.036474013  0.035149021           42 
 4769000   0.49518805   -4.6316186    2087.9663  0.036485048  0.035140034          102 
 4770000   0.49191881    -4.624175     2088.356  0.036484207  0.035131029           42 
 4771000   0.50152518   -4.6036494    2092.1528  0.036542877   0.03512206           58 
 4772000   0.48951881    -4.630088    2093.3987  0.036556976  0.035113108           20 
 4773000   0.48596675   -4.6302338    2088.5284  0.036464286  0.035104174           20 
 4774000   0.47965673   -4.6375717     2096.371  0.036593545  0.035095234           24 
 4775000   0.48366852   -4.6296486    2090.2147  0.036478441  0.035086299           43 
 4776000   0.48911886   -4.6187287    2088.5607  0.036441945  0.035077369           32 
 4777000   0.48507184   -4.6219245    2092.1631  0.036497158  0.035068432           33 
 4778000   0.48895226   -4.6306734    2089.8193  0.036448642  0.035059484           15 
 4779000   0.48179852   -4.6303866    2087.1247  0.036394028  0.035050533           33 
 4780000   0.48387459   -4.6355851     2085.794  0.036363215  0.035041596           15 
 4781000   0.49688579   -4.6428199    2089.1982  0.036414944  0.035032597           36 
 4782000   0.48266052   -4.6384241    2085.5436  0.036343643  0.035023636           27 
 4783000    0.5002219   -4.6227527    2090.5542  0.036423342  0.035014707           32 
 4784000   0.48469064   -4.6216627    2090.9352  0.036422367  0.035005775           23 
 4785000   0.48735709   -4.6355466    2088.4824  0.036372037  0.034996823           49 
 4786000   0.48315147   -4.6468619    2090.7145  0.036403303  0.034987874           30 
 4787000   0.48859131   -4.6432532    2085.7368  0.036309045  0.034978924           78 
 4788000   0.49373998    -4.635589    2089.5052   0.03636705  0.034969988           18 
 4789000    0.4804613   -4.6108817    2089.8499  0.036365454  0.034961092           43 
 4790000   0.48051135   -4.6224125    2092.8083  0.036409331  0.034952202           14 
 4791000    0.4790653   -4.6315989    2089.2335  0.036339551  0.034943311           11 
 4792000   0.48738048   -4.6466813    2093.1325  0.036399773  0.034934422           12 
 4793000   0.48209214   -4.6328352    2090.6224  0.036348535  0.034925509           30 
 4794000   0.48595496    -4.638306    2093.4924  0.036390843  0.034916646           14 
 4795000   0.47987633   -4.6416822    2088.5829   0.03629793  0.034907767           26 
 4796000   0.48650877   -4.6298984    2090.8092  0.036329044  0.034898881           24 
 4797000    0.4987801   -4.6251867    2092.1418  0.036344622  0.034890011           22 
 4798000   0.48162852   -4.6293731    2090.7436  0.036312762  0.034881132           30 
 4799000   0.48256489   -4.6402944    2089.7412  0.036287789  0.034872275           15 
 4800000   0.49017442    -4.627487    2095.3453  0.036377523  0.034863392           15 
 4801000   0.48907106   -4.6534256    2088.9035  0.036258132  0.034854526           27 
 4802000   0.48052062   -4.6414905    2094.8814   0.03635432  0.034845649           22 
 4803000   0.47604823   -4.6320844    2091.7054  0.036291647  0.034836782           24 
 4804000   0.47893998   -4.6579457    2086.2866  0.036190095  0.034827926           33 
 4805000   0.49177134    -4.625027    2086.9415  0.036193921   0.03481905            9 
 4806000   0.48206246    -4.639842    2090.4113  0.036246554  0.034810181           14 
 4807000   0.48693208   -4.6394517    2095.0805  0.036319959  0.034801315           69 
 4808000   0.48587216   -4.6405627    2088.1615  0.036192482   0.03479245           34 
 4809000   0.48182311    -4.634364    2091.9821  0.036251162  0.034783567           15 
 4810000   0.48563032   -4.6392421     2092.253   0.03624832  0.034774723           25 
 4811000   0.48154302   -4.6290059    2089.7526  0.036197474  0.034765866           25 
 4812000   0.47608361   -4.6471514    2088.8997  0.036175182  0.034756984           50 
 4813000   0.48422743   -4.6413928    2088.4059  0.036159115  0.034748111           52 
 4814000   0.48404817   -4.6346861    2088.2642  0.036149152  0.034739257           13 
 4815000   0.47346244    -4.627149     2092.114  0.036208273  0.034730424           27 
 4816000    0.4824618   -4.6315931    2092.3745  0.036205263  0.034721613           15 
 4817000     0.491762   -4.6338405    2093.3859  0.036215243  0.034712824           26 
 4818000   0.48166281   -4.6360372    2089.6137  0.036142482  0.034704023           23 
 4819000   0.48051707   -4.6468926    2094.1723  0.036213811   0.03469522           11 
 4820000   0.48533162   -4.6224723    2093.1977  0.036189448  0.034686423           13 
 4821000    0.4825728   -4.6362598    2090.4505  0.036134455   0.03467763           17 
 4822000    0.4851511    -4.627075    2091.9003  0.036152017  0.034668817           17 
 4823000   0.47774431   -4.6372447    2089.7011  0.036106523  0.034660012           25 
 4824000   0.47673023    -4.655456    2088.5436  0.036079042  0.034651187           38 
 4825000   0.48010649   -4.6439032    2086.5946  0.036037903  0.034642341           55 
 4826000   0.46780086   -4.6463557    2084.4823  0.035993962  0.034633503           38 
 4827000   0.47689883   -4.6448664    2088.4147  0.036054393   0.03462468           49 
 4828000   0.48693291   -4.6551372    2089.8374  0.036071483  0.034615855           39 
 4829000    0.4872276   -4.6623768    2091.3198  0.036089595  0.034607027           56 
 4830000   0.48234569   -4.6355541    2089.6376  0.036053099  0.034598191           50 
 4831000    0.4732271   -4.6503123     2090.355  0.036058011  0.034589352           48 
 4832000   0.48176182   -4.6468368    2089.5125  0.036036018  0.034580538           33 
 4833000   0.47941325   -4.6665799    2090.9036  0.036052549  0.034571694           32 
 4834000   0.47771713   -4.6590902    2087.0851  0.035979263  0.034562847           36 
 4835000   0.48678673   -4.6476609    2091.3942  0.036046091  0.034554015          104 
 4836000   0.47945505   -4.6549938    2089.3237  0.036002958  0.034545186           58 
 4837000   0.47897404   -4.6424641    2092.4996  0.036050231  0.034536399           80 
 4838000   0.48381283   -4.6403556    2090.6656  0.036011189   0.03452761           31 
 4839000   0.47287752   -4.6261158    2091.5307  0.036018645  0.034518814           36 
 4840000   0.48788143   -4.6525425    2091.0792  0.036003429  0.034510025           29 
 4841000   0.47072122    -4.655824    2091.9165  0.036010406  0.034501238           44 
 4842000   0.49382596   -4.6590543    2089.9185  0.035968582  0.034492436           36 
 4843000   0.47393237   -4.6419266    2087.6697  0.035922461  0.034483619           73 
 4844000   0.47647782   -4.6667706    2087.4019  0.035910438  0.034474789           47 
 4845000   0.48269638   -4.6572828    2090.6895  0.035959572  0.034465989           50 
 4846000   0.48710585   -4.6608735    2091.0377   0.03595814   0.03445719           37 
 4847000   0.47253016   -4.6367394    2091.3553   0.03595618    0.0344484           43 
 4848000   0.47660837   -4.6471035    2087.8519  0.035888544  0.034439631           31 
 4849000   0.46795701   -4.6573915    2091.9664  0.035951852  0.034430833           22 
 4850000   0.47906731   -4.6406196    2088.2814  0.035881123  0.034422034           36 
 4851000   0.47829738   -4.6708225    2088.5027  0.035877528  0.034413204           75 
 4852000   0.47111695   -4.6524256    2089.9941   0.03589575  0.034404384           39 
 4853000   0.48124224    -4.653939    2088.9178  0.035869871  0.034395576           54 
 4854000    0.4684903   -4.6611364     2085.133  0.035797503   0.03438679          103 
 4855000   0.47422759   -4.6419908    2090.6819  0.035885375  0.034377989           93 
 4856000   0.48189665    -4.665291    2091.1845  0.035886609  0.034369178          132 
 4857000   0.47980017   -4.6767028    2088.5592  0.035834177  0.034360377          100 
 4858000   0.47248776   -4.6621265     2092.986  0.035902737  0.034351566           40 
 4859000   0.47739152   -4.6688016    2090.0423  0.035844863  0.034342749           91 
 4860000   0.47707075   -4.6647761    2089.0951  0.035821246  0.034333952           49 
 4861000   0.46919488   -4.6805943    2087.3689  0.035784286  0.034325133           68 
 4862000   0.47012047   -4.6540331    2088.7519  0.035800629  0.034316321           70 
 4863000   0.46734756   -4.6513514    2095.2659  0.035904893  0.034307546           85 
 4864000   0.48024847   -4.6745934     2089.364  0.035796395  0.034298774           74 
 4865000    0.4809366   -4.6591523    2087.9965  0.035765613  0.034290015           61 
 4866000   0.46956475   -4.6543213    2091.2875  0.035814624  0.034281281           33 
 4867000   0.48023986   -4.6408415    2093.5059  0.035845248  0.034272567           47 
 4868000   0.47941954   -4.6466153    2089.1558  0.035763417  0.034263862          125 
 4869000   0.47247679    -4.650276    2088.9883  0.035753205  0.034255124           59 
 4870000   0.47486936   -4.6453132    2090.7878  0.035776657  0.034246401           35 
 4871000   0.48006805   -4.6555437    2090.9745  0.035772505  0.034237676           43 
 4872000   0.46064035   -4.6582026    2092.0208  0.035783059   0.03422897           54 
 4873000   0.46762699   -4.6612253    2086.1051  0.035674553  0.034220237           54 
 4874000   0.47448631   -4.6711198    2089.0323  0.035717281  0.034211504          136 
 4875000   0.47788597   -4.6575449    2092.6548  0.035771877   0.03420274           37 
 4876000   0.47609852   -4.6761367    2089.6042  0.035712405  0.034194004          104 
 4877000   0.46730705   -4.6782703    2085.9532  0.035642697  0.034185245          211 
 4878000   0.46988456   -4.6819069    2086.8906  0.035651405  0.034176477          105 
 4879000   0.45886905   -4.6708653    2086.3305  0.035634531  0.034167716           46 
 4880000   0.46485247   -4.6717617    2091.6089  0.035717365  0.034158973           64 
 4881000   0.46692966   -4.6821317     2086.338  0.035620057  0.034150218           78 
 4882000   0.47687488   -4.6633586    2085.1145  0.035591877  0.034141462          104 
 4883000   0.47951023   -4.6626505    2088.0486   0.03563466  0.034132701           90 
 4884000   0.47761663   -4.6758709    2085.6488  0.035586419  0.034123944           43 
 4885000   0.47646016   -4.6774824    2083.0916   0.03553551  0.034115191          119 
 4886000   0.47200055   -4.6659819    2087.7474  0.035607645  0.034106448           50 
 4887000   0.46728568    -4.669069    2083.6839  0.035531068  0.034097703           26 
 4888000   0.47422628   -4.6745868    2089.0494  0.035615271  0.034088951           71 
 4889000   0.47421895    -4.675239    2087.9778  0.035589722  0.034080182           58 
 4890000   0.47067211   -4.6676823    2090.4142  0.035623965  0.034071439           35 
 4891000   0.46290173   -4.6713919    2091.6012  0.035636904  0.034062689           65 
 4892000    0.4769119   -4.6806021    2088.5562  0.035577749  0.034053932           25 
 4893000   0.46740352   -4.6773522    2086.4642  0.035534848  0.034045198           41 
 4894000    0.4668099    -4.673126    2086.2303  0.035523605   0.03403645           42 
 4895000    0.4692354   -4.6889343     2086.209  0.035515985  0.034027681           52 
 4896000   0.45890162   -4.6774611    2085.8588   0.03550277  0.034018895           59 
 4897000   0.46268135   -4.6733372    2087.5517   0.03552433  0.034010133           55 
 4898000   0.46383298   -4.6788934    2085.1318  0.035475905  0.034001365           51 
 4899000    0.4728091   -4.6746191    2089.1583  0.035537155  0.033992625           86 
 4900000   0.46876534   -4.6783396    2090.2061  0.035547723  0.033983875           89 
 4901000   0.47215941   -4.6648573    2087.8942  0.035501159   0.03397516           55 
 4902000   0.46099446   -4.6864088    2088.1083  0.035497557  0.033966406           84 
 4903000    0.4726471   -4.6691764    2090.8337  0.035536639  0.033957685           77 
 4904000   0.46633738    -4.676401    2085.5168  0.035439042  0.033948954          123 
 4905000    0.4586453   -4.6721896    2088.9459  0.035490077  0.033940207          129 
 4906000   0.46209418   -4.6695028    2087.3799  0.035456242  0.033931491          110 
 4907000   0.45488028   -4.6866446    2089.9513  0.035492686   0.03392276          133 
 4908000   0.47042422   -4.6591874    2088.4901  0.035460644  0.033914024          104 
 4909000   0.45359947   -4.6611987    2086.8317  0.035425269   0.03390531          122 
 4910000   0.46130999   -4.6836962    2082.9962  0.035352956  0.033896581          143 
 4911000   0.46731625   -4.6883224    2081.3445  0.035317731  0.033887848           54 
 4912000   0.45725791   -4.6986927    2089.3406  0.035446197  0.033879114           59 
 4913000   0.46677981   -4.6753768    2082.2727  0.035319097  0.033870406           38 
 4914000   0.46542048   -4.6725598     2081.791  0.035303741  0.033861686           41 
 4915000   0.46358802   -4.6781738    2086.1831  0.035371026   0.03385297           27 
 4916000   0.47468954   -4.6753831     2090.036  0.035429144  0.033844257           45 
 4917000   0.47609127    -4.674894    2090.3294   0.03542691  0.033835558           17 
 4918000   0.46353148   -4.6666514    2087.9395   0.03537921  0.033826841           35 
 4919000   0.46344765   -4.6717173    2086.4598   0.03534695  0.033818142           27 
 4920000   0.47283312   -4.6799452    2088.1276  0.035368014  0.033809428           80 
 4921000   0.46059757   -4.6598879    2086.5837  0.035334683  0.033800716           32 
 4922000   0.46427515   -4.6729936    2084.9328  0.035299554  0.033792023           43 
 4923000   0.46118224   -4.6914162    2080.9906  0.035225652  0.033783304           29 
 4924000   0.46228401   -4.6845561    2082.8659  0.035250236   0.03377456           67 
 4925000   0.46730924   -4.6803745     2086.185  0.035299239  0.033765838           95 
 4926000   0.45861964   -4.6945352    2083.0732   0.03523943  0.033757131          104 
 4927000   0.46179587   -4.6801148    2087.4741  0.035306712  0.033748405           66 
 4928000   0.45912436   -4.6795497    2085.4697  0.035265654  0.033739685           20 
 4929000   0.45600385   -4.6662792    2083.3546  0.035222739  0.033730973           43 
 4930000   0.45593193   -4.6868199    2084.3886  0.035233072  0.033722259           24 
 4931000   0.46378917   -4.6737091    2082.8315  0.035199613  0.033713548           24 
 4932000   0.46202138   -4.6855494    2084.1941    0.0352155  0.033704816           39 
 4933000   0.47143122   -4.6829928    2090.6374  0.035317207  0.033696099           27 
 4934000   0.45664809   -4.6909903    2083.8336  0.035195136  0.033687387           14 
 4935000   0.46176667   -4.6847955      2084.84  0.035204998  0.033678668           28 
 4936000   0.45959535    -4.694991    2084.9839  0.035200295  0.033669967           27 
 4937000   0.47361532   -4.6963667    2084.2596   0.03518094  0.033661263           41 
 4938000   0.45454836   -4.6809725    2086.8135  0.035216915  0.033652539           64 
 4939000   0.46094195   -4.6865753     2085.968  0.035195519  0.033643821           50 
 4940000   0.46307646   -4.6869563    2084.0579  0.035156173  0.033635101           75 
 4941000   0.46366182   -4.6933993    2087.0952  0.035200283  0.033626378           58 
 4942000   0.45632784   -4.6948613    2082.2988  0.035112283  0.033617677           64 
 4943000   0.45994232   -4.6883284    2081.3001  0.035088342  0.033608955           24 
 4944000   0.46077349   -4.6979673    2082.4084  0.035099926   0.03360024           14 
 4945000   0.44529105   -4.6884005    2082.3312  0.035091526   0.03359153           45 
 4946000   0.45431244   -4.6825517    2083.2118  0.035099268  0.033582809           32 
 4947000   0.46536489   -4.6773696    2082.6977  0.035083513  0.033574124           45 
 4948000   0.45736151   -4.6773732    2086.4739  0.035140021   0.03356546           31 
 4949000   0.45942218   -4.6815797     2083.658  0.035085506  0.033556778           44 
 4950000   0.45502817   -4.6801655    2081.8312  0.035047663  0.033548072           38 
 4951000   0.46386962   -4.6913022    2084.9989  0.035093902  0.033539369           73 
 4952000   0.45207939    -4.695973    2081.1511  0.035022064  0.033530661           75 
 4953000   0.45575679   -4.6992719    2083.6432  0.035056922  0.033521964           45 
 4954000   0.45209787   -4.6837688    2084.5385  0.035064906  0.033513259           62 
 4955000     0.454604    -4.695826    2080.5472  0.034990703  0.033504566           36 
 4956000   0.45943456   -4.7038299    2084.8074  0.035055276  0.033495856          135 
 4957000   0.46500217   -4.6809736    2084.2345  0.035038573  0.033487189           40 
 4958000   0.46202142   -4.6995348    2083.9331   0.03502644  0.033478531           96 
 4959000    0.4547584   -4.6699659      2078.82  0.034933454  0.033469838           46 
 4960000   0.45927313   -4.6938417    2082.4796  0.034987897   0.03346114           67 
 4961000   0.46113784   -4.6974176    2077.3564  0.034894786   0.03345243           63 
 4962000   0.45037994   -4.7032247    2084.5328  0.035008277  0.033443739          159 
 4963000   0.46356617   -4.6786681    2079.6234   0.03491879  0.033435048          115 
 4964000    0.4589917   -4.7111192     2083.222  0.034972167  0.033426374           69 
 4965000   0.46152117   -4.7004619    2083.9224  0.034976878   0.03341771           53 
 4966000    0.4513794   -4.6868464    2082.0798  0.034938914  0.033409058           53 
 4967000   0.44982117   -4.7095305    2088.4111  0.035038103  0.033400387           50 
 4968000   0.45123618   -4.7121797    2081.2045  0.034910166  0.033391705           72 
 4969000   0.45254426   -4.7190131     2086.114  0.034985476  0.033383016          103 
 4970000   0.45913971   -4.7084306    2081.8331  0.034906658  0.033374325          169 
 4971000   0.44637784   -4.7120197    2080.5229  0.034877671   0.03336563          123 
 4972000   0.45497555   -4.7030437    2078.2939  0.034833298  0.033356953          143 
 4973000   0.45264671   -4.7096023    2079.8807  0.034852884  0.033348244          156 
 4974000   0.45690217   -4.7061019     2081.292  0.034869522  0.033339556          225 
 4975000   0.45744033    -4.717112    2081.7055  0.034869438  0.033330877          145 
 4976000   0.45327547   -4.7015334    2077.7724  0.034796564  0.033322176          121 
 4977000   0.45359326   -4.7097757    2077.2488  0.034780804  0.033313487          353 
 4978000   0.44163322    -4.692485    2082.1368  0.034855644  0.033304797          132 
 4979000   0.44843192   -4.7222487    2077.6124  0.034772919  0.033296115          200 
 4980000   0.45843664    -4.701256     2084.014  0.034873058  0.033287425          117 
 4981000   0.46437553   -4.6963383    2081.8547  0.034829932  0.033278755          126 
 4982000   0.46115089   -4.7217579    2078.7961   0.03477178  0.033270086          141 
 4983000   0.46404508   -4.6975646    2088.1695  0.034921559  0.033261428          275 
 4984000   0.44689207   -4.7047394    2078.7993   0.03475788   0.03325276          158 
 4985000   0.45784489   -4.7277867    2078.8961  0.034752527  0.033244078          189 
 4986000   0.45328902   -4.7158624    2085.0809  0.034848925  0.033235395          193 
 4987000   0.45706242   -4.6995141    2082.2973  0.034795424  0.033226719          196 
 4988000   0.45315077   -4.7200987    2082.4811  0.034791518   0.03321807          140 
 4989000   0.45073162   -4.7140626    2082.6666  0.034787642  0.033209393          142 
 4990000   0.44701302   -4.7143065    2083.0229  0.034786622  0.033200715          198 
 4991000   0.45317087   -4.7219023    2078.5886  0.034705614  0.033192041          147 
 4992000   0.45967496   -4.7098446    2084.1511  0.034791518  0.033183405          132 
 4993000   0.45662984   -4.7162555    2079.1943  0.034701821  0.033174743          296 
 4994000   0.44861942   -4.7056761    2079.1774   0.03469459   0.03316609          164 
 4995000   0.45841406   -4.7214684    2080.1897  0.034704532  0.033157434          184 
 4996000   0.44899999   -4.7233771    2080.6357  0.034705025  0.033148759          107 
 4997000   0.44551028   -4.7099927    2081.2761   0.03470876  0.033140112          149 
 4998000   0.45384704   -4.7121046     2080.251  0.034684723  0.033131464          136 
 4999000   0.45123756   -4.7023396    2078.8155  0.034653856  0.033122815          205 
 5000000   0.45830313    -4.719976    2079.9887  0.034666479  0.033114148          303 
 5001000   0.45164964   -4.7072686    2077.1359   0.03461201   0.03310549          114 
 5002000   0.44838959    -4.713791     2077.887  0.034617603  0.033096835          113 
 5003000   0.45838916   -4.7057687    2076.5503  0.034588418  0.033088186          311 
 5004000   0.44523994   -4.7104778    2082.2582  0.034676563  0.033079549          263 
 5005000    0.4445842   -4.7167459    2078.4022  0.034605431  0.033070892          157 
 5006000   0.44591664   -4.7257513     2076.642  0.034569218  0.033062233          309 
 5007000   0.44333241   -4.7055576    2080.8609   0.03463253  0.033053579          409 
 5008000   0.45599079   -4.7158208    2082.0378  0.034645197  0.033044947          142 
 5009000   0.44691141   -4.7090976    2078.1721  0.034573969  0.033036306          268 
 5010000   0.45259166   -4.7112392    2080.3837  0.034603855  0.033027665          214 
 5011000   0.44746935   -4.7292448    2081.7062  0.034618942   0.03301902          211 
 5012000    0.4513561   -4.7158774    2079.1448  0.034569446  0.033010382          278 
Loop time of 12580.3 on 48 procs for 5000000 steps with 4000 atoms

Performance: 68678.800 tau/day, 397.447 timesteps/s
99.4% CPU use with 48 MPI tasks x no OpenMP threads

MPI task timing breakdown:
Section |  min time  |  avg time  |  max time  |%varavg| %total
---------------------------------------------------------------
Pair    | 851.24     | 916.89     | 986.98     | 104.6 |  7.29
Neigh   | 83.277     | 86.432     | 89.292     |  16.8 |  0.69
Comm    | 791.85     | 864.58     | 942.42     | 117.4 |  6.87
Output  | 27.501     | 27.507     | 27.6       |   0.3 |  0.22
Modify  | 10551      | 10572      | 10597      |  10.3 | 84.03
Other   |            | 113.1      |            |       |  0.90

Nlocal:        83.3333 ave          89 max          73 min
Histogram: 1 0 0 3 4 11 11 5 8 5
Nghost:        2260.08 ave        2285 max        2238 min
Histogram: 3 3 3 11 9 6 1 6 4 2
Neighs:        15222.5 ave       17197 max       13119 min
Histogram: 1 2 2 10 6 11 10 3 2 1
FullNghs:      30444.8 ave       33274 max       26411 min
Histogram: 1 0 3 4 8 9 10 6 3 4

Total # of neighbors = 1461352
Ave neighs/atom = 365.33800
Neighbor list builds = 270230
Dangerous builds = 0

#clear
#
#next RN
#
#jump SELF
Total wall time: 3:29:43
