
units lj                  # Use reduced LJ style units
atom_style atomic         # Uncharged point particles
atom_modify map hash      # Needed for indexing of clusters etc
                          # Used to be able to find where atoms are in relation to each other.

lattice fcc 1.0 spacing 1 1 1
Lattice spacing in x,y,z = 1.5874011 1.5874011 1.5874011
region box block 0 10 0 10 0 10 units lattice
create_box 2 box
Created orthogonal box = (0.0000000 0.0000000 0.0000000) to (15.874011 15.874011 15.874011)
  3 by 4 by 4 MPI processor grid
create_atoms 1 box
Created 4000 atoms
  using lattice units in orthogonal box = (0.0000000 0.0000000 0.0000000) to (15.874011 15.874011 15.874011)
  create_atoms CPU = 0.003 seconds
set type 1 type/fraction 2 0.85 78393
Setting atom values ...
  3394 settings made for type/fraction
mass 1 1.0
mass 2 1.0
pair_style lj/cut  3.5
pair_modify tail  yes
pair_coeff 1  1  1.0  1.0   # Intearaction between 1 and 1 set with epsilon = 1 and sigma = 1
pair_coeff 1  2  1.5  0.8
pair_coeff 2  2  0.5  0.88

write_data data.0
System init for write_data ...
Neighbor list info ...
  update every 1 steps, delay 10 steps, check yes
  max neighbors/atom: 2000, page size: 100000
  master list distance cutoff = 3.8
  ghost atom cutoff = 3.8
  binsize = 1.9, bins = 9 9 9
  1 neighbor lists, perpetual/occasional/extra = 1 0 0
  (1) pair lj/cut, perpetual
      attributes: half, newton on
      pair build: half/bin/atomonly/newton
      stencil: half/bin/3d
      bin: standard
WARNING: Not all mixed pair coeffs generated from mixing. Use write_data with 'pair ij' option to store all pair coeffs. (../write_data.cpp:312)


#############################
#   M E L T   S Y S T E M   #
#############################

velocity all create 2.4 1741580 mom yes dist gaussian # Assign velocities
                                                    # Temperature 2.4, random number seed, zero linear momentum
                                                                                # Gaussian distribution

timestep 0.002   # simulation timestep
thermo 1000       # output thermodynamic data every 1000 steps bf 100

# Define a fix  in this case with index 1 applied to all
# particles in the simulation. This fix is for simulations
# in the anisotropic NPT ensemble. Note that we use the MTK
# correction.
fix 1 all npt temp 2.4 2.4 0.1 iso 5.68 5.68 0.5 mtk yes tchain 5 pchain 5 # Use NPT ensemble
                                                                         # Set temperature and pressure and damping
                                                                         # Numbers of thermostats in chain and in barostat
run 10000          # run for 10000 steps
Per MPI rank memory allocation (min/avg/max) = 3.642 | 3.644 | 3.648 Mbytes
Step Temp E_pair E_mol TotEng Press Volume 
       0          2.4   -3.4381692            0   0.16093083   -2.9520202         4000 
    1000    2.3817078   -2.6370165            0   0.93465214    5.7415267    3877.6618 
    2000    2.4345685   -2.6865581            0   0.96438164    5.6583733    3865.4744 
    3000    2.4191163   -2.6237432            0    1.0040241    5.7347078    3899.5933 
    4000    2.3850981   -2.6291414            0   0.94761131    5.8712657    3882.6002 
    5000    2.4064089   -2.6426064            0    0.9661045    5.7745069    3875.5641 
    6000    2.3948947   -2.6769879            0   0.91445617    5.4461817    3889.8808 
    7000    2.4105433   -2.6736146            0   0.94129645    5.7478664    3871.9791 
    8000    2.3672807   -2.6788605            0   0.87117274     5.568637    3861.4373 
    9000    2.4332423   -2.6554682            0   0.99348283    5.8118004    3858.8165 
   10000    2.4346922   -2.6702094            0   0.98091595    5.3903559    3905.9272 
Loop time of 2.61309 on 48 procs for 10000 steps with 4000 atoms

Performance: 661286.785 tau/day, 3826.891 timesteps/s
99.7% CPU use with 48 MPI tasks x no OpenMP threads

MPI task timing breakdown:
Section |  min time  |  avg time  |  max time  |%varavg| %total
---------------------------------------------------------------
Pair    | 1.0968     | 1.203      | 1.3259     |   4.1 | 46.04
Neigh   | 0.21049    | 0.21999    | 0.23476    |   1.3 |  8.42
Comm    | 0.80257    | 0.91595    | 1.0123     |   4.9 | 35.05
Output  | 0.00025378 | 0.00025869 | 0.00032862 |   0.0 |  0.01
Modify  | 0.23379    | 0.25837    | 0.28681    |   2.7 |  9.89
Other   |            | 0.01556    |            |       |  0.60

Nlocal:        83.3333 ave          93 max          73 min
Histogram: 2 1 8 9 4 4 3 5 5 7
Nghost:        1668.33 ave        1710 max        1631 min
Histogram: 2 5 8 5 5 7 7 1 6 2
Neighs:        9786.81 ave       11621 max        8199 min
Histogram: 2 6 7 5 6 8 2 9 1 2

Total # of neighbors = 469767
Ave neighs/atom = 117.44175
Neighbor list builds = 904
Dangerous builds = 190

# Equilibrate just above the melting temperature to avoid step fn in T

fix 1 all npt temp 1.25 1.25 0.1 iso 5.68 5.68 0.5 mtk yes tchain 5 pchain 5
run 2000
Per MPI rank memory allocation (min/avg/max) = 3.643 | 3.645 | 3.649 Mbytes
Step Temp E_pair E_mol TotEng Press Volume 
   10000    2.4346922   -2.6702094            0   0.98091595    5.3903559    3905.9272 
   11000    1.2684444   -3.9374041            0   -2.0352132    5.5224041    2998.4608 
   12000    1.2438618   -3.9045368            0   -2.0392106    5.9796155    2990.4063 
Loop time of 0.627739 on 48 procs for 2000 steps with 4000 atoms

Performance: 550547.680 tau/day, 3186.040 timesteps/s
99.7% CPU use with 48 MPI tasks x no OpenMP threads

MPI task timing breakdown:
Section |  min time  |  avg time  |  max time  |%varavg| %total
---------------------------------------------------------------
Pair    | 0.29068    | 0.30612    | 0.34049    |   1.7 | 48.76
Neigh   | 0.040554   | 0.042526   | 0.046826   |   0.6 |  6.77
Comm    | 0.19154    | 0.22969    | 0.24614    |   2.2 | 36.59
Output  | 5.2088e-05 | 5.4244e-05 | 7.0675e-05 |   0.0 |  0.01
Modify  | 0.039962   | 0.044397   | 0.048494   |   1.1 |  7.07
Other   |            | 0.004958   |            |       |  0.79

Nlocal:        83.3333 ave          89 max          77 min
Histogram: 3 2 3 4 7 13 2 6 6 2
Nghost:        1997.02 ave        2032 max        1976 min
Histogram: 5 5 10 6 7 8 5 0 1 1
Neighs:        12767.9 ave       14261 max       11663 min
Histogram: 4 4 7 5 10 8 5 2 2 1

Total # of neighbors = 612858
Ave neighs/atom = 153.21450
Neighbor list builds = 142
Dangerous builds = 10

#############################
# L I N E A R  Q U E N C H  #
#############################

# Define solid atoms. This closely follows ten Wolde  Ruiz-Montero and Frenkel  Faraday Discuss  1996  104  93-110
# Compute components of the per-atom q6 vector
compute q6 all orientorder/atom degrees 1 6 components 6 nnn NULL cutoff 1.3 # compute the Q6 parameter.
                                                                             # Use all neighbours within 1.3 unit cell.

# get number of connections
compute coord_number all coord/atom orientorder q6 0.5

# An atom is solid if it has 8 or more connections (of a possible 14)
variable is_solid atom c_coord_number>=8
group solid dynamic all var is_solid    # Must be dynamic to update
dynamic group solid defined

# do clustering
compute cluster solid cluster/atom 1.3 # Create a cluster where all atoms within are solid and max 1.3 units from another member

# define chunks one chunk per cluster
compute clus_chunks solid chunk/atom c_cluster nchunk every compress yes  # Says which atoms are in which chunk

# count the size of each chunk
compute size_chunks solid property/chunk clus_chunks count


# Find the maximum entry in the vector of chunk sizes
variable max_n equal max(c_size_chunks)


# Thermo style which includes this variable
# thermo_style custom step temp pe vol v_max_n

thermo ${N}  # Print the thermo information every 100 steps
thermo 1000  

# Reset the npt fix at a lower temperature (below freezing)
fix 1  all npt temp  ${temp} ${temp}  0.1  iso  5.68  5.68  0.5  mtk yes tchain  5  pchain  5
fix 1  all npt temp  0.45 ${temp}  0.1  iso  5.68  5.68  0.5  mtk yes tchain  5  pchain  5
fix 1  all npt temp  0.45 0.45  0.1  iso  5.68  5.68  0.5  mtk yes tchain  5  pchain  5

dump dmp2 all dcd ${N} traj.dcd
dump dmp2 all dcd 1000 traj.dcd


compute msd all msd com yes
variable twopoint equal c_msd[4]/6/(step*dt+1.0e-6)
fix 9 all vector 10 c_msd[4]
variable fit equal slope(f_9)/6/(10*dt)
thermo_style custom step temp pe c_msd[4] v_twopoint v_fit v_max_n

fix 1 all npt temp 1.25 ${temp} 0.1 iso 5.68 5.68 0.5 mtk yes tchain 5 pchain 5
fix 1 all npt temp 1.25 0.45 0.1 iso 5.68 5.68 0.5 mtk yes tchain 5 pchain 5
run 2000000 # 5000000  # Run for this many steps
Neighbor list info ...
  update every 1 steps, delay 10 steps, check yes
  max neighbors/atom: 2000, page size: 100000
  master list distance cutoff = 3.8
  ghost atom cutoff = 3.8
  binsize = 1.9, bins = 8 8 8
  4 neighbor lists, perpetual/occasional/extra = 1 3 0
  (1) pair lj/cut, perpetual
      attributes: half, newton on
      pair build: half/bin/atomonly/newton
      stencil: half/bin/3d
      bin: standard
  (2) compute orientorder/atom, occasional
      attributes: full, newton on
      pair build: full/bin/atomonly
      stencil: full/bin/3d
      bin: standard
  (3) compute coord/atom, occasional
      attributes: full, newton on
      pair build: full/bin/atomonly
      stencil: full/bin/3d
      bin: standard
  (4) compute cluster/atom, occasional
      attributes: full, newton on
      pair build: full/bin/atomonly
      stencil: full/bin/3d
      bin: standard
Per MPI rank memory allocation (min/avg/max) = 9.831 | 9.834 | 9.839 Mbytes
Step Temp PotEng c_msd[4] v_twopoint v_fit v_max_n 
   12000    1.2438618   -3.9045368 8.3382598e-31 5.7904579e-33 8.3333333e+20            2 
   13000    1.2285306   -3.8880085   0.89943127 0.0057655848  0.076103599            2 
   14000    1.2482469   -3.9306879     1.848603  0.011003589    0.0774616            2 
   15000    1.2340089   -3.8987085    2.8336258  0.015742365  0.078816778            1 
   16000    1.2491199   -3.9401831    3.7739635  0.019656059  0.079561268            2 
   17000    1.2544462    -3.939102    4.6818314  0.022950153  0.079158918            1 
   18000     1.245216   -3.8863592    5.6438887  0.026129114  0.078831953            2 
   19000    1.2305209    -3.937542    6.5485717  0.028721805  0.078817312            3 
   20000    1.2392531   -3.8861231    7.5961438  0.031650598  0.078895004            2 
   21000     1.258163   -3.9517196    8.4669725  0.033599097  0.079211937            1 
   22000    1.2747657   -3.8949903      9.40262  0.035615984  0.079059991            2 
   23000    1.2480405   -3.9215853    10.418608  0.037748578   0.07901749            2 
   24000    1.2407326   -3.9156091    11.265006  0.039114605   0.07882458            3 
   25000    1.2396813   -3.9389319    12.169657  0.040565522  0.078529474            2 
   26000    1.2526032   -3.9287712    13.028222  0.041757122  0.078264109            2 
   27000    1.2463747   -3.9478215    13.946887  0.043045947  0.078065159            1 
   28000    1.2371275    -3.929438    15.061086  0.044824659  0.078006499            1 
   29000     1.232551   -3.9549136    15.862035  0.045580559  0.078021297            4 
   30000    1.2176258   -3.9309457    16.850488  0.046806911  0.078067662            1 
   31000    1.2444331   -3.9146633    17.654958  0.047459563  0.077976733            1 
   32000    1.2381497   -3.9403778    18.637428  0.048534969  0.077903422            1 
   33000    1.2271234   -3.9250378    19.798511   0.04999624  0.078014649            1 
   34000    1.2489293   -3.9466434    20.698279  0.050731076  0.078103013            2 
   35000    1.2404002   -3.9279183     21.56362  0.051341951  0.078119808            5 
   36000    1.2485427   -3.9259555    22.558055   0.05221772  0.078143296            1 
   37000    1.2434395   -3.8951434    23.692685  0.053361903  0.078241346            1 
   38000    1.2208941   -3.8789671    24.670967  0.054102997  0.078346906            2 
   39000    1.2358202   -3.9249123    25.534354  0.054560584  0.078486364            2 
   40000     1.219763   -3.9478387    26.733009  0.055693768  0.078612819            2 
   41000    1.2324247   -3.9234598    27.487937   0.05586979  0.078726787            3 
   42000    1.2656923   -3.9547893    28.390115  0.056329592  0.078703971            2 
   43000    1.2153598   -3.9615817    29.275021  0.056734535  0.078764408            2 
   44000     1.219506   -3.9173645    30.303904  0.057393756  0.078795658            2 
   45000     1.205716   -3.9624472    31.287941  0.057940631  0.078832667            1 
   46000    1.2453826   -3.9284519    32.140237  0.058225066  0.078842542            1 
   47000    1.2295802   -3.9158185    33.030765  0.058565185  0.078821597            2 
   48000    1.2273255   -3.9566054    34.009902  0.059044967  0.078847667            1 
   49000    1.2565308   -3.9232992    35.205288  0.059872939  0.078906489            1 
   50000    1.2436729   -3.9453308    36.305399  0.060508998  0.078997855            1 
   51000    1.2406889    -3.937879    37.293316   0.06093679  0.079104296            1 
   52000    1.2564103   -3.9696748    37.911706  0.060755939  0.079197048            2 
   53000    1.2374616   -3.9367035    38.982335  0.061292979  0.079253013            1 
   54000     1.242497   -3.9474739    39.882253  0.061546687  0.079285677            1 
   55000    1.2595816    -3.936226    40.625221  0.061553365  0.079280855            2 
   56000     1.222379   -3.9436347     41.46135  0.061698437   0.07921507            2 
   57000    1.2169386   -3.9242488    42.187152  0.061677122  0.079144145            1 
   58000    1.2216431   -3.9311935    43.419315  0.062384073  0.079067552            1 
   59000    1.2384554   -3.9448353    44.444178  0.062774262  0.079045323            1 
   60000    1.2578345    -3.914492    45.200252  0.062778127  0.078999366            1 
   61000    1.2412506   -3.9319328    46.274724  0.063216835   0.07895399            2 
   62000    1.2630018   -3.9489936    47.325827  0.063609982   0.07894823            4 
   63000    1.2250631   -3.9847601    48.069152  0.063583534  0.078935797            3 
   64000    1.2267094   -3.9562646    49.239547  0.064113993  0.078940854            3 
   65000    1.2386064    -3.954142    50.162293  0.064310631  0.078951067            3 
   66000    1.2522611    -3.928008     50.93453  0.064311275  0.078936702            2 
   67000    1.2519128   -3.9792374     51.91304  0.064568457  0.078945968            2 
   68000    1.2195872   -3.9458529    53.229044  0.065231671  0.078954071            4 
   69000    1.2260842   -3.9281225    54.219461   0.06548244  0.078957497            2 
   70000    1.2339728    -3.949014    54.825386  0.065268317  0.078941492            1 
   71000    1.2314398    -3.912441    55.919344  0.065633033  0.078940818            4 
   72000    1.2383339   -3.9544251    56.495736  0.065388583  0.078920007            2 
   73000    1.2097657   -3.9744669    57.703641  0.065871736  0.078882341            2 
   74000    1.2326915   -3.9635609    58.482998  0.065859232  0.078872482            3 
   75000     1.204596    -3.953909    59.384183  0.065982425   0.07885596            2 
   76000    1.2262602   -3.9389102    60.119972  0.065921021  0.078835017            4 
   77000    1.2212485   -3.9535167    61.045565  0.066066628  0.078778896            2 
   78000    1.2107018   -3.9467027    61.668634  0.065885292  0.078703987            5 
   79000    1.2201425   -3.9542319    62.147928  0.065556885  0.078611776            1 
   80000    1.2391331   -3.9977665    62.926916  0.065548871  0.078504749            6 
   81000    1.2318745   -3.9569022    63.940001  0.065781893  0.078411742            4 
   82000    1.2148698   -3.9439457    64.803244  0.065856955  0.078295152            2 
   83000    1.2069647   -3.9610775    65.245456  0.065507486  0.078171905            3 
   84000    1.1797813   -3.9686593    66.189907   0.06566459  0.078041647            1 
   85000    1.2218756   -3.9209378    67.030642  0.065716315  0.077908122            1 
   86000    1.2164486   -3.9743191    67.518408  0.065424814  0.077787553            1 
   87000    1.1972708   -3.9541429    68.624555  0.065732332  0.077654991            2 
   88000    1.2039985   -3.9528666    69.750426  0.066051539  0.077527474            2 
   89000    1.2128424   -3.9800767    70.061089   0.06560027  0.077397774            2 
   90000    1.2122736   -3.9812126    71.413152  0.066123289  0.077269529            2 
   91000    1.2176932   -3.9571072     72.03172  0.065963113  0.077138517            2 
   92000    1.2430808   -3.9663079    73.061829  0.066179193  0.077010418            2 
   93000    1.2105913   -3.9549263    73.942214  0.066256463  0.076901276            1 
   94000    1.2271282   -3.9982464    74.398669  0.065956267  0.076792432            2 
   95000    1.2591211   -3.9833633    75.008172  0.065796642  0.076679707            2 
   96000    1.1875264   -3.9746284    76.043741  0.066010191  0.076557608            2 
   97000    1.2221066   -3.9584544    77.198348  0.066321604  0.076444414            4 
   98000     1.253755   -3.9600359    77.928156  0.066265439  0.076329366            1 
   99000     1.187817   -3.9499028    78.272353  0.065885819  0.076212304            3 
  100000    1.2021192   -3.9711462    79.302754  0.066085628  0.076083299            2 
  101000     1.203843   -3.9444089    80.261584  0.066222429   0.07595888            2 
  102000     1.245276   -3.9507043    81.270565   0.06639752  0.075855158            2 
  103000    1.1991603   -3.9924011    82.379744  0.066650278  0.075779087            2 
  104000    1.2042709    -3.949914    83.019915  0.066522368  0.075697965            2 
  105000    1.2102924   -3.9481497    84.248814  0.066864138  0.075616817            2 
  106000    1.2090809   -3.9746674     84.93078  0.066769481  0.075549809            2 
  107000    1.2380234   -3.9687759    86.186517  0.067123455  0.075500136            2 
  108000     1.199812   -3.9806392    87.157893   0.06725146  0.075461907            1 
  109000    1.2022488   -3.9672076    87.994535  0.067274109  0.075428044            2 
  110000    1.2527418   -3.9787871    88.760582  0.067242865  0.075376456            3 
  111000    1.1993564   -3.9301991    89.765447  0.067391477  0.075334353            3 
  112000    1.2010937   -3.9993209    90.583123  0.067398157  0.075300929            3 
  113000    1.2100932   -4.0006225    91.452194  0.067442621  0.075269993            1 
  114000    1.1986038   -3.9560445    93.160798  0.068099998  0.075243001            1 
  115000    1.1868435   -3.9782181    93.978464  0.068100336  0.075226345            3 
  116000    1.2390224   -3.9595089    94.894141  0.068171078  0.075208969            3 
  117000    1.1914264   -3.9879117     95.58013  0.068077015  0.075204502            3 
  118000    1.1940573     -3.98163    96.697379  0.068289109  0.075195731            4 
  119000    1.1850308   -3.9766623     97.36275  0.068181197  0.075181479            6 
  120000    1.2465982    -4.027175    98.442714  0.068362995  0.075178909            1 
  121000    1.2016554   -4.0149477    98.639948  0.067933848  0.075169382            2 
  122000    1.2154898   -4.0049421    99.423677  0.067912348  0.075156132            1 
  123000    1.2210105   -3.9896181    100.96665  0.068405592  0.075135529            3 
  124000    1.2205276   -3.9951044    102.26652  0.068727497  0.075132975            4 
  125000    1.1719993    -3.973995    103.42478  0.068949856   0.07514361            2 
  126000    1.2053305   -4.0124084    104.45181  0.069081887  0.075153926            2 
  127000    1.1777291   -4.0113554    105.30859  0.069100127  0.075171729            4 
  128000    1.1997836   -3.9647772    106.62177  0.069415215  0.075194785            3 
  129000     1.198926    -3.973915    107.43009  0.069399285  0.075217421            2 
  130000    1.2505454   -3.9560192    108.33842  0.069447703  0.075231659            1 
  131000    1.2101932   -4.0081652    108.39143  0.068951292  0.075234384            3 
  132000    1.2034804   -3.9591855    109.73972  0.069280125   0.07522777            2 
  133000    1.2298305   -3.9663994    110.34244  0.069136865  0.075222695            2 
  134000    1.1828183   -4.0051467    110.50852  0.068724205  0.075219304            4 
  135000    1.1907105   -3.9562629    112.35716  0.069356273  0.075213032            2 
  136000    1.1738948   -4.0159428    112.27249  0.068794417  0.075205954            3 
  137000    1.2156163   -3.9915375    113.34843  0.068946736    0.0751916            2 
  138000    1.1853133    -3.966913     114.3425  0.069047404   0.07517493            2 
  139000    1.2073901   -3.9605876    115.35932  0.069160264  0.075152406            2 
  140000    1.2062949    -3.985056    115.59634  0.068807344  0.075126382            1 
  141000    1.1698558   -3.9758534    116.80932  0.069036243  0.075094454            2 
  142000    1.1959556   -3.9994683     117.4215   0.06890933  0.075056618            1 
  143000    1.2032146   -3.9655085    118.52657  0.069071427  0.075016277            3 
  144000    1.1899042   -4.0102888     118.6536  0.068665275  0.074982039            2 
  145000    1.1802273   -3.9998179    119.95927  0.068942112  0.074949942            4 
  146000    1.2021949   -3.9958984    120.35609  0.068696401  0.074921449            3 
  147000    1.1831902   -3.9990565    120.95475  0.068568453  0.074886727            2 
  148000    1.1932281   -4.0395376    122.15913  0.068783291  0.074859059            2 
  149000    1.1848436   -4.0021008    123.96763  0.069333124  0.074831114            2 
  150000     1.186441   -3.9934979     124.5652  0.069202891  0.074816119            3 
  151000    1.1951376   -3.9935272    125.49561  0.069258065  0.074805673            2 
  152000    1.2023957   -3.9878691    126.44433   0.06932255  0.074791068            1 
  153000     1.220536   -4.0282579    127.17396  0.069266861  0.074778991            2 
  154000    1.2346802   -4.0149792    128.06536  0.069299438  0.074768688            2 
  155000    1.1954833   -4.0119006    129.88583  0.069831094  0.074765521            2 
  156000    1.1930568   -4.0069793    130.20118  0.069551912  0.074761539            1 
  157000    1.1824966   -4.0074169    131.30497   0.06969478  0.074751742            3 
  158000     1.209999   -4.0184884    132.32498  0.069791654  0.074743971            3 
  159000    1.1867406   -4.0259528    132.44036  0.069413187   0.07474286            2 
  160000    1.2077404    -4.001407    133.30501  0.069429695  0.074736454            2 
  161000    1.1770789   -3.9912183     134.9088  0.069828573  0.074735514            2 
  162000    1.1911654   -4.0334013    135.57185  0.069738607  0.074724995            1 
  163000    1.1556548   -3.9957864    137.35831  0.070224084  0.074720808            1 
  164000    1.1811942   -3.9738056    137.89166  0.070066899  0.074719435            2 
  165000    1.2032322   -3.9947616    138.21383  0.069804965  0.074713228            3 
  166000    1.2028104   -4.0131732    140.44765   0.07050585  0.074716261            4 
  167000    1.2325441   -4.0218123    140.40987  0.070064805  0.074722684            3 
  168000    1.1624337   -3.9675192    142.21795  0.070544618  0.074728162            2 
  169000    1.1962672   -4.0104207    142.67786  0.070353973  0.074736847            2 
  170000    1.1762927   -3.9969786     142.9591  0.070077992  0.074732504            2 
  171000    1.1924104   -3.9940811    143.73764  0.070047585  0.074730853            4 
  172000    1.1943797   -4.0180668    144.77969  0.070145196  0.074726774            3 
  173000    1.1845991   -4.0310616    145.19766  0.069941068  0.074715737            4 
  174000    1.1844307   -4.0248222    146.65798  0.070238498   0.07471095            1 
  175000    1.1943667   -4.0309953    147.10001  0.070047623  0.074705577            3 
  176000    1.1940387   -3.9807811    148.40406  0.070267075  0.074700875            1 
  177000    1.1706621   -4.0439811    148.80166  0.070057278  0.074693872            4 
  178000    1.2233199   -3.9949168    149.58344  0.070029699  0.074686162            1 
  179000     1.190267    -4.027037    151.02467  0.070309439  0.074675542            2 
  180000    1.1650174   -4.0194764    151.34612   0.07006765  0.074669353            2 
  181000    1.1977521    -4.001988    153.27282  0.070567598  0.074663898            2 
  182000    1.1861325   -4.0358701    152.46659  0.069810708  0.074653286            3 
  183000    1.1949208   -4.0296305    153.80324  0.070037904  0.074644222            2 
  184000    1.1787008   -4.0342927    154.34535  0.069902783  0.074627669            2 
  185000    1.1619256   -4.0196955     154.8068  0.069732794  0.074606919            2 
  186000    1.1891787   -4.0130499    155.39772  0.069622633  0.074586597            2 
  187000    1.1567604   -4.0320616    156.53731  0.069758161  0.074562379            3 
  188000    1.1456611   -4.0227811    157.88211  0.069983206  0.074541434            1 
  189000    1.1951549    -4.025262    158.15477  0.069733144  0.074524177            2 
  190000     1.181453   -4.0249739    159.17291   0.06981268  0.074507744            2 
  191000    1.1700183   -4.0087616    160.28447  0.069932141  0.074490577            2 
  192000    1.1858839   -4.0673794    161.85941   0.07025148   0.07447897            1 
  193000    1.1510046   -4.0323622    163.28917  0.070504824  0.074468886            3 
  194000    1.1766522   -4.0495093    163.19422   0.07010061  0.074459913            1 
  195000    1.1646521   -4.0534187    164.17699  0.070161105  0.074444588            4 
  196000    1.1496687   -4.0568204    164.49532  0.069938488  0.074428175            2 
  197000    1.2034345   -4.0145468    165.66233  0.070077126  0.074413389            2 
  198000    1.1712757   -4.0355761    166.72003  0.070168364   0.07439729            4 
  199000    1.1754268   -4.0512764    167.48809  0.070137392  0.074385093            2 
  200000    1.1922279   -4.0176459    168.48725  0.070203021   0.07437452            2 
  201000     1.171625    -4.010512    169.47315  0.070262498  0.074368737            3 
  202000    1.1522298    -4.023535    170.09329  0.070170499  0.074360276            5 
  203000    1.1695582   -3.9964379    171.61936  0.070451296  0.074352378            4 
  204000    1.1826434   -3.9903468    172.63112  0.070519248  0.074342306            2 
  205000    1.1649491   -3.9962277    172.62778  0.070173893  0.074331901            3 
  206000    1.1798162   -4.0236146     174.0321  0.070401333  0.074326799            2 
  207000    1.1803684   -4.0488524    174.76722  0.070357175  0.074315472            4 
  208000    1.1566426    -3.996881    176.27921  0.070624685   0.07430462            2 
  209000    1.1716713   -4.0098203    176.90218  0.070535159  0.074296142            3 
  210000    1.1752644   -4.0531061    177.64276  0.070493158  0.074285529            3 
  211000    1.1415001   -4.0606564    178.08831  0.070335035  0.074272983            1 
  212000    1.1900822    -3.985265    179.24079  0.070456285    0.0742633            3 
  213000    1.1508934   -4.0280009    180.37486  0.070569193  0.074252918            1 
  214000    1.1666762   -4.0259106    180.80703  0.070407723  0.074242705            3 
  215000    1.1862953   -4.0286463    182.06299   0.07056705  0.074232827            1 
  216000    1.1880033    -4.029411    183.41371   0.07076146  0.074223174            1 
  217000    1.1932045   -4.0121626    183.46382  0.070454616  0.074217296            1 
  218000      1.14112    -4.034184    183.61905  0.070190767  0.074203344            3 
  219000     1.175445   -4.0169202    184.83734  0.070333843  0.074186674            2 
  220000    1.1369163   -4.0424034    185.74944  0.070359635  0.074167206            3 
  221000    1.1636748   -4.0724493    185.28275  0.069865291  0.074148867            2 
  222000    1.1859675   -4.0185233    186.62018   0.07005262  0.074129897            1 
  223000    1.1657688   -4.0719568    187.18643  0.069950085  0.074109342            2 
  224000    1.1747245   -4.0451396    188.51086   0.07013053  0.074082632            1 
  225000    1.1831388   -4.0474805    188.90372  0.069964342  0.074057977            3 
  226000    1.1482034   -4.0228805    190.25505  0.070153043  0.074031397            2 
  227000    1.1534373   -4.0396851    189.42665  0.069539887  0.073999526            4 
  228000    1.1550586   -4.0330097    191.40739  0.069958842   0.07397169            2 
  229000    1.1529385   -4.0725814    190.67745  0.069387718  0.073937984            3 
  230000    1.1646087   -4.0577949    192.09448  0.069599449  0.073904246            4 
  231000    1.1618883   -4.0538863    192.92183  0.069596619  0.073872533            2 
  232000    1.1622071   -4.0842964    193.62208  0.069548162  0.073844445            2 
  233000    1.1905693   -4.0664167    194.62574  0.069608632  0.073808738            2 
  234000    1.1786859   -4.0309851    195.70405  0.069695174  0.073777759            1 
  235000    1.1645553   -4.0360646    195.98174  0.069497072  0.073746403            3 
  236000    1.1443116   -4.0402226    196.90004  0.069526849  0.073714963            1 
  237000    1.1565018   -4.0506272    198.69099  0.069863216  0.073685225            4 
  238000    1.1560295   -4.0508181    198.49515  0.069501102   0.07365724            2 
  239000    1.1268605   -4.0563428    199.15562  0.069440591  0.073618515            2 
  240000    1.1559015   -4.0727839    199.81539  0.069380344  0.073580524            2 
  241000    1.1873934   -4.0812807    199.40727  0.068951339  0.073541446            2 
  242000    1.1422202   -4.0619418    200.62172  0.069084614  0.073503504            3 
  243000    1.1503608   -4.0617818    202.51519  0.069449654  0.073464902            2 
  244000    1.1568226    -4.069543    202.22765   0.06906682  0.073426775            2 
  245000    1.1474505   -4.0461958    203.75309  0.069303773  0.073388416            1 
  246000    1.1411433   -4.0480181    205.25815  0.069531895  0.073350711            1 
  247000    1.1769899   -4.0555666     206.2251  0.069576619  0.073313736            2 
  248000    1.1333648   -4.0207901    206.08652  0.069249501  0.073277609            2 
  249000    1.1689478   -4.0561378    206.85328  0.069228004  0.073239263            4 
  250000    1.1651678   -4.0597443    207.38133   0.06912711  0.073204746            1 
  251000      1.19435   -4.0478149    207.98063  0.069050673  0.073168198            2 
  252000    1.1498977   -4.0742726    209.76636  0.069367183  0.073131157            1 
  253000    1.1628868   -4.0449539    209.82056  0.069110857  0.073095806            2 
  254000    1.1497634   -4.0075981    210.47858  0.069054652  0.073058578            4 
  255000    1.1448438   -4.0541432    211.50474  0.069119198  0.073018228            6 
  256000    1.1374624   -4.0539451    212.19992  0.069075496  0.072977417            2 
  257000    1.1338273   -4.0662857    212.37585  0.068863766  0.072938304            1 
  258000    1.1524431   -4.0625466    213.27273  0.068886539  0.072899537            5 
  259000    1.1512168   -4.0674829    214.27522   0.06894312  0.072862666            2 
  260000    1.1528337    -4.089445    215.00863  0.068913021  0.072823476            4 
  261000    1.1863857    -4.045021    215.84544  0.068916169   0.07278126            2 
  262000    1.1503716   -4.0779357    216.09364  0.068732075  0.072740022            1 
  263000    1.1636912   -4.0230664    217.17558  0.068813555  0.072698423            3 
  264000    1.1688638   -4.0541469     216.4691  0.068329892  0.072654239            2 
  265000    1.1601937   -4.0471964    218.71604  0.068778629  0.072611278            4 
  266000    1.1419701   -4.0452599    218.36917  0.068411395  0.072567749            1 
  267000    1.1385451    -4.076101    219.30759  0.068448063  0.072521516            2 
  268000    1.1528648   -4.0621102    220.26389  0.068490016  0.072475993            6 
  269000    1.1365642   -4.0591946    220.76963  0.068392078  0.072428994            5 
  270000    1.1294942   -4.0828234    222.23329  0.068590523  0.072383494            3 
  271000    1.1589467   -4.0792685    222.99551  0.068571806  0.072340429            2 
  272000    1.1601414   -4.0857657    222.96748  0.068311114  0.072299915            4 
  273000    1.1521351   -4.0539013     224.5086  0.068531319  0.072259037            1 
  274000    1.1222304    -4.088264    224.33773  0.068229235  0.072217981            2 
  275000    1.1455762    -4.063787    226.10328  0.068516146  0.072175608            2 
  276000    1.1478921   -4.0505514    226.59117  0.068415207  0.072133639            1 
  277000    1.1416553   -4.0439346    228.55456  0.068758894  0.072095145            3 
  278000    1.1382791   -4.1035734     228.6847  0.068550571  0.072059764            2 
  279000    1.1463225   -4.0887709    228.77071  0.068330557  0.072022156            2 
  280000    1.1328217     -4.07641    230.17334   0.06850397   0.07198353            2 
  281000    1.1126136   -4.0469014    231.61913  0.068688947  0.071947449            2 
  282000    1.1569301   -4.0740703    231.94243  0.068540907  0.071909542            3 
  283000    1.1634915   -4.0975564    232.40925  0.068436175   0.07187127            2 
  284000    1.1386565    -4.102828    232.13476  0.068114659  0.071831261            2 
  285000    1.1304846   -4.0542974    233.15586  0.068174227  0.071791245            2 
  286000    1.1164323   -4.0948804    233.84277  0.068136006  0.071750002            2 
  287000    1.1332176   -4.0749845    234.50557  0.068091049  0.071707273            4 
  288000    1.1538587   -4.0940396    235.48811   0.06813892  0.071666414            2 
  289000    1.1229496   -4.0965081    235.60629  0.067937222  0.071626555            2 
  290000    1.1474898   -4.0840461    237.42915  0.068226768  0.071586608            3 
  291000     1.122623   -4.1040611    237.83745  0.068109236  0.071549279            1 
  292000    1.1285917   -4.0722984    238.58819  0.068090235  0.071510281            2 
  293000    1.1671673   -4.1129398    239.37799  0.068082478  0.071471726            2 
  294000    1.1563602   -4.0797505    241.28404  0.068391169  0.071435395            3 
  295000    1.1258386   -4.1310881    240.64488  0.067978779  0.071398964            1 
  296000    1.1097091   -4.0680285    243.15482   0.06845575  0.071365646            5 
  297000    1.1526491   -4.1301563    242.90408  0.068154905  0.071334477            1 
  298000    1.1297121   -4.0831212    244.52208  0.068378657  0.071302056            4 
  299000    1.1317506   -4.0825082    244.80839  0.068229763  0.071270519            2 
  300000    1.1504915   -4.0521917    246.46918  0.068463662  0.071239191            3 
  301000     1.143092   -4.0714441    246.77919  0.068322034  0.071208259            4 
  302000    1.1212295   -4.1190532    246.68921  0.068070974  0.071175312            3 
  303000    1.1197432   -4.1083567    247.50958  0.068071941   0.07113842            2 
  304000    1.0959483   -4.0724977    247.93747  0.067965315    0.0711024            2 
  305000    1.1395001   -4.0732458    248.64075  0.067934631  0.071067545            1 
  306000     1.150841   -4.0967631    249.30791  0.067894312  0.071036701            2 
  307000    1.1534903   -4.0574494    250.75511  0.068065992  0.071001935            2 
  308000    1.1218855   -4.1075204     252.3738  0.068282954  0.070968016            2 
  309000    1.1273836   -4.0810522    251.74642  0.067892778  0.070933293            1 
  310000    1.1380592   -4.0808518    251.31934  0.067558961  0.070897569            2 
  311000    1.1268254    -4.053806    252.61278  0.067688311  0.070860359            3 
  312000    1.1537135   -4.1103681    252.69623  0.067493652  0.070822742            6 
  313000    1.1236233   -4.1009797    254.18679  0.067674864  0.070785511            2 
  314000    1.1311662    -4.107946    255.14191  0.067712821  0.070751868            1 
  315000    1.1353526   -4.0937556    256.74358  0.067921582   0.07071666            2 
  316000    1.1250213   -4.1154416    256.54542  0.067654384  0.070682521            3 
  317000    1.1457108   -4.1321566    257.78635  0.067767178   0.07064705            3 
  318000    1.1075619   -4.0999089    257.80668  0.067559402  0.070611315            3 
  319000    1.1133233   -4.0921137    258.79374  0.067605469  0.070575253            2 
  320000    1.1098051   -4.1093081      260.166  0.067751563  0.070539635            2 
  321000    1.1368115   -4.1204202    260.15727  0.067538231  0.070504735            5 
  322000    1.0862663   -4.1231423    260.28094  0.067360492  0.070468785            3 
  323000    1.1628076   -4.1138881    262.81663  0.067806148  0.070433842            2 
  324000    1.1111544   -4.0863715    263.11306  0.067673112  0.070399608            2 
  325000    1.1315724   -4.0967922    263.41554  0.067542445  0.070364064            1 
  326000    1.1137193   -4.0694968    263.98872   0.06748178  0.070328266            3 
  327000    1.1109315   -4.1049847    263.51332  0.067154261  0.070289957            4 
  328000    1.1281592    -4.106109    263.38677  0.066917371  0.070250063            2 
  329000    1.1470644   -4.0701293    266.44163  0.067487747  0.070211276            2 
  330000    1.1372985   -4.1054289    266.30331   0.06724831   0.07017446            3 
  331000    1.1060577   -4.1129383    267.43234  0.067329391  0.070138578            3 
  332000    1.0960204   -4.1164813    268.80091  0.067470108  0.070102694            2 
  333000    1.1169905   -4.1128422    268.23835  0.067126713    0.0700701            3 
  334000    1.1083208   -4.1078903    269.26253   0.06718127  0.070034559            2 
  335000    1.1244281    -4.121018    270.43092  0.067271372  0.069998845            2 
  336000    1.1378072   -4.1148583    270.98864  0.067209485   0.06996533            2 
  337000    1.1359087   -4.0661894    273.85136  0.067717943  0.069933979            1 
  338000    1.0988418   -4.1063934    272.64973  0.067221334  0.069901242            2 
  339000    1.1093544   -4.1366899    272.59765  0.067010239  0.069866644            1 
  340000    1.1012084   -4.1163557    274.08575   0.06717788  0.069833213            2 
  341000    1.1306958   -4.1225526    274.56815  0.067098765  0.069799356            2 
  342000    1.1314429   -4.1174495    274.99393  0.067006319  0.069766681            2 
  343000    1.1143162   -4.1144741    275.78719  0.067003691  0.069734684            3 
  344000     1.103443   -4.1102974    277.72595  0.067278572  0.069703995            3 
  345000    1.0909087   -4.1100133    278.15128  0.067186299  0.069673506            2 
  346000    1.1198214    -4.136113    278.60329  0.067100984  0.069646015            1 
  347000    1.1281335   -4.1105735    281.17308  0.067524754  0.069616269            2 
  348000    1.1013413    -4.128594    280.09292  0.067072058  0.069586863            3 
  349000    1.1185768   -4.1025061    283.07209  0.067591234  0.069559256            4 
  350000     1.106816   -4.1276988    282.08178  0.067162328  0.069532167            4 
  351000    1.1042985   -4.1099371    284.07022  0.067443072  0.069504352            2 
  352000    1.0873856   -4.1307629    283.79115  0.067185404  0.069476987            1 
  353000    1.1042615    -4.148667    283.92492  0.067026657  0.069448245            4 
  354000    1.1121042   -4.1022795    285.73582  0.067263612   0.06942016            7 
  355000    1.1245455   -4.1032996    285.37872  0.066990309  0.069393445            1 
  356000    1.1091702   -4.1497759    286.94831  0.067169549  0.069365556            1 
  357000     1.095201   -4.1021467    288.51109  0.067346193  0.069337169            4 
  358000    1.1182089   -4.1230459    287.62427  0.066951645  0.069309015            2 
  359000    1.1102853   -4.1592255    287.34101  0.066699398  0.069277548            1 
  360000    1.1041546   -4.1213076    288.30098  0.066736338  0.069244474            1 
  361000    1.1408014   -4.1364214    288.67091  0.066636867  0.069212639            3 
  362000    1.1053254   -4.1568494    290.03918  0.066767767  0.069180413            4 
  363000    1.1457777   -4.1436861    290.21428  0.066624032  0.069149433            3 
  364000    1.0993597   -4.1313742    290.97452  0.066615045  0.069116702            3 
  365000    1.1006943   -4.1261896    291.55202  0.066564387  0.069083716            5 
  366000    1.1105941   -4.1013425    291.96176  0.066475811  0.069051523            3 
  367000    1.1064177   -4.0993015    291.96595  0.066295629  0.069015218            2 
  368000    1.1089126   -4.1304309     292.8326  0.066311731  0.068978457            2 
  369000    1.1059063   -4.1062048     293.2976  0.066237036  0.068941626            2 
  370000    1.0888319   -4.1184963    295.46776  0.066546793  0.068904394            2 
  371000    1.1009574   -4.1195412     293.8007   0.06599297  0.068866942            4 
  372000    1.0922824   -4.1163247    294.81246  0.066042217  0.068829287            3 
  373000       1.1004   -4.1465697    295.77023  0.066079139  0.068793077            5 
  374000    1.1151404   -4.1231496    297.95724  0.066389759  0.068757251            1 
  375000    1.0926027   -4.1404286    298.33897  0.066297549  0.068721579            3 
  376000    1.1107817   -4.1650166    298.11473  0.066071526  0.068686171            3 
  377000    1.1366414   -4.1485448    298.73283  0.066032898   0.06864705            2 
  378000    1.0757257   -4.1475019    298.88429  0.065891599  0.068608207            2 
  379000    1.0858051   -4.1131085    300.93065   0.06616769  0.068570177            2 
  380000    1.1169635   -4.1605622    299.98623  0.065786454  0.068532244            7 
  381000    1.0817181    -4.131393    300.52145   0.06573085  0.068491597            2 
  382000    1.0887276   -4.1526394    300.74586  0.065607736  0.068452567            5 
  383000    1.0853406   -4.1380096    301.66078  0.065635505  0.068414443            2 
  384000    1.0756726   -4.1282166    303.97207  0.065966161  0.068374778            4 
  385000    1.1095242   -4.1165971    304.57839  0.065926057  0.068336555            4 
  386000    1.1096771   -4.1236406    304.41476  0.065719939  0.068298472            2 
  387000    1.0942813   -4.1588169    304.97369  0.065670476  0.068261009            4 
  388000    1.1061545   -4.1370812    305.77553  0.065673439  0.068222583            2 
  389000    1.1016944   -4.1840668    305.64632  0.065476931   0.06818265            1 
  390000    1.1141421   -4.1796627    307.70044  0.065747958  0.068146529            1 
  391000    1.1117681   -4.1441623     308.0266  0.065649318  0.068111716            2 
  392000    1.1151827   -4.1346624    310.40448  0.065987347  0.068077212            4 
  393000    1.0970508   -4.1202253    309.37584  0.065601323  0.068041065            6 
  394000     1.081488   -4.1220982    310.47439  0.065667172  0.068003262            2 
  395000    1.0753877   -4.1510169     310.3784  0.065480675  0.067965314            2 
  396000    1.1035754   -4.1378639    310.93191  0.065431798  0.067929025            2 
  397000     1.110976   -4.1408418     310.5178  0.065180058  0.067890664            3 
  398000    1.0921253   -4.1501078    312.12094  0.065351955  0.067850498            2 
  399000    1.1042126   -4.1600407    311.77981  0.065116919  0.067812085            2 
  400000    1.1057074    -4.160974    313.54371  0.065321605   0.06777164            3 
  401000     1.087105   -4.1243165    313.73355  0.065198161  0.067735138            2 
  402000     1.079856   -4.1715428    314.34255  0.065162221  0.067696924            4 
  403000    1.0915527   -4.1572607    316.72648  0.065493483  0.067658377            3 
  404000    1.0979028   -4.1313875    317.15314  0.065419377  0.067621637            2 
  405000    1.0967333   -4.1300459    317.09575  0.065246039  0.067584713            4 
  406000    1.0892517   -4.1654649    318.08283  0.065287936  0.067548284            3 
  407000    1.0883099   -4.1551841    318.59635  0.065232668  0.067511583            3 
  408000     1.092047   -4.1499327    318.93901  0.065142772  0.067474365            3 
  409000    1.0622902   -4.1853291     317.2566   0.06464071  0.067433667            4 
  410000    1.0882883   -4.1559997    318.90419  0.064817924  0.067392955            3 
  411000    1.1025577    -4.159615    319.16236  0.064712563   0.06735204            2 
  412000    1.0675119   -4.1379201     321.6996  0.065068689  0.067312299            2 
  413000     1.085241   -4.1342083    320.78042  0.064725671    0.0672701            1 
  414000    1.0674342   -4.1935082    318.42023  0.064094249  0.067227063            6 
  415000     1.079106   -4.1287609    322.62724  0.064784585   0.06718543            2 
  416000    1.1195955   -4.1528297    323.19084  0.064741755  0.067145776            3 
  417000     1.096597   -4.1893351     323.6613  0.064680515  0.067106173            3 
  418000    1.0840452   -4.1858455    323.46075  0.064485796  0.067066983            2 
  419000    1.0876226   -4.1807635    323.91173  0.064421585   0.06702624            4 
  420000    1.1032062   -4.1551876    325.66768  0.064616603  0.066984707            2 
  421000    1.0658909   -4.1465517    324.52244  0.064236429  0.066942035            2 
  422000    1.0873799   -4.1722031    324.40158  0.064060343  0.066900714            3 
  423000    1.0827657   -4.1987904    325.83521  0.064191334  0.066858504            2 
  424000    1.0937633   -4.1834002    326.59522  0.064189312   0.06681425            2 
  425000    1.0837797   -4.1602844    328.01521  0.064316709  0.066769744            2 
  426000     1.080123   -4.1816784    327.77469   0.06411868  0.066727116            1 
  427000    1.0738836   -4.1856468    328.31028  0.064073045  0.066684073            6 
  428000    1.0753101   -4.1571967    329.29282  0.064114646  0.066641981            3 
  429000    1.0662392   -4.1439236     331.0353  0.064303672   0.06659931            3 
  430000    1.0583002   -4.1782627    330.54648  0.064059394  0.066558476            4 
  431000    1.0714512   -4.1723069    330.03228  0.063811346  0.066516788            2 
  432000    1.0715158   -4.1588161    331.29629  0.063907463  0.066474563            5 
  433000    1.0719955    -4.194499    332.06389  0.063907599  0.066431852            1 
  434000    1.0654935   -4.1745461    333.94058  0.064120695  0.066390913            2 
  435000    1.0933589   -4.1405929    335.48322  0.064268817  0.066350372            2 
  436000    1.0651995    -4.181378    334.98959  0.064027063  0.066310331            3 
  437000    1.1026517   -4.2115383    334.16223  0.063722775  0.066269241            3 
  438000    1.0937285   -4.1622731    336.44289  0.064011205  0.066229181            4 
  439000     1.067116   -4.1657928    336.41499  0.063860096   0.06618912            4 
  440000    1.0778637   -4.1751149    337.36062  0.063894056  0.066148871            2 
  441000    1.0636514   -4.1917422    337.44929  0.063765928  0.066107565            2 
  442000    1.0835141   -4.1915649    337.08623   0.06355321  0.066065515            2 
  443000      1.07194    -4.170096    338.68628  0.063710738  0.066024532            4 
  444000     1.092759   -4.2031557    339.89353   0.06379383  0.065983918            1 
  445000    1.0507392   -4.2023573    340.11492  0.063691933  0.065945186            2 
  446000     1.054897   -4.1703099    341.80205  0.063864359  0.065905108            1 
  447000    1.0702136   -4.2374473    341.31102  0.063629944  0.065865205            3 
  448000    1.0566433   -4.2338846    341.20622  0.063468419  0.065825822            2 
  449000    1.1117842   -4.1838503    342.69646  0.063603648   0.06578693            3 
  450000    1.0659367   -4.1927967    343.16681  0.063549409  0.065748688            5 
  451000    1.0597337   -4.1866213    344.41824  0.063639734  0.065708257            4 
  452000    1.0885326     -4.20339    343.43979  0.063318545  0.065668564            2 
  453000     1.087201   -4.2066869    345.42421   0.06354382  0.065628012            2 
  454000    1.0543265   -4.1658219    346.08504  0.063525154   0.06558915            3 
  455000    1.0702534   -4.2231785    345.24799  0.063232232  0.065549429            2 
  456000    1.0777378   -4.1920453     345.9104   0.06321462   0.06551031            3 
  457000    1.0849556   -4.1818488    346.00727  0.063093959  0.065470286            2 
  458000    1.0799161   -4.1799114    347.32285   0.06319557  0.065431623            1 
  459000    1.0583823    -4.227824    347.83114  0.063150171  0.065392415            2 
  460000    1.0782656   -4.1811364    348.76006   0.06318117  0.065352252            5 
  461000    1.0790709   -4.1773513    349.05092  0.063096695  0.065313553            1 
  462000    1.0719783   -4.1955331    351.19835  0.063347466  0.065273215            2 
  463000    1.0615344   -4.2118868    349.95977  0.062987719   0.06523443            2 
  464000    1.0653309   -4.2160982    351.67043  0.063159201  0.065195442            4 
  465000    1.0762244   -4.1917218    352.63489  0.063196217  0.065157546            1 
  466000    1.0691608   -4.1811335    354.13442  0.063328759  0.065119335            4 
  467000    1.0737697   -4.1963314    353.63468  0.063103976  0.065081954            2 
  468000    1.0631468   -4.1687226    356.04795  0.063398852  0.065045388            4 
  469000    1.0764537   -4.2169537    355.61329   0.06318644  0.065007939            3 
  470000    1.0644975   -4.1803733    355.34476  0.063004391  0.064970112            2 
  471000     1.047749   -4.2029474    356.40556  0.063058309  0.064932699            3 
  472000    1.0781662   -4.2106084    356.22592  0.062892995  0.064895322            2 
  473000    1.1017695   -4.1765939    356.64341  0.062833581  0.064858684            3 
  474000    1.0479043   -4.2229418    358.10906  0.062958695  0.064820818            6 
  475000    1.0628162   -4.2178352    357.98039  0.062803577  0.064783241            2 
  476000    1.0562325    -4.186734    359.60144  0.062955434  0.064744332            3 
  477000    1.0778596     -4.18404    359.32064  0.062774395  0.064705369            2 
  478000    1.0828198   -4.2076237    359.35319  0.062648743   0.06466705            3 
  479000    1.0565572   -4.1972628    360.74526  0.062760135  0.064629039            2 
  480000     1.069966   -4.2332945    359.45496  0.062405375  0.064590932            5 
  481000    1.0555899   -4.1747891    362.65071  0.062829299  0.064552681            2 
  482000    1.0695456   -4.2026856    362.92485  0.062746343  0.064516065            1 
  483000    1.0510654   -4.1970292    362.67184   0.06257278  0.064477808            3 
  484000    1.0740559   -4.2281434    363.53863   0.06259274  0.064440584            3 
  485000    1.0547271   -4.2184111    364.08438  0.062557454  0.064402045            3 
  486000    1.0674971   -4.2275989    363.80417  0.062380688  0.064363637            2 
  487000    1.0466347    -4.201284    366.19709  0.062662063  0.064326087            2 
  488000    1.0532676   -4.1967825    366.58045   0.06259912  0.064288577            2 
  489000     1.074094   -4.1864211    366.49553  0.062456634  0.064251548            2 
  490000    1.0697481   -4.2471748    367.10806  0.062433343  0.064213041            2 
  491000    1.0474066   -4.2304556    366.79838  0.062253629  0.064175309            3 
  492000    1.0438096    -4.225734     367.5623  0.062256488  0.064137746            3 
  493000    1.0776573    -4.235022    368.62626  0.062310051  0.064100272            3 
  494000     1.032474   -4.2313809    367.95076  0.062069966  0.064063402            5 
  495000    1.0657298   -4.2205347    368.30267  0.062003817  0.064026291            3 
  496000    1.0322976   -4.2214935     370.2206  0.062201042   0.06398875            3 
  497000    1.0504115   -4.1644598    371.63128  0.062312422  0.063952404            4 
  498000    1.0770473   -4.2311556    371.58105   0.06217889  0.063916739            5 
  499000    1.0696615   -4.2367701    371.18293  0.061987797  0.063882177            2 
  500000    1.0516671    -4.227933    372.75672  0.062126121  0.063846713            4 
  501000    1.0644127   -4.2160197    373.08743  0.062057124  0.063811702            3 
  502000    1.0553005   -4.2104395    374.19735  0.062117754  0.063776745            2 
  503000    1.0566233   -4.1928599    375.47888  0.062206573  0.063740759            1 
  504000    1.0474186   -4.2073036    377.06132  0.062344796  0.063705845            2 
  505000    1.0630645   -4.2314411    376.74737  0.062169533  0.063671192            3 
  506000    1.0373735   -4.2396253    376.13697  0.061946142  0.063636296            2 
  507000    1.0572496   -4.1839784    380.80981  0.062592013  0.063602411            1 
  508000    1.0571408   -4.2473282    377.44526  0.061916873  0.063568553            9 
  509000    1.0634722   -4.2561285    378.11736  0.061905265  0.063534137            5 
  510000    1.0342573   -4.2226913    378.18712  0.061795281    0.0635003           10 
  511000    1.0397874   -4.2286671    380.25974  0.062012351  0.063465795            2 
  512000    1.0482314   -4.2257479    381.34128  0.062067266  0.063431706            8 
  513000    1.0536489   -4.2421544    381.60461  0.061989054  0.063398104            5 
  514000    1.0358863   -4.2481846    382.29647  0.061980621  0.063363996            1 
  515000    1.0473709   -4.2280883     382.8296  0.061946538  0.063330813            1 
  516000    1.0292741   -4.2293686    383.38243  0.061915767  0.063298004            2 
  517000    1.0235605   -4.2348621    384.10913  0.061913141   0.06326451            2 
  518000    1.0342009    -4.215157    385.33315  0.061990532  0.063231072            3 
  519000    1.0477852   -4.2379536    385.10976  0.061835222  0.063198004            3 
  520000    1.0514874   -4.2099065    386.70761  0.061972374  0.063164288            2 
  521000    1.0413362    -4.206335    385.25245  0.061620674  0.063130731            3 
  522000    1.0466968   -4.2287713     386.6545  0.061726453  0.063095446            2 
  523000    1.0663375   -4.2473989    385.10361  0.061361315  0.063060203            4 
  524000    1.0826175   -4.2564942    386.72616  0.061502253   0.06302466            3 
  525000    1.0271376   -4.2332435    388.58539   0.06168022  0.062989923            3 
  526000    1.0564491   -4.2475833    389.22382  0.061664102  0.062955505            3 
  527000    1.0477522   -4.2369609    387.99421  0.061352659  0.062921436            4 
  528000    1.0543345   -4.2308781    390.28087   0.06159736  0.062888317            3 
  529000    1.0197113   -4.2165492    391.08853  0.061608149  0.062855289            3 
  530000    1.0395071   -4.2735548    391.04458  0.061484997   0.06282244            2 
  531000    1.0129711    -4.229817    391.42106   0.06142829  0.062790326            2 
  532000    1.0222504   -4.2495411    392.73285  0.061518304   0.06275773            2 
  533000    1.0401465   -4.2460269    392.76978  0.061408659  0.062725172            4 
  534000    1.0385988   -4.2652042    393.47869  0.061404289   0.06269206            6 
  535000    1.0424322   -4.2203148    395.23875  0.061563668  0.062658846            2 
  536000    1.0601328   -4.2389809     395.1737  0.061438697  0.062626665            3 
  537000    1.0439715   -4.2391419    395.35455   0.06135235  0.062594415            6 
  538000    1.0457515   -4.2294348    396.33521  0.061390213   0.06256236            4 
  539000    1.0415774   -4.2156883    397.10791   0.06139578  0.062532028            2 
  540000    1.0416368   -4.2762171    396.51614  0.061190762  0.062500573            2 
  541000    1.0469887   -4.2563184    398.80553  0.061430304  0.062469183            8 
  542000    1.0482627   -4.2428573    398.53671  0.061275631  0.062438648            2 
  543000    1.0077142   -4.2589393    400.83581  0.061515624  0.062407889            4 
  544000    1.0531988   -4.2607951    400.12667  0.061293914  0.062377363            4 
  545000    1.0294418   -4.2857953    399.99222   0.06116089  0.062346404            4 
  546000    1.0105306   -4.2458974     400.0112   0.06105177  0.062315182            3 
  547000    1.0366593   -4.2390907    402.98581  0.061393329  0.062284493            6 
  548000    1.0524258   -4.2340802    402.48099  0.061204529  0.062254125            4 
  549000     1.049104    -4.265465    402.32015  0.061068632  0.062222205            5 
  550000    1.0356705   -4.2637644    402.86808  0.061040619  0.062190456            6 
  551000    1.0311907   -4.2854237    402.40311  0.060859514  0.062158332            3 
  552000    1.0530253   -4.2661417     404.5695  0.061076313  0.062126355            2 
  553000    1.0286452   -4.2661669    404.73651  0.060991035  0.062095575            2 
  554000    1.0211522    -4.256397    405.67266   0.06102176  0.062065601            3 
  555000    1.0330851   -4.2442087      405.342  0.060862162  0.062035708            2 
  556000    1.0426264    -4.266167    407.07075  0.061011803  0.062005001            2 
  557000    1.0392086   -4.2389741    408.17254  0.061067107  0.061974943            2 
  558000    1.0246334    -4.257905    405.47333  0.060554559  0.061944011            3 
  559000    1.0209556    -4.266046    407.15699  0.060697225  0.061912365            3 
  560000    1.0374675   -4.2723838    406.32603  0.060465182  0.061880276            2 
  561000    1.0339803   -4.2309332    408.65261  0.060703001  0.061847736            2 
  562000    1.0424933   -4.2272963    410.88034  0.060925317  0.061815345            3 
  563000     1.014937   -4.2422614    409.99592  0.060686193  0.061783456            4 
  564000    1.0420032   -4.2642224    412.24197  0.060910457  0.061751869            2 
  565000    1.0369205   -4.3006913    410.14214  0.060492941  0.061720904            2 
  566000     1.041987   -4.2675763    413.10592  0.060822427  0.061690935            1 
  567000    1.0331209   -4.2394465    413.25501  0.060737068  0.061662002            2 
  568000    1.0289298   -4.2571074     413.7079  0.060696581  0.061633243            2 
  569000    1.0293268    -4.258365    415.48019  0.060849471   0.06160456            5 
  570000    1.0120536   -4.2836106    415.36145  0.060725358  0.061575919            3 
  571000    1.0384972   -4.2462758    416.07071  0.060722521  0.061548654            2 
  572000     1.011835   -4.2763539    415.29887  0.060503914  0.061519819            3 
  573000    1.0345564   -4.2655223    417.70053  0.060747605  0.061490876            2 
  574000    1.0189431   -4.3254533    416.67653  0.060493108  0.061461638            3 
  575000    1.0042523   -4.2737914     418.2656  0.060618204  0.061432969            3 
  576000    1.0264476   -4.2677924    417.72795  0.060435177  0.061404922            2 
  577000    1.0060264   -4.2991994    417.05963  0.060233916  0.061376268            2 
  578000    1.0445282   -4.2621124    419.89139  0.060537975   0.06134787            4 
  579000    1.0025325   -4.3008499    420.48911  0.060519446  0.061319772            7 
  580000    1.0258076    -4.274523    422.02874  0.060636314  0.061291343            2 
  581000    1.0119039   -4.2696586    422.01792  0.060530396  0.061263226            7 
  582000    1.0173984   -4.2963522    419.99404  0.060136604  0.061234711            2 
  583000    1.0435573   -4.2757194    422.23364   0.06035358  0.061205542            2 
  584000    1.0423957   -4.2961502    423.79421  0.060472918  0.061177508            6 
  585000    1.0224359   -4.2801241    425.24861  0.060576725  0.061150442            4 
  586000    1.0259662   -4.3109434    424.55171  0.060374248   0.06112193            6 
  587000    1.0237522   -4.2566496    426.29756  0.060519245  0.061094701            6 
  588000    1.0153825   -4.2674163    426.81706  0.060489946  0.061068019            4 
  589000    1.0245545   -4.2695107    427.22021  0.060444286  0.061041166            2 
  590000    1.0239679   -4.2880106    427.81405  0.060425713  0.061014878            3 
  591000    1.0281215   -4.3023885    426.76123  0.060175018  0.060988206            2 
  592000    1.0134946    -4.319674    427.26935  0.060144897  0.060961301            5 
  593000     1.008692   -4.2988423    427.48406  0.060073645  0.060933343            4 
  594000    1.0174263    -4.302891     429.5386  0.060260747  0.060905961            3 
  595000    1.0116023   -4.2648787    429.82253  0.060199234  0.060878931            4 
  596000    1.0062342   -4.2687045    430.96611  0.060258125  0.060853361            2 
  597000    1.0198673   -4.3065465    431.51241  0.060233447  0.060827434            2 
  598000    1.0041862   -4.2996258    430.86344  0.060042285   0.06080078            2 
  599000   0.99425033   -4.2537024    434.31782  0.060422623  0.060775021            1 
  600000    1.0094854   -4.2834254    433.21929  0.060169345  0.060749375            3 
  601000    1.0147168   -4.2715043    434.98709  0.060314349  0.060723112            3 
  602000    1.0112363   -4.2894291    435.15241  0.060237045   0.06069793            8 
  603000   0.98293981   -4.2705259    435.72198  0.060215863  0.060673376            3 
  604000    1.0404862   -4.3043923    436.69769  0.060250785  0.060648641            3 
  605000   0.99956721   -4.2885445    437.18961  0.060218954  0.060623792            4 
  606000    1.0175855   -4.3012943    438.01565  0.060233175  0.060598483            2 
  607000    1.0210833   -4.3028771    438.89467  0.060254622  0.060572676            2 
  608000    1.0177604   -4.2734237    438.06195  0.060041386  0.060547996            3 
  609000   0.99963484   -4.2610226    438.70589  0.060030911  0.060524348            3 
  610000     1.003369   -4.3071713    439.32847   0.06001755  0.060500774            6 
  611000   0.98700749   -4.3114015     440.5413  0.060084739  0.060476332            3 
  612000    1.0273008   -4.3026113    442.76609    0.0602895  0.060452627            2 
  613000    1.0180342   -4.3131292    442.69815  0.060181913  0.060428403            3 
  614000    1.0112276   -4.3099021    443.28559  0.060163625  0.060403789            4 
  615000    1.0174754    -4.282647    441.83822  0.059869677    0.0603799            3 
  616000    1.0042332   -4.2666051     444.4448  0.060125108  0.060356214            3 
  617000    1.0008201   -4.2811715    445.98499  0.060235682   0.06033307            3 
  618000    1.0162012   -4.3048082    444.44446  0.059930483  0.060309767            2 
  619000    1.0189232   -4.3307337    445.40111  0.059962454  0.060285853            3 
  620000    1.0050199   -4.2842389    447.37878  0.060131556  0.060261833            4 
  621000    1.0096986   -4.3103554     446.2093  0.059877791  0.060237276            4 
  622000   0.99401235   -4.2871844    447.16718  0.059909858  0.060212445            3 
  623000    1.0286783   -4.3045634    445.38372  0.059575136  0.060187221            2 
  624000    1.0013583   -4.3413691    445.02755  0.059432098  0.060161456           10 
  625000    1.0180482   -4.2951158    444.88181  0.059317575  0.060134192            4 
  626000    1.0217107   -4.3112011     448.2172  0.059666826  0.060108332            2 
  627000    1.0221289   -4.3051366    448.69336  0.059634949  0.060081572            3 
  628000    1.0041205    -4.315297    449.63214  0.059664562  0.060054803            7 
  629000    1.0358735   -4.3035365    448.87157  0.059468941  0.060028062            2 
  630000   0.99793655   -4.2774878    450.10576  0.059537799  0.060001459            3 
  631000    1.0087951   -4.2984664    449.63213  0.059380894  0.059974703            1 
  632000   0.99988633   -4.2936907    451.96305  0.059594283   0.05994772            7 
  633000   0.98418666   -4.3139607    449.81717  0.059217636  0.059920997            3 
  634000   0.99627457   -4.3219815    450.04161  0.059153734  0.059893269            4 
  635000   0.98107532   -4.3563606    450.31113  0.059095948  0.059866282            3 
  636000    1.0092935   -4.3236062    453.79691  0.059459762  0.059838651            6 
  637000   0.99292553   -4.3437024    450.71761  0.058963581  0.059811253            3 
  638000    1.0220369   -4.3077314    452.54099  0.059109325  0.059783642            2 
  639000   0.99194877   -4.3252338    454.34738  0.059252397  0.059755643            2 
  640000     1.004272   -4.3169427    452.85209  0.058965115  0.059728291            4 
  641000    1.0089977    -4.328016     453.4063  0.058945177     0.059701            3 
  642000   0.99413689   -4.3209047    453.66983  0.058887569  0.059673203            3 
  643000    1.0093894   -4.2956482    455.22043  0.058996946  0.059645431            3 
  644000    1.0085453   -4.3460246    454.59673  0.058824629  0.059617339            6 
  645000   0.98550719   -4.2991576    456.42806  0.058970033  0.059589398            3 
  646000    1.0029412   -4.3043178    458.42803  0.059136742  0.059562162            2 
  647000    1.0165417    -4.312953    457.31681  0.058902217  0.059534666            5 
  648000    1.0013799    -4.340662    455.03223  0.058517519   0.05950707            5 
  649000   0.97295136   -4.3243035    457.02953  0.058683812  0.059478033            3 
  650000    1.0193534   -4.2804249    459.75826  0.058943367  0.059450527            5 
  651000     1.008204   -4.3087675    458.31528  0.058668111  0.059423606            2 
  652000    1.0181851   -4.3358082    459.43793  0.058721617  0.059395318            4 
  653000   0.98262373   -4.3336087    460.19355   0.05872812  0.059366743            2 
  654000   0.98959528   -4.3196854    461.41388  0.058793818  0.059338939            3 
  655000   0.98091428   -4.3398818    460.00658   0.05852501   0.05931132            4 
  656000   0.98981328   -4.3296843    461.82968  0.058667388  0.059282838            2 
  657000   0.99053314   -4.3683426    460.93535  0.058464656  0.059254523            5 
  658000    1.0125615   -4.3030533    462.34575  0.058554426  0.059225716            3 
  659000   0.96157407   -4.3160366    462.52018   0.05848763  0.059196857            2 
  660000    1.0131722   -4.3448153    462.49703   0.05839609   0.05916764            7 
  661000   0.97304944   -4.3071655    464.26678   0.05853086  0.059139959            3 
  662000    1.0001106   -4.3445977    462.64163  0.058237868  0.059111885            2 
  663000    1.0008195   -4.3159988    463.85023   0.05830194  0.059083744            2 
  664000   0.99993458   -4.3327987     463.8792  0.058217771  0.059054948            4 
  665000    0.9871745   -4.3356673    465.51518  0.058335235  0.059026008            5 
  666000   0.98474403   -4.3413555     464.8236  0.058161111  0.058996193            3 
  667000   0.96407864   -4.3307631    466.53477  0.058287702  0.058966631            2 
  668000   0.97945583   -4.3167309    466.93851  0.058250811  0.058937067            2 
  669000   0.99913335   -4.3139678    468.05935  0.058303357  0.058907677            6 
  670000    1.0044226   -4.3184205    467.49545  0.058146201  0.058878746            2 
  671000   0.98717302   -4.2903854    467.14524  0.058016051  0.058849419            3 
  672000   0.96838924   -4.3571304    469.81428    0.0582607  0.058821356            5 
  673000   0.99626267   -4.3161395    470.62487    0.0582745  0.058793172            1 
  674000   0.99089342   -4.3175349    470.32827  0.058151368  0.058765664            3 
  675000   0.98767456   -4.3460196    469.58083  0.057972942   0.05873819            2 
  676000   0.98978745   -4.3687471    470.38356  0.057986139  0.058710755            5 
  677000   0.99612357    -4.348614    471.24023  0.058005937  0.058681865            3 
  678000   0.98171024   -4.3791947    470.97903  0.057888277  0.058653324            4 
  679000   0.97838531   -4.3786466    471.06663  0.057813774   0.05862463            5 
  680000   0.97796423   -4.3333382    473.08305  0.057975864  0.058596087            2 
  681000   0.98361587   -4.3258003    471.97559  0.057755212  0.058567566            3 
  682000   0.98092312   -4.3170583    474.13757  0.057934699  0.058538448            3 
  683000   0.98014857   -4.3383809    474.60909  0.057907404  0.058509658            4 
  684000   0.99038272   -4.3541165    474.68286  0.057831732  0.058481575            4 
  685000   0.97744818   -4.3565174    475.80746  0.057884119  0.058453466            3 
  686000   0.98838676   -4.3370998     475.3038  0.057738557  0.058424336            3 
  687000    1.0195187   -4.3088267    476.34508   0.05778082  0.058395787            3 
  688000   0.99549238   -4.3195835    477.21738  0.057802493  0.058366973            4 
  689000   0.97939883   -4.3568525    475.91021    0.0575605  0.058338407            3 
  690000   0.99822934   -4.3439779    475.75031  0.057457767  0.058310339            2 
  691000   0.98346029   -4.3550733     477.9541  0.057640389  0.058281483            7 
  692000   0.98449441   -4.3672185    477.60922  0.057515562  0.058252402            3 
  693000    1.0069834   -4.3385739    479.90476  0.057708606  0.058224826            3 
  694000   0.95522563   -4.3399808    480.59923  0.057708841  0.058197047            3 
  695000   0.99476886   -4.3585703    480.58207  0.057623749  0.058169814            2 
  696000   0.97100426   -4.3627765    483.03252  0.057834353  0.058142396            2 
  697000   0.97704901   -4.3575926    482.36236  0.057671253  0.058115111            3 
  698000   0.99198768   -4.3542867    480.87081  0.057410556  0.058086824            2 
  699000   0.98756354   -4.4045108    481.48486  0.057401629  0.058059141            5 
  700000   0.97393725    -4.360343    481.90419  0.057369546  0.058029965            2 
  701000   0.96393725   -4.3961241    482.21308  0.057324427  0.058001979            7 
  702000   0.95737372   -4.3508273    482.75572  0.057307184  0.057973609            2 
  703000   0.98221602   -4.3827764     482.1614  0.057155215  0.057944995            3 
  704000   0.99542292   -4.3466186    484.41895  0.057341259  0.057916311            3 
  705000   0.97006782   -4.3626457    483.08223  0.057101919  0.057887174            3 
  706000   0.97983999   -4.3682781    483.45791  0.057065382  0.057858213            1 
  707000   0.97197979   -4.3555733    485.96633  0.057280331  0.057830118            3 
  708000   0.98007323   -4.3736091    486.84147  0.057302433  0.057801288            4 
  709000   0.96915538   -4.3409503    488.07152  0.057366187  0.057773265            2 
  710000   0.96565109    -4.356393      485.701   0.05700716   0.05774535            8 
  711000   0.96431123   -4.3657661    487.29704  0.057114046  0.057717804            3 
  712000   0.96703352   -4.3560895    488.16247   0.05713512  0.057689815            2 
  713000   0.97511276   -4.3665352    489.70824  0.057235652  0.057662575            4 
  714000   0.98619235   -4.3761499    489.12426  0.057087332  0.057635253            3 
  715000   0.97097839   -4.3862673    489.22216    0.0570189  0.057607875            2 
  716000   0.94086273   -4.3683069    489.87024  0.057014693   0.05758099            2 
  717000   0.95420346    -4.358197    491.88645  0.057169508  0.057554042            3 
  718000   0.96364733   -4.3750913    492.95404  0.057213793  0.057527163            5 
  719000   0.97128122   -4.3706404    493.30125  0.057174461  0.057500855            2 
  720000   0.96696309   -4.3339333    494.23692  0.057203347  0.057474099            3 
  721000   0.94713648    -4.385616    495.19257  0.057234462  0.057447409            2 
  722000   0.95403878    -4.368876    493.28136  0.056934598  0.057421694            4 
  723000   0.96875154   -4.3790342    493.60181  0.056892786  0.057395389            4 
  724000   0.97884099   -4.3741334     495.7827  0.057065228  0.057369749            6 
  725000   0.96333176   -4.3728102    494.60267  0.056850882  0.057344065            3 
  726000   0.96398469    -4.362107    496.81101  0.057026057  0.057318122            2 
  727000   0.96172112   -4.3460557    496.96588  0.056965369  0.057291846            4 
  728000   0.98230477    -4.363739    497.53658  0.056952447  0.057266035            2 
  729000   0.98603312   -4.3823134    497.57486  0.056878699  0.057240801            6 
  730000   0.97241081   -4.3877912    499.06981  0.056971439  0.057214056            9 
  731000   0.96263925   -4.4022449    499.64324  0.056958874  0.057188743            2 
  732000   0.97220381    -4.370696    499.86814  0.056906665  0.057163303            5 
  733000   0.98245568   -4.3667648     501.4993  0.057014473  0.057138018            6 
  734000   0.97653993   -4.3988172    502.61912  0.057063933  0.057112917            2 
  735000   0.96779211   -4.3843121    501.93835   0.05690911  0.057087629            4 
  736000   0.95855895   -4.3745778    503.07333  0.056960296  0.057062147            2 
  737000    0.9647504   -4.3673637    502.17502  0.056781436  0.057036488            2 
  738000   0.95219048   -4.3963623    501.69131  0.056649877  0.057010644            5 
  739000   0.97491118   -4.3659501    503.26918  0.056751147  0.056985374            5 
  740000   0.95523107   -4.3838386    505.56171  0.056932626  0.056960701            3 
  741000   0.96622637   -4.4038066     503.4226  0.056615227  0.056935522            6 
  742000   0.94491685   -4.3888595    505.45981  0.056767723   0.05691057            2 
  743000   0.95730782    -4.388941    506.09326  0.056762367  0.056885644            4 
  744000   0.95630431   -4.3914042    507.43669  0.056836547  0.056861257            3 
  745000   0.95809755   -4.3958091    506.12078  0.056613063  0.056837096            4 
  746000   0.95064014   -4.3922309      508.057  0.056753463  0.056812517            3 
  747000   0.95524181   -4.4165001    506.88023   0.05654621  0.056787707            3 
  748000   0.97612576   -4.3663484    509.15308  0.056723827  0.056762924            2 
  749000   0.96017463   -4.3933114    509.13318  0.056645881  0.056738595            4 
  750000   0.94125742    -4.407227    508.50761  0.056500846  0.056714013            3 
  751000   0.96130337   -4.3638966    511.64079  0.056773279  0.056689303            1 
  752000   0.95297859    -4.377965    511.99326  0.056736842  0.056665436            3 
  753000   0.94538429   -4.3922655    512.04181  0.056666867  0.056641539            8 
  754000   0.94794312   -4.3639524    510.49214   0.05642044  0.056617657            5 
  755000   0.95389485   -4.3908268    511.59095  0.056466992  0.056592913            4 
  756000    0.9461581   -4.3949806    512.44883  0.056486864   0.05656866            2 
  757000   0.93509987   -4.3986429    512.54653     0.056423  0.056543599            3 
  758000   0.93795469   -4.4009437    512.73962  0.056369791   0.05651899            3 
  759000   0.94036742   -4.3770859    513.63014  0.056393296  0.056493672            4 
  760000   0.94812249   -4.4084975    513.20892  0.056272908  0.056469024            9 
  761000    0.9654563   -4.3959011    514.72767  0.056365273  0.056445009            4 
  762000   0.92317503   -4.4272316    514.33739  0.056248621  0.056420851            4 
  763000   0.95685511   -4.3954476    514.91206  0.056237665  0.056396491            4 
  764000   0.95905461   -4.4106416    514.28946  0.056096145  0.056372315            3 
  765000   0.96260057   -4.4100778    517.92635  0.056418992  0.056348126            3 
  766000   0.92536211   -4.3717684    518.06369  0.056360279  0.056324314            6 
  767000   0.95898789     -4.38983    519.24955  0.056415639  0.056300224            3 
  768000   0.94438015   -4.3856481    516.65345  0.056060487  0.056276374            2 
  769000   0.96562476   -4.4224254    518.67559  0.056206717   0.05625209            2 
  770000   0.93504541   -4.4050867    518.82928  0.056150355  0.056228599            5 
  771000   0.94339438   -4.4185818    521.10107  0.056323073   0.05620536            6 
  772000   0.93960465    -4.408293     519.9418  0.056124978  0.056181969            5 
  773000   0.92668357    -4.413679    521.81908  0.056254752  0.056158973            7 
  774000   0.93599587   -4.4295369    521.27694  0.056123702  0.056136077            6 
  775000   0.96847176   -4.4217216    521.43432  0.056068206  0.056112994            5 
  776000   0.93866575   -4.4089261     521.7816  0.056033248   0.05608946            5 
  777000   0.94151278   -4.4107064    522.16106  0.056001829  0.056065379            3 
  778000   0.94800753   -4.4389302    521.73683  0.055884408  0.056041409            5 
  779000   0.95184799    -4.430926    522.58462  0.055903361  0.056017652            6 
  780000   0.95874438   -4.4135885    522.75577  0.055849976  0.055994274            6 
  781000   0.93086698   -4.4123625    524.48857  0.055963356  0.055971201            5 
  782000   0.96903366   -4.4317095    526.41652  0.056097242  0.055948631            4 
  783000   0.92635188   -4.4366539    526.68634  0.056054315  0.055925693            3 
  784000   0.93015192   -4.4148548    528.25113  0.056149143  0.055903229            2 
  785000    0.9375233   -4.4287792    525.60143   0.05579633  0.055880128            2 
  786000   0.93027695   -4.4366546    526.06785  0.055774793  0.055856761            4 
  787000   0.95773689   -4.4284606    526.79556  0.055780978    0.0558331            4 
  788000   0.93831494   -4.4021072    528.67627  0.055909081  0.055809669            5 
  789000   0.96615601   -4.4137636    529.67165  0.055943351  0.055786978           10 
  790000   0.92226681   -4.4046972    529.52372  0.055856932  0.055764483            5 
  791000   0.95281817   -4.4196731    529.34536  0.055767527  0.055741562            4 
  792000   0.93336724    -4.403363    530.50907  0.055819557  0.055717871            4 
  793000    0.9339807   -4.3877242    530.95151  0.055795661  0.055694682            2 
  794000   0.95242653   -4.4112609    532.88544  0.055928363  0.055672402            3 
  795000   0.92192595   -4.3949116    530.85311   0.05564498  0.055649371            3 
  796000   0.92390707   -4.4212061     530.7798    0.0555674  0.055625986            3 
  797000   0.92506403    -4.426447    530.61274  0.055480211  0.055602965            4 
  798000   0.95203312   -4.4246924    532.73219  0.055632016  0.055579658            3 
  799000   0.94157387   -4.4414242    533.02365  0.055592788  0.055556231            4 
  800000   0.92824792   -4.4423487    531.07388  0.055320195  0.055531976            6 
  801000   0.91348218    -4.427798    532.20894   0.05536922  0.055508029            4 
  802000   0.91882555   -4.4350431     531.1917  0.055194482  0.055484133            4 
  803000   0.95465746   -4.4378203     533.4755  0.055362754  0.055459541            5 
  804000   0.93282757   -4.4252149    534.65216  0.055415854  0.055435623            2 
  805000     0.924473   -4.4174693    536.38469  0.055526365  0.055410764            2 
  806000   0.90588027   -4.4032645    533.88229  0.055198748  0.055386176            2 
  807000   0.93690439   -4.4105126    536.22541  0.055372305  0.055361871            2 
  808000   0.91608545    -4.446113    535.97527  0.055277978  0.055337453            4 
  809000   0.91430052     -4.43995    536.02032   0.05521429  0.055313101            7 
  810000   0.93409509   -4.4190453    537.30166  0.055277948  0.055289149            3 
  811000    0.9276645   -4.4408848    537.48761  0.055228895  0.055265021            8 
  812000   0.92487661   -4.4320843    536.27686  0.055036623  0.055240957            3 
  813000    0.9331055   -4.4314925    537.22795  0.055066416  0.055216849            2 
  814000   0.94236444   -4.4438593     539.5536  0.055236855  0.055192832            3 
  815000   0.92358054   -4.4439747    538.85003   0.05509714  0.055168502            5 
  816000   0.91706923   -4.4218642    539.71515  0.055117968   0.05514423            5 
  817000   0.92696782   -4.4256361    541.41707  0.055224099  0.055119933            4 
  818000   0.94073135    -4.432179    542.46245  0.055263086  0.055096507            7 
  819000   0.90012236   -4.4278217    541.67711  0.055115701  0.055073439            2 
  820000    0.9407798   -4.4489893    539.48941   0.05482616  0.055049498            2 
  821000   0.94079865   -4.4796001    539.45007  0.054755386  0.055024717            8 
  822000   0.92363953   -4.4347414    543.67337  0.055116927  0.054999855            6 
  823000   0.92014458    -4.478526    540.47361  0.054725963  0.054975479            3 
  824000   0.92549704   -4.4238875    544.07402  0.055023667  0.054951286            2 
  825000   0.93511454   -4.4661373    543.11223  0.054859822  0.054927437            5 
  826000   0.91563537   -4.4345346    544.19229   0.05490237  0.054903561            2 
  827000   0.92954786   -4.4499148    543.96304  0.054812882  0.054879786            8 
  828000    0.9241121   -4.4360194    546.42054  0.054994016  0.054856194            3 
  829000   0.91853489   -4.4644354    543.55988  0.054640116  0.054831877            6 
  830000   0.92203201   -4.4630216    543.52955   0.05457124  0.054807132            2 
  831000   0.91195508   -4.4389893    545.38506  0.054691643  0.054782243            3 
  832000   0.91577566    -4.456321    546.29899  0.054717447  0.054757433            6 
  833000   0.91631186   -4.4481884    546.26047  0.054647906  0.054732507            4 
  834000   0.91635328   -4.4638443    546.61198  0.054617504  0.054708253            5 
  835000   0.93506407   -4.4367185    547.58968  0.054649668  0.054683483            4 
  836000   0.92064279   -4.4368424     546.4819  0.054473873  0.054659094            3 
  837000   0.92904448   -4.4594863    547.02812  0.054463174  0.054634053            4 
  838000   0.93019511   -4.4509504    548.02277  0.054497093  0.054609502            4 
  839000   0.90998376   -4.4513373    548.12211  0.054442006  0.054584554            3 
  840000   0.91348151   -4.4455198    547.70002   0.05433532  0.054559568            3 
  841000   0.92082572   -4.4849881    546.34094  0.054136043  0.054534531            3 
  842000   0.92112548   -4.4388036    551.54344  0.054586642   0.05450998            2 
  843000   0.90673567   -4.4859511    546.73138  0.054046202  0.054484544            3 
  844000   0.92461881   -4.4736899    549.16977  0.054222923  0.054459407            6 
  845000   0.89383496   -4.4824054    548.28286  0.054071288  0.054433866            4 
  846000   0.93173537   -4.4859924    549.83544  0.054160307  0.054408393            4 
  847000    0.9121228    -4.441737    550.72271  0.054183659  0.054383032            7 
  848000   0.93636868   -4.4508999    551.34257  0.054180677  0.054358124            4 
  849000   0.91211751   -4.4663237    552.87347  0.054267125  0.054332844            4 
  850000   0.92818521   -4.4671143     551.7717  0.054095265   0.05430764            2 
  851000    0.9236664   -4.4593521    554.24177  0.054273577  0.054283135            5 
  852000   0.92977556   -4.4443498    553.19382  0.054107377  0.054258565            2 
  853000   0.91698688   -4.4759129    553.50329  0.054074178  0.054234132            2 
  854000   0.91998572   -4.4502968    554.74769  0.054132289  0.054209289            2 
  855000    0.9146655   -4.4591833    554.19553  0.054015159  0.054184491            2 
  856000   0.91837593   -4.4472589    555.19686  0.054049539   0.05415965            3 
  857000    0.8951719   -4.4706928    556.34146  0.054097769  0.054135083            5 
  858000   0.93097921   -4.4670348     554.7006   0.05387535  0.054111014            3 
  859000   0.89733647   -4.4561024    557.11041  0.054046412  0.054087106            6 
  860000   0.87702184   -4.4331866    558.76853  0.054144237   0.05406338            3 
  861000   0.90469696   -4.4662732    560.12956  0.054213081  0.054039481            3 
  862000   0.90510415   -4.4651411    558.69837   0.05401183  0.054015921            3 
  863000   0.92174521   -4.5017768    559.08263  0.053986349  0.053992324            3 
  864000   0.93808269   -4.4534886    559.82776  0.053995733  0.053968502            2 
  865000   0.92141531   -4.4828409     559.0264  0.053856108  0.053944956            3 
  866000   0.90898924   -4.4721638     559.8159   0.05386989  0.053920999            4 
  867000   0.91686617   -4.4935385    559.09348   0.05373832  0.053896895            4 
  868000   0.89887678   -4.4800663    562.09427  0.053964504  0.053872859            4 
  869000   0.91776726   -4.4782941    560.21825  0.053722502  0.053848758            5 
  870000   0.91575583   -4.4726063    559.64155  0.053605512  0.053824454            5 
  871000   0.91248101   -4.4867752    561.42531   0.05371463  0.053800458            4 
  872000   0.90906914   -4.4733495    562.05824  0.053713517  0.053775852            8 
  873000   0.90802751   -4.5094943    561.52801  0.053601376  0.053750709            3 
  874000   0.91202645   -4.4851255    559.95264   0.05338984   0.05372573            2 
  875000    0.9020067   -4.4459927    561.70305  0.053495529   0.05370019            3 
  876000   0.89916695   -4.4695111    560.67607  0.053336764  0.053674449            7 
  877000   0.91689024    -4.464604    563.32976  0.053528103  0.053649011            3 
  878000    0.9110893   -4.4851762    561.24283  0.053269061  0.053622949            3 
  879000   0.89658911   -4.4642822    563.70449  0.053441836  0.053596932            5 
  880000   0.92186348   -4.5051449    562.02001  0.053221592  0.053571192            3 
  881000   0.91401728   -4.4727454    565.27881   0.05346943  0.053546142            2 
  882000   0.90128229    -4.501976    564.90441  0.053373433  0.053521149            3 
  883000   0.89173486   -4.5114701    564.86275  0.053309056  0.053495727            6 
  884000   0.93240819   -4.5040495    563.72435  0.053141435  0.053470453            6 
  885000   0.90548577   -4.5089266    565.08925   0.05320991  0.053445189            2 
  886000    0.9158389   -4.4936392    566.93999  0.053323927  0.053420288            2 
  887000   0.87170087   -4.4976581    567.95652  0.053359312  0.053395054            6 
  888000   0.90301321   -4.4768298    567.60724  0.053266445  0.053369723            2 
  889000   0.89704486   -4.4888934    567.03394  0.053152788  0.053344505            4 
  890000   0.89944037   -4.5087429    566.22429  0.053017256  0.053318938            6 
  891000     0.888436   -4.4894372    567.37476  0.053065353  0.053293165            9 
  892000   0.89467674   -4.5105976    567.21173  0.052990633  0.053267219            4 
  893000   0.87732025   -4.4841775    568.73606  0.053073541  0.053241326            4 
  894000   0.89164797    -4.498066    568.43409  0.052986026  0.053215243            6 
  895000   0.89938996   -4.5063726    566.97573  0.052791036  0.053188989            3 
  896000   0.89352984   -4.4969255    568.54237  0.052877825  0.053163041            3 
  897000   0.88820116   -4.4932812    567.22989  0.052696942  0.053136876            2 
  898000    0.9140308   -4.4883148    570.83955  0.052973233  0.053110953            5 
  899000   0.90762278   -4.5123861    572.00955  0.053022762  0.053085512            6 
  900000   0.90560652   -4.5007823     569.5411  0.052735287  0.053059693           14 
  901000   0.88559751   -4.4848011     570.2336  0.052740807  0.053034245            5 
  902000   0.88609834   -4.5061418    572.24903  0.052868536  0.053008631            5 
  903000   0.88101087   -4.4798389     571.8716  0.052775157  0.052983037            5 
  904000   0.89827526    -4.536217    572.89704  0.052811305  0.052957324            3 
  905000   0.89565202   -4.4740944    572.00276  0.052670604  0.052932047            3 
  906000   0.90103745   -4.5528324    573.69511   0.05276813  0.052906815            3 
  907000   0.88625806   -4.5123567    572.12321  0.052565528  0.052881237            5 
  908000   0.89070232   -4.5048811    572.08841  0.052504443  0.052854942            2 
  909000   0.89517479   -4.5092528    573.28023  0.052555943  0.052828873            6 
  910000   0.89458742   -4.5052157     572.3639  0.052414277  0.052802405            2 
  911000   0.90154198   -4.5273112     573.3372  0.052445774  0.052775508            2 
  912000   0.87026645   -4.5022666    573.21212  0.052376838  0.052748779            3 
  913000   0.90028431   -4.5372712    573.26347  0.052324157  0.052722241            2 
  914000   0.87051083   -4.5110856    575.12364   0.05243651  0.052696334            7 
  915000   0.90571303   -4.5129806      574.574  0.052329144    0.0526702            5 
  916000   0.89594027   -4.5118191    574.54583  0.052269453  0.052643784            4 
  917000   0.86129933   -4.5043419    575.60904  0.052309073  0.052617777            2 
  918000    0.8882845   -4.5114426    576.20136  0.052305861  0.052591188            3 
  919000   0.88232118   -4.5381059    575.03747  0.052143405  0.052564541            5 
  920000   0.89357245   -4.5143682    574.11567  0.052003231  0.052537845            4 
  921000   0.88986694    -4.506339    576.05381  0.052122133  0.052510948            3 
  922000   0.87484612   -4.5251421    575.94322  0.052055605  0.052483851            7 
  923000   0.89431148   -4.5116518    574.83309  0.051898979  0.052457027            7 
  924000   0.88426228   -4.5035655    579.09375   0.05222707  0.052430547            5 
  925000   0.89338526   -4.5025128    577.13561  0.051994199  0.052403708            6 
  926000   0.88797677   -4.5047654    577.70549  0.051989335  0.052377465            6 
  927000   0.88342117   -4.5128588    577.31725   0.05189835    0.0523514            3 
  928000   0.88224027   -4.5246612    577.77896  0.051883886  0.052324905            2 
  929000   0.87480705   -4.5231837    577.19519  0.051775672  0.052298249            4 
  930000   0.87250448   -4.4916219    582.12663  0.052161884  0.052271442            4 
  931000   0.88726532   -4.4940881    579.76023  0.051894041  0.052244876            3 
  932000   0.88453148   -4.5415776     580.2132  0.051878863  0.052218222            3 
  933000   0.89119275   -4.5326596    580.86311  0.051881307  0.052191379            5 
  934000   0.86776726   -4.4964492    581.43062  0.051876393  0.052164895            4 
  935000   0.87945809   -4.5154102    581.30149  0.051809402  0.052139077            6 
  936000   0.88979889   -4.5189798    583.74213  0.051971343  0.052113122            5 
  937000   0.87327187   -4.4887507    581.65456  0.051730217  0.052086832            4 
  938000   0.88674258   -4.5400788    580.79307  0.051598532  0.052060861            4 
  939000   0.87753125    -4.507608    584.41254  0.051864797  0.052034441            2 
  940000   0.87144129   -4.5334029    582.59432  0.051648433  0.052007896            6 
  941000   0.87302431   -4.5374151    582.43352  0.051579306  0.051981431            2 
  942000   0.87907168   -4.5462405    582.45233  0.051526215  0.051954941            9 
  943000   0.88369927   -4.5181479    586.50059   0.05182932  0.051928164            4 
  944000   0.85543624   -4.5191585    586.07124  0.051736515  0.051901801            4 
  945000   0.86589586   -4.5057696    583.93103  0.051493036  0.051875266            5 
  946000   0.86113082   -4.5316428    585.76677  0.051600315  0.051848828            3 
  947000   0.86231363   -4.5594996    584.63169  0.051445943  0.051821843            6 
  948000   0.88026329   -4.5264142    585.50632  0.051468558   0.05179526            3 
  949000   0.86319301   -4.5511793    585.13504  0.051381721  0.051768613            5 
  950000   0.89813647   -4.5591557    587.64149  0.051547499  0.051742225            6 
  951000   0.88317158   -4.5321562    586.75446  0.051415568   0.05171577            7 
  952000   0.89461918   -4.5268629    587.06919   0.05138911  0.051689248            5 
  953000   0.87327509   -4.5265807     585.6131  0.051207861  0.051662764            5 
  954000   0.87442583   -4.5229813    588.54821  0.051410571  0.051636854            6 
  955000   0.87505688   -4.5481023    588.90642  0.051387995  0.051610805            4 
  956000   0.87290955   -4.5316203     589.5231  0.051387997  0.051584896            6 
  957000   0.88639153   -4.5347243     589.4624  0.051329014  0.051559034            3 
  958000   0.86442062   -4.5265234    590.52174  0.051367583  0.051532878            2 
  959000   0.84823856   -4.5278969    588.46005  0.051134867  0.051506387            4 
  960000   0.86481637   -4.5498191    589.14604  0.051141149  0.051479995            7 
  961000   0.84961569   -4.5240264    590.05663  0.051166895  0.051453743            4 
  962000   0.86484921   -4.5207952    589.33435  0.051051139  0.051427507            4 
  963000   0.88693325   -4.5704348    588.27517  0.050906471  0.051400955           14 
  964000   0.88956076   -4.5271662    589.56355  0.050965037  0.051374405            3 
  965000   0.86111411   -4.5357349    591.54939  0.051083712  0.051348524            8 
  966000   0.88310362    -4.525286    593.71479  0.051217632  0.051322535            4 
  967000   0.87745024   -4.5611847    593.08203  0.051110137  0.051296546            5 
  968000   0.87160493   -4.5483697    593.31459  0.051077358  0.051270565            5 
  969000   0.85784836   -4.5518452    593.69662  0.051057501  0.051244721            3 
  970000   0.85989277   -4.5565867    593.32441  0.050972887  0.051219014            4 
  971000   0.86393081    -4.569796    593.10213  0.050901316  0.051192635            7 
  972000   0.86734219   -4.5486882    593.02394  0.050842244  0.051166253            6 
  973000    0.8413843    -4.554489    592.87865  0.050777548  0.051139952            7 
  974000   0.86168878   -4.5490517    595.27416  0.050930369  0.051114181            4 
  975000   0.86422325   -4.5402589    595.68361  0.050913129  0.051088182            4 
  976000   0.87094144   -4.5401128    595.48037   0.05084361  0.051062147            3 
  977000   0.86357388   -4.5427864     595.4232  0.050786694  0.051036132            9 
  978000   0.87292208   -4.5411977    595.84906  0.050771052  0.051010309            4 
  979000   0.85824302   -4.5550317    598.17509  0.050917185  0.050984333            4 
  980000    0.8530843   -4.5320393    597.83776  0.050836544  0.050958804            4 
  981000   0.85957328   -4.5819719    596.82687  0.050698851  0.050932977            4 
  982000   0.82597675   -4.5596885     596.7975   0.05064473  0.050907071            3 
  983000   0.86305448    -4.577659    597.65783  0.050666143  0.050881368           10 
  984000   0.86781982   -4.5455289    597.32402  0.050586383  0.050855594            6 
  985000   0.85266796   -4.5601219    598.12505  0.050602796  0.050829769            4 
  986000     0.848309   -4.5488479    599.88939  0.050700591  0.050803843            2 
  987000   0.85711573   -4.5495347    598.24252  0.050510175  0.050777834            5 
  988000   0.83755097   -4.5752201    598.34492  0.050467689  0.050752192            5 
  989000   0.87231061   -4.5161835    601.22501  0.050659337  0.050726536            2 
  990000   0.88633088   -4.5921026    601.16684  0.050603269  0.050700969            7 
  991000   0.86184319   -4.5301081    602.04286  0.050625871  0.050675436            6 
  992000   0.86078305    -4.571936    600.42492  0.050438921  0.050649367            4 
  993000   0.85165757   -4.5847685     599.4184  0.050303659  0.050622795            6 
  994000   0.84336008   -4.6047135    598.54259  0.050179627  0.050595973            4 
  995000   0.85201666   -4.5641927     601.3648  0.050365561  0.050569301            5 
  996000   0.85978711   -4.5501464    601.77217  0.050349077  0.050543199            4 
  997000   0.84789784   -4.5709216    601.88901  0.050308342  0.050516736            6 
  998000    0.8643167   -4.5777763    599.89546  0.050091471  0.050490314            4 
  999000   0.82369835    -4.550218    601.77699  0.050198281   0.05046352            3 
 1000000   0.85931263   -4.5498544    602.45573  0.050204644  0.050436954            6 
 1001000    0.8640587   -4.5811179    602.44935  0.050153959  0.050410661            9 
 1002000   0.84217653   -4.5755055    601.37185  0.050014292  0.050384462            2 
 1003000   0.85425038   -4.5535253    602.93457  0.050094265  0.050357742            3 
 1004000   0.86943361   -4.5634218    602.65208  0.050020923  0.050331246            4 
 1005000   0.86332087   -4.5975562    602.97883  0.049998244  0.050304451            3 
 1006000    0.8690922   -4.5626298    604.04991  0.050037269  0.050277777            4 
 1007000    0.8427667   -4.5942451    604.08324  0.049990338   0.05025088            4 
 1008000    0.8530197   -4.5703518     603.0195  0.049852802  0.050223783            6 
 1009000   0.85744778   -4.5621842    604.41054   0.04991828   0.05019719            5 
 1010000   0.86801557   -4.5759578    605.59279  0.049966402  0.050170514            6 
 1011000   0.85466043   -4.5822519    604.46987   0.04982442  0.050143839            5 
 1012000   0.85106579   -4.5825719    605.63333  0.049870992  0.050116859            3 
 1013000   0.85535433   -4.5776292    602.93535  0.049599815  0.050090053            4 
 1014000   0.85195631   -4.5969996    602.62102  0.049525067  0.050063081            5 
 1015000   0.82984628   -4.5604179    603.76356  0.049570079  0.050035727            6 
 1016000   0.85362203   -4.5755303     604.4399  0.049576763  0.050008703            3 
 1017000   0.83756982   -4.5651672    606.19247  0.049671622  0.049981909            5 
 1018000   0.83347524   -4.6075923    604.73813  0.049503777  0.049954855           11 
 1019000   0.86377168    -4.580294    605.15219  0.049489057  0.049927704            4 
 1020000   0.83888691   -4.5829882    604.28068  0.049369336  0.049900536            6 
 1021000   0.84887246   -4.5806722    603.97644  0.049296151  0.049873062            5 
 1022000   0.85913419   -4.5980488    606.80478  0.049478537  0.049845513            4 
 1023000   0.84284558    -4.601545     606.2944  0.049388595  0.049818053            5 
 1024000   0.84514626   -4.5688033    605.30947  0.049260211  0.049790761            5 
 1025000   0.84932764   -4.5844524     607.9017  0.049422902  0.049763652            6 
 1026000   0.84793286    -4.608757    606.96339  0.049298521  0.049736122            4 
 1027000   0.84348495   -4.6084643    606.56455  0.049218156  0.049708415            5 
 1028000   0.85137782   -4.6246485    607.46189  0.049243019  0.049680873            5 
 1029000   0.83701468   -4.5871006    608.47377  0.049277111  0.049653158            3 
 1030000   0.83988589   -4.5829603    609.83513  0.049339412  0.049625731            2 
 1031000   0.85172208    -4.609091    607.89561  0.049134789  0.049598195            2 
 1032000   0.84164364   -4.5927604    608.19308  0.049111198  0.049571039            4 
 1033000    0.8256665   -4.5924538    610.92513  0.049284054  0.049543869            3 
 1034000   0.85440816   -4.5935642    608.23108  0.049019268  0.049517155            7 
 1035000   0.84898622   -4.5570091     610.9975  0.049194646  0.049490448            3 
 1036000   0.85207588   -4.5818688    611.19077  0.049162707  0.049464075            5 
 1037000   0.84626561   -4.5976576    610.01131  0.049020517  0.049437494            3 
 1038000   0.84185695   -4.5803654    611.12091  0.049062372  0.049410563            9 
 1039000   0.85340995   -4.6114115    608.87967  0.048835392  0.049383888            3 
 1040000   0.83135902   -4.6029583    612.10696  0.049047032  0.049356701            6 
 1041000   0.83460498   -4.6385318    610.74828  0.048891152  0.049329611            4 
 1042000   0.83834673   -4.5777697    611.91773  0.048937758  0.049302386            5 
 1043000   0.83598643   -4.5923455    611.73535  0.048876266  0.049275094            7 
 1044000   0.84724764   -4.6024743    611.60596  0.048819122  0.049247726            3 
 1045000   0.85472884   -4.5992584    611.61576  0.048773186  0.049220142            7 
 1046000   0.83257181   -4.6248166    611.41157   0.04871029   0.04919279            6 
 1047000   0.82395393   -4.6037554    610.97925  0.048629358  0.049165048            9 
 1048000   0.84742106   -4.6336644    611.26247  0.048605476  0.049137506            4 
 1049000   0.81901021   -4.6262847    613.82836  0.048762977  0.049109812           11 
 1050000    0.8351784   -4.6086413     611.3382  0.048518905  0.049081951           10 
 1051000   0.83068416   -4.6036897    613.78641  0.048666857  0.049054338            5 
 1052000    0.8300761   -4.6540389     613.3308  0.048584506  0.049026421            5 
 1053000   0.85595378    -4.627841    615.12608  0.048680443  0.048998662            8 
 1054000   0.82922416   -4.6412987    610.73113  0.048286775  0.048971123            3 
 1055000   0.83902463   -4.5967118     614.4007  0.048530861   0.04894348            3 
 1056000    0.8366849   -4.6132973    613.35094  0.048402063  0.048915858            7 
 1057000   0.83818148   -4.6268274    613.30925  0.048352984    0.0488886            8 
 1058000   0.84620312   -4.6385821       612.46  0.048240391  0.048861028            5 
 1059000   0.81393331   -4.6281668       614.86  0.048383695  0.048833225            6 
 1060000   0.83949449   -4.5963715    615.61481  0.048397391  0.048806117            3 
 1061000   0.83738791   -4.5922759    617.79001  0.048522621  0.048778811            3 
 1062000    0.8180644    -4.614334    617.11667  0.048424095  0.048751804            7 
 1063000   0.84089591   -4.6244302    616.91248  0.048362533  0.048724664            5 
 1064000   0.84614988   -4.6167577    616.89275  0.048315535  0.048697686            9 
 1065000   0.83230456   -4.6078587     620.3578  0.048541299  0.048670943            4 
 1066000   0.83172033   -4.6351868    616.89938  0.048225405   0.04864416            1 
 1067000   0.83378273   -4.5987842    618.19711  0.048281562  0.048617381            6 
 1068000   0.80958535   -4.6131235    617.92186  0.048214876  0.048590569            3 
 1069000   0.83504501   -4.6325506     618.6454  0.048226177  0.048564173            7 
 1070000   0.82130177   -4.6388087    621.07716  0.048370496  0.048538081            5 
 1071000   0.82224891   -4.6446642    620.19399  0.048256613  0.048511452            4 
 1072000   0.84262551   -4.6392628    619.11487  0.048127711  0.048484598            4 
 1073000   0.83359421   -4.5990474     621.5441  0.048271521  0.048457901            6 
 1074000   0.82482471   -4.6123617    619.83309  0.048093815  0.048431398            6 
 1075000   0.81850705   -4.6347108     617.9802  0.047905442  0.048405209            6 
 1076000   0.81825809   -4.6153972    621.05951  0.048099405  0.048378547            3 
 1077000   0.80258901   -4.6372574     620.8082  0.048035299  0.048351865            8 
 1078000   0.81500205    -4.671952    622.91143  0.048153326  0.048325313            5 
 1079000   0.82561547   -4.6291022    624.19976  0.048208199  0.048299043            4 
 1080000    0.8368149   -4.6221031    623.04682    0.0480746  0.048273102           11 
 1081000   0.83141958   -4.6424538    623.75829  0.048084975  0.048246956            3 
 1082000   0.81392072   -4.6391776    623.87223  0.048049309  0.048220831            7 
 1083000   0.82705123   -4.6399968    623.33894  0.047963907  0.048194357           10 
 1084000   0.82716836   -4.6477024    622.35438  0.047843971  0.048167708            4 
 1085000   0.82502961   -4.6684505      621.786  0.047756221  0.048140798            3 
 1086000   0.81996512   -4.6472994    621.77241  0.047711204  0.048113949            4 
 1087000    0.7993878   -4.6619577     624.3043  0.047861416  0.048087465            6 
 1088000   0.80817374   -4.6314838    624.81219  0.047856326  0.048060714            5 
 1089000   0.83988319   -4.6364059    625.61753  0.047874007  0.048034272            4 
 1090000   0.79726667   -4.6764525    622.98984  0.047629193  0.048007882            8 
 1091000   0.81941851   -4.6196449    627.23141  0.047909518  0.047981496            3 
 1092000   0.80636768    -4.641976    626.12959  0.047781562  0.047955371           17 
 1093000   0.81313441   -4.6491603    626.14535  0.047739048  0.047928989            4 
 1094000   0.79808313    -4.659342    626.05812  0.047688766  0.047902621            7 
 1095000   0.83031246   -4.6592272    626.22041  0.047657566  0.047876129            2 
 1096000   0.80665852     -4.64501    624.81541  0.047507255  0.047849533            7 
 1097000   0.82940274   -4.6894647    625.72722  0.047533213  0.047823121            6 
 1098000   0.81240175   -4.6631259    627.73116  0.047642013  0.047796467            7 
 1099000   0.81389181    -4.674321     624.5034  0.047353913  0.047769962           13 
 1100000   0.81889697   -4.6551899    628.03069  0.047578083  0.047743602            5 
 1101000   0.80692489   -4.6583684     629.0491  0.047611951  0.047717083            3 
 1102000    0.8064734   -4.6636345    628.37578   0.04751783  0.047690542            4 
 1103000   0.82305906   -4.6703867     627.6411  0.047419243  0.047664282            5 
 1104000   0.81453808   -4.6874616    628.88548  0.047470221  0.047637961            4 
 1105000    0.8216944   -4.6333914    629.33959  0.047461507  0.047611751            5 
 1106000   0.82248199   -4.6709907    628.20293  0.047332952  0.047585143            7 
 1107000   0.81369327   -4.6531255    627.81166  0.047260739  0.047558737            4 
 1108000   0.79957346   -4.6663472     629.7544    0.0473642  0.047532465            4 
 1109000   0.79550245   -4.6739243    629.23499  0.047282461  0.047506219            5 
 1110000   0.82128707   -4.6805162    628.53474  0.047187293   0.04747996            5 
 1111000   0.81242043   -4.6690968    627.84862  0.047093356  0.047453751           16 
 1112000   0.80759339   -4.6824535     630.1839  0.047226012  0.047427383           11 
 1113000   0.80416977   -4.6686186    632.71235  0.047372892  0.047401378            5 
 1114000   0.79792339   -4.6512635    631.48749  0.047238741  0.047375696            2 
 1115000   0.80361113   -4.6054983    635.03316  0.047461372  0.047350062            4 
 1116000   0.78422754   -4.6811931     631.6695  0.047167675  0.047324144            6 
 1117000   0.81454797   -4.6727021    630.13244  0.047010776  0.047298086            3 
 1118000   0.80390921   -4.6501024     631.9507  0.047104256  0.047272262            5 
 1119000   0.81902419   -4.6957113    631.40548  0.047021558  0.047246345            6 
 1120000   0.79990063   -4.6817963    631.23851  0.046967151  0.047220407            6 
 1121000   0.80601554   -4.6542054    634.15919  0.047142372  0.047194236            4 
 1122000   0.81452247   -4.6792385    632.75872   0.04699634  0.047168122            3 
 1123000   0.79761571   -4.6962106    633.82259  0.047033436  0.047142318            4 
 1124000   0.81639508   -4.6365022    635.32571  0.047103033    0.0471164            7 
 1125000   0.81719847   -4.6573236    635.05255  0.047040929  0.047090948            4 
 1126000   0.80640495    -4.661491    633.72159  0.046900651  0.047065095           15 
 1127000   0.79894308   -4.6770461    635.21049  0.046969128  0.047039567            7 
 1128000   0.79474612   -4.6515148    634.51761  0.046876301  0.047014331            4 
 1129000   0.79851643   -4.6829259     635.3371  0.046895268  0.046988653            7 
 1130000   0.80768935   -4.6707162    635.82787  0.046889961  0.046962688            6 
 1131000   0.79380319   -4.6879416      635.397  0.046816755  0.046936796            9 
 1132000   0.81311464   -4.6965631    634.71636  0.046725292  0.046910499           12 
 1133000   0.80208735   -4.6856952    636.12406  0.046787589  0.046884578            4 
 1134000   0.80147962   -4.7005067    636.12174   0.04674616  0.046858726            6 
 1135000   0.79880141    -4.661849    637.08178  0.046775461  0.046832926            3 
 1136000   0.80201081   -4.6874261    636.75072      0.04671  0.046807166            4 
 1137000   0.78923971   -4.6906784    637.44987  0.046720161   0.04678138           10 
 1138000   0.80167093   -4.6764907    637.04217  0.046649251   0.04675574            6 
 1139000   0.78055512   -4.6789793    639.26828  0.046771164   0.04673006           11 
 1140000   0.80185124   -4.6909268    639.67944  0.046760193  0.046704483            7 
 1141000   0.79122339   -4.6764104    637.69582  0.046574337  0.046678832            6 
 1142000   0.79473758   -4.6699969    638.66936  0.046604594  0.046652927            5 
 1143000   0.80208185   -4.6712505     638.9335  0.046583078  0.046627133            2 
 1144000   0.78794342   -4.6768606    640.39176  0.046648584  0.046601518            5 
 1145000   0.80018421   -4.7060026    639.45111  0.046539382  0.046576145            3 
 1146000   0.79422979   -4.6806236    640.91354  0.046605115   0.04655054            6 
 1147000   0.81530445   -4.6622293    641.74984  0.046625242  0.046524941            6 
 1148000   0.78817803   -4.6741647    639.90259  0.046450536  0.046499381            4 
 1149000   0.78825369   -4.6777235    638.38559  0.046300086  0.046473505            5 
 1150000    0.7962887    -4.698375    639.71627  0.046356252   0.04644813            4 
 1151000   0.77523183   -4.6727046    641.82212  0.046468442  0.046422571            3 
 1152000   0.78719389   -4.6827019    640.82494   0.04635597  0.046396823            7 
 1153000    0.7893235   -4.6722282    639.50677  0.046220495  0.046370974           12 
 1154000   0.78658957   -4.6636422     641.0582  0.046292475  0.046345262            3 
 1155000   0.80913294   -4.6989153    641.04538   0.04625147  0.046319432            8 
 1156000    0.7972934   -4.6699386    642.23041  0.046296886  0.046293578           10 
 1157000    0.7868913   -4.7207308    637.65355  0.045927222  0.046267825            9 
 1158000   0.78940468   -4.6709067    640.65826  0.046103789  0.046241985            5 
 1159000   0.77135975    -4.720953       640.21   0.04603178  0.046215979            7 
 1160000   0.77806731   -4.7126757    640.32556  0.046000399  0.046189932            7 
 1161000   0.78027198   -4.7236721    642.49847  0.046116743  0.046164363            4 
 1162000   0.79297381   -4.6935804    642.94426  0.046109026  0.046138912            9 
 1163000   0.78835033   -4.7140576    641.98059  0.046000329  0.046113528            6 
 1164000   0.79657252   -4.6961899    643.39615  0.046062153  0.046088273           11 
 1165000   0.78339889   -4.7185978    642.95044  0.045990733  0.046062832           15 
 1166000   0.79079306   -4.7050075    643.85629   0.04601603  0.046037136           11 
 1167000   0.78226514   -4.7076988    644.15525  0.045997947   0.04601142            3 
 1168000   0.77226578   -4.6942109    642.77057  0.045859772  0.045985911            5 
 1169000    0.7873106   -4.7150114    645.60361  0.046022499  0.045960413            5 
 1170000   0.79865645   -4.6799097    646.31052  0.046033513  0.045934821            4 
 1171000   0.79038216   -4.6998584    645.24498  0.045918373  0.045909565            9 
 1172000    0.7870308   -4.6955269    643.56863  0.045759999  0.045884315            4 
 1173000    0.7908782   -4.7429738    643.86408  0.045741978  0.045858698            3 
 1174000   0.78105272   -4.7149024    645.98199  0.045853349  0.045833239            3 
 1175000   0.76727055   -4.7262332    644.61119  0.045717106  0.045807533            4 
 1176000    0.7885025   -4.7097713    645.07008  0.045710749  0.045781652            9 
 1177000   0.77981838   -4.6928871    645.30955  0.045688867  0.045755963            5 
 1178000   0.79386931   -4.7130635    645.92686  0.045693751  0.045730082            5 
 1179000   0.78971519   -4.7234416    645.41698  0.045618955  0.045704365            4 
 1180000   0.76844203   -4.6964524    647.40508  0.045720698  0.045678743            8 
 1181000   0.79480084   -4.7123352    645.70415  0.045561964  0.045653136            4 
 1182000   0.77724678   -4.6992778    647.14685   0.04562513  0.045627525            6 
 1183000    0.7616249   -4.7023381    647.96823  0.045644423  0.045601984            6 
 1184000   0.79164401   -4.7224059    644.58064  0.045367443  0.045576051            5 
 1185000   0.78193881   -4.6922712    649.51661  0.045676274  0.045550382           17 
 1186000   0.75622458   -4.7103803    645.25343  0.045338212   0.04552469           11 
 1187000   0.76674457   -4.7224478    647.01939  0.045423996  0.045499018           12 
 1188000   0.77243456   -4.7309209     648.9657  0.045522286  0.045473487            5 
 1189000   0.77585503   -4.7160981    650.27336  0.045575649  0.045447964            4 
 1190000   0.78853716   -4.7298777    649.51109   0.04548397  0.045422541            5 
 1191000   0.78332453   -4.7142708    649.36456  0.045435528  0.045397022            8 
 1192000   0.76656983   -4.7184628    649.93997  0.045437638  0.045371427            5 
 1193000   0.78498483   -4.7276089    648.46562  0.045296565  0.045345808           12 
 1194000    0.7671291   -4.6898682     649.3712  0.045321832  0.045320239            6 
 1195000   0.76443937   -4.7039165    648.53912   0.04522588  0.045294797            5 
 1196000   0.75801309   -4.7223508    647.74282  0.045132582  0.045269182            3 
 1197000    0.7853854   -4.7470012    648.95757  0.045179447    0.0452436            6 
 1198000   0.78566118   -4.7170537    650.22336  0.045229783  0.045218349            7 
 1199000   0.78934821   -4.7235671    648.92799  0.045102029  0.045192731            5 
 1200000   0.77172103   -4.7000272    650.62419  0.045182235   0.04516726            6 
 1201000   0.76243167   -4.7021305    650.57295  0.045141059  0.045141736            7 
 1202000   0.76875926   -4.7153017    648.75155  0.044977229  0.045116107            8 
 1203000   0.76361944   -4.7366864    652.13766  0.045174401  0.045090611            8 
 1204000   0.76787545   -4.7213762    652.64194  0.045171784  0.045065025            6 
 1205000   0.77833624   -4.7380749    650.04714   0.04495485  0.045039571            7 
 1206000    0.7752923   -4.7195328    651.70221  0.045031938  0.045013978           15 
 1207000   0.79145676   -4.7433285    652.05473  0.045018968   0.04498853            3 
 1208000   0.77257525   -4.7074073    651.95909  0.044975103  0.044963539            5 
 1209000   0.77364277   -4.7212185     652.2676  0.044959168  0.044938264            4 
 1210000   0.77442422   -4.7486871      651.387  0.044861363  0.044912761            8 
 1211000   0.79469893   -4.7470158    650.32627  0.044751326  0.044887589            6 
 1212000   0.77223564   -4.7445696    651.78615  0.044814779  0.044862304            5 
 1213000   0.76693449   -4.7168429    652.54416  0.044829909  0.044836981            5 
 1214000   0.77524421   -4.7594867    653.23341  0.044840294  0.044811762            3 
 1215000   0.76942512   -4.7498383    653.47999  0.044820301   0.04478644            7 
 1216000    0.7755785   -4.7458215     654.1375  0.044828502   0.04476117            6 
 1217000   0.77146307    -4.743543    653.21386  0.044728421  0.044735873            4 
 1218000    0.7658517   -4.7550263     654.9284  0.044809004  0.044710411            7 
 1219000   0.76100827    -4.745092    654.40084   0.04473618  0.044685109            4 
 1220000   0.76435135   -4.7422925    655.07878  0.044745818  0.044659696            4 
 1221000   0.77298707   -4.7407799    652.88423  0.044559394   0.04463464            5 
 1222000   0.76671766   -4.7509931    654.77047   0.04465156   0.04460936           13 
 1223000   0.76591569   -4.7367459     656.1893  0.044711727  0.044584194            9 
 1224000   0.77186728    -4.748827     654.7331  0.044576055  0.044558951            5 
 1225000     0.749979   -4.7617072    655.95569  0.044622836  0.044533689            5 
 1226000   0.75774258   -4.7356848    658.09946  0.044732155  0.044508696            5 
 1227000   0.76361086   -4.7375551    657.63899  0.044664425  0.044483667            8 
 1228000   0.77485281   -4.7352127     656.3721   0.04454208  0.044458431            8 
 1229000   0.76898214   -4.7452235    656.85747  0.044538749  0.044433464           18 
 1230000   0.77456652   -4.7625396    657.51636  0.044547179  0.044408305            5 
 1231000   0.77587693   -4.7480989    655.89956  0.044401541  0.044383373           12 
 1232000   0.74826735    -4.750651    657.87254  0.044498954  0.044358527            5 
 1233000   0.74448891   -4.7411354    657.09477  0.044410298  0.044333928            7 
 1234000   0.76832184   -4.7570277    658.10034  0.044442216  0.044309262            7 
 1235000   0.76524792   -4.7389604    658.32001  0.044421053  0.044284586            4 
 1236000   0.75814183   -4.7771147    660.76318  0.044549837  0.044260191            3 
 1237000   0.76313648   -4.7629594    658.77891  0.044380148  0.044235517           32 
 1238000   0.74934896   -4.7519227    661.95127   0.04455784  0.044210748            5 
 1239000   0.75808203   -4.7619967    657.49517  0.044222167  0.044185843            6 
 1240000   0.76899563   -4.7328472    660.90894  0.044415923  0.044160916            7 
 1241000   0.75194452   -4.7567339    660.99104  0.044385646   0.04413633            9 
 1242000   0.76023038   -4.7575871    659.60789  0.044257105  0.044111668            5 
 1243000   0.74555766   -4.7572671    659.31038  0.044201554  0.044086794            4 
 1244000   0.76837118   -4.7773383    658.78872  0.044131077  0.044061818           11 
 1245000   0.76170984   -4.7262891    661.02089   0.04424504  0.044037009           10 
 1246000   0.76157112   -4.7445776    659.28389  0.044093358   0.04401228            3 
 1247000   0.75839318   -4.7723656    660.44971  0.044135907   0.04398762           10 
 1248000   0.73550905   -4.7586256    662.58819  0.044243335  0.043962988            6 
 1249000   0.75870048   -4.7492387    662.31147   0.04418945  0.043938605            4 
 1250000   0.74204733    -4.762761    661.33425   0.04408895  0.043914119            7 
 1251000   0.76153585   -4.7551931    662.00084  0.044098111  0.043889644            8 
 1252000   0.74088519   -4.7763725    661.70258  0.044043037  0.043865064           15 
 1253000    0.7528129   -4.7393149    660.64247  0.043937382  0.043840667            7 
 1254000   0.76327424   -4.7601024    663.63876  0.044101459  0.043816275            7 
 1255000   0.74734911   -4.7617655    662.83281  0.044012803  0.043791745            5 
 1256000   0.75390993   -4.7613616    661.83022  0.043911241   0.04376722            6 
 1257000   0.74853971   -4.7408871    665.23559  0.044102068  0.043742746           10 
 1258000   0.74288306   -4.7918316    663.73531  0.043967628   0.04371851            5 
 1259000   0.75494806   -4.7365514     664.1372  0.043959306  0.043694179            5 
 1260000   0.74633456   -4.7631262    663.46067  0.043879674  0.043669656            6 
 1261000   0.71152911   -4.7980967     662.3076  0.043768676  0.043645071            5 
 1262000   0.74744507   -4.8000733    662.72406  0.043761493   0.04362046            4 
 1263000   0.74035161   -4.7824926    664.41317  0.043838293  0.043595516            5 
 1264000   0.74439586   -4.7776146    662.15679  0.043654852  0.043570722            8 
 1265000   0.74259064   -4.7924163    663.83795   0.04373109   0.04354626            6 
 1266000   0.73343296   -4.7660681     666.0638  0.043843062   0.04352185            9 
 1267000   0.75089015   -4.7678129    666.42326  0.043832101  0.043497582            4 
 1268000   0.75535057   -4.7624329    666.14319  0.043779127  0.043473177           10 
 1269000   0.75445509    -4.769313    664.45812  0.043633971  0.043448955            9 
 1270000   0.76511463   -4.7694508    667.26796  0.043783987  0.043424594            7 
 1271000   0.74428967   -4.7742706    666.44051  0.043695287  0.043400422            5 
 1272000   0.73088657   -4.7889506     664.6144    0.0435413  0.043376156            3 
 1273000   0.75246653   -4.7750203    665.29926  0.043551928  0.043351842            8 
 1274000   0.72962186   -4.7866908    664.86862  0.043489575  0.043327516            5 
 1275000   0.75088397   -4.7823245    665.64215  0.043506023  0.043302881           12 
 1276000    0.7482726    -4.781433    666.69991  0.043541008  0.043278294           11 
 1277000   0.74154411   -4.7837568    665.38737  0.043421259    0.0432537            6 
 1278000    0.7449373   -4.7972436    664.64044  0.043338578  0.043229151            6 
 1279000   0.74604364   -4.7913606    665.85243  0.043383661  0.043204671            8 
 1280000   0.75615863   -4.7873354      667.685  0.043469075  0.043180333            4 
 1281000   0.75156028   -4.7742566    668.23526  0.043470938  0.043155944            4 
 1282000   0.72745326   -4.7757833    669.10053  0.043493274  0.043131816            4 
 1283000   0.75781125   -4.8086114    668.75974   0.04343724  0.043107542           10 
 1284000   0.73600763    -4.808282    668.67774  0.043398088  0.043083339            5 
 1285000   0.75166027   -4.8080028    668.15627  0.043330497  0.043058941            5 
 1286000   0.75242796   -4.7898011    666.66895  0.043200425  0.043034593            4 
 1287000   0.72754166    -4.769883    668.42813  0.043280764  0.043010142            7 
 1288000   0.73428257   -4.7840572    666.12289  0.043098013  0.042985608            7 
 1289000   0.72022995   -4.8038055    667.37433  0.043145483  0.042960977            4 
 1290000   0.73880737   -4.7888509    669.50464  0.043249654  0.042936633            7 
 1291000   0.75253099   -4.8094204    667.87993  0.043111279  0.042912632            8 
 1292000   0.73241955   -4.7961199    668.93694  0.043146087  0.042888427            5 
 1293000    0.7430468   -4.8151937    672.90436  0.043368417  0.042864534            6 
 1294000   0.72454074   -4.8007557    669.50016  0.043115672  0.042840182            8 
 1295000   0.74580446   -4.8049487    669.10133  0.043056714  0.042816135           11 
 1296000   0.72415981   -4.8106721    668.19198   0.04296502  0.042791854            5 
 1297000   0.74950112   -4.8144456    668.12124  0.042927348  0.042767572            7 
 1298000   0.73305378   -4.8037202    670.96314  0.043076729  0.042743533           13 
 1299000    0.7401112   -4.7879584    671.57507  0.043082825  0.042719345           14 
 1300000   0.74072433   -4.7907871     670.1907  0.042960942  0.042695419            3 
 1301000   0.73981836   -4.8072938    670.95684  0.042976994  0.042671131            4 
 1302000   0.74513557   -4.8408016    670.50094  0.042914806  0.042646808            6 
 1303000   0.74131225   -4.8149721    669.10184  0.042792392  0.042622514            8 
 1304000   0.71967076   -4.8066265    670.05209  0.042820302  0.042598232            7 
 1305000   0.72014995   -4.8081729    671.08471   0.04285343  0.042574037            8 
 1306000   0.71948595   -4.8076913    671.29634   0.04283412  0.042549904            4 
 1307000   0.73953724   -4.8178241    670.61051   0.04275762  0.042525483            9 
 1308000   0.73681492   -4.8166692    671.27652  0.042767362  0.042501215            4 
 1309000   0.73511099   -4.8080369    672.00021  0.042780762  0.042476863            7 
 1310000   0.72465855   -4.8059047    670.36622  0.042644161  0.042452287            4 
 1311000    0.7334116   -4.7917746    671.01648  0.042652967  0.042427948            8 
 1312000   0.72883938   -4.8013263    672.26769   0.04269993  0.042403744            5 
 1313000    0.7333671   -4.7891877    670.13988  0.042532361  0.042379358            7 
 1314000   0.71861605   -4.8150396     670.6699  0.042533606  0.042354991            8 
 1315000   0.72958131   -4.7906131    671.18961  0.042534196  0.042330501            7 
 1316000   0.72961794   -4.7947815    672.26828   0.04257018  0.042306217            6 
 1317000   0.72729437   -4.8164606    671.08085  0.042462721  0.042281668           13 
 1318000   0.71853267   -4.8070744    671.35558  0.042447874   0.04225718           16 
 1319000   0.73928793   -4.8212618    669.89416  0.042323361  0.042232737            7 
 1320000    0.7180828    -4.854806    670.57952  0.042334566  0.042208093            4 
 1321000   0.72185543   -4.8157085    673.54129  0.042489357   0.04218359           10 
 1322000   0.73307193   -4.8303679    672.23294  0.042374744  0.042159032            7 
 1323000   0.72172428   -4.8334345    672.03659  0.042330347  0.042134623           10 
 1324000   0.72255819   -4.8250666    671.85947  0.042287228  0.042110039            7 
 1325000   0.73415804   -4.8254892    672.78388  0.042313452   0.04208546            8 
 1326000   0.71767805   -4.8509187    673.48501  0.042325604  0.042060975           10 
 1327000   0.71646618   -4.8174875     674.9576  0.042386184  0.042036687           10 
 1328000   0.72139671    -4.857725    674.61647  0.042332861  0.042012437           11 
 1329000   0.72969178   -4.8578813    671.96483   0.04213474  0.041988151            7 
 1330000   0.72362182   -4.8357644    672.94583  0.042164526  0.041963763            6 
 1331000   0.72860924   -4.7933233    676.78233  0.042373049  0.041939455            7 
 1332000   0.72620909   -4.8297027    674.50371   0.04219868  0.041915359            3 
 1333000   0.72591662   -4.8282138    673.35502  0.042095212  0.041891144            8 
 1334000   0.70556916   -4.8244085    675.59808  0.042203778  0.041866902            9 
 1335000   0.72231196    -4.819885    674.78846  0.042121627  0.041842719            3 
 1336000   0.71225539   -4.8011311    676.40034   0.04219064  0.041818316            8 
 1337000   0.72113499   -4.8410995     676.0898  0.042139728  0.041794067            9 
 1338000   0.70268509   -4.8443569    674.30033  0.041996782  0.041769711            8 
 1339000   0.71813069   -4.8630226    674.26436  0.041963179  0.041745475            5 
 1340000   0.71798562   -4.8663571     674.6409   0.04195528  0.041721515            4 
 1341000   0.72380448   -4.8723706    674.09232  0.041889903  0.041697273            3 
 1342000   0.72466127   -4.8374744    675.71783  0.041959627  0.041673191            5 
 1343000   0.72952583   -4.8467477    674.87698  0.041876209  0.041648967            4 
 1344000   0.72644859   -4.8524978    675.08921   0.04185821   0.04162473            9 
 1345000   0.72169575   -4.8596934    677.29796  0.041963938  0.041600644            5 
 1346000   0.71469749   -4.8435053    676.39877  0.041877091   0.04157641           16 
 1347000   0.70837021   -4.8185874    676.34592  0.041842732  0.041552369            9 
 1348000   0.71870897   -4.8613963    676.47605  0.041819736  0.041528338            5 
 1349000   0.73262124   -4.8400242    676.79662  0.041808538  0.041504264            9 
 1350000   0.72692082   -4.8808051    678.22481  0.041865729  0.041480174           15 
 1351000   0.71866237   -4.8631343    677.34715  0.041780604   0.04145605            6 
 1352000   0.72745898   -4.8588891    677.10553  0.041734808   0.04143177            7 
 1353000   0.69579958      -4.8272      677.746  0.041743409  0.041407813           10 
 1354000   0.69715946    -4.861975    677.92849  0.041723811  0.041383799           10 
 1355000   0.71993804   -4.8611035    678.91813  0.041753883  0.041359834           13 
 1356000   0.70971966   -4.8516483    679.26991  0.041744709  0.041336098            4 
 1357000   0.69725194   -4.8528114    678.51139  0.041667366  0.041312311           10 
 1358000   0.70978607   -4.8436662    676.91616  0.041538792  0.041288347            6 
 1359000   0.71898825   -4.8438718    678.31225  0.041593834  0.041264279           10 
 1360000   0.70474856    -4.858319    677.28917  0.041500562  0.041240121            7 
 1361000   0.70773237   -4.8572026    677.64535  0.041491878   0.04121602            7 
 1362000   0.71194468   -4.8463887    679.38751  0.041568007   0.04119216            3 
 1363000   0.69281553   -4.8588195    678.16967  0.041463051   0.04116813            8 
 1364000   0.72687113   -4.8813499    677.37241  0.041383945  0.041144104            6 
 1365000   0.70728535    -4.852487    679.78693  0.041501033  0.041120336           14 
 1366000   0.70245347   -4.8671386    676.91624  0.041295525  0.041096345            5 
 1367000   0.69444795   -4.8765341    677.59154  0.041306483  0.041072429            6 
 1368000   0.72008104   -4.8664082    678.14331    0.0413099  0.041048421           10 
 1369000   0.70171888   -4.8601589    680.30437  0.041411271  0.041024411           14 
 1370000   0.70397947   -4.8650841    680.42353  0.041388292  0.041000502           20 
 1371000   0.72287074   -4.8789123    679.67466  0.041312586  0.040976627            7 
 1372000   0.71187108   -4.8626821    681.65619   0.04140283  0.040952824            5 
 1373000   0.70410378   -4.8678418    679.76724  0.041258026  0.040929003            8 
 1374000   0.70174112   -4.8787764    680.61316  0.041279304  0.040905151            9 
 1375000   0.69228795   -4.8510381    681.25373  0.041288105  0.040881443            8 
 1376000   0.70972691    -4.866045    681.56507  0.041276954  0.040857697            4 
 1377000   0.69801056   -4.8763843    679.88954  0.041145579    0.0408339            4 
 1378000   0.71296594   -4.8696804    680.94177  0.041179353  0.040809931            4 
 1379000   0.70664622   -4.8987827    681.10315  0.041159243  0.040785983            6 
 1380000   0.70874994   -4.8657657    680.50131  0.041093074  0.040762254            7 
 1381000   0.70098902   -4.8784101    681.19374  0.041105102  0.040738426            5 
 1382000   0.67488726   -4.8733086    681.39432  0.041087453  0.040714495            7 
 1383000   0.70945265    -4.868438    680.67797   0.04101458  0.040690705            6 
 1384000   0.69132322   -4.8889054     680.2773   0.04096082  0.040667091           10 
 1385000    0.7037586   -4.8331193    684.57483  0.041189821  0.040643481            4 
 1386000   0.69987529   -4.8958128      681.729  0.040988997  0.040619695            9 
 1387000    0.7098458   -4.8944616    681.79319  0.040963302  0.040595852            7 
 1388000   0.70322935   -4.8539537    682.13113  0.040954078  0.040572291            3 
 1389000    0.7002059   -4.8653157    683.26154  0.040992413  0.040548699           16 
 1390000   0.69566952    -4.875903    682.20776  0.040899746  0.040524932            7 
 1391000   0.69118083   -4.8591827    683.71569  0.040960681  0.040501403           10 
 1392000   0.69371431   -4.8758234    683.39514  0.040912066  0.040477799            4 
 1393000   0.69806907   -4.8675569    684.22008  0.040932046  0.040454238            4 
 1394000   0.68622462    -4.868198     684.5933  0.040924994  0.040430867            7 
 1395000   0.70468568   -4.8832325    683.93185  0.040856144   0.04040738            9 
 1396000   0.69818741   -4.9012923    684.47253  0.040859153  0.040383914            8 
 1397000   0.69302917      -4.8798    681.51896   0.04065372  0.040360239           12 
 1398000   0.68777272    -4.897017    682.71965  0.040696212  0.040336615           16 
 1399000   0.69600186   -4.8610522    684.17076   0.04075356  0.040313093            5 
 1400000   0.68852088   -4.8874124    681.90343   0.04058949  0.040289327            4 
 1401000   0.70565831   -4.8947864    682.71569  0.040608832  0.040265706            7 
 1402000   0.69361691   -4.8807976    683.63408  0.040634456  0.040242133           12 
 1403000   0.69124791    -4.872076    682.72371   0.04055142  0.040218592            4 
 1404000   0.69943466    -4.909501    681.39144  0.040443462  0.040194771            6 
 1405000   0.69012807   -4.8719445    681.69501  0.040432682   0.04017096            4 
 1406000   0.70112448   -4.8917439    684.34132   0.04056077  0.040147367            8 
 1407000   0.68311626   -4.9092774    684.56504  0.040545193  0.040123534           11 
 1408000   0.70098524   -4.9275224    683.99441  0.040482624  0.040099778            8 
 1409000   0.69562369   -4.8943622    683.44216   0.04042123  0.040076058           16 
 1410000   0.69275696   -4.9034862    684.00614  0.040425895  0.040052483           11 
 1411000   0.69899212    -4.869516      685.027  0.040457536  0.040028912            7 
 1412000   0.68838979    -4.891647    683.58209  0.040343608  0.040005349            9 
 1413000   0.69827324   -4.9216737     683.6689  0.040320176  0.039981753            8 
 1414000   0.69482425   -4.8698214    684.10978  0.040317644  0.039958144            7 
 1415000    0.6912557   -4.9191234    682.71895  0.040207241  0.039934327           15 
 1416000   0.67272128   -4.9178178    683.42462  0.040220376  0.039910648           11 
 1417000   0.70000206   -4.8842618    685.02555  0.040286142  0.039887202           14 
 1418000   0.68189668   -4.9058815    684.14745  0.040206127  0.039863778           12 
 1419000   0.68650662   -4.9167091    686.30889  0.040304727  0.039840221            7 
 1420000   0.68867515   -4.9119927    685.45052   0.04022597  0.039816669           17 
 1421000   0.70900548   -4.8923171    685.91501  0.040224901  0.039793104           11 
 1422000   0.69870547   -4.9248906    685.28393   0.04015963  0.039769692            5 
 1423000   0.68313368   -4.9034978     685.7823  0.040160594  0.039746226            9 
 1424000   0.68527011   -4.9053433    685.21265  0.040099055  0.039722768            8 
 1425000   0.69804836   -4.9128509     684.8303  0.040048556  0.039699181           13 
 1426000   0.68157415    -4.864329    687.80168  0.040194114  0.039675861            6 
 1427000   0.67332343   -4.9201987    685.94803  0.040057699  0.039652466           14 
 1428000   0.67533049   -4.9126212    684.53582  0.039947235  0.039628836            8 
 1429000   0.67679578   -4.9016376    685.40583  0.039970016  0.039605266           11 
 1430000   0.68511934    -4.885495    687.85504  0.040084793  0.039581542           12 
 1431000   0.67136844   -4.9072993     686.4412  0.039974447  0.039558062           14 
 1432000    0.6780069   -4.9050978    685.62288  0.039898911  0.039534701            7 
 1433000   0.68865041   -4.8971974    687.96299  0.040007152  0.039511258            9 
 1434000    0.6897512   -4.9151013    686.61598  0.039900975  0.039487921            5 
 1435000   0.65605793   -4.9126002    686.89673  0.039889473  0.039464509           12 
 1436000   0.68229183   -4.9284968    685.63463  0.039788454  0.039441013            9 
 1437000   0.67693089   -4.9153192    687.33248  0.039859225  0.039417471            8 
 1438000   0.67678419   -4.8974989    686.98052   0.03981111  0.039393879            7 
 1439000   0.68616491   -4.9316384    686.17771  0.039736953  0.039370328           18 
 1440000   0.65697643   -4.9405339    688.52892  0.039845424  0.039346701            8 
 1441000   0.67838143   -4.9308884    688.20114  0.039798817  0.039323199            7 
 1442000   0.67628457   -4.9244773    687.60884  0.039736988  0.039299897            8 
 1443000    0.6840447   -4.9345222    687.53706  0.039705305   0.03927645            4 
 1444000   0.67922558   -4.9261586     687.1144  0.039653416  0.039252952           11 
 1445000   0.68432879   -4.9513832    686.91376  0.039614403  0.039229399            8 
 1446000   0.65916249   -4.9177874    686.59091  0.039568402  0.039205776           10 
 1447000   0.65893363   -4.9212864     689.7358  0.039722173  0.039182215            8 
 1448000   0.67959392   -4.9407763    687.63108  0.039573612  0.039158849            8 
 1449000   0.67937861   -4.9299699     688.6632  0.039605659  0.039135519            9 
 1450000   0.67314836   -4.9359557    689.59405  0.039631842  0.039112273            6 
 1451000   0.68060901   -4.9350824    687.33349  0.039474701  0.039088987           15 
 1452000   0.67073999   -4.9382047    687.96659   0.03948385  0.039065569           19 
 1453000   0.66844036   -4.9070977    689.71301  0.039556837  0.039042298           12 
 1454000   0.66831568    -4.907055    688.81012  0.039477884  0.039019117            7 
 1455000   0.66024932   -4.9340363    689.37007  0.039482822  0.038995713            5 
 1456000   0.67041957   -4.9463866    688.78903  0.039422449  0.038972457            9 
 1457000   0.67977701   -4.9229666     690.1739    0.0394746  0.038949184           13 
 1458000   0.66343644   -4.9655241    688.94423  0.039377242  0.038925949           16 
 1459000   0.68280975   -4.9441788    690.98041  0.039466553  0.038902636            9 
 1460000   0.67391437   -4.9332005    687.62405  0.039247948  0.038879282           11 
 1461000   0.66678045   -4.9414822    691.32352  0.039432096  0.038856026            7 
 1462000   0.66478632   -4.9389505    688.50859  0.039244676  0.038832683            7 
 1463000    0.6730631   -4.9618706     689.5925  0.039279591  0.038809297            8 
 1464000    0.6975202   -4.9471935    689.42769  0.039243379   0.03878591            7 
 1465000   0.66615835   -4.9265716    689.52418  0.039222081  0.038762645            9 
 1466000   0.67313011   -4.9164859    691.51828  0.039308679  0.038739524            5 
 1467000   0.67301978    -4.929216    690.78005  0.039239948  0.038716318            8 
 1468000   0.67205591   -4.9285425    690.52758  0.039198886  0.038693178            7 
 1469000   0.66519269   -4.9434906    689.43714  0.039110344  0.038670036           13 
 1470000    0.6627036    -4.954997    689.73892  0.039100846  0.038646755            9 
 1471000   0.66964206   -4.9290119    690.01994  0.039090185  0.038623466           10 
 1472000   0.67432783   -4.9393653    691.16624  0.039128524  0.038600168            7 
 1473000   0.65419829   -4.9486055    691.45299  0.039118182  0.038576912           20 
 1474000   0.66267757   -4.9560016    689.74156  0.038994887  0.038553738            8 
 1475000   0.68479629   -4.9457718    691.52246  0.039069066  0.038530504            5 
 1476000   0.64597366   -4.9664773     691.6969  0.039052445  0.038507289            8 
 1477000   0.65610613    -4.949727    690.79512  0.038975125  0.038484145            8 
 1478000   0.66440025   -4.9168038    688.74393  0.038833104  0.038460917            9 
 1479000   0.66214685   -4.9498438    691.47491  0.038960723  0.038437579           19 
 1480000   0.66281014   -4.9586687    690.40199  0.038873986  0.038414165            5 
 1481000   0.66095873   -4.9555956    689.62767  0.038804168  0.038390927            4 
 1482000   0.65665995   -4.9457693     691.2856   0.03887121  0.038367646            8 
 1483000   0.67213374   -4.9265348    692.23598  0.038898403  0.038344434            6 
 1484000     0.663776   -4.9778618     690.5931  0.038779936  0.038321319           12 
 1485000   0.67671873   -4.9538272    691.08148  0.038781228  0.038298099           11 
 1486000   0.67591012   -4.9859446    690.82777  0.038740902  0.038274808           11 
 1487000   0.66349573   -4.9424164    690.80779   0.03871373  0.038251366            6 
 1488000    0.6685001   -4.9552091    689.69887  0.038625608   0.03822809           14 
 1489000   0.65821196   -4.9418751    692.89676  0.038778641   0.03820475           11 
 1490000   0.65072274   -4.9667905    691.66875  0.038683935   0.03818149            7 
 1491000   0.64600052   -4.9551066    692.56149  0.038707886  0.038158513            6 
 1492000   0.67538261   -4.9742637    690.20715  0.038550444  0.038135379            5 
 1493000   0.65932112   -4.9693051    692.33151  0.038643197  0.038112146            4 
 1494000   0.66751414   -4.9723472    692.55146    0.0386296  0.038088993            9 
 1495000   0.65996019   -4.9488711    693.10591  0.038634666  0.038066174            7 
 1496000   0.66098803    -4.958159    692.01811  0.038548246  0.038043319            8 
 1497000   0.64017498   -4.9723377    694.56661  0.038664363  0.038020502            6 
 1498000   0.63941416   -4.9619158    692.99757  0.038551267   0.03799753           10 
 1499000    0.6720626   -4.9585904    693.29477  0.038542071  0.037974433            7 
 1500000   0.64176041   -4.9748458    692.45277  0.038469598   0.03795138           25 
 1501000   0.65481721   -4.9761119    690.18835  0.038318252  0.037928262           12 
 1502000   0.67730356   -4.9664455    691.83317  0.038383997  0.037905079            9 
 1503000   0.65829627   -5.0040402    691.67379  0.038349622  0.037881931           12 
 1504000   0.66051521   -4.9755925    692.64719  0.038378058  0.037858832            5 
 1505000   0.65924138   -4.9810319    691.16203  0.038270323  0.037835705           10 
 1506000   0.65748104   -4.9571878    694.19172  0.038412556  0.037812604           12 
 1507000     0.647632   -4.9841802    692.88463  0.038314788  0.037789611           19 
 1508000   0.63990835   -4.9880824    692.15233  0.038248913  0.037766569           10 
 1509000   0.64153123   -4.9755273    691.71322  0.038199316  0.037743409            6 
 1510000   0.64792632   -4.9974487    693.87872  0.038293528  0.037720287            7 
 1511000   0.65025027   -4.9929578    692.41289  0.038187342  0.037697229            9 
 1512000   0.64364971    -4.978774    692.22664  0.038151821  0.037674202           11 
 1513000   0.65595186   -4.9810141    694.30227  0.038240927  0.037651202           16 
 1514000   0.65093876   -4.9674887    693.28667  0.038159768  0.037628122           10 
 1515000   0.64802953   -4.9944492    691.73237  0.038049085  0.037605137           11 
 1516000   0.65265946    -4.980528    692.97672  0.038092388  0.037582088            7 
 1517000   0.65889457   -4.9844046    695.33523  0.038196837  0.037559266           10 
 1518000   0.64752862   -4.9715029    693.16609  0.038052596  0.037536284           11 
 1519000   0.64279668   -4.9791342    693.63963  0.038053523  0.037513352           21 
 1520000   0.65861587   -4.9926511    692.43699  0.037962554  0.037490279           19 
 1521000   0.65234776   -4.9859195    692.01561  0.037914509  0.037467229            8 
 1522000   0.65668409   -4.9836116    692.39482   0.03791036  0.037444019            6 
 1523000   0.64092706    -4.995097    691.73678  0.037849463  0.037420976            9 
 1524000   0.66064185   -5.0059117    691.96313  0.037837004  0.037397728            8 
 1525000   0.65518576   -5.0208841    692.40417  0.037836293  0.037374468           18 
 1526000   0.64641605   -5.0043713    691.15721  0.037743404  0.037351123            7 
 1527000   0.65099872   -5.0152062     693.5463  0.037849067  0.037327875            8 
 1528000   0.62979416   -4.9849563    693.72138  0.037833845  0.037304785            6 
 1529000   0.64986743   -4.9909573    693.53552  0.037798971  0.037281684            8 
 1530000   0.65022422     -4.98687    692.27488  0.037705604  0.037258464           13 
 1531000   0.64296636   -4.9891145     692.5689  0.037696979  0.037235224           16 
 1532000    0.6373053   -4.9805853    694.46345  0.037775427  0.037212153            4 
 1533000   0.62317236   -5.0001307    692.86644  0.037663973  0.037189036           18 
 1534000   0.64305418   -5.0019733    693.06596  0.037650259  0.037165891            7 
 1535000   0.62870932   -5.0194133    692.38353  0.037588682   0.03714266            4 
 1536000    0.6464981      -4.9943    693.45949  0.037622585  0.037119379           13 
 1537000   0.63803166   -5.0107685    692.06809  0.037522668  0.037096229            5 
 1538000   0.62839077   -4.9857954    694.36652  0.037622807  0.037073124            8 
 1539000   0.64197899   -4.9971508    693.37209  0.037544515   0.03705011            7 
 1540000   0.65085289   -5.0242317    693.84785  0.037545879  0.037027032           27 
 1541000   0.64905021   -4.9910979    696.22664  0.037650154  0.037004096            7 
 1542000   0.63318434   -4.9995817    693.91333   0.03750072  0.036981243            9 
 1543000    0.6417686    -4.986282    696.61202  0.037622166  0.036958296            7 
 1544000   0.64393499   -5.0163463    694.31749  0.037473958  0.036935335            9 
 1545000   0.62692327   -5.0113607    694.18027  0.037442302  0.036912202           11 
 1546000   0.62961168   -5.0026264    693.11664   0.03736075  0.036889141           11 
 1547000   0.63354711   -5.0204875     693.4613  0.037355166  0.036866016            7 
 1548000   0.63634766   -5.0166838     693.7995  0.037349241   0.03684292            5 
 1549000     0.659042   -5.0034981    693.40635  0.037303978  0.036819877            9 
 1550000   0.62085303   -5.0218268    695.82442  0.037409915   0.03679695            7 
 1551000   0.62553783   -5.0203116    694.94587  0.037338592  0.036774067            9 
 1552000   0.64122273    -5.015091    693.06927  0.037213771  0.036751143           11 
 1553000   0.62883577   -5.0017961    693.70804  0.037224084  0.036728289            7 
 1554000   0.62526311   -5.0180594    696.29859  0.037339049  0.036705317           14 
 1555000   0.64519401   -4.9947439    695.73883  0.037285039  0.036682413            7 
 1556000   0.62944388   -5.0215355    696.21595   0.03728663   0.03665953           15 
 1557000   0.65596275   -5.0142086    696.13637  0.037258423  0.036636715           29 
 1558000    0.6328589   -5.0385825    694.23291  0.037132697  0.036613846            6 
 1559000   0.63492942   -5.0358378    694.41489  0.037118606  0.036590937            5 
 1560000   0.62080038   -5.0122745     696.3653  0.037199001  0.036568105            7 
 1561000   0.63686562    -5.034195    694.61565  0.037081767  0.036545298            9 
 1562000   0.63079124   -5.0424015    696.21048  0.037143111  0.036522523           10 
 1563000   0.62853554    -5.041577     694.4767  0.037026909  0.036499698            8 
 1564000   0.62141343   -4.9970949    697.15789  0.037146094  0.036476925           12 
 1565000   0.61584104   -5.0253196    695.88337  0.037054492  0.036454184           11 
 1566000    0.6353601   -5.0243242     696.3062  0.037053331  0.036431578            8 
 1567000   0.62223873    -5.018945    695.71001   0.03699798  0.036409057           15 
 1568000   0.63263706    -5.031267    696.08173   0.03699414   0.03638642            9 
 1569000   0.62914467   -5.0287969     696.5375  0.036994768  0.036363782            7 
 1570000   0.62465152   -5.0298474    695.64801  0.036923992  0.036341056            8 
 1571000   0.61630552   -5.0140119    696.18954  0.036929214  0.036318327           11 
 1572000    0.6188907   -5.0297167    696.80882  0.036938551  0.036295649           15 
 1573000   0.62992815   -5.0313039    696.25539  0.036885748  0.036272959            9 
 1574000   0.62178005   -5.0467713    696.80357  0.036891337  0.036250382            7 
 1575000   0.62935158   -5.0639934    694.91074  0.036767764   0.03622782           10 
 1576000   0.62572458    -5.039456    697.57047  0.036885072  0.036205113           26 
 1577000   0.61918952   -5.0303121     698.0512  0.036887085  0.036182627           18 
 1578000   0.61804579   -5.0278475    696.96301  0.036806243  0.036160153           25 
 1579000   0.62068967   -5.0241113    696.59515  0.036763518  0.036137616           10 
 1580000   0.62781581   -5.0464203     696.9649  0.036759752  0.036115098           20 
 1581000   0.61861478   -5.0406255    696.85488  0.036730702  0.036092508           12 
 1582000   0.61192023   -5.0581735    696.52092  0.036689893  0.036069823            8 
 1583000    0.6136744   -5.0627784    695.68831  0.036622884  0.036047212            9 
 1584000   0.61002893   -5.0634996    696.04242  0.036618393  0.036024493           15 
 1585000   0.61756032   -5.0559204    696.20738  0.036603963  0.036001901           10 
 1586000   0.62057046   -5.0553585    696.21143  0.036581097  0.035979325           15 
 1587000   0.61141641   -5.0359901    698.21078  0.036663032  0.035956795           10 
 1588000   0.62891475   -5.0381946    694.66187  0.036453709  0.035934202           17 
 1589000   0.61992304   -5.0472722     696.5406  0.036529295  0.035911642           22 
 1590000   0.60246078   -5.0405954    696.31685  0.036494594  0.035889107           14 
 1591000   0.62361372   -5.0673574    697.28064  0.036522137  0.035866532            6 
 1592000   0.62081791   -5.0525024     696.9295  0.036480815  0.035843967            8 
 1593000    0.6199112   -5.0317574    697.62561   0.03649433  0.035821486            6 
 1594000   0.62318272   -5.0471226    695.91155  0.036381825  0.035799027            9 
 1595000   0.60694761   -5.0502968    696.51662  0.036390628  0.035776375           20 
 1596000   0.60974563   -5.0591291    697.06343  0.036396378  0.035753786           10 
 1597000   0.60771022   -5.0590851    696.90592  0.036365369  0.035731237           13 
 1598000   0.61342682   -5.0637366    695.68395  0.036278887  0.035708668           12 
 1599000   0.61363016   -5.0310287    697.00436  0.036325013  0.035686065            7 
 1600000   0.62671413   -5.0701632    697.38228  0.036321994  0.035663576            5 
 1601000   0.60303524   -5.0650107     697.1069  0.036284973  0.035641104           11 
 1602000   0.62067534   -5.0657104    697.09265  0.036261582  0.035618711           18 
 1603000   0.60535491   -5.0786272    695.52298   0.03615736  0.035596211           11 
 1604000   0.60301705   -5.0638365    698.08668  0.036268011  0.035573818           21 
 1605000   0.60990194   -5.0575059     697.9782  0.036239782  0.035551458            8 
 1606000   0.61571244   -5.0652922    697.62283  0.036198777  0.035529071           17 
 1607000    0.5997386   -5.0682747    698.77977  0.036236246  0.035506662           16 
 1608000   0.61121494   -5.0639319    696.38243  0.036089471  0.035484287            9 
 1609000   0.61658246   -5.0416423    698.23844  0.036163168  0.035461936           12 
 1610000   0.60431892   -5.0681227    698.08623  0.036132828  0.035439613           14 
 1611000   0.60379339   -5.0775028     697.9067  0.036101112  0.035417345           23 
 1612000    0.6159663   -5.0595204    698.20269  0.036094018  0.035394933           17 
 1613000   0.60969393   -5.0692066    696.57074  0.035987329  0.035372546           15 
 1614000   0.61024198   -5.0910513     697.7076   0.03602373  0.035350115            3 
 1615000   0.60543732   -5.0807016    694.70909  0.035846702  0.035327733            9 
 1616000   0.60488209   -5.0909386     696.3353   0.03590838  0.035305209           12 
 1617000   0.61555663   -5.0870105    697.00894   0.03592089  0.035282755           42 
 1618000   0.61549116    -5.083444    699.08254  0.036005487  0.035260437           15 
 1619000   0.60520846   -5.0612201    697.89974  0.035922366  0.035238172           13 
 1620000   0.61223354   -5.0884476     697.7014   0.03588999  0.035215888           22 
 1621000   0.61016062   -5.0740316    696.96912  0.035830204  0.035193561           19 
 1622000   0.60040359     -5.07056    699.35199  0.035930538  0.035171234           33 
 1623000   0.60279932   -5.0526637     698.4986  0.035864582  0.035148937           41 
 1624000   0.59581886   -5.0699048    698.45011   0.03584001   0.03512667            7 
 1625000   0.61985064   -5.0703762    697.70215  0.035779597  0.035104368           14 
 1626000   0.60691284   -5.0905186    695.94527  0.035667552  0.035082022           24 
 1627000   0.60667039   -5.0983678     697.4312  0.035721738  0.035059634           22 
 1628000   0.61094694   -5.0746401    696.38981  0.035646489  0.035037245           18 
 1629000   0.60611836   -5.0783328    697.71993   0.03569265  0.035014757           16 
 1630000   0.59483468   -5.0863024    696.52923  0.035609879  0.034992211           21 
 1631000   0.58963702   -5.0837695    695.54094   0.03553755  0.034969714           20 
 1632000    0.5962356   -5.0883186     696.1548   0.03554712  0.034947246           16 
 1633000   0.60102701   -5.1161912     696.7803  0.035557272  0.034924808            9 
 1634000   0.60067811   -5.1023415    696.38922  0.035515566    0.0349023            6 
 1635000   0.59153851   -5.0944398    697.71117  0.035561222  0.034879854           10 
 1636000   0.59918747   -5.0866047    696.29402  0.035467299  0.034857396           10 
 1637000    0.5971323   -5.0895416    698.07965  0.035536533  0.034834952           11 
 1638000   0.58893538   -5.0660009    697.90176  0.035505787  0.034812642           15 
 1639000   0.59434528   -5.0948116    698.74515  0.035527006  0.034790291           15 
 1640000   0.59940675   -5.0631987     697.7897  0.035456794  0.034767967            5 
 1641000   0.60216828   -5.0769241    697.12964  0.035401667  0.034745585           10 
 1642000   0.60202486   -5.1012838    698.35304  0.035442197  0.034723206           20 
 1643000   0.59557765   -5.0923035    696.54259  0.035328798  0.034700825           20 
 1644000    0.5948718   -5.0825729    697.68145  0.035365037  0.034678678           14 
 1645000   0.60067593   -5.0966829    695.83786  0.035250145  0.034656452           15 
 1646000   0.58762742   -5.1117968    697.19348  0.035297361  0.034634099           14 
 1647000   0.59984767   -5.1062218    698.18638  0.035326168  0.034611684            9 
 1648000   0.58913657   -5.0942516    697.17496  0.035253588  0.034589414           12 
 1649000   0.59718074    -5.080766    699.51795  0.035350614   0.03456742            9 
 1650000    0.5995948   -5.0830113      697.855  0.035245202  0.034545277           15 
 1651000   0.60389455   -5.1130525    698.54275  0.035258568  0.034523124           23 
 1652000    0.5921424   -5.0830806    698.48561  0.035234343   0.03450089           12 
 1653000   0.59915359   -5.0850809    697.38137  0.035157359  0.034478688           13 
 1654000   0.59065096   -5.1197414    699.48787  0.035242235  0.034456455           10 
 1655000   0.58871931   -5.0885219    698.36701  0.035164502  0.034434359            6 
 1656000   0.58223028   -5.1074608    698.51912  0.035150922  0.034412223           13 
 1657000   0.60526797   -5.1093254    698.35644  0.035121527  0.034390064           18 
 1658000   0.61609418   -5.1101359    697.52225  0.035058416  0.034367814           10 
 1659000   0.58815501   -5.1098657    697.32804  0.035027528  0.034345593           11 
 1660000    0.6042432   -5.0804023    698.17386  0.035048889  0.034323417           14 
 1661000   0.58308523   -5.1047914    698.33118  0.035035681  0.034301274           11 
 1662000     0.586609   -5.1082325    697.09464  0.034952599  0.034279035           10 
 1663000   0.58600194   -5.1278324    695.02454  0.034827848  0.034256785           21 
 1664000   0.60193056   -5.1139559    698.03282  0.034957573  0.034234519           15 
 1665000   0.58572413    -5.106501     696.4847  0.034859094  0.034212455           14 
 1666000   0.59367865   -5.1073143    696.64991  0.034846434  0.034190348            9 
 1667000    0.5854463   -5.1291346    697.81582  0.034883814  0.034168102           28 
 1668000   0.58664743    -5.115111    696.94119  0.034819204  0.034145745           34 
 1669000   0.58971166   -5.1134213     697.4983  0.034826159  0.034123439           19 
 1670000   0.59563547   -5.1242454    698.49636  0.034855108  0.034101273           12 
 1671000   0.60217465   -5.1274788    698.46045  0.034832458  0.034079001           16 
 1672000   0.59429549   -5.1065731    697.51903  0.034764704  0.034056785           31 
 1673000   0.58057993   -5.1192474    695.43723  0.034640229  0.034034554           11 
 1674000   0.60046905   -5.1275874    697.71721  0.034733035  0.034012428           12 
 1675000    0.5921708   -5.1221339    697.56138  0.034704546  0.033990314           20 
 1676000   0.58355717   -5.1232571    698.19477  0.034715333  0.033968068           44 
 1677000   0.59406607   -5.1169026     696.0807   0.03458958  0.033945788           21 
 1678000   0.58798172   -5.1163469    699.22038   0.03472489  0.033923599           11 
 1679000   0.57282125   -5.1271986    698.56882  0.034671869  0.033901483           14 
 1680000   0.58755363   -5.1287775    697.63227  0.034604775  0.033879398           15 
 1681000   0.58828314   -5.1056285    699.01476  0.034652725  0.033857299           25 
 1682000   0.58958763   -5.1028637    698.60716  0.034611928  0.033835262           13 
 1683000   0.59224187   -5.1378468    697.54613  0.034538826  0.033813247           14 
 1684000   0.56953005   -5.1314082     698.3182  0.034556522  0.033791332           18 
 1685000   0.59695161   -5.1156332    699.82834  0.034610699  0.033769413           11 
 1686000   0.57931868   -5.1360136    696.65945  0.034433543  0.033747417           36 
 1687000   0.58434824   -5.1441175    696.81682  0.034420906  0.033725389           18 
 1688000   0.58187368   -5.1518075    698.30832  0.034474147  0.033703226           20 
 1689000   0.57919254   -5.1497042    698.27391  0.034452038  0.033681202           16 
 1690000   0.57502729   -5.1418697    697.03371  0.034370498  0.033659241           18 
 1691000   0.57243913   -5.1281541    696.40844  0.034319359  0.033637256           11 
 1692000   0.57634691   -5.1403034    699.06369  0.034429851  0.033615178           14 
 1693000   0.57999377   -5.1342532    696.55905   0.03428623  0.033593213            9 
 1694000   0.57784291    -5.146405    698.86641  0.034379497  0.033571236           36 
 1695000   0.57131653    -5.137998    697.85633  0.034309554  0.033549233           14 
 1696000   0.56769594     -5.12798    699.46639  0.034368435  0.033527267           10 
 1697000   0.57476388   -5.1388612    697.44836  0.034249084  0.033505513           11 
 1698000   0.58251526   -5.1329748    699.62195  0.034335588  0.033483634           10 
 1699000     0.579705   -5.1420218    697.80379  0.034226201  0.033461657            8 
 1700000   0.56036799   -5.1507285    697.79549  0.034205661  0.033439755           17 
 1701000   0.57064538   -5.1378111    699.12545  0.034250708  0.033417881           32 
 1702000    0.5702816   -5.1504232    698.74591  0.034212001  0.033396039           19 
 1703000    0.5748418   -5.1312451    699.10376  0.034209423  0.033374178           40 
 1704000   0.57015097    -5.159077    697.39889  0.034105971  0.033352387           20 
 1705000   0.57012807   -5.1381414    697.03911  0.034068383  0.033330547           22 
 1706000   0.57237496   -5.1574516    696.94247  0.034043692   0.03330862           33 
 1707000   0.57456473   -5.1521431     697.1229  0.034032557  0.033286794           28 
 1708000   0.58256292   -5.1369662    699.82418  0.034144427  0.033265025           26 
 1709000   0.57649464   -5.1270347     698.8744  0.034078135  0.033243391           40 
 1710000   0.57105766   -5.1238087    698.50673  0.034040289  0.033221712           37 
 1711000   0.57780064   -5.1351386    699.12776  0.034050641  0.033200045           22 
 1712000   0.58100606   -5.1652519    697.91223  0.033971584  0.033178275           24 
 1713000   0.56088841   -5.1646213    696.91301  0.033903143  0.033156546           13 
 1714000   0.56590983   -5.1724831    697.94549  0.033933562  0.033134856           16 
 1715000    0.5609044   -5.1746886    698.14449  0.033923445   0.03311318           35 
 1716000   0.57372641   -5.1637036    697.49954  0.033872355  0.033091496           27 
 1717000   0.57856843   -5.1737698    698.93972  0.033922526  0.033069785           19 
 1718000   0.57664257   -5.1522524    700.12623  0.033960333  0.033048172           14 
 1719000   0.56827262   -5.1359406    698.79088  0.033875843  0.033026532           41 
 1720000   0.56573939   -5.1718528    697.80196  0.033808235  0.033004905           15 
 1721000   0.57719972    -5.155369    700.24601  0.033906935  0.032983254           18 
 1722000   0.56166186    -5.153176    696.57034  0.033709366  0.032961627           46 
 1723000   0.55678599   -5.1765076    698.85688  0.033800391  0.032939988           31 
 1724000   0.56043839   -5.1630642    699.31995  0.033803168  0.032918403           26 
 1725000   0.56346499   -5.1539837    698.17828  0.033728419   0.03289687           12 
 1726000    0.5646707   -5.1668918     698.7456  0.033736269   0.03287533           39 
 1727000   0.57460871   -5.1813218    698.37975  0.033699081  0.032853753           13 
 1728000   0.56248769   -5.1757491    698.89225  0.033704295  0.032832324           13 
 1729000   0.56519341   -5.1735482    697.90916  0.033637419  0.032810902            8 
 1730000   0.55340614   -5.1766137    698.71075  0.033656587  0.032789525           17 
 1731000   0.54664014   -5.1640587    700.74307  0.033734983  0.032768129           14 
 1732000   0.57137087   -5.1676381    700.30955  0.033694647  0.032746666           23 
 1733000   0.55214642    -5.158181    700.95122   0.03370606  0.032725246           41 
 1734000   0.56484311   -5.1598338    698.83247  0.033584798   0.03270387           23 
 1735000   0.56282781   -5.1742108    699.04509  0.033575653  0.032682489           35 
 1736000   0.55844611   -5.1941395     699.4435  0.033575437  0.032660974           16 
 1737000   0.57131917    -5.192766    697.07999  0.033442717  0.032639484           17 
 1738000   0.54434313   -5.1851144    697.79317   0.03345767  0.032618024           21 
 1739000   0.56795429   -5.1830356    697.04055  0.033402365  0.032596609           24 
 1740000   0.54777824   -5.1827636    698.67772  0.033461577  0.032575176           29 
 1741000   0.56656941   -5.1737078    699.24203  0.033469367  0.032553771           17 
 1742000   0.55702242    -5.177675    698.78792  0.033428431  0.032532393           15 
 1743000   0.56566959   -5.1860737    699.86461  0.033460729  0.032511009            8 
 1744000   0.55782643   -5.1646522    701.63795  0.033526278  0.032489737           13 
 1745000   0.55560825   -5.1615704    700.38186   0.03344708  0.032468509           31 
 1746000   0.55544783   -5.1773755      698.157  0.033321735  0.032447127           19 
 1747000   0.55560825   -5.1881045     698.9143  0.033338786  0.032425778           18 
 1748000   0.56177531   -5.1802577    699.72633  0.033358426  0.032404475           14 
 1749000   0.55692823   -5.1957526    698.22684  0.033267907  0.032383145           13 
 1750000   0.54596939   -5.1991559    698.87099  0.033279571  0.032361834           11 
 1751000   0.56128735    -5.210931    698.30348  0.033233556  0.032340426           18 
 1752000   0.54953487   -5.1988808    697.88584  0.033194722  0.032319043           24 
 1753000   0.56385453    -5.202205    698.40212  0.033200329  0.032297664           22 
 1754000   0.54378425   -5.1839981    699.86372  0.033250842  0.032276386           24 
 1755000   0.54275156   -5.1813855     698.3255  0.033158855   0.03225516           15 
 1756000   0.56362985   -5.1915395     698.4235  0.033144623   0.03223391           24 
 1757000   0.56467718    -5.174547    698.52736  0.033130685  0.032212621           31 
 1758000   0.55854515   -5.1925827    699.82758  0.033173473  0.032191359           16 
 1759000   0.54740592   -5.1856685    699.42795  0.033135681  0.032170215           14 
 1760000   0.56639948   -5.1883848    698.46367  0.033071196  0.032149126            9 
 1761000   0.54824805   -5.1961149    700.83901  0.033164822  0.032128028           14 
 1762000   0.56420664   -5.1946683    699.70863  0.033092538   0.03210701           10 
 1763000   0.54449488    -5.166978    701.23589  0.033145958  0.032085932           24 
 1764000   0.54895637   -5.1986509    699.12213  0.033027311  0.032064785           19 
 1765000   0.54691851   -5.1822342    699.78787  0.033040032  0.032043736           26 
 1766000   0.55083003   -5.2222843    699.61274  0.033013059   0.03202265            8 
 1767000   0.54949441   -5.2106528    697.97445  0.032917112  0.032001522           26 
 1768000   0.53935299   -5.1934176     699.8624  0.032987481   0.03198039           21 
 1769000    0.5402791   -5.2084289    698.37387  0.032898713  0.031959285           12 
 1770000   0.55135023   -5.1981172    698.63536  0.032892437  0.031938157           22 
 1771000   0.53640659   -5.2074997    699.59796  0.032919159  0.031917092           10 
 1772000   0.54594361   -5.1996679    698.45511  0.032846836  0.031896055           22 
 1773000   0.54740432    -5.214716    699.46355  0.032875708  0.031874925           24 
 1774000   0.53519117   -5.2084058    700.16421  0.032890089  0.031853881           13 
 1775000   0.54548918   -5.2021381    698.80917  0.032807942  0.031832901            8 
 1776000   0.55663924   -5.2045243    698.69283   0.03278401   0.03181197           17 
 1777000   0.54482819    -5.232907    698.39943  0.032751802  0.031790916            7 
 1778000   0.54239094   -5.2318092    698.95173  0.032759267  0.031769942           15 
 1779000   0.53864644    -5.231403    698.99113  0.032742698  0.031748899           20 
 1780000   0.53887912   -5.2246352    700.19996  0.032780897  0.031727935           20 
 1781000   0.56097623   -5.2337169    698.69238  0.032691951  0.031706962           15 
 1782000   0.52896015   -5.2076594    698.54647  0.032666782  0.031685981           20 
 1783000   0.55644814   -5.2258208    699.17282  0.032677735  0.031665081           33 
 1784000   0.54718203   -5.2259415    700.17847  0.032706393  0.031644108           31 
 1785000   0.52093299   -5.2254778     698.8377  0.032625476  0.031623203           20 
 1786000   0.53085759   -5.2017597    698.60968   0.03259657  0.031602295           43 
 1787000   0.55160262   -5.2281363    699.28788  0.032609955  0.031581326           20 
 1788000   0.52853245   -5.2294247    699.87128  0.032618908  0.031560397           30 
 1789000   0.54956756    -5.227448    698.71851  0.032546977  0.031539489           16 
 1790000   0.53576943   -5.2341938    697.03996   0.03245065  0.031518461           30 
 1791000   0.53967714   -5.2250339    700.42352  0.032589965  0.031497515           45 
 1792000   0.53585546   -5.2016786    699.06489  0.032508598  0.031476648            8 
 1793000    0.5373456   -5.2211005    699.15957  0.032494867  0.031455778           15 
 1794000   0.52957421   -5.2228143     698.4521  0.032443892  0.031434954           12 
 1795000   0.54330221    -5.210444    700.77317  0.032533573  0.031414102           41 
 1796000    0.5401568   -5.2160986    699.90368  0.032475115  0.031393364           19 
 1797000   0.52443718   -5.2198138    700.29084  0.032474997  0.031372593           17 
 1798000   0.54696844   -5.2454365    699.58411   0.03242418  0.031351832           20 
 1799000   0.53548994   -5.2338842    699.58306  0.032406108  0.031331124           16 
 1800000   0.54776438   -5.2297135    701.11483   0.03245902  0.031310384           15 
 1801000   0.53914858   -5.2121177     699.9094  0.032385221  0.031289698           23 
 1802000   0.52361913   -5.2346808    700.66133  0.032402022  0.031269011           10 
 1803000   0.52950473   -5.2436749    698.24949  0.032272578  0.031248252            9 
 1804000   0.53267409   -5.2396697    700.77764  0.032371473  0.031227464            8 
 1805000   0.52774006   -5.2437671    698.44675  0.032245925  0.031206671           19 
 1806000   0.53215206   -5.2321303    698.13309  0.032213598  0.031185914           45 
 1807000   0.52874043   -5.2590943    698.99848   0.03223568  0.031165145           14 
 1808000   0.52380715   -5.2386881    699.10035  0.032222546  0.031144395           34 
 1809000   0.54357483   -5.2478525    699.40464  0.032218751  0.031123628           22 
 1810000   0.52767478   -5.2507489    697.11453  0.032095512  0.031102918           47 
 1811000   0.52755535   -5.2403786     698.3273  0.032133596  0.031082256           40 
 1812000    0.5186056   -5.2461912    699.34823  0.032162814  0.031061546           29 
 1813000   0.53389215   -5.2625407    698.13895   0.03208949  0.031040872           55 
 1814000   0.51769031   -5.2405132    698.07503  0.032068864   0.03102019           49 
 1815000   0.53269414   -5.2588701    698.82454  0.032085608  0.030999506           42 
 1816000   0.52582706   -5.2582775    699.25812  0.032087836  0.030978822           29 
 1817000   0.52615435   -5.2409772    698.39179  0.032030444  0.030958115           24 
 1818000   0.52181672   -5.2554498    697.55826  0.031974618  0.030937475           17 
 1819000    0.5266115    -5.235751    699.04006  0.032024925  0.030916852           25 
 1820000   0.52876024   -5.2431018    698.06988  0.031962906  0.030896214           57 
 1821000   0.52603994   -5.2553646    700.36356  0.032050319  0.030875584           33 
 1822000   0.51815872   -5.2581529     697.3187  0.031893464  0.030854982           56 
 1823000   0.52900393   -5.2621835    699.10583  0.031957663  0.030834399           39 
 1824000   0.52851937   -5.2469333    699.29607  0.031948833  0.030813859           40 
 1825000   0.52635504   -5.2628353    698.96531  0.031916224  0.030793377           18 
 1826000   0.52472239   -5.2644934    700.02155  0.031946949   0.03077284           37 
 1827000   0.51717339   -5.2620857    699.62612  0.031911427  0.030752335           19 
 1828000   0.52395912   -5.2468924    699.24058  0.031876394  0.030731818           47 
 1829000   0.51587219   -5.2546035    699.18724  0.031856536  0.030711335           18 
 1830000   0.52161201   -5.2460995    699.97074  0.031874806  0.030690967           18 
 1831000    0.5269315   -5.2508638    699.21062  0.031822803  0.030670548           27 
 1832000   0.51828208   -5.2501773     698.9717  0.031794564  0.030650144           38 
 1833000   0.53279838   -5.2612503    697.87756  0.031727476  0.030629673           35 
 1834000   0.52150125   -5.2547663    698.68048   0.03174666  0.030609228           19 
 1835000   0.52154033   -5.2363091    698.15096  0.031705312   0.03058888           13 
 1836000    0.5135303   -5.2465416    699.68279   0.03175757  0.030568612           21 
 1837000   0.51721034   -5.2611672    699.48709  0.031731405  0.030548287           22 
 1838000   0.51318773   -5.2503293    700.65951  0.031767297  0.030527927           14 
 1839000   0.52667289   -5.2307635     699.9411  0.031717469  0.030507543           28 
 1840000   0.53005356   -5.2450318    698.48279  0.031634184  0.030487169           13 
 1841000   0.52219641   -5.2640247    698.08424  0.031598961  0.030466778           26 
 1842000    0.5154237   -5.2621609    697.84296   0.03157089  0.030446364           25 
 1843000   0.51728463   -5.2452531    698.04986  0.031563116  0.030425924           28 
 1844000   0.52461923   -5.2849061    697.60587  0.031525934  0.030405519           84 
 1845000   0.51743336   -5.2794127    696.75611  0.031470466  0.030385091           34 
 1846000   0.52160514   -5.2738932    698.58885  0.031536152  0.030364672           29 
 1847000   0.50697537   -5.2686404    698.23521  0.031503122  0.030344268           60 
 1848000   0.51924908   -5.2776082     697.2267  0.031440598  0.030323896           45 
 1849000   0.51565189   -5.2899174    696.26857  0.031380411  0.030303503           38 
 1850000   0.50616482   -5.2746592    697.34774   0.03141206  0.030283115           23 
 1851000   0.50924713   -5.2859849     696.9701  0.031378088   0.03026272           42 
 1852000   0.50991751    -5.272691    698.82744  0.031444719  0.030242337           59 
 1853000   0.50736089   -5.2829813    698.05313  0.031392927  0.030221969           22 
 1854000   0.51915644   -5.2728487    697.00338  0.031328811  0.030201635           15 
 1855000   0.50566401   -5.2867959    699.44258  0.031421499  0.030181262           38 
 1856000   0.51639465   -5.2984915     698.3256  0.031354418   0.03016089           19 
 1857000    0.5154586   -5.2707867    697.91704  0.031319199  0.030140563           27 
 1858000   0.50416942   -5.2848443    697.31437  0.031275313  0.030120217           58 
 1859000   0.52711709    -5.284348    697.95882  0.031287377  0.030099906           41 
 1860000   0.50807689   -5.2648362    698.19508  0.031281142   0.03007966           14 
 1861000   0.51437447   -5.2783329    698.51283  0.031278561  0.030059401           25 
 1862000   0.51598079   -5.2849527    696.07128  0.031152492  0.030039042           27 
 1863000   0.51834237   -5.3009961    698.44114  0.031241776  0.030018735           24 
 1864000   0.50841525   -5.2925507    696.62373  0.031143765  0.029998418           27 
 1865000   0.49936503   -5.3050329    698.07651   0.03119198  0.029978129           22 
 1866000    0.5097668   -5.2846614    697.66043  0.031156682   0.02995786           23 
 1867000   0.50808686   -5.2822796     698.1779  0.031163091  0.029937597           60 
 1868000   0.50812778   -5.3002481    696.23253  0.031059624  0.029917383           23 
 1869000   0.51298177   -5.2978526    697.32544  0.031091735  0.029897113           22 
 1870000   0.50189063   -5.2947132    697.79366  0.031095974  0.029876847           26 
 1871000   0.50512498   -5.2992307    697.12254  0.031049463    0.0298566           41 
 1872000    0.5001795   -5.2910048    695.93011  0.030979795  0.029836347           15 
 1873000   0.50943634   -5.3000156    696.31451  0.030980357   0.02981617           16 
 1874000   0.50784842   -5.2856541    696.37935  0.030966709  0.029795916           15 
 1875000   0.50324441   -5.3031563    697.13552  0.030983801   0.02977564           22 
 1876000   0.50635198   -5.2874858    696.05997  0.030919508  0.029755388           29 
 1877000   0.50952209   -5.3003598    696.86208  0.030938647  0.029735197           22 
 1878000   0.50613557   -5.2944497    696.87238   0.03092263  0.029715019           30 
 1879000   0.49770164   -5.2997065    697.23913  0.030922438  0.029694846           11 
 1880000   0.49799448   -5.2935257    695.88499  0.030845966  0.029674738           12 
 1881000   0.50294988   -5.2917773    697.39447  0.030896441  0.029654631            9 
 1882000   0.49611239   -5.3068525    698.27647  0.030919079  0.029634499           24 
 1883000   0.49595706   -5.2965172    698.30314  0.030903839   0.02961441           19 
 1884000   0.49825633   -5.3105857    697.19607  0.030838468    0.0295944           12 
 1885000   0.50436034   -5.2990378    698.31441  0.030871548  0.029574418           46 
 1886000   0.49528338   -5.2885371    696.61136  0.030779929  0.029554461           25 
 1887000   0.50438035   -5.2927261    696.68856  0.030767027  0.029534535           21 
 1888000    0.4957977    -5.301914    697.04938  0.030766657  0.029514572           44 
 1889000   0.49347338   -5.2706624    696.78353  0.030738642  0.029494596           26 
 1890000   0.49074359   -5.3031766    697.24303  0.030742638  0.029474596           14 
 1891000   0.49154528   -5.3000313    696.40024   0.03068924  0.029454628           30 
 1892000    0.5103621   -5.2885388    697.38336  0.030716321  0.029434748           17 
 1893000   0.49360215    -5.310181    698.00645  0.030727525  0.029414875           18 
 1894000    0.4847865   -5.3034026    697.01208   0.03066755  0.029394959           26 
 1895000   0.50797697   -5.3152676    696.21668  0.030616389  0.029375049           28 
 1896000   0.50311996   -5.3216834    696.28129  0.030603081   0.02935516           30 
 1897000   0.50099373   -5.3205018    696.72741  0.030606546  0.029335262           22 
 1898000   0.49298829   -5.3194334    697.42884  0.030621217  0.029315343           37 
 1899000   0.49989271   -5.3340638     696.1422  0.030548631  0.029295383           36 
 1900000    0.4918257   -5.3115676    697.19247  0.030578617  0.029275461           35 
 1901000   0.49469301   -5.3228578    698.49356  0.030619567   0.02925561           49 
 1902000   0.49427045   -5.3097211    697.00457   0.03053823  0.029235766           49 
 1903000   0.50596228   -5.3190427    698.97162  0.030608321  0.029215956           43 
 1904000   0.49775665   -5.3391996    695.66016  0.030447311  0.029196065           65 
 1905000   0.48733671   -5.3343926     696.6584  0.030474995  0.029176163           55 
 1906000    0.4977685   -5.3221696    694.79092  0.030377358  0.029156259           41 
 1907000   0.48276834   -5.3382405    695.29005  0.030383239  0.029136328           45 
 1908000   0.50189381   -5.3177399    695.51861  0.030377298  0.029116435           62 
 1909000   0.49001177   -5.3390062     694.8987  0.030334324  0.029096583           77 
 1910000   0.48813602   -5.3265273    694.92684   0.03031967  0.029076752           49 
 1911000   0.48774211   -5.3478992    696.22779  0.030360535   0.02905695           87 
 1912000   0.49092508   -5.3322484    695.24139  0.030301664   0.02903717           50 
 1913000    0.4841352   -5.3372282    696.57065  0.030343729  0.029017395           49 
 1914000   0.48833477   -5.3192257    696.66836   0.03033213  0.028997624           47 
 1915000   0.49754671   -5.3163946    695.51513  0.030266107  0.028977892           48 
 1916000    0.4826408   -5.3457153    696.08253  0.030274988  0.028958135           38 
 1917000   0.50088111   -5.3432281    696.11738   0.03026071  0.028938351           36 
 1918000   0.48775742   -5.3296214    696.31101  0.030253346  0.028918637           37 
 1919000   0.50013071   -5.3337773    697.00444  0.030267693  0.028898973           32 
 1920000   0.49708844   -5.3288395    694.97634  0.030163904  0.028879271           45 
 1921000   0.47235921   -5.3468843    695.63828  0.030176917  0.028859583           66 
 1922000   0.49410399   -5.3292251     696.3314  0.030191268   0.02883987           41 
 1923000   0.48750221   -5.3443553    694.27182  0.030086316  0.028820151           35 
 1924000   0.48771779   -5.3375764     695.6477  0.030130271  0.028800448           30 
 1925000   0.49907985   -5.3313211    695.84269   0.03012306  0.028780795          121 
 1926000   0.48686217   -5.3571264    696.22633  0.030124019  0.028761174           52 
 1927000   0.47930973    -5.340864    697.10291  0.030146295  0.028741525           38 
 1928000   0.48340917   -5.3634273    694.31394  0.030010111  0.028721811           66 
 1929000   0.48363795   -5.3629464    694.16217  0.029987998  0.028702139           63 
 1930000   0.48028848   -5.3516423    695.77877  0.030042261  0.028682451          112 
 1931000   0.47226025   -5.3617909    695.49962  0.030014656  0.028662717           82 
 1932000    0.4805029   -5.3527292     694.8023  0.029969043  0.028643054           64 
 1933000   0.47550912   -5.3498877    695.44499  0.029981246  0.028623438           41 
 1934000   0.47666358   -5.3511658    696.25188  0.030000512   0.02860385           65 
 1935000   0.48450184   -5.3458614    694.86901  0.029925453  0.028584237           87 
 1936000   0.48053653   -5.3650437    695.75744  0.029948237  0.028564657           70 
 1937000   0.47960392    -5.361907    694.67572  0.029886238   0.02854509           73 
 1938000   0.47724662   -5.3568949    696.25745  0.029938831  0.028525532           38 
 1939000   0.48972644   -5.3580331    696.51416  0.029934423  0.028505993           63 
 1940000   0.47029821   -5.3378159     695.4783  0.029874498  0.028486527           39 
 1941000   0.47125102   -5.3558243    695.27082  0.029850198  0.028467063           56 
 1942000   0.47884436    -5.341894    696.05822  0.029868616   0.02844763           34 
 1943000   0.48100371   -5.3633393    694.96242  0.029806245  0.028428225           35 
 1944000      0.49039   -5.3618045    696.33636   0.02984981   0.02840885           60 
 1945000    0.4669923   -5.3641755    695.38512  0.029793707  0.028389452           48 
 1946000   0.48442467   -5.3559827    694.94181  0.029759413  0.028370079           42 
 1947000   0.47239195   -5.3642623    694.47167  0.029724006   0.02835068           40 
 1948000   0.47742905   -5.3624088    695.71838   0.02976208  0.028331255           27 
 1949000   0.47002385   -5.3582067    696.33448  0.029773152   0.02831185           22 
 1950000   0.48548006   -5.3654966    694.62537  0.029684845  0.028292481           15 
 1951000   0.47438174   -5.3619132    694.57784    0.0296676  0.028273137           38 
 1952000   0.48439608   -5.3789154    695.57374  0.029694917  0.028253812           25 
 1953000   0.48852602   -5.3614046    695.24123  0.029665525  0.028234511           43 
 1954000   0.46815551   -5.3669361    696.02901  0.029683939  0.028215234           36 
 1955000   0.47376471   -5.3848453    694.65102  0.029610018  0.028195979           42 
 1956000   0.46725605    -5.373609    694.48298  0.029587721  0.028176705           17 
 1957000   0.46391853   -5.3401905    696.22669  0.029646853  0.028157497           37 
 1958000   0.46769152   -5.3666859    696.26353  0.029633279   0.02813832           36 
 1959000   0.46786437   -5.3600303    695.71083  0.029594641  0.028119153           20 
 1960000   0.47081569   -5.3517114    694.46852  0.029526723  0.028099907           35 
 1961000   0.47026737   -5.3683994    695.21055  0.029543199  0.028080678           28 
 1962000   0.47558227   -5.3815791    695.95617   0.02955981  0.028061442           47 
 1963000   0.47540562    -5.386878    695.28007   0.02951605  0.028042249           76 
 1964000    0.4671634   -5.3877824    694.89945  0.029484872   0.02802303           53 
 1965000   0.46713234    -5.372991    694.72462  0.029462452  0.028003825           49 
 1966000   0.46709071   -5.3922196    694.14982  0.029423102  0.027984616          106 
 1967000   0.46563844   -5.3885122    695.11835  0.029449176  0.027965391           47 
 1968000   0.47083358   -5.3778063    694.57833  0.029411345  0.027946151           74 
 1969000    0.4701223   -5.3849459    695.02818  0.029415447  0.027926976           39 
 1970000   0.46155874   -5.3879894    694.91852  0.029395876   0.02790782           52 
 1971000   0.46872303   -5.3861652    695.05111  0.029386568  0.027888692           64 
 1972000    0.4601732   -5.3986975    693.75078  0.029316717  0.027869579           89 
 1973000   0.46171108    -5.390916    693.83275   0.02930532  0.027850408           84 
 1974000   0.46091147   -5.3923405    695.64884  0.029367141  0.027831253           45 
 1975000   0.46292225   -5.4055003    693.31766   0.02925391  0.027812103           32 
 1976000   0.46624531   -5.3994379    693.22002  0.029234987  0.027792891           77 
 1977000   0.46094922   -5.4071492    693.93735  0.029250436  0.027773713           62 
 1978000   0.45696956   -5.3969397    693.39338  0.029212731  0.027754539           68 
 1979000   0.46701584   -5.4143103    693.79936  0.029215065  0.027735373           94 
 1980000   0.45443036   -5.3979197     693.2427  0.029176881  0.027716246          186 
 1981000   0.46204957   -5.4036202    694.07379  0.029197114    0.0276971          155 
 1982000   0.45130372   -5.4042042    692.69088  0.029124238   0.02767797          134 
 1983000   0.46022033   -5.3996467    693.55954  0.029146056  0.027658842          125 
 1984000   0.46466878    -5.391622     692.3162  0.029079141  0.027639775          130 
 1985000   0.46546126   -5.4006691     692.9824   0.02909246  0.027620699          134 
 1986000   0.46239994   -5.4130493    693.98901  0.029120049  0.027601613          228 
 1987000   0.45728267   -5.4085494    692.45646   0.02904112  0.027582583          155 
 1988000   0.47023468   -5.4008156    693.14789  0.029055495  0.027563555          138 
 1989000   0.45076928   -5.4140038    693.58364  0.029059144  0.027544539          144 
 1990000   0.45858383   -5.4064116    693.90508  0.029058002  0.027525509          173 
 1991000   0.46794256   -5.4102409    693.97164  0.029046193  0.027506515          233 
 1992000   0.45459393   -5.4015168    693.70002  0.029020248  0.027487556          189 
 1993000   0.46188179   -5.4052431    692.70164  0.028963942  0.027468598          168 
 1994000   0.45963055   -5.4231475    693.76999  0.028994065  0.027449646          310 
 1995000   0.47467235    -5.402458    693.40174   0.02896415  0.027430699          205 
 1996000   0.46343562   -5.4202779    693.15575  0.028939368  0.027411767          263 
 1997000   0.46457592   -5.4234372    691.42931  0.028852834  0.027392814          346 
 1998000   0.45363667   -5.4086215    692.82878  0.028896763  0.027373921          321 
 1999000   0.44263239   -5.4236896    693.01975  0.028890268  0.027355028          203 
 2000000   0.45112928     -5.41683    693.77999    0.0289075  0.027336106          146 
 2001000   0.46116685   -5.4325138    692.34324  0.028833218  0.027317185          192 
 2002000   0.45218978   -5.4234326    691.93006  0.028801618   0.02729826          309 
 2003000   0.45279786   -5.4324305    693.58001  0.028855883  0.027279371          339 
 2004000    0.4483442   -5.4241344    692.18725  0.028783568  0.027260457          241 
 2005000   0.45524757   -5.4342753    690.95996  0.028718203  0.027241534          197 
 2006000   0.45775086   -5.4369294    692.48876  0.028767396  0.027222661          237 
 2007000   0.45502723   -5.4112939    692.16942  0.028739803  0.027203784          221 
 2008000   0.44829974    -5.443791       692.88   0.02875498  0.027184937          234 
 2009000   0.45943818   -5.4404087    692.16738  0.028711108  0.027166067          261 
 2010000   0.45153442   -5.4208361    691.90902  0.028686112  0.027147243          259 
 2011000   0.45625386   -5.4402986    692.49063  0.028695949  0.027128479          179 
 2012000   0.45280538   -5.4246259    692.44483  0.028679789  0.027109697          159 
Loop time of 5052.04 on 48 procs for 2000000 steps with 4000 atoms

Performance: 68407.957 tau/day, 395.879 timesteps/s
99.4% CPU use with 48 MPI tasks x no OpenMP threads

MPI task timing breakdown:
Section |  min time  |  avg time  |  max time  |%varavg| %total
---------------------------------------------------------------
Pair    | 341.35     | 363.93     | 386.54     |  60.6 |  7.20
Neigh   | 34.32      | 35.359     | 36.549     |  11.6 |  0.70
Comm    | 319.65     | 345.33     | 370.49     |  70.3 |  6.84
Output  | 4.3256     | 4.3274     | 4.3711     |   0.3 |  0.09
Modify  | 4241.5     | 4255.7     | 4268.5     |   9.8 | 84.24
Other   |            | 47.41      |            |       |  0.94

Nlocal:        83.3333 ave          91 max          76 min
Histogram: 2 0 8 6 10 4 9 3 3 3
Nghost:        2308.35 ave        2323 max        2296 min
Histogram: 4 2 8 7 7 7 5 4 1 3
Neighs:        15647.3 ave       17396 max       13516 min
Histogram: 1 0 3 6 10 10 7 5 5 1
FullNghs:      31295.8 ave       34448 max       28595 min
Histogram: 2 3 8 7 8 8 5 4 1 2

Total # of neighbors = 1502198
Ave neighs/atom = 375.54950
Neighbor list builds = 107765
Dangerous builds = 0

#clear
#
#next RN
#
#jump SELF
Total wall time: 1:24:15
