
units lj                  # Use reduced LJ style units
atom_style atomic         # Uncharged point particles
atom_modify map hash      # Needed for indexing of clusters etc
                          # Used to be able to find where atoms are in relation to each other.

lattice fcc 1.0 spacing 1 1 1
Lattice spacing in x,y,z = 1.5874011 1.5874011 1.5874011
region box block 0 10 0 10 0 10 units lattice
create_box 2 box
Created orthogonal box = (0.0000000 0.0000000 0.0000000) to (15.874011 15.874011 15.874011)
  3 by 4 by 4 MPI processor grid
create_atoms 1 box
Created 4000 atoms
  using lattice units in orthogonal box = (0.0000000 0.0000000 0.0000000) to (15.874011 15.874011 15.874011)
  create_atoms CPU = 0.002 seconds
set type 1 type/fraction 2 0.95 78393
Setting atom values ...
  3802 settings made for type/fraction
mass 1 1.0
mass 2 1.0
pair_style lj/cut  3.5
pair_modify tail  yes
pair_coeff 1  1  1.0  1.0   # Intearaction between 1 and 1 set with epsilon = 1 and sigma = 1
pair_coeff 1  2  1.5  0.8
pair_coeff 2  2  0.5  0.88

write_data data.0
System init for write_data ...
Neighbor list info ...
  update every 1 steps, delay 10 steps, check yes
  max neighbors/atom: 2000, page size: 100000
  master list distance cutoff = 3.8
  ghost atom cutoff = 3.8
  binsize = 1.9, bins = 9 9 9
  1 neighbor lists, perpetual/occasional/extra = 1 0 0
  (1) pair lj/cut, perpetual
      attributes: half, newton on
      pair build: half/bin/atomonly/newton
      stencil: half/bin/3d
      bin: standard
WARNING: Not all mixed pair coeffs generated from mixing. Use write_data with 'pair ij' option to store all pair coeffs. (../write_data.cpp:312)


#############################
#   M E L T   S Y S T E M   #
#############################

velocity all create 2.4 8172548 mom yes dist gaussian # Assign velocities
                                                    # Temperature 2.4, random number seed, zero linear momentum
                                                                                # Gaussian distribution

timestep 0.002   # simulation timestep
thermo 1000       # output thermodynamic data every 1000 steps bf 100

# Define a fix  in this case with index 1 applied to all
# particles in the simulation. This fix is for simulations
# in the anisotropic NPT ensemble. Note that we use the MTK
# correction.
fix 1 all npt temp 2.4 2.4 0.1 iso 5.68 5.68 0.5 mtk yes tchain 5 pchain 5 # Use NPT ensemble
                                                                         # Set temperature and pressure and damping
                                                                         # Numbers of thermostats in chain and in barostat
run 10000          # run for 10000 steps
Per MPI rank memory allocation (min/avg/max) = 3.642 | 3.644 | 3.648 Mbytes
Step Temp E_pair E_mol TotEng Press Volume 
       0          2.4   -2.9371918            0   0.66190816   -2.1469233         4000 
    1000    2.3928452   -1.7952341            0    1.7931363     5.634382    4174.5255 
    2000    2.4187536   -1.8288105            0    1.7984128    5.6900367    4123.0274 
    3000    2.3534844   -1.7990172            0    1.7303269    5.8400554    4117.8727 
    4000    2.4400425   -1.8263881            0    1.8327606    5.5951854    4132.0538 
    5000    2.3880464   -1.7773951            0     1.803779     5.865515     4135.094 
    6000    2.4113052   -1.8433405            0    1.7727131    5.5509264    4138.5428 
    7000    2.4052964   -1.7815339            0    1.8255086     6.144144    4085.5993 
    8000    2.4194116   -1.8375711            0    1.7906389    5.7032059    4118.9467 
    9000    2.3966477   -1.8159149            0    1.7781579    5.6282726    4138.5237 
   10000     2.403364   -1.7973099            0    1.8068349    5.6583652    4155.2066 
Loop time of 2.46646 on 48 procs for 10000 steps with 4000 atoms

Performance: 700599.455 tau/day, 4054.395 timesteps/s
99.6% CPU use with 48 MPI tasks x no OpenMP threads

MPI task timing breakdown:
Section |  min time  |  avg time  |  max time  |%varavg| %total
---------------------------------------------------------------
Pair    | 1.0541     | 1.117      | 1.1829     |   2.6 | 45.29
Neigh   | 0.20165    | 0.21257    | 0.22251    |   0.9 |  8.62
Comm    | 0.75705    | 0.85299    | 0.93112    |   3.6 | 34.58
Output  | 0.00025362 | 0.00025788 | 0.0003249  |   0.0 |  0.01
Modify  | 0.25055    | 0.26866    | 0.29666    |   2.5 | 10.89
Other   |            | 0.01494    |            |       |  0.61

Nlocal:        83.3333 ave          94 max          76 min
Histogram: 2 5 10 10 4 9 3 2 1 2
Nghost:        1596.31 ave        1625 max        1569 min
Histogram: 2 4 4 8 4 10 7 5 2 2
Neighs:        9173.96 ave       10427 max        8199 min
Histogram: 4 3 5 10 10 6 4 2 1 3

Total # of neighbors = 440350
Ave neighs/atom = 110.08750
Neighbor list builds = 911
Dangerous builds = 234

# Equilibrate just above the melting temperature to avoid step fn in T

fix 1 all npt temp 1.25 1.25 0.1 iso 5.68 5.68 0.5 mtk yes tchain 5 pchain 5
run 2000
Per MPI rank memory allocation (min/avg/max) = 3.643 | 3.645 | 3.649 Mbytes
Step Temp E_pair E_mol TotEng Press Volume 
   10000     2.403364   -1.7973099            0    1.8068349    5.6583652    4155.2066 
   11000    1.2636752   -2.7607909            0  -0.86575191    5.4768571    3240.2221 
   12000    1.2522888   -2.7623793            0  -0.88441568    5.5652989    3230.2562 
Loop time of 0.576775 on 48 procs for 2000 steps with 4000 atoms

Performance: 599194.241 tau/day, 3467.559 timesteps/s
99.7% CPU use with 48 MPI tasks x no OpenMP threads

MPI task timing breakdown:
Section |  min time  |  avg time  |  max time  |%varavg| %total
---------------------------------------------------------------
Pair    | 0.26003    | 0.27946    | 0.29659    |   1.6 | 48.45
Neigh   | 0.038199   | 0.040231   | 0.042028   |   0.4 |  6.98
Comm    | 0.18845    | 0.20811    | 0.23026    |   2.2 | 36.08
Output  | 5.197e-05  | 5.3406e-05 | 6.9517e-05 |   0.0 |  0.01
Modify  | 0.041222   | 0.04424    | 0.047409   |   0.9 |  7.67
Other   |            | 0.004677   |            |       |  0.81

Nlocal:        83.3333 ave          93 max          74 min
Histogram: 5 0 2 6 11 12 5 4 1 2
Nghost:        1897.15 ave        1918 max        1877 min
Histogram: 6 3 5 7 1 6 9 2 5 4
Neighs:        11818.8 ave       13348 max        9977 min
Histogram: 2 2 3 5 7 8 7 7 4 3

Total # of neighbors = 567302
Ave neighs/atom = 141.82550
Neighbor list builds = 143
Dangerous builds = 17

#############################
# L I N E A R  Q U E N C H  #
#############################

# Define solid atoms. This closely follows ten Wolde  Ruiz-Montero and Frenkel  Faraday Discuss  1996  104  93-110
# Compute components of the per-atom q6 vector
compute q6 all orientorder/atom degrees 1 6 components 6 nnn NULL cutoff 1.3 # compute the Q6 parameter.
                                                                             # Use all neighbours within 1.3 unit cell.

# get number of connections
compute coord_number all coord/atom orientorder q6 0.5

# An atom is solid if it has 8 or more connections (of a possible 14)
variable is_solid atom c_coord_number>=8
group solid dynamic all var is_solid    # Must be dynamic to update
dynamic group solid defined

# do clustering
compute cluster solid cluster/atom 1.3 # Create a cluster where all atoms within are solid and max 1.3 units from another member

# define chunks one chunk per cluster
compute clus_chunks solid chunk/atom c_cluster nchunk every compress yes  # Says which atoms are in which chunk

# count the size of each chunk
compute size_chunks solid property/chunk clus_chunks count


# Find the maximum entry in the vector of chunk sizes
variable max_n equal max(c_size_chunks)


# Thermo style which includes this variable
# thermo_style custom step temp pe vol v_max_n

thermo ${N}  # Print the thermo information every 100 steps
thermo 1000  

# Reset the npt fix at a lower temperature (below freezing)
fix 1  all npt temp  ${temp} ${temp}  0.1  iso  5.68  5.68  0.5  mtk yes tchain  5  pchain  5
fix 1  all npt temp  0.45 ${temp}  0.1  iso  5.68  5.68  0.5  mtk yes tchain  5  pchain  5
fix 1  all npt temp  0.45 0.45  0.1  iso  5.68  5.68  0.5  mtk yes tchain  5  pchain  5

dump dmp2 all dcd ${N} traj.dcd
dump dmp2 all dcd 1000 traj.dcd


compute msd all msd com yes
variable twopoint equal c_msd[4]/6/(step*dt+1.0e-6)
fix 9 all vector 10 c_msd[4]
variable fit equal slope(f_9)/6/(10*dt)
thermo_style custom step temp pe c_msd[4] v_twopoint v_fit v_max_n

fix 1 all npt temp 1.25 ${temp} 0.1 iso 5.68 5.68 0.5 mtk yes tchain 5 pchain 5
fix 1 all npt temp 1.25 0.45 0.1 iso 5.68 5.68 0.5 mtk yes tchain 5 pchain 5
run 2000000 # 5000000  # Run for this many steps
Neighbor list info ...
  update every 1 steps, delay 10 steps, check yes
  max neighbors/atom: 2000, page size: 100000
  master list distance cutoff = 3.8
  ghost atom cutoff = 3.8
  binsize = 1.9, bins = 8 8 8
  4 neighbor lists, perpetual/occasional/extra = 1 3 0
  (1) pair lj/cut, perpetual
      attributes: half, newton on
      pair build: half/bin/atomonly/newton
      stencil: half/bin/3d
      bin: standard
  (2) compute orientorder/atom, occasional
      attributes: full, newton on
      pair build: full/bin/atomonly
      stencil: full/bin/3d
      bin: standard
  (3) compute coord/atom, occasional
      attributes: full, newton on
      pair build: full/bin/atomonly
      stencil: full/bin/3d
      bin: standard
  (4) compute cluster/atom, occasional
      attributes: full, newton on
      pair build: full/bin/atomonly
      stencil: full/bin/3d
      bin: standard
Per MPI rank memory allocation (min/avg/max) = 9.817 | 9.822 | 9.826 Mbytes
Step Temp PotEng c_msd[4] v_twopoint v_fit v_max_n 
   12000    1.2522888   -2.7623793 2.3523832e-30 1.6335994e-32 8.3333333e+20            1 
   13000    1.2765042   -2.7599594    1.0926808 0.0070043641  0.093038112            1 
   14000    1.2614197   -2.7530662    2.3206384  0.013813323  0.098326538            2 
   15000    1.2617727   -2.7494029    3.5694166  0.019830092   0.10153446            3 
   16000    1.2448767   -2.7103754    4.7728178  0.024858425    0.1013973            1 
   17000    1.2728892   -2.7548188    5.8772234  0.028809918   0.10004036            1 
   18000    1.3008626   -2.7549779    7.1320701  0.033018842   0.09965311            2 
   19000    1.2772387   -2.7698854    8.3991422  0.036838342  0.099880057            1 
   20000    1.2444224   -2.7498673    9.5779578  0.039908156   0.10027701            1 
   21000    1.2459291   -2.7495182    10.962387  0.043501536   0.10088174            1 
   22000    1.2366175   -2.7421147    12.054718   0.04566181   0.10111144            1 
   23000    1.2253972   -2.7567662    13.185889  0.047774959   0.10103594            2 
   24000    1.2284237   -2.7524995    14.605625  0.050713974   0.10115608            1 
   25000    1.2053745   -2.7758625    15.852794  0.052842647       0.1017            1 
   26000    1.2501494   -2.7540477    17.478173  0.056019783    0.1024671            1 
   27000    1.2406406   -2.7493652    19.078988  0.058885766   0.10383507            2 
   28000    1.2287431   -2.7421344    20.298064  0.060410904   0.10489867            1 
   29000    1.2242832   -2.7610592    21.605112  0.062083655   0.10577138            1 
   30000    1.2544464   -2.7508642    22.763733  0.063232591   0.10630937            1 
   31000    1.2521278   -2.7522854    23.933181  0.064336508   0.10659917            1 
   32000    1.2600355   -2.7544648    25.361499   0.06604557   0.10678928            3 
   33000    1.2354331   -2.7453799    26.429684  0.066741625   0.10687211            1 
   34000    1.2374736   -2.7712718     27.64342  0.067753479   0.10687826            2 
   35000    1.2383172    -2.754199    28.638753  0.068187507   0.10665086            4 
   36000    1.2374061    -2.764916    29.739415  0.068841236   0.10634106            2 
   37000    1.2585679   -2.7664151    30.709005  0.069164426   0.10587044            1 
   38000    1.2461747   -2.7853939    31.636964  0.069379305   0.10528025            2 
   39000    1.2637428   -2.7723066    33.030412  0.070577802   0.10465202            2 
   40000    1.2209833   -2.7924716    34.157805  0.071162094   0.10419771            2 
   41000    1.2500743   -2.7945511    35.482558  0.072119019   0.10377335            2 
   42000    1.2310735   -2.7365667    36.767671  0.072951727   0.10347006            1 
   43000     1.247509   -2.7629745    37.918878  0.073486197    0.1032875            2 
   44000    1.2260947   -2.7969999    39.019216   0.07390003   0.10307657            4 
   45000    1.2362755   -2.7682123    40.458439  0.074923035   0.10289034            1 
   46000    1.2409302   -2.7555742    41.616521  0.075392247   0.10275343            1 
   47000    1.2293807   -2.7551817    42.773634  0.075839776   0.10265071            3 
   48000    1.2074779   -2.7803659    43.848258  0.076125448   0.10247698            1 
   49000    1.2607926   -2.7478569    45.033442  0.076587485   0.10229681            2 
   50000    1.2753037   -2.7811344    46.070118  0.076783529   0.10213655            1 
   51000    1.2440359   -2.7803403    47.253037  0.077210844    0.1019842            1 
   52000    1.2210417   -2.7699605    48.606348  0.077894787   0.10183998            1 
   53000    1.2205253   -2.7698066    49.456551  0.077761872   0.10166682            2 
   54000     1.230383   -2.7579468     51.03745  0.078761496   0.10155243            1 
   55000    1.2325945   -2.7568578    51.922536  0.078670508   0.10143189            2 
   56000    1.2172434   -2.7948612    53.201168  0.079168404   0.10130296            1 
   57000    1.2464857   -2.7774688    53.596666  0.078357698   0.10107649            2 
   58000    1.2406777   -2.8022746    54.968888  0.078978286   0.10084199            2 
   59000    1.2386809   -2.7610076    56.459305  0.079744781   0.10066442            2 
   60000    1.2128419   -2.7704376    57.406715  0.079731547   0.10045325            2 
   61000    1.2349553   -2.7818841    58.263582  0.079595057   0.10026226            2 
   62000    1.2142361   -2.7510903     59.76907   0.08033477   0.10007759            2 
   63000    1.2036248   -2.7947997    60.528275  0.080063856  0.099900496            1 
   64000      1.19417   -2.8095786    61.627894  0.080244653  0.099725242            3 
   65000    1.2315919   -2.7645669    63.586167  0.081520726  0.099614988            1 
   66000     1.215442    -2.766142    64.703512  0.081696353  0.099547574            3 
   67000    1.2495642   -2.7636918    66.162211  0.082291307  0.099510178            1 
   68000    1.2028852   -2.7673535    67.390715   0.08258666  0.099492056            2 
   69000    1.2379474   -2.7888584    68.231746  0.082405489  0.099453124            2 
   70000    1.2321257   -2.7706032    69.601148  0.082858509  0.099430352            3 
   71000    1.2197157   -2.7758314    70.884683  0.083197985  0.099401874            1 
   72000    1.2269134   -2.7816189    71.625815  0.082900248  0.099378589            1 
   73000    1.2091446   -2.7604285    73.308534  0.083685541  0.099352441            3 
   74000    1.2653713   -2.7589267    74.224661  0.083586329  0.099343027            1 
   75000    1.2520805    -2.755912    75.837681   0.08426409  0.099339085            2 
   76000    1.2313286   -2.7880942    76.867253  0.084284268  0.099351006            1 
   77000    1.2070035   -2.7883984    77.927989   0.08433765  0.099362006            1 
   78000    1.2183928   -2.8057148    79.106945  0.084515966   0.09935568            4 
   79000    1.2082879   -2.8033661    80.498117  0.084913625  0.099358172            2 
   80000    1.2295129   -2.7849643    81.806562  0.085215169  0.099381258            1 
   81000    1.2441796   -2.7786665    83.475177  0.085879811  0.099420214            1 
   82000    1.2344664   -2.7951845    84.419961  0.085792642  0.099459255            2 
   83000    1.2275332   -2.7699672    85.967779  0.086313031  0.099502887            1 
   84000     1.232838   -2.7903105    87.205461  0.086513354  0.099570079            2 
   85000    1.2273501   -2.7926015    87.252331    0.0855415  0.099585269            1 
   86000    1.1976011   -2.7782288    88.692861  0.085942694  0.099584416            3 
   87000    1.2610577    -2.782744    90.513467  0.086698723  0.099605489            2 
   88000    1.2287877   -2.7946268    91.347852  0.086503647  0.099621533            1 
   89000    1.1972876   -2.7652769    92.921044  0.087004722  0.099615268            3 
   90000    1.2157867   -2.7815658     94.18383  0.087207249  0.099616922            2 
   91000    1.2332429   -2.7816867    95.211471  0.087189992  0.099623233            2 
   92000    1.2266951   -2.8058616    95.978752  0.086937275  0.099619372            1 
   93000    1.2081914   -2.7757948    97.167323  0.087067493  0.099626999            2 
   94000    1.2142983    -2.789625    98.926766  0.087701033  0.099622142            3 
   95000    1.2336474   -2.7866838    99.402909  0.087195533  0.099619529            1 
   96000    1.2158976   -2.7779565    100.59504  0.087322086  0.099591112            1 
   97000    1.2057744   -2.7811758    101.68807   0.08736088  0.099563632            3 
   98000    1.1854728   -2.7911429    102.84134  0.087450121  0.099525582            1 
   99000     1.241825   -2.8024546    103.76166  0.087341468  0.099495713            1 
  100000    1.2079949   -2.7822216    105.07465  0.087562204  0.099474042            2 
  101000    1.1723924   -2.7862879    106.16942  0.087598527  0.099446505            4 
  102000    1.2080083   -2.7787973    107.25447  0.087626203    0.0993936            3 
  103000    1.2152697   -2.8069251    108.15314  0.087502543   0.09934731            1 
  104000    1.2363546   -2.7762135    108.95296  0.087302048  0.099286827            2 
  105000    1.2165382   -2.7976867    110.13137  0.087405847  0.099223924            3 
  106000    1.2300365   -2.7926252    111.55448  0.087700064  0.099163318            1 
  107000    1.1943256    -2.804846    112.10459  0.087308871  0.099087543            4 
  108000     1.196819   -2.8411737    112.88824  0.087105122  0.099008668            2 
  109000    1.2281127   -2.8008614     113.9534  0.087120339  0.098899361            1 
  110000    1.2126383   -2.8059066    114.73554  0.086920864  0.098791752            1 
  111000     1.230194    -2.815671    116.38599  0.087376867  0.098680369            1 
  112000    1.1895495   -2.8279008    117.10391  0.087130887  0.098584654            4 
  113000    1.2239068   -2.7980507     118.8287  0.087631788  0.098483966            1 
  114000    1.2182449   -2.7877669    119.30773  0.087213256  0.098390201            2 
  115000    1.2011499   -2.8088515    121.12585  0.087772358  0.098321161            1 
  116000    1.2069917   -2.7956999    122.51528   0.08801385  0.098256699            2 
  117000    1.1824703   -2.8021183    123.92945  0.088268839  0.098194784            1 
  118000    1.2062624   -2.7929564    124.72272  0.088081015  0.098143898            2 
  119000    1.1960492   -2.7934223    126.22251  0.088391116  0.098087468            1 
  120000    1.2249688   -2.7825213    127.00194  0.088195792   0.09804114            2 
  121000    1.1955901    -2.770811     129.2019  0.088982024  0.098005196            1 
  122000    1.2010276   -2.8010789     128.8582  0.088017894  0.097962733            2 
  123000    1.2175599   -2.7809226    131.93215  0.089384925  0.097933369            3 
  124000    1.2014848   -2.8016816    131.94581  0.088673259  0.097923299            1 
  125000    1.2221186   -2.8058839    133.60877  0.089072513  0.097899705            1 
  126000    1.2074919   -2.7915767     134.9324  0.089241003  0.097891653            1 
  127000    1.2196189   -2.7936927    136.58164  0.089620499  0.097889086            3 
  128000    1.1667406   -2.8049009    137.03937  0.089218338  0.097881567            2 
  129000    1.2324103   -2.7889426    138.81513  0.089673857  0.097874257            2 
  130000    1.2130474   -2.8648708    139.37252   0.08934136  0.097866394            1 
  131000    1.1798718   -2.8027651    141.07718  0.089743756  0.097866843            1 
  132000    1.1917253   -2.7753598    142.38299  0.089888253   0.09787078            1 
  133000     1.209774   -2.7638825    143.75687  0.090073228  0.097884742            2 
  134000     1.201391   -2.8384173    145.07045  0.090217943  0.097895085            2 
  135000    1.2087476   -2.8178234    145.82792  0.090017231  0.097905111            1 
  136000    1.1823383   -2.8090838    147.53485  0.090401256  0.097910174            1 
  137000    1.1767691   -2.8045951    148.33249  0.090226574  0.097918209            1 
  138000    1.2141029   -2.8029658    150.04889  0.090609233  0.097937139            1 
  139000    1.2084758   -2.7942528    150.92245  0.090481082  0.097963661            1 
  140000    1.2007144   -2.8271912    152.22932  0.090612688  0.097978732            3 
  141000    1.1667778   -2.8194176    153.28723  0.090595292  0.097990092            1 
  142000     1.197596   -2.7930099     154.8384  0.090867606  0.098001361            2 
  143000    1.2235627   -2.7707194    156.02719  0.090924934  0.098017349            3 
  144000     1.210347   -2.8112145    156.52167  0.090579672  0.098035258            3 
  145000    1.2280193   -2.8358936    157.91943   0.09075829  0.098050383            2 
  146000    1.2127216   -2.8364281    159.60936  0.091101231  0.098079297            4 
  147000    1.2004746   -2.7946561    160.78806  0.091149695  0.098099491            2 
  148000    1.1984985     -2.82173    162.15472  0.091303332  0.098122513            3 
  149000    1.1885536   -2.8211488    162.79354  0.091047843  0.098144748            2 
  150000    1.1662517   -2.8196991    163.81808  0.091010043  0.098152939            2 
  151000    1.1984154   -2.7979516    165.04012  0.091081743  0.098159443            2 
  152000    1.1937229   -2.8410078    166.34761  0.091199347  0.098166092            2 
  153000    1.1959243   -2.8174236    167.53904    0.0912522  0.098168163            2 
  154000    1.1689905   -2.8033079     169.3649  0.091647675  0.098183644            2 
  155000    1.1681814   -2.8088585    169.51117  0.091135037  0.098192589            1 
  156000    1.1905792   -2.8321358    169.82576  0.090718887  0.098187387            1 
  157000    1.2002152   -2.8354419    171.57054  0.091067166  0.098180834            2 
  158000    1.1985493   -2.8534516    172.88619  0.091184701   0.09817327            2 
  159000    1.1869343   -2.8315994    174.27907  0.091341232  0.098174601            1 
  160000    1.2108253   -2.8180535    175.28525  0.091294402  0.098174056            1 
  161000    1.1902221   -2.8217518    176.54079  0.091377221  0.098167337            1 
  162000    1.1901368   -2.8415008    178.10095  0.091615715  0.098160812            1 
  163000    1.2014861   -2.8279254    178.43343  0.091223636   0.09816113            3 
  164000    1.1806257   -2.8178304    180.08554   0.09150688  0.098159656            2 
  165000    1.2094505   -2.8513133      180.971  0.091399493  0.098156024            1 
  166000    1.1634663    -2.824138    181.70897  0.091219361  0.098143805            2 
  167000    1.1747393   -2.8295666    182.91074  0.091272826  0.098123176            2 
  168000    1.1796474   -2.8308295     184.0587   0.09129896  0.098114054            2 
  169000     1.188653   -2.8718804     184.6482  0.091049408  0.098109056            1 
  170000    1.1837437   -2.8254339     186.6066  0.091473823  0.098095426            1 
  171000     1.194274   -2.8364716    187.77461  0.091508093  0.098087516            2 
  172000    1.1886803   -2.8211943    189.50222  0.091813091  0.098080552            1 
  173000    1.1918128   -2.8135959    190.67588  0.091847726  0.098081667            1 
  174000    1.2144794   -2.8184335    191.62513  0.091774488  0.098081727            2 
  175000     1.183718   -2.8291926    192.94808  0.091880038  0.098076673            2 
  176000    1.1837343   -2.8523536    193.37214  0.091558776  0.098072442            2 
  177000    1.1645723   -2.8389195    195.25787  0.091929316  0.098072154            3 
  178000    1.1847291   -2.7962936    196.66069   0.09206961  0.098072012            1 
  179000    1.2071726   -2.8171553     197.1836  0.091798695  0.098079212            1 
  180000    1.2081618   -2.8139443    199.10284   0.09217724  0.098080997            5 
  181000    1.1880615   -2.8265777    200.52522  0.092322845  0.098079811            3 
  182000    1.2039906   -2.8164723    201.82709  0.092411673  0.098078139            1 
  183000    1.1767777   -2.8223017    201.52449  0.091768894  0.098075621            3 
  184000    1.1743045   -2.8229753    201.95368   0.09146453   0.09806267            2 
  185000    1.1622785   -2.8408313    204.09203  0.091933345  0.098055225            2 
  186000    1.1846304   -2.8160491    205.25119  0.091958419  0.098045262            1 
  187000    1.1749895   -2.8167542    206.18995  0.091885005   0.09803098            4 
  188000    1.1675779   -2.8553244    206.26915   0.09143136  0.098006131            1 
  189000    1.1702708   -2.8119145       208.44  0.091904763  0.097985431            4 
  190000    1.1842302   -2.8337456    209.43183  0.091856065  0.097966805            1 
  191000    1.1906123   -2.7992202    211.03941  0.092076533  0.097956741            1 
  192000    1.1826256   -2.8357715    211.90717  0.091973596   0.09794004            2 
  193000    1.1925216   -2.8143051     212.5644  0.091780829  0.097922917            4 
  194000    1.1654918   -2.8297868    213.62267  0.091762316  0.097899826            1 
  195000     1.163992   -2.8226142     215.0148  0.091886666  0.097872549            2 
  196000    1.1903471   -2.8512046    215.41066  0.091586165  0.097845497            1 
  197000    1.2002085   -2.8513384    216.26118  0.091481042  0.097812774            2 
  198000    1.1538411    -2.824204    218.26636  0.091862944  0.097783808            1 
  199000    1.1407727   -2.8513315    218.91704  0.091673801   0.09775125            1 
  200000     1.192125   -2.8556417    220.20214  0.091750893  0.097720532            1 
  201000    1.1799268   -2.8349477    220.71501  0.091507053  0.097685432            2 
  202000     1.168208   -2.8333271    221.52572    0.0913885  0.097646123            1 
  203000    1.1577258   -2.8561123    220.93818   0.09069712  0.097607391            1 
  204000     1.186106   -2.8690686    222.27531  0.090798738  0.097562703            1 
  205000      1.18828   -2.8408864     223.8338  0.090989349  0.097524346            1 
  206000    1.1626668     -2.85267    225.51418  0.091227419  0.097491903            2 
  207000    1.1671062   -2.8269521    226.46732  0.091170418  0.097458618            3 
  208000     1.181406   -2.8320355    227.27717  0.091056559  0.097411276            1 
  209000    1.1693736   -2.8143728    229.07498  0.091337713  0.097367697            1 
  210000    1.1733135   -2.8299852    230.57607  0.091498439  0.097328911            2 
  211000    1.1593504   -2.8266536    231.54296  0.091446668  0.097286897            2 
  212000    1.1720623   -2.8182885    231.88523  0.091149854  0.097249214            2 
  213000    1.1684262   -2.8448885    233.84301  0.091487875  0.097210315            2 
  214000    1.1663727    -2.825351    232.72131  0.090623564  0.097162983            2 
  215000    1.1607597   -2.8497875    233.20174  0.090388271   0.09711572            1 
  216000    1.1653411   -2.8173041    234.96507  0.090650104  0.097064904            2 
  217000    1.1623934   -2.8452436    236.32271  0.090753729  0.097006998            1 
  218000    1.1648245   -2.8462096    238.12604  0.091026772    0.0969487            2 
  219000    1.1703616   -2.8453686    238.28021  0.090669789  0.096893849            2 
  220000    1.1776167   -2.8306223    239.47965  0.090711987  0.096832668            4 
  221000     1.160253   -2.8764219    239.26992  0.090222444  0.096771724            1 
  222000    1.1949521   -2.8410741    240.14696  0.090145253  0.096708613            2 
  223000    1.1348478    -2.859619    242.08881  0.090466669  0.096649214            2 
  224000     1.179162   -2.8506432    243.01912  0.090408899  0.096587841            2 
  225000    1.1929565   -2.8007903    244.60111  0.090593003   0.09653374            2 
  226000    1.1631936   -2.8040505    245.83016  0.090645339  0.096480499            1 
  227000    1.1606064   -2.8559575    246.41167  0.090459498  0.096427826            2 
  228000    1.1653075   -2.8226653    246.76241   0.09019094  0.096374137            3 
  229000    1.1725206   -2.8928666    248.43755  0.090406677   0.09632222            2 
  230000    1.1671831   -2.8552941    248.85108  0.090163433  0.096272504            2 
  231000    1.1829013   -2.8504367    248.82162  0.089762489  0.096216165            2 
  232000    1.1617326   -2.8050984    251.27453  0.090256657  0.096156764            1 
  233000    1.1685251   -2.8508848    252.00624  0.090130986  0.096092856            2 
  234000    1.1660039    -2.870014    251.85317  0.089691299   0.09602837            1 
  235000    1.1581166   -2.8588367    251.61836  0.089226369  0.095964925            2 
  236000    1.1789847   -2.8347529    254.93741  0.090020271   0.09589673            3 
  237000    1.1454714   -2.8600978    256.12837    0.0900592  0.095828721            1 
  238000    1.1704963   -2.8711521    255.65278  0.089514279  0.095762385            1 
  239000     1.141059   -2.8386211    257.49941  0.089783616  0.095697335            1 
  240000    1.1481754   -2.8671204    257.31183  0.089344387   0.09562885            1 
  241000    1.1673805   -2.8790521    258.12498  0.089254834  0.095561337            2 
  242000    1.1647053   -2.8664002     260.3572  0.089654685  0.095498215            1 
  243000    1.1261004   -2.8336538    261.08369  0.089534873  0.095437562            1 
  244000    1.1633194   -2.8580596    260.82921  0.089081015   0.09537338            2 
  245000    1.1315157    -2.878498    262.16146  0.089170563  0.095306362            3 
  246000    1.1854116   -2.8579155    263.61249  0.089299625  0.095239307            3 
  247000     1.127353   -2.8896325    263.61768  0.088939837  0.095168562            3 
  248000    1.1316635   -2.8278449    266.79618  0.089649255  0.095104765            2 
  249000     1.158263   -2.9043132    265.77058  0.088945977   0.09503636            3 
  250000    1.1523208   -2.8601138    266.64195   0.08888065  0.094962329            1 
  251000      1.15878   -2.8639272    268.57292  0.089167635  0.094890193            2 
  252000    1.1636958    -2.868195    269.41413  0.089091973  0.094821379            2 
  253000    1.1528667   -2.8721236    271.10737  0.089297553  0.094753812            2 
  254000    1.1491288   -2.8444363    270.82941  0.088854792  0.094682496            3 
  255000    1.1677585   -2.8539009    272.03441  0.088900133  0.094610739            2 
  256000    1.1591406   -2.8590719    272.49294  0.088702129  0.094536929            4 
  257000    1.1571517   -2.8797407    274.22302  0.088917972  0.094467795            3 
  258000    1.1623968   -2.8649424    274.36802  0.088620162  0.094400746            1 
  259000    1.1440703   -2.8791413    276.29293   0.08889734  0.094335511            3 
  260000     1.161057   -2.8422208    276.27337  0.088549156  0.094271243            3 
  261000    1.1543996   -2.8695814    277.04576  0.088456499  0.094209571            3 
  262000    1.1557849   -2.8645084     279.7487  0.088978595  0.094145659            2 
  263000    1.1510913   -2.8509418    279.13052  0.088444397  0.094081707            2 
  264000    1.1475862   -2.8622061    281.29723  0.088793319  0.094018145            1 
  265000    1.1493853   -2.8606196    282.56236  0.088856087  0.093958772            1 
  266000    1.1491362   -2.8449877    284.59283  0.089158155  0.093897592            1 
  267000    1.1383613   -2.8790439    283.04442  0.088340954  0.093837908            1 
  268000    1.1492615   -2.8855961    286.01957  0.088936435  0.093776013            2 
  269000    1.1240315   -2.8629969    286.60778  0.088788037  0.093717107            2 
  270000    1.1898165   -2.8953149    286.11209  0.088306199   0.09365359            1 
  271000    1.1446539   -2.8669935    288.07703  0.088584572  0.093596122            3 
  272000    1.1404702   -2.8999481    289.03836   0.08855342   0.09353776            2 
  273000    1.1377897   -2.8591221    289.87538  0.088484549  0.093481877            1 
  274000    1.1513048   -2.8896078    291.10918  0.088536854  0.093425907            1 
  275000    1.1522757   -2.8851142    291.65832  0.088381309  0.093372336            1 
  276000    1.1524755   -2.8683322    292.71255  0.088379393  0.093314118            1 
  277000    1.1491968   -2.8638404    294.33742  0.088549164  0.093261033            2 
  278000    1.1371137   -2.8679784    295.79379  0.088667204  0.093207684            3 
  279000    1.1511946   -2.8935661    296.70487  0.088621525  0.093155502            3 
  280000    1.1314775   -2.8447556     296.7664  0.088323333  0.093098219            2 
  281000    1.1455226   -2.8417002     298.9426  0.088654388   0.09304281            1 
  282000    1.1342098   -2.8855454    298.68482  0.088263837  0.092985311            1 
  283000    1.1382637   -2.8505457    298.91886  0.088020865  0.092927281            2 
  284000    1.1724397   -2.8757825    299.02848    0.0877431  0.092873819            2 
  285000    1.1357003   -2.8935247    301.24622   0.08808369  0.092818659            2 
  286000    1.1260564   -2.8775178    301.91541  0.087970689  0.092765706            2 
  287000    1.1365806   -2.8657683     304.0643  0.088288124  0.092713229            1 
  288000    1.1308766   -2.8887388    304.15126   0.08800673  0.092661148            2 
  289000    1.1481958   -2.8900428    305.50917  0.088093761  0.092612128            2 
  290000    1.1522805   -2.8584909    307.49961  0.088361958  0.092562405       -1e+20 
  291000    1.1550225   -2.9002179    308.22205  0.088265192   0.09251338            1 
  292000    1.1191263   -2.8774709    308.90164   0.08815686  0.092456156            2 
  293000    1.1392011   -2.8837089    310.22098  0.088231224  0.092405404            5 
  294000    1.1219465   -2.9144269    309.78154  0.087806559  0.092352365            1 
  295000    1.1406244   -2.8662318     311.5963  0.088021554  0.092294125            1 
  296000    1.1172121   -2.8883924    309.64336  0.087174369  0.092234937            1 
  297000    1.1307335   -2.8783967    312.63218  0.087719466   0.09217452            1 
  298000     1.144738   -2.8645891    312.35854  0.087348584  0.092112533            2 
  299000    1.1289669   -2.8773878    313.92277  0.087492411  0.092050826            6 
  300000    1.1398787   -2.8776687    315.60509  0.087668079  0.091994458            3 
  301000    1.1041002   -2.8951391    316.90244  0.087736002  0.091937974            2 
  302000    1.1311086   -2.8575048    318.19037  0.087800875  0.091884808            4 
  303000    1.1476499   -2.8798354    319.64149    0.0879102  0.091832662            2 
  304000    1.1601565   -2.8747622    318.99374  0.087443459  0.091781467            1 
  305000    1.1258952   -2.8852649    319.83071  0.087385439  0.091725624            2 
  306000    1.1486533    -2.883741    320.37422   0.08724788   0.09166967            5 
  307000    1.1175922   -2.8804306    320.89386  0.087104739  0.091612654            3 
  308000    1.1276798     -2.88432    323.33728  0.087483031  0.091557669            3 
  309000    1.1421347   -2.9011086     324.4775  0.087507417  0.091501909            3 
  310000     1.127113   -2.9118038     324.5252  0.087237957  0.091444821            1 
  311000    1.1389342   -2.8702001     325.8479  0.087311871   0.09139003            3 
  312000    1.1496295   -2.8815541     326.0967  0.087098479  0.091335914            2 
  313000     1.149868   -2.9029001    325.81739  0.086745843  0.091279715            2 
  314000    1.1295661   -2.8969173    329.65899  0.087489116  0.091226262            2 
  315000    1.1273623   -2.8869149    330.11823  0.087332866   0.09117339            1 
  316000    1.1116747   -2.9077997    329.51619  0.086897729  0.091121142            1 
  317000    1.1423018   -2.9140806    331.51575   0.08714925  0.091068364            1 
  318000    1.1334414   -2.9031063    333.96189   0.08751622  0.091016255            1 
  319000    1.1300321    -2.883477    333.94688  0.087237951  0.090966551            2 
  320000     1.140849   -2.9169504    333.26394  0.086787484  0.090918068            1 
  321000    1.1175684   -2.8762449    334.43884  0.086822128  0.090863449            2 
  322000    1.1431164   -2.8988866     336.3029  0.087034913  0.090809264            2 
  323000    1.1155346   -2.8925174    336.26264  0.086755068  0.090753626            1 
  324000     1.112467   -2.8695625    337.73026  0.086864778  0.090698381            1 
  325000    1.1094539   -2.9279548    336.82628  0.086365713  0.090645181            1 
  326000    1.1313565   -2.9024185    339.76678  0.086852449  0.090592995            1 
  327000    1.1257815   -2.9346757    340.38129  0.086743448  0.090541804            1 
  328000    1.1247172   -2.9119821    342.14893  0.086928081  0.090490983            2 
  329000    1.1169386    -2.916429    343.17536  0.086923851  0.090442946            2 
  330000    1.1241964   -2.8974146    344.60463  0.087021371  0.090395204            2 
  331000     1.132778   -2.8915633    344.10382  0.086632381  0.090347471            2 
  332000    1.1276295   -2.8984508    348.01652  0.087353543   0.09029973            1 
  333000    1.1271011   -2.9136652    346.05964  0.086601512  0.090253322            2 
  334000     1.128701   -2.8855613    347.20014  0.086626781  0.090209047            2 
  335000    1.1176718   -2.9276147    349.21943  0.086870504  0.090168177            3 
  336000    1.1421305   -2.8933708    352.49017  0.087423158  0.090126077            1 
  337000    1.1049531      -2.9174    351.41316  0.086897418  0.090087191            1 
  338000    1.1134533   -2.9081381    352.59291   0.08693119  0.090045976            2 
  339000     1.128796   -2.9078119    353.56582  0.086913917  0.090004457            2 
  340000    1.1491741   -2.9071502    355.14748   0.08704595  0.089960793            3 
  341000    1.1140159   -2.9248342    355.82741  0.086956844  0.089919095            1 
  342000    1.1119555   -2.9379276    355.27371  0.086567667  0.089874349            3 
  343000     1.107163   -2.8944186    357.22687  0.086789813  0.089827702            3 
  344000    1.1111746   -2.8928829    358.64206  0.086880344  0.089783771            3 
  345000    1.1083666   -2.8803367    359.04872  0.086726743  0.089740788            1 
  346000    1.1126252   -2.9470086    358.01529   0.08622719  0.089698018            2 
  347000    1.1151136   -2.9038924    362.01536  0.086939327  0.089658994            1 
  348000     1.119211   -2.9289441    362.37832  0.086776418  0.089621532            1 
  349000    1.1153166   -2.9141182    361.08194  0.086218227  0.089582981            2 
  350000    1.1246026    -2.886597    363.72907  0.086602158   0.08954537            2 
  351000    1.1122168   -2.8959391    365.77608  0.086841425  0.089507709            2 
  352000    1.1142528   -2.9270966    364.41411   0.08627228  0.089467323            1 
  353000    1.1078557    -2.890563    367.93254  0.086858485  0.089427659            1 
  354000    1.1470901   -2.9234555    367.01893  0.086398053  0.089389268            2 
  355000    1.1131197   -2.9102647    368.37641  0.086473335  0.089346078            1 
  356000    1.1261649   -2.9329502    369.16663   0.08641541  0.089303707            2 
  357000     1.080778   -2.9393393    368.78919  0.086085245  0.089261457            3 
  358000    1.1133008   -2.9419578    371.96704  0.086584507  0.089219608            1 
  359000    1.1063126    -2.916085    373.09996  0.086606305  0.089180569            2 
  360000    1.0880361   -2.9075659    371.95227  0.086100062  0.089142694            2 
  361000    1.1160343   -2.9001811    373.84194   0.08629777  0.089100458            3 
  362000    1.1151018   -2.9314184    375.09884   0.08634872   0.08905893            2 
  363000    1.1122035    -2.916969     374.9951   0.08608703  0.089020548            1 
  364000     1.132272   -2.9516019     377.4834  0.086420193  0.088983682            4 
  365000    1.1152882   -2.9158681    380.75156   0.08692958  0.088950258            1 
  366000    1.1181382   -2.9063141    379.01095  0.086295754  0.088914471            4 
  367000     1.117466   -2.9386364    380.76404  0.086458683  0.088880162            2 
  368000    1.1196118   -2.9319644    381.31044  0.086347474  0.088846001            3 
  369000    1.1386977   -2.9307931    381.97467  0.086263475  0.088809837            3 
  370000    1.1058215   -2.9004829    381.32274  0.085883499  0.088773396            2 
  371000    1.1069576   -2.9170497    384.14858  0.086286742  0.088736622            2 
  372000    1.1043089   -2.9704201    384.01784  0.086025501  0.088697919            3 
  373000    1.1005305   -2.9016818    385.05179   0.08602587   0.08865895            1 
  374000    1.1049035    -2.921411    386.22133  0.086056446  0.088619197            3 
  375000    1.1149662   -2.9268327    385.67941  0.085706535  0.088579538            3 
  376000     1.093324   -2.9008026    388.13951  0.086023827  0.088542884            3 
  377000    1.1113078   -2.9405787       388.04  0.085773652  0.088505724            7 
  378000    1.0987689   -2.9359551    389.06052  0.085771719  0.088470046            2 
  379000    1.0992069   -2.9262664    390.13174  0.085780946  0.088431874            2 
  380000    1.0839996   -2.9262232    390.78454  0.085698364  0.088390519            4 
  381000    1.0914063   -2.9210696    391.04573  0.085530562    0.0883491            3 
  382000      1.11985   -2.9270332    391.95166  0.085504289  0.088306046            2 
  383000    1.0778538   -2.9063708    395.09266   0.08596446  0.088262116            4 
  384000    1.0888048   -2.9447084    395.77841  0.085889412  0.088220164            2 
  385000    1.1062465   -2.9114472    395.74553  0.085659205   0.08817776            2 
  386000    1.0879904   -2.9418986    396.68777  0.085640711  0.088137782            2 
  387000    1.0912982   -2.9225974    396.81437  0.085446678  0.088097351            1 
  388000    1.0673058   -2.9577536    397.90462  0.085460614  0.088055674            4 
  389000    1.1131314   -2.8981943    399.25551  0.085530314  0.088012703            1 
  390000    1.0890901   -2.9208338    400.22754  0.085518705  0.087971897            2 
  391000    1.0888592   -2.9433198    399.62323  0.085171191  0.087929414            1 
  392000    1.0910358   -2.9255348    399.01193  0.084823965  0.087885544            2 
  393000    1.1194693   -2.9358204    400.88384  0.085005054  0.087841986            2 
  394000    1.0705604   -2.9153433    402.53733  0.085139029  0.087798137            1 
  395000    1.1219001   -2.9488906    403.05047  0.085031745  0.087752883            2 
  396000    1.1122228   -2.9308013    401.93417  0.084582106  0.087706952            1 
  397000    1.0863164   -2.9856127    404.07094  0.084817577  0.087658063            1 
  398000     1.125123   -2.8826601    405.88553  0.084984407  0.087610977            2 
  399000    1.0897985    -2.903608    407.57317  0.085123887   0.08756551            1 
  400000    1.0829958   -2.9287585    406.94829  0.084780894  0.087523005            1 
  401000    1.0804268   -2.9482326    407.44626  0.084672954  0.087479891            2 
  402000    1.0501879   -2.9515975     408.5658  0.084694403  0.087435039            2 
  403000    1.0810834    -2.936818     409.5514  0.084688048  0.087392972            1 
  404000    1.1039045   -2.9195783    411.89022  0.084960853  0.087349765            2 
  405000    1.1095659   -2.9416129    409.17481  0.084192348  0.087306148            2 
  406000    1.1093823   -2.9461881    413.18626  0.084808346  0.087265281            1 
  407000    1.1042409   -2.9461004    414.13516  0.084794259  0.087225033            1 
  408000    1.0775425   -2.9218631    414.85968  0.084734411  0.087185554            2 
  409000    1.0841017   -2.9545689    414.77289  0.084509553  0.087143219            3 
  410000    1.0809796   -2.9817883    415.30796  0.084412187   0.08710059            5 
  411000    1.0884857   -2.9565424    417.09513  0.084569166  0.087058611            1 
  412000    1.1016413   -2.9029113    419.18405  0.084786419  0.087016112            3 
  413000    1.0883023   -2.9471274    419.28357  0.084601204  0.086975725            1 
  414000    1.0935702   -2.9162768    419.77719  0.084496213  0.086935426            2 
  415000    1.1167145   -2.9119029    422.97318  0.084934373  0.086895598            2 
  416000    1.0742414   -2.9455191    421.90332  0.084515889  0.086855431            2 
  417000    1.0812651   -2.9373841     423.5172  0.084635732  0.086815701            1 
  418000     1.093096   -2.9723007    422.46852  0.084224186  0.086774162            1 
  419000    1.0930283   -2.9291563    423.80394   0.08428877  0.086734507            2 
  420000    1.0780897   -2.9292451    425.80896  0.084485905  0.086696034            2 
  421000    1.0663594   -2.9260901    425.56726  0.084237383  0.086655929            2 
  422000    1.0568515   -2.9636089    424.90285  0.083906566  0.086616118            4 
  423000    1.0718646    -2.930761    428.07156  0.084332459  0.086577542            2 
  424000    1.0834572   -2.9581146    427.50182  0.084021584  0.086538616            2 
  425000    1.1083096   -2.9281389    430.52783  0.084417222  0.086500988            2 
  426000     1.073174   -2.9591634    432.47835  0.084600617  0.086465651            1 
  427000    1.0815458   -2.9574779     430.8192  0.084078688  0.086427006            4 
  428000    1.0655224   -2.9324291    432.56767  0.084222678  0.086389311            4 
  429000    1.1178914   -2.9332476    434.47052  0.084395983  0.086350819            2 
  430000    1.0896486   -2.9504249    434.19311  0.084145951  0.086313533            1 
  431000     1.099387   -2.9778181    437.47983    0.0845862  0.086275719            1 
  432000    1.0963032   -2.9675759    435.32809  0.083975326   0.08623713            1 
  433000     1.095518   -2.9426875    437.35837  0.084172126  0.086198054            4 
  434000    1.0823494   -2.9385978    437.98975  0.084099415  0.086157389            3 
  435000    1.0733174   -3.0055605    438.82347  0.084065799  0.086119139            2 
  436000    1.0847478   -2.9543338    439.75972  0.084051934  0.086081212            1 
  437000    1.0912288   -2.9560137    439.83336  0.083873639  0.086044025            1 
  438000    1.1074357   -2.9452669    440.62248  0.083832283  0.086005611            3 
  439000    1.0516519   -2.9465104    440.81316  0.083677518  0.085967932            1 
  440000    1.0518022   -2.9737679    442.96486  0.083894859    0.0859314            1 
  441000    1.0829579   -2.9502608    444.14341  0.083927327   0.08589424            2 
  442000    1.0584316   -2.9391688    446.46345  0.084174858  0.085856376            3 
  443000    1.0823001   -2.9537149     443.9714  0.083516065  0.085818706            2 
  444000    1.0808411   -2.9697927    446.80812  0.083860383  0.085782312            2 
  445000    1.0656329   -2.9556467    448.70751  0.084027624  0.085746525            2 
  446000    1.1048257   -2.9646922    449.19037  0.083929442  0.085712308            2 
  447000    1.1125167   -2.9354082    449.43791  0.083787829  0.085676867            1 
  448000    1.0820393   -2.9624069     447.9675  0.083327287    0.0856419            2 
  449000    1.0748557   -2.9366599     450.0496  0.083528137  0.085604779            1 
  450000    1.0735584   -2.9718024    450.44152  0.083415097  0.085564482            5 
  451000    1.1028305   -2.9785465    451.33492  0.083395218  0.085526135            2 
  452000    1.0857885   -2.9379084    453.64843  0.083637248  0.085486989            3 
  453000    1.0588554   -2.9768377    454.05242  0.083526936  0.085448951            2 
  454000    1.0734494   -2.9629888    454.71568    0.0834647  0.085412361            1 
  455000    1.0868528   -2.9679963    454.29138  0.083203548  0.085375339            2 
  456000    1.0813376   -2.9669702    457.95935  0.083691401  0.085336552            2 
  457000     1.098601   -2.9628687    457.57746  0.083438632  0.085297284            4 
  458000    1.0844663   -2.9740411    455.63692  0.082903369  0.085258106            2 
  459000    1.0558572   -2.9663698    456.67742  0.082911659  0.085217994            2 
  460000    1.0637707   -2.9764748    461.22991  0.083556144   0.08517939            2 
  461000    1.0610482   -2.9693753    460.16029  0.083181543  0.085142281            4 
  462000    1.0781263   -2.9523951    461.22514  0.083193569  0.085102669            1 
  463000    1.0637225   -2.9555171     460.2267  0.082834179  0.085063053            1 
  464000    1.0624562   -2.9722621    461.32099   0.08285219  0.085023948            2 
  465000    1.0762992   -2.9259259    463.13795  0.082999633  0.084982041            2 
  466000    1.0611012   -2.9401371    464.97659   0.08315032  0.084941801            2 
  467000    1.0536167   -2.9435513    465.38228   0.08304466  0.084902252            2 
  468000    1.0559561   -2.9791341    463.10179  0.082461144  0.084860786            4 
  469000    1.0664478   -2.9511896    465.98575  0.082797752  0.084817495            1 
  470000    1.0598519   -2.9477806    465.68799  0.082568793  0.084774736            4 
  471000    1.0646141   -2.9538225    465.94501  0.082438962   0.08473189            2 
  472000    1.0759312   -2.9660693    468.13454  0.082650872  0.084689149            2 
  473000    1.0602916   -2.9866656    470.05983  0.082815333  0.084649953            2 
  474000    1.0753542   -2.9712148    468.20703  0.082314878  0.084607773            1 
  475000    1.0422944   -2.9357451    470.72017  0.082582486  0.084565963            4 
  476000    1.0963692   -2.9345478    471.78515  0.082595439  0.084525474            1 
  477000     1.057818   -2.9935541    471.34291  0.082345022  0.084484638            2 
  478000    1.0523373   -2.9534848    474.64363  0.082748192  0.084444335            2 
  479000     1.039638   -2.9834207    473.43744  0.082365595  0.084404997            2 
  480000    1.0680731   -2.9664461     475.8879  0.082619426  0.084366206            1 
  481000    1.0527887   -2.9744777    474.03759  0.082127094  0.084327595            2 
  482000     1.054613   -2.9812666     477.2865  0.082518413  0.084289314            3 
  483000    1.0380021   -2.9810047    479.25457  0.082687123  0.084251602            1 
  484000    1.0551916   -3.0124202    477.26707  0.082174082  0.084211095            1 
  485000    1.0621561   -2.9618482     480.5238  0.082564227  0.084170716            4 
  486000    1.0620366   -2.9632665     479.5164  0.082221604  0.084131126            1 
  487000    1.0718524   -2.9936476    477.49549  0.081706963  0.084091754            1 
  488000    1.0553032   -2.9868311    481.28616  0.082186844  0.084049903            1 
  489000    1.0455028   -2.9710642    481.89411  0.082122378  0.084009582            2 
  490000    1.0633167   -2.9547464    482.06981  0.081984662  0.083970399            3 
  491000    1.0540758   -2.9762822    481.70692  0.081756096   0.08392859            3 
  492000    1.0548957   -3.0112588    483.31279  0.081861922  0.083889192            3 
  493000    1.0519343   -3.0037259    483.61775  0.081747422  0.083847646            2 
  494000    1.0864714   -2.9911307    486.43074  0.082056468  0.083807433            1 
  495000    1.0640941   -2.9548769    487.17748  0.082016411  0.083767449            4 
  496000    1.0796049   -2.9975782    488.72921  0.082111762  0.083728499            6 
  497000    1.0684545   -2.9873649    486.69701  0.081605804  0.083689784            1 
  498000    1.0708553   -2.9814965    489.56784   0.08192233  0.083650678            1 
  499000     1.049862   -2.9948693    491.07832  0.082010407   0.08361376            2 
  500000    1.0600199   -2.9762468    492.08219  0.082013698  0.083576348            2 
  501000    1.0823751   -2.9628305    493.66317  0.082112969  0.083539889            2 
  502000    1.0520331   -2.9962669    494.30373  0.082055732  0.083504013            5 
  503000    1.0261108   -2.9966853    494.43568  0.081914459  0.083468442            1 
  504000    1.0543989   -2.9733898    494.69696  0.081795131  0.083431845            1 
  505000    1.0359763   -2.9896729    495.69228  0.081797406  0.083395862            3 
  506000    1.0755481   -2.9791623    496.17035  0.081714485  0.083359135            2 
  507000     1.048442   -2.9807845    497.38569  0.081753072  0.083322391            1 
  508000    1.0398651   -2.9885643    498.71809   0.08181071  0.083286255            2 
  509000    1.0417734   -2.9838867    499.33001  0.081750165  0.083246961            2 
  510000    1.0567224   -2.9580046    499.42758  0.081605814  0.083209752            3 
  511000    1.0586931   -2.9865045    500.60225  0.081637679   0.08317199            3 
  512000    1.0505173   -2.9729371     501.3329  0.081597151  0.083132533            2 
  513000    1.0589672   -2.9905556    499.66994  0.081167956  0.083094401            5 
  514000    1.0313347   -3.0071663     501.5081  0.081308057  0.083054691            2 
  515000    1.0430167    -3.008935     501.5138    0.0811511   0.08301435            2 
  516000    1.0409028   -2.9821244    504.01343  0.081397518  0.082974135            1 
  517000    1.0528783   -2.9737401    503.24074  0.081115528  0.082934474            4 
  518000    1.0467641   -2.9776228    503.28774  0.080966496  0.082894215            2 
  519000    1.0573546   -2.9857343    503.80598  0.080893702   0.08285402            2 
  520000    1.0240247   -2.9887753    504.25587  0.080810236  0.082812714            4 
  521000    1.0531884    -2.981774    504.50699  0.080695296  0.082771199            3 
  522000    1.0433728   -2.9947727    504.39988  0.080523608  0.082729779            1 
  523000    1.0394423   -2.9995054    507.46698  0.080858346  0.082686725            2 
  524000    1.0442119   -3.0035689    508.70281  0.080900574   0.08264613            1 
  525000    1.0697299    -3.002085    507.12482  0.080496002   0.08260398            2 
  526000    1.0372519   -3.0060701    509.19659  0.080671196  0.082561669            3 
  527000    1.0479696    -3.019174    508.02296  0.080332537  0.082519305            3 
  528000    1.0474289   -2.9784911    508.96378   0.08032888  0.082476885            2 
  529000    1.0357544   -2.9880244    512.22522  0.080690803  0.082435009            4 
  530000    1.0559954   -2.9938163    512.32988  0.080555013  0.082392033            4 
  531000     1.032574   -2.9971948    513.92832  0.080654163  0.082349893            3 
  532000    1.0172842   -2.9869094    514.40206  0.080576763    0.0823079            3 
  533000    1.0334457    -3.018975     515.8916  0.080658474  0.082267405            1 
  534000    1.0282974   -2.9751444    517.01067  0.080682065  0.082228306            2 
  535000    1.0508858    -2.967957    515.72061  0.080330313  0.082187201            2 
  536000    1.0442654   -3.0213934      518.147  0.080557681  0.082148252            1 
  537000    1.0540498    -3.018175    519.40328  0.080602619  0.082108898            2 
  538000    1.0320486   -3.0309626    518.43449   0.08030274  0.082068228            2 
  539000    1.0550542   -3.0292186    519.05259  0.080249319  0.082029391            2 
  540000    1.0530188   -3.0032793    522.60319  0.080648641  0.081989829            3 
  541000    1.0478485   -2.9679045    523.50107  0.080637872  0.081951545            1 
  542000    1.0298936   -3.0141132    523.83936  0.080541106  0.081913878            3 
  543000    1.0332105   -2.9941933    525.26712  0.080611897  0.081877814            2 
  544000    1.0517795   -2.9907879    526.66117  0.080677263  0.081843594            4 
  545000    1.0275509   -3.0224137    527.14727  0.080603557  0.081809518            4 
  546000    1.0157892    -3.021876    523.71793  0.079932529  0.081775064            2 
  547000    1.0382762   -2.9801549    530.03865  0.080749338  0.081740304            2 
  548000    1.0441282   -3.0092459    528.28452  0.080335237  0.081705678            1 
  549000    1.0260323   -3.0007086     531.1943  0.080630585  0.081671466            3 
  550000     1.048936   -3.0100998    531.53666  0.080535857  0.081636982            3 
  551000    1.0562471   -3.0074171    534.28557   0.08080544  0.081602681            3 
  552000    1.0244077   -2.9885266    533.91628  0.080603303  0.081568023            3 
  553000    1.0459712   -2.9845546    534.07029  0.080480755  0.081532296            4 
  554000    1.0391654   -2.9998866    533.57315  0.080260702  0.081496599            1 
  555000    1.0194854   -2.9995188    533.70254  0.080135516  0.081460949            2 
  556000    1.0489414   -3.0313838    532.51706  0.079813708  0.081425661            2 
  557000    1.0497487   -3.0165557    537.04731   0.08034819  0.081391956            2 
  558000    1.0308732   -3.0116722    538.52244  0.080424498   0.08135861            3 
  559000    1.0277952    -3.008516    540.58667  0.080588353  0.081325434            1 
  560000    1.0468205   -3.0153719     540.0109  0.080358765  0.081292985            1 
  561000    1.0456518   -2.9866822    541.71862  0.080469195   0.08126084            3 
  562000    1.0301336     -3.01923    540.31199  0.080117437  0.081228671            3 
  563000    1.0593793   -3.0032517    544.54048  0.080601018   0.08119606            3 
  564000    1.0047759    -2.991091    544.23233  0.080412578  0.081164153            2 
  565000    1.0361278   -3.0396672    544.01519  0.080238229  0.081133681            2 
  566000    1.0305948   -3.0206644    544.81288  0.080213911   0.08110071            2 
  567000    1.0363398    -2.998817    544.62386  0.080044659  0.081069115            1 
  568000    1.0194939   -3.0440093     545.9316  0.080095599  0.081038645            1 
  569000    1.0108274   -2.9933143     547.9294  0.080247423  0.081008407            2 
  570000    1.0593387   -3.0214951    546.57848  0.079909135  0.080977336            2 
  571000    1.0502474   -3.0084046    547.49252  0.079902585  0.080944422            2 
  572000    1.0301854   -3.0268397    546.45634  0.079611938  0.080910618            1 
  573000    1.0291348   -3.0524509    546.11025  0.079422665  0.080876012            2 
  574000    1.0282309   -3.0300982    548.62553  0.079649468  0.080840353            1 
  575000      1.01755   -3.0205053    548.36555  0.079473269  0.080804121            2 
  576000    1.0386286   -2.9892547    549.27583  0.079466989  0.080766336            6 
  577000    1.0331791   -3.0196918     547.2169  0.079031904   0.08072881            1 
  578000    1.0258525   -3.0039758    552.13092  0.079603651  0.080691936            3 
  579000    1.0286811    -3.018688     551.1619  0.079326698  0.080654997            3 
  580000    1.0285672   -3.0031834    554.32612  0.079644558  0.080618226            2 
  581000    1.0295919   -2.9995885    553.40507  0.079375369  0.080580724            2 
  582000    1.0342386   -3.0478222    551.06821  0.078904383  0.080542288            3 
  583000    1.0278212   -3.0350591    554.82456   0.07930597  0.080505291            1 
  584000    1.0100222   -3.0168581    555.80526  0.079310111  0.080468339            1 
  585000    1.0434693   -3.0659916    553.68183  0.078872056  0.080431463            3 
  586000    1.0037308   -3.0154605    554.18847  0.078809509  0.080394269            3 
  587000    1.0273682   -3.0506664      558.389  0.079271579  0.080357658            2 
  588000    1.0348786    -3.024597    556.47396  0.078865358  0.080320451            3 
  589000     1.006624   -3.0287972    557.74487  0.078911271  0.080282521            2 
  590000    1.0381842   -3.0343463    557.32818  0.078718669   0.08024404            4 
  591000    1.0250579   -3.0264228    559.67589   0.07891651  0.080205339            2 
  592000    1.0293577   -2.9801811    560.77079   0.07893733  0.080167095            3 
  593000    1.0193424   -3.0072934    558.97922  0.078552448  0.080129469            1 
  594000    1.0089218    -3.030213    560.90333  0.078690142  0.080092451            3 
  595000    1.0266535   -3.0310083    562.27146  0.078749504  0.080055521            1 
  596000    1.0002544   -3.0458617     560.1089  0.078315002  0.080016357            3 
  597000    1.0069014    -3.040506    559.99009  0.078167237  0.079976669            2 
  598000    1.0153434   -3.0544792     561.9625  0.078311385  0.079939034            3 
  599000    1.0049038   -3.0379485     565.6473  0.078693281  0.079900219            4 
  600000    1.0017004   -3.0377001    563.48981  0.078262473  0.079860692            3 
  601000    1.0050905   -3.0573952    563.78401  0.078173047  0.079821822            1 
  602000    1.0386972   -3.0654681    564.48912  0.078140798  0.079782912            3 
  603000     1.022682   -3.0271532    564.76315  0.078049081  0.079743414            3 
  604000    1.0090194    -3.031211    566.84512  0.078207108  0.079703846            2 
  605000   0.99218054   -3.0216606    564.92123  0.077812842  0.079664577            2 
  606000     1.034101   -3.0150478    566.01458  0.077834788  0.079624465            3 
  607000    1.0210169   -3.0344194    567.08384  0.077853355  0.079582941            1 
  608000   0.99701049   -3.0526842    568.17292  0.077874578  0.079542834            2 
  609000    1.0116843   -3.0176097    568.41852  0.077780312  0.079502098            2 
  610000     1.000511   -3.0419914    570.21865  0.077898723  0.079460837            4 
  611000    1.0140495   -3.0407648    572.11369   0.07802969  0.079419992            2 
  612000    1.0185192    -3.029136    570.22013  0.077644353  0.079378614            2 
  613000    1.0188136   -3.0441003    571.59811  0.077705017  0.079335718            1 
  614000   0.99859733   -3.0184478    571.36449  0.077546755  0.079293012            4 
  615000   0.99306778   -3.0437321    571.29838  0.077411705  0.079250123            5 
  616000    1.0024685   -3.0467179    569.17576  0.076998886  0.079207581            3 
  617000    1.0006166   -3.0354596    575.46701    0.0777238  0.079166487            2 
  618000     1.001224   -3.0091605    574.66879  0.077490398   0.07912638            3 
  619000    1.0044863   -3.0631743    576.01366  0.077546265  0.079087255            2 
  620000    1.0051477   -3.0514776    576.93108  0.077544499  0.079047656            3 
  621000    1.0080308   -3.0109212    579.09414  0.077709895  0.079007734            3 
  622000    1.0204253   -3.0317898    578.19068  0.077463918  0.078967712            4 
  623000    1.0189049   -3.0843098     577.8077   0.07728835  0.078928162            2 
  624000   0.99957253    -3.070939    579.66902  0.077413064  0.078888365            4 
  625000    1.0076883   -3.0296513    580.59047  0.077412063  0.078848282            3 
  626000    1.0191018   -3.0345003    581.60768  0.077423813  0.078809666            3 
  627000    1.0266398   -3.0640992    583.18398  0.077509832  0.078770834            3 
  628000    1.0137762   -3.0390088    580.01706  0.076966171  0.078731364            8 
  629000   0.99215549   -3.0392305     583.0654  0.077247668  0.078692017            4 
  630000    1.0068522   -3.0436555    583.52337  0.077185631  0.078652818            6 
  631000    1.0046584   -3.0601079    583.99913  0.077126139  0.078613668            3 
  632000   0.99688026   -3.0720182    586.02901  0.077271758  0.078574464            2 
  633000   0.99583342    -3.068195    585.60242  0.077093526  0.078536941            4 
  634000   0.99529495   -3.0419115    586.96048  0.077150431  0.078498146            2 
  635000   0.98977816   -3.0276217    585.14863  0.076791159  0.078457421            1 
  636000    1.0084928   -3.0550159    587.73097  0.077008775  0.078417025            3 
  637000    1.0021139   -3.0488333    587.31985  0.076834098  0.078376398            2 
  638000    1.0168336   -3.0441118    589.44033  0.076990638   0.07833634            2 
  639000   0.99979124   -3.0629514    588.42453   0.07673768  0.078296279            2 
  640000    1.0001303   -3.0455885     588.3892  0.076613177  0.078256602            2 
  641000    1.0013372    -3.044836    592.19247    0.0769881  0.078217979            2 
  642000   0.98648409   -3.0576779    592.41016  0.076896439  0.078179341            2 
  643000   0.99162136   -3.0820451    592.34008  0.076767766  0.078140772            2 
  644000   0.99977458   -3.0486977    593.03933  0.076739044  0.078101984            3 
  645000   0.99250543   -3.0511524    594.97576  0.076870254  0.078064445            4 
  646000   0.97349786   -3.0478713    597.84186  0.077120983  0.078027126            3 
  647000    1.0045633   -3.0439613    595.88419  0.076749637  0.077990076            3 
  648000   0.99032962   -3.0821377    596.87834  0.076759045  0.077952776            4 
  649000   0.96927486   -3.0855141    597.83103  0.076763101  0.077916172            2 
  650000   0.96676211   -3.0606328    597.15416  0.076558226  0.077878332            3 
  651000    1.0006716   -3.0593798    598.87058   0.07666034  0.077840539            5 
  652000   0.99619841   -3.0708895     598.1794  0.076454422  0.077802603            2 
  653000    1.0074465   -3.0294046    603.45492  0.077010582  0.077765787            1 
  654000   0.98169327   -3.0703639    602.48986   0.07676986  0.077729822            2 
  655000    1.0033632   -3.0502069    601.48691  0.076525053  0.077692731            4 
  656000   0.99892245   -3.0690089    604.95122  0.076848478  0.077656045            3 
  657000    1.0064275   -3.0590376    602.93772  0.076476118  0.077619129            2 
  658000   0.98734424   -3.0744924    604.20044  0.076519812  0.077583009            2 
  659000   0.98259793   -3.0658126    605.40042   0.07655544  0.077545689            3 
  660000   0.97772083   -3.0845209    603.09685  0.076148593  0.077508825            1 
  661000   0.96229966   -3.0202903    609.44926  0.076834249  0.077472843            6 
  662000   0.99226362   -3.0922415    605.05526  0.076165062  0.077436435            3 
  663000    0.9786035   -3.0540922    608.16891  0.076441543  0.077399535            4 
  664000   0.98598609   -3.0670747    609.31459  0.076470204  0.077363562            1 
  665000   0.96200667   -3.0716628    609.72446  0.076406574  0.077326725            5 
  666000    0.9990767   -3.0689745    607.36889  0.075997108  0.077290085           11 
  667000   0.99051866   -3.0706469     609.0894  0.076098126  0.077253383            1 
  668000    1.0009191   -3.0765826    608.31865  0.075888055  0.077216873            3 
  669000    1.0044798   -3.0478716    610.86349  0.076091616  0.077179237            1 
  670000     1.000079   -3.0748123    614.45043  0.076424183  0.077143623            2 
  671000   0.99722738   -3.0878366    613.93384  0.076246131  0.077107953            2 
  672000   0.99328953   -3.0697597    613.53278  0.076082934  0.077072827            2 
  673000   0.96343991   -3.0735642     614.5598  0.076097053  0.077036837            1 
  674000   0.98677716   -3.0617405    613.57044  0.075861825  0.077000538            2 
  675000   0.98190412   -3.0492476    616.66103  0.076130992  0.076963472            5 
  676000   0.97390061   -3.0699511    613.58956  0.075639739  0.076926175            2 
  677000   0.98347744   -3.0780152    614.44315  0.075633081  0.076888943            2 
  678000    1.0079428   -3.0716878    614.72137  0.075555724  0.076850877            2 
  679000    0.9744637   -3.0577535    617.66741  0.075806015  0.076812947            2 
  680000   0.98059055   -3.0767883    614.70934  0.075332026  0.076774888            2 
  681000   0.98528648   -3.0762905    618.91552  0.075736114   0.07673837            2 
  682000   0.98933099   -3.0917753    620.20891  0.075783102   0.07670184            3 
  683000   0.98772404   -3.0605533    620.41793  0.075697648  0.076665872            3 
  684000    1.0015187   -3.0691965    620.39535  0.075584229  0.076629973            2 
  685000   0.97684615    -3.110086    621.54108   0.07561327  0.076593693            3 
  686000   0.99114276   -3.0644978    624.08326  0.075811864  0.076557361            2 
  687000   0.99850442   -3.0895445    624.07128  0.075700059  0.076521298            5 
  688000   0.97897728   -3.0784383    623.58812  0.075531507  0.076485215            4 
  689000   0.98647868   -3.0922562    622.28345  0.075264084  0.076449155            6 
  690000   0.99379811   -3.0798116    626.45677   0.07565903  0.076413094            2 
  691000   0.96746816   -3.0709023    626.86133  0.075598327  0.076376649            1 
  692000   0.95961197    -3.084465    625.02742  0.075268235  0.076340228            5 
  693000   0.98543427   -3.1026289    623.57713  0.074985225  0.076303551            5 
  694000   0.98951434    -3.106249    625.46631  0.075104024  0.076266508            1 
  695000    0.9828362   -3.0922964    627.57327  0.075248594  0.076229558            1 
  696000   0.98264966   -3.1017091    627.81336  0.075169224  0.076192485            2 
  697000    0.9954327   -3.0704448    628.94769  0.075196998  0.076156302            3 
  698000   0.96901358   -3.0817585    630.59401  0.075285818  0.076120155            4 
  699000   0.97154241   -3.0927031    633.13943  0.075481573  0.076084928            2 
  700000   0.98094685   -3.0790065    632.72124  0.075323958  0.076049887            5 
  701000   0.99152336   -3.0901479    634.03892  0.075373148  0.076016871            2 
  702000   0.97674818   -3.0855866    633.09619  0.075153869   0.07598303            3 
  703000   0.97511381   -3.0954824    634.69323  0.075236277  0.075949219            5 
  704000   0.98261058    -3.096854    636.83348   0.07538275  0.075915293            3 
  705000   0.98478237    -3.081366    638.34875  0.075454935  0.075881572            2 
  706000   0.99053117    -3.077729    638.00733  0.075307759  0.075848228            2 
  707000   0.95883493   -3.0816819    635.96215  0.074960178  0.075815416            3 
  708000   0.97055306   -3.1082719    640.01194  0.075330972  0.075782481            2 
  709000   0.95265285   -3.0745439    641.01891  0.075343078  0.075749565            2 
  710000   0.98516387   -3.0737012    641.40397  0.075282157  0.075716528            5 
  711000   0.98609369   -3.0695248    642.34368  0.075286413  0.075683572            3 
  712000   0.97336749   -3.0781556    642.99631  0.075257059   0.07565022            1 
  713000   0.96787409   -3.0857987    642.13639  0.075051004  0.075617616            5 
  714000   0.94856963   -3.0740501    642.41438  0.074978335  0.075584982            3 
  715000   0.96971749   -3.0560135    645.36684   0.07521758  0.075552277            1 
  716000   0.94594853   -3.0659799    645.55791  0.075134766  0.075518746            1 
  717000   0.96530903   -3.0781278    644.87673  0.074950805  0.075486451            2 
  718000   0.97942727   -3.1062379    645.96313  0.074972508  0.075453706            2 
  719000   0.95140176   -3.1087608    647.87998    0.0750904  0.075420639            3 
  720000   0.97470892   -3.1012081    647.18338  0.074905484  0.075388262            7 
  721000   0.96041315   -3.0793775    652.98753  0.075472437  0.075356233            5 
  722000   0.93835812   -3.1082801    648.99648  0.074907258  0.075324903            3 
  723000   0.96496509   -3.1043497    648.85022  0.074786793  0.075293332            3 
  724000   0.99324708   -3.1042731    648.94578  0.074694496  0.075261519            2 
  725000   0.93742237   -3.1021658    649.26578   0.07462825  0.075230035            3 
  726000   0.95027157   -3.0892298    652.33656  0.074877933  0.075198708            2 
  727000   0.96456086   -3.0853912    650.69606  0.074586894  0.075167475            3 
  728000   0.96744515   -3.0873898    654.51673  0.074921787   0.07513609            3 
  729000   0.97367094   -3.1051714    656.92112  0.075093863  0.075105112            4 
  730000   0.97494982   -3.1271746    655.11249   0.07478453  0.075073621            2 
  731000   0.95575785   -3.1100372    657.14535  0.074913971  0.075043743            6 
  732000   0.93871282   -3.1096102    658.69126   0.07498762  0.075013051            2 
  733000   0.98213135    -3.085438    658.41171  0.074853537  0.074982606            3 
  734000   0.97560899   -3.1199788    658.79804  0.074795418  0.074952645            1 
  735000   0.95882835   -3.1446763    657.27252  0.074520693  0.074920976            5 
  736000    0.9608647    -3.120717    660.69439  0.074806883  0.074890405            5 
  737000   0.94574763   -3.1254452    656.79688  0.074264686  0.074859854            2 
  738000   0.96057814   -3.1081863    662.90843  0.074854159  0.074828749            5 
  739000   0.95079999   -3.1054578    663.78028  0.074851182  0.074798052            4 
  740000   0.95658437   -3.1119383    661.94104   0.07454291  0.074768571            4 
  741000   0.95892017   -3.1083225     663.8878  0.074661246  0.074739193            1 
  742000    0.9593284   -3.1142859    664.09874  0.074584314  0.074708463            2 
  743000   0.97230617   -3.0794417    665.73625  0.074667592  0.074677847            2 
  744000   0.95665368   -3.1408161    664.29275   0.07440555  0.074648326            2 
  745000   0.94721329   -3.1035716     664.5172  0.074330783  0.074618085            3 
  746000   0.95665372   -3.1177225    665.97858   0.07439439  0.074588455           11 
  747000   0.96356469   -3.1064992    668.11798  0.074533465  0.074558531            4 
  748000   0.95597272   -3.0876308    668.83012   0.07451316  0.074529829            2 
  749000   0.94355302   -3.1016441    667.80658  0.074299798  0.074500554            2 
  750000   0.94585373   -3.1322424       670.54  0.074504445   0.07447155            2 
  751000   0.95477576   -3.1328397    668.25028  0.074151163  0.074442531            2 
  752000   0.95567553   -3.1009521    674.05593  0.074695914  0.074413229            2 
  753000   0.96357645   -3.1198547    670.64596  0.074219341  0.074383895            3 
  754000   0.94997408   -3.1111287    671.34119  0.074197744   0.07435494            1 
  755000   0.94228365   -3.1047056    674.00005  0.074392942  0.074326088            3 
  756000   0.96389342   -3.1158156    674.76837   0.07437923  0.074296831            3 
  757000   0.94694887   -3.1077699    675.10637  0.074318183   0.07426762            3 
  758000   0.94366217   -3.1152647    675.75383  0.074291318  0.074237698            3 
  759000   0.96512232   -3.1242731    673.78206   0.07397695  0.074208623            6 
  760000   0.94179406   -3.1295687    675.95446  0.074117814  0.074179026            2 
  761000   0.95351424    -3.125181    678.79693  0.074331683   0.07414963            3 
  762000    0.9480231   -3.1056907    675.12139  0.073832173  0.074121451            2 
  763000   0.92976957   -3.1231303    680.32248   0.07430346  0.074092615            2 
  764000   0.95504869   -3.1162335    680.69079  0.074246378  0.074063187            4 
  765000   0.95027539   -3.1441937     677.9529  0.073851078  0.074034655            3 
  766000   0.93144232   -3.1413625    676.57287  0.073604533  0.074004923            3 
  767000   0.93278599    -3.133603    678.05127  0.073669195  0.073974757            3 
  768000   0.95200338   -3.1275409    678.04921  0.073573048  0.073944717            2 
  769000   0.94418251   -3.1088217     686.7888  0.074424447  0.073915784            4 
  770000   0.95145755   -3.1123358    682.32352  0.073844537    0.0738878            3 
  771000   0.93585183   -3.1066104    683.82039  0.073910548  0.073859028            3 
  772000   0.97325675   -3.1332879    685.28799  0.073973229  0.073830497            2 
  773000    0.9535553   -3.1027615    684.52187  0.073794941  0.073800923            1 
  774000   0.95235752   -3.0939253    685.55585  0.073810922  0.073771192            2 
  775000   0.95190227   -3.1105444    685.68296  0.073729351  0.073742093            3 
  776000   0.93398274   -3.1021588    686.25551  0.073695824  0.073712735            1 
  777000   0.94412746   -3.1415059    683.07132  0.073259472  0.073682278            2 
  778000   0.94027755   -3.1371189    684.10552  0.073276084  0.073652338            2 
  779000   0.94542525   -3.1237259    683.92852  0.073163085  0.073621436            4 
  780000   0.96205655    -3.103624    684.51522  0.073131968  0.073590577            3 
  781000   0.95423421   -3.1376281    687.22716  0.073327695  0.073559304            1 
  782000   0.92635111   -3.1264156     687.1156  0.073222037  0.073528142            3 
  783000   0.96678619    -3.137868    685.29856  0.072935138  0.073496264            4 
  784000   0.92962337   -3.1459457    688.05219  0.073134799   0.07346432            5 
  785000   0.94411238   -3.1141414    687.33995  0.072966024  0.073431957            2 
  786000   0.95278952   -3.1339354    689.93354   0.07314817  0.073400431            3 
  787000    0.9365669   -3.1452704     688.7383  0.072928663  0.073368544            2 
  788000   0.92604097    -3.154632    692.90318  0.073276563  0.073337206            1 
  789000   0.96677201   -3.1295741    688.93284  0.072764347  0.073304749            5 
  790000   0.92879584   -3.1593408    688.80899  0.072659176  0.073272762            2 
  791000   0.93574254   -3.1432061    689.96769   0.07268939   0.07324064            4 
  792000   0.93816089   -3.1526929    695.71174  0.073201992  0.073209016            3 
  793000    0.9521119   -3.1412819    691.65049  0.072682901  0.073177434            3 
  794000   0.93019125   -3.1260509    695.26805  0.072971038  0.073145273            3 
  795000   0.96659169   -3.1460049     690.9035  0.072421751  0.073112505            2 
  796000   0.93485446   -3.1564761     691.7491  0.072419294   0.07308066            2 
  797000   0.95642181   -3.1296892    694.88981  0.072656819  0.073048267            7 
  798000     0.935089   -3.1473032    694.43878   0.07251867  0.073016248            3 
  799000   0.92019823   -3.1443135    699.96661  0.073004444  0.072984402            2 
  800000   0.92813411   -3.1412825    696.62977  0.072565601   0.07295208            4 
  801000   0.94932073   -3.1156787    699.97556  0.072823092   0.07292081            4 
  802000   0.93913398   -3.1591894    695.65807  0.072283674  0.072889528            4 
  803000     0.916724   -3.1265293    697.43652  0.072378219  0.072857235            1 
  804000   0.93470412   -3.1430688    697.82033  0.072327978  0.072825433            1 
  805000   0.96328323   -3.1491148    697.73844  0.072229652  0.072793075            1 
  806000   0.92385265   -3.1371424    699.23794  0.072295073  0.072760994            2 
  807000   0.93209849    -3.160856    698.70473  0.072150427  0.072728001            2 
  808000   0.94180463   -3.1515571     698.0159  0.071990089   0.07269451            3 
  809000   0.92082511   -3.1698551    700.41943  0.072148684  0.072660884            4 
  810000   0.93433088   -3.1516835    700.15085  0.072031981   0.07262721            2 
  811000   0.94228002   -3.1460311    699.85486  0.071912748  0.072593724            3 
  812000   0.93223144   -3.1405149    702.35771  0.072081046  0.072560181            4 
  813000   0.92934361   -3.1665927    698.64998  0.071612339  0.072526554            6 
  814000   0.96537375   -3.1393773    701.07441  0.071772564  0.072493684            3 
  815000   0.93980604   -3.1484911    702.89659  0.071870817   0.07245994            5 
  816000   0.92697206   -3.1242999    702.15776  0.071707287  0.072425861            1 
  817000   0.92659185   -3.1460167    703.03599  0.071709098  0.072392026            5 
  818000   0.94935197    -3.135187    707.27231  0.072053006  0.072358397            5 
  819000   0.91888103   -3.1616895    703.04654  0.071535057  0.072325189            4 
  820000   0.91471642   -3.1752161    704.96934  0.071643226  0.072291919            6 
  821000   0.95268243   -3.1474482    707.47998  0.071810798  0.072259435            4 
  822000   0.92584713   -3.1742369    709.43937  0.071922077  0.072226943            3 
  823000   0.93743435   -3.1742836    706.55518  0.071542647  0.072193996            2 
  824000   0.93614109   -3.1713988    710.04485  0.071808742   0.07216089            2 
  825000   0.93045726    -3.149605    709.48106  0.071664754  0.072128063            4 
  826000    0.9220258   -3.1705164    712.42825  0.071875328  0.072095823            2 
  827000   0.92615564   -3.1639248    712.73658  0.071819486  0.072063489            2 
  828000   0.91730038   -3.1466607    712.46761  0.071705677  0.072030407            2 
  829000   0.91968715   -3.1686387    710.20544  0.071391781  0.071997662            2 
  830000   0.91593471   -3.1309111    712.87876  0.071574172  0.071965621            2 
  831000   0.93289794   -3.1514991    713.81822  0.071582253  0.071933629            7 
  832000   0.92232459   -3.1751972     711.1063   0.07122459  0.071901465            7 
  833000   0.94115663   -3.1552592    712.03856  0.071232348  0.071868924            5 
  834000   0.91556599   -3.1349928    714.32147  0.071375047  0.071836439            7 
  835000   0.92607824   -3.1663763     715.0336  0.071360638   0.07180418            2 
  836000   0.92429044   -3.1520166    719.78268  0.071748673  0.071772439            3 
  837000   0.90876388    -3.143227    717.72553  0.071458137  0.071740554            2 
  838000   0.91829136   -3.1305974    715.86962  0.071188308  0.071707449            4 
  839000   0.92285144   -3.1491289    717.94373  0.071309468  0.071675347            5 
  840000   0.92118371   -3.1676005    719.96491   0.07142509  0.071643252            3 
  841000   0.92208691   -3.1381093    719.52048  0.071296123  0.071610856            2 
  842000   0.91545021   -3.1661789    718.87995  0.071148055  0.071578659            3 
  843000    0.9243036   -3.1671564       717.16  0.070893634  0.071546864            4 
  844000   0.91525689   -3.1839393    722.92864   0.07137921  0.071515468            3 
  845000   0.91313806   -3.2040995    719.22407  0.070929395  0.071483691            2 
  846000   0.91131199   -3.1418158    724.94468   0.07140905  0.071452163            9 
  847000   0.93098397   -3.1565956    724.48353  0.071279371  0.071421277            3 
  848000   0.91332451   -3.1767578    722.56813  0.071007088  0.071390096            2 
  849000   0.90924105   -3.1463302    725.38035  0.071199484  0.071357794            4 
  850000   0.91070499   -3.1735994    725.13677  0.071091841  0.071326202            4 
  851000   0.91578263   -3.1543684    723.10063  0.070808914  0.071294026            1 
  852000   0.92785296   -3.1674592    725.15229  0.070926476  0.071261453            5 
  853000     0.919206   -3.1356491    726.21888  0.070947526  0.071229115            5 
  854000   0.91801742   -3.1793889    724.77777  0.070723826  0.071196644            2 
  855000   0.89236913    -3.162549    726.68728   0.07082722  0.071164067            4 
  856000   0.91464404   -3.1716329    727.91772  0.070864264   0.07113193            3 
  857000   0.90599135   -3.1775665    726.81064  0.070673925  0.071100401            5 
  858000   0.89574855   -3.1521924    732.22856   0.07111777  0.071068982            2 
  859000   0.90463886   -3.1634574    729.40783  0.070761334  0.071036694            3 
  860000   0.92691102   -3.1697025    727.64444  0.070508183  0.071004603            2 
  861000   0.90434552   -3.1516699    731.58052  0.070807251  0.070972176            4 
  862000   0.90905606   -3.1782187    727.96288  0.070375375  0.070940223            4 
  863000   0.92310176   -3.1542574    731.71754  0.070656387  0.070908007            2 
  864000   0.92451823   -3.1922479    729.37226  0.070348405   0.07087618            7 
  865000    0.8974016   -3.1798471     727.9275   0.07012789   0.07084346            3 
  866000   0.91166959   -3.1906419    733.05118  0.070539952  0.070811236            4 
  867000    0.9129909   -3.1727619    733.10414  0.070463681  0.070778611            5 
  868000   0.92063684   -3.1796774    732.50371  0.070324857  0.070746798            4 
  869000   0.89893174   -3.1507121    737.45859  0.070719082   0.07071499            3 
  870000   0.89874659   -3.1689587    733.03049  0.070213649  0.070682449            3 
  871000   0.92260572   -3.2051529    733.91363  0.070217531   0.07064965            2 
  872000   0.90723639   -3.1824753    732.98145  0.070047921  0.070616018            1 
  873000   0.90485776   -3.1718203    736.18842  0.070273808  0.070583486            2 
  874000   0.91680207   -3.1750721    735.84965  0.070161104  0.070550744            4 
  875000   0.90549182   -3.1709268    737.38941  0.070227563  0.070518354            6 
  876000   0.90971352   -3.1630901    739.16846  0.070316634  0.070486404            2 
  877000   0.89455447   -3.1517403    741.35843  0.070444549  0.070454251            3 
  878000   0.90956656   -3.1889799    737.26185  0.069975498  0.070422641            4 
  879000   0.88860194   -3.1737958    738.28672  0.069993052   0.07039075            3 
  880000   0.91716136    -3.177416    742.54719  0.070316969  0.070358936            4 
  881000   0.89369124   -3.1816144    741.31762   0.07012085  0.070327043            2 
  882000   0.90497428   -3.1913835    739.86583  0.069904179  0.070295733            6 
  883000   0.89064827   -3.1849535    740.95698   0.06992799  0.070263724            3 
  884000   0.91148356   -3.1985271    739.96141  0.069755035  0.070231157            2 
  885000   0.90240309   -3.1712862    741.54658  0.069825478  0.070198099            4 
  886000   0.89002126   -3.1667662    744.39428   0.07001451  0.070165839            3 
  887000   0.91642695   -3.2006954    743.78302  0.069878149  0.070133254            5 
  888000   0.87594072   -3.1498033    744.28289  0.069846368  0.070100963            3 
  889000   0.90612983   -3.1881842    744.25956  0.069765613   0.07006907            2 
  890000   0.91120314   -3.1958472    743.90981  0.069654477  0.070036618            4 
  891000   0.88606992   -3.1818727    749.07906   0.07005977  0.070005058            5 
  892000   0.86374856   -3.1591671    747.57394  0.069840615  0.069973295            3 
  893000   0.90223623   -3.2065057    746.13628  0.069628246  0.069941333            5 
  894000   0.89630179   -3.1732071    749.12058   0.06982854   0.06990927            5 
  895000   0.91051135   -3.1933166     747.8439  0.069631648  0.069878038            1 
  896000   0.88134016   -3.2007506    749.43393  0.069701817  0.069845851            3 
  897000   0.90292958    -3.202839     748.5814  0.069544909  0.069813762            2 
  898000   0.89754375   -3.1866356    748.07376  0.069420357  0.069782217            5 
  899000   0.88314259   -3.1808659    749.96117  0.069518092  0.069750892            3 
  900000    0.8936069   -3.1813253    752.74305   0.06969843  0.069719884            3 
  901000    0.9142176   -3.2119635    750.30959  0.069396003  0.069689017            2 
  902000   0.88381089    -3.187561    752.11573  0.069485932  0.069658083            5 
  903000   0.87375763    -3.170975    755.39785  0.069711873  0.069627095            4 
  904000   0.88980914   -3.1924403    754.01072  0.069506888  0.069596483            2 
  905000   0.91186971   -3.2150236    753.28975  0.069363697  0.069564622            2 
  906000   0.88769719   -3.1948305    755.34371  0.069476059  0.069533736            2 
  907000   0.88968348   -3.1905543    752.60162  0.069147521  0.069503564            2 
  908000   0.90798946   -3.1803121    760.57337  0.069802989  0.069473094            4 
  909000   0.88700349   -3.1928745    755.09032  0.069223535  0.069442571            2 
  910000   0.90213626   -3.1907249    757.59417  0.069376755  0.069411878            6 
  911000   0.89819953   -3.1910562    759.75109  0.069497904  0.069381647            3 
  912000    0.8752796   -3.1890387    758.97407  0.069350701  0.069351318            4 
  913000   0.87984525   -3.1880982    760.86102  0.069446971  0.069320698            2 
  914000   0.90616803   -3.2123264    761.57523  0.069436108  0.069289507            5 
  915000   0.89606087    -3.188244    760.01219  0.069217868   0.06925949            4 
  916000   0.86735181    -3.205488    758.16559  0.068974307  0.069228773            7 
  917000   0.87743705   -3.1769784    761.97124  0.069244933  0.069198333            2 
  918000   0.87944336   -3.2144456    761.68158  0.069143208  0.069167846            5 
  919000   0.87871775   -3.2291131    760.12195  0.068926546  0.069137256            3 
  920000   0.87894402   -3.2312913    762.25949  0.069045243  0.069106876            3 
  921000   0.88364859    -3.229124    764.97498  0.069215977  0.069076524            6 
  922000   0.89584701   -3.2069337    763.88532  0.069042418  0.069046355            3 
  923000   0.89474085   -3.2136677    763.98925     0.068977  0.069016664            2 
  924000   0.88173193   -3.1988182     765.4957  0.069038212  0.068986581            5 
  925000   0.89267307   -3.1891084    767.96392  0.069185938  0.068956808            3 
  926000   0.91244098   -3.1982349    766.46802  0.068976604  0.068927161            3 
  927000   0.88022809   -3.2018153    766.68827  0.068921995  0.068897787            4 
  928000   0.90084556     -3.22499    767.11062  0.068885652  0.068867678            3 
  929000   0.88411599   -3.2000667    766.56816  0.068762842  0.068837389            2 
  930000   0.89676024   -3.2219681    768.16944  0.068832387  0.068807936            8 
  931000   0.90447829   -3.2183529    767.35606  0.068685648  0.068777127            2 
  932000   0.87296328   -3.2360385    767.69958  0.068642666  0.068746371            1 
  933000   0.87366103   -3.2103815    767.81424  0.068579335  0.068715439            2 
  934000   0.87491417   -3.2118555     768.3691  0.068555416  0.068684857            3 
  935000   0.88207395   -3.2079055    770.35867  0.068659418  0.068654465            3 
  936000   0.86382589   -3.2371878    769.14143  0.068477691  0.068624493            3 
  937000   0.87596927   -3.2140963    771.47236  0.068611914  0.068594077            3 
  938000   0.86574488   -3.2151242    770.52997  0.068455043  0.068563217            4 
  939000   0.88408388   -3.2140684    770.53158  0.068382284  0.068532679            4 
  940000   0.88390841   -3.2219748    772.81499  0.068511967  0.068502384            2 
  941000   0.88498713   -3.2098315    772.70839  0.068429719  0.068472133            4 
  942000   0.87257439   -3.2085646    772.75209  0.068360943  0.068442232            4 
  943000   0.89079848   -3.2230169    774.53265  0.068445798  0.068411586            2 
  944000   0.87721822   -3.2163895    774.38034  0.068359846  0.068380467            3 
  945000   0.90096509   -3.2162167    775.85091  0.068417188  0.068349966            4 
  946000   0.87900562   -3.2338307    777.57586  0.068496816  0.068319365            2 
  947000   0.88728427   -3.2121901    776.65872   0.06834378  0.068289562            3 
  948000   0.86958093   -3.2048735    778.63987  0.068445839  0.068259613            2 
  949000   0.87225753   -3.2543183    775.86043  0.068129648  0.068229659            4 
  950000   0.86198778   -3.2198288    776.91634  0.068150556  0.068199526            4 
  951000   0.89247004     -3.23055    777.05016   0.06809062  0.068169981            2 
  952000   0.88292353   -3.2068002    780.51948  0.068322784  0.068140463            2 
  953000   0.89655453   -3.2160498    779.75872  0.068184568  0.068111545            3 
  954000   0.87049256   -3.2050687    780.10129   0.06814302  0.068082288            4 
  955000   0.87254153   -3.2476808    780.25308  0.068084911  0.068052763            2 
  956000   0.86744587   -3.2281303    781.40613  0.068114203  0.068023009            1 
  957000     0.857962   -3.2303621    782.46975  0.068135645  0.067994175            5 
  958000   0.88040866   -3.2326624    784.24908  0.068219301  0.067964548            5 
  959000   0.88158704   -3.2130623    782.68189  0.068011982  0.067935429            8 
  960000   0.86039346   -3.2222397     782.5149   0.06792664  0.067906343            3 
  961000   0.86764531   -3.2524307    782.59391  0.067862809  0.067876963            3 
  962000   0.85554755   -3.1964682     786.7663  0.068153699  0.067848068            3 
  963000   0.86429953   -3.2331693    787.43559  0.068140844  0.067819383            4 
  964000   0.86918656    -3.221151    785.80406   0.06792912  0.067790285            2 
  965000   0.86757522   -3.2261475    787.68504  0.068021161  0.067761026            6 
  966000   0.85394385   -3.2317683    786.87594  0.067880947  0.067731522            4 
  967000   0.86275456   -3.2240279    787.04967  0.067825721  0.067702471            2 
  968000   0.86926504   -3.2174367    791.18984  0.068112073  0.067673097            3 
  969000   0.86634778   -3.2398147    788.07077  0.067773544  0.067643068            3 
  970000   0.86338266   -3.2146919      785.919  0.067518814  0.067613482            3 
  971000   0.87273254   -3.2296656    789.24075  0.067734359  0.067584171            5 
  972000   0.85261507   -3.2319299    789.73144  0.067706742  0.067555333            5 
  973000   0.85237661   -3.2410706    789.71009  0.067635328  0.067526157            4 
  974000   0.86499724   -3.2272172    793.00139  0.067847484   0.06749684            3 
  975000   0.85746018   -3.2329197    792.15312  0.067705395  0.067467664            5 
  976000   0.87191219   -3.2519725    791.25433  0.067559284  0.067438125            6 
  977000   0.88299714   -3.2630216    793.39664  0.067672863  0.067408502            5 
  978000    0.8576603   -3.2554676    791.56733  0.067447796  0.067378837            3 
  979000   0.86795095   -3.2493019    792.43012  0.067452343  0.067349525            4 
  980000   0.86535661    -3.210102    796.01115  0.067688023  0.067320839            2 
  981000   0.84615541   -3.2325031    796.99929  0.067702964  0.067292156            3 
  982000   0.87458628   -3.2439058    797.95916  0.067715475  0.067264028            8 
  983000   0.84833934   -3.2432733    798.36215  0.067680752  0.067235667            3 
  984000   0.85248013   -3.2292167    796.13887  0.067423685  0.067207493            2 
  985000   0.86456916   -3.2312122    796.29142   0.06736814  0.067179253            3 
  986000   0.85891613   -3.2425179    798.93757   0.06752346  0.067151486            2 
  987000    0.8612186   -3.2204317    803.41215   0.06783284  0.067122996            3 
  988000   0.85328505   -3.2425697    801.18445  0.067576286  0.067095399            4 
  989000   0.87302344   -3.2586572    800.14519   0.06742039  0.067066881            4 
  990000   0.86447806   -3.2609482    794.77288  0.066900074  0.067038708            3 
  991000   0.83717153   -3.2330672    801.53536  0.067401224  0.067010266            3 
  992000   0.85436531   -3.2361256    802.57553   0.06742066  0.066982461            2 
  993000   0.84897517   -3.2617208    798.40252  0.067002561  0.066953419            3 
  994000   0.85916011   -3.2753108    799.64268  0.067039124  0.066924513            3 
  995000   0.85708274   -3.2295185    803.30401  0.067278393  0.066896127            2 
  996000   0.85350588   -3.2561076    801.87959  0.067091666  0.066867819            3 
  997000   0.87243887   -3.2624168    804.19224  0.067217673  0.066839234            4 
  998000   0.86043969   -3.2554904    805.02727  0.067220046  0.066811361            4 
  999000   0.84086454   -3.2398416     803.7944  0.067049917  0.066782867            3 
 1000000   0.85939506   -3.2692262    803.15371  0.066929476  0.066754623            5 
 1001000   0.86723327   -3.2569153    806.44788  0.067136853  0.066725718            5 
 1002000   0.85820394    -3.253383    806.19333   0.06704868  0.066697248            5 
 1003000   0.86778158   -3.2446675     806.3925  0.066998379  0.066668865            4 
 1004000    0.8546455   -3.2465973    806.78421   0.06696416  0.066640229            5 
 1005000    0.8740123   -3.2296871    808.07291  0.067004387  0.066612197            2 
 1006000    0.8763282   -3.2600975    807.61038  0.066899468  0.066584101            4 
 1007000   0.84468126   -3.2622921    808.68121  0.066921649  0.066555811            2 
 1008000   0.84569108    -3.241245    808.09978   0.06680719  0.066527888            3 
 1009000   0.85805247   -3.2464597    808.89699  0.066806821  0.066500062            4 
 1010000   0.86089636   -3.2729055    808.12619  0.066677078  0.066471587            4 
 1011000   0.83838907   -3.2885341    809.08701  0.066690324    0.0664429            2 
 1012000    0.8486049   -3.2587559    806.98713  0.066451509  0.066414238            5 
 1013000   0.86870067   -3.2494711    808.32809  0.066496224  0.066386113            3 
 1014000   0.85471441   -3.2347452    812.24094  0.066752214   0.06635791            3 
 1015000   0.84218322   -3.2531397     811.1802  0.066599359    0.0663296            1 
 1016000   0.86280485   -3.2639964    810.59681  0.066485959  0.066301275            3 
 1017000   0.85779392   -3.2706989    814.31683  0.066725404  0.066272963           11 
 1018000   0.84540212   -3.2508979    814.82909  0.066701792   0.06624517            2 
 1019000   0.85769056   -3.2646989    811.33391  0.066350499  0.066216832            4 
 1020000   0.86604849   -3.2549645    812.68901  0.066396161  0.066188603            2 
 1021000   0.83797564   -3.2637558    818.47873  0.066803683  0.066160715            4 
 1022000   0.83332913   -3.2612677    816.28823  0.066559705  0.066132597            6 
 1023000   0.86407634   -3.2519475     817.3318  0.066579651  0.066104733            3 
 1024000   0.83935677   -3.2708744    817.38891   0.06651928  0.066077087            3 
 1025000   0.84402416   -3.2592211    819.05315  0.066589687   0.06605024            4 
 1026000   0.85373226   -3.2702635    817.28852  0.066381458  0.066022704            2 
 1027000   0.84212302     -3.25167    819.11109   0.06646471  0.065995211           12 
 1028000   0.84843498   -3.2700916    817.33502  0.066256081  0.065968021            3 
 1029000   0.85288759   -3.2549683    820.40281  0.066440137  0.065940607            3 
 1030000   0.83325102   -3.2395728    819.92783  0.066337203  0.065913202            2 
 1031000    0.8519776   -3.2548371    819.44917  0.066234172  0.065885029            5 
 1032000   0.84005932   -3.2791459    819.86488  0.066203559  0.065857051            6 
 1033000   0.84099777   -3.2663513    818.18049  0.066003589  0.065829041            4 
 1034000   0.85418986   -3.2797578     820.0625  0.066091433  0.065800783            1 
 1035000   0.83697624   -3.2828846    820.99798  0.066102897  0.065773035            5 
 1036000   0.84000092   -3.2598595    821.07011  0.066044893  0.065745189            3 
 1037000   0.82377274   -3.2561729    822.60494  0.066104543   0.06571792            4 
 1038000   0.83163463   -3.3055115    821.33004  0.065938507  0.065689877            8 
 1039000   0.85167711    -3.309947    825.24528  0.066189066  0.065661811            3 
 1040000   0.83921992   -3.2582991    824.17833   0.06603993  0.065634518            2 
 1041000   0.84481691   -3.2703947    822.48484  0.065840925  0.065606793            3 
 1042000   0.84172357   -3.2971936     822.9273  0.065813124  0.065579163            5 
 1043000   0.84263836   -3.2661325    824.74376  0.065895155  0.065551539            5 
 1044000   0.81755678   -3.2960729    823.96561  0.065769924  0.065523596            4 
 1045000   0.82703075    -3.282303    824.56516  0.065754798  0.065495419            3 
 1046000   0.84871725   -3.2861423    825.64519  0.065777979  0.065467232            2 
 1047000    0.8365346   -3.2870814    825.00762  0.065664408  0.065438755            4 
 1048000   0.84613104   -3.2655972    826.66179  0.065733285  0.065410416            4 
 1049000   0.83734088   -3.2441775      830.963  0.066012313  0.065382784            6 
 1050000   0.85413398   -3.2771156    826.54047   0.06559845  0.065354664            5 
 1051000   0.84741541   -3.2971837    825.71588  0.065470653  0.065326236            7 
 1052000   0.83187572   -3.2957942    828.15717  0.065601804  0.065297969            3 
 1053000    0.8365858   -3.2740861    829.35375    0.0656342  0.065269308            3 
 1054000   0.83208669   -3.2396642    829.75851   0.06560393  0.065241267            5 
 1055000   0.84299249    -3.298887    827.52366  0.065365218  0.065212745            5 
 1056000   0.84294319   -3.2799337    828.99234  0.065419219  0.065183876            3 
 1057000   0.84105024   -3.2606526      833.833  0.065738963  0.065155499            6 
 1058000   0.84521694   -3.2813935    828.54301  0.065260161  0.065127323            2 
 1059000   0.82409131   -3.2936405    831.39313  0.065422815  0.065099037            6 
 1060000   0.81618524   -3.2972148    832.33239  0.065434936  0.065070972            3 
 1061000   0.83691236   -3.2927094    832.00581  0.065347613  0.065042446            4 
 1062000    0.8228807   -3.2873047    832.48843  0.065323951  0.065014499            2 
 1063000   0.83321139   -3.2721949       832.07  0.065229696  0.064986198            3 
 1064000   0.84445159   -3.2944151    830.31342  0.065030813  0.064957794            3 
 1065000   0.83611809   -3.3098119    832.51071  0.065141683  0.064929326            5 
 1066000    0.8136913   -3.3074966    833.82679  0.065183457  0.064900886            5 
 1067000    0.8309176   -3.2716293    834.27947  0.065157722  0.064872614            2 
 1068000   0.81757262   -3.3113023    834.73527  0.065132278  0.064844348            3 
 1069000   0.82631936   -3.2890944    831.59111  0.064826248  0.064815941            7 
 1070000   0.83114002   -3.2776069    834.70393  0.065008094  0.064788127            4 
 1071000   0.83467176    -3.307094    836.39257  0.065078787  0.064759966            3 
 1072000   0.84421582   -3.3160841    836.97357  0.065063244  0.064731678            5 
 1073000    0.8360707   -3.2804642       840.24  0.065256291  0.064703681            5 
 1074000   0.82817832   -3.3013167     839.1762  0.065112989   0.06467661            5 
 1075000   0.81785167   -3.2909616    839.45092  0.065073715  0.064649106            3 
 1076000   0.82592343   -3.3010965    837.66739  0.064875108  0.064621464            4 
 1077000   0.80893484   -3.2969523    839.88453  0.064986423  0.064593457            5 
 1078000   0.80104429   -3.3036945    840.30639   0.06495875  0.064565338            4 
 1079000   0.81380518   -3.3278013    838.66448  0.064771739  0.064537128            7 
 1080000   0.82104042   -3.2939885    838.64151  0.064709993  0.064508994            3 
 1081000    0.8256076   -3.2938629    841.45992  0.064867401  0.064480922            3 
 1082000     0.823704   -3.2866182     840.8859  0.064763239  0.064452826            3 
 1083000   0.80410429   -3.3037014    841.66736   0.06476357  0.064424439            3 
 1084000   0.84102014   -3.2902707    845.34196  0.064986313  0.064395737            6 
 1085000   0.81107534   -3.2871622    840.96866  0.064590527  0.064367376            5 
 1086000   0.83333891    -3.287278     844.2255  0.064780962  0.064339232           10 
 1087000   0.82130362   -3.3151132    844.15099  0.064715654  0.064310922            3 
 1088000    0.8348611   -3.3229282    841.18506  0.064429003  0.064282603            4 
 1089000   0.81233454   -3.3004153    843.12235  0.064518086  0.064253741            4 
 1090000   0.80794576   -3.2835622    844.89306  0.064594271  0.064225656            5 
 1091000   0.81469705   -3.3072756    843.14869  0.064401824  0.064197148            5 
 1092000   0.81675009   -3.3115016    842.05744  0.064259573  0.064168721            3 
 1093000   0.80400531    -3.306659    844.94528  0.064420958  0.064139547            3 
 1094000   0.81318928    -3.308504    842.29375  0.064160096  0.064110658            6 
 1095000    0.8306134   -3.2887106    844.36284  0.064258968  0.064082261            7 
 1096000   0.82075181    -3.322594    844.51335  0.064211782  0.064053719            5 
 1097000   0.81443331   -3.3131399    846.09278  0.064273228  0.064024953            5 
 1098000   0.82077538   -3.3378382    849.12031  0.064444468  0.063996337            7 
 1099000   0.80771675   -3.2943218    848.59715  0.064346159  0.063967704            9 
 1100000   0.82026136   -3.3035217    849.60627  0.064364112  0.063939771            3 
 1101000   0.81421326   -3.2901737    849.50726  0.064298157  0.063911684            3 
 1102000   0.81252585   -3.3020717    848.73286  0.064181251  0.063883915            4 
 1103000   0.80120142   -3.3244924    848.04428   0.06407104  0.063855587            5 
 1104000   0.77769734   -3.3238406    851.10137  0.064243763  0.063827752            3 
 1105000   0.81784914   -3.3251218    848.02186  0.063953383  0.063799536            5 
 1106000    0.8119823   -3.3064024    854.20492  0.064361432   0.06377143            2 
 1107000   0.80820729   -3.3158161    850.30964   0.06401006  0.063743246            6 
 1108000   0.80110643   -3.3443295    849.45612  0.063888096  0.063714452            3 
 1109000   0.81639321   -3.3225886    851.60741  0.063992141   0.06368576            3 
 1110000   0.80494422   -3.3106085    850.60226  0.063859029  0.063657411            3 
 1111000    0.8075517   -3.3197146    852.71987  0.063960387  0.063628986            2 
 1112000   0.81163667   -3.3188559    850.12348  0.063708295   0.06360037            5 
 1113000   0.80877725   -3.3042276    850.14288  0.063652507  0.063571705            4 
 1114000   0.79745139   -3.3321625    853.79387  0.063868482  0.063543179            4 
 1115000   0.82031986   -3.3256355    852.42798  0.063709117  0.063514175            6 
 1116000   0.82074497   -3.3149801    854.12467  0.063778724  0.063485279            5 
 1117000   0.79400464   -3.3097464    853.37513  0.063665706  0.063456391            4 
 1118000   0.79350374   -3.3379993    852.22911  0.063523338   0.06342746            6 
 1119000   0.82842274   -3.3355678    851.63097  0.063422027  0.063397962            4 
 1120000   0.82866995   -3.3317679    853.18113  0.063480738  0.063368601            4 
 1121000   0.81614992    -3.331494     853.1241   0.06341987  0.063339581            3 
 1122000   0.81750689   -3.3111293    860.19692   0.06388866  0.063310878            4 
 1123000   0.82038327   -3.3271935    854.71273  0.063424809  0.063281868            3 
 1124000   0.79657638   -3.2916314    855.59322  0.063433661  0.063252868            3 
 1125000   0.79896954   -3.3350665      855.334  0.063358074  0.063223917            5 
 1126000   0.81595733   -3.3098435    856.81378  0.063411322  0.063195149            8 
 1127000   0.82508284   -3.3390504    857.10769  0.063376789  0.063166313            7 
 1128000   0.79517426    -3.323537    858.82764  0.063447668   0.06313761            4 
 1129000    0.8031246   -3.3300912    858.63849  0.063377508  0.063108627           10 
 1130000   0.80445758   -3.3492169    856.28514  0.063147872  0.063079613            5 
 1131000   0.81411277   -3.3258411    859.77347  0.063349062  0.063050789            7 
 1132000   0.80231662   -3.3204089    859.02146   0.06323774  0.063022379            3 
 1133000   0.78894633   -3.3334969    858.99769  0.063180177  0.062993976            9 
 1134000   0.81546343   -3.3179399     859.5919  0.063168129  0.062965378            2 
 1135000   0.79762586   -3.3269909    862.67051   0.06333851  0.062936949            2 
 1136000   0.80419891    -3.339373    860.58297  0.063129619   0.06290854            5 
 1137000   0.81200042   -3.3309712    860.97643  0.063102934  0.062879846            4 
 1138000   0.78750926   -3.3654332    859.06313  0.062907376  0.062851086            4 
 1139000   0.80156523   -3.3239975    863.09485  0.063147121  0.062822491            2 
 1140000   0.79242376   -3.3388643    862.06793  0.063016662  0.062794189            5 
 1141000   0.80030734    -3.320532    862.45779  0.062989906  0.062765991            2 
 1142000   0.79969864   -3.3148577    863.96449  0.063044694   0.06273783            6 
 1143000    0.7924559   -3.3461057    865.63541   0.06311136  0.062709636            4 
 1144000   0.77783852   -3.3280312    865.97527  0.063080949  0.062680858            4 
 1145000   0.78550646   -3.3372484    864.83629  0.062942961  0.062652664            4 
 1146000   0.80341927   -3.3369199    866.66704  0.063021164  0.062624701            5 
 1147000   0.79473215   -3.3320136    867.33071  0.063014437  0.062596956            7 
 1148000   0.78426353   -3.3275507    867.06467  0.062940234  0.062569057            8 
 1149000   0.79857353   -3.3087648      870.473  0.063132652   0.06254094            3 
 1150000   0.80280536    -3.346564    868.40078  0.062927593  0.062512847            3 
 1151000   0.78167801   -3.3436463    868.31149  0.062866456  0.062484612            3 
 1152000    0.7981129   -3.3397306    866.97765  0.062715397  0.062456103            6 
 1153000   0.79231053   -3.3652828    867.06446  0.062667278  0.062427897            5 
 1154000   0.77320212   -3.3555469    868.62989  0.062726017  0.062399113            3 
 1155000   0.80810712    -3.331113    869.29724  0.062719859  0.062370283            5 
 1156000   0.78024787   -3.3236103    870.42067  0.062746588  0.062341778            4 
 1157000   0.78674836   -3.3454259    868.92988  0.062584981  0.062313342            4 
 1158000   0.79584956   -3.3645582    869.00552  0.062536379  0.062284813            4 
 1159000   0.79811566   -3.3252299     872.2793   0.06271781  0.062256934            6 
 1160000   0.78614853   -3.3709911    872.72601  0.062695834  0.062228547            4 
 1161000   0.79013183   -3.3273949    871.68879  0.062567384  0.062200121            3 
 1162000   0.78466999   -3.3515985     874.1268  0.062688382  0.062172294            6 
 1163000   0.79195544   -3.3252052    873.30481  0.062575581  0.062144329            3 
 1164000   0.79245915   -3.3387141    875.00287   0.06264339  0.062116207            4 
 1165000   0.79926538   -3.3415878    871.66934  0.062351169  0.062088295            4 
 1166000   0.78797654   -3.3311577    871.84215  0.062310045  0.062059907            5 
 1167000     0.789139   -3.3553557    871.11542  0.062204757  0.062031582            3 
 1168000   0.79594209   -3.3474689    869.27463  0.062020165  0.062002955            4 
 1169000   0.78777343   -3.3319173     871.1358  0.062099786  0.061974388            7 
 1170000   0.78883592   -3.3182876    876.05478  0.062397064  0.061945679            4 
 1171000    0.7962676   -3.3391198    873.21157  0.062141444  0.061917089            4 
 1172000   0.77273363   -3.3546178    872.41668  0.062031902  0.061888216            4 
 1173000    0.7785834   -3.3478501    873.45099    0.0620525  0.061859436            5 
 1174000   0.77340634   -3.3396073    874.94311  0.062105559  0.061830887            4 
 1175000   0.78498266   -3.3317518    874.61891   0.06202971  0.061802564            5 
 1176000   0.78688395   -3.3538226    872.30989  0.061813342  0.061773825            5 
 1177000   0.77847205   -3.3613896    876.36474  0.062047914  0.061744556            4 
 1178000   0.76802878   -3.3617114    875.99722  0.061969243  0.061715434            4 
 1179000   0.79057114   -3.3504149    874.89228  0.061838583  0.061686491            6 
 1180000   0.77460512   -3.3452569    877.92069  0.062000049  0.061657793            9 
 1181000   0.77875665   -3.3648265    879.84622  0.062083419  0.061629227            4 
 1182000   0.77810813   -3.3461011    876.81257  0.061817017  0.061600638            3 
 1183000   0.77648665   -3.3829657      874.632  0.061611158  0.061571917            4 
 1184000   0.76952552   -3.3436117    876.63292  0.061699952  0.061543006            6 
 1185000    0.7723085   -3.3519689    876.73748  0.061655238   0.06151417            4 
 1186000   0.78860407    -3.365491    878.42031  0.061721495  0.061485006            5 
 1187000   0.78423195   -3.3557915    877.19787  0.061583675   0.06145602            4 
 1188000   0.78235599   -3.3301669     880.4775   0.06176189  0.061426941            3 
 1189000   0.77143669   -3.3682292    879.74208  0.061658402  0.061398089            2 
 1190000   0.77623352   -3.3886023    878.49012  0.061518916  0.061368822            5 
 1191000   0.78599287   -3.3858554    879.43594  0.061533441  0.061339678            2 
 1192000   0.78859993    -3.369794    880.34686  0.061545502  0.061310648           11 
 1193000   0.77659827   -3.3698519    880.56713  0.061509299  0.061281573            6 
 1194000   0.78832717   -3.3897489    874.70207  0.061048441  0.061252325            4 
 1195000     0.777714   -3.3676005     876.8692  0.061148479  0.061222898            6 
 1196000   0.78367357   -3.3947567    878.66728  0.061222637  0.061193438            3 
 1197000   0.78052218   -3.3724907    883.28913  0.061493256  0.061163959            2 
 1198000   0.77726668   -3.3529787    879.86731  0.061203903  0.061134619            3 
 1199000   0.77361101   -3.3685427    880.27731  0.061181353  0.061105078            5 
 1200000   0.77458326   -3.3807701    879.98298  0.061109929  0.061075604            4 
 1201000   0.75253462   -3.3491231    878.60883  0.060963699  0.061045836            6 
 1202000   0.76302198   -3.3632649    881.89633  0.061140899  0.061016213            2 
 1203000   0.77589278    -3.363147    882.97547  0.061164829  0.060986928            4 
 1204000   0.79042287   -3.3745185    882.57903  0.061086589  0.060957506            2 
 1205000   0.76603474   -3.3529967    881.98434  0.060994767  0.060927876            5 
 1206000   0.77192154   -3.3607657    884.65359  0.061128634  0.060898127            4 
 1207000   0.76583048    -3.382711    879.27336  0.060706528  0.060868413            5 
 1208000   0.76669385   -3.3735212    879.91232  0.060700353  0.060838919            4 
 1209000   0.76706566   -3.3848851    883.08718  0.060868981  0.060809317            4 
 1210000   0.77037051   -3.3641608    884.95581   0.06094737  0.060779876            5 
 1211000     0.749505   -3.3771097    884.13922  0.060840849  0.060750384            5 
 1212000   0.76332281   -3.3657865    885.05393  0.060853543  0.060721147            5 
 1213000   0.75847052   -3.3661781    887.23107  0.060952945  0.060691483            6 
 1214000    0.7759722   -3.3806413    883.60256  0.060653663  0.060662156            4 
 1215000   0.77468946   -3.3831366    884.55234  0.060668885  0.060632948            5 
 1216000   0.76619317     -3.37716     886.1311  0.060727186  0.060603648            6 
 1217000   0.76071289   -3.3582102     887.6745   0.06078297  0.060574378            3 
 1218000   0.77183495   -3.3998046    887.60115  0.060728048  0.060545269           15 
 1219000   0.75604489    -3.382773    889.55116  0.060811536  0.060516128            5 
 1220000   0.75433098   -3.3884234    887.43345  0.060617039  0.060486888            3 
 1221000   0.76224855   -3.3758009    888.59371  0.060646581  0.060457625            5 
 1222000   0.75742776   -3.3755517    889.57465  0.060663847  0.060428521            6 
 1223000   0.77612706   -3.3780218    888.45701   0.06053809   0.06039921            4 
 1224000   0.76466678   -3.3992287    886.03504  0.060323736  0.060369896            6 
 1225000   0.75786333   -3.3840739    891.04543  0.060615335  0.060340885            3 
 1226000   0.77927295   -3.4145376    886.15251  0.060233313  0.060311559           11 
 1227000   0.76837651   -3.3754397    887.87402  0.060301142  0.060281994            4 
 1228000   0.76470751   -3.3883734    889.22243  0.060343542  0.060252674            7 
 1229000   0.76716856   -3.3886643    888.73375  0.060261306  0.060222956            3 
 1230000   0.76082957   -3.4009248    885.79969  0.060013529  0.060192977            4 
 1231000   0.75760193    -3.360199    891.10139  0.060323679  0.060163288            4 
 1232000   0.75242124   -3.3863293    890.15407  0.060210638  0.060133587            3 
 1233000   0.76651827   -3.3739378    891.84895  0.060276355  0.060104002            4 
 1234000   0.74947163   -3.3960255    887.69218  0.059946798  0.060074222            3 
 1235000   0.74710143   -3.3955607     890.1087  0.060061316  0.060044271            6 
 1236000   0.76403429   -3.4022994    888.55551  0.059908003  0.060014405            8 
 1237000   0.74981984   -3.3937899    891.29481  0.060044113  0.059984089            6 
 1238000   0.75983187   -3.3734613    888.69338  0.059820502  0.059954115            4 
 1239000   0.76669557   -3.3938177    889.70379   0.05984018  0.059923868            5 
 1240000   0.75076346   -3.4021265    890.93609  0.059874737  0.059893705            5 
 1241000   0.76147957   -3.4048048    891.98466  0.059896902   0.05986336            5 
 1242000   0.74327552   -3.3907194    892.62654  0.059891743  0.059833219            3 
 1243000   0.75447981     -3.42523    891.56143  0.059772153  0.059803282            5 
 1244000   0.75494193   -3.4001902    894.20468  0.059901171  0.059773311            6 
 1245000    0.7688879   -3.4068419    891.60665   0.05967916  0.059743516            2 
 1246000   0.74346366   -3.4012532    893.56366   0.05976215  0.059713534           12 
 1247000   0.77951056   -3.4187309    893.17421  0.059688199  0.059683726            5 
 1248000   0.74498257   -3.3857348    893.37905  0.059654049   0.05965399            4 
 1249000    0.7522827   -3.3995012    893.44506  0.059610693  0.059624029            2 
 1250000   0.74598602   -3.4293565    893.24139  0.059549426  0.059593701            5 
 1251000   0.75803812   -3.4290344     894.8986  0.059612217  0.059563471            6 
 1252000   0.76905126    -3.377904    895.40889  0.059598568  0.059533524            4 
 1253000   0.75796836   -3.4137273    896.05841  0.059594201  0.059503672            2 
 1254000   0.76096638    -3.421551    894.40014  0.059436479  0.059473735            5 
 1255000   0.74607812   -3.4073227    892.60174  0.059269704  0.059443116            4 
 1256000   0.75612788   -3.3828092    894.87819  0.059373553  0.059412978            4 
 1257000   0.75232066    -3.398049    893.45308  0.059231841  0.059382851            6 
 1258000   0.76904652    -3.413156    895.07228  0.059292016  0.059352822            4 
 1259000   0.77687299   -3.4024979    894.72532  0.059221957  0.059322819            2 
 1260000    0.7517441   -3.4070087    897.46614  0.059356226  0.059292729            6 
 1261000   0.74567222   -3.4019394    896.05514  0.059215909  0.059262395            6 
 1262000   0.75801017   -3.4031885    896.13476  0.059174244  0.059232471            2 
 1263000   0.75070252   -3.3893489    899.36778  0.059340708  0.059202481            4 
 1264000   0.72670383   -3.3713995    898.65239  0.059246597  0.059172662            3 
 1265000   0.74860812   -3.3904464    897.82098  0.059144992   0.05914232            8 
 1266000   0.75244094   -3.4122532    896.54278  0.059014138  0.059112093            7 
 1267000   0.74169249   -3.3905052    899.38884  0.059154752   0.05908163           12 
 1268000   0.74714806   -3.4036161    898.37714   0.05904161  0.059051353            6 
 1269000   0.74363694   -3.4103845     899.5048  0.059069136  0.059021188            5 
 1270000    0.7355799   -3.4076825     901.8089  0.059173812  0.058991111            3 
 1271000   0.73489625   -3.4077907    898.31347  0.058898077  0.058960907            4 
 1272000   0.73700771   -3.4120572    896.76158  0.058750103  0.058930443            5 
 1273000   0.75281698   -3.4299604    897.88334  0.058777385  0.058899833            7 
 1274000    0.7491109    -3.406874    897.40251  0.058699798  0.058869251            7 
 1275000   0.73150321     -3.42455    899.46576  0.058788612  0.058838812            7 
 1276000   0.75059264    -3.412505    898.50432  0.058679749  0.058808398            4 
 1277000   0.75666863   -3.4375587    898.12948  0.058609337  0.058777521            8 
 1278000   0.74813538   -3.4091113    901.07781  0.058755726  0.058747058            5 
 1279000    0.7373588   -3.4258228    897.78993  0.058495565  0.058716539            5 
 1280000   0.74051646   -3.4366199    899.22229  0.058543118   0.05868596            6 
 1281000   0.73710537   -3.4354083     895.8827  0.058280165  0.058655198           13 
 1282000   0.73489222   -3.4509693    895.42152  0.058204727   0.05862415            5 
 1283000   0.74253362   -3.4285505    898.32274  0.058347801  0.058593307            3 
 1284000   0.75050245   -3.4190358    899.67061  0.058389837  0.058562632            7 
 1285000   0.74542108   -3.4305331    900.36066  0.058389148  0.058532017            5 
 1286000    0.7356624   -3.4090806    900.47209  0.058350965  0.058501381            3 
 1287000   0.74296739    -3.422045    901.75552  0.058388728  0.058470717            4 
 1288000     0.731931   -3.4315849    904.00137  0.058488702  0.058440111            5 
 1289000   0.74330197   -3.4359695    903.38856  0.058403708  0.058409786            6 
 1290000   0.74532449   -3.4367697    902.98669  0.058332473  0.058379292            5 
 1291000   0.72977075   -3.4322322    900.32496  0.058115476  0.058348667            5 
 1292000   0.73762518   -3.4167313    903.06006  0.058246908  0.058317981            6 
 1293000   0.73490066   -3.4329364    904.81695  0.058315091  0.058287415            2 
 1294000    0.7201923   -3.4382434    904.17908  0.058228946  0.058256738            3 
 1295000    0.7386194   -3.4526916    900.40577  0.057941169  0.058226198            4 
 1296000   0.72847706   -3.4103251    904.28617  0.058145973  0.058195607            5 
 1297000   0.73532616   -3.4346767    907.03873  0.058277996  0.058165375            7 
 1298000   0.74406354   -3.4335213     903.7515  0.058022053  0.058134582            5 
 1299000   0.74178442   -3.4406749    905.22779  0.058072093  0.058103929            3 
 1300000    0.7234042   -3.4220303    905.65064  0.058054528  0.058073309            7 
 1301000   0.72664332   -3.4297373     904.7575  0.057952697   0.05804302            5 
 1302000    0.7228728    -3.428241    906.28339  0.058005849  0.058012552            4 
 1303000   0.71770367   -3.4533643    908.36519  0.058094473  0.057982231            3 
 1304000   0.72848736   -3.4387429     904.0387  0.057773434  0.057951517            9 
 1305000   0.73381309   -3.4722887    906.73859   0.05790157  0.057921151            7 
 1306000   0.73172607   -3.4486042    906.25338  0.057826275  0.057890898            5 
 1307000   0.72992351   -3.4317329    904.57689   0.05767514  0.057860344            3 
 1308000   0.72161659    -3.455037     903.8639  0.057585621  0.057829629            5 
 1309000   0.73721644   -3.4516771    905.20069  0.057626731  0.057799253            3 
 1310000    0.7143409   -3.4317178    910.27259  0.057905381  0.057769102            3 
 1311000     0.737097    -3.443339    906.79756  0.057640323  0.057739036            9 
 1312000   0.74370651   -3.4636136    909.87851   0.05779208  0.057709129            6 
 1313000   0.70814278   -3.4458404    908.64056  0.057669495  0.057678895            4 
 1314000   0.72368638    -3.457138    906.52154  0.057491219  0.057648255           10 
 1315000    0.7301713   -3.4272106    909.45824  0.057633602  0.057617777            5 
 1316000   0.71412478   -3.4521496    906.22194  0.057384874  0.057587022           10 
 1317000   0.72241189   -3.4477987    906.56557  0.057363045  0.057555992            5 
 1318000   0.72200313   -3.4424263    904.88078  0.057212998   0.05752507            9 
 1319000   0.73811144    -3.457893    905.77974  0.057226418  0.057493916            5 
 1320000   0.72661979   -3.4329291    905.95632  0.057194212  0.057462781            4 
 1321000   0.71983866   -3.4418392    905.94225  0.057150028  0.057431616            5 
 1322000   0.73572404   -3.4433974    903.84289  0.056974463  0.057400458            6 
 1323000   0.73273577   -3.4489055    907.75204  0.057177629  0.057369216            6 
 1324000    0.7239618   -3.4397391    908.28792  0.057168172  0.057338031            3 
 1325000   0.74693132   -3.4422034    907.52095  0.057076789   0.05730709            5 
 1326000   0.72979288   -3.4537117    910.09082   0.05719525  0.057276185            4 
 1327000   0.71825228    -3.425915    911.72817  0.057254972  0.057245654            3 
 1328000   0.73148089   -3.4339128    911.63541  0.057206037  0.057215036            5 
 1329000   0.72443089   -3.4628418    911.04575  0.057126019  0.057184146            7 
 1330000   0.72251173   -3.4469784    908.62912  0.056931649  0.057153149           11 
 1331000   0.72891784    -3.454646    908.25001   0.05686514  0.057122574            4 
 1332000   0.71758535   -3.4614042    908.65194  0.056847594  0.057091482            4 
 1333000   0.71441435   -3.4553329    909.57524  0.056862668  0.057060744            5 
 1334000   0.72428938   -3.4451996    909.79532  0.056833791  0.057029947            4 
 1335000   0.71731734   -3.4934911    909.56253  0.056776687  0.056999222            5 
 1336000   0.71563953   -3.4462364    911.76195  0.056871379  0.056968547            3 
 1337000   0.69515388   -3.4830939    910.30142   0.05673781  0.056937861            8 
 1338000   0.70519486   -3.4650675    915.92599  0.057045714  0.056907165            7 
 1339000   0.71044754   -3.4399091    912.92889  0.056816585  0.056876661            4 
 1340000   0.72087506   -3.4679868    912.06819  0.056720659  0.056846044            4 
 1341000    0.7211119    -3.466592    912.07347   0.05667869   0.05681559            4 
 1342000    0.7282916   -3.4501156    910.89111  0.056563035  0.056784764            9 
 1343000   0.71371476   -3.4773988    910.44267  0.056493092  0.056754009            5 
 1344000   0.69967852   -3.4617663    910.67033  0.056465174  0.056722988            5 
 1345000   0.71099825   -3.4757923    912.30924  0.056524736  0.056692091            8 
 1346000   0.73220767   -3.4750792    912.00304  0.056463784  0.056661464            2 
 1347000   0.72688225   -3.4550961     915.5792  0.056643108  0.056630759            3 
 1348000   0.69843042   -3.4559312    911.85674  0.056370966  0.056600037            6 
 1349000   0.72258074   -3.4634615    914.22752  0.056475631  0.056569401            5 
 1350000   0.71951807   -3.4326607    916.17774  0.056554181  0.056539221            2 
 1351000    0.7251141   -3.4733294    916.66472  0.056542359  0.056508673            4 
 1352000   0.71027057   -3.4711188    919.67036  0.056685797  0.056478197            4 
 1353000   0.72399743   -3.4748399    918.72148  0.056585457     0.056448            8 
 1354000   0.69820484   -3.4676181    916.98141  0.056436571  0.056417444            8 
 1355000   0.71119991   -3.4551279    915.93411  0.056330511  0.056387332           14 
 1356000   0.70361159   -3.4808342    915.39543  0.056255865   0.05635703            6 
 1357000   0.70681895   -3.4679502    920.43439  0.056523851  0.056326677            3 
 1358000   0.73067299   -3.4649057    918.35942  0.056354898  0.056296618            2 
 1359000   0.68254271   -3.4895988     917.4311  0.056256506  0.056266465            4 
 1360000    0.7042163   -3.4865342    916.81743  0.056177538  0.056236423            7 
 1361000   0.69510342   -3.4596916    921.53539   0.05642514  0.056206649            3 
 1362000   0.70219937   -3.4751923    917.34598  0.056127385  0.056176875            4 
 1363000   0.71299079   -3.4724431     917.4208   0.05609078   0.05614681            4 
 1364000   0.70194239   -3.4780773     916.3756  0.055985802   0.05611706            6 
 1365000   0.70519145   -3.4636357    920.66181  0.056206459  0.056087486            7 
 1366000   0.70807646   -3.4942827    924.02168  0.056370283  0.056057925            7 
 1367000   0.70216325   -3.4906223    918.64162  0.056001074  0.056028272            7 
 1368000   0.69497207   -3.4569612    923.60953  0.056262764  0.055998817            7 
 1369000   0.71509546   -3.4930578    920.90576  0.056057083  0.055969067           12 
 1370000   0.71156289   -3.4620743    923.98835  0.056203671  0.055939368            3 
 1371000   0.70456739   -3.4748489    919.28664  0.055876893  0.055909766           25 
 1372000   0.69522135   -3.5028344     921.0954  0.055946028  0.055879782            6 
 1373000   0.71480834   -3.4631055    923.76042  0.056067032  0.055850193            8 
 1374000   0.71945706   -3.4744205    926.67451  0.056202967  0.055820679            9 
 1375000   0.70719081   -3.4929332    924.03648  0.056002211  0.055790845            3 
 1376000   0.70267669   -3.4960168     921.7484  0.055822941  0.055760954            3 
 1377000   0.69328243   -3.4888961    919.41123  0.055640961  0.055731086            6 
 1378000   0.70421368   -3.4870674    923.74523  0.055862677  0.055701556            7 
 1379000   0.70743157   -3.4770414    924.71653  0.055880864   0.05567194            3 
 1380000   0.70064622   -3.4832848    924.06131  0.055800804  0.055642253            5 
 1381000   0.68856745   -3.4965082    923.30073  0.055714502  0.055612505            7 
 1382000    0.7036607   -3.4912168    926.53953  0.055869484  0.055583101            7 
 1383000   0.69082008   -3.5019149    922.94909  0.055612743  0.055553468            7 
 1384000   0.70177948   -3.4738933    923.36664  0.055597702  0.055524068            5 
 1385000   0.70893444    -3.468926    924.76584  0.055641747  0.055494367            6 
 1386000   0.69302563   -3.4884026    925.52165  0.055647045  0.055464701            8 
 1387000   0.68918118   -3.4894327    925.85297  0.055626831  0.055434963            3 
 1388000   0.68934546   -3.4896208    924.89612  0.055529306  0.055405151            5 
 1389000   0.68710191   -3.4899475    924.43025  0.055461378  0.055375374            4 
 1390000   0.71478518   -3.4897983    924.95634  0.055453018  0.055345636            3 
 1391000   0.69533364   -3.5170432    923.16666  0.055305934  0.055315896            6 
 1392000   0.70900559   -3.5100541    924.91315  0.055370758  0.055286373            5 
 1393000   0.69324854   -3.5002285    927.08078  0.055460683   0.05525715            6 
 1394000   0.70798128   -3.4860164    930.06342    0.0555992  0.055227916            5 
 1395000   0.69915521   -3.4915509    925.52484  0.055288222  0.055198498            8 
 1396000   0.69576138   -3.5012113    925.68181  0.055257988  0.055169104            7 
 1397000   0.69444097   -3.4852055    928.85912  0.055407965  0.055139894            4 
 1398000    0.6871359    -3.510452    928.13581  0.055325215  0.055110765            7 
 1399000   0.68323311   -3.4902164    929.42633   0.05536254  0.055081709            6 
 1400000    0.6959072   -3.5007938    930.08623  0.055362275   0.05505282            4 
 1401000    0.6862094   -3.4928469    930.58485  0.055352418  0.055024094            5 
 1402000   0.69995709   -3.4895405    932.23014  0.055410731  0.054995624            5 
 1403000   0.68503563   -3.5126166    932.90394  0.055411258  0.054967285            8 
 1404000   0.68044174   -3.4921434    931.24905  0.055273567  0.054938703            5 
 1405000   0.69572471   -3.4846356    932.35998  0.055300118  0.054910421            6 
 1406000   0.70412798   -3.5495761    930.94203  0.055176744  0.054881952            5 
 1407000   0.69598126   -3.4831645     934.1667  0.055328518  0.054853503            3 
 1408000   0.67415822   -3.4937813     934.6119  0.055315572  0.054825341            7 
 1409000   0.69680314   -3.4890468    934.47783  0.055268384  0.054797156            6 
 1410000   0.68816537   -3.4980245    933.77192  0.055187466   0.05476902           12 
 1411000   0.69664788    -3.490269     938.4087    0.0554222  0.054740928            7 
 1412000   0.69080823   -3.4973939    936.36903  0.055262573  0.054713017            6 
 1413000   0.70397652   -3.4900118     935.6438  0.055180691   0.05468506            7 
 1414000   0.69933311   -3.5201466     936.5413   0.05519456  0.054656976            4 
 1415000   0.67573052   -3.5042735    935.78284  0.055110886  0.054628665            6 
 1416000   0.67706376   -3.4903955    936.66604  0.055123943  0.054600488            4 
 1417000   0.68196812   -3.5021029     935.5934   0.05502196  0.054572433            9 
 1418000   0.69995797   -3.5131387    934.80805  0.054937004  0.054544318            5 
 1419000   0.69306364   -3.4976531    935.80496  0.054956834   0.05451614            5 
 1420000   0.68527768   -3.5374954    936.78148  0.054975439  0.054488019            6 
 1421000   0.70407903    -3.496639    937.03613  0.054951685  0.054459702            9 
 1422000   0.70554155   -3.5155808    937.37009  0.054932612  0.054431711           12 
 1423000   0.67991812   -3.5253817    937.75691  0.054916662  0.054403589            3 
 1424000   0.67853105   -3.4956887    940.23505  0.055023118  0.054375816            4 
 1425000   0.69141647   -3.5222629    938.21435  0.054866336  0.054347797            6 
 1426000   0.67443014   -3.4929413    938.99797  0.054873654  0.054319992            7 
 1427000   0.68286152   -3.5147947     939.7761  0.054880641  0.054292135            7 
 1428000   0.67673688   -3.5193114    941.06813  0.054917608  0.054264341            3 
 1429000   0.68911515    -3.497905     939.7158  0.054800315  0.054236805           10 
 1430000   0.67901069   -3.5304846    938.74121  0.054705199  0.054209078            4 
 1431000   0.67521491   -3.5239575    942.68911  0.054896873  0.054181655            8 
 1432000   0.66184598   -3.5092854    940.38675  0.054724555  0.054153868            8 
 1433000   0.67519614   -3.5097678    941.44166  0.054747712   0.05412599            5 
 1434000   0.69420355   -3.5290862    940.44333  0.054651519  0.054098302           17 
 1435000   0.69227268   -3.5210574    941.03399  0.054647734  0.054070406            5 
 1436000     0.692578   -3.5110905    943.09448  0.054729253   0.05404287            6 
 1437000   0.68909346   -3.5324714    941.70251  0.054610445  0.054015337            6 
 1438000   0.68218154   -3.5166924    941.75696  0.054575623  0.053987713            5 
 1439000   0.67961787   -3.5249014    938.96008  0.054375728  0.053960011            5 
 1440000   0.67382013   -3.5259147    942.21739  0.054526469  0.053932318            6 
 1441000   0.67781394   -3.5291377    941.26292  0.054433433  0.053904566            7 
 1442000   0.66596192   -3.5216593    941.20486  0.054392329  0.053877032            9 
 1443000     0.689209   -3.5155788    943.27399  0.054474127  0.053849178            7 
 1444000   0.69079171   -3.5083749    943.32856  0.054439552  0.053821565            9 
 1445000   0.67435934   -3.5425507    942.69781  0.054365502  0.053793874            4 
 1446000   0.67238042   -3.5372289    942.72112  0.054329249  0.053766257           14 
 1447000    0.6809103   -3.5271518    942.80773   0.05429669  0.053738518           12 
 1448000   0.67375033   -3.5482794    940.24616  0.054111773  0.053710666            5 
 1449000   0.68958182   -3.5425217    944.44825  0.054316094  0.053683013            9 
 1450000   0.68032391   -3.5504858    942.72472  0.054179582  0.053655189            4 
 1451000   0.67554174   -3.5163713    946.57472  0.054363354  0.053627514           13 
 1452000   0.68878005   -3.5405032    944.39726  0.054200945  0.053599957           11 
 1453000   0.68024096    -3.523056    945.69087  0.054237834  0.053572299            3 
 1454000   0.66981754   -3.5408814    947.15859  0.054284651  0.053544944            3 
 1455000   0.67962715   -3.5219896    945.53601   0.05415441  0.053517542            9 
 1456000   0.65437566   -3.5213258    945.75053  0.054129494  0.053490181            6 
 1457000   0.67194481   -3.5384314    944.42379   0.05401646  0.053462611           11 
 1458000   0.67477218   -3.5426048    948.28421  0.054200058  0.053434936           12 
 1459000   0.67592408   -3.5313479      944.745  0.053960761  0.053407453            6 
 1460000   0.66990836   -3.5605603    949.68837  0.054205957  0.053380213            5 
 1461000   0.68112472    -3.530648    947.67116  0.054053796   0.05335305            4 
 1462000   0.68327255   -3.5724734    945.59342  0.053898394  0.053325895            9 
 1463000   0.66163165   -3.5358384    945.87026  0.053877322  0.053298674            4 
 1464000   0.68050487   -3.5491918    947.78689  0.053949618  0.053271593            9 
 1465000   0.67741194   -3.5566602    947.11933   0.05387482  0.053244232            8 
 1466000   0.66144941   -3.5481636    949.08575   0.05394985  0.053217026            8 
 1467000   0.66597169   -3.5483548    947.36296   0.05381521  0.053189947            5 
 1468000   0.67121279   -3.5598276    948.10391  0.053820613  0.053162799            3 
 1469000   0.65498843   -3.5344462    947.95053  0.053775274  0.053135716            7 
 1470000   0.65453864   -3.5420728    954.15228  0.054090265  0.053108631            7 
 1471000   0.67461362   -3.5463545    951.76904  0.053918482   0.05308161            6 
 1472000   0.67245624   -3.5629918    950.36407  0.053802314  0.053054646            4 
 1473000   0.67893706   -3.5322967    949.80294  0.053734043  0.053027758           12 
 1474000   0.66073851   -3.5431203    952.34324  0.053841205   0.05300091            5 
 1475000   0.66851455   -3.5425585    951.52823  0.053758657  0.052973975            6 
 1476000   0.66369321   -3.5504621    952.05077  0.053751737  0.052947184            5 
 1477000   0.66371594   -3.5466514    949.37126  0.053564165  0.052919981            4 
 1478000   0.65805207    -3.563813    948.84524  0.053498265    0.0528927            3 
 1479000   0.65761571   -3.5583064    949.67911  0.053509077  0.052865571            9 
 1480000   0.65638126   -3.5441462    947.89438  0.053372431  0.052838313            7 
 1481000   0.65865026   -3.5719226    949.63886  0.053434552   0.05281109           11 
 1482000   0.65103938   -3.5432123    949.28644  0.053378679  0.052783497            5 
 1483000   0.66748354   -3.5357231    951.20548  0.053450521  0.052756444            5 
 1484000   0.65290816   -3.5744676    950.93483  0.053399305   0.05272937            4 
 1485000   0.65375615   -3.5427899    951.51008  0.053395628  0.052702391            4 
 1486000   0.65059893   -3.5526547      952.349  0.053406741  0.052675373            9 
 1487000   0.67671987   -3.5042306    956.17234   0.05358509  0.052648618            6 
 1488000    0.6596742   -3.5586449     954.5959  0.053460792   0.05262183            7 
 1489000   0.64878192   -3.5519311     952.9326    0.0533318   0.05259503            4 
 1490000   0.66268567    -3.579618    953.38203  0.053321142  0.052567953            7 
 1491000   0.65343274   -3.5696402    951.75703  0.053194558  0.052541028            5 
 1492000    0.6611865   -3.5402329    955.54042   0.05337022  0.052514138            6 
 1493000    0.6678062    -3.563658    954.84084  0.053295425  0.052487659            8 
 1494000   0.64528101   -3.5612702     955.6157  0.053302973  0.052460868            5 
 1495000   0.64589946   -3.5474057    953.05115  0.053124367    0.0524342           10 
 1496000   0.64267201   -3.5390347    956.25081   0.05326709  0.052407553            8 
 1497000   0.66320543   -3.5608597    957.20369  0.053284552  0.052380991            6 
 1498000   0.65908468   -3.5919414    953.71076  0.053054671  0.052354134           10 
 1499000   0.64486444   -3.5833668    955.95493  0.053144037  0.052327273            6 
 1500000   0.65931165   -3.5694695    957.43331   0.05319074  0.052300432            6 
 1501000    0.6602888    -3.566325    955.38357  0.053041504  0.052273761            5 
 1502000   0.64974032   -3.5582216    954.71602  0.052969153  0.052247126           16 
 1503000    0.6370266   -3.5751323    956.47757   0.05303158  0.052220467           17 
 1504000   0.65629594   -3.5730168    956.94878  0.053022428   0.05219379            6 
 1505000   0.66331242   -3.5616511    958.78938  0.053089113  0.052167285            7 
 1506000   0.63199696   -3.5675489     957.3283  0.052973013  0.052140595            9 
 1507000   0.65450805   -3.5673024    955.46634  0.052834901  0.052114057            4 
 1508000   0.64394971    -3.562818    955.31136    0.0527913  0.052087449           10 
 1509000    0.6538692   -3.5413515    959.43738  0.052984171  0.052061061            6 
 1510000   0.64777908   -3.5731756    958.90698  0.052919811  0.052034521            5 
 1511000   0.64624271   -3.5757542    958.85269  0.052881794  0.052007945            8 
 1512000   0.66670752   -3.5539879    961.46814  0.052990969  0.051981576            3 
 1513000   0.64157475   -3.5818978    958.48636  0.052791714  0.051955123            6 
 1514000   0.64681607   -3.5719475    958.64638  0.052765653  0.051928716            8 
 1515000   0.62550363   -3.5599337    957.06708  0.052643954  0.051902281           14 
 1516000   0.64790889   -3.5726383    960.01406  0.052771221  0.051876074            9 
 1517000   0.66275061   -3.5709542    960.48846  0.052762495  0.051849681            6 
 1518000   0.65441669    -3.567335    960.75638  0.052742445  0.051823322            6 
 1519000   0.65321338   -3.5787074    962.49834  0.052803288  0.051796954            9 
 1520000   0.65314745   -3.5778051     961.5052  0.052714101  0.051770468           10 
 1521000   0.65302263   -3.5625466    961.59274   0.05268424  0.051744025            8 
 1522000   0.65248028   -3.5865322    960.43703  0.052586346  0.051717745            7 
 1523000   0.64960331   -3.5845027    960.37039  0.052548172  0.051691507            8 
 1524000    0.6435999   -3.5779435    963.44008  0.052681544   0.05166504            5 
 1525000   0.63864527   -3.6060651    964.81524  0.052722144  0.051638922            3 
 1526000   0.64178648   -3.5937211    962.30449  0.052550486  0.051612652            7 
 1527000   0.63574084   -3.5812751    964.25405  0.052622465  0.051586479            6 
 1528000   0.64589918   -3.5807201    960.55254  0.052386155  0.051560346            6 
 1529000   0.64875634   -3.5846188    964.91851  0.052589847  0.051534385            6 
 1530000    0.6450397   -3.5803862    964.99581  0.052559684  0.051508436            6 
 1531000   0.63305301   -3.6054728     966.5744  0.052611278  0.051482611            8 
 1532000   0.65424834   -3.5947958    961.72326  0.052313058  0.051456608            8 
 1533000   0.64719739   -3.6097902    963.74885  0.052389044  0.051430651            9 
 1534000    0.6320032   -3.5822136    965.07256  0.052426801  0.051404776            7 
 1535000   0.64185713   -3.5810432    965.77575  0.052430822  0.051378845           19 
 1536000   0.62692861    -3.596328    965.94495  0.052405867  0.051352964            9 
 1537000   0.63327421   -3.5922491    963.28452  0.052227528  0.051326979            4 
 1538000   0.64451787   -3.5828336     965.6523  0.052321863  0.051301289           10 
 1539000   0.64030012   -3.5819361    965.65766  0.052288156  0.051275557            9 
 1540000   0.65568353   -3.5923788    965.96432  0.052270797  0.051249873            6 
 1541000   0.63552959   -3.6116803    962.87084  0.052069589  0.051224032           10 
 1542000   0.61163438   -3.5866679    967.53896  0.052288098  0.051198268            6 
 1543000   0.63981437    -3.606676    966.04334  0.052173436   0.05117249            9 
 1544000   0.64970175   -3.5823488    967.28593  0.052206711  0.051146925            6 
 1545000   0.63896788   -3.5893708    967.76521  0.052198771  0.051121277            8 
 1546000    0.6365156   -3.5740541    965.95608   0.05206749  0.051095502            6 
 1547000   0.63766701   -3.5931514    963.75771  0.051915412  0.051070021            5 
 1548000   0.64675423    -3.604721    968.97519  0.052162747  0.051044243            7 
 1549000   0.61414271   -3.6137584     966.6246  0.052002614  0.051018479            4 
 1550000   0.62904847   -3.5968379    967.90367  0.052037832  0.050992868            9 
 1551000   0.63287845   -3.6000371    969.41108  0.052085272  0.050967049            5 
 1552000   0.63391517   -3.5916702    968.35725  0.051995127  0.050941627            4 
 1553000   0.64358662   -3.6080823    969.32826  0.052013751  0.050916019           11 
 1554000   0.63633196   -3.5922039    967.68784  0.051892312  0.050890306            6 
 1555000   0.63281622   -3.5907341    969.01632  0.051930135  0.050864604            8 
 1556000   0.63694009   -3.5906091    968.73481  0.051881684  0.050839092            5 
 1557000   0.63175745   -3.6021566    969.57277  0.051893212  0.050813564            5 
 1558000   0.63453396   -3.6089724    971.68591   0.05197293  0.050787947            5 
 1559000   0.62628097   -3.5846293    970.84848   0.05189483  0.050762319            6 
 1560000   0.64515099   -3.6051115    968.78333  0.051751246  0.050736548           12 
 1561000   0.63308225   -3.6315209    967.85807  0.051668699  0.050710849           13 
 1562000   0.62568437   -3.6062623     968.6077  0.051675614  0.050685167            5 
 1563000   0.63528327   -3.6017706    969.07641  0.051667542  0.050659498            6 
 1564000   0.63000897   -3.6199142    969.37019  0.051650159  0.050633742           12 
 1565000   0.63389515   -3.6141936    971.12575  0.051710636  0.050608198            9 
 1566000   0.62940163    -3.611179    969.72193  0.051602912  0.050582505            6 
 1567000   0.63801052   -3.6416353    967.96735  0.051476672  0.050556695           10 
 1568000   0.63711762   -3.6179956    971.11461  0.051611108  0.050530955            5 
 1569000   0.64243623   -3.6109601    970.98317  0.051571233  0.050505303            6 
 1570000   0.62725111   -3.6092976    967.01648  0.051327839  0.050479505           12 
 1571000   0.62698935   -3.6102742    968.64492  0.051381547  0.050453836            5 
 1572000   0.61704256    -3.617014     970.6085  0.051452953  0.050428123            6 
 1573000   0.62325241   -3.6047373    972.89023  0.051541122  0.050402443            7 
 1574000   0.62413826   -3.6241382    970.10696  0.051361021  0.050376714            3 
 1575000   0.62433774   -3.6346558    969.35257  0.051288496  0.050350969           11 
 1576000   0.62581208   -3.6278916    970.96537  0.051341232  0.050325285           12 
 1577000   0.62687274   -3.6152785    970.48352  0.051283213  0.050299734           10 
 1578000   0.61625515   -3.6165159     971.6676  0.051313244  0.050274146           11 
 1579000   0.62623259   -3.6372793    971.77691  0.051286516  0.050248403            4 
 1580000   0.61413745   -3.6254819    969.22192  0.051119299  0.050222989            6 
 1581000   0.62688182    -3.607214    971.18582  0.051190482  0.050197627            9 
 1582000   0.61244715   -3.6315749    971.58828  0.051179324  0.050172122            6 
 1583000   0.62783803   -3.6197172     975.9851  0.051378453  0.050146577            6 
 1584000    0.6203895   -3.6186717    974.28656  0.051256658  0.050121318           13 
 1585000   0.61782925   -3.6044332    971.87238  0.051097391  0.050095984           10 
 1586000   0.62485907   -3.5979883     976.1031  0.051287468  0.050070495            6 
 1587000    0.6281997   -3.6327296    977.09749  0.051307367   0.05004512           11 
 1588000   0.62441805   -3.6306227    975.89216  0.051211805   0.05001977            9 
 1589000   0.63231043   -3.6437657     972.3773  0.050995243   0.04999416           14 
 1590000   0.62397406   -3.6222674    972.24661  0.050956321  0.049968563           10 
 1591000   0.61065255   -3.6324969    975.62809  0.051101409  0.049942917            6 
 1592000     0.628372   -3.6372033    973.46422  0.050956042  0.049917258           17 
 1593000    0.6198419    -3.613443    973.25462  0.050913089  0.049891647            8 
 1594000   0.62269082   -3.6401147    972.97883  0.050866731  0.049866043            8 
 1595000   0.62227454   -3.6366908    973.04809  0.050838458  0.049840343            4 
 1596000   0.59872855   -3.6454095    972.92443  0.050800148  0.049814542            5 
 1597000   0.61896626   -3.6501814    973.62522  0.050804906  0.049789037            8 
 1598000   0.62161359   -3.6426116    975.86878  0.050890111  0.049763363           18 
 1599000   0.62771258   -3.6306566    976.35746  0.050883753  0.049737915           24 
 1600000   0.61674946   -3.6350377    973.32605  0.050694065  0.049712556            9 
 1601000   0.62000703   -3.6201175    972.54261  0.050621622  0.049687284           13 
 1602000   0.62482096   -3.6264298    973.69834  0.050650142  0.049661891           15 
 1603000   0.61601611   -3.6314612    975.47096  0.050710697  0.049636609            8 
 1604000    0.6199171   -3.6385403    971.62733  0.050479392  0.049611224           13 
 1605000   0.61222954   -3.6521055    972.66849  0.050501999  0.049585699            6 
 1606000   0.61606146   -3.6403936    975.57742  0.050621493  0.049560169           12 
 1607000   0.61722067   -3.6329699    974.50402   0.05053433  0.049534679            7 
 1608000   0.62162284   -3.6331925    978.36402  0.050702944  0.049509457            8 
 1609000   0.61786262   -3.6354717    979.28858  0.050719317   0.04948433           12 
 1610000   0.60368047   -3.6382443     979.1111  0.050678628  0.049459311           13 
 1611000   0.61066472   -3.6480134    978.24475  0.050602356  0.049434224            6 
 1612000   0.61332694   -3.6368291    977.88429  0.050552331  0.049409121            5 
 1613000   0.61278316   -3.6440445    977.66295  0.050509555    0.0493841           10 
 1614000   0.60656969   -3.6446376    980.11257  0.050604738  0.049359038            6 
 1615000   0.59830635    -3.648769    977.40808  0.050433854  0.049334028            4 
 1616000   0.60764051   -3.6365358    978.14941  0.050440873  0.049308944           15 
 1617000    0.6004714   -3.6464095    979.02439  0.050454772  0.049283661            6 
 1618000   0.61125351   -3.6578698    978.36906  0.050389836  0.049258562            6 
 1619000    0.5964898   -3.6418761    979.75322  0.050429958  0.049233774            6 
 1620000   0.59863752   -3.6409399    977.66917  0.050291624   0.04920873           12 
 1621000    0.6088351   -3.6528486    978.42378  0.050299393  0.049183751            5 
 1622000   0.60249755   -3.6626591    976.53401  0.050171291  0.049158596            8 
 1623000   0.59546141   -3.6635194    978.82692  0.050258109   0.04913345            7 
 1624000   0.59820649   -3.6544783    978.45589  0.050208122  0.049108507           17 
 1625000   0.60210924    -3.632557    982.39291  0.050379123  0.049083318            4 
 1626000   0.61241206   -3.6601429    981.33024  0.050293678  0.049058286            7 
 1627000   0.59251034   -3.6613146    978.11766   0.05009822  0.049033195            8 
 1628000   0.61359927   -3.6526389    979.25632  0.050125733  0.049007862            6 
 1629000   0.59822181   -3.6518884    978.64786  0.050063835  0.048982676            7 
 1630000   0.60600696   -3.6802347    979.20731  0.050061723  0.048957587           12 
 1631000   0.59372785   -3.6371843    979.40777  0.050041272  0.048932581            7 
 1632000   0.59909644   -3.6502065    978.04165  0.049940852  0.048907473            8 
 1633000   0.60600059   -3.6471726     979.3259  0.049975806  0.048882304            6 
 1634000   0.60944561   -3.6537371    979.39625  0.049948809  0.048857178            7 
 1635000   0.60423494   -3.6587621     981.4815  0.050024541    0.0488322            7 
 1636000   0.58766842   -3.6628613    980.63732  0.049950964  0.048807037           12 
 1637000   0.59370948   -3.6704805    981.92162  0.049985829   0.04878181           20 
 1638000   0.61210032   -3.6567627    977.71236  0.049741166  0.048756408           19 
 1639000   0.58733156   -3.6580537    980.43523  0.049849259   0.04873105           11 
 1640000   0.60055835   -3.6599121    980.11269  0.049802474  0.048705653            7 
 1641000   0.61102926   -3.6686965    980.63734  0.049798768  0.048680449           12 
 1642000   0.60842179   -3.6668716    981.59048  0.049816813   0.04865522            7 
 1643000    0.5998396   -3.6626585    983.39256  0.049877894   0.04862995           26 
 1644000   0.59089028   -3.6548202    977.63898   0.04955591  0.048604802            7 
 1645000   0.59639421   -3.6501786    982.40145  0.049767044    0.0485794           10 
 1646000   0.59866957   -3.6746636     980.4813  0.049639596  0.048553995            5 
 1647000   0.58011138   -3.6768623    979.46612  0.049558092  0.048528358            6 
 1648000   0.60164363   -3.6723887     979.9831  0.049554162  0.048502887            9 
 1649000   0.58758752   -3.6628771    979.15858  0.049482443  0.048477522            7 
 1650000   0.61702987   -3.6951607    981.97506    0.0495947   0.04845206           12 
 1651000   0.57867856   -3.6643559    981.57955  0.049544698  0.048426715            5 
 1652000   0.59817144   -3.6617046    986.29517  0.049752581  0.048401404           12 
 1653000   0.59196989   -3.6625788    983.23876  0.049568399  0.048376211            5 
 1654000   0.58702755   -3.6633382    982.17237  0.049484702  0.048351101            4 
 1655000   0.59299312   -3.6769701    983.39917  0.049516575  0.048325945           11 
 1656000   0.59155836   -3.6716475    979.90583  0.049310881  0.048300663           12 
 1657000   0.58737265   -3.6757698    983.47142  0.049460441  0.048275409           14 
 1658000   0.59189025   -3.6893006    981.07848  0.049310338  0.048250223            7 
 1659000   0.59498705   -3.6914594      981.007  0.049277024  0.048225125            6 
 1660000   0.58396652   -3.6676757    981.75691  0.049284986   0.04819996           17 
 1661000   0.57702442   -3.6658671     982.4106  0.049288109  0.048174698            5 
 1662000   0.59361431   -3.6745231    982.47032  0.049261448  0.048149518            6 
 1663000   0.59349471   -3.6527749    983.81802  0.049299359  0.048124386            8 
 1664000   0.56775557   -3.6859165    985.10831   0.04933435  0.048099334            4 
 1665000   0.58956912   -3.6976894    983.96131  0.049247313  0.048074094           12 
 1666000   0.58561026   -3.6934095    982.68315  0.049153819  0.048048833            7 
 1667000   0.58509865    -3.688741     983.1959  0.049149965   0.04802366           10 
 1668000   0.59015876   -3.6844348    980.04188  0.048962923  0.047998325            6 
 1669000   0.58311575     -3.69381    980.88149  0.048975509  0.047972981           15 
 1670000   0.56925453   -3.6646112    983.81188  0.049092409  0.047947875           11 
 1671000   0.58664573    -3.688968    984.20637  0.049082704  0.047922782            6 
 1672000   0.57858654   -3.6867345    980.43863  0.048865562  0.047897504            9 
 1673000   0.58379396   -3.6885055    981.80054  0.048904191  0.047872201            8 
 1674000   0.60333331   -3.6655625    983.02897   0.04893613  0.047846917            7 
 1675000   0.57358829   -3.6661564    983.01423  0.048906181  0.047821738           11 
 1676000   0.58869662   -3.6940319     985.3937  0.048995311  0.047796603            8 
 1677000    0.5965635   -3.6597189    982.55746  0.048825157  0.047771689            5 
 1678000   0.58786446   -3.6706494    986.62349  0.048997988  0.047746664            7 
 1679000   0.57963171   -3.7112527     983.3117  0.048804432  0.047721716            8 
 1680000   0.56870083   -3.7202116    982.63586  0.048741858  0.047696439           32 
 1681000   0.58863092   -3.6767461    985.43979  0.048851864  0.047671449           15 
 1682000   0.58503418   -3.6927404    984.25437  0.048764089  0.047646378            8 
 1683000   0.57121738   -3.6761573    985.74562  0.048808953  0.047621535            5 
 1684000   0.58019801   -3.6759688    984.46134  0.048716416  0.047596495            4 
 1685000   0.58292619   -3.6918814     984.1362  0.048671424  0.047571484            9 
 1686000   0.58670106   -3.6943339    986.66848  0.048767718  0.047546555            7 
 1687000   0.58577531   -3.7046939    985.06836  0.048659769  0.047521551            6 
 1688000     0.570579   -3.7053385    985.51919  0.048653199  0.047496485            5 
 1689000   0.58751685   -3.7067765    986.89088   0.04869207   0.04747147            9 
 1690000   0.59348761   -3.7021437    983.47492  0.048494818  0.047446465           12 
 1691000    0.5838511   -3.7056626    986.62571  0.048621413  0.047421657           23 
 1692000   0.57809293   -3.6992041    985.33914  0.048529311   0.04739653            6 
 1693000   0.57528725   -3.7175454    986.45698   0.04855567  0.047371585            6 
 1694000   0.56248685    -3.691697    986.23017  0.048515848  0.047346699            8 
 1695000   0.58246164    -3.676658    987.04162   0.04852712  0.047321781            9 
 1696000   0.57455001   -3.7060104    986.58314   0.04847598  0.047296943           19 
 1697000    0.5740651   -3.7041532    987.15001  0.048475251  0.047272085            9 
 1698000   0.56514636   -3.6763701    985.29148  0.048355491  0.047247265            7 
 1699000   0.57226805    -3.728464    986.77454  0.048399772  0.047222617           11 
 1700000   0.56907227   -3.7041003    985.81269  0.048324151  0.047197825           14 
 1701000   0.57358392   -3.7036813    989.67244  0.048484834  0.047172974           13 
 1702000   0.58350556   -3.7098808    989.83964  0.048464534  0.047148223           12 
 1703000   0.57170417   -3.7046893    987.60259   0.04832661  0.047123382           11 
 1704000   0.55880319   -3.7055366    988.40227  0.048337357  0.047098606            6 
 1705000   0.56337225   -3.7268889    988.35871  0.048306878  0.047073766            7 
 1706000   0.56794131   -3.7122971    989.97886  0.048357701  0.047049134            9 
 1707000   0.58204057   -3.7113458    987.14142  0.048190852  0.047024467            6 
 1708000   0.58226836   -3.7310123    987.34909   0.04817277  0.046999714            8 
 1709000   0.55728624   -3.7141662    986.99629  0.048127379   0.04697495            9 
 1710000   0.57699154   -3.7048938    987.72138   0.04813457  0.046950231            7 
 1711000   0.57251802   -3.7145933    988.91024  0.048164341   0.04692565           16 
 1712000   0.57685058   -3.7122607    987.71476  0.048078016  0.046901126            8 
 1713000   0.57970799   -3.6987232    985.77217  0.047955447  0.046876514            9 
 1714000   0.57906797   -3.7202068    989.77199  0.048121936  0.046851946            7 
 1715000   0.57017325   -3.7194255    990.09758  0.048109698  0.046827359            8 
 1716000    0.5742822   -3.7141677    989.37747  0.048046692   0.04680272           11 
 1717000   0.57659186   -3.7183438    992.10621  0.048151146  0.046778189           12 
 1718000   0.56272763   -3.7146059    991.11158  0.048074873  0.046753735           14 
 1719000   0.57329111   -3.7155641    990.76456  0.048030084  0.046729115           16 
 1720000   0.56065596   -3.7149631    988.61305  0.047897919  0.046704438           12 
 1721000   0.56539582   -3.7099838    989.93197  0.047933952  0.046679713           21 
 1722000   0.58338287   -3.7051571    990.25913  0.047921948  0.046655191            9 
 1723000   0.56235686   -3.7177412    988.27311  0.047798081  0.046630627           10 
 1724000    0.5625969   -3.7039577    987.71898   0.04774357  0.046606054           10 
 1725000   0.56576823   -3.7316705    991.04334   0.04787649   0.04658146            5 
 1726000   0.57769197   -3.7009401    990.16627  0.047806406  0.046556962           11 
 1727000   0.54830595   -3.7132303    988.53451  0.047699986  0.046532323            5 
 1728000   0.56079647   -3.7225521    989.44362  0.047716224  0.046507686           14 
 1729000   0.55692243   -3.7166644    989.93401  0.047712262  0.046483145            9 
 1730000   0.56611675   -3.7010539    992.13719  0.047790809   0.04645848           13 
 1731000    0.5710131   -3.7193282    991.15852  0.047716085  0.046433923            9 
 1732000   0.55284622   -3.7151359    990.21203  0.047642996  0.046409306            6 
 1733000   0.56445164   -3.7265723    990.32716   0.04762104  0.046384832           14 
 1734000    0.5556549   -3.7324482    989.39754  0.047548902  0.046360099           15 
 1735000   0.55972224   -3.7267127    990.99361  0.047598156  0.046335443            6 
 1736000   0.57437286   -3.6973754    990.21282  0.047533257  0.046310911            7 
 1737000   0.56808602   -3.7192128    992.77056  0.047628601  0.046286364            9 
 1738000   0.56150753    -3.725195    990.62726   0.04749843  0.046261824            8 
 1739000   0.55204964   -3.7202716    992.64832  0.047567966  0.046237361            8 
 1740000   0.55471853   -3.7282331    993.21228  0.047567638  0.046212903           11 
 1741000   0.56025554   -3.7271181    990.50351   0.04741066  0.046188293           12 
 1742000   0.56092671   -3.7252711    991.76156  0.047443626   0.04616379            8 
 1743000   0.55435982   -3.7136091    987.95861  0.047234586  0.046139365           14 
 1744000   0.56537774   -3.7526191     990.0613  0.047307975  0.046114956           18 
 1745000   0.56209118   -3.7461028    991.56805   0.04735282   0.04609041           11 
 1746000   0.55229343   -3.7401295    988.72236   0.04718988  0.046065911            7 
 1747000   0.54738385   -3.7205698    990.49915  0.047247622  0.046041361           18 
 1748000   0.54742414   -3.7246424    987.83959  0.047093802  0.046016657            9 
 1749000   0.55592884   -3.7203008    991.18381  0.047226216  0.045992079            9 
 1750000   0.55383222   -3.7148694    992.05573  0.047240749  0.045967495            8 
 1751000    0.5440187   -3.7311362    990.75554  0.047151891  0.045942911           12 
 1752000   0.55482504   -3.7460316    990.22392  0.047099692  0.045918223            9 
 1753000   0.55309581    -3.738666    991.73501  0.047144657  0.045893434            7 
 1754000   0.54441776   -3.7450377     990.5235  0.047060219  0.045868826            8 
 1755000   0.55870868   -3.7418378    991.87018   0.04709735   0.04584422           14 
 1756000   0.55317716    -3.736853    990.63051  0.047011698  0.045819634           15 
 1757000   0.55054956   -3.7461002    990.54511  0.046980891   0.04579495            6 
 1758000   0.55449665   -3.7269509    990.69725  0.046961379  0.045770316           10 
 1759000   0.54582287   -3.7368508    992.74297  0.047031598  0.045745841           36 
 1760000   0.56085772   -3.7421471    992.21566  0.046979908  0.045721158           15 
 1761000   0.54947157    -3.755366    988.40657  0.046772978  0.045696543            6 
 1762000   0.55693578   -3.7507864    992.50268  0.046940157  0.045671763            8 
 1763000   0.54630426   -3.7591807    990.55425  0.046821434  0.045647212            7 
 1764000   0.55150655   -3.7701957     991.1797  0.046824438  0.045622602           10 
 1765000    0.5512293   -3.7327911    993.93354  0.046927929  0.045598063           16 
 1766000   0.54966553   -3.7532239      991.532  0.046788033  0.045573629           13 
 1767000   0.54635661    -3.768546    991.52599  0.046761271  0.045548991            9 
 1768000   0.54363355   -3.7584541    991.29113  0.046723752  0.045524353           14 
 1769000   0.55699287   -3.7683869    991.87288  0.046724745  0.045499652           18 
 1770000   0.53895136   -3.7539777    990.71081  0.046643635  0.045474901            8 
 1771000   0.55297387   -3.7552117    990.57073  0.046610706  0.045450238           13 
 1772000   0.54093633   -3.7483789     992.4268  0.046671689  0.045425645           15 
 1773000   0.54406918    -3.738389    994.06925  0.046722563  0.045401212            9 
 1774000    0.5598248   -3.7583663    992.61918  0.046628109  0.045376682            9 
 1775000   0.55742445   -3.7468282    992.27106  0.046585496  0.045352208            9 
 1776000     0.554087   -3.7832596    988.56397  0.046385322  0.045327569            9 
 1777000   0.54887192   -3.7679862    992.55224   0.04654625  0.045303015            8 
 1778000   0.54985289   -3.7466414     991.8859   0.04648884  0.045278625           11 
 1779000    0.5456742   -3.7848146    990.38738  0.046392514  0.045254217           12 
 1780000   0.54532496    -3.749978    991.70605  0.046428186  0.045229892            6 
 1781000   0.55508183   -3.7731178    992.09375  0.046420258  0.045205542           14 
 1782000   0.54333189   -3.7506693    993.44482   0.04645739   0.04518126           21 
 1783000   0.53427122   -3.7505984    994.59038  0.046484875  0.045156882            5 
 1784000    0.5382809   -3.7736263    993.93283  0.046428103  0.045132564           12 
 1785000   0.53684961   -3.7718551    992.41121  0.046331056  0.045108165           18 
 1786000   0.53195643   -3.7762525    994.20134   0.04638864  0.045083782           25 
 1787000   0.53759958   -3.7693132    994.99953  0.046399903  0.045059465           12 
 1788000   0.53858927   -3.7780768     995.0824  0.046377815  0.045035062           12 
 1789000   0.55608316   -3.7925794    991.72651  0.046195571  0.045010592           19 
 1790000   0.54058031    -3.769489    994.61238  0.046304115   0.04498612           12 
 1791000   0.54039241   -3.7560463    993.31574  0.046217929  0.044961608           10 
 1792000   0.53028304   -3.7827935    992.53357  0.046155765  0.044937141           17 
 1793000    0.5356275   -3.7738339    993.99229   0.04619782  0.044912721           17 
 1794000   0.53643989   -3.7700503    992.17166  0.046087498   0.04488833           19 
 1795000   0.52845465   -3.7790162     994.8724  0.046187205  0.044863924            6 
 1796000   0.52954507   -3.7792896    992.28839  0.046041592  0.044839547           28 
 1797000   0.54053703    -3.757817    994.84104  0.046134346  0.044815219           10 
 1798000   0.54284226   -3.7853242    993.32853  0.046038586  0.044791076           19 
 1799000   0.54154855   -3.7799482    995.33668  0.046106016  0.044766901           14 
 1800000   0.53268788   -3.7786715     993.2882  0.045985565  0.044742525           29 
 1801000   0.53973467    -3.768139    994.19143  0.046001824  0.044718165           14 
 1802000   0.52892648   -3.7876546    995.20565  0.046023199  0.044693939           22 
 1803000   0.53469118    -3.783586    995.63846  0.046017677  0.044669618            7 
 1804000   0.53246604   -3.7858359    994.41494  0.045935649  0.044645318            8 
 1805000   0.54345982   -3.7721475    994.75854  0.045926064  0.044621012           18 
 1806000   0.53111231   -3.7848321    995.28754  0.045925043  0.044596759            8 
 1807000   0.52287693   -3.7705609    995.51218  0.045909988  0.044572562           21 
 1808000   0.52934383   -3.7858634    994.38777  0.045832769  0.044548243           10 
 1809000   0.52618993   -3.7580637    997.53178  0.045952265   0.04452417            8 
 1810000   0.52921698   -3.7867831    995.64291  0.045839913  0.044500137            7 
 1811000   0.52773981   -3.7770806     996.7174  0.045864044  0.044476173            7 
 1812000   0.52372765   -3.7771983    996.35794  0.045822201  0.044452033           12 
 1813000   0.53332051   -3.7765826    996.47524  0.045802318  0.044428026           12 
 1814000   0.53273316   -3.7937384    993.99336  0.045663054  0.044403887           32 
 1815000   0.52765926   -3.7863235    993.94877  0.045635848  0.044379646           22 
 1816000   0.52439698   -3.7864295    994.58363  0.045639851  0.044355453           20 
 1817000   0.53006276   -3.7951328      995.553  0.045659191  0.044331265           19 
 1818000   0.52922796   -3.7834895    994.51488  0.045586491  0.044307021           31 
 1819000   0.51373115   -3.7833822     995.5503  0.045608865  0.044282824           14 
 1820000   0.53405977   -3.7785926    993.09127  0.045471212  0.044258573           17 
 1821000   0.53089411   -3.7973692    992.83325  0.045434434  0.044234285            8 
 1822000   0.53278506   -3.8099869     993.3222  0.045431861   0.04420991           14 
 1823000   0.52776815   -3.7898643    995.74457  0.045517671  0.044185562           14 
 1824000   0.53149902   -3.7959939    992.71331  0.045354227  0.044161199           17 
 1825000     0.526553   -3.7832242    992.59982  0.045324193  0.044136639            5 
 1826000   0.51510467   -3.7897627    994.09537  0.045367624  0.044112276           18 
 1827000   0.52666167   -3.7831717    993.52115    0.0453166  0.044087976           13 
 1828000   0.52672209   -3.7921446    992.02016  0.045223384  0.044063662           11 
 1829000   0.51702459   -3.8128113    994.78482  0.045324623  0.044039338           14 
 1830000   0.51393826   -3.7878431    995.92912  0.045351963  0.044015056            8 
 1831000   0.52784363   -3.7916644    997.21435  0.045385689  0.043990832            9 
 1832000   0.51884526   -3.7993659    993.04999  0.045171488  0.043966615           11 
 1833000   0.52149025    -3.804767    993.32877  0.045159519  0.043942248           20 
 1834000   0.51993729   -3.8059006    996.99699  0.045301572  0.043917956           15 
 1835000   0.52254338   -3.8023112    994.46756  0.045162014  0.043893668           14 
 1836000    0.5273067   -3.8088708    992.84315  0.045063687  0.043869246           10 
 1837000   0.51644587   -3.8152947    995.82227    0.0451743  0.043844883           17 
 1838000   0.51995045   -3.8040409    993.99269  0.045066771  0.043820587           23 
 1839000   0.52334587   -3.8153079    994.71835  0.045075147  0.043796277            9 
 1840000   0.51643782   -3.7653428     995.1326  0.045069411  0.043772085           18 
 1841000   0.51417451   -3.8289446    995.34052  0.045054342  0.043747835            9 
 1842000   0.51433634   -3.8059022    996.14444  0.045066252  0.043723606           13 
 1843000   0.52275616   -3.8089987    994.16115  0.044952123  0.043699274           14 
 1844000   0.52673214   -3.8163336    994.28989  0.044933563   0.04367491           20 
 1845000   0.50612142   -3.8182785    995.24041  0.044952142  0.043650503           14 
 1846000   0.50893343   -3.8100881    990.50291  0.044713927  0.043626121           13 
 1847000   0.51653266   -3.7965065    994.38526  0.044864882  0.043601733           11 
 1848000   0.50908513   -3.8208455    995.72889  0.044901195  0.043577463           16 
 1849000   0.51481253   -3.8117158    993.98101  0.044798134  0.043553177           11 
 1850000   0.52482817   -3.7981529    995.93282  0.044861839  0.043529003            8 
 1851000    0.5151204    -3.803993    996.33834  0.044855859  0.043504853           16 
 1852000    0.5191793   -3.8160541    997.47714  0.044882881  0.043480661           18 
 1853000   0.51372111    -3.818553    993.15811  0.044664423  0.043456425           31 
 1854000   0.51670706   -3.8202008    993.43904  0.044652959  0.043432079           12 
 1855000   0.50582457   -3.8129055    993.79305  0.044644791  0.043407713           12 
 1856000   0.51050707    -3.841848    992.06943  0.044543347  0.043383298            9 
 1857000   0.51494325   -3.8298803    993.44096  0.044580908  0.043358948            9 
 1858000   0.51175017   -3.8181169    993.95503  0.044579971  0.043334709           10 
 1859000   0.51254949   -3.8152025     995.0689  0.044605921  0.043310559            9 
 1860000   0.50371247   -3.8134239    992.81782  0.044481085  0.043286388           16 
 1861000   0.51527836   -3.8026306    992.97385   0.04446417  0.043262136           18 
 1862000   0.50476088   -3.8158581    993.61979    0.0444692  0.043237867           12 
 1863000   0.50725981   -3.8174249     993.4732  0.044438772  0.043213546           14 
 1864000   0.50796646   -3.8272807    993.75634   0.04442759  0.043189307           13 
 1865000   0.51375189   -3.8457732    993.44334  0.044389783  0.043165063           14 
 1866000    0.5100189    -3.818983    994.60507  0.044417876  0.043140746           16 
 1867000    0.4936018   -3.8279419    995.27853  0.044424144  0.043116446           18 
 1868000   0.50804021   -3.8238178    995.54005  0.044412029   0.04309227           26 
 1869000    0.5115899   -3.8280391    995.41431   0.04438266  0.043068064           28 
 1870000   0.49464171   -3.8082958    995.85203  0.044378433  0.043043845           10 
 1871000   0.50533119   -3.8326519    995.02212   0.04431775  0.043019724           15 
 1872000   0.50018353    -3.819696    996.15026  0.044344296  0.042995596           27 
 1873000   0.51486238   -3.8326195    995.82079  0.044305961  0.042971485           14 
 1874000   0.48924118   -3.8277106    994.71391  0.044233098  0.042947383           10 
 1875000   0.50208522   -3.8278645    996.61267  0.044293896  0.042923296           16 
 1876000   0.49883528   -3.8281888    995.38227   0.04421563  0.042899221           19 
 1877000   0.49251086   -3.8330495    993.89937  0.044126237  0.042875095           28 
 1878000   0.49887849   -3.8252155    997.09374  0.044244486   0.04285094           15 
 1879000   0.49760405    -3.830197    994.07797   0.04408719  0.042826942           10 
 1880000   0.49693135   -3.8403444    994.27145  0.044072316  0.042802864           17 
 1881000   0.49283738   -3.8246399    996.58952  0.044151583  0.042778749           17 
 1882000   0.49874938   -3.8301589       992.96   0.04396741  0.042754742           20 
 1883000   0.51679313   -3.8249801    995.05721  0.044036874  0.042730683            8 
 1884000   0.49472197   -3.8344046     994.1083  0.043971528  0.042706625           12 
 1885000   0.50574805   -3.8254689    995.58086  0.044013301  0.042682524           20 
 1886000   0.49479437   -3.8286622    995.64507  0.043992801  0.042658453           11 
 1887000   0.50043667   -3.8370618    994.85373   0.04393454   0.04263443            7 
 1888000   0.50872487    -3.837301    994.24357  0.043884338  0.042610424            8 
 1889000   0.49955875   -3.8403082    994.45338  0.043870363  0.042586307            7 
 1890000   0.50269629   -3.8400219    993.81191  0.043818867  0.042562244           21 
 1891000   0.50660033   -3.8399266    995.49286  0.043869772  0.042538165            9 
 1892000   0.49636668   -3.8390627    995.10211  0.043829374  0.042514137           20 
 1893000   0.49226994   -3.8304803    994.35422  0.043773297  0.042490091           12 
 1894000   0.51063373   -3.8450663     993.1508  0.043697237  0.042466002           13 
 1895000   0.50115798   -3.8519399    993.51103  0.043690019  0.042441819            8 
 1896000    0.4835449   -3.8336782    994.96306  0.043730795  0.042417712           26 
 1897000   0.49196171   -3.8632738    994.51201  0.043687929  0.042393653           27 
 1898000   0.49405385   -3.8359263    995.36075  0.043702176  0.042369584           38 
 1899000   0.49765687   -3.8493938    995.24535  0.043674098  0.042345557           20 
 1900000   0.49190202   -3.8680382    993.03048  0.043553968  0.042321453           13 
 1901000   0.49541096   -3.8518271     993.3155  0.043543552  0.042297348           15 
 1902000   0.50237813     -3.83634    995.95874  0.043636468  0.042273301            7 
 1903000   0.49968892   -3.8462075    992.39613  0.043457529  0.042249249           13 
 1904000   0.49833487   -3.8556662    993.17804  0.043468927  0.042225237           18 
 1905000   0.50283987   -3.8538013    992.44226  0.043413922  0.042201057           29 
 1906000   0.48136941   -3.8393905    994.95465   0.04350099  0.042176967           20 
 1907000   0.49246664   -3.8626047    995.55455  0.043504394  0.042152892           21 
 1908000   0.49978004   -3.8553086    994.92886  0.043454265   0.04212873           27 
 1909000   0.49294743   -3.8476439    995.03764  0.043436251  0.042104673           14 
 1910000   0.48116491   -3.8508672    996.78521  0.043489756  0.042080611           12 
 1911000   0.49508643   -3.8486391    994.00483  0.043345754  0.042056485            9 
 1912000   0.48990668   -3.8571011    994.43458  0.043341814  0.042032406           17 
 1913000   0.48340125    -3.867012    993.56002   0.04328106  0.042008348           34 
 1914000   0.48916115   -3.8604869    993.67436  0.043263426  0.041984308           32 
 1915000   0.49293205   -3.8635814    993.94657  0.043252679  0.041960299           13 
 1916000   0.49185835   -3.8825266    991.17452  0.043109539  0.041936189           33 
 1917000   0.46368042   -3.8478478    991.57405  0.043104419  0.041912022           12 
 1918000   0.48517904   -3.8507542    991.96214  0.043098807  0.041887976           21 
 1919000   0.49497156   -3.8673834     993.3303  0.043135761  0.041863914           21 
 1920000   0.47478936   -3.8749294     995.4495  0.043205274  0.041839755           25 
 1921000   0.49695958   -3.8713646    994.05137  0.043122131  0.041815611           37 
 1922000    0.5039168   -3.8644452          995  0.043140826   0.04179147           15 
 1923000   0.48686682   -3.8613342    995.45828  0.043138251  0.041767385           24 
 1924000   0.47652494   -3.8727685    992.27629   0.04297801  0.041743281           15 
 1925000   0.49525865   -3.8678986    993.23476  0.042997176  0.041719157           44 
 1926000   0.47598031    -3.876254    992.72676  0.042952871  0.041695043           18 
 1927000   0.48733713   -3.8635757    992.11496  0.042904124  0.041670846           22 
 1928000   0.47813108   -3.8757756    991.86495  0.042871064  0.041646585           32 
 1929000   0.48929057   -3.8755459    992.35029  0.042869807  0.041622335           36 
 1930000   0.49143132   -3.8828042    990.25819  0.042757262  0.041598084           63 
 1931000   0.48531259   -3.8873139     988.6299   0.04266485  0.041573798           48 
 1932000   0.48303152   -3.8774068    991.25995  0.042756209  0.041549481           22 
 1933000   0.49089384   -3.8750315    990.37157  0.042695791  0.041525215           18 
 1934000   0.49035922   -3.8684932    992.12472  0.042749255  0.041501078           16 
 1935000   0.48504291   -3.8731174    992.38083  0.042738193  0.041476973           16 
 1936000   0.47516525   -3.8575056    992.96697  0.042741347  0.041452913           17 
 1937000   0.47024548   -3.8754359    993.49035  0.042741798  0.041428839           19 
 1938000   0.47798855     -3.87934    992.15711  0.042662415  0.041404723           20 
 1939000    0.4823717   -3.8921826    994.39012  0.042736381  0.041380552           24 
 1940000   0.47647134   -3.8812676     994.1728  0.042705017  0.041356508           13 
 1941000   0.47409468   -3.8838826    993.27003  0.042644257  0.041332571           10 
 1942000    0.4787447   -3.8698934    992.23814  0.042578018  0.041308554            8 
 1943000    0.4790457   -3.8948482    992.82618  0.042581325    0.0412845           23 
 1944000    0.4803348   -3.8720384    993.21964  0.042576288  0.041260404           19 
 1945000   0.46966422   -3.8822178    989.69447  0.042403362  0.041236397           14 
 1946000   0.47655339   -3.8972969    993.47057  0.042543276  0.041212284           32 
 1947000   0.46473994   -3.8822832     992.7816  0.042491937  0.041188227           95 
 1948000    0.4709988     -3.88369    992.74761  0.042468669  0.041164195           45 
 1949000   0.47522194   -3.8930157    992.34959  0.042429861  0.041140203           29 
 1950000   0.47710535    -3.874567    991.73625  0.042381891  0.041116153          130 
 1951000   0.47820671   -3.8991194    992.16169   0.04237834  0.041092111           46 
 1952000   0.47907834   -3.8853407    991.95889  0.042347972   0.04106802           37 
 1953000   0.47890816   -3.8991014    994.24763  0.042423947  0.041043973           29 
 1954000   0.47660845   -3.8820796    993.84631  0.042385121   0.04101999           11 
 1955000   0.47799471   -3.8718498    992.90578   0.04232335  0.040996027           20 
 1956000   0.46542197   -3.8736038    993.04904  0.042307815  0.040972066           31 
 1957000   0.47846906    -3.899614    991.36292  0.042214398  0.040948139           19 
 1958000   0.46748519   -3.9044555    990.94443  0.042175027  0.040924223           19 
 1959000   0.46785675   -3.8906057    991.65976  0.042183927  0.040900261           11 
 1960000   0.46407461   -3.9040601    992.45311  0.042196135  0.040876358           18 
 1961000   0.46635703    -3.893296    995.15269  0.042289338  0.040852443           28 
 1962000   0.47571529   -3.8976944    993.43777  0.042194944   0.04082856           16 
 1963000   0.47349779   -3.9033953    993.02202    0.0421558  0.040804681           27 
 1964000   0.46126459    -3.886818    990.69567  0.042035627  0.040780732           58 
 1965000   0.46374727   -3.9033564    991.90138  0.042065368  0.040756861           26 
 1966000   0.47333011   -3.9013171    991.98765  0.042047628  0.040733092           28 
 1967000   0.46383802   -3.8995128     990.4872  0.041962684  0.040709305           22 
 1968000   0.46457599   -3.8921284     992.6944  0.042034824  0.040685468          101 
 1969000   0.46924378   -3.8909537    992.78894  0.042017477  0.040661695           22 
 1970000   0.47010795   -3.8950181    994.18762  0.042055314  0.040637912           51 
 1971000   0.46527971   -3.8897733    993.41657  0.042001377  0.040614078           17 
 1972000   0.46963563   -3.8972123    992.09591  0.041924269  0.040590268           39 
 1973000   0.47603189   -3.8988026    993.73102  0.041972082  0.040566496           42 
 1974000   0.46100001   -3.9200303    993.03419  0.041921403  0.040542683           48 
 1975000   0.46784897   -3.9103948    993.61099  0.041924515  0.040518888           56 
 1976000   0.46647401   -3.8979876    992.99619   0.04187737  0.040495174           30 
 1977000   0.45977333   -3.9018794    993.76155  0.041888448   0.04047147           22 
 1978000   0.47041111   -3.8969918    991.38525  0.041767157  0.040447701           24 
 1979000   0.46660326   -3.9084757    992.00155  0.041772004  0.040423979           28 
 1980000   0.47525057   -3.9017375    992.04249   0.04175263  0.040400195           24 
 1981000   0.47122402   -3.9133627     993.0029  0.041771954  0.040376444           23 
 1982000   0.46255423   -3.8920353    991.02003  0.041667509   0.04035267           46 
 1983000   0.46395944   -3.9163323    991.66008  0.041673394  0.040328853           29 
 1984000   0.46838637   -3.9098478    990.69525  0.041611864  0.040305114           43 
 1985000   0.46492996   -3.9043701    991.43016  0.041621753  0.040281377           26 
 1986000   0.45540508   -3.9070339    992.46475  0.041644207  0.040257634           14 
 1987000   0.45601376   -3.9021285    991.41457  0.041579205  0.040233914           17 
 1988000   0.45535921   -3.9112448    993.89437  0.041662239  0.040210219           13 
 1989000   0.46255516   -3.9128489    994.16329   0.04165256  0.040186527           37 
 1990000   0.46365573   -3.9084049    993.97528  0.041623755  0.040162877           26 
 1991000   0.45293966   -3.9016848    995.53332  0.041668061  0.040139226            9 
 1992000   0.46293627   -3.9008686    993.09768  0.041545251  0.040115611           32 
 1993000   0.46123418   -3.9245126    990.69459  0.041423925  0.040091957           32 
 1994000   0.46165219   -3.9354252    990.59309  0.041398909  0.040068293           18 
 1995000   0.46398339   -3.9188836    991.20179  0.041403584  0.040044592           29 
 1996000   0.45899764   -3.9345935    989.82384  0.041325311  0.040020892           22 
 1997000   0.45626493   -3.9242185    990.62208  0.041337927   0.03999714           22 
 1998000   0.44785752   -3.9389721    992.22253  0.041383989  0.039973418           15 
 1999000   0.45977231    -3.938463    991.69934  0.041341477  0.039949716           20 
 2000000    0.4479465   -3.9280137    991.95914  0.041331631  0.039925976           21 
 2001000   0.44980592   -3.9161349    991.46605   0.04129044  0.039902309           20 
 2002000   0.45527048   -3.9212999    990.70092  0.041237967  0.039878653           33 
 2003000   0.44667055     -3.94273    990.64236  0.041214943  0.039854975           17 
 2004000   0.45948451   -3.9243819    991.48766  0.041229527  0.039831329           21 
 2005000   0.45405964   -3.9203784    989.74798  0.041136657  0.039807645           21 
 2006000   0.45212634    -3.934721    990.63717  0.041153089  0.039783992           41 
 2007000   0.44877525   -3.9318091    991.59182  0.041172223  0.039760381           37 
 2008000   0.46247237   -3.9405128    990.52486   0.04110744    0.0397367           23 
 2009000   0.44672364   -3.9360266    990.16791  0.041072172  0.039713073           37 
 2010000   0.44910472   -3.9338205    990.57436  0.041068589  0.039689451           35 
 2011000   0.45502059    -3.929825    990.72877  0.041054565    0.0396658           40 
 2012000   0.44776109   -3.9317862    990.85706  0.041039474   0.03964218           24 
Loop time of 4870.46 on 48 procs for 2000000 steps with 4000 atoms

Performance: 70958.406 tau/day, 410.639 timesteps/s
99.4% CPU use with 48 MPI tasks x no OpenMP threads

MPI task timing breakdown:
Section |  min time  |  avg time  |  max time  |%varavg| %total
---------------------------------------------------------------
Pair    | 323.49     | 340.9      | 355.22     |  44.0 |  7.00
Neigh   | 32.819     | 34.069     | 35.594     |  11.4 |  0.70
Comm    | 315.91     | 331.59     | 351.21     |  53.3 |  6.81
Output  | 4.1681     | 4.1702     | 4.2064     |   0.3 |  0.09
Modify  | 4109.2     | 4116       | 4126.8     |   6.9 | 84.51
Other   |            | 43.68      |            |       |  0.90

Nlocal:        83.3333 ave          90 max          75 min
Histogram: 1 1 5 3 11 2 11 5 6 3
Nghost:        2205.25 ave        2222 max        2184 min
Histogram: 3 2 1 7 6 1 10 12 5 1
Neighs:        14689.8 ave       16261 max       13301 min
Histogram: 2 6 6 4 4 13 6 4 0 3
FullNghs:      29379.8 ave       32074 max       26404 min
Histogram: 1 2 5 7 8 5 8 6 4 2

Total # of neighbors = 1410231
Ave neighs/atom = 352.55775
Neighbor list builds = 108354
Dangerous builds = 0

#clear
#
#next RN
#
#jump SELF
Total wall time: 1:21:14
