
units lj                  # Use reduced LJ style units
atom_style atomic         # Uncharged point particles
atom_modify map hash      # Needed for indexing of clusters etc
                          # Used to be able to find where atoms are in relation to each other.

lattice fcc 1.0 spacing 1 1 1
Lattice spacing in x,y,z = 1.5874011 1.5874011 1.5874011
region box block 0 10 0 10 0 10 units lattice
create_box 2 box
Created orthogonal box = (0.0000000 0.0000000 0.0000000) to (15.874011 15.874011 15.874011)
  3 by 4 by 4 MPI processor grid
create_atoms 1 box
Created 4000 atoms
  using lattice units in orthogonal box = (0.0000000 0.0000000 0.0000000) to (15.874011 15.874011 15.874011)
  create_atoms CPU = 0.011 seconds
set type 1 type/fraction 2 0.76 78393
Setting atom values ...
  3028 settings made for type/fraction
mass 1 1.0
mass 2 1.0
pair_style lj/cut  3.5
pair_modify tail  yes
pair_coeff 1  1  1.0  1.0   # Intearaction between 1 and 1 set with epsilon = 1 and sigma = 1
pair_coeff 1  2  1.5  0.8
pair_coeff 2  2  0.5  0.88

write_data data.0
System init for write_data ...
Neighbor list info ...
  update every 1 steps, delay 10 steps, check yes
  max neighbors/atom: 2000, page size: 100000
  master list distance cutoff = 3.8
  ghost atom cutoff = 3.8
  binsize = 1.9, bins = 9 9 9
  1 neighbor lists, perpetual/occasional/extra = 1 0 0
  (1) pair lj/cut, perpetual
      attributes: half, newton on
      pair build: half/bin/atomonly/newton
      stencil: half/bin/3d
      bin: standard
WARNING: Not all mixed pair coeffs generated from mixing. Use write_data with 'pair ij' option to store all pair coeffs. (../write_data.cpp:312)


#############################
#   M E L T   S Y S T E M   #
#############################

velocity all create 2.4 9622624 mom yes dist gaussian # Assign velocities
                                                    # Temperature 2.4, random number seed, zero linear momentum
                                                                                # Gaussian distribution

timestep 0.002   # simulation timestep
thermo 1000       # output thermodynamic data every 1000 steps bf 100

# Define a fix  in this case with index 1 applied to all
# particles in the simulation. This fix is for simulations
# in the anisotropic NPT ensemble. Note that we use the MTK
# correction.
fix 1 all npt temp 2.4 2.4 0.1 iso 5.68 5.68 0.5 mtk yes tchain 5 pchain 5 # Use NPT ensemble
                                                                         # Set temperature and pressure and damping
                                                                         # Numbers of thermostats in chain and in barostat
run 10000          # run for 10000 steps
Per MPI rank memory allocation (min/avg/max) = 3.642 | 3.644 | 3.648 Mbytes
Step Temp E_pair E_mol TotEng Press Volume 
       0          2.4   -3.9031684            0  -0.30406845   -3.4881309         4000 
    1000    2.3990267   -3.3549897            0   0.24265067    5.7957335    3730.9595 
    2000    2.4106901   -3.3746491            0   0.24048202    5.9089053    3710.7704 
    3000    2.4194139    -3.411737            0   0.21647654    5.4904841    3735.3463 
    4000    2.4113383   -3.3621413            0   0.25396187    5.9997242    3714.6522 
    5000    2.4557883    -3.448664            0   0.23409756    5.5885175    3708.7263 
    6000    2.4207527   -3.4078711            0   0.22235021    5.6383525    3726.9421 
    7000    2.3760628   -3.3594027            0   0.20380055    5.4446635     3758.531 
    8000    2.4122004   -3.3804249            0    0.2369712    5.6066526    3742.0161 
    9000    2.4025608   -3.3508837            0    0.2520565    5.8763151    3736.1465 
   10000    2.4014089   -3.4141516            0   0.18706123    5.5845245     3714.224 
Loop time of 2.6447 on 48 procs for 10000 steps with 4000 atoms

Performance: 653382.380 tau/day, 3781.148 timesteps/s
99.6% CPU use with 48 MPI tasks x no OpenMP threads

MPI task timing breakdown:
Section |  min time  |  avg time  |  max time  |%varavg| %total
---------------------------------------------------------------
Pair    | 1.1765     | 1.2487     | 1.3743     |   3.4 | 47.22
Neigh   | 0.21401    | 0.2237     | 0.24805    |   1.2 |  8.46
Comm    | 0.77682    | 0.90215    | 0.97848    |   4.3 | 34.11
Output  | 0.00026237 | 0.00027995 | 0.00035977 |   0.0 |  0.01
Modify  | 0.20878    | 0.2542     | 0.28784    |   4.1 |  9.61
Other   |            | 0.01567    |            |       |  0.59

Nlocal:        83.3333 ave          92 max          73 min
Histogram: 1 1 3 8 8 11 2 7 6 1
Nghost:        1727.12 ave        1746 max        1708 min
Histogram: 4 1 8 8 4 7 4 1 7 4
Neighs:        10289.2 ave       11831 max        8773 min
Histogram: 1 3 4 7 11 6 7 7 1 1

Total # of neighbors = 493881
Ave neighs/atom = 123.47025
Neighbor list builds = 906
Dangerous builds = 202

# Equilibrate just above the melting temperature to avoid step fn in T

fix 1 all npt temp 1.25 1.25 0.1 iso 5.68 5.68 0.5 mtk yes tchain 5 pchain 5
run 2000
Per MPI rank memory allocation (min/avg/max) = 3.644 | 3.646 | 3.649 Mbytes
Step Temp E_pair E_mol TotEng Press Volume 
   10000    2.4014089   -3.4141516            0   0.18706123    5.5845245     3714.224 
   11000    1.2399732   -4.9734242            0   -3.1139294    5.7032927    2858.4483 
   12000    1.2624225   -5.0076727            0   -3.1145124    6.1235735     2825.712 
Loop time of 0.65331 on 48 procs for 2000 steps with 4000 atoms

Performance: 528998.881 tau/day, 3061.336 timesteps/s
99.7% CPU use with 48 MPI tasks x no OpenMP threads

MPI task timing breakdown:
Section |  min time  |  avg time  |  max time  |%varavg| %total
---------------------------------------------------------------
Pair    | 0.29041    | 0.32095    | 0.35014    |   2.2 | 49.13
Neigh   | 0.041774   | 0.044224   | 0.047035   |   0.5 |  6.77
Comm    | 0.2046     | 0.23821    | 0.27313    |   2.9 | 36.46
Output  | 5.3086e-05 | 5.4633e-05 | 7.084e-05  |   0.0 |  0.01
Modify  | 0.041976   | 0.044951   | 0.048274   |   0.9 |  6.88
Other   |            | 0.004924   |            |       |  0.75

Nlocal:        83.3333 ave          87 max          75 min
Histogram: 2 1 0 5 4 2 5 4 13 12
Nghost:        2075.67 ave        2098 max        2046 min
Histogram: 2 2 1 4 8 9 6 8 3 5
Neighs:        13519.4 ave       14368 max       12085 min
Histogram: 2 1 4 2 3 5 9 10 7 5

Total # of neighbors = 648930
Ave neighs/atom = 162.23250
Neighbor list builds = 144
Dangerous builds = 16

#############################
# L I N E A R  Q U E N C H  #
#############################

# Define solid atoms. This closely follows ten Wolde  Ruiz-Montero and Frenkel  Faraday Discuss  1996  104  93-110
# Compute components of the per-atom q6 vector
compute q6 all orientorder/atom degrees 1 6 components 6 nnn NULL cutoff 1.3 # compute the Q6 parameter.
                                                                             # Use all neighbours within 1.3 unit cell.

# get number of connections
compute coord_number all coord/atom orientorder q6 0.5

# An atom is solid if it has 8 or more connections (of a possible 14)
variable is_solid atom c_coord_number>=8
group solid dynamic all var is_solid    # Must be dynamic to update
dynamic group solid defined

# do clustering
compute cluster solid cluster/atom 1.3 # Create a cluster where all atoms within are solid and max 1.3 units from another member

# define chunks one chunk per cluster
compute clus_chunks solid chunk/atom c_cluster nchunk every compress yes  # Says which atoms are in which chunk

# count the size of each chunk
compute size_chunks solid property/chunk clus_chunks count


# Find the maximum entry in the vector of chunk sizes
variable max_n equal max(c_size_chunks)


# Thermo style which includes this variable
# thermo_style custom step temp pe vol v_max_n

thermo ${N}  # Print the thermo information every 100 steps
thermo 1000  

# Reset the npt fix at a lower temperature (below freezing)
fix 1  all npt temp  ${temp} ${temp}  0.1  iso  5.68  5.68  0.5  mtk yes tchain  5  pchain  5
fix 1  all npt temp  0.45 ${temp}  0.1  iso  5.68  5.68  0.5  mtk yes tchain  5  pchain  5
fix 1  all npt temp  0.45 0.45  0.1  iso  5.68  5.68  0.5  mtk yes tchain  5  pchain  5

dump dmp2 all dcd ${N} traj.dcd
dump dmp2 all dcd 1000 traj.dcd


compute msd all msd com yes
variable twopoint equal c_msd[4]/6/(step*dt+1.0e-6)
fix 9 all vector 10 c_msd[4]
variable fit equal slope(f_9)/6/(10*dt)
thermo_style custom step temp pe c_msd[4] v_twopoint v_fit v_max_n

fix 1 all npt temp 1.25 ${temp} 0.1 iso 5.68 5.68 0.5 mtk yes tchain 5 pchain 5
fix 1 all npt temp 1.25 0.45 0.1 iso 5.68 5.68 0.5 mtk yes tchain 5 pchain 5
run 2000000 # 5000000  # Run for this many steps
Neighbor list info ...
  update every 1 steps, delay 10 steps, check yes
  max neighbors/atom: 2000, page size: 100000
  master list distance cutoff = 3.8
  ghost atom cutoff = 3.8
  binsize = 1.9, bins = 8 8 8
  4 neighbor lists, perpetual/occasional/extra = 1 3 0
  (1) pair lj/cut, perpetual
      attributes: half, newton on
      pair build: half/bin/atomonly/newton
      stencil: half/bin/3d
      bin: standard
  (2) compute orientorder/atom, occasional
      attributes: full, newton on
      pair build: full/bin/atomonly
      stencil: full/bin/3d
      bin: standard
  (3) compute coord/atom, occasional
      attributes: full, newton on
      pair build: full/bin/atomonly
      stencil: full/bin/3d
      bin: standard
  (4) compute cluster/atom, occasional
      attributes: full, newton on
      pair build: full/bin/atomonly
      stencil: full/bin/3d
      bin: standard
Per MPI rank memory allocation (min/avg/max) = 9.837 | 9.847 | 9.853 Mbytes
Step Temp PotEng c_msd[4] v_twopoint v_fit v_max_n 
   12000    1.2624225   -5.0076727 8.3619256e-31 5.8068925e-33 8.3333333e+20            2 
   13000    1.2522214   -4.9839059   0.72401568  0.004641126  0.061089226            3 
   14000    1.2336165   -5.0148988    1.4570761 0.0086730714  0.061530406            2 
   15000     1.250526   -5.0217929    2.2091816  0.012273231  0.061164839            2 
   16000     1.253851   -5.0749346    2.9130028  0.015171889  0.061508365            3 
   17000    1.2263581   -5.0307306     3.590794  0.017601931  0.060753489            1 
   18000    1.2603318   -5.0192385      4.29943  0.019904768  0.060147013            2 
   19000    1.2622783   -5.0202836    5.1174244  0.022444843  0.060167482            1 
   20000    1.2741013   -5.0341173    5.8638557  0.024432732  0.060612305            2 
   21000    1.2295771    -5.049638      6.69019  0.026548372  0.061207036            1 
   22000    1.2477377   -5.0164674    7.4059524  0.028052849  0.061740674            1 
   23000    1.2596066   -5.0089078    8.0967583   0.02933608  0.061791574            2 
   24000    1.2449512   -5.0459728    9.0007511  0.031252607  0.062019261            3 
   25000    1.2423899   -5.0116747     9.805406  0.032684686  0.062350935            6 
   26000    1.2314247   -5.0496494    10.464283  0.033539368  0.062711092            2 
   27000    1.2315193   -5.0428657    11.204583  0.034582045  0.062785098            2 
   28000    1.2250786    -5.050864    11.940552  0.035537358  0.062796493            2 
   29000    1.2441018   -5.0520542    12.709271  0.036520892  0.062774772            1 
   30000    1.2688166     -5.04307    13.490783  0.037474397  0.062837622            1 
   31000    1.2519203   -5.0092361    14.195171  0.038159061   0.06285946            2 
   32000    1.2430642   -5.0233806    14.875768  0.038738979  0.062792631            1 
   33000    1.2750416     -4.99255    15.644185  0.039505517  0.062701906            4 
   34000    1.2382585   -5.0144978    16.479812  0.040391696  0.062696639            3 
   35000    1.2250982    -5.007871    17.278659  0.041139664  0.062749099            2 
   36000    1.2320145   -5.0266001    17.973927  0.041606313  0.062744171            3 
   37000    1.2632028   -5.0379949    18.597039  0.041885223   0.06273116            1 
   38000    1.2272027   -5.0446191    19.251816  0.042218894  0.062600755            1 
   39000     1.249397   -5.0077455    19.984395  0.042701699   0.06245803            2 
   40000    1.2492851   -5.0195133    20.829245   0.04339426  0.062372645            1 
   41000    1.2576643   -5.0890041    21.543591  0.043787787  0.062329623            3 
   42000    1.2306349   -5.0382453      22.2561  0.044158929  0.062258169            1 
   43000    1.2243612    -5.038342    22.975927   0.04452699   0.06217937            1 
   44000    1.2369761   -5.0347713    23.478262  0.044466406  0.062072016            1 
   45000    1.2449131   -5.0272648    24.156142  0.044733595  0.061891947            3 
   46000    1.2113589   -5.0493309    24.696401  0.044739856  0.061682809            2 
   47000    1.2523683   -5.0849877    25.141035  0.044576303  0.061430186            2 
   48000    1.2305733   -5.0398307    25.856883  0.044890421  0.061170242            2 
   49000    1.2419628   -5.0459513    26.671552  0.045359781  0.060932654            1 
   50000    1.2215638   -5.1187298    27.267091  0.045445151  0.060773594            3 
   51000    1.2371896   -5.0774004    28.069646  0.045865434  0.060609452            3 
   52000    1.2132699   -5.0358054    28.884231  0.046288831  0.060462825            4 
   53000    1.2217586   -5.0321057     29.43774  0.046285755  0.060338397            2 
   54000    1.2347906   -5.0854046    30.367785  0.046863866  0.060247089            2 
   55000    1.2485145    -5.041775    30.927065  0.046859189  0.060167572            2 
   56000    1.2145898   -5.0725809    31.512654   0.04689383  0.060058497            4 
   57000    1.2173897   -5.0942959    32.028314   0.04682502  0.059927647            3 
   58000    1.2230583   -5.0250037    33.043319  0.047476033  0.059832759            2 
   59000     1.244528   -5.0067853    33.801316  0.047741971  0.059749441            2 
   60000    1.2293575   -5.0991026    34.226255  0.047536465  0.059666107            2 
   61000    1.2337516    -5.068702    34.941973  0.047734936  0.059557208            2 
   62000    1.2320517    -5.084991    35.547734  0.047779212  0.059468058            4 
   63000    1.2207339   -5.0106179    36.392096  0.048137693  0.059381258            5 
   64000    1.1904709   -5.0361335    37.073376  0.048272624  0.059307137            7 
   65000    1.2534494   -5.0529724    38.056954  0.048790966  0.059265472            2 
   66000    1.2019294   -5.0373557    38.603186  0.048741397  0.059249394            4 
   67000    1.2206033   -5.0123199    39.447632  0.049064218  0.059209097            2 
   68000    1.2183326   -5.0693601    40.017932  0.049041583  0.059185844            2 
   69000    1.2204285   -5.0377606    40.920358  0.049420722  0.059172621            1 
   70000    1.2195076   -5.0590373    41.613608  0.049540009  0.059154065            2 
   71000    1.2375054   -5.0657121    42.101134  0.049414476  0.059113188            1 
   72000    1.2375228   -5.0367551    42.641605  0.049353709  0.059074947            2 
   73000    1.2014357   -5.0610996    43.331576  0.049465269   0.05903239            3 
   74000    1.2262067   -5.0512124    44.011812  0.049562851  0.058978782            2 
   75000    1.2269243   -5.0824888    44.416558  0.049351731  0.058926148            2 
   76000    1.2154883   -5.0451231    45.423191   0.04980613  0.058882036            3 
   77000    1.2167159   -5.0563329    46.292534  0.050100144  0.058844281            3 
   78000    1.2099137   -5.0925554    46.824602  0.050026284  0.058814792            2 
   79000    1.2154014   -5.0572098    47.745231  0.050364168  0.058794788            2 
   80000    1.2524864   -5.1115769    48.347925  0.050362421  0.058788177            2 
   81000    1.2067626   -5.0822225    48.946562  0.050356545  0.058773313            2 
   82000    1.2291473   -5.0845366    49.870351  0.050681251  0.058760002            5 
   83000    1.2161582   -5.1175971    50.416077  0.050618551  0.058761202            4 
   84000    1.1998851   -5.0880903    51.538708   0.05112967  0.058768008            5 
   85000    1.2079211   -5.0623016    51.994643   0.05097514  0.058778285            3 
   86000    1.2348421   -5.0846615    53.071095   0.05142548  0.058783799            1 
   87000    1.2092103   -5.0691616    54.007942  0.051731745  0.058805479            3 
   88000    1.2135256   -5.0728014    54.707502  0.051806346  0.058832575            2 
   89000    1.2314029   -5.1112741    55.150912   0.05163943  0.058868923            3 
   90000    1.2279016   -5.0958363    56.208711  0.052045103  0.058909443            2 
   91000    1.2179513   -5.0861776    56.670095  0.051895691  0.058944679            2 
   92000    1.2141657   -5.0956042    57.365557  0.051961555  0.058967768            4 
   93000    1.2176738   -5.0874987    57.863828  0.051849308  0.058985509            3 
   94000    1.2004756    -5.092968    58.888033  0.052205703  0.059000074            4 
   95000    1.2137663   -5.0850678     59.64923  0.052323885  0.059015311            3 
   96000     1.211236   -5.0647663    60.343475  0.052381489  0.059030203            2 
   97000    1.2142963   -5.0854281    61.034255  0.052434926  0.059061412            2 
   98000    1.2322992   -5.0488008    62.016866   0.05273543  0.059090931            3 
   99000     1.224606   -5.1011847    62.331995  0.052468009  0.059109638            2 
  100000    1.1993111   -5.1271988    62.659341  0.052216117  0.059125535            4 
  101000    1.1984156   -5.0873259    63.568564   0.05244931  0.059130249            2 
  102000    1.1838467   -5.0763118    64.371377  0.052590994  0.059124726            4 
  103000    1.2112572   -5.0656271    65.240388  0.052783485  0.059126924            3 
  104000    1.2365555   -5.1039424    65.262412  0.052293599  0.059124802            3 
  105000    1.1916343   -5.1127741    66.408833  0.052705423  0.059126072            3 
  106000    1.2001179   -5.1098874    66.831574  0.052540545  0.059117466            4 
  107000    1.2230336   -5.0890267    67.931277  0.052905978  0.059118659            2 
  108000    1.2312015   -5.0935619     68.40105  0.052778588   0.05911853            3 
  109000    1.2189751   -5.1117137     68.95157  0.052715267  0.059107843            3 
  110000    1.2102212   -5.1124841     69.64998  0.052765136  0.059093103            3 
  111000    1.2151438   -5.1222541     69.99915  0.052551914  0.059070336            2 
  112000    1.1857907   -5.0612327    71.206894  0.052981319  0.059057041            2 
  113000    1.1992061   -5.0905334    71.852625  0.052988661  0.059043986            4 
  114000    1.2141568    -5.113604    72.472944  0.052977298  0.059024664            2 
  115000    1.1909167   -5.1757673    72.522453  0.052552502  0.059003034            6 
  116000    1.2109995   -5.0750313    73.714044  0.052955491  0.058978433            2 
  117000    1.2042479   -5.1184301    74.378363  0.052976042  0.058954733            2 
  118000    1.1800879   -5.1011887    74.702873  0.052756266  0.058925848            4 
  119000    1.1849955   -5.0716884    75.236874  0.052686886   0.05889482            2 
  120000    1.2378129   -5.0778488    76.206933  0.052921481  0.058856257            2 
  121000    1.1802658   -5.1037701    76.810384  0.052899713  0.058829471            2 
  122000    1.2046461   -5.0718724    77.748093  0.053106621  0.058807964            2 
  123000    1.2354532   -5.1436212     78.03986  0.052872534   0.05878244            2 
  124000    1.1991759   -5.0501258    78.743394  0.052918947  0.058748271            1 
  125000    1.2073632   -5.1164764    79.273013  0.052848675   0.05871324            4 
  126000    1.2054214   -5.1205763    79.210368  0.052387809  0.058665388            5 
  127000    1.2147808   -5.1311403    79.726853  0.052314208  0.058606445            3 
  128000    1.1988765   -5.0998146     80.83174  0.052624831  0.058548466            2 
  129000    1.2156432   -5.0996983    81.209689  0.052461039  0.058494014            2 
  130000    1.1906362   -5.0879776    81.669895  0.052352496  0.058429736            3 
  131000    1.1941368   -5.1065087    82.588752  0.052537374  0.058370582            2 
  132000    1.2021486   -5.1346259    83.361229  0.052627038  0.058322088            4 
  133000    1.2001476   -5.1124731    84.298717  0.052818745  0.058277538            3 
  134000    1.1866141   -5.1280647    84.147333   0.05233043  0.058232088            5 
  135000    1.2005388   -5.1639035    84.535267  0.052182263  0.058181242            1 
  136000    1.2028118   -5.1190117    85.882725  0.052624219  0.058128794            5 
  137000      1.19007   -5.0805634    86.592235  0.052671675  0.058078885            4 
  138000    1.2131712   -5.1019367    86.908688  0.052481091     0.058025            3 
  139000    1.1857734   -5.1389437    87.176938  0.052264351  0.057969072            2 
  140000    1.2308787   -5.1591389    88.033622  0.052400965  0.057903486            3 
  141000    1.2037626   -5.1213371    88.724769  0.052437806  0.057846917            3 
  142000    1.2176596   -5.1199147    89.564672  0.052561427  0.057795334            2 
  143000    1.1770001   -5.1608271    89.992564  0.052443219  0.057744872            2 
  144000    1.2064145   -5.1219137    90.642197  0.052454975  0.057693087            2 
  145000    1.1862907   -5.1003984    91.592529  0.052639384   0.05764234            3 
  146000    1.1627432   -5.1641995    91.787506  0.052390129  0.057590835            2 
  147000    1.1878437    -5.129598    92.483615  0.052428353  0.057534182            3 
  148000    1.1886797   -5.1397247    93.000889  0.052365365  0.057483822            3 
  149000    1.2023612   -5.1465108    93.696707   0.05240308  0.057430863            4 
  150000    1.2154137   -5.1391854    94.513263  0.052507368  0.057381024            2 
  151000    1.1879919   -5.1692386    94.748274  0.052289334   0.05732746            1 
  152000    1.1991245   -5.1416808     94.92825  0.052043996  0.057270291            3 
  153000    1.2044206    -5.158903    95.700222  0.052124304  0.057211313            2 
  154000    1.2022855   -5.1652009    96.523196  0.052231166  0.057152988            2 
  155000    1.2080059   -5.1150369     96.98292  0.052141354  0.057095108            4 
  156000    1.1939021   -5.1403986    97.500167  0.052083422  0.057034617            2 
  157000    1.2416143   -5.1118231    98.425478  0.052242822  0.056979163            1 
  158000    1.1808159   -5.1174223    99.273363  0.052359368  0.056929284            2 
  159000    1.1636406   -5.0960686    99.987556  0.052404379  0.056878539            3 
  160000    1.1921343   -5.1434951     100.1696  0.052171666    0.0568267            5 
  161000    1.1676842   -5.1697154    100.56318  0.052051334  0.056769148            2 
  162000    1.1875311   -5.1015134    101.26224   0.05208963  0.056714315            1 
  163000    1.2132801   -5.1262472    101.95183  0.052122614  0.056658702            1 
  164000    1.1949786   -5.0929365     103.4346  0.052558234  0.056607329            3 
  165000    1.1788189   -5.1380161    103.98972  0.052520059  0.056568647            3 
  166000    1.1811532   -5.1282982    104.64864  0.052534457  0.056528982            2 
  167000    1.1899688   -5.1348653    104.93843  0.052364484  0.056491571            1 
  168000    1.1971561   -5.1508418    105.52594  0.052344216  0.056449264            3 
  169000    1.1865464   -5.1172005    106.14716  0.052340811  0.056404714            3 
  170000    1.1939198   -5.1572224    106.93651  0.052419857  0.056360701            2 
  171000    1.1724835   -5.1478439    106.72129  0.052008426   0.05631763            2 
  172000    1.2074974   -5.1516648    108.04026  0.052345087  0.056272874            2 
  173000    1.1852249   -5.1849783    107.87343  0.051962151   0.05622888            4 
  174000    1.1487976   -5.1278033    109.27077  0.052332743  0.056184256            4 
  175000     1.193084     -5.14351     109.2112  0.052005335  0.056142124            3 
  176000    1.2002064   -5.1640417    109.81535  0.051995902  0.056097038            3 
  177000    1.1941185   -5.1530386    110.58647  0.052065194  0.056054059            2 
  178000    1.1777775    -5.169088    110.66282  0.051808435  0.056012032            4 
  179000    1.2037375   -5.1477994    112.24794  0.052256957  0.055971002            2 
  180000    1.1746693   -5.1526615    112.53531   0.05209968  0.055930864            2 
  181000    1.2125754   -5.1457194    113.36771  0.052195078  0.055892346            3 
  182000    1.1606144   -5.1792912    113.96672  0.052182564  0.055850625            1 
  183000    1.1822585   -5.1612862    114.76638  0.052261556  0.055814281            1 
  184000    1.1826365   -5.1507705      115.014  0.052089672   0.05577957            4 
  185000    1.1878375   -5.1094805    116.78638   0.05260648  0.055745086            6 
  186000    1.1935532   -5.1584922    116.95595  0.052399619  0.055717722            3 
  187000    1.1716417    -5.126794    118.20885  0.052677742  0.055692541            1 
  188000    1.1833629   -5.1663911    118.29223    0.0524345  0.055664847            2 
  189000     1.177306   -5.1313553    118.76757  0.052366653  0.055635233            2 
  190000    1.1723098   -5.1232417    118.88445  0.052142302  0.055604358            3 
  191000    1.1660031   -5.1710239    119.93609  0.052328138  0.055571323            4 
  192000    1.1678815   -5.1598335    120.03456  0.052098332  0.055536684            1 
  193000      1.19465    -5.106908     121.5652  0.052489292  0.055498406            2 
  194000    1.1786064   -5.1684592    120.35617  0.051699386  0.055460503            2 
  195000    1.1787765   -5.1520799    121.28451  0.051830989  0.055420906            2 
  196000    1.1522863   -5.2195706    121.82686  0.051797135  0.055378085            2 
  197000    1.1751037   -5.1335945    123.19551  0.052113161  0.055339488            3 
  198000    1.1633352   -5.1512897    123.60278  0.052021374  0.055304343            2 
  199000    1.1879543   -5.1632583    124.31496  0.052058192  0.055268425            1 
  200000    1.1930467   -5.1829178     124.2416  0.051767332  0.055230895            3 
  201000    1.1955547   -5.1781658    124.77189  0.051729638  0.055189563            3 
  202000     1.146398   -5.2161441    125.08928  0.051604489  0.055144604            2 
  203000    1.1773169   -5.1586622     125.6703  0.051588791  0.055095819            2 
  204000    1.1565539   -5.1799327    126.04678  0.051489699  0.055045127            4 
  205000    1.1528183   -5.1556505     126.4833  0.051415974  0.054993335            7 
  206000    1.1783283   -5.1780064    126.62977  0.051225635  0.054940989            1 
  207000    1.1764967   -5.1888242    127.29623  0.051246469  0.054889666            3 
  208000    1.1832406   -5.1829038    128.03865  0.051297537   0.05483967            2 
  209000    1.1555211   -5.1619131    128.67045  0.051304008  0.054788689            3 
  210000    1.1723261   -5.1810932    129.34517  0.051327448  0.054742545            3 
  211000    1.1682061   -5.1757073    129.59385  0.051182407  0.054696778            4 
  212000    1.1398083   -5.1872537    130.97621  0.051484358  0.054651147            1 
  213000    1.1554742    -5.195446    131.39856  0.051407887  0.054608177            5 
  214000    1.1677624   -5.1870478    132.15889   0.05146374  0.054566728            2 
  215000    1.1727712   -5.1793556     132.4778  0.051347983  0.054525005            3 
  216000    1.1552596   -5.1932669    133.58748   0.05153838  0.054486647            2 
  217000     1.188326   -5.1922173    133.60622  0.051308071  0.054444521            7 
  218000    1.1560288   -5.1970694     134.2464   0.05131743  0.054400046            3 
  219000    1.1622489   -5.1343259    134.96473  0.051356442  0.054356915            3 
  220000    1.1685737   -5.1829735    135.15484  0.051195014   0.05431589            2 
  221000     1.165519   -5.1848465    136.14655   0.05133731  0.054274207            4 
  222000    1.1663103   -5.1954899    136.47044  0.051227643  0.054234062            1 
  223000    1.1723208   -5.1842686    136.92524  0.051167877  0.054189516            4 
  224000    1.1811069    -5.204719     137.1585  0.051026229  0.054149133            3 
  225000    1.1579587   -5.1739144    138.56726  0.051321208  0.054113669            1 
  226000    1.1575414   -5.2321273    138.71813  0.051149753  0.054075877            1 
  227000    1.1651351   -5.1683793    139.53109  0.051222866  0.054036683            2 
  228000    1.1356459   -5.2085943    140.43535  0.051328709  0.053998641            2 
  229000     1.160614     -5.17059     140.9877  0.051305568  0.053963172            2 
  230000    1.1510326   -5.1436314    141.67276  0.051330711  0.053931095            3 
  231000    1.1663638   -5.2006247    141.86163  0.051176633  0.053896778            2 
  232000    1.1704065   -5.2330789    142.16109   0.05106361  0.053862316            4 
  233000    1.1238969   -5.1848606    143.07273  0.051170505  0.053825962            1 
  234000    1.1943378   -5.1589221    144.35055  0.051406893  0.053790867            3 
  235000    1.1767976   -5.2239339    143.90186  0.051029028  0.053754106            3 
  236000    1.1895522   -5.2111912     144.3316  0.050964549  0.053716493            3 
  237000    1.1906681    -5.177106    145.02813   0.05099442  0.053675737            3 
  238000    1.1773673   -5.2033687    145.71454  0.051020496  0.053634917            1 
  239000    1.1449876   -5.1847257    145.62434   0.05077557  0.053594207            1 
  240000     1.172415   -5.2543948    145.94239  0.050674441  0.053551988            2 
  241000    1.1763789   -5.2056967     147.0047    0.0508315  0.053509261            3 
  242000    1.1666231   -5.2136475    147.50453   0.05079357  0.053466829            3 
  243000     1.168322   -5.1531489    148.06379  0.050776334  0.053425188            2 
  244000    1.1623795   -5.2021641    148.67453  0.050776821  0.053384893            2 
  245000    1.1644796   -5.1995039    149.59341  0.050882112  0.053348835            2 
  246000    1.1597458   -5.2013588    149.88476  0.050773972  0.053313103            3 
  247000    1.1599462   -5.2075932    149.82856  0.050549446  0.053279401            2 
  248000    1.1534463   -5.2407841    151.11353  0.050777396  0.053241385            3 
  249000    1.1558987   -5.2117679    151.37244  0.050660122  0.053202737            2 
  250000    1.1346316   -5.1933742    151.97457  0.050658189  0.053165426            3 
  251000    1.1295196    -5.180372    153.69929  0.051028982  0.053126925            3 
  252000    1.1694818    -5.203568    153.06009  0.050615108  0.053091201            2 
  253000    1.1760061   -5.2197491    153.73426  0.050637109  0.053054706            2 
  254000    1.1367949   -5.2040578    154.53019   0.05069888  0.053017737            2 
  255000    1.1405788   -5.2357432    154.90121  0.050621312  0.052983477            2 
  256000    1.1713663   -5.2185792    155.74594  0.050698547  0.052948842            1 
  257000    1.1467367   -5.2676411    155.39813  0.050388498  0.052913501            2 
  258000    1.1537082   -5.2194113    156.56443  0.050569905  0.052878975            3 
  259000    1.1663714   -5.2283688      157.298  0.050610681  0.052842147            2 
  260000      1.13808    -5.198576    157.49324  0.050478602  0.052806305            3 
  261000    1.1503424   -5.2189306    158.01274  0.050451066  0.052771823            4 
  262000    1.1760006   -5.2408459    158.28841  0.050346188  0.052733501            5 
  263000    1.1423321    -5.216407    159.76766  0.050623465  0.052696412            3 
  264000    1.1268188   -5.2354793    159.73431  0.050421183  0.052660916            3 
  265000    1.1611651     -5.25478    159.50843  0.050159883  0.052624885            9 
  266000    1.1337922   -5.2165056    160.43812  0.050262569  0.052588619            3 
  267000    1.1463168   -5.2266954    161.30049  0.050343473  0.052551243            3 
  268000     1.146882   -5.1894899    161.88923  0.050338689  0.052515795            2 
  269000    1.1561524   -5.1850466    162.66667    0.0503924  0.052478909            4 
  270000     1.126988   -5.1973688    163.72181  0.050531423  0.052444259            2 
  271000    1.1392378   -5.2240809    163.26561  0.050204678  0.052410179            2 
  272000    1.1357096   -5.2428365    164.06696  0.050265614  0.052375665            2 
  273000    1.1300345    -5.264643    163.74432  0.049983003  0.052338393            7 
  274000    1.1337332   -5.2184268    164.16151  0.049927466  0.052300888            3 
  275000    1.1386296   -5.2392061    165.41573  0.050125979  0.052264342            1 
  276000     1.159962   -5.2098935    165.08671   0.04984502  0.052228526            4 
  277000    1.1521194   -5.2336402    166.05435  0.049956183  0.052192046            2 
  278000    1.1245824    -5.209435    167.00226  0.050060629  0.052154765            3 
  279000    1.1199038   -5.2362275    167.44443  0.050013272   0.05211864            3 
  280000    1.1216811   -5.2568288    168.29985   0.05008924  0.052085691            2 
  281000    1.1010015   -5.2269615    168.66534  0.050019378  0.052053613            1 
  282000    1.1512754   -5.2096789     169.7562  0.050164362  0.052021401            3 
  283000    1.1475149   -5.2395363    170.24642  0.050131454  0.051989224            2 
  284000    1.1194228   -5.2278554    171.03961  0.050187678  0.051959557            5 
  285000    1.0985241   -5.2450483    171.43537  0.050127301  0.051930483            2 
  286000    1.1341337   -5.2398086    172.50591  0.050263959   0.05190246            4 
  287000    1.1494659   -5.2118441    172.71746   0.05015025   0.05187325            2 
  288000    1.1385953   -5.2058138    173.18475  0.050111329  0.051845535            4 
  289000     1.113324   -5.2416311    173.69685  0.050085597  0.051816941            2 
  290000    1.1624202   -5.2934142    173.91969  0.049976924  0.051788328            4 
  291000    1.1578834   -5.2450267     174.1537  0.049872194   0.05175709            3 
  292000    1.1329346   -5.2233166    175.04529  0.049955848  0.051725139            4 
  293000    1.1318862   -5.2652878    174.08424  0.049512015  0.051691961            2 
  294000    1.1434804   -5.2449903    175.65249   0.04978812  0.051658969            2 
  295000    1.1363957   -5.2301037    176.40808  0.049832791   0.05162711            4 
  296000    1.1325848   -5.2513738    176.80302  0.049775626  0.051594935            3 
  297000    1.1584596    -5.232266     177.1827  0.049714561  0.051561776            2 
  298000    1.1317691   -5.2629478    176.75842  0.049429088  0.051528769            4 
  299000    1.1556753   -5.2655964    178.03059  0.049618336  0.051495908            2 
  300000    1.1169351   -5.2420936    178.45202  0.049570006  0.051462692            2 
  301000    1.1236131   -5.2402315    179.21901  0.049617666  0.051430616            2 
  302000    1.1327935   -5.2422216    179.46148  0.049520276   0.05139899            2 
  303000    1.1448576    -5.264609    180.35916  0.049603728  0.051364738            5 
  304000    1.1198491   -5.2404714     180.5332  0.049488268  0.051331967            2 
  305000    1.1259892   -5.2159165    181.32412  0.049542108  0.051300777            6 
  306000    1.1473659   -5.2835311    181.88503  0.049532961  0.051269427            1 
  307000    1.1295446   -5.2311554    182.37692  0.049505135   0.05123779            3 
  308000     1.142116   -5.2304191    182.78453   0.04945469   0.05120555            3 
  309000     1.107891   -5.2304273    183.83078  0.049576801  0.051172954            2 
  310000    1.1570159   -5.2329329    183.79969  0.049408518  0.051138991            3 
  311000    1.1085764   -5.2464397    184.67673  0.049484655  0.051104925            3 
  312000    1.1339036   -5.2543257    185.62573  0.049579523  0.051076424            1 
  313000    1.1270705   -5.2690958    186.05816  0.049536252  0.051049723            2 
  314000    1.1058066   -5.2725712     186.6767  0.049542648  0.051021554            4 
  315000    1.1571423   -5.2603994    186.94808  0.049457164  0.050994775            5 
  316000    1.1396625   -5.2223794    187.81425  0.049529075  0.050967966            1 
  317000    1.1127891   -5.2079759    188.20059  0.049474393  0.050938394            2 
  318000    1.1209411   -5.2368516    187.60626  0.049163065   0.05090893            4 
  319000    1.1309827   -5.2246689    189.56497  0.049520629  0.050880545            3 
  320000    1.1590971   -5.2327882    190.36916  0.049575302  0.050854242            3 
  321000     1.148248   -5.2269941    190.31979  0.049408046  0.050828046            4 
  322000    1.1120277   -5.2560614    190.66874  0.049344912  0.050800732            2 
  323000    1.1265399   -5.2686693    191.14583   0.04931523  0.050772742            3 
  324000    1.1305411   -5.2833681    192.17708  0.049428262  0.050745824            2 
  325000     1.126833   -5.2538342     193.0803   0.04950777  0.050722738            2 
  326000    1.1069883   -5.2440698    194.24559  0.049653781  0.050699747            2 
  327000     1.102528   -5.2655175    193.77729  0.049382593  0.050676866            2 
  328000    1.1480136   -5.2673842     195.1143  0.049571722  0.050652721            1 
  329000    1.1100933    -5.248301    194.97619  0.049386067  0.050629939            3 
  330000    1.0968634   -5.2841774    196.03003  0.049502534   0.05060733            4 
  331000    1.1074699   -5.2611601     196.6491  0.049508837  0.050584811            3 
  332000    1.1095042   -5.2708152    197.16776  0.049489899  0.050561112            3 
  333000    1.1099984   -5.2576073    197.24679  0.049361059  0.050539485            7 
  334000     1.119568   -5.2417177     197.7305  0.049333956  0.050516973            3 
  335000    1.1174753   -5.2401465    198.45749  0.049367534  0.050493616            3 
  336000    1.1145842   -5.2882103    198.83944  0.049315337  0.050470975            5 
  337000    1.1132366   -5.2999054    199.06811  0.049225547  0.050447649            3 
  338000    1.1146018    -5.296461    200.38086  0.049403566  0.050424506            4 
  339000    1.1047514   -5.2726801    200.82803  0.049367756  0.050403405            2 
  340000    1.1484087    -5.291568     199.9391   0.04900468  0.050381909            2 
  341000    1.1101548   -5.2577298    201.61094  0.049269536  0.050360681            3 
  342000    1.0908122   -5.2893047    202.52101  0.049347225  0.050339473            5 
  343000    1.0918145   -5.2710356    203.79591  0.049513097  0.050317741            3 
  344000    1.1413087   -5.2941181    203.36343  0.049264397  0.050298942            6 
  345000    1.1238326   -5.3095769    203.15668  0.049071661  0.050278153            3 
  346000    1.1001743   -5.3342199    204.01414  0.049136353  0.050257345            2 
  347000    1.1143895   -5.2329995    205.60388  0.049376532  0.050237214            1 
  348000    1.1279785   -5.2793876    206.24027  0.049387037  0.050217101            3 
  349000    1.1252362   -5.2741701    206.81796  0.049383467   0.05019792            3 
  350000    1.1309787   -5.2809431    207.56234  0.049419606  0.050180701            2 
  351000      1.10624   -5.2752079    208.10114  0.049406729  0.050162599            1 
  352000    1.1129366   -5.2518697    208.98282    0.0494751  0.050144109            2 
  353000    1.1143493   -5.2914661    208.99473  0.049337756  0.050125887            2 
  354000    1.1309498     -5.30076    209.57655  0.049335345  0.050109449            3 
  355000    1.1017304   -5.3015204    209.25671  0.049121295   0.05009135            6 
  356000    1.1154381    -5.283747    211.27369  0.049455451  0.050074495            2 
  357000    1.0983388   -5.2899031    210.38595    0.0491097  0.050056894            1 
  358000    1.1062817   -5.2886478    211.42485  0.049214351  0.050038141            4 
  359000    1.0808405   -5.2850233    211.84203  0.049174103   0.05002136            4 
  360000    1.1201105   -5.2644509    213.24159   0.04936148  0.050003386            1 
  361000    1.1146274   -5.2517803    213.88947    0.0493743  0.049985707            2 
  362000    1.1044963    -5.227849    214.37712  0.049350167  0.049968872            3 
  363000    1.1397318   -5.2605176    213.76754  0.049074274  0.049950177            6 
  364000    1.0989763   -5.2727318    214.07503  0.049009852  0.049930402            2 
  365000    1.0999281   -5.3164656    214.08851  0.048878656  0.049910288            2 
  366000    1.1254876   -5.3223699    214.48017  0.048834283  0.049889787            1 
  367000    1.1264483    -5.294459    215.54046  0.048941975  0.049868857            3 
  368000    1.0936694    -5.280821    215.97571  0.048907542  0.049847252            1 
  369000    1.1106292   -5.2947957    216.46081  0.048884556   0.04982483            4 
  370000    1.1010984   -5.3284244    217.31279  0.048944322  0.049802635            4 
  371000    1.1101431   -5.2835196    217.81483  0.048925164  0.049780822            3 
  372000    1.1041943   -5.3138334     217.7463  0.048778294  0.049759351            3 
  373000    1.1206374   -5.3390621    218.75991  0.048873974  0.049736014            4 
  374000    1.0856674   -5.3673182    217.93206  0.048558836  0.049713093            3 
  375000    1.0750255   -5.2703321    220.32924  0.048962054  0.049690769            1 
  376000    1.0878283   -5.2823002    219.73237   0.04869955  0.049669624            2 
  377000    1.1110499    -5.251603    221.00074  0.048850739  0.049649573            3 
  378000    1.0800796   -5.3162327    220.87488  0.048693756   0.04962825            3 
  379000     1.119455   -5.2809741    222.13611  0.048842591  0.049606555            1 
  380000    1.0907449   -5.2630053    221.75602  0.048630706  0.049585935            3 
  381000    1.0961325   -5.3210811      222.305  0.048623141  0.049564038            4 
  382000    1.1197771   -5.3029936     223.3752  0.048729318  0.049542827            4 
  383000    1.1110003   -5.2944231    223.13972  0.048550852  0.049520954            3 
  384000    1.1095792   -5.3342884    223.71214  0.048548642  0.049498922            3 
  385000    1.0759388   -5.2798374    224.54164  0.048602087  0.049477669            2 
  386000    1.0959338   -5.3471684    224.92958  0.048559926  0.049456171            7 
  387000    1.1110641   -5.3325318    225.83746  0.048629945  0.049434636            3 
  388000     1.095698   -5.3068471     226.1231  0.048565957  0.049413504            9 
  389000    1.0877429   -5.3213703    225.91631   0.04839681   0.04939217            5 
  390000    1.1181887   -5.3442791    225.95455  0.048280886   0.04937189            6 
  391000    1.1143471    -5.326525    227.44981  0.048476088   0.04935052            2 
  392000    1.1105139   -5.2948222    228.36096  0.048546122  0.049330673            5 
  393000    1.1091963   -5.3458522    228.00276  0.048346642  0.049308658            2 
  394000    1.1068543   -5.2977051    229.36351   0.04851174  0.049286871            3 
  395000    1.0760037   -5.3237771     229.2225  0.048359178  0.049265211            4 
  396000    1.1050916   -5.3434968    229.29179  0.048251639  0.049244302            3 
  397000    1.1107942   -5.3063217    230.48442  0.048380441  0.049223783            2 
  398000    1.1074255   -5.3213582    230.79709  0.048324348  0.049202732            5 
  399000    1.0934572   -5.2920466    231.94812  0.048443635  0.049182044            3 
  400000    1.0812273   -5.3069019    232.34064    0.0484043   0.04916276            6 
  401000    1.0896898   -5.3292725    233.16064  0.048453998  0.049142072            2 
  402000    1.0920275   -5.3641171    232.67281  0.048232339  0.049120127            1 
  403000    1.1127552   -5.3217001    234.43818  0.048477705  0.049099435            2 
  404000    1.1283728   -5.3202728    233.28708  0.048120271   0.04907858            3 
  405000    1.1029643   -5.3389895    234.01622  0.048151485  0.049056036            4 
  406000    1.1060459    -5.342077    234.72528  0.048178423   0.04903438            2 
  407000    1.0817458   -5.3771021    234.45057  0.048003802  0.049012459            4 
  408000    1.1049781   -5.3543779    235.60635  0.048122212  0.048990618            4 
  409000    1.0935923   -5.3202512    236.27779   0.04814136  0.048969128            2 
  410000    1.0781534   -5.3252099    236.74655  0.048119218  0.048947666            5 
  411000    1.0996289   -5.3020789    237.10546   0.04807491  0.048925669            2 
  412000    1.0936608    -5.341035    237.02736  0.047942426  0.048902905            2 
  413000    1.0803182   -5.3325408    237.51253   0.04792424  0.048879493            2 
  414000    1.0958253   -5.3608127    237.52757  0.047811507  0.048856058            1 
  415000    1.0973722   -5.3328752    238.32219  0.047855861  0.048831881            2 
  416000    1.0858139   -5.3431465    238.00865  0.047678014  0.048808475            9 
  417000    1.0586405   -5.3577127    238.55166  0.047672195  0.048784407            3 
  418000    1.0798569   -5.3471682     239.8502  0.047817026  0.048760274            2 
  419000    1.0631674   -5.3440772    240.64559  0.047861096  0.048736632            4 
  420000    1.0801951   -5.3543557    240.70159  0.047758252  0.048713037            5 
  421000    1.0886731   -5.3592738    240.76319  0.047657005  0.048688641            5 
  422000    1.0823954   -5.3554102    241.38393  0.047666653  0.048663965            4 
  423000    1.0878117   -5.3385738    241.48667  0.047574206  0.048640015            2 
  424000    1.0868195   -5.3210864    243.04673  0.047768619  0.048616358            6 
  425000    1.0735127   -5.3342844    241.98606  0.047448247  0.048591408            4 
  426000    1.0491562   -5.3157621    243.51042  0.047635058  0.048566409            5 
  427000    1.1002037   -5.3324099    243.11323  0.047445985  0.048541651            3 
  428000    1.0961287   -5.3291968    243.23177  0.047358211  0.048516847            4 
  429000    1.1067224   -5.3484505    243.98403  0.047393944  0.048490561            6 
  430000    1.0645442   -5.3483448    244.11676  0.047309449  0.048464425            3 
  431000    1.0891858   -5.3456074    244.60176  0.047293457  0.048438401            3 
  432000    1.0687854   -5.3385405    245.20626   0.04730059  0.048411132            4 
  433000    1.0545159   -5.3235806    244.30967  0.047018798  0.048384581            5 
  434000    1.0865224   -5.3397929    246.60494  0.047351179  0.048358251            1 
  435000    1.0797282   -5.3628998    245.60764  0.047051272  0.048330946            6 
  436000    1.1009895   -5.3410033    247.10043  0.047228675  0.048303726            2 
  437000    1.0683174   -5.3572223    247.41224   0.04718006  0.048274832            2 
  438000    1.0502232   -5.3655568    246.44575  0.046888461  0.048246982            2 
  439000    1.0879843   -5.3540617    246.96113  0.046879486  0.048217531            4 
  440000    1.0807051   -5.3645966    247.77926   0.04692789  0.048187869            2 
  441000    1.0855573   -5.3676304    248.27245  0.046914672  0.048159277            7 
  442000     1.059988   -5.3299075    249.54321  0.047048117  0.048131906            2 
  443000    1.0710338   -5.3669329    249.95866  0.047020064  0.048104838            2 
  444000    1.0607297    -5.334272    250.20203   0.04695984  0.048077283            5 
  445000    1.0756131   -5.3801301    250.59853  0.046928563  0.048049455            3 
  446000    1.0495667   -5.3501391    251.40041  0.046973171  0.048022079            2 
  447000    1.0709582    -5.356738    251.84602  0.046951159  0.047994186            2 
  448000    1.0625106   -5.3681152    252.09165  0.046892048   0.04796552            5 
  449000    1.0596036   -5.3553222    251.81357     0.046736  0.047938748            3 
  450000    1.0827286   -5.3829599    252.71825  0.046799676  0.047911773            4 
  451000    1.0796569   -5.3735163    252.94496  0.046737797  0.047885054            4 
  452000    1.0611389   -5.3551962    253.82665  0.046796948  0.047859133            2 
  453000    1.0693402   -5.3821832      254.713  0.046856696   0.04783303            3 
  454000     1.075695   -5.3326784    256.18395  0.047023485  0.047807928            3 
  455000    1.0644053    -5.338532    256.41662  0.046962752  0.047782966            2 
  456000    1.0468322   -5.3857047    255.34879  0.046664619  0.047756865            6 
  457000    1.0609376   -5.3444973    256.82439  0.046831582  0.047730455            2 
  458000    1.0627197   -5.3848572     257.0099  0.046763082  0.047704951            7 
  459000    1.0486074   -5.3827198    256.37065  0.046545144  0.047678074            3 
  460000    1.0867776   -5.4217687    255.54748  0.046294833  0.047650513            3 
  461000    1.0500465   -5.3631307    257.81974  0.046605159  0.047622756            4 
  462000    1.0836234   -5.4014128    258.51006  0.046628799  0.047596066            3 
  463000     1.070695   -5.3812875    258.83601  0.046586754  0.047568454            6 
  464000    1.1068514   -5.3373701    259.74361  0.046649355  0.047541449            2 
  465000      1.06313   -5.3834713    259.55582  0.046515379  0.047514042            4 
  466000    1.0617979   -5.3948867    260.34348  0.046556417  0.047486755            2 
  467000    1.0771724   -5.3428706    260.97636  0.046569657  0.047459772            3 
  468000    1.0711479   -5.3782486    260.67557  0.046416589  0.047434044            6 
  469000       1.0759   -5.3825429    261.72099  0.046503374  0.047408116            2 
  470000    1.0615142   -5.3443168    262.03408  0.046459943  0.047382682            5 
  471000    1.0767178   -5.4005713    262.72883  0.046484223  0.047356584            1 
  472000    1.0553258   -5.3521371    263.26743  0.046480831  0.047330392            3 
  473000    1.0719477   -5.3973298     263.0203  0.046339024  0.047304333            5 
  474000    1.0685275   -5.3967181    264.35149  0.046475297  0.047278088            2 
  475000     1.046457   -5.3964786    263.83119  0.046286174   0.04725206            4 
  476000    1.0551613   -5.4000302    264.15804  0.046246155  0.047224273            3 
  477000    1.0682259   -5.4040801    262.59959  0.045876938  0.047196341            2 
  478000    1.0950332   -5.3946121    264.53015  0.046117529   0.04716867            2 
  479000     1.059039   -5.3852497    265.73796  0.046231378  0.047141519            4 
  480000    1.0510224   -5.3703628    265.52003  0.046097228  0.047115247            1 
  481000    1.0736781   -5.3830441    266.30079  0.046136658  0.047088396            3 
  482000     1.076014   -5.3627917    266.86567  0.046138601  0.047061825            4 
  483000    1.0620092   -5.3834589    267.32019  0.046121496  0.047036126            5 
  484000    1.0669134   -5.4166903    267.80889  0.046110347  0.047009346            2 
  485000    1.0608898   -5.3776659    268.84445  0.046193205  0.046983096            1 
  486000    1.0642287   -5.4040725    268.31865  0.046007998  0.046956767            2 
  487000    1.0742802   -5.4306379    268.89024  0.046011335  0.046931222            2 
  488000    1.0598536   -5.3804411    269.80115  0.046072601  0.046906175            2 
  489000      1.07337   -5.4170852    269.64226  0.045951306  0.046881219            2 
  490000     1.064712   -5.4205427    269.86088  0.045894708   0.04685638            3 
  491000    1.0756679   -5.3907553    271.28198  0.046042426  0.046831971            4 
  492000     1.058759   -5.4159656    271.35847  0.045961801  0.046806842            4 
  493000    1.0781933   -5.4112931    273.09428  0.046161981  0.046782209            3 
  494000     1.086169   -5.3881735    273.48945  0.046135198   0.04675802            1 
  495000    1.0412511   -5.3727666     272.9725  0.045954967  0.046734057            2 
  496000    1.0551906   -5.4250185    273.05447  0.045876087  0.046708827            2 
  497000    1.0623026   -5.3717273    273.58914  0.045873431  0.046683268            3 
  498000    1.0670236   -5.3783272    274.72044  0.045970623   0.04665875            2 
  499000    1.0543837    -5.378417    275.48127  0.046005556  0.046634544            3 
  500000    1.0596039   -5.4049786    274.51973  0.045753288  0.046610167            2 
  501000    1.0751282   -5.3974857    276.60028   0.04600803  0.046585937            1 
  502000    1.0541169   -5.3790656    276.17078  0.045845083  0.046562567            3 
  503000    1.0543273   -5.4349549    276.58026  0.045821779  0.046539702            5 
  504000    1.0562258   -5.4040689    277.71782  0.045918952   0.04651684            5 
  505000    1.0580306   -5.4174663    278.29815  0.045923786  0.046494001            2 
  506000    1.0758538   -5.4530228    278.05832   0.04579353  0.046470712            3 
  507000    1.0559629   -5.4128023    279.14497  0.045881816  0.046447804            3 
  508000      1.05705   -5.4376899    278.47475  0.045681553  0.046424411            5 
  509000    1.0631976   -5.4325749     279.0945  0.045693271  0.046400997            3 
  510000    1.0308279   -5.4057081    279.85041  0.045727192  0.046377622            3 
  511000    1.0326955   -5.4133592    280.23602   0.04570059  0.046354102            5 
  512000    1.0613145   -5.3969111     281.6092  0.045834831  0.046331359            3 
  513000    1.0583468   -5.4298851    281.09044  0.045661215  0.046308286            2 
  514000    1.0221683   -5.4303242    281.98332   0.04571714  0.046285604            2 
  515000    1.0444113   -5.4075594    281.79836   0.04559844  0.046261934            2 
  516000     1.048323   -5.4542346    281.05503  0.045390024  0.046238575            4 
  517000    1.0594167   -5.4102462    281.91936  0.045441548  0.046214996            6 
  518000     1.061629   -5.4372436    282.41766  0.045433987  0.046190918            3 
  519000    1.0726374   -5.4095674    282.68588  0.045389512  0.046166876            7 
  520000    1.0324168    -5.403099    283.18781  0.045382661  0.046141235            2 
  521000    1.0188386   -5.4459843    282.31069  0.045155261  0.046115443            4 
  522000    1.0577782   -5.4410281    283.14852   0.04520251  0.046089354            3 
  523000    1.0222635   -5.4498679    283.73742  0.045209914  0.046062943            4 
  524000    1.0136361   -5.4457408     283.2493  0.045046008  0.046035972            4 
  525000    1.0351037   -5.4251397    284.22349  0.045114839  0.046009484            2 
  526000     1.079095   -5.4006294    284.95862  0.045145536  0.045982975            5 
  527000    1.0460959    -5.454222    285.01401  0.045068629  0.045956302            2 
  528000    1.0265849   -5.4023679    286.27839  0.045182827  0.045930188            1 
  529000    1.0525138   -5.4012508    288.22597  0.045404217  0.045905283            2 
  530000      1.04359   -5.4535043    285.86573  0.044947441  0.045880319            3 
  531000    1.0313791   -5.4479274    287.20841   0.04507351   0.04585511            4 
  532000    1.0739251   -5.4532999    286.56109  0.044887389  0.045829523            3 
  533000    1.0339365   -5.4183158    288.09872  0.045043577  0.045804406            2 
  534000    1.0196701   -5.3837913    289.68654  0.045207014  0.045779451            4 
  535000    1.0471783   -5.4405475     288.9016  0.045000249  0.045754079            5 
  536000    1.0459586   -5.4314992    289.16158  0.044956714  0.045728581            5 
  537000    1.0287104   -5.3979446    290.21213  0.045036023  0.045703585            3 
  538000    1.0416833   -5.4656043    289.37279  0.044822303  0.045678035            5 
  539000    1.0328282   -5.4624231    290.31264  0.044884452  0.045653221            2 
  540000    1.0388313   -5.4214267    291.02627  0.044911461  0.045629121            2 
  541000    1.0494286   -5.4426231    292.37567  0.045036301  0.045604998            2 
  542000    1.0324824   -5.4441952    292.42888  0.044961391  0.045579946            2 
  543000    1.0232412   -5.4486379    292.90763  0.044952062  0.045556272            4 
  544000    1.0198655   -5.3914911    294.30178  0.045082993  0.045532937            4 
  545000    1.0427458   -5.4300589    292.29997  0.044694185  0.045509153            4 
  546000    1.0126613   -5.4528604    293.44378  0.044786901  0.045484416            7 
  547000    1.0502793   -5.4877521    294.58745  0.044879258  0.045459826            1 
  548000    1.0487398   -5.4809632     295.0601  0.044869236  0.045435407            7 
  549000    1.0379941    -5.481899    294.48494  0.044700203  0.045411577            4 
  550000    1.0398386   -5.4421483     295.4182  0.044760334  0.045387578            3 
  551000    1.0365787   -5.4792427    296.12921  0.044786631  0.045364022            2 
  552000    1.0238836   -5.4308622    296.53604  0.044766914  0.045340398            3 
  553000    1.0424628   -5.4602354    295.58882  0.044543222  0.045316646            2 
  554000    1.0358185   -5.4399466    296.40056  0.044584921  0.045292009            3 
  555000    1.0155356   -5.4278167    298.38193  0.044802091  0.045268843            2 
  556000    1.0217128   -5.4568744    297.63656  0.044609796    0.0452447            5 
  557000    1.0386561   -5.4524945      298.037  0.044589618  0.045220585            5 
  558000    1.0588107   -5.4675229    298.64175  0.044600022  0.045196671            4 
  559000    1.0631601   -5.4973719    297.97724  0.044421174  0.045173334            3 
  560000    1.0209747   -5.4835366    299.84162  0.044619288  0.045150704            5 
  561000    1.0289726   -5.4746176    299.24701  0.044451427  0.045127876            5 
  562000    1.0175151   -5.4561268    300.74114  0.044593882   0.04510511            7 
  563000    1.0332143   -5.4510218    302.40069  0.044760315  0.045082317            5 
  564000    1.0352874   -5.4793922     301.0773  0.044485416   0.04505887            2 
  565000    1.0100072   -5.4866779    301.27179  0.044435367  0.045035449            3 
  566000    1.0209488   -5.4550192    302.55541   0.04454585  0.045012896            4 
  567000    1.0599612   -5.4952766     302.3943  0.044443607  0.044990685            3 
  568000    1.0142879   -5.4407397    304.33187  0.044649629  0.044968775            3 
  569000    1.0302321   -5.4784036    304.30497  0.044567219  0.044946084            2 
  570000    1.0437225   -5.4998304    303.69776  0.044400257  0.044922886            2 
  571000    1.0332233   -5.4652194    304.27919  0.044407354  0.044900198            6 
  572000     1.034631   -5.5254574    304.34599   0.04433945  0.044877904            2 
  573000    1.0117788    -5.471544    305.36374  0.044410084   0.04485509            6 
  574000    1.0196803   -5.4636486    304.98028  0.044277044  0.044832733            5 
  575000    1.0227682   -5.4799765    306.41398  0.044407824  0.044810235            2 
  576000    1.0441482   -5.4591268    306.43214  0.044333354  0.044787176            3 
  577000    1.0259603   -5.4775972    307.24956  0.044374575  0.044765105            3 
  578000    1.0110187   -5.4747886    307.11343  0.044278176   0.04474274            4 
  579000    1.0280679   -5.4830795    308.02996  0.044333616  0.044720703            2 
  580000    1.0275247   -5.4891757    307.39177  0.044165485  0.044698953            4 
  581000    1.0262928   -5.4956941    307.82924  0.044152215  0.044676436            5 
  582000    1.0086836   -5.5061327    308.71482  0.044203153   0.04465405            2 
  583000    1.0101518   -5.4571231    310.80435  0.044426008  0.044631587            5 
  584000    1.0068492   -5.4859163    308.92115  0.044081214  0.044609308            4 
  585000    1.0042178   -5.5155165    309.61298  0.044104413  0.044586615            5 
  586000    1.0463475   -5.4678912    310.73257  0.044188363     0.044564            4 
  587000    1.0202578   -5.4724863     311.2771  0.044190388  0.044541509            3 
  588000    1.0357061   -5.4770674    311.11773  0.044092649  0.044519323            4 
  589000   0.97726499   -5.4793841    311.36158  0.044052289  0.044497084            2 
  590000    1.0288995   -5.4621905    312.30041  0.044110227  0.044474034            3 
  591000    1.0238155   -5.5056126    311.30721  0.043895545  0.044450231            2 
  592000    1.0077111   -5.4791622    310.75116  0.043743125  0.044426283            2 
  593000    1.0370596   -5.5049292     312.2374  0.043878219  0.044403113            3 
  594000    0.9988065   -5.4814998      313.527   0.04398527  0.044380185            3 
  595000    1.0247908   -5.4785508    312.88967  0.043822082  0.044356934            2 
  596000    1.0079237   -5.4652499    313.17488  0.043788434  0.044334046            3 
  597000    1.0240383   -5.4988484    313.15322  0.043712064  0.044310917            2 
  598000    1.0235192   -5.4622137     314.3016  0.043798996  0.044287861            3 
  599000    1.0291021   -5.5200061     313.9218  0.043673038  0.044264299            3 
  600000   0.98992368   -5.4891189    315.36319  0.043800443  0.044240932            2 
  601000    1.0045338   -5.4754342    315.33668  0.043723888   0.04421762            4 
  602000   0.99206717   -5.5057722    315.14391  0.043624572  0.044194592            4 
  603000    1.0131102   -5.4797461    315.77883  0.043639971  0.044171327            3 
  604000     1.027057   -5.4865091    316.02401  0.043601547  0.044147745            3 
  605000   0.97834924   -5.5178418    316.50591  0.043595855  0.044123954            4 
  606000    1.0284241   -5.5113438    315.93354  0.043445206  0.044100129            9 
  607000    1.0218214   -5.5223949    315.80031  0.043355342  0.044076019            5 
  608000    1.0083148   -5.5195666    316.80297   0.04342146  0.044051862            7 
  609000    1.0080731   -5.5170712    318.21306  0.043543112  0.044028854            3 
  610000    1.0045864   -5.5243436    318.80099  0.043552048  0.044004344            4 
  611000    1.0433283    -5.515867    318.42714  0.043429779  0.043979859            3 
  612000    1.0078447   -5.5085717    318.73182  0.043400302  0.043955537            3 
  613000   0.98623715   -5.5017931    319.05596  0.043373567  0.043931226            7 
  614000   0.99541068   -5.5134795    318.59702  0.043240638  0.043907202            5 
  615000    1.0073412   -5.5425196    319.53025  0.043296782  0.043883139            2 
  616000    1.0210831   -5.5267578    319.49373  0.043221555  0.043859615            9 
  617000    0.9964496   -5.5131937    321.17177  0.043378142  0.043836569            5 
  618000   0.98813379   -5.5314993    320.89408  0.043270507   0.04381352            6 
  619000    1.0178888    -5.518942    322.05251  0.043356558  0.043789532            4 
  620000    1.0136939   -5.5293521    321.15028   0.04316536  0.043765564            2 
  621000    1.0035017   -5.4660503    322.73648  0.043308706  0.043741822            3 
  622000     1.007226   -5.5022079    322.81735  0.043249913  0.043717705            6 
  623000    1.0090083   -5.4937744    322.07407  0.043081069  0.043692758            3 
  624000    1.0178767   -5.4965076    323.32498  0.043179084  0.043667435            4 
  625000    1.0058193   -5.5009312    322.26198  0.042968264  0.043642337            6 
  626000    1.0254846   -5.4858881    322.94947  0.042991144  0.043616872            2 
  627000    1.0330073   -5.4963464     323.3197  0.042971783   0.04359177            2 
  628000   0.97985855   -5.5349475    323.74224  0.042959427  0.043566473            2 
  629000    1.0093202   -5.5218265    324.15092  0.042945273   0.04354131            3 
  630000   0.98012914   -5.5081548    324.86342  0.042971352  0.043516554            4 
  631000   0.99943152   -5.5048599    325.79981  0.043026916  0.043492077            6 
  632000    1.0112868    -5.530626    325.43988  0.042911376  0.043467176            4 
  633000   0.99950049   -5.5022886    325.75706  0.042885343  0.043443499            2 
  634000   0.97594062   -5.5493339    326.61508  0.042930479  0.043419234            3 
  635000    1.0056388   -5.5322393    326.79813  0.042886894  0.043395331            3 
  636000    1.0053345   -5.5337095    328.32681  0.043019761   0.04337187            3 
  637000    1.0088716   -5.5304476    326.81029  0.042753832  0.043348471            4 
  638000    1.0190836   -5.5643594    327.35165   0.04275753  0.043324944            5 
  639000    0.9959685   -5.5217923     328.4932  0.042839488  0.043301275            3 
  640000     1.004222   -5.5085246    329.02378  0.042841637  0.043277279            3 
  641000    1.0034197   -5.5282798    328.46619  0.042702313  0.043253167            8 
  642000    1.0153349    -5.511928    329.09637  0.042717598   0.04322881            3 
  643000    0.9896358   -5.5350105    329.25426  0.042671625  0.043204538            4 
  644000   0.99387146   -5.5523468    328.59782  0.042520422  0.043179929            9 
  645000    1.0076797   -5.5397672    330.29368  0.042673602  0.043156269            5 
  646000   0.99458935   -5.5164421    332.91149  0.042945238  0.043133278            5 
  647000   0.98504832   -5.5006641     331.8358  0.042740314  0.043109896            5 
  648000    1.0062886   -5.5529409    331.21801  0.042594908  0.043086532            3 
  649000    1.0219308   -5.5057534    332.29187  0.042667164  0.043063293            5 
  650000   0.98344857   -5.5509465    333.42291  0.042746527   0.04304007            3 
  651000   0.99099758   -5.5120943    332.77132  0.042597456  0.043016514            4 
  652000   0.96002935   -5.5089952    332.52606  0.042500774  0.042992889            1 
  653000    1.0043812   -5.5228894    333.19474  0.042521024  0.042968976            5 
  654000   0.98292435   -5.5451902    333.89818  0.042545639  0.042945775            4 
  655000    1.0028108   -5.5671781    332.74992  0.042334595  0.042921803            5 
  656000   0.98042243   -5.5130661    334.17719   0.04245137  0.042898217            4 
  657000   0.97137176   -5.5232642    334.39085  0.042413857     0.042875            2 
  658000   0.98486611   -5.5373337    335.81316  0.042529529  0.042852406            3 
  659000   0.98667319   -5.5390739    336.72034  0.042579709  0.042829346            8 
  660000   0.98770907   -5.5795022    334.77746  0.042269882  0.042806375            8 
  661000   0.98702611   -5.5464707     335.7443  0.042327824  0.042782986            3 
  662000    1.0007859   -5.5310304    339.35036   0.04271782  0.042761018            4 
  663000   0.99305931   -5.5313324    337.90123  0.042471245  0.042739199            3 
  664000   0.98049692   -5.5521432    337.71423  0.042383814  0.042716835            5 
  665000   0.98463839   -5.5205389    338.17915  0.042378339  0.042695152            3 
  666000   0.98136657   -5.5633033    339.41205  0.042468975  0.042673225            7 
  667000   0.99850001   -5.5593534    337.99864  0.042228716   0.04265092            6 
  668000   0.99866364   -5.5469915    339.89027  0.042401481  0.042628711            4 
  669000   0.99722783   -5.5430825    340.79717  0.042451068  0.042606827            4 
  670000    1.0032879   -5.5524429    339.97985   0.04228605   0.04258502            5 
  671000   0.98100568   -5.5474714    340.70403  0.042312969  0.042563132            4 
  672000    1.0012674   -5.5514244    342.13784  0.042427808  0.042541198            5 
  673000   0.98832911   -5.5338316     341.2948  0.042260376  0.042519497            3 
  674000   0.99662356   -5.5318046    342.67239  0.042368001  0.042498144            5 
  675000    1.0065536   -5.5784313    342.08598  0.042232838  0.042476594            4 
  676000   0.99481864   -5.5577286     342.2099  0.042185639  0.042454722            2 
  677000   0.99722858   -5.5518615    343.58347  0.042292401  0.042433759            5 
  678000    1.0124109   -5.5308943    343.78532  0.042254833  0.042412801            5 
  679000   0.96158542   -5.5578566    344.39451  0.042267367  0.042392295            3 
  680000   0.97354424   -5.5520298    344.24956  0.042187447  0.042371634            5 
  681000    1.0067581     -5.57803    344.86703  0.042201056  0.042350664            5 
  682000   0.97836444   -5.5530439    346.30706  0.042315134  0.042329865            3 
  683000   0.97020767    -5.608497    345.26171  0.042125635  0.042309434            5 
  684000   0.98200673   -5.5892788    345.37611  0.042077986  0.042288576            8 
  685000   0.98577568   -5.5736496    346.80218  0.042190046  0.042267891            3 
  686000   0.96977667   -5.5978323    346.09282  0.042042374  0.042248141            3 
  687000   0.99986214   -5.5567433    347.90499  0.042200993  0.042228417            2 
  688000    0.9764953   -5.5888384    347.65291  0.042109121  0.042208559            4 
  689000   0.99178226   -5.5665591    348.33484  0.042130484  0.042189039            4 
  690000   0.95024098   -5.5780046    349.35852  0.042193058  0.042169491            2 
  691000   0.97434496   -5.5762533    350.00796  0.042210319  0.042150087            6 
  692000   0.99477607   -5.5504764    350.42936  0.042200068  0.042131352            6 
  693000   0.98128551   -5.5778585    350.68155  0.042169499  0.042112317            3 
  694000    0.9614771   -5.5867435    349.87552   0.04201195  0.042092569            7 
  695000    0.9748874   -5.6075243    348.85333  0.041828937   0.04207251            4 
  696000   0.99159518   -5.5939529    351.25485  0.042056375  0.042052242            3 
  697000   0.97116804   -5.5669397    350.52817  0.041909154   0.04203144            6 
  698000     0.970704   -5.6177166    349.95321  0.041780469  0.042010252            4 
  699000   0.98684309   -5.5779709    349.80741  0.041703315  0.041988955            4 
  700000   0.99385061    -5.526627    351.68507  0.041867271  0.041967823            4 
  701000    0.9591165   -5.5711674    351.57239   0.04179415  0.041946414            3 
  702000   0.96332729   -5.6215626    351.04418  0.041671911  0.041924798            8 
  703000   0.98061745    -5.590816    351.54111   0.04167154  0.041902958            6 
  704000   0.96670627    -5.609359    350.96386  0.041544017  0.041881078            6 
  705000   0.98061137   -5.5733663    352.07259  0.041616145  0.041859438            4 
  706000   0.96851675   -5.5475776    354.21227  0.041809758  0.041838081            6 
  707000   0.95964617   -5.5774029    353.44374  0.041660036  0.041816201            5 
  708000   0.95746079   -5.5884498    353.62235  0.041622217  0.041794488            2 
  709000   0.98735284   -5.5769534    354.48795  0.041665251  0.041772805            7 
  710000   0.96539897   -5.5990396    353.67943   0.04151167  0.041750777            6 
  711000   0.96858226   -5.5840972    354.57928  0.041558752  0.041728622            2 
  712000   0.95913985   -5.5825207    353.65285  0.041391954  0.041706215            4 
  713000   0.99191635   -5.5990497    351.83608  0.041121562   0.04168383            4 
  714000   0.97818566   -5.6018997    354.57333  0.041383442  0.041661091            3 
  715000   0.93276771   -5.5877333    355.06963  0.041383407  0.041638447            4 
  716000   0.96733255   -5.5813981    354.60128  0.041271099   0.04161602            4 
  717000   0.97573809   -5.6154163     355.2364  0.041287355  0.041593939            5 
  718000   0.98076177   -5.5956534    355.64834  0.041277662  0.041571586            3 
  719000   0.97290145    -5.618567    355.64747  0.041220151   0.04154905            4 
  720000   0.94756171   -5.6024843    356.01479  0.041205416  0.041526861            5 
  721000   0.97416008   -5.6114958    355.81263  0.041124899  0.041504512            4 
  722000   0.96950392   -5.6087027    357.01872  0.041207147  0.041481882            4 
  723000   0.96907102   -5.5809419    357.57619  0.041214407  0.041459716            6 
  724000   0.96410928    -5.604415    356.12578  0.040990536  0.041437416            3 
  725000   0.99684929   -5.6072017     358.0512   0.04115531  0.041415363            4 
  726000   0.95690197   -5.6026441    358.09792  0.041103985  0.041393342            4 
  727000   0.95502576   -5.6123808    359.23154  0.041177389  0.041371278            5 
  728000   0.94493658   -5.6219975    359.56488  0.041158984  0.041349319            4 
  729000   0.97972588   -5.5980817    359.05983  0.041044791  0.041327524            5 
  730000   0.95215405   -5.6229883     361.1288  0.041224749  0.041306666            6 
  731000   0.98836119   -5.6154993    361.17786  0.041173947  0.041285188            4 
  732000   0.95963942    -5.624823    361.49354  0.041153636  0.041263635            3 
  733000   0.94960757   -5.6078934    359.82126  0.040907373  0.041242177            3 
  734000    0.9697188   -5.6485254    360.05446  0.040878118  0.041220765            5 
  735000   0.95104112   -5.5945449    362.06668  0.041050644  0.041199036            3 
  736000   0.96686185   -5.5974242     362.6333  0.041059024  0.041177966            4 
  737000    0.9679979   -5.5964009    363.04773  0.041050173  0.041156442            8 
  738000   0.98386464    -5.604581    363.15791  0.041006991  0.041134978            4 
  739000   0.97864774   -5.5849179    363.20746  0.040957088  0.041113393            2 
  740000   0.95930642   -5.6141029    363.18623   0.04089935  0.041092309            4 
  741000    0.9639022   -5.6177306    363.41698  0.040870106  0.041070836            3 
  742000   0.97154724    -5.623302    363.50123  0.040824487  0.041049422            3 
  743000    0.9265245   -5.6428225    363.43444   0.04076205   0.04102795            2 
  744000   0.96279467   -5.6434144    363.89671   0.04075904   0.04100603            2 
  745000    0.9678892    -5.602076    363.97066  0.040712602  0.040983986            8 
  746000   0.94486094   -5.5913052    364.28158  0.040692759   0.04096187            3 
  747000   0.95958901   -5.6228656    364.86844  0.040703752  0.040939892           10 
  748000   0.97793518    -5.628012    365.17572  0.040683569  0.040918027            5 
  749000   0.94923002   -5.6316396    365.46318  0.040661234  0.040895907            4 
  750000   0.95872544   -5.5840645      366.529  0.040725445  0.040874037            4 
  751000   0.94447513   -5.6094359    365.80628  0.040591021  0.040852138            2 
  752000   0.95781142   -5.6171354    366.38613  0.040601299  0.040830389            3 
  753000    0.9556143   -5.6145763    367.83313  0.040707518  0.040808684            3 
  754000    0.9506822   -5.6399181    366.42859  0.040498297  0.040787016            6 
  755000   0.96548062   -5.6568905    366.98267  0.040505813    0.0407647            4 
  756000   0.95088271   -5.6269225    368.51918  0.040621603  0.040742774            3 
  757000   0.94288407   -5.5955998    370.10849  0.040742899   0.04072151            4 
  758000   0.97788448   -5.6316803     368.6108  0.040524494  0.040699779            7 
  759000   0.95127203   -5.5965414    368.80411  0.040492327  0.040678297            6 
  760000   0.94949035   -5.6375616    370.02072  0.040572447  0.040657091            4 
  761000   0.94461762   -5.5887734    370.20758  0.040539595  0.040635534            5 
  762000   0.96386579   -5.6267157      370.901  0.040562226  0.040614079            5 
  763000   0.93731621   -5.6254635    370.64478  0.040481081  0.040592802            3 
  764000    0.9590339   -5.6614318    371.23818  0.040492821  0.040571895            4 
  765000   0.95521474   -5.6427895     368.7938  0.040173616  0.040550428            3 
  766000   0.93933173   -5.6367044    371.59323  0.040425721  0.040529136            5 
  767000   0.94104181   -5.6079287    372.45214  0.040466335  0.040508572            4 
  768000   0.96455548   -5.6363877    373.04436  0.040477904  0.040487667            2 
  769000   0.94668488    -5.644356    372.09084  0.040321937  0.040466621            6 
  770000    0.9650962   -5.6759482    371.59852   0.04021629  0.040444899            5 
  771000    0.9426957    -5.618145    374.05596  0.040429741  0.040423748            7 
  772000     0.942758   -5.5830109    374.39524  0.040413994  0.040402723            3 
  773000   0.92597145   -5.6468058    372.70324  0.040179305  0.040381926            5 
  774000   0.93515642   -5.6130741    374.89041  0.040362878  0.040361039            4 
  775000    0.9446918   -5.6492685    374.23648  0.040240482  0.040339624            8 
  776000   0.94929087   -5.6575486    374.10259  0.040174247  0.040318216            6 
  777000   0.92999025    -5.649321    374.92804  0.040211072     0.040297            5 
  778000   0.93376244   -5.6479511    375.50607  0.040221302  0.040276062            4 
  779000   0.92699469   -5.6689425    375.59947  0.040179661   0.04025545            6 
  780000   0.95816271    -5.695414    374.28353  0.039987557  0.040234162            5 
  781000   0.96539201   -5.6491629    375.94304  0.040113428  0.040213345            8 
  782000   0.92390543   -5.6411509    377.80397   0.04026044  0.040192777            2 
  783000   0.93220583   -5.6374341    377.82851  0.040211633  0.040171931            4 
  784000   0.92869045   -5.6673412    375.93864  0.039959464  0.040150849            2 
  785000   0.93156613   -5.6567442    376.64985   0.03998406  0.040130055            2 
  786000   0.94763409   -5.6346491    377.66779  0.040041114  0.040109134            3 
  787000    0.9504481   -5.6465691     380.0196  0.040239263  0.040088284            4 
  788000   0.94744489   -5.6859333    378.33569  0.040010119  0.040067615            7 
  789000   0.94216217   -5.6841115    378.37118  0.039963158   0.04004659            7 
  790000   0.92701171   -5.6473447    378.69327  0.039946547  0.040025255            5 
  791000   0.93940339   -5.6802301    377.79609  0.039801527  0.040004169            6 
  792000   0.91268328   -5.6652085    378.64175  0.039840252  0.039983136            7 
  793000   0.92979218   -5.6648859     380.2812  0.039962295  0.039962432            3 
  794000    0.9507875   -5.6825735    379.89016  0.039870923  0.039941675            6 
  795000      0.94776    -5.663787    379.90717  0.039822555  0.039920916            4 
  796000   0.95889568   -5.6394781     381.2414  0.039912207   0.03990011            3 
  797000   0.93150966   -5.6644439    380.65643  0.039800965   0.03987968            4 
  798000   0.89900631   -5.6769567    381.35282  0.039823812  0.039858927            5 
  799000   0.93159235   -5.6825286    380.64138  0.039699768  0.039838219            4 
  800000    0.9187621   -5.6449939    381.66398  0.039756664  0.039817675            4 
  801000   0.95190984   -5.6579255    382.44485   0.03978827  0.039797054            3 
  802000   0.92597129   -5.6873701    380.97363  0.039585789  0.039776547            4 
  803000   0.91948584   -5.6829625     382.1434  0.039657888  0.039755816            6 
  804000   0.92911546   -5.6751925    381.91245  0.039584624   0.03973488            7 
  805000   0.90852559   -5.6626358    382.73151  0.039620239  0.039713613            3 
  806000   0.93655163   -5.6664716    381.94866  0.039490143  0.039692241            4 
  807000   0.94088408   -5.7030045    382.52647  0.039500875   0.03967064            3 
  808000   0.92818215   -5.6987251    382.78939  0.039479104  0.039648875            7 
  809000   0.92543562    -5.669664    384.02385  0.039557463  0.039627557            4 
  810000   0.92663416   -5.6801226    383.24586  0.039428587  0.039606264            5 
  811000   0.91742631   -5.7042101    383.88438   0.03944558  0.039584652            3 
  812000   0.94476606   -5.6755097    385.42277  0.039554882  0.039563366            5 
  813000   0.92883017   -5.6876343     384.5337  0.039415099  0.039542152            4 
  814000   0.93689698   -5.6836925    386.01978  0.039518815  0.039520772            5 
  815000   0.91206312    -5.708645     384.5256  0.039317546  0.039499546            5 
  816000   0.92525544   -5.7005102    386.27226  0.039447739  0.039478338            4 
  817000   0.90199136   -5.6854796    385.80116  0.039351403  0.039456938            6 
  818000   0.92517865   -5.6639995    386.28935   0.03935303  0.039435859            7 
  819000   0.92096255    -5.689044    386.36816  0.039312999  0.039414998            5 
  820000   0.92483141   -5.7440347      385.641  0.039191159  0.039393957            5 
  821000   0.91969037   -5.6903201    386.95937  0.039277241  0.039372889            6 
  822000   0.89845626   -5.6608807    388.52478  0.039388157  0.039352437            4 
  823000   0.92332925   -5.6956624    388.87527  0.039375787  0.039332142            3 
  824000   0.92041107    -5.681467    389.18848  0.039359676  0.039311802            4 
  825000   0.90814938   -5.6877537     389.8028   0.03937402  0.039291938            6 
  826000   0.94609955   -5.6785893    389.81115  0.039327194  0.039272247            3 
  827000   0.91909564    -5.696744    389.82077  0.039280609  0.039252235            4 
  828000   0.91931951    -5.684608    389.40347   0.03919117   0.03923201            3 
  829000   0.91321625    -5.697527    389.47075  0.039150659  0.039211819            5 
  830000   0.91212726   -5.6682098    391.46683  0.039303899  0.039191403            2 
  831000   0.92002097   -5.6398071    392.19077  0.039329199  0.039171079            5 
  832000   0.90412399   -5.6863944    391.27728  0.039190432  0.039150855            5 
  833000   0.91337641     -5.67737    391.54728  0.039170396  0.039130602            7 
  834000    0.9133218   -5.7030036    391.21774  0.039090501  0.039110351            6 
  835000   0.91763887   -5.6502543     394.0466  0.039326008  0.039090418            8 
  836000    0.9161031   -5.6643572    392.38718  0.039113555  0.039070568            3 
  837000   0.91241274   -5.7096484    392.93602  0.039121468  0.039050517            3 
  838000   0.92409787   -5.7164197    392.50454  0.039031876  0.039030387            6 
  839000   0.89895082   -5.7074066    392.75602  0.039010331  0.039010289            5 
  840000   0.92732662   -5.6950443    393.61315  0.039048923  0.038989869            3 
  841000   0.90225382   -5.7260872    393.99486  0.039040315  0.038969538            5 
  842000   0.90574837   -5.7241122    393.31555  0.038926717  0.038949156           11 
  843000   0.92197139   -5.7187392    393.24077  0.038873149  0.038929287            4 
  844000   0.93102703   -5.6772209    396.21299  0.039120556  0.038909552            4 
  845000   0.91333659   -5.7251561    394.40682  0.038896136  0.038889853            2 
  846000   0.91101754   -5.6956432    395.30034  0.038938174  0.038869993            5 
  847000   0.91600381   -5.7147155    396.46572  0.039006859  0.038850169            5 
  848000   0.90752506   -5.7017796    397.40481  0.039053145  0.038830363            7 
  849000   0.93424785   -5.7152349    396.12329  0.038881359   0.03881051            4 
  850000   0.93795185   -5.7072239    396.31641   0.03885455   0.03879044            3 
  851000   0.91135359   -5.7144469    395.20877  0.038700428  0.038770588            2 
  852000   0.91864162   -5.7434466    396.58499  0.038789611   0.03875046            5 
  853000   0.93494524   -5.7278477    397.36187  0.038820034  0.038730234            4 
  854000   0.92443645   -5.7143122    397.66759  0.038804409  0.038709959            6 
  855000    0.9111987    -5.742743    396.21362  0.038617312  0.038689306            4 
  856000   0.90255617   -5.6914438    398.06018  0.038751965  0.038669004            5 
  857000   0.90697509    -5.752938    397.08424  0.038611848  0.038648803            3 
  858000   0.88720965   -5.7370567    397.39866  0.038597384  0.038628217            5 
  859000   0.91141218   -5.7270971    396.99917  0.038513695  0.038607712           12 
  860000   0.92062176    -5.701735    399.88057  0.038748117  0.038587493            8 
  861000   0.90866284   -5.7385113    398.40218  0.038560025  0.038567558            6 
  862000   0.93084878   -5.6846829    400.06497  0.038676041  0.038547677            4 
  863000    0.9151435   -5.7090769    401.01643    0.0387231  0.038528079            4 
  864000   0.91765129   -5.7021054    400.04855  0.038584929  0.038508509            4 
  865000   0.92081441   -5.6984828    399.93242  0.038529135  0.038489151            4 
  866000   0.92053494   -5.7071558    400.63224  0.038551986  0.038469411            3 
  867000   0.91657093   -5.7163549    401.23224   0.03856519  0.038449727            5 
  868000   0.89983895   -5.7523097    401.20724  0.038518361  0.038430047            5 
  869000   0.91234585   -5.7321128    401.21021   0.03847432  0.038410288            5 
  870000   0.90550035   -5.6894332     402.7686  0.038579367  0.038390684            4 
  871000   0.92006707   -5.7151867    403.22302  0.038578552  0.038371242            5 
  872000   0.89990039   -5.6896313    403.10566  0.038523095  0.038351527            6 
  873000   0.89718685   -5.7433267    402.29403  0.038401492   0.03833197            4 
  874000   0.91097963   -5.7059232    402.78148  0.038404031  0.038311917            5 
  875000   0.91202408   -5.7364796    402.73716   0.03835592  0.038291796            6 
  876000   0.91121914   -5.7175502     403.9361  0.038426189  0.038271692            4 
  877000   0.90324616   -5.7514432    402.68946  0.038263917  0.038251518            5 
  878000   0.89450254    -5.763319    402.93275  0.038243428  0.038231409            4 
  879000   0.89236719   -5.7419635    403.90403  0.038292001  0.038211048            6 
  880000   0.90358201   -5.7470214    401.91383  0.038060022  0.038190704            5 
  881000   0.89122703   -5.7403979    403.75262  0.038190751   0.03817014            3 
  882000   0.89880847   -5.7324233    404.17257  0.038187129  0.038149584            4 
  883000   0.89392999   -5.7286513    404.87472  0.038210147  0.038129247            3 
  884000   0.89789804   -5.7428179    403.82404  0.038067877  0.038108917            4 
  885000   0.89437901   -5.7444838    404.73847  0.038110967  0.038088508            7 
  886000   0.89556157   -5.7378418    405.08129  0.038100197  0.038067926           10 
  887000   0.89186764   -5.7462354    404.95741  0.038045604  0.038047619            6 
  888000   0.91703233    -5.742949     407.3824  0.038230331  0.038027207            5 
  889000   0.89249723   -5.7560166     405.9219  0.038050421   0.03800715            5 
  890000   0.90804271   -5.8027915    404.27027  0.037853022  0.037986738            4 
  891000    0.8991307   -5.7428682    406.70736  0.038038473  0.037966304            6 
  892000    0.8956287   -5.7798572    406.08324  0.037937522  0.037946015            3 
  893000   0.88377853   -5.7215247    406.53663  0.037937349  0.037925199            4 
  894000   0.90317419   -5.7701019    405.11552  0.037762446  0.037904322            4 
  895000   0.89543144   -5.7414813    405.12404  0.037721046  0.037883389            5 
  896000   0.89982168   -5.7492365    406.84485  0.037838993  0.037862775            7 
  897000   0.88379202   -5.7533056    407.76309  0.037882115  0.037841713            3 
  898000    0.8806733    -5.742733    406.30123  0.037704272  0.037820477            3 
  899000   0.88355944   -5.7723461    407.12589  0.037738773  0.037799196            5 
  900000   0.89998787   -5.7562354    405.69307  0.037564173  0.037778042            4 
  901000   0.87245303   -5.7468195     407.1655  0.037658666  0.037756997            6 
  902000   0.88974606   -5.7494735    407.89549  0.037684358  0.037735802            8 
  903000   0.87627889   -5.7981961    406.37771  0.037502557  0.037714815            4 
  904000   0.89286197    -5.759173    407.75456  0.037587994  0.037693269            5 
  905000   0.88708667   -5.7868515    407.92546  0.037562197  0.037672271            5 
  906000   0.91154499   -5.7690761    407.13263  0.037447814  0.037651116            3 
  907000   0.88553315   -5.7786771    409.41411  0.037616143  0.037629894            5 
  908000    0.8769079   -5.7912357      408.433  0.037484674  0.037608635            2 
  909000   0.89414875   -5.7719525     411.2064  0.037697689  0.037587349           26 
  910000   0.88378064   -5.7759294    409.02879  0.037456849  0.037566241            6 
  911000    0.9077379   -5.7613502    408.90226  0.037404159  0.037544941            4 
  912000   0.88331589   -5.7618147    410.47353  0.037506719  0.037523732            6 
  913000   0.88641538   -5.7523015    410.54564   0.03747222  0.037502572            4 
  914000    0.8994068   -5.7779157    411.13969  0.037485384  0.037481822            2 
  915000   0.88167591   -5.7942341    411.07632  0.037438645   0.03746102           10 
  916000   0.85575546   -5.7640381    411.58208  0.037443785  0.037440063            3 
  917000   0.88222659   -5.7741846    410.98181  0.037348401  0.037419232            3 
  918000    0.9113728   -5.7752962    411.99719  0.037399891  0.037398054            5 
  919000   0.88267823   -5.7500042    410.81552  0.037252042  0.037376935            5 
  920000   0.88085485   -5.7884072    410.48069  0.037181222  0.037355874            8 
  921000   0.88757584   -5.7724778     412.6629  0.037338301   0.03733459            3 
  922000   0.90080665   -5.7745081    411.84614  0.037223983   0.03731338            6 
  923000   0.89400746   -5.7742817    413.72723  0.037353487  0.037292386            3 
  924000   0.89999161   -5.7817881    413.19714  0.037265254  0.037271548            5 
  925000   0.89391562   -5.7945079    413.45376  0.037248086  0.037250525            4 
  926000   0.89255518   -5.7976209    413.41489  0.037204364  0.037229497            9 
  927000   0.88666448   -5.7784103    413.90491   0.03720828  0.037208427           13 
  928000   0.88291185   -5.7846807     413.1783  0.037102936  0.037187379            6 
  929000   0.90066124    -5.797974    413.36349  0.037079609  0.037166218           11 
  930000    0.8824969   -5.7955518    414.03304  0.037099735  0.037145034            8 
  931000   0.87879748   -5.8063163    414.54108   0.03710536  0.037124269            4 
  932000   0.88330928   -5.7686842    416.04491  0.037200009  0.037103563            3 
  933000   0.89516427   -5.7925909    415.72893  0.037131916  0.037082863            6 
  934000   0.89691882   -5.7777387     415.2996  0.037053854  0.037062048            4 
  935000   0.89254093   -5.7753612    415.02542  0.036989788  0.037040854           11 
  936000    0.8660865   -5.7679625    416.93497  0.037120279  0.037019719            4 
  937000   0.87490024   -5.7849845    415.38882  0.036943154  0.036998648            6 
  938000   0.87550611   -5.8192155    415.15635  0.036883116  0.036977778            8 
  939000   0.86298533   -5.7861149    416.67387  0.036978512  0.036956988           11 
  940000   0.85638955   -5.7957758    416.31143  0.036907042  0.036936213            7 
  941000   0.87671295   -5.7978859    415.98908  0.036839274  0.036915158            4 
  942000   0.87464172   -5.8129697    415.19703  0.036730098  0.036893938            5 
  943000   0.89529224   -5.7904472     416.0643  0.036767789  0.036872507            4 
  944000   0.87293672   -5.7878732    415.59984  0.036687839  0.036851264            5 
  945000   0.86964939   -5.7956349     417.5047  0.036816993  0.036830041            3 
  946000   0.88557222   -5.7962924    416.32306  0.036673983  0.036808625            5 
  947000   0.88598604   -5.8244752    415.74112  0.036584048  0.036787189            3 
  948000   0.88228595   -5.7725164     416.8456  0.036642546  0.036766035            5 
  949000   0.85735665   -5.7720099    418.68636  0.036765575  0.036744713            4 
  950000   0.87483727   -5.7781211    417.35057  0.036609699  0.036723338            7 
  951000   0.85159455   -5.8265808    418.07427  0.036634619  0.036702027            4 
  952000   0.86913163   -5.8096843    417.71902   0.03656504  0.036680683            7 
  953000   0.87064841   -5.8046877    417.90562  0.036542989  0.036659204           14 
  954000   0.86315122   -5.7906625    415.67333   0.03630969  0.036637318            4 
  955000   0.88177782   -5.7917455    417.59167  0.036439064  0.036615402            5 
  956000   0.86283109   -5.8100873    417.77817  0.036417205  0.036593546            6 
  957000   0.86891804   -5.7855846    419.29503  0.036511235  0.036571809            3 
  958000   0.86399265   -5.8389196    418.38108  0.036393622  0.036550331            4 
  959000   0.86279193   -5.7814787    417.44271  0.036274132  0.036529004            5 
  960000   0.85724737   -5.8060544    419.08054  0.036378519  0.036507205           10 
  961000   0.86981261   -5.8004623    418.69103  0.036306888  0.036485347            6 
  962000   0.85294568   -5.8181193    418.58225  0.036259724  0.036463626            6 
  963000    0.8663251   -5.8117815     418.4792  0.036213154  0.036441967            6 
  964000   0.84670153   -5.8104151     420.3514  0.036337431  0.036420103            4 
  965000   0.87235843   -5.8468298    418.97815  0.036181187  0.036398419            4 
  966000   0.86685238   -5.8312986    419.81092  0.036215573   0.03637672            5 
  967000   0.86367117   -5.8168437    420.53037  0.036240122  0.036355087            9 
  968000    0.8555693   -5.8155314    420.45248  0.036195978  0.036333836            4 
  969000    0.8576733   -5.8452672    421.22062  0.036224684  0.036312338           10 
  970000     0.887657   -5.8180792    421.23292  0.036188395  0.036290877            4 
  971000   0.86684379   -5.7851278     422.5604  0.036265054  0.036269538            5 
  972000   0.88046839   -5.8251075    420.95232  0.036089876  0.036248401            5 
  973000   0.85745743   -5.8383635    422.07281   0.03614875  0.036226741            7 
  974000   0.87125447   -5.8367748    421.97716  0.036103453  0.036205421            6 
  975000   0.85975083   -5.8588733    422.13268  0.036079716  0.036184121            3 
  976000   0.87253033   -5.8169562    423.14005  0.036128761  0.036162695            4 
  977000   0.86809949   -5.8217696    423.02772  0.036082201  0.036141627            5 
  978000   0.85998057   -5.8398741    423.08702   0.03605036  0.036120698            7 
  979000   0.87557648   -5.8203523    424.32862  0.036119222   0.03609985            8 
  980000   0.87486006   -5.7865873    425.32255  0.036166883  0.036079182            6 
  981000   0.86398572    -5.840526    423.78437  0.035999352  0.036058268            6 
  982000   0.85710014   -5.8386756    424.50592  0.036023924  0.036037376            6 
  983000   0.87299616    -5.810398    425.51265  0.036072622  0.036016554           14 
  984000   0.86175571   -5.8067451    425.35465  0.036022583  0.035995718           11 
  985000   0.84906105   -5.8259387    426.55346  0.036087433  0.035974872            9 
  986000   0.87777961   -5.8418006    426.96699  0.036085783  0.035954149           10 
  987000   0.87622593   -5.8466556      425.917   0.03596057  0.035933437            7 
  988000   0.87982051   -5.8394482    426.10126  0.035939715  0.035912546            5 
  989000   0.84441628   -5.8107745    427.02898  0.035981546  0.035891875            6 
  990000   0.88217804   -5.8369042     425.3047  0.035800059  0.035871152           14 
  991000   0.84069832   -5.8785087    424.97566  0.035736265  0.035850129            4 
  992000   0.88370453   -5.8681102    426.49538  0.035827905  0.035829133            9 
  993000   0.86238434   -5.8483141     426.5825  0.035799136  0.035808399            4 
  994000   0.86090684   -5.8480667    427.59662   0.03584814  0.035787347           13 
  995000   0.85253448   -5.8234306    428.33183  0.035873688  0.035766702            5 
  996000   0.84565218   -5.8396631     426.6846  0.035699849   0.03574595            6 
  997000   0.83189185   -5.8376305    425.84384  0.035593768  0.035724809            5 
  998000   0.85317187   -5.8311811    426.02438  0.035573178  0.035703804           11 
  999000   0.84838437    -5.843918    426.42203   0.03557074  0.035682585           11 
 1000000   0.83442621   -5.8559031    426.42586  0.035535488  0.035661509           12 
 1001000   0.85578836   -5.8449624    426.83104  0.035533719   0.03564026            5 
 1002000   0.83846626   -5.8759727     427.5777  0.035560354  0.035618997            9 
 1003000   0.85086539   -5.8435983    426.98133  0.035475351  0.035597589            3 
 1004000   0.85172216   -5.8284283    428.24271  0.035544713  0.035576093            4 
 1005000   0.86230674    -5.857315    428.04161   0.03549267  0.035554601            3 
 1006000   0.86124123   -5.8961731    426.91139  0.035363766  0.035533209            8 
 1007000   0.84785904   -5.8452305    429.35191  0.035530612  0.035512096            7 
 1008000   0.85758565   -5.8609768    427.31547  0.035327006  0.035491011            5 
 1009000   0.84314071   -5.8509609    428.32509  0.035375379  0.035469717           18 
 1010000   0.84426635   -5.8782526    427.24897  0.035251565    0.0354481            4 
 1011000   0.85869716   -5.8525999    428.32792  0.035305631  0.035426597            3 
 1012000   0.86231877    -5.847735    429.06396  0.035331354  0.035405259            3 
 1013000   0.82969387   -5.8670719    428.72033  0.035268207  0.035383873            5 
 1014000   0.83277941   -5.8717388    429.73599  0.035316896  0.035362616            9 
 1015000   0.85143341   -5.8258072    431.32787  0.035412797  0.035341583           13 
 1016000   0.84661902   -5.8786317    430.41266  0.035302875  0.035320556           13 
 1017000   0.82915868    -5.882704    428.94127  0.035147597   0.03529928            9 
 1018000   0.85381982   -5.8389207    430.36991  0.035230018  0.035277857           10 
 1019000   0.83935908   -5.8529188    430.12655  0.035175544  0.035256648            5 
 1020000   0.84330559   -5.8747871    430.21212  0.035148049  0.035235489            4 
 1021000   0.82728501   -5.8600496    430.74367  0.035157008  0.035214394            4 
 1022000   0.82955753   -5.8800709    429.85122  0.035049838  0.035192803            9 
 1023000   0.86506477   -5.8706508    431.09194  0.035116646  0.035171245            8 
 1024000   0.84196849   -5.8887145    431.19061  0.035090381  0.035149644            5 
 1025000   0.85516644   -5.8685583    431.45019  0.035077251  0.035128122            2 
 1026000   0.84148385   -5.8496481    432.20327  0.035104229  0.035106786            8 
 1027000   0.82598018   -5.9138009    430.84477  0.034959816  0.035085329            8 
 1028000   0.85042046   -5.8688428    432.10562  0.035028017  0.035063726            9 
 1029000   0.82778066    -5.876721    431.98192  0.034983959  0.035042412            8 
 1030000   0.83416983   -5.9092265    431.09642  0.034878351  0.035020901            4 
 1031000   0.84283608     -5.91077    432.15091  0.034929753  0.034999268           15 
 1032000    0.8182316   -5.9158409    433.34931  0.034992677  0.034977766            3 
 1033000   0.83638006    -5.876869    432.47739  0.034888463   0.03495643            6 
 1034000   0.84793299   -5.8692768    433.79972  0.034961292  0.034935718            2 
 1035000   0.85176238   -5.8924004    434.32454   0.03496977  0.034914841            4 
 1036000   0.83245057   -5.8919691    432.38861  0.034780293  0.034893793            4 
 1037000   0.84734711   -5.8961012    432.82354  0.034781705  0.034872688           10 
 1038000   0.84929158   -5.8771751    433.46584  0.034799762  0.034851785            5 
 1039000     0.837408   -5.8912317    435.05947  0.034894086  0.034830906            7 
 1040000   0.82534752   -5.8927446    433.98004  0.034774042  0.034810059            9 
 1041000   0.83300621   -5.9087319    435.21979  0.034839881  0.034789314           11 
 1042000   0.82622167   -5.9197381     434.1062  0.034717386  0.034768414            3 
 1043000   0.84266918    -5.865378    435.83692  0.034822381  0.034747609            3 
 1044000   0.81174574   -5.8974137    435.57444  0.034768075  0.034727041            7 
 1045000   0.83459292    -5.906751    435.91915  0.034762293  0.034706418            7 
 1046000   0.85450988   -5.9014981    435.53563  0.034698505  0.034685532           16 
 1047000   0.83184245   -5.9269803    436.23094  0.034720705  0.034664862            7 
 1048000   0.83705913   -5.9070249    436.79517  0.034732441  0.034644254            7 
 1049000   0.82536681   -5.8775499    435.82793  0.034622492  0.034623575            7 
 1050000   0.82226391   -5.8704116    437.52308  0.034724054   0.03460276           21 
 1051000   0.81275515   -5.9257572    435.78143  0.034552921  0.034582009            7 
 1052000   0.83191226   -5.9052996    436.64541  0.034588514  0.034561308            6 
 1053000   0.83422139   -5.9286468    435.57686  0.034471103  0.034540555            6 
 1054000   0.82182347     -5.89085    437.65369  0.034602601  0.034519953            9 
 1055000   0.83263963   -5.9195142    436.97528  0.034516215  0.034499271            4 
 1056000    0.8402269   -5.9311331    436.12407  0.034416357  0.034478571           10 
 1057000   0.83987024   -5.8685624    439.11719  0.034619772  0.034458013            7 
 1058000   0.83114435   -5.9018935    437.51023  0.034460478  0.034437506            6 
 1059000   0.83271708   -5.8839968    438.53089  0.034508254  0.034416903            5 
 1060000   0.83147443    -5.903873    438.38915  0.034464556  0.034396476            4 
 1061000   0.82898269    -5.903805    438.60129  0.034448735  0.034375907            3 
 1062000   0.83792497   -5.8826243    438.76445    0.0344291  0.034355429           12 
 1063000   0.83659758   -5.9459063    438.66925  0.034389248  0.034334783            9 
 1064000   0.83047972   -5.9075348    438.45376   0.03434005  0.034314281            4 
 1065000   0.82358008   -5.9219406     438.9897  0.034349742  0.034293954            7 
 1066000   0.82611398   -5.9177983    440.24009  0.034415267  0.034273508           21 
 1067000   0.82355121   -5.9266021    438.73308  0.034265314  0.034253002            3 
 1068000   0.82206552   -5.9015313    438.93138  0.034248703    0.0342323            6 
 1069000   0.82872744   -5.8721249      441.024  0.034379794  0.034211675            7 
 1070000   0.84385934   -5.8821339    439.43622  0.034224005  0.034191159            6 
 1071000   0.80760624   -5.9199026    439.99211  0.034235302  0.034170647            9 
 1072000   0.82910994   -5.9247867    440.53087  0.034245248  0.034149962           12 
 1073000   0.83632362   -5.9200296    440.47561  0.034209041  0.034129357            7 
 1074000   0.82377328   -5.9412159    440.84909  0.034206168   0.03410882            4 
 1075000   0.82868604   -5.9364519    440.07303  0.034114189  0.034088265           14 
 1076000   0.82318956   -5.9271635    440.94553  0.034150056  0.034067662            6 
 1077000   0.83732454   -5.9016623    442.79715  0.034261618  0.034047506            5 
 1078000   0.80933634   -5.9338685    441.99217  0.034167607  0.034027333            8 
 1079000    0.8180904   -5.8973737    440.94056  0.034054723  0.034007088            3 
 1080000    0.8053167   -5.9274596    440.76433  0.034009594    0.0339868            5 
 1081000   0.83481802   -5.9328533    441.94933  0.034069483  0.033966546            6 
 1082000   0.83082356   -5.9152204    442.60371  0.034088394   0.03394653            4 
 1083000   0.81893616   -5.9334851    441.28963  0.033955804  0.033926296            4 
 1084000   0.82449288   -5.9245569    443.45655  0.034091063  0.033906042            5 
 1085000   0.80818921   -5.9132365     442.5475  0.033989823  0.033885897            6 
 1086000   0.81863272   -5.9113788    443.24918  0.034012368   0.03386582           13 
 1087000   0.81823717   -5.9415817    442.43124  0.033918371  0.033845721            2 
 1088000   0.81714261   -5.9256468    443.96429  0.034004618  0.033825323            8 
 1089000   0.81206919   -5.9436614    444.29604  0.033998779  0.033805122           12 
 1090000   0.80443194   -5.9188004    443.29465  0.033891028  0.033784753            8 
 1091000   0.81611934   -5.9677889    442.69917   0.03381448  0.033764317           10 
 1092000   0.80950806    -5.964378    443.12435  0.033815961  0.033743789            5 
 1093000   0.81303506   -5.9419744    443.30375    0.0337987  0.033723346            5 
 1094000   0.84013196   -5.9422828    444.36497  0.033848642   0.03370273           13 
 1095000   0.81608115   -5.9421402    444.16066  0.033802181  0.033682327            5 
 1096000   0.80334032   -5.9506581    443.66393  0.033733571  0.033661727            6 
 1097000   0.81743812   -5.9547015    443.63071  0.033700297   0.03364113            9 
 1098000   0.80099344   -5.9282667    445.08862  0.033780253  0.033620481            4 
 1099000   0.80515944   -5.9393484    445.41962  0.033774615  0.033600159            9 
 1100000    0.8305677   -5.9662708    443.70637  0.033614119  0.033579821           11 
 1101000   0.82987343   -5.9430423    444.58181   0.03364985  0.033559337            6 
 1102000    0.8170773   -5.9512326    444.80015  0.033635825  0.033538925           11 
 1103000   0.80473248   -5.9497259    445.58099  0.033664324  0.033518497            6 
 1104000   0.81004036   -5.9295881    445.04926  0.033593694  0.033498179            6 
 1105000   0.82636667   -5.9439625    444.47131  0.033519707   0.03347781            6 
 1106000    0.8257742   -5.9511242    445.08657  0.033535758  0.033457394            9 
 1107000   0.82597609   -5.9748222    444.21559  0.033439897  0.033436924            5 
 1108000   0.80079526   -5.9462559    445.93587    0.0335391  0.033416594            6 
 1109000   0.79079216   -5.9548753     445.5897  0.033482845  0.033396146            6 
 1110000   0.81669901   -5.9436077    444.51426  0.033371941   0.03337586            6 
 1111000   0.81210916   -5.9512451    446.14706  0.033464376  0.033355445            7 
 1112000    0.8118788   -5.9152905    447.94141   0.03356875  0.033335132            7 
 1113000   0.79452074   -5.9484532     446.4215  0.033424791  0.033314905            7 
 1114000   0.82825904      -5.9607    444.43348  0.033246071  0.033294469            3 
 1115000   0.81309514   -5.9629088    446.07908  0.033339244  0.033273831            4 
 1116000   0.81098644   -5.9514345    446.23358  0.033320907  0.033253186           15 
 1117000   0.82706522    -5.952426    447.52769  0.033387623  0.033232482            7 
 1118000   0.81406672   -5.9663299    444.88218  0.033160568  0.033211931            7 
 1119000   0.80786885   -5.9491473    446.74273  0.033269492  0.033191433            8 
 1120000   0.81618052   -5.9530896    448.21079  0.033349017  0.033171059            6 
 1121000   0.81694157    -5.942955    447.05931  0.033233669  0.033150947            7 
 1122000   0.79640868   -5.9596886    447.15691  0.033211298  0.033130593            8 
 1123000   0.79826449   -5.9715844    447.68353  0.033220802  0.033110284            5 
 1124000   0.79268439   -5.9717734    448.22385  0.033231305  0.033089924           11 
 1125000   0.79519396   -5.9533426    448.65704  0.033233855   0.03306966            7 
 1126000    0.7818249   -5.9746948    447.67038  0.033131319   0.03304937            7 
 1127000   0.81034197   -5.9484696    449.68635  0.033250987  0.033029203           14 
 1128000   0.81194566   -6.0120134    446.90966  0.033016376  0.033008913            8 
 1129000   0.79435741   -5.9585837    449.18873  0.033155353  0.032988537            5 
 1130000   0.81090711   -6.0126146    446.76712  0.032947428  0.032968064            4 
 1131000   0.79969189   -6.0194359    447.35368  0.032961515  0.032947302            7 
 1132000   0.79351808   -5.9648988    450.63508  0.033173961   0.03292668            9 
 1133000   0.80378776   -5.9731923    447.22887   0.03289415  0.032906127            9 
 1134000   0.80747731   -6.0163339     447.5191  0.032886471  0.032885495            7 
 1135000   0.78741965   -5.9895099    448.57512  0.032935031  0.032864973            6 
 1136000   0.81544123   -5.9768658    449.19869  0.032951782  0.032844745            9 
 1137000   0.81162394   -5.9895777    449.28836  0.032929372  0.032824394            8 
 1138000   0.80873423   -5.9710267    449.66221  0.032927812  0.032804117            9 
 1139000    0.7944597   -5.9688616    449.17512  0.032863266  0.032783999            4 
 1140000   0.78515698   -5.9822371    449.38699  0.032849926  0.032763465            6 
 1141000   0.77187822   -5.9534356    451.53144  0.032977756  0.032743018           10 
 1142000   0.78850967   -5.9813307    449.76766  0.032820174  0.032722558            6 
 1143000   0.78539627   -5.9677451     449.3807  0.032763247  0.032702194            4 
 1144000   0.81195412   -5.9824987     449.3573  0.032732903  0.032681657            7 
 1145000   0.78447101   -5.9985374    450.16169   0.03276286  0.032661079            4 
 1146000    0.8040241   -5.9997066    449.17997  0.032662883  0.032640453            6 
 1147000   0.80854569   -6.0236971     448.3015  0.032570582  0.032619572            7 
 1148000   0.79594588   -5.9888715    448.82019  0.032579863   0.03259872            7 
 1149000   0.79541772   -5.9728185    451.11411  0.032717878  0.032577746            6 
 1150000   0.79097227   -5.9822916    450.16757  0.032620839  0.032556939            9 
 1151000   0.80358684   -5.9851476    448.31101  0.032458081   0.03253592            7 
 1152000   0.78327707   -5.9926259     449.7616  0.032534838  0.032515017            5 
 1153000   0.78203843     -5.99799    449.18246  0.032464763  0.032494137            9 
 1154000   0.79714773   -5.9917733    449.82195   0.03248281   0.03247328           22 
 1155000   0.80633323   -6.0049878     449.7697  0.032450916   0.03245224            4 
 1156000   0.79796883    -6.016476    449.97901  0.032437933  0.032431107           11 
 1157000   0.78657147    -6.004451    449.85814  0.032401192  0.032410113           10 
 1158000   0.78497618   -6.0023927      450.238  0.032400547   0.03238933            8 
 1159000   0.79156633   -6.0269645      449.708  0.032334484  0.032368434            9 
 1160000   0.78978287   -5.9938754    451.47837  0.032433791  0.032347592            8 
 1161000    0.7835954   -5.9979163    451.78853  0.032428117  0.032326712            5 
 1162000   0.80134491   -6.0255232    450.55562  0.032311791  0.032305717            6 
 1163000   0.79777946   -6.0119365    451.12856  0.032325062   0.03228489            8 
 1164000   0.79273627   -5.9800868    452.12464  0.032368603  0.032264069           13 
 1165000    0.7979542   -5.9987434    450.77096  0.032243989  0.032243271            6 
 1166000   0.80201536    -6.015344    451.03029  0.032234869   0.03222228            7 
 1167000   0.77337835   -6.0363552    451.32701  0.032228435  0.032201366           12 
 1168000    0.7987224   -5.9790717    452.50186  0.032284665  0.032180739            5 
 1169000   0.79706997   -6.0137722     452.0261  0.032223132  0.032160323           15 
 1170000   0.79046972   -5.9992915    452.72611  0.032245449  0.032139721            8 
 1171000   0.78300679   -6.0260854    452.04268  0.032169277  0.032119117            4 
 1172000   0.81191002   -6.0029671    452.24182  0.032155988  0.032098578            8 
 1173000   0.78007615   -6.0084645    453.23269  0.032198969  0.032077933            8 
 1174000   0.78783962   -6.0401089    451.28058  0.032032977  0.032057475           37 
 1175000   0.80572501   -5.9831981    453.42337  0.032157686  0.032036785            8 
 1176000   0.80107551   -6.0198403    452.48368  0.032063753  0.032016121            4 
 1177000   0.78269576   -6.0373284    451.59757  0.031973773  0.031995168            7 
 1178000   0.78083404   -6.0240954    453.60544   0.03208867  0.031974191            4 
 1179000     0.782994   -6.0291724    452.81452   0.03200555   0.03195332           15 
 1180000   0.78353053   -6.0103136    451.51044   0.03188633  0.031932678            3 
 1181000   0.79482726   -6.0180566     452.7611   0.03194758  0.031912075           11 
 1182000   0.78343481   -6.0242342    454.26963  0.032026906  0.031891419            4 
 1183000    0.7886523   -6.0311286     453.4966  0.031945379  0.031870799           10 
 1184000   0.78876889    -6.018636    453.26944   0.03190241  0.031850077            9 
 1185000   0.79703268   -6.0333714    452.51625  0.031822521  0.031829346            6 
 1186000   0.76968268   -6.0383598    452.81003  0.031816331  0.031808762            3 
 1187000    0.7787567   -6.0185205    453.79133   0.03185842  0.031788027            5 
 1188000   0.79018887    -6.018542    454.22411  0.031861961  0.031767387            6 
 1189000   0.78291091   -5.9987455    453.35813  0.031774469   0.03174664            9 
 1190000   0.78012278   -6.0173778    454.79611  0.031848467  0.031725989            7 
 1191000   0.77022764   -6.0341974    454.71644  0.031816152   0.03170542            5 
 1192000   0.76414045   -6.0218274    454.65378  0.031785079  0.031684564           10 
 1193000   0.77205323   -6.0257281    454.96588  0.031780238   0.03166395           10 
 1194000   0.77896594   -6.0207257    455.35249  0.031780603  0.031643232            6 
 1195000   0.79135846   -6.0174871    454.66763  0.031706251  0.031622739            4 
 1196000   0.78606804   -6.0372689    454.69845  0.031681887  0.031602166            8 
 1197000   0.77836132   -6.0436994    454.55494  0.031645429  0.031581341            5 
 1198000   0.79282813   -6.0528617    453.58965  0.031551867  0.031560572            8 
 1199000   0.76852219   -6.0527105    453.48519  0.031518292  0.031539807            8 
 1200000    0.7637737   -6.0547026    453.47288  0.031491172  0.031519078            4 
 1201000   0.76300451   -6.0570816    454.81738  0.031558242  0.031498317           11 
 1202000   0.78456395   -6.0551544    455.44288  0.031575352  0.031477765           11 
 1203000    0.8016516   -6.0315568    457.38496  0.031683635  0.031457395            5 
 1204000   0.78193016   -6.0849272    453.92598  0.031417911   0.03143685            6 
 1205000   0.78066357   -6.0764179     453.9591  0.031394128  0.031416139           10 
 1206000   0.77060915   -6.0705686    456.97848  0.031576733  0.031395618            8 
 1207000    0.7674614   -6.0364683    456.18509  0.031495795  0.031375086            6 
 1208000   0.76798519   -6.0679976    456.74124  0.031508088  0.031354433            4 
 1209000    0.7825369   -6.0722447    455.23314  0.031378077  0.031333828            3 
 1210000   0.76963317   -6.0561877    456.01173  0.031405767  0.031313285            7 
 1211000   0.75794845   -6.0513841    457.05479   0.03145161    0.0312928           13 
 1212000   0.77072264   -6.0569314    456.73641  0.031403769  0.031272498           20 
 1213000   0.77444665   -6.0551881     456.3203  0.031349292  0.031252201           12 
 1214000   0.76693383   -6.0621901    454.82107  0.031220557  0.031231836            8 
 1215000    0.7647615   -6.0472978    457.25123  0.031361538  0.031211413            8 
 1216000   0.77630647   -6.0658309    456.70648  0.031298416  0.031190988            6 
 1217000   0.76212154   -6.0463785    457.24646  0.031309672  0.031170529           26 
 1218000   0.77147443   -6.0508047    457.28317  0.031286478  0.031150143           12 
 1219000   0.76968401    -6.057441    457.83759  0.031298714  0.031129732            9 
 1220000   0.77153428   -6.0586577    456.57841   0.03118705  0.031109203           10 
 1221000   0.74920234   -6.0831389    456.41631  0.031150444  0.031088623           16 
 1222000   0.76741491   -6.0718087    456.52316   0.03113224  0.031068017            9 
 1223000   0.76281755   -6.0770933    456.66187  0.031116235  0.031047284            7 
 1224000   0.78431877   -6.1026694    456.21425  0.031060338  0.031026625           19 
 1225000   0.76218521   -6.0450158    457.37597  0.031114012  0.031006088            5 
 1226000   0.77638946   -6.0564617    457.07951  0.031068482  0.030985537            6 
 1227000    0.7514889   -6.0841888    457.01204   0.03103858  0.030964869            3 
 1228000   0.75588075   -6.0866783    456.75669  0.030995975  0.030944192            8 
 1229000   0.76697821   -6.0430005    458.16269   0.03106609  0.030923614            9 
 1230000   0.78400373   -6.0936038    457.54988  0.030999314  0.030903008            6 
 1231000   0.76908343   -6.0892519    457.20309  0.030950656  0.030882413           11 
 1232000   0.78130248   -6.0587055    457.76069   0.03096325  0.030861838           12 
 1233000   0.74588116   -6.0604796    457.60204  0.030927416  0.030841379            7 
 1234000    0.7643251   -6.0753743    458.27024  0.030947477   0.03082101            8 
 1235000   0.75612971   -6.0796405     457.4086  0.030864278  0.030800777            6 
 1236000   0.76651936   -6.0832075     457.1818  0.030824016  0.030780529           13 
 1237000   0.78555901   -6.0684481    458.44153  0.030883962  0.030760102            7 
 1238000   0.76437922   -6.0761527    458.14558  0.030839094  0.030739763            6 
 1239000   0.76255606     -6.07078    458.31561  0.030825639  0.030719424            5 
 1240000   0.76713761   -6.0736407    458.59595   0.03081962  0.030699227            7 
 1241000   0.76401818   -6.0765609    458.98532  0.030820932  0.030678911            7 
 1242000   0.75550296   -6.1153557    458.67974  0.030775613  0.030658684            8 
 1243000   0.74980955   -6.0952078    459.30728  0.030792926   0.03063835            9 
 1244000      0.75045   -6.0804528    459.44972  0.030777715  0.030618071            9 
 1245000   0.77285244   -6.0738384    459.95632  0.030786902  0.030597807            6 
 1246000    0.7657495   -6.0716598    460.40028  0.030791886  0.030577596           10 
 1247000   0.76236193   -6.0981244    458.56983   0.03064487  0.030557417            8 
 1248000   0.76160626   -6.1077599    460.08502  0.030721489  0.030537161            5 
 1249000   0.74343513   -6.1118555    459.63273  0.030666715  0.030516804            9 
 1250000   0.74416289   -6.0926388      460.781  0.030718733  0.030496648            9 
 1251000   0.75074271   -6.0758964    461.07821  0.030713976  0.030476596           18 
 1252000   0.77222783   -6.0939799    460.55058  0.030654325  0.030456581           17 
 1253000   0.75361768   -6.1040444    459.79999  0.030579941  0.030436586            5 
 1254000   0.73968886    -6.078707    460.79198  0.030621477  0.030416533            8 
 1255000   0.75273668   -6.0581061    460.45063  0.030574411  0.030396684            5 
 1256000   0.75748735    -6.091989    460.20227   0.03053359   0.03037665           10 
 1257000   0.74306237   -6.1066625    460.75144  0.030545706  0.030356391            5 
 1258000   0.74304751   -6.1159221    461.41581  0.030565435   0.03033608            5 
 1259000   0.74490028   -6.1135734    461.53953  0.030549346  0.030315912            9 
 1260000   0.75934282   -6.0994906    461.04038  0.030492089  0.030295961            9 
 1261000   0.75264264   -6.0942491    460.84666  0.030455106  0.030276206            6 
 1262000   0.73584688   -6.0999294    461.36982  0.030465519  0.030256538           11 
 1263000   0.75617903   -6.0814495    461.05328  0.030420512  0.030236704            7 
 1264000   0.75743519   -6.1124375    461.16373  0.030403727  0.030216751            7 
 1265000   0.73499268   -6.0928575    462.10219  0.030441515  0.030196936            7 
 1266000   0.77659277   -6.0899181    461.29815  0.030364544  0.030177046            9 
 1267000   0.75936504   -6.0698755    462.53705  0.030422063  0.030157362           12 
 1268000   0.75595696   -6.1177708    461.64484  0.030339435  0.030137471            7 
 1269000   0.73276381   -6.1088291     462.3216  0.030359968  0.030117683           12 
 1270000   0.76407978   -6.0934865     462.2657  0.030332395  0.030097993            3 
 1271000   0.74353376   -6.0988618    462.08782  0.030296867  0.030078288            6 
 1272000   0.77005025   -6.1349921    461.96626  0.030265085  0.030058497            5 
 1273000   0.74801315   -6.1124458    463.00805  0.030309508  0.030038688            5 
 1274000   0.74705429   -6.1062409    464.33694  0.030372641  0.030018982            4 
 1275000   0.73732517   -6.1121805    463.26696  0.030278887  0.029999335           13 
 1276000   0.74034353   -6.1150444    461.89745  0.030165716  0.029979487            8 
 1277000   0.75132837   -6.1181347    462.61502  0.030188921  0.029959627           11 
 1278000   0.75151044   -6.1216923    462.19913   0.03013818   0.02993963            5 
 1279000   0.74415744   -6.1580373    462.54004  0.030136828  0.029919715            6 
 1280000   0.75332429   -6.1148891    461.66877   0.03005656   0.02989979            7 
 1281000   0.72461323   -6.0938071    463.74711    0.0301683  0.029879902            5 
 1282000   0.72503775   -6.1209976    461.31596  0.029986737  0.029860088           15 
 1283000   0.74576502   -6.1367569    462.81292  0.030060595  0.029840183            7 
 1284000   0.74652432   -6.1450603    461.96943   0.02998244   0.02982022            9 
 1285000   0.73357409   -6.1330593    462.36502  0.029984761  0.029800164           14 
 1286000     0.745604   -6.1154793    463.12762  0.030010862  0.029780123           10 
 1287000   0.74238038   -6.1338197    462.93416  0.029975017  0.029760151            7 
 1288000   0.74725054   -6.1320193    462.38961  0.029916512  0.029740104           15 
 1289000    0.7365503   -6.1277294      463.352  0.029955521  0.029720216            9 
 1290000   0.73689373   -6.1061539      464.156  0.029984238  0.029700415            8 
 1291000   0.72725729   -6.1427174    462.72909  0.029868906   0.02968062           14 
 1292000   0.72796167    -6.120109    464.76673  0.029977214  0.029660798            6 
 1293000   0.73891898   -6.1222419    463.68332  0.029884205  0.029640953            6 
 1294000   0.74958668   -6.1251527    463.57515  0.029854144  0.029621133            4 
 1295000   0.72722349   -6.1194208    463.85432  0.029849055  0.029601301           11 
 1296000   0.73618619   -6.1497376     464.3333  0.029856822  0.029581523           10 
 1297000   0.72934887   -6.1302999    464.01479  0.029813338  0.029561737            6 
 1298000   0.73785952    -6.146193    463.84964  0.029779767  0.029541897            6 
 1299000     0.740997   -6.1343521    463.96774  0.029764417  0.029522039            6 
 1300000   0.73516595   -6.1322638    465.37734  0.029831881  0.029502256           12 
 1301000    0.7292088   -6.1718263    464.89542  0.029778082  0.029482435           11 
 1302000   0.74003325    -6.147999    464.26222  0.029714684  0.029462517           11 
 1303000   0.73349243   -6.1437789    465.10164  0.029745564  0.029442721            7 
 1304000   0.74024287   -6.1520124    464.40519  0.029678246  0.029423058            6 
 1305000   0.72427509   -6.1270499    464.94357  0.029689883  0.029403391            6 
 1306000   0.73975057   -6.1451098    463.77096  0.029592327  0.029383794           12 
 1307000   0.73935278   -6.1437088    464.50134  0.029616255  0.029364214            8 
 1308000   0.72431982   -6.1480144    465.78538  0.029675419   0.02934468           13 
 1309000   0.74494104   -6.1478682    464.24305  0.029554562  0.029325102           10 
 1310000   0.73546094   -6.1576549    464.73642  0.029563385  0.029305504            6 
 1311000   0.73570466   -6.1380156    464.94788  0.029554277  0.029285974            9 
 1312000   0.73477041    -6.168685    464.03535   0.02947379  0.029266352            8 
 1313000   0.72524374   -6.1826371    465.01321  0.029513405  0.029246794            8 
 1314000   0.72408423   -6.1462377    465.59305  0.029527717  0.029227239            5 
 1315000   0.72569366   -6.1393121    465.50441  0.029499646   0.02920763           12 
 1316000   0.73181754   -6.1415558    466.42007  0.029535212  0.029188079           13 
 1317000   0.73184243   -6.1432534    466.69105  0.029529932  0.029168581            9 
 1318000   0.73083486    -6.159783    465.72181  0.029446245   0.02914902           14 
 1319000   0.71884738   -6.1529037    465.94767   0.02943819   0.02912952           10 
 1320000   0.72684845   -6.1566078     466.3154  0.029439103  0.029110182            6 
 1321000   0.72648643   -6.1738961    466.68796  0.029440321  0.029090808           11 
 1322000   0.71206739   -6.1326313    466.94524  0.029434269  0.029071366           20 
 1323000   0.70810793   -6.1534678    467.28795  0.029433607  0.029052193            9 
 1324000    0.7167204   -6.1576726     467.9782  0.029454821  0.029032855           15 
 1325000   0.70450621   -6.1806805    466.50046  0.029339652  0.029013591            6 
 1326000   0.72615501   -6.1784106    467.18132  0.029360314  0.028994474            4 
 1327000   0.72551339   -6.1682782    467.85558  0.029380531  0.028975251           11 
 1328000   0.71497086   -6.1725077    467.64969  0.029345487  0.028956112            8 
 1329000    0.7304343   -6.1591394    467.99673  0.029345168  0.028937041           11 
 1330000   0.69718804    -6.188657     467.5454  0.029294824  0.028917918            9 
 1331000    0.7073864   -6.1334557    468.14004  0.029310045  0.028898832            9 
 1332000    0.7149115   -6.1485004    468.43594  0.029306553  0.028879855            8 
 1333000   0.70708468    -6.161639    467.81528  0.029245766  0.028860811            9 
 1334000   0.70652616   -6.2042696    466.91146  0.029167382  0.028841682            8 
 1335000   0.72421366   -6.1567677    469.25539  0.029291847  0.028822651            5 
 1336000   0.71403727   -6.1762645     468.4557  0.029220041  0.028803545           12 
 1337000   0.72479209   -6.1815931    468.23958  0.029184716  0.028784614           17 
 1338000    0.7253161     -6.18923    468.65484  0.029188767  0.028765634           12 
 1339000   0.73094126   -6.1522711    469.03517  0.029190638  0.028746666            8 
 1340000   0.72230137   -6.1720506    469.53153  0.029199722  0.028727863            8 
 1341000   0.72538631   -6.1765702     468.3953  0.029107339  0.028709058           10 
 1342000   0.70965739   -6.1705518    469.17065  0.029133796  0.028690322            7 
 1343000   0.73123567   -6.1677643    470.44113  0.029190936  0.028671621            6 
 1344000   0.73745157   -6.1816122    469.71014  0.029123892  0.028652898            7 
 1345000    0.7058948   -6.1889545    469.84025  0.029110301  0.028634175           11 
 1346000    0.7194793   -6.1995461    470.08162  0.029103617  0.028615447           17 
 1347000    0.7118952   -6.1769132    469.33835  0.029036028   0.02859674           18 
 1348000    0.7313879   -6.1879649    469.63392  0.029032759  0.028578043           12 
 1349000   0.71027585   -6.1977727     468.1402  0.028918965  0.028559213           11 
 1350000   0.72363227   -6.1963524    468.83408  0.028940375  0.028540264           10 
 1351000   0.69292041   -6.1668712    468.90652  0.028923422  0.028521289           12 
 1352000   0.71361567   -6.1928068    467.62945  0.028823314  0.028502341           15 
 1353000   0.70892418   -6.2109407     468.9062  0.028880648  0.028483415            9 
 1354000   0.72340226   -6.2033298    469.63407  0.028904116  0.028464537           10 
 1355000   0.71401661   -6.2000972     469.1771   0.02885468  0.028445687           14 
 1356000    0.7103742   -6.1868429    470.39906  0.028908497  0.028426876            8 
 1357000    0.7193487   -6.2161412    468.39359  0.028764038  0.028408042           11 
 1358000   0.70438924   -6.2113648    469.20249  0.028792495  0.028389182           15 
 1359000   0.70670312   -6.2071497    470.49754   0.02885072  0.028370394           17 
 1360000   0.71935033   -6.1983121    470.33623  0.028819622  0.028351509           17 
 1361000   0.71513631   -6.2044166    470.54436   0.02881119  0.028332782            7 
 1362000   0.71718927   -6.1746403    471.61501  0.028855544  0.028314132           14 
 1363000   0.69110732   -6.2072577     471.1658  0.028806908  0.028295455           10 
 1364000   0.70848222   -6.2025677    470.69146  0.028756809  0.028276735            8 
 1365000   0.71299459   -6.2058262    470.65099  0.028733272  0.028257938            7 
 1366000   0.71511692   -6.1918879    470.13244  0.028680603  0.028239075           12 
 1367000   0.68932274   -6.2234915    470.98077  0.028711337  0.028220355           15 
 1368000   0.71823916   -6.2081935    469.48657  0.028599328   0.02820145           17 
 1369000   0.71789798    -6.210458    469.43139  0.028575079  0.028182665           10 
 1370000   0.72051605   -6.2479607    469.66336  0.028568331  0.028163656           17 
 1371000   0.69421483   -6.2324481    470.22805  0.028581817   0.02814465           24 
 1372000   0.70552616   -6.2265306    470.26069  0.028562967  0.028125638           13 
 1373000   0.71516709   -6.2047463    470.63383  0.028564811  0.028106903           17 
 1374000   0.71501588   -6.1862926    471.67377  0.028607094  0.028088157           13 
 1375000   0.71283835   -6.2439034    470.72469  0.028528769  0.028069381            6 
 1376000   0.71979063   -6.2338475    469.86558  0.028456007  0.028050561            9 
 1377000   0.71749954   -6.2073826    471.45764  0.028531689  0.028031815           12 
 1378000   0.69507491   -6.2035427    470.89228  0.028476795  0.028013096            9 
 1379000   0.70248178   -6.2254415    470.91384  0.028457447  0.027994494           10 
 1380000   0.69670699   -6.2454644    469.63908  0.028359848  0.027975746            5 
 1381000   0.72328434   -6.2271452    470.76937  0.028407517  0.027956933           33 
 1382000   0.69455267   -6.2150948     470.6766  0.028381368  0.027938314            5 
 1383000   0.71163538   -6.2223233     471.3155  0.028399343  0.027919691            9 
 1384000   0.71653798   -6.2225045    472.38718  0.028443352  0.027901063           20 
 1385000   0.69206625   -6.2212867    470.95799  0.028336822  0.027882321           27 
 1386000   0.69825051   -6.2324386    471.18468  0.028330007   0.02786366           24 
 1387000   0.70419785   -6.2334563    472.23464  0.028372665  0.027845001           14 
 1388000    0.7063305   -6.2495027    471.09702  0.028283923  0.027826305            8 
 1389000   0.70627991   -6.2617747    470.03456  0.028199817  0.027807517            5 
 1390000    0.6938459   -6.2426792    469.90363   0.02817168  0.027788683            9 
 1391000   0.71374649   -6.2500877    470.55189  0.028190264  0.027769778           12 
 1392000   0.69975573   -6.2566744    471.73863  0.028241058  0.027751003           12 
 1393000   0.70078245   -6.2180873    471.99954  0.028236392  0.027732232            9 
 1394000   0.67993928   -6.2536097    471.67124  0.028196511  0.027713545            8 
 1395000   0.68627677   -6.2218687    472.39071  0.028219278   0.02769477           20 
 1396000   0.69305913   -6.2654841    470.76753  0.028102169  0.027675975           11 
 1397000   0.70639539    -6.274653    471.24782  0.028110703  0.027657192           12 
 1398000   0.70171051    -6.250406    470.14165  0.028024657  0.027638414           14 
 1399000   0.69252457   -6.2505179    471.06037   0.02805935  0.027619604           14 
 1400000   0.70324429   -6.2340258    472.73036  0.028138712  0.027600969           14 
 1401000   0.69461557    -6.240405    472.17004  0.028085298  0.027582393           22 
 1402000   0.70229451   -6.2552419    471.50786  0.028025907   0.02756376           18 
 1403000   0.69510703   -6.2282299    471.40662  0.027999918  0.027545037           14 
 1404000   0.70254575    -6.244137    471.68838  0.027996699  0.027526418           17 
 1405000   0.68455499   -6.2489864    471.42862  0.027961365  0.027507779           17 
 1406000   0.69442224   -6.2534975    472.29374  0.027992754  0.027489074           21 
 1407000   0.69013284   -6.2591971     472.4791  0.027983837  0.027470403           24 
 1408000    0.6848174   -6.2447746    471.59707  0.027911758  0.027451756            9 
 1409000   0.67745367   -6.2609524    471.35648   0.02787772  0.027433001            8 
 1410000   0.69218665   -6.2801338    471.22869  0.027850395  0.027414259           17 
 1411000   0.69585326    -6.269959    471.14319  0.027825607  0.027395582            9 
 1412000   0.69177621   -6.2572566    471.97536  0.027855014  0.027376937           17 
 1413000   0.68779863   -6.2628454      472.272  0.027852796  0.027358159           10 
 1414000   0.69099149   -6.2439371    472.34593  0.027837455   0.02733946           18 
 1415000   0.70540215   -6.2696063     472.2651  0.027813021  0.027320729           29 
 1416000   0.69213402    -6.265574    472.24347  0.027792106  0.027302069           20 
 1417000   0.70094182   -6.2456866    472.83461  0.027807257   0.02728348           20 
 1418000   0.67596601   -6.2316402    473.20033   0.02780914  0.027264775           12 
 1419000   0.68091071   -6.2769433    472.94986  0.027774833  0.027246178            7 
 1420000   0.69630961   -6.2370392    472.27465  0.027715649  0.027227703           11 
 1421000   0.68311339   -6.2684817     472.6001   0.02771523  0.027209137           12 
 1422000   0.70007973   -6.2416129    472.30182   0.02767826  0.027190538           12 
 1423000   0.68513026   -6.2359494    473.34952  0.027720164  0.027171958           27 
 1424000   0.68560465   -6.2547252    472.74142  0.027665111   0.02715343           13 
 1425000   0.67783226   -6.2770639    471.30396  0.027561635  0.027134897           13 
 1426000   0.69010355   -6.2651305    472.57838  0.027616782  0.027116345           18 
 1427000   0.67747262     -6.24192    472.41503   0.02758789  0.027097929           14 
 1428000   0.67889621   -6.2627657    472.30058  0.027561892  0.027079427           17 
 1429000   0.69247329   -6.2696668    472.52851  0.027555896  0.027060793            9 
 1430000   0.67834314   -6.2642622      471.288  0.027464336  0.027042202           21 
 1431000   0.67247237   -6.2411698    471.80239  0.027475098  0.027023733           19 
 1432000   0.68192586   -6.2394734    474.28727  0.027600516  0.027005297            9 
 1433000   0.69658412   -6.2757098    473.36411  0.027527571  0.026986876           10 
 1434000     0.670556   -6.2559993    472.64446  0.027466554  0.026968376           24 
 1435000   0.67244794   -6.2615881    473.73637  0.027510823  0.026949979            6 
 1436000   0.68698792   -6.2581681    472.05679  0.027394196   0.02693154           11 
 1437000   0.67108135   -6.2804767    472.54289  0.027403322  0.026913108            9 
 1438000   0.67856319   -6.2901524    473.70675  0.027451713  0.026894513            9 
 1439000   0.67478316   -6.2747574    472.47885  0.027361527  0.026875943           16 
 1440000   0.68239002   -6.2970281    471.75902  0.027300869  0.026857353            9 
 1441000   0.67342547   -6.2908181    473.25158  0.027368239  0.026838691           14 
 1442000    0.6701019   -6.3129101    472.56462   0.02730956  0.026820084            7 
 1443000   0.67361322   -6.2955973    472.73055  0.027300216   0.02680154           15 
 1444000   0.67389381   -6.2809356    474.44276  0.027380122  0.026783096           14 
 1445000   0.66322879   -6.2901863    471.53227  0.027193326  0.026764593           20 
 1446000   0.67708783   -6.3121094    472.15845  0.027210607  0.026745953            7 
 1447000   0.67114892     -6.31087    471.95199  0.027179912  0.026727311           17 
 1448000   0.67384391   -6.2822375    473.33707  0.027240853  0.026708752           10 
 1449000   0.68008133   -6.3224198    471.82346  0.027135004  0.026690193           13 
 1450000   0.67405241   -6.3085249    472.79587  0.027172176  0.026671687           10 
 1451000   0.66720253    -6.276747    473.92793  0.027218466   0.02665321           18 
 1452000   0.68225355   -6.2829321    472.31191  0.027106974  0.026634838           16 
 1453000   0.67079806   -6.2997289    472.25039   0.02708479  0.026616382           17 
 1454000    0.6686371   -6.2976237    472.41724  0.027075724  0.026597863           20 
 1455000   0.67161566   -6.3161256    472.00498  0.027033504  0.026579351           17 
 1456000   0.67391448   -6.2989343    472.87471  0.027064716  0.026560822            8 
 1457000   0.66163207   -6.2830186    473.94309  0.027107246  0.026542397            7 
 1458000   0.65983618   -6.2759076    473.83139   0.02708227  0.026524019           14 
 1459000    0.6774604   -6.3014703    474.04067  0.027075661  0.026505557           22 
 1460000   0.66637845   -6.2806728    473.82978  0.027045079  0.026487151           21 
 1461000   0.65983033   -6.2894816    472.89703  0.026973364   0.02646874           13 
 1462000   0.66800979   -6.3076257    473.04332  0.026963254   0.02645037           22 
 1463000   0.67965949   -6.3050418     473.8079  0.026988374  0.026431996           13 
 1464000   0.66706417   -6.2856654    472.76756  0.026910722  0.026413582           22 
 1465000   0.66565114   -6.3031882    473.44101   0.02693066  0.026395208           13 
 1466000   0.65013939    -6.286074    474.48671  0.026971732  0.026376872            9 
 1467000   0.66383094   -6.3153695     473.8749  0.026918593  0.026358515           11 
 1468000   0.66285824     -6.30363    473.81132  0.026896646  0.026340178           13 
 1469000   0.68168962   -6.3223404    473.61935  0.026867447  0.026321842           22 
 1470000   0.67762483   -6.3373298    473.23094  0.026827151  0.026303476           10 
 1471000   0.68994623   -6.3060847     474.1955  0.026863556  0.026285175           29 
 1472000   0.66473398   -6.3119736    473.30304  0.026794783  0.026266818           25 
 1473000    0.6683113   -6.3106933    472.93343  0.026755682  0.026248506           25 
 1474000   0.67593705   -6.3194539    473.31129  0.026758892  0.026230123           27 
 1475000   0.66104396    -6.304269    473.43712   0.02674786  0.026211786           12 
 1476000   0.66938078   -6.3225261     473.5004  0.026733311  0.026193497           12 
 1477000   0.65701712   -6.3287652    471.76953  0.026617554  0.026175054           14 
 1478000   0.66463061    -6.314473    473.21827  0.026681229  0.026156583           60 
 1479000   0.65818992   -6.3223365    472.52936  0.026624372  0.026138135           30 
 1480000    0.6737734   -6.3246085    473.74812  0.026675007  0.026119732            9 
 1481000   0.66675883    -6.302958    473.09399  0.026620189  0.026101351           18 
 1482000   0.66640522   -6.3268228    473.64924  0.026633448  0.026082984           10 
 1483000    0.6675405   -6.3323271    472.74888  0.026564896  0.026064582           26 
 1484000   0.66926683   -6.3094931    473.45412  0.026586597  0.026046223           24 
 1485000   0.66924732    -6.320371    473.53228   0.02657308  0.026027862           12 
 1486000   0.64196108   -6.3221423    473.55963  0.026556731  0.026009523           10 
 1487000   0.65940949   -6.3252837    473.63922  0.026543332  0.025991129           22 
 1488000   0.64983196    -6.324554    473.66522   0.02652695  0.025972756           17 
 1489000   0.66152746   -6.3297469    473.49519  0.026499619   0.02595449           15 
 1490000   0.64493177   -6.3356744    472.20497  0.026409674  0.025936199           32 
 1491000   0.65419953   -6.3187197    473.88002  0.026485581  0.025917914           23 
 1492000   0.65883028   -6.3537337    472.98015  0.026417569  0.025899592           12 
 1493000   0.66705486   -6.3385508    474.16776  0.026466162  0.025881242            9 
 1494000    0.6734079   -6.3265206    474.31872  0.026456867   0.02586296           25 
 1495000   0.65724067   -6.3106686    473.44438  0.026390433  0.025844765           10 
 1496000   0.66183225    -6.349495    472.79546  0.026336646  0.025826511           12 
 1497000   0.65326141   -6.3501116    472.41982  0.026298142  0.025808129           27 
 1498000   0.65628177   -6.3261636    473.47523  0.026339299  0.025789674           28 
 1499000   0.65545458   -6.3383594    473.82195  0.026341002  0.025771349           15 
 1500000   0.65759382   -6.3355712    473.83788  0.026324327  0.025752996           11 
 1501000   0.64808769   -6.3575589    473.28575  0.026276135  0.025734649           16 
 1502000   0.66527464   -6.3544161    473.11489  0.026249162  0.025716283           13 
 1503000   0.65891859   -6.3485544    472.24045  0.026183214  0.025697917           33 
 1504000   0.63967368   -6.3365274    473.94827  0.026260432   0.02567967           15 
 1505000   0.66757228   -6.3655595    473.41267  0.026213326   0.02566137           19 
 1506000   0.67025972   -6.3584764    473.15369   0.02618159  0.025643044           44 
 1507000   0.66638995   -6.3618071    472.95237  0.026153084  0.025624647           14 
 1508000   0.65820679   -6.3589071    472.97555  0.026137022  0.025606271           34 
 1509000   0.65367334   -6.3602839    472.43578  0.026089893  0.025587916           11 
 1510000   0.66252964   -6.3502401    473.43537   0.02612778  0.025569547           15 
 1511000   0.64829867   -6.3558407    473.69015   0.02612454   0.02555128           21 
 1512000   0.66523615   -6.3416831    472.78916  0.026057604  0.025533034           17 
 1513000   0.64195681   -6.3440277    473.96663  0.026105234  0.025514793           13 
 1514000   0.65024304   -6.3367294    472.88107   0.02602824  0.025496591           22 
 1515000   0.64430641   -6.3672348    473.15381  0.026026062  0.025478396           13 
 1516000    0.6354479   -6.3594241    473.64101  0.026035675  0.025460149           19 
 1517000   0.64599659   -6.3901689    473.81177  0.026027893  0.025441898            9 
 1518000   0.65601113   -6.3827621    472.46454  0.025936789  0.025423604           22 
 1519000    0.6668468    -6.358534    473.03248  0.025950871  0.025405347           20 
 1520000   0.64876368   -6.3702289    473.03117  0.025933726  0.025387192           65 
 1521000   0.64034734   -6.3581462    474.54966  0.025999872  0.025369023           61 
 1522000   0.63944912   -6.3715357    472.82982  0.025888624  0.025350766           28 
 1523000   0.64840938   -6.3831663    472.26584  0.025840766  0.025332592           55 
 1524000   0.64485331   -6.3687751    472.54185  0.025838903  0.025314364           26 
 1525000   0.64374081   -6.3725932    471.91976  0.025787965  0.025296104           32 
 1526000   0.64127865   -6.4007895    473.39948  0.025851872  0.025277855           40 
 1527000   0.63816142   -6.3742657    473.27897  0.025828366  0.025259574           30 
 1528000   0.65275239   -6.3909224    472.56472  0.025772509  0.025241299           10 
 1529000   0.65317483   -6.3862583    473.30714  0.025796116  0.025223021           23 
 1530000   0.64152803   -6.3634345    474.50348  0.025844416  0.025204881           11 
 1531000   0.63984972   -6.3744408    474.79296  0.025843292  0.025186787           23 
 1532000   0.64872678   -6.3464691    474.35458  0.025802577   0.02516883           13 
 1533000   0.64977181   -6.3708273    474.01824  0.025767463  0.025150793           19 
 1534000   0.63685847   -6.3862123    473.59022  0.025727413  0.025132701           26 
 1535000    0.6491595    -6.362797    474.72625  0.025772326  0.025114721           19 
 1536000   0.65093749   -6.3750387    474.61802  0.025749675  0.025096753           15 
 1537000   0.63747225   -6.3761761    474.51469   0.02572732   0.02507881           16 
 1538000   0.64368097   -6.3741533    474.92987  0.025733088  0.025060877           13 
 1539000   0.63940949   -6.3704836    474.12691  0.025672889  0.025042934           20 
 1540000   0.65216101   -6.3826158    474.12479  0.025656103  0.025024999           16 
 1541000   0.62779313   -6.3543518    474.27192  0.025647411  0.025007047           49 
 1542000   0.64113241   -6.3778744    473.84877   0.02560791  0.024989134           29 
 1543000   0.65045796   -6.3986172    474.44181  0.025623343  0.024971123           20 
 1544000   0.64606954   -6.3945956    473.03516  0.025530827  0.024953146           10 
 1545000    0.6417508   -6.3987883    473.80005  0.025555558   0.02493516           15 
 1546000   0.64568032   -6.3903571     473.5726  0.025526768  0.024917152           25 
 1547000   0.64373768    -6.396562    474.89884  0.025581709  0.024899088           10 
 1548000   0.63438429   -6.3968619     473.8196  0.025507085  0.024881143           28 
 1549000   0.63419299    -6.428338    474.10951  0.025506214  0.024863212           13 
 1550000   0.64731308   -6.4023126    473.24212  0.025443125  0.024845221           33 
 1551000    0.6502161    -6.387566    474.21604  0.025479048  0.024827238           28 
 1552000   0.63885834    -6.417736    473.14062  0.025404887  0.024809307           24 
 1553000   0.63793498   -6.4014852    473.19027  0.025391193  0.024791324           45 
 1554000    0.6301979   -6.4024064    474.54587  0.025447548  0.024773336           51 
 1555000   0.64478484   -6.3974458    473.87922  0.025395457  0.024755472           43 
 1556000   0.63951379   -6.4149844    473.35846  0.025351245  0.024737567           52 
 1557000    0.6348801   -6.4084318    474.25698  0.025383054  0.024719684           50 
 1558000   0.62544357   -6.4012229    473.03908   0.02530162  0.024701799           61 
 1559000   0.64296513   -6.4240007    474.17093  0.025345891  0.024683868           54 
 1560000   0.64419484   -6.4251528    473.89223  0.025314756   0.02466598           31 
 1561000   0.61924059   -6.4143651    473.62393  0.025284216  0.024648042           25 
 1562000   0.62574128   -6.4444656    473.90711  0.025283136   0.02463017           32 
 1563000    0.6281906   -6.3958994    475.56198  0.025355192   0.02461232           44 
 1564000   0.63059178   -6.4179598    474.49861  0.025282321  0.024594598           51 
 1565000   0.61549798   -6.3901605    474.69768  0.025276767  0.024576894           65 
 1566000   0.62516672   -6.4219274    474.74268   0.02526302  0.024559234           60 
 1567000   0.63890344   -6.3960964    474.99365  0.025260245  0.024541586           61 
 1568000   0.62989949   -6.4055957    474.53432  0.025219724  0.024523934           24 
 1569000    0.6328227   -6.4292959    474.16087  0.025183815  0.024506258           66 
 1570000   0.63188508   -6.4185649    474.13925  0.025166627  0.024488564           70 
 1571000   0.61433357   -6.4123506    474.21107  0.025154417  0.024470938           74 
 1572000   0.61861579   -6.4128611    473.99272  0.025126841  0.024453249           58 
 1573000   0.63126205    -6.449445    473.93635  0.025107881  0.024435522           94 
 1574000   0.61863833   -6.4414827    473.57381  0.025072734  0.024417818           52 
 1575000   0.62416978   -6.4111509    474.01195  0.025079997  0.024400119           30 
 1576000   0.62030837   -6.4130892    473.18287  0.025020245   0.02438241           12 
 1577000    0.6319846   -6.4406668    473.91558  0.025043098  0.024364752           44 
 1578000   0.62798511   -6.4428865    474.21796  0.025043196   0.02434712           33 
 1579000   0.62615393   -6.4229061    474.27608  0.025030403  0.024329422           37 
 1580000   0.63429394   -6.4331575    473.67605  0.024982914  0.024311686           69 
 1581000   0.61926203   -6.4410977    473.68512   0.02496759  0.024293979           91 
 1582000   0.63875329   -6.4365427     473.5223  0.024943231  0.024276278           17 
 1583000   0.62016454    -6.457714    474.34725  0.024970902  0.024258599           92 
 1584000   0.60845756   -6.4817657    473.19755  0.024894652  0.024240901           72 
 1585000   0.62158908   -6.4740029     473.6492  0.024902692  0.024223217           72 
 1586000   0.63104658   -6.4399775    473.66214   0.02488767  0.024205532           32 
 1587000   0.62034472   -6.4501456    473.76272  0.024877269    0.0241879           42 
 1588000    0.6173283   -6.4510373    472.95958  0.024819457  0.024170279           27 
 1589000   0.62977062   -6.4481001    474.22102  0.024869993  0.024152702           18 
 1590000   0.61855459   -6.4443796    474.31038  0.024859034  0.024135143           26 
 1591000   0.62239623   -6.4488304    472.94224  0.024771749  0.024117547           90 
 1592000   0.61814021   -6.4532612    473.78191  0.024800142  0.024099893           26 
 1593000   0.62237846    -6.444768    473.84297  0.024787768  0.024082355           63 
 1594000   0.61233318    -6.460802    474.55565  0.024809476  0.024064777           41 
 1595000   0.61428955   -6.4468426    474.17075  0.024773811  0.024047194           56 
 1596000   0.62121025   -6.4733546    473.64578  0.024730878   0.02402969           42 
 1597000   0.61861681   -6.4378781    474.08553  0.024738339  0.024012144           26 
 1598000   0.61015321   -6.4969145    474.00791  0.024718811  0.023994632           19 
 1599000   0.61430517   -6.4815565    474.46874  0.024727368  0.023977098           30 
 1600000   0.60278126   -6.4757411    474.00522  0.024687772  0.023959615           45 
 1601000   0.61762856   -6.4547993    472.52784  0.024595453  0.023942138           21 
 1602000   0.63283169   -6.4527676    473.62406  0.024637123  0.023924679           44 
 1603000   0.60826584   -6.4645175    472.92876  0.024585608  0.023907196           91 
 1604000   0.61375589   -6.4775195    473.11729  0.024580075  0.023889735           54 
 1605000   0.60269768   -6.4458801     474.0042   0.02461081  0.023872249           68 
 1606000   0.60223306   -6.4540819    474.77532  0.024635498   0.02385483           48 
 1607000   0.62403816   -6.4877942    474.39869  0.024600638  0.023837465           99 
 1608000   0.61967357    -6.450565    474.07823  0.024568731  0.023820077           77 
 1609000   0.61531257   -6.4469453    473.88709  0.024543562  0.023802656           67 
 1610000   0.61099734    -6.451594    473.59999  0.024513457  0.023785309           89 
 1611000   0.60522675   -6.4582658    474.50153  0.024544876  0.023768068           54 
 1612000   0.61201103   -6.4662816    474.89546  0.024550014  0.023750792           57 
 1613000   0.59025562   -6.4578116    474.21735   0.02449976  0.023733536           39 
 1614000   0.60526947   -6.4828224    474.08141  0.024477561  0.023716293           55 
 1615000   0.61936369   -6.4642055     475.5102   0.02453613  0.023699078           23 
 1616000   0.60910681   -6.4515186    475.61856  0.024526535  0.023681911           29 
 1617000   0.60408593   -6.4741037    475.25346  0.024492551  0.023664705           28 
 1618000   0.60200783   -6.4626911    473.98572   0.02441212  0.023647524           57 
 1619000   0.62253816   -6.4842643    473.87897  0.024391547    0.0236303           73 
 1620000   0.61314691   -6.4833704    474.46403  0.024406586  0.023613102           68 
 1621000   0.60927585   -6.4779191       474.36  0.024386181  0.023595877           91 
 1622000   0.61326691   -6.4845416    473.73007  0.024338783  0.023578648           42 
 1623000   0.60454033   -6.4667061    475.61943  0.024420796  0.023561452           60 
 1624000   0.60494022   -6.4865007    473.83316  0.024314099  0.023544236           65 
 1625000   0.61274075   -6.4839564    474.03876   0.02430968  0.023527003           66 
 1626000   0.59641455   -6.4862546    474.03119  0.024294341  0.023509807           32 
 1627000    0.6060547   -6.4922947    473.90258  0.024272822  0.023492552           51 
 1628000   0.60070388   -6.4743321    474.26336   0.02427638  0.023475335           41 
 1629000    0.6068282   -6.4787544    474.45895  0.024271483    0.0234581           63 
 1630000   0.61041891   -6.5008127    473.55411  0.024210333   0.02344091           40 
 1631000   0.60289229   -6.4789343    474.24657  0.024230869  0.023423736           34 
 1632000   0.59749324   -6.4969366    474.89417  0.024249089  0.023406534           26 
 1633000   0.61868525   -6.4944486    474.48065  0.024213138  0.023389401           22 
 1634000   0.59744609   -6.4820848      474.115  0.024179671  0.023372237           16 
 1635000   0.61468186   -6.4825898    474.56738   0.02418794  0.023355128           40 
 1636000   0.60300019   -6.4717068    474.33451  0.024161293  0.023338004           37 
 1637000   0.59409404   -6.4756362    473.40459  0.024099195  0.023320931           22 
 1638000   0.60489541   -6.4847757    474.40741  0.024135501  0.023303832           37 
 1639000   0.59058711   -6.5156947    474.29547  0.024115084  0.023286696           18 
 1640000   0.58331002   -6.5086091    474.58193  0.024114935   0.02326965           15 
 1641000    0.5862402   -6.5090366    474.13008  0.024077295   0.02325256           19 
 1642000   0.60025472   -6.5051565     474.7458   0.02409388  0.023235543           27 
 1643000   0.60442886   -6.4761385     474.7956   0.02408174  0.023218621           30 
 1644000   0.60419727   -6.5096005    474.61924  0.024058153  0.023201685           17 
 1645000   0.59899729   -6.5181861    473.86532  0.024005336  0.023184777           20 
 1646000   0.60246801   -6.5289361    472.87518  0.023940623  0.023167796           18 
 1647000   0.59888792   -6.5017567    473.55119  0.023960291  0.023150771           29 
 1648000   0.59379898   -6.5024519    474.52954  0.023995223  0.023133781           29 
 1649000       0.5892   -6.5110803    474.38205  0.023973219  0.023116759           26 
 1650000   0.61259841    -6.501145    473.85266  0.023931952  0.023099789           17 
 1651000   0.60471193   -6.5070498    474.88118  0.023969371  0.023082844           21 
 1652000   0.59408439   -6.5053566    474.18157  0.023919571  0.023065905           15 
 1653000   0.60187591   -6.5115579    474.51139  0.023921728  0.023049014           23 
 1654000   0.60756547   -6.5141479    472.95372  0.023828785  0.023032115           20 
 1655000   0.59757212   -6.4868967    474.74024  0.023904342  0.023015239           28 
 1656000   0.60093714   -6.5189882    473.76597   0.02384088  0.022998332           22 
 1657000   0.58162381   -6.5070518    473.63001  0.023819655  0.022981448           26 
 1658000   0.59081164   -6.5357074    473.80903  0.023814286  0.022964532           69 
 1659000   0.58482847   -6.5208816     474.8948  0.023854471  0.022947602           47 
 1660000   0.59663025   -6.5099669    474.78534  0.023834605  0.022930722           68 
 1661000   0.59605662   -6.5007415    473.86922  0.023774294  0.022913873           32 
 1662000   0.58676639   -6.5316765    473.73101  0.023753059  0.022897018           41 
 1663000   0.58481647   -6.5209259    473.97251  0.023750877  0.022880119           52 
 1664000   0.59470299   -6.5269787    474.28209  0.023752108  0.022863242           38 
 1665000   0.60439171   -6.5335904    473.85791  0.023716612  0.022846373           35 
 1666000   0.59556783    -6.514461    473.78047  0.023698503  0.022829548           31 
 1667000   0.59041299   -6.5323328    473.63077  0.023676803   0.02281278           29 
 1668000   0.59848637   -6.5335997    474.79859  0.023720953  0.022796006          118 
 1669000   0.57963648   -6.5059397    473.89557  0.023661652  0.022779243           96 
 1670000    0.5875892   -6.5157869    474.13623  0.023659492  0.022762451           58 
 1671000   0.57619936   -6.5384342    474.20513   0.02364877  0.022745683           48 
 1672000   0.58673888   -6.5493312    474.30956   0.02363983  0.022728891          102 
 1673000   0.57528964   -6.5386834    473.53535  0.023587136  0.022712113           63 
 1674000   0.59464773   -6.5430897    473.68065  0.023580279  0.022695332           49 
 1675000   0.56735738   -6.5322383    474.13825  0.023588967  0.022678572           53 
 1676000   0.59411863   -6.5226033    473.61103  0.023548679  0.022661797           68 
 1677000   0.57881148     -6.52158    472.75037  0.023491869  0.022645032           47 
 1678000   0.58391387   -6.5350873    472.52923  0.023466887  0.022628303           57 
 1679000   0.58234545    -6.542242    473.04954  0.023478735  0.022611525           39 
 1680000   0.59765435   -6.5406735    473.22136  0.023473282  0.022594812           70 
 1681000   0.57837183   -6.5542273    474.37371  0.023516444  0.022578086           49 
 1682000   0.57251827   -6.5437433     473.5904  0.023463654  0.022561367           36 
 1683000   0.58056335   -6.5497176     474.0061  0.023470296  0.022544693           25 
 1684000   0.59079945   -6.5529625     473.3882  0.023425782  0.022528032           45 
 1685000   0.59295036   -6.5396483    472.85895  0.023385705  0.022511393           58 
 1686000   0.57117032   -6.5398195     473.5321  0.023405106  0.022494751           61 
 1687000   0.57225041   -6.5402652    473.18595  0.023374133  0.022478145           56 
 1688000   0.57353633   -6.5370999    474.77725  0.023438845  0.022461567           33 
 1689000    0.5802477   -6.5454204    474.37324  0.023405034  0.022444987           53 
 1690000   0.58266596   -6.5414211    473.16208  0.023331463  0.022428408          141 
 1691000   0.58012815   -6.5461629     474.2916  0.023373329  0.022411854          143 
 1692000   0.56800742   -6.5577543    473.67457  0.023329126  0.022395276          227 
 1693000   0.56836484   -6.5507439    473.01983  0.023283118  0.022378681           85 
 1694000     0.567263   -6.5727696    473.69491  0.023302583  0.022362145          175 
 1695000   0.57966774   -6.5465332    474.30684   0.02331892  0.022345613           86 
 1696000    0.5697436   -6.5361754    474.17493   0.02329869  0.022329104          157 
 1697000   0.57620027   -6.5519067    474.09273  0.023280923  0.022312635           61 
 1698000   0.58448229   -6.5497492    473.91027  0.023258258  0.022296149          119 
 1699000   0.57298093   -6.5669681    473.30981  0.023215117  0.022279665           68 
 1700000   0.58466901   -6.5419415    473.04551  0.023188505  0.022263232           81 
 1701000    0.5626611   -6.5410339     473.2891  0.023186807  0.022246769           63 
 1702000   0.57910637   -6.5456836    473.18974  0.023168319   0.02223034           68 
 1703000   0.57627683   -6.5701626    473.42041  0.023166002  0.022213883           61 
 1704000   0.56108215   -6.5351755    474.06775  0.023184064  0.022197516           74 
 1705000   0.56657982   -6.5570329    473.77665  0.023156239   0.02218115           65 
 1706000   0.56958361   -6.5510403    473.76796  0.023142241  0.022164701           54 
 1707000   0.57116512   -6.5585974    473.92763  0.023136479  0.022148275           83 
 1708000   0.56579933   -6.5947149    473.54405  0.023104218  0.022131813           63 
 1709000   0.57074073   -6.5588735    472.96883   0.02306265    0.0221154           44 
 1710000   0.57752533   -6.5528605    472.52525  0.023027546   0.02209897           47 
 1711000   0.56790642   -6.5637928    474.26643  0.023098891  0.022082549           62 
 1712000   0.56463422   -6.5632144    473.81832  0.023063586  0.022066171           37 
 1713000   0.57627189   -6.5584394    473.46126  0.023032752  0.022049772           71 
 1714000   0.57027057   -6.5485599    472.60813  0.022977836  0.022033385          107 
 1715000   0.57702973   -6.5661999    473.05348  0.022986078  0.022017011           38 
 1716000   0.55916682   -6.5663818    472.06762  0.022924807  0.022000638          102 
 1717000   0.57765989   -6.5739485     472.9332  0.022953465  0.021984248           64 
 1718000   0.57694003   -6.5646055    473.96417  0.022990113  0.021967882          210 
 1719000   0.56697639    -6.592992    472.56804  0.022909058  0.021951487           88 
 1720000   0.57020238   -6.5707669    473.04328  0.022918763  0.021935081          105 
 1721000   0.56530032   -6.5794532    473.23992  0.022914968  0.021918695           55 
 1722000   0.55036921   -6.5845726     472.7812  0.022879462  0.021902312           50 
 1723000   0.57613771   -6.5932555     472.5375  0.022854396  0.021885947           56 
 1724000    0.5673132   -6.5823882     473.2874  0.022877388  0.021869629           53 
 1725000   0.56109472   -6.5653962    472.98026  0.022849288  0.021853276           49 
 1726000   0.57492109   -6.5917326    472.25355  0.022800963  0.021836936           41 
 1727000   0.57455975   -6.5955478    472.33427  0.022791656  0.021820628           68 
 1728000   0.57680811   -6.5838247    472.90142  0.022805817  0.021804345           44 
 1729000    0.5530696   -6.5859563    473.77007  0.022834493  0.021788092           56 
 1730000   0.55578168   -6.5933413    472.95713  0.022782135   0.02177182           49 
 1731000   0.55545494   -6.5827465    473.27197  0.022784131  0.021755615           36 
 1732000    0.5749621   -6.5674287    473.06333  0.022760938  0.021739461           39 
 1733000   0.55707573   -6.5851691    472.26207  0.022709275  0.021723292           47 
 1734000   0.57239377   -6.5805375     473.2654  0.022744396   0.02170712           44 
 1735000   0.55865559   -6.5774507     471.9537  0.022668285  0.021690912           48 
 1736000   0.55048994   -6.5919901    473.57129  0.022732877  0.021674721           43 
 1737000   0.55570908   -6.5942613    472.41439  0.022664286    0.0216585           35 
 1738000   0.55908063   -6.5761403    472.09077  0.022635729  0.021642287           35 
 1739000   0.55609137   -6.6096749    473.28026  0.022679714  0.021626098           80 
 1740000   0.56667608    -6.591891    473.43092  0.022673894  0.021609942           85 
 1741000   0.54956015   -6.5899473    472.73526  0.022627573  0.021593807           38 
 1742000   0.55940177   -6.5759747    472.76997  0.022616244  0.021577712           95 
 1743000   0.55627427   -6.5949753    473.17992  0.022622869  0.021561659           18 
 1744000   0.55262927    -6.595625    472.79242  0.022591381  0.021545629           35 
 1745000   0.55168506   -6.6058851    472.01515  0.022541316  0.021529567           23 
 1746000   0.54148831   -6.5952177    472.68715  0.022560479  0.021513502           62 
 1747000   0.55410385   -6.5894292    472.85401  0.022555524   0.02149743           27 
 1748000   0.55067237   -6.5784846     473.0825  0.022553513  0.021481351           45 
 1749000   0.55510937    -6.621284    472.75246  0.022524893  0.021465275           55 
 1750000    0.5576877   -6.6156468    472.52574  0.022501226  0.021449231           50 
 1751000   0.54903006   -6.6161058    472.41716  0.022483208  0.021433185           59 
 1752000   0.55448428   -6.5982791    473.55662  0.022524573  0.021417175           37 
 1753000   0.55518564    -6.609538    472.59369  0.022465948  0.021401204           28 
 1754000   0.54529768   -6.6062929    472.22047  0.022435408  0.021385243           47 
 1755000   0.54412185   -6.6039023    472.84917  0.022452477  0.021369278           56 
 1756000   0.53274538   -6.6284789    472.68547  0.022431922  0.021353301           61 
 1757000   0.55740729   -6.6379815    473.80141  0.022472084  0.021337371          107 
 1758000    0.5485375   -6.6226632    471.62847  0.022356298  0.021321434           27 
 1759000   0.55300564   -6.6304209     473.0284  0.022409911  0.021305472           48 
 1760000   0.54089695   -6.6026167    472.31722  0.022363505  0.021289513           52 
 1761000   0.54981981   -6.5991559    472.83556  0.022375334  0.021273559           54 
 1762000   0.53860509   -6.6298454    472.40225  0.022342142  0.021257623           34 
 1763000   0.56227371   -6.6240907    471.31346  0.022278004  0.021241703           98 
 1764000    0.5566772   -6.6016131    473.71871  0.022379002  0.021225792           42 
 1765000   0.55370498   -6.6002261    472.14947  0.022292232  0.021209916           59 
 1766000   0.55230606    -6.606533    472.23155  0.022283482  0.021194037          104 
 1767000   0.53998787   -6.6290894    472.35099  0.022276504  0.021178123           57 
 1768000   0.53607411   -6.6041758    472.72932  0.022281737  0.021162263           58 
 1769000   0.54545837   -6.6051319    472.13119  0.022240964  0.021146385          115 
 1770000   0.55335054    -6.625989    472.44776  0.022243303  0.021130553           56 
 1771000   0.55253673    -6.610225    471.97136  0.022208327  0.021114736          118 
 1772000   0.52952973   -6.6205517    471.45813  0.022171658   0.02109892           36 
 1773000   0.54362252   -6.6086229    471.60414  0.022166015  0.021083091           96 
 1774000   0.55035766   -6.6293802    471.99796   0.02217202   0.02106729           45 
 1775000   0.54931418   -6.6288413    473.22016  0.022216909  0.021051515           53 
 1776000   0.54400981   -6.6242655    473.27011  0.022206743  0.021035766           64 
 1777000   0.54733131   -6.6317727    472.09538  0.022139157  0.021020024           78 
 1778000   0.53940296   -6.6024101    472.18314  0.022130818  0.021004284          114 
 1779000   0.54444483   -6.6179537    473.22346   0.02216711  0.020988559           72 
 1780000   0.54153237   -6.5944879     472.1461  0.022104218  0.020972857           46 
 1781000   0.55810076   -6.6314636    472.37258  0.022102404  0.020957139           76 
 1782000   0.54787863   -6.6454975    472.22957  0.022083313  0.020941448           54 
 1783000   0.53174579   -6.6400398    471.43854  0.022033957  0.020925732           66 
 1784000   0.54868716   -6.6231739    472.23621  0.022058866  0.020910037           53 
 1785000    0.5466029   -6.6264506    472.24381  0.022046863  0.020894353           72 
 1786000   0.53294409   -6.6125026    472.53852   0.02204827  0.020878705          137 
 1787000    0.5499895   -6.6437311     471.1965  0.021973349   0.02086303           38 
 1788000   0.54438386    -6.634571    472.38976  0.022016674  0.020847402           65 
 1789000   0.53463277   -6.6430078    471.68253  0.021971424  0.020831771          107 
 1790000   0.54886032   -6.6415037    471.94509  0.021971373  0.020816124           89 
 1791000   0.54475633    -6.638043     472.7855  0.021998209  0.020800489           83 
 1792000   0.54063013   -6.6691998    471.25321  0.021914677  0.020784868          107 
 1793000    0.5412532    -6.648352    472.85043  0.021976689   0.02076924           70 
 1794000   0.53986424   -6.6442257    471.97264  0.021923664  0.020753633           86 
 1795000   0.54082363   -6.6450285    471.55751  0.021892178   0.02073805          115 
 1796000   0.51939575   -6.6407413    472.01417  0.021901177  0.020722453          145 
 1797000   0.54843775   -6.6579611    471.76218  0.021877304  0.020706861           90 
 1798000   0.53448387   -6.6507403    471.72546  0.021863434  0.020691275          171 
 1799000   0.52162947   -6.6552853    471.37973  0.021835266  0.020675709          129 
 1800000   0.54234985   -6.6678785    470.87985  0.021799993  0.020660138          254 
 1801000   0.54977344   -6.6500452    471.30448  0.021807537  0.020644586          109 
 1802000   0.52741721    -6.659389    471.44239  0.021801812  0.020629047          239 
 1803000   0.53361702   -6.6543687    471.69056  0.021801191  0.020613493           95 
 1804000   0.53596784   -6.6752884    471.18942  0.021765956  0.020597951          151 
 1805000   0.52684057   -6.6575024    470.89052  0.021740098  0.020582391          118 
 1806000   0.52719044   -6.6861519     470.7819  0.021723048  0.020566819          126 
 1807000   0.52454093   -6.6542461    471.15663  0.021728308  0.020551274           93 
 1808000   0.52907083   -6.6369266    470.99319  0.021708757  0.020535724           96 
 1809000   0.53191614   -6.6559878    471.48048  0.021719204  0.020520196          114 
 1810000   0.53724007   -6.6637985    471.40181  0.021703582  0.020504694          130 
 1811000    0.5219449   -6.6568161    471.06572  0.021676133  0.020489222          184 
 1812000   0.53903146   -6.6749568    470.58989  0.021642287  0.020473742          191 
 1813000   0.52765139   -6.6535283    470.93319  0.021646129  0.020458282          138 
 1814000   0.53353426   -6.6621909    470.36191  0.021607952  0.020442814          157 
 1815000   0.53269949   -6.6749957    471.09405  0.021629662  0.020427353          211 
 1816000   0.52767313   -6.6949011    470.89777  0.021608745  0.020411888          181 
 1817000   0.52694489   -6.6847536     470.0251  0.021556829  0.020396403          211 
 1818000   0.52214986   -6.6741044    471.17001  0.021597452  0.020380911          239 
 1819000   0.50933657   -6.6939032    470.42224  0.021551321  0.020365438          359 
 1820000   0.53509205   -6.6768233    470.35472  0.021536388   0.02034999          196 
 1821000   0.52499186   -6.6878314    471.19374  0.021562957   0.02033459          313 
 1822000   0.51734975   -6.6669526    469.64207  0.021480153  0.020319176          233 
 1823000     0.517616   -6.6835035    470.61041  0.021512635  0.020303768          208 
 1824000   0.54073377   -6.6890951    470.50933  0.021496223   0.02028837          186 
 1825000   0.53042253   -6.6859824    470.73006  0.021494523   0.02027299          207 
 1826000   0.52758084   -6.6728802    470.44889   0.02146992  0.020257598          168 
 1827000   0.52494695   -6.6825036    470.44027  0.021457776  0.020242217          392 
 1828000    0.5192687   -6.6835783    470.69586  0.021457689  0.020226888          267 
 1829000   0.52888436   -6.6776493    469.59491  0.021395795   0.02021155          261 
 1830000    0.5413971   -6.6986648     469.9546  0.021400483  0.020196198          464 
 1831000   0.52708004   -6.6783681    470.97278  0.021435135  0.020180852          311 
 1832000   0.51345892   -6.6849863    469.94758  0.021376801  0.020165533          315 
 1833000   0.51357284   -6.6688502    470.24694  0.021378748  0.020150241          193 
 1834000   0.51551876   -6.6855148    470.89174  0.021396389  0.020134965          336 
 1835000   0.51305863   -6.6843792    471.04391   0.02139164  0.020119676          318 
 1836000   0.51139247    -6.691429    469.91244  0.021328633   0.02010442          378 
 1837000   0.51902166   -6.7008035    470.72016  0.021353664  0.020089152          196 
 1838000   0.52606164   -6.7006352    470.30252   0.02132311  0.020073885          233 
 1839000   0.51193896   -6.6920723    470.03453  0.021299371  0.020058673          333 
 1840000   0.51810635   -6.7002912    469.06152  0.021243728  0.020043453          169 
 1841000   0.51873808   -6.7129195     470.4528  0.021295166  0.020028271          424 
 1842000   0.51758539   -6.6984064    469.63348  0.021246538  0.020013082          193 
 1843000   0.53242566   -6.6948848    469.84137   0.02124441  0.019997882          210 
 1844000   0.51091313   -6.6953196    469.68656  0.021225893   0.01998271          244 
 1845000   0.51751053   -6.6898166    470.66424  0.021258548  0.019967569          231 
 1846000   0.50268307   -6.7021074    470.09644  0.021221399  0.019952379          466 
 1847000   0.52164618   -6.7076597    470.18266    0.0212138  0.019937233          353 
 1848000   0.51090756   -6.6849014    470.54312  0.021218575  0.019922108          270 
 1849000   0.51188672   -6.6759523    470.72007  0.021215074   0.01990699          287 
 1850000   0.52110548   -6.6933819    470.42116  0.021190142  0.019891908          324 
 1851000    0.5141984   -6.7006234    470.81835  0.021196576  0.019876844          459 
 1852000    0.5241042   -6.7097751    470.66165   0.02117808   0.01986178          382 
 1853000   0.52084432   -6.7190692    470.73004  0.021169727  0.019846747          385 
 1854000   0.51090417   -6.6865608    469.96365   0.02112386  0.019831725          288 
 1855000   0.50932833   -6.7067423    470.07792  0.021117606  0.019816681          321 
 1856000   0.51771016   -6.7136289    469.79789  0.021093655  0.019801651          142 
 1857000   0.50988179   -6.7126522    469.49692   0.02106879   0.01978662          218 
 1858000   0.52453316   -6.7100697    469.98775  0.021079465  0.019771609          279 
 1859000   0.50927316   -6.7147694    469.79499  0.021059485  0.019756607          303 
 1860000   0.51411811   -6.7221631    470.82943  0.021094508  0.019741627          426 
 1861000   0.52079336   -6.7165801    470.73394  0.021078897  0.019726678          395 
 1862000   0.50280322   -6.7084237    470.85189  0.021072856  0.019711719          413 
 1863000   0.51275288   -6.7098774     469.9938  0.021023162  0.019696763          269 
 1864000   0.51789213   -6.7223129    469.70291  0.020998878  0.019681831          296 
 1865000   0.50237955   -6.7110529     471.1733   0.02105332  0.019666872          312 
 1866000   0.51349821   -6.7057336    469.57094  0.020970478  0.019651917          254 
 1867000   0.51423417   -6.7210755    469.58742  0.020959981  0.019637007          314 
 1868000   0.50146522   -6.7110704    469.73935  0.020955538  0.019622069          276 
 1869000   0.50504794   -6.7304204     469.8409  0.020948854  0.019607157          350 
 1870000   0.50287284   -6.7133218    469.13619  0.020906247  0.019592205          235 
 1871000   0.51359144   -6.7183895    469.64707  0.020917828  0.019577284          280 
 1872000   0.50345982   -6.7112339    469.69188  0.020908649  0.019562375          309 
 1873000   0.49980432   -6.7491564     468.3367  0.020837191  0.019547475          245 
 1874000   0.49960006   -6.7217418    469.16463  0.020862888  0.019532596          156 
 1875000   0.49919311   -6.7140793    468.55223  0.020824544  0.019517739          261 
 1876000   0.49882458   -6.7295698    469.48823  0.020855021  0.019502888          323 
 1877000   0.50962458   -6.7317283    469.29538  0.020835348  0.019488052          195 
 1878000   0.51880808   -6.7281755    468.42113   0.02078546  0.019473221          267 
 1879000   0.50445229   -6.7253031    469.24369  0.020810879  0.019458423          232 
 1880000   0.50481019   -6.7377705    469.31313  0.020802887  0.019443632          265 
 1881000   0.50811111   -6.7336849     470.3765  0.020838938  0.019428849          180 
 1882000   0.50433672   -6.7339338    469.12895  0.020772625  0.019414099          330 
 1883000   0.50605751   -6.7348616    468.84442  0.020749001  0.019399353          325 
 1884000   0.49628072   -6.7310592    469.56911  0.020770042  0.019384619          302 
 1885000   0.51387553   -6.7358683    469.36496  0.020749998   0.01936989          180 
 1886000   0.49978753   -6.7461045    469.18716   0.02073114   0.01935515          293 
 1887000   0.49859855   -6.7479008    469.42994  0.020730875   0.01934043          148 
 1888000   0.49387537    -6.740565    468.69019  0.020687243  0.019325709          126 
 1889000   0.49805901   -6.7224425    469.05922  0.020692572  0.019311002          177 
 1890000   0.48432399   -6.7351555    468.47209  0.020655736  0.019296309          276 
 1891000    0.4893926    -6.748187     468.3324  0.020638657  0.019281604          181 
 1892000    0.5106678    -6.750909    469.16951  0.020664619  0.019266934          234 
 1893000   0.49633747   -6.7438911    469.20384  0.020655214  0.019252262          250 
 1894000   0.49172581   -6.7489397    468.63526  0.020619292  0.019237593          329 
 1895000    0.4986131   -6.7601983     469.4031  0.020642177  0.019222932          379 
 1896000   0.50502373   -6.7335537    468.40242  0.020587307  0.019208277          271 
 1897000   0.50019722   -6.7434589    468.22839   0.02056881  0.019193638          337 
 1898000   0.50046153   -6.7670492    468.18249  0.020555958  0.019178983          407 
 1899000   0.49424124   -6.7629613    468.70411  0.020568023  0.019164365          344 
 1900000   0.48871324   -6.7440489    468.39042  0.020543439  0.019149764          406 
 1901000   0.49839205   -6.7183251    469.25582  0.020570569  0.019135185          396 
 1902000   0.49515076   -6.7633063    468.96099  0.020546836  0.019120585          398 
 1903000   0.48496456   -6.7326335    468.81607  0.020529693   0.01910601          311 
 1904000   0.50447255   -6.7477541    468.95466  0.020524976  0.019091469          449 
 1905000   0.47895808    -6.755664    468.24928  0.020483345  0.019076916          320 
 1906000   0.48462671   -6.7642361    468.29362  0.020474537  0.019062366          239 
 1907000   0.48782128   -6.7532162    468.40378  0.020468615  0.019047814          363 
 1908000   0.49661234   -6.7665984    468.92156  0.020480501  0.019033308          348 
 1909000   0.48855287     -6.76921    467.85831  0.020423359  0.019018787          307 
 1910000   0.48336137   -6.7526718    469.23877  0.020472896  0.019004297          303 
 1911000   0.48478912   -6.7531286    469.16898  0.020459139  0.018989809          353 
 1912000   0.48350718   -6.7415142    469.11776  0.020446206  0.018975351          310 
 1913000   0.50127104   -6.7631725    468.41108  0.020404734  0.018960903          439 
 1914000   0.50079063   -6.7725668    467.84196  0.020369295   0.01894645          409 
 1915000   0.49153474   -6.7620802    468.32725  0.020379776  0.018932004          373 
 1916000   0.49126863   -6.7601365    468.41284  0.020372862  0.018917573          284 
 1917000   0.48022885   -6.7697818    468.02582   0.02034541  0.018903154          252 
 1918000   0.49325544   -6.7508775    468.80494  0.020368654  0.018888741          416 
 1919000   0.48787081   -6.7614774     468.3338   0.02033758  0.018874352          426 
 1920000   0.48882056     -6.76911    468.13746  0.020318466   0.01885997          350 
 1921000   0.49512233    -6.776474    468.42346  0.020320296  0.018845613          186 
 1922000   0.48400031   -6.7683011    467.44137  0.020267142  0.018831244          320 
 1923000   0.48601505   -6.7648317    468.34162  0.020295615  0.018816896          366 
 1924000   0.48390698   -6.7540934     468.6437   0.02029815  0.018802574          340 
 1925000   0.47488148   -6.7535588    468.49067  0.020280981  0.018788261          350 
 1926000    0.4848596   -6.7536251    468.33539  0.020263733  0.018773951          213 
 1927000   0.48194466   -6.7568863       469.07  0.020284985  0.018759651          293 
 1928000   0.48194932   -6.7628924     467.9439  0.020225791  0.018745373          454 
 1929000   0.47242301   -6.7513069    469.31659  0.020274606  0.018731081          245 
 1930000   0.48839571   -6.7633991    467.69813   0.02019422  0.018716815          381 
 1931000   0.47395552   -6.7635342    467.71099  0.020184317   0.01870256          357 
 1932000   0.47160833   -6.7789312     467.8786  0.020181099  0.018688307          322 
 1933000    0.4754169   -6.7711162    468.46929  0.020196124  0.018674073          216 
 1934000   0.48043947   -6.7594765    467.97428  0.020164352  0.018659817          338 
 1935000    0.4917281   -6.7592017    468.00104  0.020155083  0.018645604          355 
 1936000   0.47867636   -6.7747567    468.26045  0.020155839  0.018631399          287 
 1937000   0.48833769   -6.7785583    466.85743  0.020085073  0.018617197          228 
 1938000   0.47630047   -6.7667053    467.51613  0.020103033  0.018603005          448 
 1939000   0.47109743   -6.7858101    467.84789  0.020106923  0.018588806          317 
 1940000   0.47810762   -6.7825273    468.48002  0.020123712  0.018574617          403 
 1941000   0.47570398    -6.793924    467.46799  0.020069895  0.018560441          440 
 1942000   0.47290787   -6.7795424    466.79728  0.020030779  0.018546266          397 
 1943000   0.47330014   -6.7857384     467.1299  0.020034736   0.01853212          356 
 1944000   0.47711084   -6.7705066    467.15751  0.020025613  0.018517993          440 
 1945000     0.477857   -6.7752389     467.5219   0.02003093  0.018503871          383 
 1946000   0.47602131   -6.7871912    468.47383  0.020061401   0.01848977          275 
 1947000   0.47889609   -6.7828221    467.59109  0.020013315  0.018475663          375 
 1948000   0.48858932   -6.7849092    466.47426  0.019955264  0.018461587          378 
 1949000    0.4681812   -6.7854826    466.47241  0.019944946  0.018447523          407 
 1950000   0.47564992   -6.7867473    466.83655   0.01995028  0.018433484          340 
 1951000   0.46981582   -6.7790677    467.87941  0.019984598  0.018419418          395 
 1952000   0.48583262   -6.7884133    467.06996  0.019939804  0.018405363          420 
 1953000   0.47098114   -6.7961706    467.97071  0.019968028  0.018391335          471 
 1954000   0.46913651   -6.7974701    467.08734  0.019920136  0.018377321          412 
 1955000    0.4757966    -6.790043    467.00113  0.019906271  0.018363317          395 
 1956000    0.4843507   -6.7821133    466.75527   0.01988562  0.018349331          477 
 1957000   0.46823659   -6.7800318     467.7885  0.019919456  0.018335361          407 
 1958000   0.46118624   -6.7773151    467.48167  0.019896224  0.018321412          404 
 1959000   0.47819943   -6.7740451     467.8884  0.019903369  0.018307476          357 
 1960000   0.47135322   -6.7899567    468.29003   0.01991029   0.01829354          398 
 1961000   0.47251788   -6.7970807    467.13991  0.019851262  0.018279607          394 
 1962000   0.46820594   -6.7854453    467.66198  0.019863319  0.018265712          260 
 1963000   0.47612497   -6.7830313    467.33861  0.019839472  0.018251801          398 
 1964000   0.47452679   -6.7753506    467.41721  0.019832706   0.01823791          468 
 1965000   0.47236088   -6.7973267    468.09069  0.019851174  0.018224031          464 
 1966000   0.46998315    -6.789332    467.04819  0.019796888  0.018210138          497 
 1967000   0.45536971   -6.7986812    467.28116  0.019796694   0.01819625          480 
 1968000   0.46992353   -6.7819771     467.7071  0.019804671  0.018182395          481 
 1969000   0.46182079    -6.814543    466.58049  0.019746931  0.018168546          542 
 1970000   0.47372287    -6.813601    466.50418  0.019733679  0.018154698          475 
 1971000   0.46200854   -6.7839841     468.2287   0.01979658  0.018140871          442 
 1972000   0.46605802   -6.7980937    467.47242  0.019754582  0.018127049          557 
 1973000   0.47556262   -6.8089302    466.92142  0.019721297  0.018113241          534 
 1974000   0.45895522   -6.7876366    467.12061  0.019719715  0.018099448          619 
 1975000   0.45363485   -6.8119979    466.67591  0.019690967  0.018085647          630 
 1976000   0.46626437   -6.8015002    466.64998  0.019679908  0.018071853          590 
 1977000    0.4559503   -6.8195917     467.0661  0.019687494  0.018058091          593 
 1978000   0.45426441    -6.805076    466.66262  0.019660542  0.018044334          551 
 1979000   0.45977843   -6.7976808     467.7205  0.019695153  0.018030584          604 
 1980000   0.45148533   -6.8069179    466.54064  0.019635549  0.018016841          622 
 1981000   0.46650874   -6.8073452    466.72487  0.019633387  0.018003108          553 
 1982000   0.45590019   -6.8047242    467.87633  0.019671894  0.017989379          518 
 1983000   0.46304383   -6.8111991    466.68331  0.019611839  0.017975663          488 
 1984000    0.4534799   -6.8157737    466.82534  0.019607919  0.017961956          538 
 1985000   0.46387164   -6.8020959    466.58209  0.019587829  0.017948288          612 
 1986000   0.46922241   -6.8176631    467.06762  0.019598339  0.017934632          522 
 1987000   0.46938336   -6.7970344    466.60237  0.019568964  0.017920968          522 
 1988000   0.46334461   -6.8061692    467.30178  0.019588438  0.017907323          517 
 1989000   0.46055642   -6.7970629    466.90515  0.019561972   0.01789369          494 
 1990000   0.46215739   -6.8176112    465.47092  0.019492082  0.017880067          486 
 1991000   0.45435672   -6.8129093    467.22157  0.019555566  0.017866464          449 
 1992000    0.4565439    -6.818775    467.31042  0.019549465  0.017852856          504 
 1993000   0.45718514   -6.8124237    466.47793  0.019504847  0.017839261          511 
 1994000   0.46330755   -6.8142464    466.75964  0.019506839    0.0178257          504 
 1995000   0.46563814   -6.8077026    466.68501  0.019493944  0.017812166          462 
 1996000   0.45127684   -6.8090416    466.03563  0.019457065  0.017798639          466 
 1997000   0.46833749   -6.8091543      466.348  0.019460357  0.017785096          351 
 1998000   0.46151441   -6.8207852    466.42807  0.019453957  0.017771568          382 
 1999000   0.45908677   -6.8150681    466.32753  0.019440034  0.017758037          542 
 2000000   0.44877058   -6.8273173    466.24673  0.019426947  0.017744532          505 
 2001000   0.44669193   -6.8272123    466.78013  0.019439452  0.017731023          564 
 2002000   0.45251027   -6.8289726    466.37556  0.019412902  0.017717535          425 
 2003000   0.45493517     -6.83243     466.1823   0.01939517  0.017704052          333 
 2004000   0.45073223   -6.8280902    466.03068  0.019379187  0.017690571          481 
 2005000   0.44939765   -6.8411594    465.83632  0.019361443  0.017677105          552 
 2006000   0.44866501    -6.830465    466.45572  0.019377522  0.017663643          503 
 2007000   0.45369425   -6.8302302    466.60806  0.019374193  0.017650199          462 
 2008000   0.45185972   -6.8224409    466.00784  0.019339635   0.01763678          465 
 2009000   0.45115021   -6.8318909    466.19191  0.019337643  0.017623349          558 
 2010000   0.45304302   -6.8279494    465.41507  0.019295815  0.017609939          612 
 2011000    0.4460496   -6.8399156    466.09685  0.019314472  0.017596536          503 
 2012000   0.44768676   -6.8357666    466.76638  0.019332603  0.017583144          560 
Loop time of 5141.85 on 48 procs for 2000000 steps with 4000 atoms

Performance: 67213.124 tau/day, 388.965 timesteps/s
99.4% CPU use with 48 MPI tasks x no OpenMP threads

MPI task timing breakdown:
Section |  min time  |  avg time  |  max time  |%varavg| %total
---------------------------------------------------------------
Pair    | 354.4      | 386.76     | 407.14     |  64.4 |  7.52
Neigh   | 35.414     | 36.806     | 38.257     |  12.2 |  0.72
Comm    | 334.47     | 357.65     | 389.71     |  67.2 |  6.96
Output  | 4.5923     | 4.5943     | 4.6461     |   0.4 |  0.09
Modify  | 4296.2     | 4308.4     | 4321.8     |   9.1 | 83.79
Other   |            | 47.66      |            |       |  0.93

Nlocal:        83.3333 ave          88 max          78 min
Histogram: 4 2 3 7 2 5 9 3 4 9
Nghost:        2388.56 ave        2408 max        2375 min
Histogram: 6 3 4 9 10 4 7 4 0 1
Neighs:        16490.0 ave       18858 max       14119 min
Histogram: 3 4 8 3 6 7 5 3 4 5
FullNghs:      32979.9 ave       35089 max       30595 min
Histogram: 3 3 3 8 1 14 3 3 4 6

Total # of neighbors = 1583033
Ave neighs/atom = 395.75825
Neighbor list builds = 107252
Dangerous builds = 0

#clear
#
#next RN
#
#jump SELF
Total wall time: 1:25:45
