
units lj                  # Use reduced LJ style units
atom_style atomic         # Uncharged point particles
atom_modify map hash      # Needed for indexing of clusters etc
                          # Used to be able to find where atoms are in relation to each other.

lattice fcc 1.0 spacing 1 1 1
Lattice spacing in x,y,z = 1.5874011 1.5874011 1.5874011
region box block 0 10 0 10 0 10 units lattice
create_box 2 box
Created orthogonal box = (0.0000000 0.0000000 0.0000000) to (15.874011 15.874011 15.874011)
  3 by 4 by 4 MPI processor grid
create_atoms 1 box
Created 4000 atoms
  using lattice units in orthogonal box = (0.0000000 0.0000000 0.0000000) to (15.874011 15.874011 15.874011)
  create_atoms CPU = 0.002 seconds
set type 1 type/fraction 2 0.02 78393
Setting atom values ...
  77 settings made for type/fraction
mass 1 1.0
mass 2 1.0
pair_style lj/cut  3.5
pair_modify tail  yes
pair_coeff 1  1  1.0  1.0   # Intearaction between 1 and 1 set with epsilon = 1 and sigma = 1
pair_coeff 1  2  1.5  0.8
pair_coeff 2  2  0.5  0.88

write_data data.0
System init for write_data ...
Neighbor list info ...
  update every 1 steps, delay 10 steps, check yes
  max neighbors/atom: 2000, page size: 100000
  master list distance cutoff = 3.8
  ghost atom cutoff = 3.8
  binsize = 1.9, bins = 9 9 9
  1 neighbor lists, perpetual/occasional/extra = 1 0 0
  (1) pair lj/cut, perpetual
      attributes: half, newton on
      pair build: half/bin/atomonly/newton
      stencil: half/bin/3d
      bin: standard
WARNING: Not all mixed pair coeffs generated from mixing. Use write_data with 'pair ij' option to store all pair coeffs. (../write_data.cpp:312)


#############################
#   M E L T   S Y S T E M   #
#############################

velocity all create 2.4 2750902 mom yes dist gaussian # Assign velocities
                                                    # Temperature 2.4, random number seed, zero linear momentum
                                                                                # Gaussian distribution

timestep 0.002   # simulation timestep
thermo 1000       # output thermodynamic data every 1000 steps bf 100

# Define a fix  in this case with index 1 applied to all
# particles in the simulation. This fix is for simulations
# in the anisotropic NPT ensemble. Note that we use the MTK
# correction.
fix 1 all npt temp 2.4 2.4 0.1 iso 5.68 5.68 0.5 mtk yes tchain 5 pchain 5 # Use NPT ensemble
                                                                         # Set temperature and pressure and damping
                                                                         # Numbers of thermostats in chain and in barostat
run 10000          # run for 10000 steps
Per MPI rank memory allocation (min/avg/max) = 3.642 | 3.644 | 3.648 Mbytes
Step Temp E_pair E_mol TotEng Press Volume 
       0          2.4   -8.2581388            0   -4.6590388   -2.3989133         4000 
    1000    2.3682642   -4.4477559            0  -0.89624772    5.6623627    5128.4791 
    2000    2.3913623   -4.3888454            0  -0.80269873    5.4819419    5199.3714 
    3000    2.3805075   -4.4277792            0  -0.85791062    5.8264209    5133.5647 
    4000    2.4055946   -4.4015433            0  -0.79405344    5.7506489     5150.142 
    5000    2.4092945   -4.3729997            0  -0.75996144     5.616595    5181.8009 
    6000    2.3686066   -4.4402811            0  -0.88825937    5.5485758    5152.8565 
    7000    2.3939222   -4.3798081            0   -0.7898225    5.7429212     5167.486 
    8000    2.3446911   -4.3913873            0  -0.87522992    5.7529675    5154.9061 
    9000    2.3738089   -4.3859676            0  -0.82614436    5.6722977    5171.8847 
   10000    2.3823276   -4.4360814            0  -0.86348331    5.6968891    5130.5687 
Loop time of 2.16318 on 48 procs for 10000 steps with 4000 atoms

Performance: 798825.105 tau/day, 4622.830 timesteps/s
99.5% CPU use with 48 MPI tasks x no OpenMP threads

MPI task timing breakdown:
Section |  min time  |  avg time  |  max time  |%varavg| %total
---------------------------------------------------------------
Pair    | 0.85723    | 0.90888    | 1.0016     |   3.0 | 42.02
Neigh   | 0.16427    | 0.17078    | 0.18146    |   0.9 |  7.89
Comm    | 0.65636    | 0.72867    | 0.78385    |   3.7 | 33.69
Output  | 0.0002404  | 0.00024556 | 0.00030493 |   0.0 |  0.01
Modify  | 0.29383    | 0.34024    | 0.37536    |   4.2 | 15.73
Other   |            | 0.01437    |            |       |  0.66

Nlocal:        83.3333 ave          90 max          74 min
Histogram: 2 2 2 5 2 11 8 4 8 4
Nghost:        1399.29 ave        1422 max        1375 min
Histogram: 1 0 3 4 13 19 4 2 1 1
Neighs:        7423.50 ave        8593 max        6349 min
Histogram: 1 4 3 7 11 9 9 1 2 1

Total # of neighbors = 356328
Ave neighs/atom = 89.082000
Neighbor list builds = 894
Dangerous builds = 150

# Equilibrate just above the melting temperature to avoid step fn in T

fix 1 all npt temp 1.25 1.25 0.1 iso 5.68 5.68 0.5 mtk yes tchain 5 pchain 5
run 2000
Per MPI rank memory allocation (min/avg/max) = 3.642 | 3.645 | 3.648 Mbytes
Step Temp E_pair E_mol TotEng Press Volume 
   10000    2.3823276   -4.4360814            0  -0.86348331    5.6968891    5130.5687 
   11000    1.2076444   -5.9094757            0   -4.0984621    5.4865832    4290.1596 
   12000    1.2066836    -5.899303            0   -4.0897301    5.7604968    4268.9748 
Loop time of 0.48738 on 48 procs for 2000 steps with 4000 atoms

Performance: 709097.423 tau/day, 4103.573 timesteps/s
99.4% CPU use with 48 MPI tasks x no OpenMP threads

MPI task timing breakdown:
Section |  min time  |  avg time  |  max time  |%varavg| %total
---------------------------------------------------------------
Pair    | 0.19403    | 0.20794    | 0.22529    |   1.4 | 42.66
Neigh   | 0.030781   | 0.031918   | 0.034667   |   0.4 |  6.55
Comm    | 0.14123    | 0.15542    | 0.20025    |   2.4 | 31.89
Output  | 5.0756e-05 | 5.1915e-05 | 6.2633e-05 |   0.0 |  0.01
Modify  | 0.047758   | 0.087703   | 0.096464   |   2.4 | 17.99
Other   |            | 0.00435    |            |       |  0.89

Nlocal:        83.3333 ave          89 max          77 min
Histogram: 3 3 4 5 5 11 2 4 6 5
Nghost:        1574.88 ave        1595 max        1553 min
Histogram: 3 1 4 4 11 8 7 4 3 3
Neighs:        8926.62 ave        9968 max        8034 min
Histogram: 2 4 4 12 9 4 2 9 1 1

Total # of neighbors = 428478
Ave neighs/atom = 107.11950
Neighbor list builds = 143
Dangerous builds = 11

#############################
# L I N E A R  Q U E N C H  #
#############################

# Define solid atoms. This closely follows ten Wolde  Ruiz-Montero and Frenkel  Faraday Discuss  1996  104  93-110
# Compute components of the per-atom q6 vector
compute q6 all orientorder/atom degrees 1 6 components 6 nnn NULL cutoff 1.3 # compute the Q6 parameter.
                                                                             # Use all neighbours within 1.3 unit cell.

# get number of connections
compute coord_number all coord/atom orientorder q6 0.5

# An atom is solid if it has 8 or more connections (of a possible 14)
variable is_solid atom c_coord_number>=8
group solid dynamic all var is_solid    # Must be dynamic to update
dynamic group solid defined

# do clustering
compute cluster solid cluster/atom 1.3 # Create a cluster where all atoms within are solid and max 1.3 units from another member

# define chunks one chunk per cluster
compute clus_chunks solid chunk/atom c_cluster nchunk every compress yes  # Says which atoms are in which chunk

# count the size of each chunk
compute size_chunks solid property/chunk clus_chunks count


# Find the maximum entry in the vector of chunk sizes
variable max_n equal max(c_size_chunks)


# Thermo style which includes this variable
# thermo_style custom step temp pe vol v_max_n

thermo ${N}  # Print the thermo information every 100 steps
thermo 1000  

# Reset the npt fix at a lower temperature (below freezing)
fix 1  all npt temp  ${temp} ${temp}  0.1  iso  5.68  5.68  0.5  mtk yes tchain  5  pchain  5
fix 1  all npt temp  0.45 ${temp}  0.1  iso  5.68  5.68  0.5  mtk yes tchain  5  pchain  5
fix 1  all npt temp  0.45 0.45  0.1  iso  5.68  5.68  0.5  mtk yes tchain  5  pchain  5

dump dmp2 all dcd ${N} traj.dcd
dump dmp2 all dcd 1000 traj.dcd


compute msd all msd com yes
variable twopoint equal c_msd[4]/6/(step*dt+1.0e-6)
fix 9 all vector 10 c_msd[4]
variable fit equal slope(f_9)/6/(10*dt)
thermo_style custom step temp pe c_msd[4] v_twopoint v_fit v_max_n

fix 1 all npt temp 1.25 ${temp} 0.1 iso 5.68 5.68 0.5 mtk yes tchain 5 pchain 5
fix 1 all npt temp 1.25 0.45 0.1 iso 5.68 5.68 0.5 mtk yes tchain 5 pchain 5
run 2000000 # 5000000  # Run for this many steps
Neighbor list info ...
  update every 1 steps, delay 10 steps, check yes
  max neighbors/atom: 2000, page size: 100000
  master list distance cutoff = 3.8
  ghost atom cutoff = 3.8
  binsize = 1.9, bins = 9 9 9
  4 neighbor lists, perpetual/occasional/extra = 1 3 0
  (1) pair lj/cut, perpetual
      attributes: half, newton on
      pair build: half/bin/atomonly/newton
      stencil: half/bin/3d
      bin: standard
  (2) compute orientorder/atom, occasional
      attributes: full, newton on
      pair build: full/bin/atomonly
      stencil: full/bin/3d
      bin: standard
  (3) compute coord/atom, occasional
      attributes: full, newton on
      pair build: full/bin/atomonly
      stencil: full/bin/3d
      bin: standard
  (4) compute cluster/atom, occasional
      attributes: full, newton on
      pair build: full/bin/atomonly
      stencil: full/bin/3d
      bin: standard
Per MPI rank memory allocation (min/avg/max) = 9.731 | 9.738 | 9.744 Mbytes
Step Temp PotEng c_msd[4] v_twopoint v_fit v_max_n 
   12000    1.2066836    -5.899303 4.2923894e-30 2.9808258e-32 8.3333333e+20            3 
   13000    1.2746183   -5.8998226   0.55272638 0.0035431177  0.045263001            4 
   14000    1.2172765   -5.9198624    1.0980995 0.0065363066  0.045444792            5 
   15000    1.2354878    -5.878577    1.6571298 0.0092062763  0.045514404            3 
   16000    1.2635011   -5.9198627    2.2208817  0.011567092  0.046063014            3 
   17000    1.2381704   -5.9058797    2.7474935  0.013468105  0.046093282            2 
   18000     1.234854    -5.920076    3.3025285  0.015289483  0.045976196            3 
   19000    1.2634105   -5.9085486    3.7701154  0.016535593  0.045357274            2 
   20000    1.2582707   -5.8874473    4.3216769  0.018006986  0.045047142            3 
   21000    1.2288961   -5.8635554    4.8147595  0.019106188  0.044713216            2 
   22000     1.246047   -5.9408987     5.406643  0.020479708  0.044592779            6 
   23000    1.2642962   -5.9038569    5.9860935  0.021688744  0.044800779            2 
   24000    1.2333353   -5.9195846    6.6441188  0.023069856  0.045082433            3 
   25000    1.2481852    -5.903386    7.1897565  0.023965855  0.045473989            2 
   26000    1.2728037   -5.9221788      7.63804  0.024480897  0.045645455            4 
   27000    1.2190824   -5.9187992    8.1435329   0.02513436  0.045499632            3 
   28000    1.2506897   -5.9181959    8.6614544  0.025778138  0.045461111            4 
   29000    1.2136885   -5.9177308    9.2766757  0.026657114  0.045454781            8 
   30000    1.2505247   -5.8759205    9.8589764  0.027386045  0.045461525            3 
   31000    1.2321478   -5.8723319    10.406833  0.027975358  0.045476324            1 
   32000     1.226635   -5.9322845    11.001487  0.028649706    0.0455749            2 
   33000     1.259803   -5.9018107    11.569273  0.029215336  0.045650948            2 
   34000    1.2547334   -5.9048132    12.106512  0.029672823  0.045754072            5 
   35000    1.2287368   -5.9381128    12.698566  0.030234682  0.045836122            3 
   36000    1.2197927   -5.9011323    13.270716   0.03071925  0.045880446            3 
   37000    1.2396845   -5.9182589    13.848498   0.03119031  0.045921004            3 
   38000    1.2236585   -5.8777648    14.457061  0.031704081  0.046013353            4 
   39000    1.2166273   -5.9070269    14.814527  0.031654971  0.046045982            4 
   40000    1.2449903   -5.9482837    15.210018  0.031687537  0.045960479            4 
   41000    1.2734558   -5.9176778    15.679219   0.03186833  0.045800089            2 
   42000    1.2386944   -5.9223352    16.207609  0.032157954  0.045657833            3 
   43000    1.2401379   -5.9434786     16.83295  0.032621996  0.045573245            3 
   44000     1.211181   -5.9127339    17.375818  0.032908746  0.045508027            2 
   45000    1.2360994   -5.9234005    17.895789  0.033140349  0.045403779            6 
   46000    1.2261355   -5.9559292    18.289333  0.033132849  0.045306819            3 
   47000    1.2253066   -5.9021933    18.828626  0.033384089  0.045222242            5 
   48000    1.2244991   -5.9164127      19.3517  0.033596701  0.045135517            7 
   49000    1.2646079   -5.9126271    19.844585  0.033749294  0.045045106            8 
   50000    1.2316507   -5.8767191    20.611724  0.034352873  0.045009138            1 
   51000    1.2502535   -5.9381046    20.950981  0.034233629  0.044965076            2 
   52000    1.2425494   -5.9347361    21.616482  0.034641797  0.044927385            2 
   53000    1.2292324   -5.9477074    22.200585   0.03490658  0.044905544            2 
   54000    1.2499007    -5.952039    22.769514  0.035138138  0.044908904            4 
   55000    1.2321678   -5.9279483    23.048853  0.034922505  0.044874454            5 
   56000    1.2610924   -5.9090975    23.517208  0.034995845  0.044797677            3 
   57000    1.2373498   -5.9087863    23.908819  0.034954413  0.044714582            3 
   58000    1.2119074   -5.9846348    24.378728  0.035026907  0.044608089            2 
   59000    1.2604748   -5.9463209    25.236699  0.035645054  0.044543554            3 
   60000    1.2226441   -5.9346501    25.701372   0.03569635  0.044510329            2 
   61000     1.203288   -5.9200195    26.120547  0.035683807  0.044458652            2 
   62000    1.2342564   -5.9555624    26.642939  0.035810402   0.04441185            3 
   63000    1.2249517   -5.9509557    26.848866  0.035514373  0.044335486            6 
   64000    1.2176412   -5.9808406    27.392649  0.035667512  0.044263269            3 
   65000    1.2532781   -5.9523533    28.183439  0.036132613  0.044203004            6 
   66000    1.2330834   -5.9870858     28.55689  0.036056679  0.044173148            1 
   67000    1.2303214   -5.9289411    29.129626  0.036230878  0.044142685            2 
   68000    1.2289098   -5.9600005    29.609931   0.03628668  0.044103107            3 
   69000    1.2305345   -5.9446399    30.211756  0.036487628  0.044074214            3 
   70000    1.2441476   -5.9601424    30.834612  0.036707871  0.044052002            3 
   71000    1.2204777   -5.9337809    31.208577  0.036629785  0.044028022            3 
   72000    1.2291736   -5.9509728     31.79305  0.036797511   0.04399171            4 
   73000    1.1923069   -5.9719551    32.065935  0.036604948  0.043943316            2 
   74000    1.2474156   -5.9387136    32.626409  0.036741451  0.043895037            2 
   75000    1.2347363   -5.9455728    33.297134  0.036996815  0.043857147            2 
   76000    1.2161769   -5.9492539    33.847707  0.037113714  0.043833357            4 
   77000    1.2210075   -5.9487173    34.627487  0.037475635  0.043841897            3 
   78000    1.2179848   -5.9026013    35.316668  0.037731483  0.043855697            4 
   79000    1.2432343   -5.9606818    35.804199  0.037768142   0.04387073            3 
   80000    1.2339454   -5.9185169    36.255068  0.037765695  0.043887783            2 
   81000    1.2218368   -5.9588717    36.790501  0.037850309  0.043899699            3 
   82000    1.2210856    -5.937329    37.335974  0.037943063  0.043901119            4 
   83000    1.2000243   -5.9830444    37.580013  0.037730937  0.043899389            5 
   84000    1.2033622   -5.9579348    38.103831   0.03780142  0.043893632            3 
   85000    1.2128104    -5.945368    38.796897  0.038036173  0.043893961            3 
   86000    1.2070171   -5.9406589    39.423815  0.038201371  0.043904709            2 
   87000    1.2220462    -5.967308    39.940441  0.038257127  0.043921142            4 
   88000    1.2088686   -5.9717579    40.437737  0.038293311  0.043933649            5 
   89000    1.2272176   -6.0002829    40.929209  0.038323229  0.043936988            2 
   90000    1.2252532   -5.9438313    41.465999  0.038394443  0.043939292            2 
   91000    1.2079733   -5.9878966    41.939797  0.038406407  0.043945397            6 
   92000    1.2111871   -5.9320111    42.593342  0.038580926  0.043950818            4 
   93000    1.2347202   -5.9585274    43.203628  0.038712928  0.043961175            5 
   94000    1.2087188   -5.9648816    43.606786  0.038658498  0.043969327            3 
   95000    1.2097535   -5.9331085    44.200791  0.038772623  0.043973698            3 
   96000    1.1892908   -5.9587472    44.608955  0.038723051   0.04397869            1 
   97000    1.2318315   -5.9634369    45.291895  0.038910562  0.043980788            3 
   98000    1.2438449   -5.9738462    45.730416  0.038886408  0.043986985            1 
   99000    1.2319007   -5.9719816    46.338995  0.039005887  0.043991302            2 
  100000    1.2467108   -5.9817719    46.698735  0.038915612    0.0439899            3 
  101000    1.2025888   -5.9670038    47.335498  0.039055691   0.04399209            3 
  102000    1.2021549   -5.8982604    48.029249  0.039239583  0.044000939            3 
  103000    1.2191091   -5.9687568    48.309224  0.039085132  0.044001787            6 
  104000    1.2062193   -5.9581644    48.613156  0.038952849  0.043989438            4 
  105000    1.2189472   -5.9751146    49.079777  0.038952204  0.043976702            3 
  106000     1.213798   -5.9644546    49.642946  0.039027473  0.043960267            4 
  107000    1.2181815   -5.9873818    49.948036   0.03890034  0.043938274            5 
  108000    1.2310447   -5.9770749    50.366971  0.038863403  0.043910486            4 
  109000    1.2163666   -5.9942972    50.856974  0.038881479    0.0438824            7 
  110000    1.1960648   -5.9743186    51.468956  0.038991634  0.043857437            4 
  111000    1.2105376   -6.0041024    52.033255  0.039064005  0.043837118            7 
  112000    1.2098675   -5.9310968    52.408908  0.038994723  0.043811822            4 
  113000    1.2108523    -5.960106    52.867823   0.03898807  0.043784904            3 
  114000    1.2222054   -5.9934306    53.297509  0.038960167  0.043763317            3 
  115000    1.1913692   -5.9279338    53.622305  0.038856743  0.043735503            4 
  116000    1.2082684   -6.0220214    54.271763  0.038988335  0.043706623            2 
  117000    1.2178395   -5.9883944    54.746521  0.038993248  0.043672783            4 
  118000    1.2018942   -5.9292104    55.315732  0.039064782  0.043642953            4 
  119000    1.2135123   -5.9674432     55.81169  0.039083817  0.043615081            3 
  120000     1.213806   -5.9667137    56.404702  0.039169932  0.043590402            2 
  121000    1.1968557   -5.9570884     56.79403  0.039114346  0.043562393            5 
  122000    1.2228203   -6.0020429    57.121162  0.039017187  0.043537743            7 
  123000    1.2002733   -6.0018858    57.765027  0.039136197  0.043512484            4 
  124000    1.2030903   -6.0081679     58.04782  0.039010631  0.043483159            7 
  125000    1.2028652    -5.954212    58.413946   0.03894263  0.043446728            1 
  126000    1.2062844   -6.0017514    58.917718  0.038966745  0.043406884            3 
  127000    1.2226564   -5.9870526    59.545961  0.039072153  0.043373447            3 
  128000    1.2301773   -5.9892668     60.28125  0.039245605  0.043350993            2 
  129000    1.2048888   -5.9466092    61.115996  0.039480618  0.043339927            2 
  130000    1.2220538   -5.9850362    61.368229  0.039338608  0.043327522            2 
  131000    1.2046892   -6.0010798    61.859259  0.039350673  0.043314079            4 
  132000    1.1953206   -5.9596313    62.742619  0.039610239  0.043300334            2 
  133000    1.1938941   -5.9816419    63.001265  0.039474477  0.043286773            2 
  134000    1.2039195   -5.9779299    63.707058  0.039618817  0.043272797            2 
  135000    1.1867576   -5.9927102    64.194298   0.03962611   0.04326243            4 
  136000    1.2106388   -5.9814587    64.382247  0.039449906  0.043251402            4 
  137000    1.1900287   -6.0368082    64.879747  0.039464566  0.043235446            2 
  138000     1.179195   -5.9866715    65.359253  0.039468148  0.043219355            4 
  139000    1.1781072   -5.9991732    65.756304  0.039422245  0.043202081            3 
  140000    1.1962827   -6.0195525    66.310408  0.039470481  0.043188196            2 
  141000    1.1783672   -6.0206263    66.577313  0.039348294  0.043167893            8 
  142000    1.1983593   -5.9815165    67.187054  0.039429022  0.043143998            2 
  143000     1.227311   -5.9482358    67.878743  0.039556377  0.043126135            2 
  144000    1.1774641    -5.997959    68.495379   0.03963853  0.043109556            2 
  145000    1.1932652   -5.9946822    68.618423  0.039435875  0.043091329            4 
  146000    1.1708342     -5.99766    69.038909   0.03940577   0.04306701            5 
  147000    1.1890026   -6.0116899     69.82053  0.039580799  0.043046286            3 
  148000    1.1968632   -6.0250389    70.196124  0.039524844  0.043029939            3 
  149000    1.1868564   -5.9892976    70.924205  0.039666781  0.043015285            5 
  150000    1.1840166   -6.0060243    71.262586  0.039590325  0.042998722            5 
  151000    1.1640511   -6.0691002    71.780939  0.039614205  0.042982778            2 
  152000    1.2015464   -5.9731643    72.682863  0.039848061  0.042973008            4 
  153000    1.1867698   -5.9350835    73.175349  0.039855855   0.04296996            5 
  154000    1.1740873   -5.9933732    73.621345   0.03983839  0.042962913            3 
  155000    1.1850285   -6.0451296    73.832444  0.039694862  0.042951414            4 
  156000     1.200458   -5.9922246    74.629024  0.039865932  0.042940723            3 
  157000    1.2128545   -6.0022553      75.0781  0.039850371  0.042932251            3 
  158000    1.1958948   -6.0205747    75.291595  0.039710757  0.042921574            4 
  159000    1.1856372   -6.0304066    75.838841   0.03974782  0.042908986            4 
  160000    1.1655425    -6.006574    76.692463  0.039943991  0.042898015            2 
  161000    1.1860919   -6.0178237    76.980152  0.039844799  0.042887179            2 
  162000    1.1839061    -6.008338    77.591206  0.039913172  0.042877982            5 
  163000    1.1933046   -6.0109086    78.125737  0.039941583   0.04287431            2 
  164000    1.2015928   -6.0204971    79.119164  0.040202827  0.042873664            3 
  165000     1.179397   -6.0287336    79.140897   0.03997015  0.042873005            4 
  166000    1.2102145   -6.0147944    79.807712  0.040064112  0.042872147            2 
  167000    1.1872431   -5.9873612    80.808648  0.040323677  0.042874102            4 
  168000    1.1977732   -6.0064543    81.217241   0.04028633  0.042878019            5 
  169000    1.2088262   -6.0023032     81.78287  0.040326859  0.042878718            2 
  170000    1.1892431   -6.0113107     81.78109  0.040088769  0.042875484            2 
  171000    1.2038868   -5.9902778    82.403659  0.040157729  0.042872592            2 
  172000    1.1791067   -6.0154742    82.867773  0.040149115  0.042868501            5 
  173000    1.2122307    -5.994138    83.559876  0.040250422  0.042863462            2 
  174000    1.1880093    -6.039955    83.861218  0.040163418   0.04285777            4 
  175000    1.1971901   -6.0593981    84.385978  0.040183799   0.04285239            3 
  176000    1.1826677   -6.0015084    84.611379  0.040062206  0.042847456            2 
  177000    1.1612933    -6.011083    85.280539  0.040150913  0.042840884            6 
  178000    1.1663755   -6.0282947    85.432372  0.039996429  0.042831895            4 
  179000    1.1854197   -6.0143723    85.832435  0.039959234  0.042821126            3 
  180000    1.1482924   -6.0658578     86.55047  0.040069662  0.042808458            4 
  181000    1.1818466   -6.0240806    86.619174  0.039879914  0.042795778            4 
  182000    1.1906705   -6.0545931    87.388278  0.040012948  0.042783191            5 
  183000    1.1757663   -6.0063791    88.000836   0.04007324  0.042768931           10 
  184000    1.1816475   -6.0222351    88.234445  0.039961252  0.042754827            2 
  185000    1.1665967   -6.0131756    88.616779  0.039917468  0.042741874            1 
  186000    1.1698231   -6.0312245    89.086164  0.039913156  0.042727533            4 
  187000    1.1953238   -6.0036112    89.419126  0.039848095  0.042709839            5 
  188000    1.1772226    -6.025252    90.325054  0.040037701  0.042691799            6 
  189000    1.1942902    -6.014599    90.509968  0.039907393  0.042675172            6 
  190000    1.1838239   -6.0328971    90.829441  0.039837474    0.0426558            4 
  191000    1.1830918   -6.0504893    91.127524  0.039758955   0.04263539            3 
  192000    1.1720418   -6.0090454    92.169153  0.040003973  0.042617399            4 
  193000    1.1800917   -5.9907541    92.686284  0.040019984  0.042604598            4 
  194000    1.1646561   -6.0601029    92.960101  0.039931315  0.042589534            5 
  195000    1.1742846   -6.0093893    93.283822  0.039864881  0.042572099            2 
  196000    1.1995359   -6.0071259    93.847781  0.039901267  0.042553957            3 
  197000    1.1676029   -6.0489893    94.243106   0.03986595  0.042534721            2 
  198000    1.1614164   -6.0476839     94.48759  0.039767504  0.042514578            4 
  199000    1.1676177   -6.0534639    94.928109  0.039752139  0.042492304            6 
  200000    1.1789581   -6.0505675    95.295556  0.039706481  0.042469579            3 
  201000    1.1724514   -6.0354579    95.573705  0.039624256  0.042448597            4 
  202000    1.1651372   -6.0148574    96.568588  0.039838526  0.042426641            3 
  203000    1.1861563   -6.0139772    97.054911  0.039841917  0.042405854            4 
  204000    1.1695752   -6.0334536    97.584418  0.039862916  0.042388443            5 
  205000    1.1732123    -6.028715    98.003956  0.039839006  0.042368452            4 
  206000    1.1640972   -6.0569062     98.09484  0.039682379  0.042348057            5 
  207000    1.1567735    -6.067388    98.745285   0.03975253  0.042327025            4 
  208000    1.1650367    -6.064478    99.221718  0.039752291  0.042308903            4 
  209000    1.1594852   -6.0371657    100.05274  0.039893437  0.042291269            6 
  210000    1.1831479   -6.0825413    99.977856  0.039673752  0.042273122            5 
  211000    1.1695039   -6.0538378    100.65863  0.039754593  0.042254517            4 
  212000    1.1752057    -6.030932    101.14266  0.039757335  0.042238913            2 
  213000    1.1782707   -6.0871783    101.45294  0.039692072   0.04222066            3 
  214000     1.159326   -6.0247252    101.99085  0.039716062  0.042200165            4 
  215000    1.1782946   -6.0334244    102.33998   0.03966666  0.042180182            4 
  216000    1.1724108   -6.0426645    102.57776  0.039574752  0.042158164            4 
  217000    1.1567601   -6.0262767    103.50175  0.039747216  0.042137112            4 
  218000    1.1647392   -6.0405155    103.73875  0.039655486  0.042114859            2 
  219000    1.1579706   -6.0288072    103.87831  0.039527517  0.042091723            4 
  220000    1.1704006   -6.0533028    104.34497  0.039524608  0.042067364            3 
  221000    1.1491056   -6.0234508    104.61944   0.03944926  0.042042013            2 
  222000    1.1591198    -6.043221     104.9073  0.039379617  0.042015868            8 
  223000    1.1667446   -6.0471717    105.22857  0.039323082  0.041991565            4 
  224000    1.1607328   -6.0441226     105.9824  0.039427978  0.041966096            5 
  225000    1.1776675     -6.08777    106.76061  0.039540965   0.04194052            1 
  226000    1.1963611   -6.0558223    106.80416  0.039382066   0.04191699            2 
  227000    1.1952214   -6.0722364    106.84608  0.039223964  0.041889345            3 
  228000    1.1662096   -6.0501996    108.00838  0.039476749  0.041862972            2 
  229000    1.1456559   -6.0286859    108.39417  0.039444749  0.041837993            3 
  230000    1.1704969   -6.0231245    108.94245  0.039471902  0.041814508            5 
  231000    1.1636365   -6.0675578     108.9965  0.039320527  0.041791027            4 
  232000    1.1310744   -6.0737221     109.7496  0.039421553  0.041766774            2 
  233000    1.1429183   -6.0840443    109.71893   0.03924139   0.04174081            8 
  234000    1.1531942   -6.0709153    110.24282  0.039260265  0.041715359            2 
  235000    1.1399782    -6.104446    110.70027  0.039255413  0.041689258            7 
  236000    1.1732031   -6.0675934     111.4516  0.039354378  0.041662884            4 
  237000    1.1681329   -6.1017988    111.76815  0.039299629  0.041639443            5 
  238000    1.1631595   -6.0047918    112.57358  0.039416518  0.041616661            2 
  239000    1.1554113   -6.0505179    112.69044  0.039292344  0.041593657            4 
  240000    1.1362752   -6.0433068    113.21039  0.039309162  0.041571961            5 
  241000    1.1643339   -6.0749749    113.76213  0.039336835  0.041550212            4 
  242000    1.1586982   -6.0846879    114.19761  0.039324244  0.041526683            3 
  243000    1.1554626   -6.0771863     114.3382  0.039210633   0.04150343            4 
  244000    1.1641063   -6.0660424    115.07065  0.039300086  0.041479955            6 
  245000    1.1398255   -6.0083316    115.36523  0.039239876  0.041457463            3 
  246000    1.1625383   -6.0742359    115.81196  0.039231693  0.041434499            3 
  247000    1.1587698   -6.0446694    116.46534  0.039293298  0.041411176            7 
  248000    1.1335721   -6.0677106    117.13297  0.039359197  0.041388628            5 
  249000    1.1524947   -6.0800388     117.0796  0.039183268  0.041366055            9 
  250000    1.1572055   -6.0718346    117.47089  0.039156963  0.041344321            3 
  251000    1.1639674   -6.0398079    118.05776  0.039195802  0.041321041            4 
  252000      1.16299   -6.0896747    117.89936  0.038987883  0.041296512            5 
  253000     1.150167   -6.1110746    118.23531  0.038944438  0.041270101            7 
  254000    1.1576866   -6.0559544    118.46313  0.038865856  0.041242239            9 
  255000    1.1367111   -6.0726521    118.91756  0.038861947  0.041214283            6 
  256000    1.1490033   -6.0519241    120.02572  0.039070871  0.041187185            2 
  257000    1.1398848   -6.0850447    120.31499  0.039012643  0.041160475            4 
  258000    1.1617595   -6.0851049     120.3611  0.038876323  0.041132161            3 
  259000     1.178632   -6.1056135    120.24614  0.038689233  0.041102416            4 
  260000    1.1394497   -6.0665486    121.07725  0.038806812  0.041075593            3 
  261000    1.1683412   -6.0813038    121.92821  0.038929825  0.041047571            5 
  262000    1.1544138   -6.1111199    122.08142  0.038829968  0.041021314            5 
  263000    1.1523156    -6.065085    122.93334  0.038952262  0.040996652            3 
  264000    1.1455838   -6.0957867    122.93802  0.038806192  0.040971837            7 
  265000    1.1480402   -6.0873724    123.39878  0.038804648  0.040946294            3 
  266000    1.1500385   -6.0654104     123.7361  0.038764443  0.040921288            7 
  267000    1.1363461   -6.0650807    124.59993  0.038888865  0.040896789            4 
  268000    1.1520863   -6.0843523    125.27636  0.038954093  0.040873084            3 
  269000    1.1208447   -6.0637575    125.21981  0.038791761  0.040847632            2 
  270000    1.1211715   -6.0742617    125.53421  0.038745126  0.040822944            6 
  271000    1.1342959   -6.1225256    125.67451  0.038645298  0.040796905            8 
  272000    1.1374735   -6.0984956    126.04106  0.038615521  0.040769973            4 
  273000    1.1382974   -6.0819711    126.75291  0.038691366  0.040743601            9 
  274000    1.1257688   -6.0975843    126.90054  0.038595054  0.040715808            3 
  275000     1.146143   -6.1123543     127.4254  0.038613758  0.040688514            3 
  276000     1.126031   -6.0866295    127.20652  0.038407765   0.04065914            4 
  277000    1.1297978     -6.08594    128.14027   0.03855002  0.040631131            4 
  278000    1.1407376   -6.0506268    128.70446  0.038580474  0.040603959            2 
  279000      1.14144   -6.1022452     128.5331  0.038391009    0.0405778            2 
  280000    1.1330954   -6.1153949    129.23269   0.03846211  0.040550964            4 
  281000    1.1404777   -6.0946136    130.16898  0.038602899  0.040525059            5 
  282000    1.1456802   -6.1083385     130.4082  0.038536702  0.040500087            6 
  283000    1.1573034   -6.1038475    131.03048   0.03858377  0.040475123            4 
  284000    1.1559101    -6.070556    131.51219  0.038589258  0.040451792            4 
  285000    1.1462452   -6.0995908    132.13164  0.038634984  0.040428758            4 
  286000    1.1439702   -6.1192209    132.13744  0.038501585  0.040405321            5 
  287000    1.1218069   -6.0965994    132.51212  0.038476225  0.040381772            5 
  288000    1.1426341   -6.1037572    133.26542  0.038560596  0.040357597            4 
  289000    1.1397956   -6.0747922      133.461  0.038483565  0.040333369            4 
  290000     1.158063   -6.0974069    133.43852  0.038344403  0.040309244            6 
  291000    1.1411772   -6.1004112    133.99956  0.038373299  0.040285005            3 
  292000    1.1307925   -6.1062754    134.42573  0.038363507  0.040259864           11 
  293000    1.1623841   -6.1242464    134.63249   0.03829138  0.040234183            6 
  294000    1.1316742   -6.0837107    135.64032  0.038446802  0.040208231            3 
  295000    1.1533571   -6.1245182    135.65407   0.03832036  0.040183027            4 
  296000    1.1516845   -6.1157826    136.37546  0.038393992  0.040159343            4 
  297000    1.1524703    -6.126608     137.0352  0.038449831  0.040136976            7 
  298000    1.1451431   -6.1059545    137.23239  0.038375948  0.040114365            3 
  299000    1.1372043   -6.0693929    137.69111   0.03837545  0.040091713            3 
  300000    1.1592169   -6.1275087    138.52856  0.038480154  0.040070232            4 
  301000    1.1222079    -6.073113    138.96528  0.038473222  0.040048702            3 
  302000    1.1119636   -6.0740635    139.13153  0.038391702  0.040027218            5 
  303000    1.1419346   -6.0947147    139.36874  0.038330236  0.040005385            4 
  304000    1.1309677   -6.0899527    139.95279  0.038364251  0.039984026            3 
  305000    1.1522503   -6.1047269    140.39214  0.038358509  0.039963268            4 
  306000    1.1402042   -6.0904224    140.59618  0.038288719  0.039942212            4 
  307000    1.1318613   -6.1006885    141.43551  0.038391832  0.039921541            5 
  308000    1.1400983   -6.1083478    141.44294  0.038269194  0.039900549            3 
  309000    1.1383976   -6.0945722      142.698  0.038483819  0.039879466            3 
  310000    1.1194971   -6.1450506    142.26237  0.038242572  0.039856411            3 
  311000    1.1083002   -6.1419348    142.46846  0.038174829  0.039833414            8 
  312000     1.131067   -6.0961436    142.78303  0.038136494  0.039810693            3 
  313000    1.1365596   -6.1326522    143.15941  0.038114858  0.039787253            3 
  314000    1.1031866   -6.1176311    143.65904  0.038126072  0.039764796            7 
  315000    1.1341861   -6.1402003    143.86169  0.038058647   0.03974238            5 
  316000    1.1229431   -6.0987896    144.60644  0.038134609  0.039721116            3 
  317000    1.1119743   -6.0843875     144.8399  0.038075684  0.039699171            3 
  318000    1.1289913   -6.1165206     145.4322  0.038111163   0.03967768            5 
  319000    1.1340096   -6.0942546    145.51603  0.038013593  0.039655971            2 
  320000    1.1308792    -6.108636    145.86633  0.037986023  0.039633626            5 
  321000     1.131338    -6.128577    146.74675   0.03809625   0.03961111            4 
  322000    1.1086803   -6.1439716    146.43576  0.037897453  0.039588447            2 
  323000    1.1293748   -6.1134788     147.0375  0.037935371  0.039564644            5 
  324000    1.1345739    -6.091314    147.66953  0.037980846  0.039541778            2 
  325000    1.1163542   -6.1338486    148.04977  0.037961479  0.039518985            4 
  326000    1.1249249   -6.0843387    149.10474  0.038114709  0.039496668            2 
  327000    1.1372609   -6.1563706    148.79853  0.037920115  0.039474728            2 
  328000     1.101024    -6.126942    149.30812  0.037933973   0.03945258            5 
  329000    1.1180969    -6.125031    149.83392  0.037951853  0.039429647            3 
  330000    1.1084538   -6.1050326    149.97868  0.037873404  0.039407516            3 
  331000    1.0899831   -6.1091449    150.89334  0.037989259  0.039385096            4 
  332000    1.1295388   -6.1270682    150.63588   0.03781021  0.039362455            3 
  333000    1.1317302    -6.134195    151.00394  0.037788774  0.039339612            6 
  334000    1.1386591   -6.1372192    151.55992  0.037814351  0.039316493            5 
  335000    1.1075316   -6.1234305    151.87409  0.037779624    0.0392939            3 
  336000    1.1174459   -6.1247687    152.45366  0.037810928  0.039271508            4 
  337000    1.1310568   -6.1466052    152.06926  0.037603675  0.039248555            4 
  338000     1.146026   -6.1410836    153.05635  0.037735786  0.039226175            9 
  339000    1.1040092   -6.0874462    154.00661  0.037858066  0.039204205            3 
  340000    1.1226816   -6.1505863    153.50727   0.03762433  0.039181997            3 
  341000    1.1038339   -6.1534509    153.95911  0.037624417  0.039158935            4 
  342000     1.112331   -6.1305397    154.96153  0.037758658  0.039135689            2 
  343000    1.1276609   -6.1062888    155.61003   0.03780613  0.039113154            3 
  344000    1.0934782   -6.1233493    155.89169  0.037764461  0.039092527            2 
  345000    1.1279621   -6.1451735     155.6167  0.037588576   0.03907169            3 
  346000    1.1268865   -6.1195585    155.59849  0.037475551  0.039049348            7 
  347000    1.1169093   -6.1186249    157.17941  0.037747218  0.039026891            3 
  348000    1.1403474   -6.1111753    157.21168  0.037646475  0.039004381            3 
  349000    1.0876731   -6.1025478    157.37214   0.03757692  0.038981118            2 
  350000    1.1183862   -6.1907976    157.22474  0.037434462  0.038957403            5 
  351000     1.127829   -6.1386382    157.18999   0.03731956  0.038932205            3 
  352000    1.1177325   -6.1089846    157.93734  0.037390468  0.038907113            3 
  353000    1.1047247    -6.124691    158.61579  0.037444709  0.038882111            3 
  354000    1.1045816   -6.1135765    158.50171  0.037312079  0.038857889            5 
  355000        1.109   -6.1385882    159.15791  0.037361012  0.038834364            4 
  356000    1.1316052   -6.1240284    160.16942  0.037492841  0.038811379            4 
  357000    1.1227205   -6.1433447    160.31522  0.037421853  0.038788752            4 
  358000    1.1206003   -6.1463913    160.91928  0.037457933  0.038766617            5 
  359000       1.1214   -6.1746346     161.6668  0.037527111   0.03874527            3 
  360000    1.1200132   -6.1555376      161.305   0.03733912  0.038724716            7 
  361000    1.1151346   -6.1268829    162.10536  0.037420444  0.038703672            3 
  362000    1.1257064   -6.1148704    162.66023  0.037444803  0.038682635            5 
  363000    1.1170284   -6.1304875     163.0267  0.037425781  0.038661657            4 
  364000    1.0870907   -6.1181492    163.14707   0.03735052  0.038640849            5 
  365000    1.1075797   -6.1241998    162.95393  0.037204092  0.038619066            5 
  366000    1.1177345   -6.1796782    163.72268  0.037277477  0.038597568            5 
  367000    1.1088956   -6.1165138    164.64072  0.037384359  0.038576201            7 
  368000    1.0949682   -6.1106639    164.50052  0.037251023  0.038554082            8 
  369000    1.0854598   -6.1310371    164.84632  0.037228166  0.038531892            5 
  370000    1.1242882   -6.1539171    165.20764  0.037208928  0.038510277            4 
  371000     1.086565   -6.1628993    165.47833  0.037169437  0.038487927            4 
  372000    1.1077844    -6.150375    165.88445  0.037160495  0.038465557            5 
  373000    1.0860913   -6.1413145    165.69465  0.037018465  0.038442823            7 
  374000    1.1004091   -6.1442438    166.49033  0.037096775  0.038420824            4 
  375000    1.0752973   -6.1469534    167.39458  0.037198796  0.038399054            5 
  376000    1.1121218   -6.1096375     167.9706  0.037227527  0.038377701            4 
  377000    1.0967667    -6.166018    168.16948  0.037172742  0.038356634            6 
  378000    1.0853751   -6.1542782    168.67743  0.037186382  0.038334607            6 
  379000    1.1124333   -6.1602649    168.57361  0.037065438  0.038313602            4 
  380000     1.088583   -6.1549939    168.62268  0.036978657   0.03829196            7 
  381000     1.097705   -6.1540496    169.21526  0.037011212  0.038270719            7 
  382000    1.0875973   -6.1744087     169.4378  0.036962871  0.038248966            3 
  383000    1.1003911   -6.1562498    170.29938  0.037053825  0.038227618            3 
  384000    1.1085429   -6.1735838    170.23963  0.036944365   0.03820697            4 
  385000     1.090345   -6.1708131    171.72701  0.037170347  0.038185982            5 
  386000    1.0968751   -6.1853086    171.68006  0.037063916  0.038165434            5 
  387000    1.1031961   -6.1419496    171.26396  0.036878544  0.038144431            6 
  388000    1.0844061   -6.1626688    171.42278  0.036817606  0.038123151            3 
  389000    1.1152656   -6.1556454    172.79024  0.037015904  0.038101303            4 
  390000     1.080799   -6.1290252    172.91349  0.036947328   0.03808067            3 
  391000    1.0990726   -6.1730211    173.48667  0.036974994  0.038059913            5 
  392000    1.0603391   -6.1700718    173.92432  0.036973707  0.038039293            5 
  393000    1.1030036   -6.1605826    173.92806  0.036880419  0.038017983            3 
  394000    1.0859854   -6.1893752    174.54234  0.036916738  0.037996775            3 
  395000    1.0884454   -6.2107942      174.321  0.036776582  0.037975363            6 
  396000    1.0955015   -6.1809318    174.92898  0.036811653  0.037953419            5 
  397000    1.0696058   -6.1852584    175.31038  0.036798989  0.037932098            3 
  398000    1.0846737   -6.1379429    175.74538  0.036797609  0.037910926            4 
  399000    1.0907322   -6.1299806    175.68121  0.036691983  0.037890032            5 
  400000     1.103944    -6.173229    176.29337  0.036727784  0.037869265            3 
  401000    1.0859717   -6.2090333    176.40204  0.036658779    0.0378481            3 
  402000    1.0842276   -6.1841643    177.33782  0.036761571  0.037827221            6 
  403000    1.1202507   -6.1740432    177.94009  0.036794891  0.037807151            3 
  404000    1.0947407    -6.181234    177.80153  0.036675233   0.03778683            3 
  405000    1.0795285    -6.170307     177.7663  0.036577427  0.037765876            4 
  406000     1.078582   -6.2002922    178.71781  0.036682637  0.037744816            5 
  407000    1.0876448   -6.2008645    178.57475  0.036563216  0.037723618            4 
  408000     1.113807   -6.1514829    179.83143  0.036730276  0.037702443            4 
  409000    1.0623295   -6.1860485    179.60676  0.036594695  0.037681539            4 
  410000    1.0936204   -6.1522771    179.93881  0.036572929  0.037660158            6 
  411000    1.0918156   -6.2049412    179.42836  0.036380446   0.03763905            4 
  412000    1.0650621   -6.2320585    180.13532  0.036435138  0.037617176            5 
  413000    1.1024682    -6.174252    181.34276  0.036590549  0.037595409            4 
  414000    1.0903993    -6.196914    181.32613  0.036498819  0.037574499            4 
  415000     1.112398   -6.1860458    181.67417  0.036480758   0.03755266            2 
  416000    1.0957691   -6.1901685    181.89625  0.036437549  0.037531641            3 
  417000    1.0964304    -6.211426    182.16795  0.036404466  0.037510894            4 
  418000    1.0986238   -6.2161057    182.43638  0.036370889  0.037488866            5 
  419000    1.0840028   -6.2059387    182.59265  0.036315166  0.037466973            5 
  420000    1.0881935   -6.2121779    182.65829  0.036241725  0.037444323            5 
  421000    1.0693038    -6.184031    183.23121  0.036269044  0.037422065            3 
  422000    1.0832397   -6.2172827    183.28593  0.036193903  0.037398891            7 
  423000    1.0769815   -6.1714236    183.83188  0.036215895  0.037376316            3 
  424000    1.0776564   -6.1945265     183.6133  0.036087519  0.037352974            5 
  425000    1.0878319   -6.1776204    184.55286  0.036186835  0.037329308            2 
  426000    1.0847042   -6.1475159    183.92962  0.035979973  0.037305987            5 
  427000    1.0885245   -6.1856586    185.30804  0.036164724  0.037282099            5 
  428000    1.0902449   -6.2006018      185.175  0.036054323  0.037257816            9 
  429000    1.0666273   -6.2038213    184.59864  0.035858321  0.037233194            7 
  430000     1.077929   -6.1631189     186.1115   0.03606812  0.037209428            6 
  431000    1.0822608   -6.1886558    186.04266  0.035971125  0.037186098            8 
  432000    1.0822327   -6.1934054     186.5316  0.035982177  0.037162621            5 
  433000    1.0568968   -6.1997591     187.8417  0.036151212  0.037139442            5 
  434000    1.0775574   -6.2168658     187.0726  0.035920239  0.037116162            9 
  435000    1.0727049   -6.1623799    187.42956  0.035906046  0.037092781            4 
  436000    1.0714098   -6.1970741    187.33776  0.035806147  0.037068958            5 
  437000     1.071715   -6.1816295    187.04209  0.035667828  0.037044562            4 
  438000    1.0960909   -6.1749788    188.57649  0.035878327  0.037020983            2 
  439000    1.0603585   -6.2133974    188.94109   0.03586581  0.036996585            2 
  440000    1.0914265   -6.2034891    189.16211  0.035826157  0.036972703            4 
  441000    1.0907195   -6.1764613    189.34505  0.035779488  0.036949725            4 
  442000    1.0604329   -6.2237014    190.12354  0.035845312  0.036926511            2 
  443000    1.0711031   -6.2120472    191.29571  0.035984897  0.036903739            7 
  444000     1.088293   -6.2091291     190.6022  0.035773686  0.036881301            5 
  445000    1.0326864   -6.1962495    191.22645  0.035810197   0.03685874            5 
  446000    1.0823479   -6.2224855     191.0822  0.035702953  0.036835977            4 
  447000    1.0893359    -6.195547    192.15398  0.035822889  0.036813619            2 
  448000    1.0871482   -6.2246821    191.91934  0.035699282   0.03679111            8 
  449000    1.0797594   -6.2266444    192.56716  0.035740007  0.036768779            4 
  450000    1.0462705    -6.241907    192.62086  0.035670529   0.03674694            8 
  451000    1.0520375   -6.2311266    192.79099  0.035622873  0.036723822            8 
  452000    1.0738368   -6.2149447    193.06466  0.035594517  0.036701398            2 
  453000    1.0847441   -6.2428059    193.63974  0.035621734  0.036678888            9 
  454000    1.0847356   -6.2236734    193.72532   0.03555898  0.036655981            4 
  455000    1.0597975   -6.1881498    193.97829   0.03552716  0.036632725            7 
  456000    1.0722981   -6.1965538    194.30529  0.035509008  0.036609184            4 
  457000    1.0903461   -6.2391335    194.52094  0.035470631  0.036585934            4 
  458000    1.0718345   -6.1798704    194.81253  0.035446238  0.036562133            8 
  459000    1.0627267   -6.1918937    195.32658  0.035462342   0.03653855            7 
  460000    1.0848231    -6.243976    195.58739  0.035432499  0.036515117            5 
  461000    1.0817487   -6.2036241    196.15899  0.035458964  0.036492101            3 
  462000    1.0737777    -6.223371    195.49313  0.035262109  0.036468762            5 
  463000     1.070051   -6.2056254    195.99733  0.035276698  0.036445421            3 
  464000    1.0677981   -6.2343754    196.63077  0.035314434   0.03642143            6 
  465000    1.0636305   -6.2144033    197.28714  0.035356118  0.036398187            3 
  466000    1.0700873   -6.2013778    197.38206  0.035297222  0.036374465           15 
  467000    1.0696634   -6.2319636    197.20577   0.03519018  0.036350457            5 
  468000    1.0674988   -6.2440928    197.45035  0.035158538  0.036326573            5 
  469000    1.0579452   -6.2114598    198.42689  0.035257088   0.03630257            3 
  470000    1.0525188   -6.2536876    198.37085  0.035172137  0.036278502            3 
  471000    1.0763788   -6.2020481    198.81802  0.035176579  0.036255112            6 
  472000    1.0685876   -6.2458912     198.7302  0.035086546  0.036231702           10 
  473000    1.0571188   -6.2377026     199.3776  0.035126426  0.036208233            3 
  474000    1.0460805   -6.2030339    199.75369   0.03511844  0.036184795            6 
  475000    1.0488689   -6.2255624    200.47438  0.035170944  0.036161865            9 
  476000    1.0632248   -6.2341654     200.8686  0.035166072  0.036138775            6 
  477000    1.0639118   -6.2017565    200.83744  0.035086904  0.036115639            4 
  478000    1.0811774   -6.2281353     201.1346  0.035065307  0.036092314            7 
  479000    1.0717162   -6.1952412    200.93613  0.034957573   0.03606873            4 
  480000    1.0634025   -6.2305639    201.15658  0.034923017  0.036045193            8 
  481000    1.0450769   -6.2190578    202.05756  0.035006506  0.036021869            7 
  482000    1.0610474   -6.2708415    202.53385  0.035016225  0.035999154            6 
  483000    1.0646661   -6.2198647    203.08185  0.035038276  0.035976557            9 
  484000    1.0606473   -6.2424241      203.437  0.035027031  0.035953561            7 
  485000     1.073121   -6.2316942    202.91767   0.03486558  0.035930189            4 
  486000    1.0558409   -6.2189354     203.4008  0.034876681  0.035906501            6 
  487000    1.0765898   -6.2383614    203.75611  0.034865865  0.035883788            8 
  488000    1.0519941   -6.2384093     204.2963  0.034886664  0.035860756            8 
  489000    1.0461419   -6.2241694    205.00351  0.034935839  0.035838489            4 
  490000    1.0270699    -6.225181    205.05379  0.034873093  0.035816358           15 
  491000    1.0613592   -6.2334328    205.69766  0.034911347  0.035794024            3 
  492000    1.0365112   -6.2671203    206.05761  0.034901357  0.035771432            6 
  493000    1.0455401   -6.2389661    205.71885  0.034773301  0.035748852            4 
  494000     1.060073   -6.2597671    206.09244  0.034765931  0.035726192            6 
  495000    1.0645062   -6.2728412    206.23867  0.034720315  0.035704072            4 
  496000    1.0482475   -6.2445342    207.48286  0.034859351  0.035682136            7 
  497000    1.0670466   -6.2432851    207.81793  0.034845394  0.035660792            4 
  498000    1.0472553   -6.2449378    207.84115  0.034779309  0.035639694            3 
  499000      1.05988   -6.2244071    209.43617  0.034975981  0.035619062            4 
  500000    1.0530912   -6.2290536    209.36267  0.034893778  0.035598666            5 
  501000    1.0487667   -6.2429904    209.07897  0.034776941  0.035577814            3 
  502000    1.0610557   -6.2330304    209.91354  0.034846204  0.035556736            6 
  503000    1.0392302   -6.2571371    209.00472  0.034626362  0.035535609            6 
  504000     1.050411   -6.2717339    209.86663  0.034700171  0.035514246            3 
  505000    1.0324128   -6.2349469     211.1505  0.034843316  0.035493643            4 
  506000     1.044012   -6.2696884    211.05447  0.034758641   0.03547334           13 
  507000    1.0382556   -6.2457618    211.16383  0.034708058  0.035452932            3 
  508000    1.0408357   -6.2463958    211.64636   0.03471889  0.035433183            2 
  509000    1.0576358   -6.2504405    211.98991  0.034706927   0.03541327            3 
  510000    1.0580328    -6.242587    213.26522  0.034847258  0.035393649           10 
  511000    1.0517486   -6.2434217    213.57517   0.03482961  0.035374767            2 
  512000    1.0390028   -6.2493087    213.14677  0.034691857  0.035356322            5 
  513000    1.0680253   -6.2863562    213.67695  0.034710357  0.035337277            5 
  514000    1.0556306   -6.2549361    213.65801  0.034639755  0.035318616            4 
  515000    1.0593153   -6.2352657    214.99436  0.034788731  0.035299854            3 
  516000    1.0334021   -6.2506315     214.3979  0.034624984  0.035280955            4 
  517000    1.0591755   -6.2501108    215.11404  0.034673442  0.035262073            8 
  518000    1.0531954   -6.2498973    215.90127  0.034733151  0.035243021           12 
  519000    1.0731632   -6.2578786    215.67662  0.034630158  0.035224363            8 
  520000    1.0383849   -6.2886245    216.24284  0.034654301  0.035205751           11 
  521000    1.0476931   -6.2765172    215.83184  0.034522047  0.035186933            5 
  522000    1.0450052   -6.2122062     216.3584  0.034539974  0.035167648            6 
  523000    1.0472229   -6.2707359    217.01259  0.034578169  0.035148701            3 
  524000    1.0463091   -6.2417862    217.14927  0.034533917  0.035129287            3 
  525000    1.0750203   -6.2558258    218.20697  0.034636026  0.035110348            3 
  526000    1.0522396   -6.2672504    217.47875  0.034454808  0.035091086            6 
  527000    1.0518718   -6.2645805    217.69121  0.034423026  0.035071411            7 
  528000    1.0483154   -6.2562165    218.26463  0.034448331  0.035052425            5 
  529000     1.060869     -6.27528    218.70659  0.034452834  0.035033246            8 
  530000    1.0370139   -6.2844588     218.8533  0.034410896  0.035013781            6 
  531000    1.0494331   -6.3101605    218.81379  0.034339892  0.034994776            2 
  532000    1.0399043    -6.233036    219.35473  0.034360077  0.034975641            4 
  533000     1.037452   -6.2599871     219.7655  0.034359835  0.034956361           10 
  534000    1.0296371   -6.2798347    219.95915   0.03432571  0.034936958           10 
  535000    1.0451449   -6.2927495    220.05407  0.034276334  0.034916753            5 
  536000    1.0754161   -6.2924681    220.04619  0.034211162  0.034896848            3 
  537000    1.0411328    -6.267865    220.40478    0.0342031  0.034876288            6 
  538000    1.0490484   -6.3024412    220.91102  0.034217939  0.034856158            4 
  539000    1.0243861   -6.2659752    220.85825  0.034146297  0.034836134            3 
  540000     1.041893   -6.2690576    222.01456  0.034261505  0.034815791            4 
  541000    1.0327781   -6.2713012    221.56302  0.034128624  0.034795968            3 
  542000    1.0219635   -6.2854409     222.0426  0.034139391  0.034776192            4 
  543000    1.0350111   -6.2882652    223.04744  0.034230731  0.034756794            4 
  544000    1.0384478   -6.2758261    222.77859  0.034126622   0.03473732            9 
  545000    1.0427871    -6.274928    222.95948  0.034091663  0.034718236            7 
  546000    1.0248927   -6.2836488    223.26639  0.034076067  0.034698692            6 
  547000    1.0380903   -6.2546877    223.82735   0.03409923   0.03467908            3 
  548000    1.0287874   -6.2988267    223.31561  0.033959187  0.034659101            7 
  549000    1.0666545   -6.2848784    224.61861  0.034095113  0.034639537            5 
  550000    1.0272139   -6.2939219    224.63026  0.034034888  0.034620237            4 
  551000    1.0247506   -6.2857334     224.8753  0.034010179  0.034601285            6 
  552000    1.0547175   -6.2950825    225.51389  0.034044972  0.034582663            5 
  553000    1.0634374   -6.2659607    225.81025  0.034028066  0.034563808           12 
  554000    1.0404927   -6.2794527    225.32875  0.033894217  0.034544719           11 
  555000    1.0345252    -6.269908     226.6996  0.034038979  0.034525709            5 
  556000    1.0380808   -6.2862444    226.29676  0.033917381  0.034506159           11 
  557000    1.0272381   -6.3118801    226.45987   0.03388089  0.034486343            9 
  558000    1.0128134    -6.272615    226.97031  0.033896403  0.034466518            6 
  559000    1.0449122   -6.2863097    227.23964  0.033875915   0.03444682            6 
  560000    1.0263703   -6.2791805    227.20961  0.033810954  0.034426839            4 
  561000    1.0558234   -6.2827376    227.28393  0.033761725  0.034407049            4 
  562000    1.0214315   -6.2886672    228.00554  0.033808651  0.034387072            9 
  563000    1.0181087   -6.2855556    228.03567   0.03375306   0.03436774           10 
  564000    1.0169501   -6.3051465    228.41409  0.033749127  0.034348223            5 
  565000    1.0210497   -6.3074407    228.97824  0.033772601  0.034328459            5 
  566000    1.0187109     -6.30359    228.64618  0.033664042  0.034308928            5 
  567000    1.0248938   -6.3069957    230.10545  0.033819143  0.034289557            6 
  568000    1.0460444   -6.2698974    230.52243   0.03382078  0.034270462            4 
  569000    1.0152627   -6.3339577    230.49154  0.033756816  0.034251999            5 
  570000    1.0343153   -6.2664355    230.74776  0.033735053  0.034233175            7 
  571000     1.041414   -6.2908484     230.3525  0.033618286  0.034214285            8 
  572000    1.0474216   -6.3359606    230.44353  0.033572775  0.034194759            3 
  573000    1.0071877   -6.2745272    231.46833  0.033663224  0.034175071            5 
  574000    1.0186506   -6.2817214    231.21805  0.033568242  0.034155511            4 
  575000    1.0278506   -6.2831096     231.5488  0.033557797  0.034136994            6 
  576000    1.0420732   -6.2876801    232.26773  0.033603549  0.034118198            8 
  577000    1.0230455   -6.2993708    232.58385  0.033590965  0.034099497            3 
  578000     1.034219     -6.29257    233.10713  0.033608294  0.034080883           12 
  579000     1.016893    -6.362016    233.42984  0.033596695  0.034062076            6 
  580000    1.0318636   -6.2860864     233.0004  0.033477068  0.034043653            3 
  581000    1.0273766   -6.2971378    234.39041  0.033618819  0.034024866           10 
  582000    1.0205272    -6.346285    233.85604  0.033484541  0.034006634           10 
  583000    1.0434142   -6.3123212    234.42933  0.033509052  0.033988065            7 
  584000    1.0071669   -6.3090639    235.44239  0.033596232  0.033970327           19 
  585000    1.0116233    -6.310632    235.41202  0.033534476  0.033952218            3 
  586000    1.0355121   -6.2952202    235.81489   0.03353454  0.033934514            4 
  587000     1.019307   -6.3234398    236.00933  0.033505016  0.033916444            5 
  588000     1.017905   -6.3119794    236.12772  0.033464813  0.033898629            6 
  589000    1.0314187   -6.3043816    236.43136  0.033450956  0.033880754            3 
  590000    1.0405611   -6.2876628    237.86295  0.033596462  0.033863309            4 
  591000   0.99840385   -6.3327806    237.60372  0.033503062  0.033846199            6 
  592000    1.0081014   -6.2941081    237.23089  0.033393987  0.033828778            6 
  593000   0.99541037   -6.3404477    237.39574   0.03336084  0.033811151            4 
  594000    1.0247482   -6.3420143    238.35933  0.033439861  0.033793637            7 
  595000     1.014843   -6.3139593    237.94779  0.033326022  0.033776027           16 
  596000    1.0299844    -6.336915     238.1503   0.03329842  0.033757709            4 
  597000   0.99876572   -6.3201614    238.83046  0.033337586  0.033739401            5 
  598000    1.0303961   -6.3074503     239.2083   0.03333449  0.033721085            9 
  599000    1.0301218   -6.3257768    238.06506  0.033119791  0.033703076            5 
  600000    1.0038298   -6.3230371     239.2821  0.033233625  0.033684845            6 
  601000    1.0233646   -6.2816704    240.50933  0.033348492  0.033667156            6 
  602000     1.030695   -6.2944925    239.79721  0.033194519  0.033649084            7 
  603000    1.0150233   -6.3502368    240.04356  0.033173516  0.033631008            5 
  604000    1.0403442   -6.3057109    241.90804  0.033375834  0.033613523            5 
  605000    1.0055315   -6.3327174    241.47018  0.033260355  0.033596321            6 
  606000   0.99652827   -6.3042077    241.43205  0.033200226  0.033579178            3 
  607000    1.0155478   -6.3319509    242.39616  0.033277891  0.033561691           12 
  608000   0.99795121     -6.33779    241.92322  0.033158335  0.033544283            3 
  609000    1.0127645   -6.3135388    242.39626  0.033168618   0.03352698           13 
  610000   0.99958401   -6.3340982    242.54364  0.033134377  0.033509403            5 
  611000   0.97198858   -6.3014348    243.55647  0.033218285  0.033491662            4 
  612000     1.029643   -6.3227393    243.39209  0.033141625  0.033474138            7 
  613000   0.99640315   -6.3421075    243.80228  0.033143322  0.033456785           12 
  614000   0.98919053   -6.3467091    244.12633  0.033133324  0.033439093            3 
  615000   0.99807046   -6.3400028    243.68959  0.033020269  0.033421265            4 
  616000    1.0157058   -6.3554556    244.02768  0.033012403  0.033403164           12 
  617000   0.99210986   -6.3477813     245.1673  0.033112818  0.033385444            3 
  618000    1.0237829   -6.3310996    245.22192  0.033066603  0.033367881            6 
  619000    1.0059579   -6.3106862    245.29835  0.033023472  0.033350178           23 
  620000    1.0228134   -6.3266585    245.76519  0.033032955   0.03333269            6 
  621000     1.009133   -6.3210935    245.70533   0.03297173   0.03331547            6 
  622000    1.0061023   -6.3151379    245.44947  0.032884441  0.033297863            3 
  623000   0.99310611   -6.3035279    246.71357  0.033000745  0.033280383           13 
  624000   0.98503234   -6.3239215    247.02875  0.032989951  0.033262756            6 
  625000    1.0423692    -6.344688    247.13723  0.032951631  0.033244972            4 
  626000    1.0163342   -6.3507083    247.56885   0.03295645  0.033227043            6 
  627000    1.0113467    -6.347009    247.39075  0.032880216  0.033209603            8 
  628000    1.0082349   -6.3288212    248.10326  0.032922407   0.03319232            4 
  629000   0.98029371   -6.3529972    247.75174  0.032823495  0.033174889            7 
  630000   0.99233223   -6.3571293    248.89689   0.03292287  0.033157498            9 
  631000   0.99016762    -6.356374     249.2868  0.032922187  0.033140583            7 
  632000   0.99187574   -6.3299072    248.71396  0.032794562  0.033123946           12 
  633000    1.0048744   -6.3430195    249.36495  0.032828456  0.033107505            8 
  634000    1.0047177   -6.3305665    249.79262  0.032832889  0.033090661            7 
  635000   0.98567254   -6.3377419    250.35572  0.032855082  0.033074123            9 
  636000    1.0109926   -6.2956396    250.40563  0.032809962  0.033057275            3 
  637000   0.98644352   -6.3349366    250.60641  0.032784721  0.033040866            4 
  638000   0.99780671   -6.3336001    250.90363  0.032772156  0.033024317            5 
  639000    1.0080474   -6.3551656    250.37913  0.032652469  0.033007413            4 
  640000   0.99557006   -6.3465401     250.5629  0.032625378  0.032989855           12 
  641000    1.0083097   -6.3603878    250.55594  0.032573575  0.032972444            5 
  642000    1.0094291   -6.3499932    250.72604  0.032544917  0.032954796            3 
  643000   0.99087963   -6.3284691    251.92958  0.032650283  0.032936936            4 
  644000   0.98248101   -6.3544813     251.8758  0.032592624  0.032919772            7 
  645000   0.99489661    -6.320894    252.24433  0.032589707  0.032902392            6 
  646000   0.99874163   -6.3621116    252.88589  0.032622018  0.032885007            8 
  647000   0.98342269   -6.3431157    253.65403  0.032670534  0.032867826            8 
  648000    1.0003213   -6.3613657    253.89015  0.032650482  0.032850711            6 
  649000   0.99408856   -6.3614582    253.14597  0.032504619  0.032834223           11 
  650000    1.0023109   -6.3305262    253.44866  0.032493418  0.032817119            8 
  651000    0.9970763   -6.3294444    254.57437  0.032587605  0.032800426            6 
  652000   0.99274011   -6.3478093    255.34172  0.032635701  0.032783554            6 
  653000    1.0038093   -6.3616885    254.51051  0.032479647  0.032766529            8 
  654000   0.98271285   -6.3603644    255.04201  0.032497707  0.032749446            6 
  655000   0.99088151   -6.3644385    255.47571  0.032503271  0.032732492            7 
  656000   0.99106544   -6.3848512    255.45152   0.03245065  0.032715785            4 
  657000    1.0039766   -6.3447444    255.15648  0.032363836  0.032698765            6 
  658000     1.020112   -6.3540813    255.87756  0.032405973  0.032681638           11 
  659000    0.9925248   -6.3622937    256.40648  0.032423682  0.032665002            3 
  660000   0.95855453   -6.3494398    257.03142  0.032453462  0.032648206            6 
  661000    1.0120651   -6.3624749    257.09353  0.032412195  0.032631507            6 
  662000   0.97801765   -6.3585515    256.33899  0.032268252  0.032614421            8 
  663000    0.9644812   -6.3379845    257.02628  0.032305968  0.032596924            3 
  664000   0.98216479   -6.3612484    257.03924  0.032258941  0.032579509            6 
  665000   0.94868013     -6.37637    257.76097  0.032300873   0.03256227            6 
  666000   0.97890717   -6.3557392    257.79294  0.032256374  0.032544834            8 
  667000   0.97597019   -6.3504204    257.88751  0.032219829  0.032527208            8 
  668000   0.96102563   -6.3501976    258.38297  0.032233404  0.032509331            5 
  669000   0.98551448   -6.3446584    257.79436  0.032111904  0.032491516            7 
  670000   0.97771577    -6.373769    258.75367  0.032183292  0.032473455            4 
  671000   0.97160731   -6.4035939    258.13956  0.032059061  0.032454914            2 
  672000   0.97612359   -6.3662685    257.86982  0.031977904   0.03243645            2 
  673000   0.99234072   -6.3601741    258.85923  0.032052901  0.032418358            3 
  674000   0.98918521   -6.3770868    258.97612  0.032019798  0.032400291            9 
  675000   0.97951686   -6.3548853     260.1651  0.032119148  0.032382521            5 
  676000   0.97435653   -6.3691311    260.18656  0.032074281  0.032364731            6 
  677000   0.98747103    -6.388718     260.3211  0.032043463  0.032347161            8 
  678000   0.98288957    -6.413147    260.72103  0.032045357  0.032329713            5 
  679000    0.9654121   -6.3777223    261.64799  0.032111928  0.032312437            8 
  680000   0.98608883    -6.392995    261.17633  0.032006903  0.032295046            6 
  681000   0.97810966   -6.3937802    261.57574  0.032008778  0.032277497           15 
  682000    0.9885257   -6.3769035    262.25077  0.032044327  0.032259843            4 
  683000   0.98260067   -6.3802147    261.68846  0.031928802  0.032242379            2 
  684000   0.98416819   -6.3699648    263.39255  0.032089735  0.032225333            3 
  685000   0.96887965   -6.3930783    263.09804  0.032007061  0.032208802           21 
  686000   0.97535101    -6.397135    263.19643  0.031972355   0.03219205            9 
  687000   0.97281713   -6.3860296    263.82724  0.032002334  0.032175573            6 
  688000   0.99257869   -6.3739398    264.90526  0.032086393  0.032159556            4 
  689000   0.98131096   -6.4137898    264.43969  0.031983513  0.032143185            8 
  690000     0.984601   -6.4101676    264.76929  0.031976967  0.032126651            8 
  691000   0.96648419   -6.3852004    265.56601  0.032026774  0.032110224            5 
  692000   0.96045748   -6.3787758    265.57671  0.031981782  0.032093785            5 
  693000    0.9696666   -6.3866525    265.14684  0.031883939  0.032077385           10 
  694000   0.97953167   -6.4007638    265.53621  0.031884751  0.032060862            9 
  695000    1.0031834   -6.3774606    265.63944  0.031851252   0.03204401            8 
  696000   0.99181569    -6.383379     265.5948  0.031800143  0.032027167            9 
  697000    1.0037595   -6.4060899    266.05635  0.031809702  0.032010395            6 
  698000    0.9928953   -6.3913967    265.99105  0.031756334  0.031993692            6 
  699000   0.97317406   -6.3565638    265.98841  0.031710587  0.031976546            5 
  700000   0.97738822   -6.3397688    266.50058  0.031726259  0.031959444            8 
  701000   0.96833398    -6.391818    266.77333  0.031713425  0.031942233            5 
  702000   0.96935842   -6.3932545      267.354   0.03173718  0.031924969            4 
  703000   0.96278009   -6.3830358    267.01915  0.031652341  0.031907721            9 
  704000    0.9826769   -6.4338166    267.26591   0.03163659  0.031890534            5 
  705000   0.96656858   -6.3996498    268.34967  0.031719819  0.031873515            7 
  706000    0.9621039   -6.4189688    268.25037   0.03166317  0.031856503            7 
  707000   0.95548791   -6.4424211    268.43439  0.031640074  0.031839531           13 
  708000   0.96282278   -6.3756297    268.91782  0.031652286  0.031823016            9 
  709000   0.97922071   -6.3589522    268.61466   0.03157201  0.031806457           15 
  710000   0.98120521   -6.4152038    269.30619  0.031608708  0.031790452            5 
  711000   0.97469405   -6.3571935    270.45419  0.031698804  0.031774252           10 
  712000   0.97160222    -6.411867    270.12453  0.031615698  0.031758445            5 
  713000   0.96765381   -6.4097401    270.39989   0.03160354   0.03174247            9 
  714000   0.96526094   -6.3779559    270.78134  0.031603797  0.031726318            7 
  715000   0.95546292   -6.4265443     270.5053  0.031527424  0.031710071            9 
  716000     0.974377    -6.421159    271.21828  0.031566373   0.03169344            5 
  717000   0.98058093   -6.3854851    271.52515  0.031558014    0.0316771            4 
  718000   0.95585943   -6.4010824    271.41794  0.031501618  0.031660457            8 
  719000   0.96234742    -6.381593    271.10584  0.031421632   0.03164376           10 
  720000     0.957212   -6.3921646      271.856  0.031464815  0.031627179           10 
  721000   0.97529252   -6.4265164    272.05787  0.031444506  0.031610531           14 
  722000   0.96447528   -6.4202767    271.98703  0.031392778  0.031593825           15 
  723000   0.95359181   -6.4051815     272.5194   0.03141072  0.031577202            8 
  724000   0.94765107   -6.4173805    273.14984  0.031439898  0.031560641            5 
  725000   0.96310281   -6.4048251    272.83905  0.031360811  0.031543978           16 
  726000   0.94827496   -6.4043791     273.7798  0.031425596  0.031527318            6 
  727000   0.97246571   -6.3975199    273.43705  0.031343082  0.031510509            9 
  728000   0.96287384   -6.3879831    274.49456   0.03142108  0.031493888            7 
  729000   0.97025042   -6.3881024    273.19367  0.031229272  0.031477124           19 
  730000   0.96969918   -6.4214146    273.95276  0.031273146   0.03146036            9 
  731000    0.9356875   -6.3994229    274.18227  0.031256529  0.031443965           11 
  732000   0.94884393   -6.4307821    274.84999  0.031289844  0.031427534           10 
  733000    0.9599307   -6.4152745    275.02501  0.031267054  0.031411161            5 
  734000   0.94959236   -6.4126219    275.34655  0.031260962  0.031394923            7 
  735000   0.97220591   -6.4013789    275.90152  0.031281352  0.031378752            8 
  736000   0.97061174   -6.4006277    276.24463  0.031277698  0.031362336            3 
  737000    0.9644736   -6.4227356    276.23666  0.031234357  0.031345731            7 
  738000   0.96439569    -6.433458    275.45816  0.031104128   0.03132898           10 
  739000    0.9542881   -6.4196035    275.83024  0.031103997  0.031312137            5 
  740000   0.95635612   -6.4238403    277.00678  0.031194457   0.03129554            7 
  741000   0.95520575   -6.4177737    277.03746  0.031155809  0.031279021            7 
  742000   0.94498323   -6.4393717    277.40744  0.031155373  0.031262597            5 
  743000   0.97098946   -6.4271201    277.66386    0.0311422  0.031246602            3 
  744000   0.96163014   -6.4093803    278.35082  0.031177288  0.031230394            5 
  745000   0.96763171   -6.3897904    278.81235  0.031187064  0.031214244           13 
  746000   0.94721557   -6.4071754    278.30881  0.031089009  0.031198068           10 
  747000   0.97102541    -6.399286    279.26147  0.031153667  0.031181957            6 
  748000   0.95559587   -6.4219606    278.43798  0.031020274  0.031165945            6 
  749000   0.94681344   -6.4178443    278.87162  0.031027105  0.031149628            5 
  750000   0.95115539   -6.4569267     279.3852    0.0310428  0.031133347            7 
  751000    0.9739057   -6.4156448    280.25251  0.031097704  0.031116974            9 
  752000   0.96442709   -6.4028515    278.93563   0.03091042   0.03110081            7 
  753000   0.94255074   -6.3798002    279.99819  0.030986962  0.031084471            4 
  754000    0.9448834   -6.4317982    279.33547  0.030872621  0.031067808            7 
  755000   0.95185967   -6.4349271    279.68225  0.030870005  0.031050994            9 
  756000   0.93749421   -6.4167411    279.53022  0.030812414  0.031034016           10 
  757000   0.95807856   -6.4515733    280.20324    0.0308458  0.031017067            8 
  758000   0.91580851   -6.4388558    279.76515  0.030756943  0.030999799           13 
  759000   0.95345141   -6.4230494    280.25585  0.030770296  0.030982522           13 
  760000   0.95353803   -6.4425411    280.39285   0.03074483  0.030965537            8 
  761000   0.98219703   -6.4414853    280.72288  0.030740569  0.030948459            7 
  762000   0.95860278   -6.4169404    280.75798  0.030704067  0.030931355           12 
  763000   0.93434907   -6.4392634    281.74864  0.030772022  0.030914279            6 
  764000   0.94829619    -6.425707    281.27476  0.030680057  0.030897294            6 
  765000   0.94120406   -6.4258395    281.53278  0.030668059  0.030880113            6 
  766000   0.95185667   -6.4418525    281.78629  0.030655601  0.030862907           12 
  767000   0.94222667   -6.4568076    281.75882  0.030612649  0.030845623            3 
  768000   0.95021435   -6.4565587    282.02924  0.030602131  0.030828223            9 
  769000   0.94395904   -6.4550428    282.56333  0.030620213  0.030810881            3 
  770000   0.94421077   -6.4182452    282.34765  0.030557105   0.03079385            8 
  771000   0.94451868   -6.4240645    282.32889  0.030515444  0.030776489            8 
  772000   0.93199788   -6.4360795    283.18395  0.030568215  0.030759271            7 
  773000   0.95766947   -6.4287348    283.23957  0.030534667   0.03074195           14 
  774000   0.94335165   -6.4314879    283.53192  0.030526692  0.030724933           10 
  775000   0.95408587   -6.4361075    283.42642  0.030475959  0.030707714           11 
  776000    0.9641731   -6.4514283    284.98724    0.0306043  0.030690621            7 
  777000   0.96783025   -6.4274889    283.86268  0.030444303  0.030673316            4 
  778000   0.93916152   -6.4604446    282.82478  0.030293999  0.030655702           11 
  779000   0.94338327   -6.4491653    283.48452  0.030325687  0.030637717            8 
  780000    0.9454361   -6.4301772    283.81185  0.030321779  0.030619912            6 
  781000   0.96675753   -6.4634086    284.29342  0.030334339   0.03060215           10 
  782000   0.94898006   -6.4445779    283.77624  0.030240435  0.030584338            7 
  783000   0.94913122     -6.47082    284.12998  0.030239461   0.03056644           10 
  784000    0.9426959   -6.4513977    285.43086  0.030339165  0.030548586            3 
  785000   0.93594745    -6.461305    284.71283  0.030224292  0.030530533            4 
  786000   0.93450821   -6.4584459     285.2547  0.030243289  0.030512532            5 
  787000   0.94177758   -6.4666272    285.74576  0.030256858  0.030494805           10 
  788000   0.94688347   -6.4436217    285.64691  0.030208006  0.030476992            7 
  789000   0.92749652   -6.4678115     285.3397  0.030137273  0.030459137            7 
  790000   0.92833959    -6.451321    287.02553  0.030276954  0.030441437            8 
  791000   0.91602298   -6.4420318    286.43343  0.030176299  0.030423869           11 
  792000   0.95121196    -6.439878     286.5613  0.030151652  0.030406142            5 
  793000   0.92843746   -6.4426217    286.59624  0.030117301  0.030388021            4 
  794000    0.9312329   -6.4742748     286.0256   0.03001948  0.030369707            9 
  795000   0.94251223   -6.4740118     285.6088  0.029938029  0.030351259           14 
  796000   0.93512809   -6.4547356    285.52787  0.029891946  0.030332692            8 
  797000   0.95035996   -6.4554268     286.8216  0.029989711  0.030314215           12 
  798000   0.95237229   -6.4383024    287.36822  0.030009212  0.030295855            8 
  799000   0.93690165   -6.5012425    287.36417  0.029971232  0.030277463            4 
  800000   0.93326421   -6.4693826    287.08192  0.029904366  0.030258922           11 
  801000   0.93126954    -6.473967     286.8244  0.029840241  0.030240415            9 
  802000   0.92600826   -6.4653639    287.84465  0.029909045  0.030221721           13 
  803000    0.9175255   -6.4992237    286.95642   0.02977962  0.030202985            5 
  804000    0.9424118   -6.4700634    287.32885  0.029781182  0.030184487           12 
  805000   0.92901247   -6.4779749    288.10419  0.029824451   0.03016607            4 
  806000   0.94538383    -6.513727    288.69775  0.029848816   0.03014775           13 
  807000   0.94937878   -6.4591514    288.83584  0.029826088  0.030129503            5 
  808000   0.94453784   -6.4907038    289.22869  0.029829691   0.03011117           15 
  809000   0.92780041   -6.4603442    289.90091  0.029862063  0.030092875           20 
  810000   0.91398626   -6.4559821    289.72674  0.029807278  0.030074866            5 
  811000   0.94947135   -6.4650555    290.25152  0.029824448  0.030056963            4 
  812000   0.93157771   -6.4781293    289.32579  0.029692712  0.030038784            8 
  813000   0.93727062   -6.4455103    291.07136  0.029835113  0.030020826           12 
  814000   0.93659386   -6.4751226    289.85767  0.029674208  0.030002928            4 
  815000   0.91044321   -6.4334033    290.72066  0.029726039  0.029985091            7 
  816000   0.91435085   -6.4821876    290.50506  0.029667592   0.02996698            8 
  817000   0.93413826    -6.451837    291.95483  0.029779154  0.029949121           22 
  818000   0.90793195   -6.5077377    290.62159  0.029606926  0.029931235           22 
  819000    0.9163025   -6.4895626    291.24134  0.029633836  0.029913423            6 
  820000   0.91438753     -6.46854    291.63464  0.029637666  0.029895574           12 
  821000   0.94721336   -6.4697812    291.22964  0.029560459  0.029877574            8 
  822000   0.92755709   -6.5209261    291.16817  0.029518266  0.029859633           14 
  823000    0.9195649    -6.476722    291.75472   0.02954179  0.029841516            5 
  824000   0.92252081   -6.4809894    292.48301  0.029579592  0.029823531           12 
  825000   0.92749993   -6.4953156    292.26218  0.029521433  0.029805528            9 
  826000   0.92604252   -6.5007434    293.66451   0.02962717  0.029787509           25 
  827000   0.92448367   -6.4809328      292.884  0.029512697  0.029769595           14 
  828000   0.93861125   -6.4762155    291.90299  0.029378321  0.029751523            3 
  829000   0.91772016   -6.4943379    293.16412  0.029469654   0.02973349           10 
  830000    0.9249027     -6.45807    292.63531  0.029381055  0.029715475            9 
  831000   0.91544904   -6.5081454    294.03693  0.029486254  0.029697648           12 
  832000   0.92655929   -6.4737771    292.68424  0.029315329  0.029679589           15 
  833000   0.92844705   -6.4993844     293.5741  0.029369158  0.029661397            6 
  834000   0.89409404   -6.4633089    293.85833  0.029362343  0.029643214            4 
  835000   0.92423106   -6.4872485    293.49483  0.029290901  0.029624884           16 
  836000   0.91350391   -6.5129862    293.90082  0.029296334  0.029606834           14 
  837000   0.91274458   -6.5061859    294.22735  0.029293842  0.029588665            5 
  838000   0.89260889   -6.4899649     294.1105  0.029247265   0.02957042           10 
  839000   0.91531195   -6.4861638    294.15369  0.029216695   0.02955235            8 
  840000    0.9214673    -6.490309    294.84913  0.029250906  0.029534379            9 
  841000   0.91145657   -6.4914543     294.7611  0.029207402  0.029516687            5 
  842000   0.92143362   -6.5205485    295.44283  0.029240185   0.02949896            6 
  843000   0.91561054   -6.4938317    295.62885  0.029223888   0.02948122            6 
  844000   0.90676335    -6.480633    295.95734  0.029221697  0.029463473           10 
  845000   0.92260325   -6.5414713    295.89501  0.029180967  0.029445651            7 
  846000   0.92437042   -6.5139536    295.73269  0.029130486  0.029427817           17 
  847000   0.90100599   -6.4989189    295.59471  0.029082518  0.029409794           33 
  848000   0.90768845     -6.52383    296.23329  0.029110976  0.029391507           12 
  849000   0.90292502   -6.4970693    295.22477  0.028977696  0.029373362            7 
  850000   0.92787826   -6.5325754    295.91375  0.029011152  0.029354995            5 
  851000    0.9005262   -6.4852818    296.68083  0.029052176  0.029336913            8 
  852000   0.90970923   -6.4963059    297.50677  0.029098863  0.029318754            6 
  853000   0.91597361   -6.5317552    296.62382   0.02897849  0.029300522           12 
  854000   0.92452131   -6.4936639     297.1718  0.028998028  0.029282265            8 
  855000   0.90522866   -6.4778215    297.91347    0.0290364  0.029264235           10 
  856000   0.93639791   -6.5079812    298.18955  0.029029356  0.029246354            5 
  857000   0.89665271    -6.513542     297.6738  0.028945332  0.029228324           10 
  858000   0.91860376   -6.5089693    297.07222  0.028853169  0.029210303           13 
  859000   0.88917684   -6.5298464    298.86646  0.028993641  0.029192415           13 
  860000   0.91290662   -6.4889224    298.43886  0.028918494  0.029174534           19 
  861000    0.9045291    -6.508877    299.38621  0.028976598  0.029156632           18 
  862000   0.92464584   -6.4856512    298.67107  0.028873847   0.02913887            6 
  863000   0.90591118   -6.5146734    298.93456  0.028865833  0.029121049            8 
  864000   0.89692305   -6.5260913    299.46698  0.028883775  0.029103283           10 
  865000   0.91517896   -6.5389354    298.93764  0.028799387  0.029085454           12 
  866000   0.91390507   -6.5060583     300.4725  0.028913828  0.029067906            4 
  867000   0.90495149   -6.5059942    299.91372   0.02882677  0.029050547           13 
  868000   0.91906318   -6.5217892    300.01972  0.028803737  0.029032978            6 
  869000    0.9052267   -6.4876692     300.6379  0.028829871  0.029015198            6 
  870000   0.92626358   -6.4836689    301.35023  0.028864964   0.02899759            8 
  871000   0.89654994   -6.4889454     301.0372  0.028801875   0.02898013            9 
  872000   0.91870379    -6.504486    300.89172  0.028754943  0.028962852            6 
  873000   0.89547589   -6.5108253     300.8676  0.028719702  0.028945154            8 
  874000   0.91591248   -6.4897662    300.58719  0.028660106  0.028927465           27 
  875000   0.90431751   -6.5337159    301.09971  0.028676163  0.028909981           10 
  876000   0.90395029   -6.5370213     302.6107  0.028787167  0.028892499            7 
  877000   0.89738124   -6.5314909    301.84491  0.028681577  0.028874907            9 
  878000   0.89233128   -6.5325885    302.18253  0.028680954  0.028857413           18 
  879000   0.91758286    -6.506298    302.99675  0.028725517  0.028840204            8 
  880000   0.91567554    -6.549031    303.16211  0.028708533  0.028823124            8 
  881000   0.90093969   -6.5433995    303.06175  0.028666454  0.028805942           21 
  882000   0.91175689   -6.5190371    304.06371  0.028728619  0.028788939            7 
  883000   0.91508156   -6.5163606    303.94414    0.0286848  0.028771925            4 
  884000   0.88365859   -6.5606592    303.94585  0.028652512  0.028754859           15 
  885000   0.92197719   -6.5262687    303.51076  0.028579168  0.028737779            7 
  886000   0.90292815   -6.5360578    304.37221  0.028627935  0.028720886           11 
  887000   0.90193937   -6.5272033     304.0354  0.028564017  0.028703863            7 
  888000    0.9045665   -6.4979884    305.36066  0.028656218  0.028686746            6 
  889000   0.90792866   -6.5461223    304.43589  0.028537297  0.028669765           10 
  890000   0.89396465   -6.5380453    305.05303  0.028563018  0.028652628           16 
  891000   0.89464832   -6.5330345    304.86927  0.028513774  0.028635635            6 
  892000   0.89124359   -6.5637799    305.30587  0.028522596  0.028618667           11 
  893000   0.91166314   -6.5473788    306.38649  0.028591498  0.028601884            5 
  894000   0.90542844   -6.5378033    305.83954  0.028508533  0.028585092           29 
  895000   0.89473905   -6.5173148    307.13642  0.028597432  0.028568332            5 
  896000   0.88495102   -6.5015337    306.44102  0.028500839   0.02855158           11 
  897000   0.89708992   -6.5701453    306.25158  0.028451466  0.028534677            5 
  898000   0.89522071    -6.531038    306.34128  0.028428106  0.028517758            5 
  899000   0.88795337   -6.5381274    306.95346  0.028453231  0.028500921            8 
  900000   0.89991589   -6.5516075    306.43589  0.028373693  0.028484058            9 
  901000   0.88761893   -6.5468354    306.26062  0.028325991  0.028467045           20 
  902000   0.88823263   -6.5420977    306.54983  0.028321308  0.028449986           14 
  903000   0.89364131   -6.5241949    306.69417  0.028303264  0.028432895            7 
  904000   0.88837957    -6.595873    306.75403  0.028277473  0.028415809           11 
  905000   0.88949777   -6.5589128    306.93034  0.028262462  0.028398737           15 
  906000   0.88407818   -6.5592852    307.06424  0.028243584  0.028381493           10 
  907000   0.89319006   -6.5393875    306.96137  0.028202992  0.028364087            6 
  908000   0.88879947   -6.5315211    307.71891  0.028241457  0.028347006            7 
  909000   0.88504594   -6.5470102    307.47792  0.028188295  0.028329929            6 
  910000   0.89425736   -6.5169403    308.06879  0.028211428  0.028312856            9 
  911000   0.87936117   -6.5551049    307.48038  0.028126636  0.028295702            7 
  912000   0.88667983   -6.5642972    308.05824  0.028148596  0.028278393           14 
  913000   0.87740365   -6.5507682    308.76986  0.028182718  0.028261325            6 
  914000    0.8977913   -6.5395344    309.13088  0.028184799  0.028244353           14 
  915000   0.90314277   -6.5688422    308.54335  0.028100487  0.028227579            7 
  916000   0.88332702    -6.540722    309.20802  0.028130279  0.028210588            5 
  917000   0.88610064   -6.5380566    309.35175  0.028112664  0.028193729           11 
  918000     0.870667   -6.5346274    309.07117   0.02805657  0.028176851            9 
  919000   0.88439267   -6.5397269     309.2095  0.028038584  0.028159889           16 
  920000   0.89888587   -6.5343685    309.06674  0.027995176  0.028142723            9 
  921000   0.89632938   -6.5623838    310.23121  0.028070142   0.02812542           12 
  922000   0.90034123   -6.5666006    309.92623  0.028012133  0.028108013            9 
  923000    0.8917691   -6.5519648     309.8765  0.027977293  0.028090754           19 
  924000   0.87186817   -6.5561908    309.00352  0.027868283  0.028073369           16 
  925000   0.87251849     -6.54314    310.90445   0.02800941   0.02805615           10 
  926000   0.87578621   -6.5509619    309.91495  0.027890114  0.028038988            6 
  927000    0.8630076   -6.5360798    310.88059  0.027946835  0.028021867           12 
  928000   0.88320624   -6.5599344    309.95374   0.02783349  0.028004639           16 
  929000   0.85921758   -6.5600531    310.82811  0.027881962  0.027987416            7 
  930000   0.88303274   -6.5495074    310.63272  0.027834473   0.02797024            6 
  931000   0.86354797   -6.5729552    310.84569  0.027823639  0.027952883           13 
  932000   0.86717531   -6.5605305    311.34537  0.027838463  0.027935413            7 
  933000   0.90482158   -6.5551949    311.55464  0.027827317  0.027918268            6 
  934000   0.87261561   -6.5607539    311.26831  0.027771976  0.027901192            9 
  935000   0.88856989   -6.5472748    311.54508  0.027766941   0.02788401            7 
  936000   0.88722073   -6.5110748    312.18384  0.027794146  0.027867048           10 
  937000   0.87073134   -6.5573464    311.74164  0.027725155  0.027850005           10 
  938000   0.87740117   -6.5943974    312.36244   0.02775075  0.027832981            8 
  939000   0.87570628   -6.5751041    312.21767  0.027708349  0.027815788           14 
  940000   0.88305397      -6.5512    312.69043  0.027720783  0.027798607            9 
  941000   0.86303858   -6.5966421     312.4191  0.027667296   0.02778149           13 
  942000    0.8979982   -6.5835374    312.38952  0.027635308  0.027764292           14 
  943000   0.86991087   -6.5490173    312.42849  0.027609446   0.02774724           21 
  944000   0.89013151   -6.5651287    313.77668  0.027699213  0.027730257            7 
  945000   0.88704667   -6.5705363    313.70399  0.027663491  0.027713263            7 
  946000   0.85855618   -6.5870004    313.36196  0.027604119  0.027696307           17 
  947000   0.88521015   -6.5951009    313.53424   0.02759013  0.027679188           11 
  948000   0.85424621   -6.5730204    313.39769  0.027549023  0.027662116           17 
  949000   0.87250547    -6.542497    313.68141  0.027544908  0.027645129            6 
  950000   0.88135292   -6.5962091    313.98276  0.027542347  0.027628174           13 
  951000   0.87076515   -6.5999351    314.52375  0.027560791  0.027611026           10 
  952000   0.85336861   -6.6080616    314.62844  0.027541005  0.027594008           18 
  953000   0.88593074   -6.5735125    314.36795  0.027489327  0.027576878           12 
  954000   0.88315854   -6.5807694    313.99332  0.027427788  0.027559893           18 
  955000    0.8599426   -6.5773334    314.82176  0.027471358  0.027542916            7 
  956000   0.89769116   -6.5603789      315.302  0.027484484   0.02752618           17 
  957000   0.86378259    -6.574373    315.21978  0.027448605  0.027509408           18 
  958000   0.85571735    -6.553669    315.35857  0.027432026  0.027492555            5 
  959000   0.87688635   -6.5626315    316.09596  0.027467498  0.027475743           34 
  960000   0.86670311   -6.5760731    315.34918   0.02737406   0.02745881           10 
  961000   0.87580087    -6.600465     315.6411   0.02737089  0.027441904           10 
  962000   0.85179603   -6.5758408     316.1611  0.027387482  0.027425104           11 
  963000   0.86257976   -6.5796385     316.0523  0.027349628  0.027408177           13 
  964000   0.86899943   -6.5709934    316.58444  0.027367258  0.027391305           14 
  965000   0.85758123   -6.5596711    315.82485  0.027273303  0.027374444           18 
  966000    0.8909202   -6.5697127    316.17812  0.027275546  0.027357546           12 
  967000   0.86778476   -6.5861955    316.54827  0.027279237  0.027340302            7 
  968000   0.87463264   -6.5875557    316.69774  0.027263924  0.027323257            7 
  969000   0.87013498   -6.6027415    316.31434  0.027202816  0.027306115            6 
  970000   0.86306033   -6.5929752     315.9918  0.027147062  0.027288724           14 
  971000   0.87129714   -6.6040829    315.76347  0.027099508  0.027271351            4 
  972000   0.85417998   -6.6136494    316.38409  0.027124836  0.027254123            8 
  973000   0.85388383    -6.595581    315.97628  0.027062031  0.027236733           13 
  974000   0.87393858   -6.6102006    316.22394  0.027055436  0.027219374           19 
  975000   0.85734292   -6.6026026    316.04301  0.027012223  0.027201945            6 
  976000   0.89020084    -6.583139    316.35992  0.027011605  0.027184488            9 
  977000   0.86275323   -6.5980815    316.38476  0.026986076  0.027167058            6 
  978000   0.86218962   -6.5755494       317.03  0.027013463  0.027149637            9 
  979000   0.88019964   -6.5787014    318.06534  0.027073999  0.027132352           11 
  980000   0.86921577   -6.5672071     317.9689  0.027038172  0.027115008            7 
  981000   0.88019072   -6.6076253    316.91652  0.026921213  0.027097703            7 
  982000   0.83489395   -6.6098829    317.92932  0.026979746  0.027080285           32 
  983000    0.8522855   -6.6317053    317.07048  0.026879492  0.027062758           13 
  984000   0.85201877   -6.6503724     317.6183  0.026898568  0.027045202           20 
  985000   0.83788443   -6.6048068    317.59951  0.026869671    0.0270275           12 
  986000   0.84476149   -6.5884996    317.41065  0.026826458  0.027009739            6 
  987000   0.85327771   -6.6007364    317.74693  0.026827671  0.026991993           15 
  988000   0.85434313   -6.6180573     317.6709  0.026794104  0.026974399           13 
  989000   0.86640217   -6.6105525    317.81327  0.026779008  0.026956807           10 
  990000   0.86276286   -6.6121078    317.57617  0.026732001  0.026939158            9 
  991000   0.86373203   -6.6269261    317.50317  0.026698888  0.026921428            8 
  992000    0.8561335    -6.604459    317.90361  0.026705613  0.026903765            7 
  993000   0.85924267   -6.5857923    319.20993  0.026788346  0.026886267            7 
  994000   0.85090933   -6.6088299    318.67198  0.026716296  0.026868768            9 
  995000   0.86990174   -6.5918265    318.48853  0.026674081  0.026851069           12 
  996000   0.86848831   -6.6022662    318.40503  0.026640313  0.026833338            6 
  997000   0.85684703   -6.6159589    318.83135  0.026649227  0.026815702            9 
  998000    0.8427647   -6.6099555     318.2465  0.026573689     0.026798           16 
  999000     0.875643   -6.6085606    318.21449  0.026544418  0.026780286            9 
 1000000   0.84755229   -6.6266932    318.84325   0.02657027  0.026762528           13 
 1001000   0.87359772    -6.598056    319.14812  0.026569108   0.02674473           12 
 1002000   0.86601286   -6.5989495    319.72594  0.026590647  0.026727036           14 
 1003000   0.84077016   -6.6225483    319.96495  0.026583994  0.026709501           11 
 1004000   0.85841236   -6.6265939    318.95951  0.026474063  0.026691864           22 
 1005000    0.8484472   -6.6343143    320.53914  0.026578702  0.026674125           12 
 1006000   0.85775831   -6.6251977    319.70009  0.026482778  0.026656456            9 
 1007000   0.84629551   -6.5966106     319.0193  0.026400141   0.02663876            5 
 1008000   0.86120668   -6.6274741    320.69341  0.026512352   0.02662109           22 
 1009000   0.85417261   -6.6516616    320.06876  0.026434486  0.026603333           13 
 1010000   0.83841091   -6.6221365    320.16563  0.026416306  0.026585602            8 
 1011000   0.84791012    -6.609096    321.07411   0.02646506  0.026567901           15 
 1012000    0.8431022    -6.626632    321.13286  0.026443747  0.026550348           10 
 1013000   0.86976898   -6.6156257    320.62547  0.026375902  0.026532705            8 
 1014000   0.87754665   -6.6402083    321.36701  0.026410833  0.026515169           10 
 1015000   0.85137604   -6.6399985    319.77208  0.026253865  0.026497522           17 
 1016000   0.83397194    -6.642197    321.26702  0.026350642  0.026479877           21 
 1017000   0.81696121    -6.632104    320.44014  0.026256976  0.026462321           14 
 1018000   0.84008226    -6.606442    320.88752  0.026267806  0.026444626           12 
 1019000   0.84521027   -6.6383536    321.60662  0.026300835  0.026426987           20 
 1020000   0.84648678    -6.672629    320.95903  0.026222143  0.026409223           12 
 1021000    0.8375738   -6.6278443    319.71036  0.026094545  0.026391397           15 
 1022000   0.83078708   -6.6400077    321.25184  0.026194703  0.026373698           11 
 1023000   0.86136905   -6.6435309    321.66362  0.026202641  0.026355985           16 
 1024000   0.84682175   -6.6194485    321.50335   0.02616401  0.026338333            9 
 1025000   0.87122595   -6.6093332    322.31141   0.02620418  0.026320827            6 
 1026000   0.83165315   -6.6230383    321.36459  0.026101737   0.02630334            8 
 1027000   0.83077002   -6.6278953    322.66112  0.026181526   0.02628574            9 
 1028000   0.83723989   -6.6289638    321.59097  0.026069307  0.026268077            8 
 1029000    0.8265152   -6.6310423    323.41821  0.026191951  0.026250578           13 
 1030000   0.83194366   -6.6317701    322.04992  0.026055819  0.026232926           14 
 1031000   0.84168263   -6.6625013    321.81079  0.026011218  0.026215146           20 
 1032000   0.84727737    -6.646086    322.13085  0.026011858  0.026197352           11 
 1033000    0.8257083   -6.6433469    323.11201  0.026065828   0.02617963           13 
 1034000   0.82868943   -6.6386224    322.62408  0.026001296  0.026161813           14 
 1035000   0.85019363   -6.5948645    322.74156  0.025985633  0.026144032           11 
 1036000     0.818957   -6.6443496    323.24287  0.026000875  0.026126361           15 
 1037000   0.84395326   -6.6717658    322.22034   0.02589363  0.026108614           16 
 1038000   0.81775104   -6.6466771     322.6456  0.025902826  0.026090968            5 
 1039000   0.84003593   -6.6752459    322.75717  0.025886844  0.026073268           12 
 1040000   0.83658021   -6.6661109    323.15713  0.025894001  0.026055603           15 
 1041000   0.83214152   -6.6054301    323.25969  0.025877337  0.026037846            7 
 1042000   0.82944534   -6.6231332    322.91465  0.025824908  0.026020283            8 
 1043000   0.84628988   -6.6456005    324.42864  0.025921112  0.026002743           18 
 1044000   0.84177784   -6.6400077    323.49543  0.025821794  0.025985275           13 
 1045000   0.83732424   -6.6403342    324.37672  0.025867362  0.025967798           18 
 1046000    0.8217592   -6.6546636     323.8447  0.025800247  0.025950382            9 
 1047000   0.83015782   -6.6673326    323.55104  0.025752231  0.025932888           14 
 1048000   0.85811512   -6.6670214    324.86368  0.025832036  0.025915482           12 
 1049000   0.83076823   -6.6756028    325.32406  0.025843983  0.025898306            6 
 1050000   0.83831526   -6.6536577    325.07403  0.025799526  0.025881091            4 
 1051000   0.84352821   -6.6722856    325.29368  0.025792395  0.025863872            8 
 1052000   0.85270268   -6.6407667    325.76919  0.025805544  0.025846641           14 
 1053000   0.82621417   -6.6622778    325.90756  0.025791988  0.025829554           15 
 1054000    0.8198958   -6.6818165     325.9181  0.025768351  0.025812381           37 
 1055000   0.84374059   -6.6705477    325.88774  0.025741527  0.025795303           21 
 1056000   0.82686963   -6.6630024    325.97152  0.025723762  0.025778288           12 
 1057000   0.83504517   -6.6759652    326.08266  0.025708188  0.025761215           11 
 1058000   0.84334718   -6.6668093    325.81985  0.025663189  0.025744112           11 
 1059000    0.8329121   -6.6555941     326.0876  0.025660025  0.025726916           31 
 1060000   0.83894151   -6.6559402    326.95803  0.025704248  0.025709831           12 
 1061000   0.82275279   -6.6385498    326.78091  0.025666109  0.025692789            9 
 1062000   0.81825852   -6.6606605    326.69423   0.02563514  0.025675892           11 
 1063000   0.82777744   -6.6466488    326.70092  0.025611549  0.025658928            9 
 1064000   0.81651962   -6.6721604    326.73824  0.025590401   0.02564182           11 
 1065000   0.81480321   -6.6729615    326.52519  0.025549702   0.02562463           10 
 1066000   0.84177649   -6.6562919      326.728  0.025541589   0.02560737           12 
 1067000   0.81971085   -6.6798275    327.05863  0.025543473   0.02559012           16 
 1068000   0.82502026   -6.6856284    326.96794  0.025512479  0.025572798            9 
 1069000   0.81065023   -6.6616205    325.71855  0.025391218  0.025555612            9 
 1070000   0.83185309   -6.7014387    326.57571  0.025434245  0.025538232           13 
 1071000   0.83157137   -6.6640612    326.88401  0.025434486   0.02552101           10 
 1072000   0.82904688   -6.6741817    328.13894  0.025508313  0.025503953           19 
 1073000   0.82959984   -6.6562659    327.60765  0.025443278  0.025487001            6 
 1074000   0.81934103   -6.6685473     328.3644  0.025478305  0.025470045           15 
 1075000   0.82860819   -6.6216357     329.6374  0.025553287  0.025453307           15 
 1076000   0.83531757   -6.6889626    328.34617  0.025429536  0.025436592           28 
 1077000   0.83467771   -6.6895322    327.99294  0.025378593  0.025419714           16 
 1078000   0.81857643   -6.6879984    328.22371  0.025372891  0.025402689           10 
 1079000   0.81798873   -6.6758504    328.85442  0.025398086  0.025385765           10 
 1080000   0.80526961   -6.6759402    327.87936  0.025299334  0.025368918            5 
 1081000   0.83736897   -6.6844731    328.75536   0.02534346  0.025352048           14 
 1082000   0.81207159   -6.7083814    329.50429  0.025377718  0.025335192            8 
 1083000   0.81882271   -6.6865502    329.37947  0.025344681  0.025318225           25 
 1084000   0.81933772   -6.6780974    328.90889  0.025285124  0.025301469           11 
 1085000   0.82679353   -6.6963856    328.79824  0.025253321  0.025284667           12 
 1086000   0.84550653    -6.700082    329.10822  0.025253853  0.025267809           11 
 1087000   0.83338657   -6.6886425    329.88794  0.025290397  0.025250972           12 
 1088000   0.81551298    -6.671989    329.87104  0.025265858   0.02523422           16 
 1089000   0.82706868   -6.6823071    329.42591  0.025208594  0.025217525           36 
 1090000    0.8044763   -6.6858328    329.83347  0.025216626  0.025200879           25 
 1091000   0.81283341   -6.6775583    329.95577  0.025202854  0.025184255           10 
 1092000   0.80697927   -6.6962517    329.84336  0.025171196  0.025167539           31 
 1093000   0.80307708   -6.7167789    330.51005  0.025198997  0.025150867           12 
 1094000   0.80108896   -6.7015485    330.41434  0.025168673  0.025134224           12 
 1095000   0.81025729   -6.6799863    330.47563  0.025150353  0.025117617           19 
 1096000   0.81451955   -6.6623786    330.99081  0.025166576  0.025101058           13 
 1097000    0.8198242    -6.679649      330.854  0.025133242  0.025084617           29 
 1098000   0.81946471   -6.6796225    331.76302  0.025179343  0.025068252           21 
 1099000   0.81495902   -6.6857392    332.34489  0.025200552    0.0250521           11 
 1100000   0.79717052   -6.6682669    331.92217  0.025145619  0.025035951           11 
 1101000   0.81376253   -6.6940875    331.71961  0.025107449  0.025019653           10 
 1102000   0.81406825   -6.7142405    330.70701  0.025008092  0.025003326           14 
 1103000   0.80846606   -6.7015543     332.1242   0.02509249  0.024986884           14 
 1104000   0.81048059   -6.7144138    332.16986  0.025073208  0.024970495           11 
 1105000   0.79283179   -6.6827652    331.31762  0.024986246  0.024954184            9 
 1106000   0.80972243   -6.7038578    331.05392  0.024943785  0.024937755           16 
 1107000    0.8198446   -6.7223503    332.23302  0.025010013  0.024921265           13 
 1108000   0.82626717   -6.7149098    332.15751  0.024981762  0.024904671           34 
 1109000   0.81054596   -6.6995265    332.23899  0.024965359   0.02488816           28 
 1110000   0.80415718   -6.7062169    332.52039  0.024963993  0.024871566           33 
 1111000   0.80553857   -6.7054695    332.06348  0.024907252  0.024855069           56 
 1112000    0.8019221   -6.7039109    331.59731  0.024849919  0.024838455           20 
 1113000    0.8215707   -6.7022777    332.56841    0.0249003  0.024821939           30 
 1114000   0.81451353   -6.7047127    333.12302  0.024919436  0.024805494           31 
 1115000     0.817662   -6.7371738    332.67728  0.024863773  0.024789079           55 
 1116000   0.80462234   -6.7086481    332.97986  0.024864087  0.024772621           19 
 1117000   0.81175834   -6.7031336    332.51704  0.024807299  0.024756131           24 
 1118000   0.79821769   -6.7490635    332.74559  0.024802146  0.024739638           15 
 1119000   0.79851669   -6.7432982    333.54906  0.024839817  0.024723196           13 
 1120000    0.8105612   -6.6908593     334.2078  0.024866651   0.02470684           22 
 1121000   0.79482265   -6.7275939    333.53506  0.024794458   0.02469067           19 
 1122000   0.79616867   -6.7030907    333.13642  0.024742752  0.024674362           10 
 1123000   0.82948481   -6.6820907    333.90885  0.024778038  0.024658091           22 
 1124000   0.79484364   -6.6888395    334.56923  0.024804955  0.024641745           51 
 1125000   0.81762552   -6.7264501    333.45902  0.024700668  0.024625407           16 
 1126000   0.80000425   -6.7146494    333.89538  0.024711026  0.024609091           10 
 1127000   0.80445497   -6.6939345    333.89706  0.024689224  0.024592765           22 
 1128000   0.79521812   -6.7023026    334.36159  0.024701654  0.024576514           21 
 1129000   0.80157497    -6.719054     334.1335  0.024662939  0.024560255           10 
 1130000   0.80478021   -6.6962508    334.65137  0.024679305  0.024544099           10 
 1131000   0.80633064   -6.6868302    334.82128  0.024670003  0.024527881           33 
 1132000   0.78860942   -6.7080831     334.4774  0.024622894  0.024511702           15 
 1133000   0.80551322   -6.7183421    334.05089  0.024569792  0.024495503           17 
 1134000   0.80187391   -6.7211604    334.69507  0.024595464  0.024479237           27 
 1135000   0.79917095   -6.7406952    334.30752  0.024545339  0.024462997           11 
 1136000   0.81010156   -6.7518545    334.31732  0.024524451  0.024446626           27 
 1137000   0.80910114   -6.7488273    336.22695  0.024642843  0.024430361           30 
 1138000   0.79344579   -6.7169347    335.38756  0.024559722  0.024414145           66 
 1139000    0.8108452   -6.7458092    334.97374  0.024507883   0.02439797           68 
 1140000   0.78846259   -6.6837784    335.57133  0.024530068  0.024381906           22 
 1141000   0.79888712   -6.7516222    335.08222  0.024472847  0.024365778           31 
 1142000   0.80724006   -6.7330146    335.52469  0.024483705  0.024349681           17 
 1143000   0.79005556   -6.7285213    335.37202  0.024451154   0.02433361           10 
 1144000   0.79182839   -6.7234779     336.3141  0.024498405  0.024317531           24 
 1145000   0.79980078   -6.7387741    335.98297  0.024452909  0.024301505           12 
 1146000   0.80057911    -6.729159    336.05918  0.024437113  0.024285444           20 
 1147000   0.79920037   -6.7665104    335.65434  0.024386395  0.024269293           12 
 1148000   0.79664089   -6.7408155     335.4506  0.024350363  0.024253127           15 
 1149000    0.7952246   -6.7329205    336.93002  0.024436468  0.024237076           13 
 1150000   0.79265216   -6.7538931    335.49089  0.024310934  0.024220852           19 
 1151000   0.79978139   -6.7264826    336.04994  0.024330288  0.024204624           15 
 1152000   0.80427296   -6.7384549    335.38687  0.024261203  0.024188409           26 
 1153000   0.79089399   -6.7201096    335.94803  0.024280719   0.02417221           22 
 1154000   0.79564081   -6.7195831    336.33893  0.024287907  0.024156068           12 
 1155000   0.79579047   -6.7556541    336.13072  0.024251856  0.024139914           18 
 1156000   0.79716549   -6.7388398    336.58753  0.024263807   0.02412371           10 
 1157000    0.7926982   -6.7610087    336.37687  0.024227663  0.024107506            5 
 1158000   0.80167856   -6.7708899    336.21213  0.024194885  0.024091227           22 
 1159000   0.81963901   -6.7526719    336.32568  0.024182174   0.02407493           14 
 1160000   0.78986577   -6.7202716    335.85914  0.024127812  0.024058579           20 
 1161000   0.79721142   -6.7474163    336.66068  0.024164562  0.024042235           10 
 1162000   0.76921568   -6.7240831     335.9971  0.024096178  0.024025957           13 
 1163000   0.78528087   -6.7474262    335.85433  0.024065229  0.024009685           14 
 1164000   0.78526777   -6.7175917    336.86465  0.024116885   0.02399344            8 
 1165000   0.80383171   -6.7382618    336.07335  0.024039582  0.023977229           19 
 1166000   0.79179616   -6.7463021    336.87685   0.02407639  0.023961029           14 
 1167000   0.78715358    -6.744629    337.81858  0.024123006  0.023944894           11 
 1168000   0.78615451   -6.7501723    336.90151  0.024036923  0.023928746           41 
 1169000   0.76484188   -6.7400502    336.20196  0.023966493  0.023912402           24 
 1170000   0.80113312   -6.7539364     336.4358  0.023962664  0.023896065           19 
 1171000   0.79910932   -6.7307174    337.12318  0.023991117   0.02387961           18 
 1172000   0.77757889   -6.7706598     336.2722   0.02391014   0.02386317           19 
 1173000   0.79643516   -6.7714513    336.00634  0.023870868  0.023846698           23 
 1174000   0.80455099   -6.7425029    336.22918  0.023866353  0.023830231           16 
 1175000   0.77856495   -6.7730645    336.04832  0.023833214  0.023813716           13 
 1176000   0.76703512    -6.753102    336.49827  0.023844832  0.023797124           25 
 1177000   0.79891332   -6.7426457    336.91374  0.023853989  0.023780633           21 
 1178000   0.77838401   -6.7496256    336.22069  0.023784712  0.023764152           12 
 1179000    0.7850057   -6.7422781    336.43508  0.023779692  0.023747733           43 
 1180000   0.80188991   -6.7587029    337.18759  0.023812683   0.02373133           11 
 1181000   0.77218673   -6.7613862    336.02346  0.023710377  0.023714892           18 
 1182000   0.79170329   -6.7426717    337.74929  0.023811992  0.023698445           15 
 1183000   0.74874699   -6.7543905    337.17372  0.023751319   0.02368219           32 
 1184000    0.7857548   -6.7384427    337.51252  0.023755104  0.023665913           11 
 1185000   0.78958208   -6.7460416     336.9872  0.023698116  0.023649533           12 
 1186000   0.77284295   -6.7559637    337.24698  0.023696387  0.023633104           19 
 1187000   0.80022076   -6.7611105    337.43866   0.02368988   0.02361669           12 
 1188000   0.77356304   -6.7949716    337.63958  0.023684034  0.023600282           28 
 1189000   0.77853894   -6.7749666    337.74643  0.023671603  0.023583882           18 
 1190000   0.78153206    -6.750786    338.07706  0.023674864  0.023567564           31 
 1191000    0.7931491   -6.7504294     338.0022  0.023649748    0.0235514           30 
 1192000   0.77164909   -6.7713471    338.11561  0.023637836  0.023535208           11 
 1193000   0.75613504   -6.7581128    337.66687  0.023586677  0.023518919           25 
 1194000   0.77078593    -6.767964    337.84518  0.023579368  0.023502634           87 
 1195000    0.7742311   -6.7563019    338.65765  0.023616293  0.023486317           71 
 1196000   0.77675669   -6.7922656    338.48224  0.023584325  0.023470082           65 
 1197000   0.78475067    -6.761708    338.66766  0.023577531  0.023453809           35 
 1198000   0.78267306   -6.7630362    337.91905  0.023505777  0.023437459           16 
 1199000    0.7843574   -6.7471119    338.89499  0.023554002  0.023421236           22 
 1200000   0.77587715   -6.7601962     338.5681  0.023511673  0.023404949           15 
 1201000   0.76929722   -6.7704737    338.74601  0.023504441  0.023388685           26 
 1202000   0.77402235   -6.8050227     338.1406  0.023442914  0.023372411           18 
 1203000   0.78208797   -6.7790651    338.95712  0.023479989  0.023356108           21 
 1204000   0.76666127   -6.7857196    339.09703  0.023470171  0.023339833           18 
 1205000   0.77763543   -6.7899444    338.56289  0.023413755  0.023323442           11 
 1206000   0.77889615   -6.7615269    338.99825  0.023424423  0.023307115           38 
 1207000   0.76749021   -6.7781131    338.53246  0.023372857  0.023290876           30 
 1208000   0.78731969   -6.7985364    338.41327  0.023345287  0.023274515           22 
 1209000   0.76616803   -6.7937366    337.99329  0.023297029  0.023258135           17 
 1210000    0.7807822   -6.7878495    338.79747  0.023333159  0.023241803           37 
 1211000   0.76181856   -6.7997992    338.93185  0.023323138  0.023225559           24 
 1212000     0.762381   -6.7967323     339.2869  0.023328308  0.023209339           52 
 1213000   0.77922114   -6.7723706    339.34932  0.023313363  0.023193126           40 
 1214000    0.7644516   -6.7455102    340.12604  0.023347476  0.023177019           20 
 1215000   0.77012603   -6.7747154    340.02343  0.023321223  0.023161052           27 
 1216000   0.77698505   -6.7778204    340.09665  0.023307062  0.023145059           45 
 1217000   0.77691198   -6.7798485    339.85093  0.023271085  0.023128998           43 
 1218000   0.77901143   -6.7933037    339.98858  0.023261397  0.023112928           17 
 1219000   0.77435084   -6.7768624    340.42767  0.023272332   0.02309685           33 
 1220000    0.7706573   -6.8114816    339.74745  0.023206793  0.023080659           53 
 1221000   0.75452275   -6.8021151    338.66083  0.023113625  0.023064522           14 
 1222000   0.77431832   -6.7765403    340.07054  0.023190845  0.023048366           38 
 1223000   0.75828227   -6.7868704     340.5937  0.023207529   0.02303229           56 
 1224000    0.7467197   -6.8077133    339.94246  0.023144231   0.02301616           43 
 1225000   0.75858054   -6.8008284    340.17317  0.023141032  0.022999963           83 
 1226000   0.75982313   -6.7892886    339.91454  0.023104577  0.022983731          104 
 1227000   0.75691871   -6.8078345    339.84361   0.02308093  0.022967526          116 
 1228000   0.76210539   -6.7965532    340.32722  0.023094953  0.022951427           76 
 1229000   0.74734592   -6.8003073    340.45633  0.023084916  0.022935324          106 
 1230000   0.75698044   -6.8258882    340.47868  0.023067661  0.022919246           72 
 1231000   0.76298437   -6.8223356    340.78285  0.023069513  0.022903112           43 
 1232000   0.75641816   -6.8168482    340.90179  0.023058833  0.022886941           52 
 1233000   0.76835122   -6.8543609    339.90287  0.022972619  0.022870739           59 
 1234000   0.74568252   -6.8089759    340.43651   0.02299004  0.022854606           56 
 1235000   0.75707908   -6.8364402    341.05792  0.023013355   0.02283847           43 
 1236000   0.74237277   -6.8118894     341.7068  0.023038485  0.022822365           59 
 1237000   0.75833087   -6.8057789    340.62289   0.02294684  0.022806363           56 
 1238000   0.75077711   -6.8253419    340.89431  0.022946574   0.02279037           66 
 1239000   0.75287994   -6.7997379     340.6484  0.022911514  0.022774369           64 
 1240000   0.75802808   -6.8366356    340.58175  0.022888558  0.022758294           21 
 1241000   0.75184647   -6.8095079    340.77801  0.022883294   0.02274219           68 
 1242000   0.76203557   -6.8321786    340.93242   0.02287523  0.022726122           22 
 1243000   0.75866791   -6.8088773    341.45442  0.022891822  0.022710033           29 
 1244000   0.77313364   -6.8325057    341.29281  0.022862595  0.022693947           16 
 1245000    0.7609159   -6.8033639    341.19153  0.022837452  0.022677858           18 
 1246000   0.75638164   -6.8199898    342.19154  0.022886005  0.022661784           53 
 1247000   0.75348241   -6.8317189    340.84267  0.022777511  0.022645728           40 
 1248000   0.75566049    -6.812935    341.04895  0.022773034  0.022629654           33 
 1249000   0.76184422   -6.8027476    341.93915  0.022814195  0.022613615           23 
 1250000   0.76170772   -6.8182145    341.33318  0.022755545  0.022597664           20 
 1251000   0.74764654   -6.7985275    341.78521  0.022767467  0.022581819           23 
 1252000    0.7476351   -6.8338619    342.49986  0.022796849  0.022565992           30 
 1253000   0.75893809   -6.8333312    341.74902  0.022728719  0.022550101           19 
 1254000    0.7477865   -6.8202032    341.78477   0.02271297  0.022534172           19 
 1255000   0.74277354   -6.8361892    341.88693  0.022701655  0.022518267           36 
 1256000   0.74673659   -6.8209671      342.142  0.022700504  0.022502386           39 
 1257000   0.76156352    -6.820894    342.10898  0.022680256    0.0224865           38 
 1258000    0.7609416   -6.8175043    342.48947  0.022687432  0.022470572           31 
 1259000   0.76328599   -6.8225267    342.38205  0.022662301  0.022454756           23 
 1260000   0.74417367   -6.8283801    342.90121  0.022678652  0.022438892           27 
 1261000   0.74762229   -6.7864172    342.37558   0.02262593  0.022423091           18 
 1262000   0.74382686   -6.8169894    342.36109  0.022607045  0.022407323           36 
 1263000   0.74311735   -6.8154189    343.15633  0.022641616   0.02239163           24 
 1264000    0.7430375    -6.815955    342.49419   0.02258005  0.022375829           24 
 1265000   0.75280241    -6.838233    342.86239  0.022586455  0.022360007           11 
 1266000      0.75074    -6.837587    342.03428  0.022514105  0.022344177           16 
 1267000   0.74293623   -6.8154684    341.71425  0.022475286  0.022328307           14 
 1268000   0.75781664   -6.8572229    342.21326  0.022490356  0.022312505           20 
 1269000   0.73999005   -6.8429445    342.55549  0.022495107  0.022296612           13 
 1270000   0.75508973   -6.8366546    341.88811  0.022433603  0.022280746           23 
 1271000   0.75175632   -6.8260919    341.84779  0.022413309  0.022264836           27 
 1272000   0.74648691   -6.8332172    342.41841  0.022433072  0.022248898           28 
 1273000   0.74270133   -6.8177804    342.00589  0.022388445  0.022233017           39 
 1274000   0.73892272    -6.806959    342.58352  0.022408655   0.02221716           51 
 1275000   0.74669406   -6.8347331    341.85663   0.02234357  0.022201253           24 
 1276000   0.75008083   -6.8227204    343.30445  0.022420615   0.02218546           25 
 1277000   0.74846061    -6.822169    343.48085  0.022414568   0.02216967           32 
 1278000   0.73883645   -6.8454841    342.28926  0.022319331  0.022153829           40 
 1279000   0.74382974   -6.8304918    342.35011  0.022305845  0.022137998           26 
 1280000    0.7516958   -6.8258814    343.08044  0.022335966  0.022122189           47 
 1281000   0.74318854   -6.8152436    342.19864  0.022261165  0.022106345           97 
 1282000   0.73865506   -6.8608938    343.17258   0.02230711  0.022090474           69 
 1283000   0.75572455   -6.8281435     342.3889  0.022238822  0.022074621          129 
 1284000   0.72629058   -6.8520159     342.4367  0.022224604  0.022058706           93 
 1285000   0.73792088   -6.8500299     343.8056  0.022296083  0.022042829           66 
 1286000   0.72713062   -6.8695768    342.85792  0.022217335  0.022026949           62 
 1287000    0.7346775     -6.84832    343.77811  0.022259655  0.022011143           93 
 1288000   0.74727349   -6.8476586    343.45927  0.022221744  0.021995316           55 
 1289000   0.75006389   -6.8563809    344.09468  0.022245583  0.021979497           58 
 1290000   0.74975977   -6.8546566     343.0015  0.022157719  0.021963673           63 
 1291000   0.73152681   -6.8689288    342.90125  0.022134085  0.021947887           91 
 1292000   0.73962531   -6.8553087    343.65353  0.022165475  0.021932122           37 
 1293000   0.72776105   -6.8660824    344.20262  0.022183721  0.021916401           47 
 1294000   0.74303956   -6.8632463      343.812  0.022141422  0.021900606           60 
 1295000   0.71921716    -6.842025    343.30746  0.022091857    0.0218849           73 
 1296000   0.72777957   -6.8452996    343.55561  0.022090767  0.021869179           87 
 1297000   0.74432358   -6.8954215    343.70749  0.022083493  0.021853504           59 
 1298000   0.74135016   -6.8734963    343.93716  0.022081225   0.02183786           16 
 1299000   0.72249809   -6.8624204    343.82313  0.022056911  0.021822276           39 
 1300000   0.73567951   -6.8574648    343.79647  0.022038235  0.021806665           14 
 1301000   0.72594838   -6.8847552    344.73681  0.022081527  0.021790945           43 
 1302000   0.74179484   -6.8659152    344.57021  0.022053905  0.021775326           41 
 1303000   0.73798278   -6.8403204    344.73255  0.022047362  0.021759817           26 
 1304000   0.74695224   -6.8573993    344.05392  0.021987086  0.021744249           23 
 1305000   0.72544563   -6.8795392    344.36375  0.021990022  0.021728646           14 
 1306000   0.73077001   -6.8807072    343.39851  0.021911595  0.021712922           31 
 1307000   0.71895927   -6.8681209    344.15053  0.021942778  0.021697207           39 
 1308000   0.71770278   -6.8739103     343.5212  0.021885907  0.021681593           47 
 1309000    0.7412089   -6.8616946    344.08729  0.021905226  0.021666036           58 
 1310000   0.73523351   -6.8754595    345.27692   0.02196418  0.021650582           34 
 1311000   0.74653591    -6.857706    345.04827  0.021932893   0.02163517           25 
 1312000   0.72489177   -6.8822285    345.08347  0.021918412  0.021619759           48 
 1313000   0.72417986   -6.8730299     345.3127  0.021916267  0.021604379           33 
 1314000   0.72248269   -6.8775748    345.73808  0.021926565  0.021588997           35 
 1315000    0.7220212   -6.8770323    344.45154  0.021828362   0.02157361           23 
 1316000   0.73286478   -6.8665427    344.93136  0.021842158  0.021558211           24 
 1317000    0.7112444   -6.8882595    345.51257   0.02186235  0.021542828           57 
 1318000   0.73140606   -6.8775162    344.44419  0.021778211  0.021527461           70 
 1319000   0.73971568   -6.8765488    345.05903  0.021800545  0.021512057          102 
 1320000   0.71873673    -6.870479    345.61502   0.02181913  0.021496681           76 
 1321000   0.73629227   -6.8733014    345.15009  0.021773283   0.02148128           50 
 1322000   0.73084191   -6.8758013    345.49801  0.021778745  0.021465961          111 
 1323000   0.73184938   -6.8604333    345.48983  0.021761768  0.021450598           53 
 1324000   0.72458398   -6.8870615    345.03366   0.02171662  0.021435189           73 
 1325000   0.72338845   -6.8798391    344.71299  0.021680062  0.021419735           88 
 1326000    0.7241062   -6.9046901    344.74889  0.021665968  0.021404322          150 
 1327000   0.71602438   -6.8903918    345.94814  0.021724952  0.021388858          185 
 1328000   0.73230817   -6.8767311    345.15615  0.021658895   0.02137349          160 
 1329000   0.71566632   -6.8846432    345.18308  0.021644286  0.021358141          136 
 1330000   0.71646943   -6.9151795    345.42308   0.02164305  0.021342758          185 
 1331000   0.73415488   -6.9107853    345.62643  0.021639521  0.021327438          127 
 1332000   0.71443781   -6.9050505    344.86814  0.021575834  0.021312035          303 
 1333000   0.71970646   -6.9085342    344.57502  0.021541324   0.02129663          381 
 1334000   0.70257562   -6.8855582    345.22598  0.021565841  0.021281218          295 
 1335000   0.72059759   -6.8544551    346.24494  0.021613292  0.021265833          225 
 1336000   0.72663749   -6.9107146     345.8083  0.021569879  0.021250428          386 
 1337000   0.70872519   -6.9189369    344.88084  0.021495939  0.021234996          377 
 1338000   0.72552405   -6.9035475    344.59679  0.021462182  0.021219524          451 
 1339000   0.72211553   -6.9307987    345.53275  0.021504403  0.021203986          514 
 1340000   0.73342995   -6.9119973    344.16654  0.021403392  0.021188465          353 
 1341000   0.71096538   -6.9107023    345.16805  0.021449667  0.021172942          328 
 1342000   0.72096132   -6.9208126    344.32855  0.021381554   0.02115735          418 
 1343000   0.71501475   -6.9176806    344.12193  0.021352812  0.021141751          240 
 1344000   0.71143528   -6.9359727    344.19633  0.021341538  0.021126156          390 
 1345000   0.69619576    -6.903383    344.93443  0.021371402  0.021110572          442 
 1346000   0.71151719   -6.9401757    344.33903  0.021318662  0.021094995          530 
 1347000   0.71752073   -6.9237599    344.93983  0.021340004  0.021079432          443 
 1348000   0.71353576   -6.9035052    344.90397  0.021321957  0.021063879          449 
 1349000   0.70924668   -6.9245693    344.62332  0.021288814  0.021048225          469 
 1350000   0.71521288   -6.9442063    344.42393  0.021260737  0.021032602          523 
 1351000   0.71821701   -6.9034063    344.84404  0.021270913  0.021017033          532 
 1352000   0.72054982    -6.914818    343.92549  0.021198563  0.021001407          612 
 1353000   0.69457152   -6.9290839    344.37183  0.021210386  0.020985819          526 
 1354000   0.68556988   -6.9499289    344.59285  0.021208324  0.020970277          580 
 1355000   0.72509549   -6.9166177    345.66435   0.02125857  0.020954751          530 
 1356000   0.70635446   -6.9383629    344.68211  0.021182529  0.020939264          516 
 1357000   0.73124398   -6.9239874    343.94446   0.02112162  0.020923767          547 
 1358000   0.70504916   -6.9346835    344.61881  0.021147448  0.020908244          486 
 1359000   0.71311982   -6.9456499    345.10381  0.021161627  0.020892727          465 
 1360000   0.71479454   -6.9737631    345.27071  0.021156294  0.020877225          722 
 1361000   0.70030947   -6.9316403    344.79865  0.021111845  0.020861691          760 
 1362000   0.71501703   -6.9548953    344.36249  0.021069658  0.020846098          805 
 1363000   0.70847492   -6.9414592    344.62596  0.021070308  0.020830528          742 
 1364000   0.72319662   -6.9479244    344.89757  0.021071455  0.020814956          792 
 1365000   0.71186644   -6.9755698      344.858  0.021053602   0.02079936          976 
 1366000   0.71874127   -6.9583905    344.89148  0.021040232  0.020783784          952 
 1367000   0.70199515   -6.9692561     345.3277  0.021051433  0.020768216          897 
 1368000   0.71096173   -6.9603914    344.90642  0.021010381  0.020752653          761 
 1369000   0.71083512   -6.9632904    345.07472  0.021005279  0.020737048         1119 
 1370000   0.71458438   -6.9882723    344.21373  0.020937575  0.020721442         1028 
 1371000   0.69159525   -7.0087339    344.74687  0.020954709  0.020705841         1082 
 1372000   0.71537877   -6.9973148    344.04099  0.020896562  0.020690187         1136 
 1373000   0.70791203   -7.0051191    343.98743  0.020878091  0.020674511         1202 
 1374000   0.70572984    -7.017096    344.53629  0.020896185  0.020658839         1325 
 1375000   0.70687406    -7.035512    344.92607   0.02090461  0.020643067         1444 
 1376000   0.71036083   -7.0130844    344.43246  0.020859524  0.020627388         1453 
 1377000   0.70806874   -7.0157769    344.72037  0.020861799  0.020611689         1562 
 1378000   0.69274743   -7.0477091     343.6778  0.020783611  0.020595927         1593 
 1379000   0.71094646   -7.0352091    344.21078  0.020800748  0.020580105         1704 
 1380000   0.70910462   -7.0425153    343.69753  0.020754682  0.020564269         1707 
 1381000    0.6980446   -7.0435251    343.51539  0.020728662  0.020548407         1815 
 1382000   0.70640668   -7.0523775    343.22013  0.020695859  0.020532542         1997 
 1383000   0.70180611   -7.0458878    343.45376  0.020694972  0.020516646         1883 
 1384000   0.68855227   -7.0611071    342.51004  0.020623196  0.020500746         1917 
 1385000     0.708669   -7.0749927    343.44752  0.020664712   0.02048477         1938 
 1386000   0.69093905   -7.0693365    342.68376  0.020603881  0.020468773         1913 
 1387000   0.69910133   -7.0796746    343.05486  0.020611323  0.020452824         2077 
 1388000   0.69979512   -7.0843274    342.71303   0.02057595  0.020436821         2083 
 1389000   0.69026315   -7.0765994    343.48085  0.020607203  0.020420842         2071 
 1390000   0.70933838   -7.0870368    342.93409  0.020559598  0.020404847         2160 
 1391000     0.689389   -7.0702667    342.26301  0.020504613  0.020388832         2185 
 1392000   0.69694019   -7.1163712    342.16068  0.020483757  0.020372774         2310 
 1393000      0.70874   -7.1120749    342.91201  0.020513999  0.020356695         2298 
 1394000   0.71432788   -7.1228522    342.60074  0.020480676  0.020340598         2327 
 1395000   0.68830819   -7.1269698    342.09187  0.020435596  0.020324458         2446 
 1396000   0.71143709   -7.1343473    341.97844  0.020414186   0.02030834         2428 
 1397000   0.68893052   -7.1184436    341.84826  0.020391808  0.020292177         2438 
 1398000    0.7002145   -7.1272217    342.00637  0.020386646     0.020276         2511 
 1399000   0.69417753   -7.1516248     340.5283   0.02028403  0.020259803         2642 
 1400000   0.69769729   -7.1503686    341.25046  0.020312528  0.020243571         2785 
 1401000   0.70087059   -7.1738348    341.49712  0.020312701  0.020227275         2831 
 1402000    0.6903995   -7.1906506    341.48417  0.020297442  0.020210963         2971 
 1403000   0.68168141    -7.185212    341.53218  0.020285827  0.020194644         3048 
 1404000   0.69609516   -7.1984953    341.98414  0.020298204  0.020178284         3097 
 1405000   0.69141564   -7.1891658    340.63036  0.020203461  0.020161893         3156 
 1406000   0.69569439   -7.1984956    340.37675   0.02017406  0.020145485         3057 
 1407000   0.70339934   -7.2051261    340.91042   0.02019133  0.020129086         3164 
 1408000   0.69372761   -7.2052717    340.58331  0.020157629  0.020112697         3243 
 1409000   0.70317366   -7.2049056    340.94812    0.0201649  0.020096299         3175 
 1410000   0.68115326   -7.2056746    341.33553  0.020173495  0.020079846         3128 
 1411000    0.7000475   -7.2139608    340.49363  0.020109475  0.020063437         3174 
 1412000   0.69830369   -7.2247896    340.80038  0.020113337  0.020047059         3249 
 1413000   0.68019248   -7.1965403    340.81778  0.020100129  0.020030633         3155 
 1414000   0.68039281   -7.2284368     340.6033  0.020073273  0.020014231         3182 
 1415000   0.68972135   -7.2145464    340.96705  0.020080509  0.019997804         3274 
 1416000   0.68681302   -7.2308661    340.51032  0.020039449  0.019981365         3314 
 1417000   0.67438025   -7.2184372    340.85828   0.02004577  0.019964894         3273 
 1418000   0.69441519   -7.2310709    340.08183  0.019986003  0.019948458         3331 
 1419000   0.67253801   -7.2396604    339.50049  0.019937778  0.019931976         3323 
 1420000   0.71493139   -7.2662288    339.99091  0.019952518  0.019915509         3346 
 1421000    0.7024825   -7.2637002    340.21477  0.019951605  0.019899029         3375 
 1422000   0.68922165   -7.2617977    340.56506  0.019958102  0.019882515         3407 
 1423000   0.70703897   -7.2578979     340.1484  0.019919677  0.019866005         3446 
 1424000   0.68170422   -7.2977809    339.93973  0.019893477   0.01984947         3448 
 1425000   0.68188254   -7.2654017    338.91435  0.019819553  0.019832865         3431 
 1426000   0.69143756   -7.2871083     338.8083  0.019799456   0.01981622         3503 
 1427000   0.69134969   -7.3204848    339.20381  0.019808679  0.019799574         3428 
 1428000   0.67542026   -7.3193219    338.69053  0.019764854  0.019782924         3598 
 1429000   0.67701725   -7.3340225    338.38595   0.01973326  0.019766217         3602 
 1430000   0.68933127   -7.3277561    338.03153  0.019698807  0.019749464         3591 
 1431000   0.68057358   -7.3119905    338.48084  0.019711207  0.019732738         3580 
 1432000   0.67924368   -7.3302213    338.79542  0.019715748  0.019715995         3583 
 1433000   0.68970706   -7.3582564    338.36654  0.019677049  0.019699256         3622 
 1434000   0.69361949   -7.3686822    338.63116  0.019678706  0.019682499         3647 
 1435000   0.66910916   -7.3472731    338.22448  0.019641375  0.019665776         3672 
 1436000   0.68503398   -7.3530307    338.25174  0.019629279  0.019649058         3663 
 1437000   0.68138442   -7.3672632    337.96981   0.01959927  0.019632329         3682 
 1438000   0.69236333   -7.3634268    337.98482   0.01958651  0.019615592         3730 
 1439000    0.6861417   -7.3749355    338.34091   0.01959352  0.019598845         3727 
 1440000   0.67620112   -7.3726883    338.43229  0.019585202  0.019582064         3732 
 1441000   0.68207577   -7.3866984    337.85918  0.019538467  0.019565335         3711 
 1442000   0.67542588   -7.3627571    338.35595  0.019553626  0.019548594         3716 
 1443000   0.67607097    -7.375651    338.19255  0.019530639  0.019531868         3724 
 1444000   0.67500374   -7.3841001    337.46698  0.019475241  0.019515118         3738 
 1445000   0.68099236   -7.3996271     337.8594  0.019484394  0.019498338         3761 
 1446000   0.66925323   -7.4137135     337.3941  0.019444105  0.019481534         3791 
 1447000   0.67682211   -7.4051268    338.23739  0.019479232  0.019464726         3789 
 1448000   0.68183818   -7.4233861    337.21943  0.019407195  0.019447914         3815 
 1449000   0.67403885   -7.4239828    337.93618  0.019435023  0.019431067         3799 
 1450000   0.66903808   -7.4432775    337.33077  0.019386826  0.019414211         3841 
 1451000   0.67141123   -7.4258219    337.46516  0.019381183  0.019397361         3822 
 1452000   0.66471044    -7.436169    337.18969  0.019352025  0.019380506         3837 
 1453000   0.67799442    -7.453343    337.41634  0.019351706  0.019363627         3824 
 1454000   0.67601878   -7.4599376    336.73303  0.019299234   0.01934677         3852 
 1455000   0.66486381   -7.4323456    337.35825  0.019321778  0.019329904         3832 
 1456000   0.64652675   -7.4427574    336.53931  0.019261636  0.019313052         3851 
 1457000   0.65809352   -7.4407563    336.79308  0.019262931    0.0192962         3863 
 1458000   0.66911488   -7.4421123    337.02187  0.019262796   0.01927937         3852 
 1459000   0.65990106   -7.4969888    336.46402   0.01921773  0.019262491         3886 
 1460000   0.67309756   -7.5317259    335.16542  0.019130446  0.019245531         3901 
 1461000   0.66156376   -7.5207684    335.51741   0.01913743  0.019228483         3883 
 1462000   0.66073183   -7.5173979    336.06637   0.01915563  0.019211397         3902 
 1463000   0.65875736   -7.5493156     335.5443  0.019112799  0.019194304         3912 
 1464000   0.67346582    -7.551567    335.14892  0.019077238  0.019177204         3913 
 1465000   0.67029413   -7.5519984    335.01469  0.019056581  0.019160123         3913 
 1466000    0.6761348   -7.5483672    335.32571  0.019061261  0.019143066         3921 
 1467000   0.66527096   -7.5557341     335.6109  0.019064468  0.019126015         3925 
 1468000   0.67693809   -7.5502514    334.98738  0.019016086  0.019108969         3927 
 1469000   0.68677183   -7.5345301    334.95814  0.019001483  0.019091937         3921 
 1470000   0.66334674   -7.5557071     336.0405  0.019049915   0.01907492         3920 
 1471000   0.65061798   -7.5503373    335.15785  0.018986962  0.019057912         3917 
 1472000   0.65980307   -7.5607648    335.19251  0.018976025  0.019040909         3917 
 1473000    0.6696419   -7.5538006    335.66692  0.018989982  0.019023925         3909 
 1474000   0.68294997   -7.5526201    335.13697  0.018947137  0.019006944         3921 
 1475000   0.66296349   -7.5401306    335.06351  0.018930142  0.018989984         3902 
 1476000   0.66703755    -7.554764     334.9724  0.018912172  0.018973032         3919 
 1477000   0.65763581   -7.5578897    335.41711  0.018924459  0.018956076         3910 
 1478000   0.65518171   -7.5664473    334.76778  0.018875044   0.01893914         3925 
 1479000   0.66936296    -7.573657    334.81157  0.018864749  0.018922221         3907 
 1480000   0.66923574   -7.5552025    334.82434  0.018852722  0.018905314         3903 
 1481000   0.67116572   -7.5559371    335.19542  0.018860872  0.018888426         3921 
 1482000   0.65960934   -7.5390427    335.41005  0.018860214  0.018871559         3908 
 1483000    0.6658658   -7.5673976    334.64367  0.018804432  0.018854704         3936 
 1484000   0.65626263   -7.5880388    334.83207   0.01880234  0.018837856         3916 
 1485000   0.66160938   -7.5476224    334.74592  0.018784844  0.018821024         3900 
 1486000   0.66596459    -7.567964    335.42415  0.018810237  0.018804214         3905 
 1487000   0.66765784   -7.5630696    334.78059  0.018761522   0.01878742         3913 
 1488000   0.64647751   -7.5582361     335.1568  0.018769982  0.018770627         3906 
 1489000   0.66954798   -7.5733554    335.18994  0.018759231  0.018753846         3917 
 1490000   0.66051427   -7.5596707    334.68491  0.018718395   0.01873707         3914 
 1491000   0.63902671   -7.5484891    335.15081   0.01873188  0.018720345         3904 
 1492000   0.65691355   -7.5476371    335.00647  0.018711264  0.018703616         3912 
 1493000   0.64263568   -7.5660331    334.29013  0.018658748  0.018686907         3914 
 1494000   0.66428679   -7.5824054    334.77229  0.018673153  0.018670221         3909 
 1495000   0.65780035   -7.5610851     334.5025  0.018645624  0.018653538         3912 
 1496000   0.65741548   -7.5592797    335.50428  0.018688964  0.018636856         3902 
 1497000    0.6511925   -7.5626056    334.91433  0.018643639  0.018620201         3908 
 1498000   0.66476428   -7.5754135    335.01401  0.018636738  0.018603575         3907 
 1499000    0.6527076   -7.5565063    334.81707  0.018613357  0.018586953         3914 
 1500000   0.65662639   -7.5801759    335.04138   0.01861341  0.018570334         3923 
 1501000   0.65648252   -7.5693422    334.99312   0.01859833   0.01855372         3889 
 1502000   0.66520213   -7.6045686    335.09688  0.018591704  0.018537155         3903 
 1503000   0.64682946   -7.5754465    335.45309  0.018599084  0.018520586         3888 
 1504000   0.65590818   -7.5510526    334.09729  0.018511596  0.018504007         3892 
 1505000   0.65273152   -7.5711617    335.26436  0.018563918  0.018487451         3921 
 1506000   0.64700153   -7.5799356    334.67668  0.018519073  0.018470928         3912 
 1507000   0.64908947   -7.5776449    334.77509  0.018512226  0.018454396         3904 
 1508000    0.6514875   -7.5745306    334.46489  0.018482808  0.018437897         3908 
 1509000   0.65876666   -7.5700073    334.74032   0.01848577  0.018421409         3913 
 1510000   0.66167861   -7.5809931    335.14446  0.018495831  0.018404935         3904 
 1511000    0.6510031   -7.5841501    334.25267  0.018434407  0.018388472         3892 
 1512000   0.63978655   -7.5849397    334.72852  0.018448442  0.018372028         3902 
 1513000   0.65536834   -7.5637505    334.59378  0.018428827  0.018355616         3919 
 1514000   0.66686013   -7.5972688    334.54323  0.018413872  0.018339212         3916 
 1515000   0.64829397   -7.5881543    334.59768  0.018404713  0.018322815         3903 
 1516000   0.64472448    -7.571415    334.41522  0.018382543  0.018306443         3921 
 1517000   0.63868782   -7.6034018    334.56014  0.018378386  0.018290055         3916 
 1518000   0.64490177   -7.5700933    334.44986  0.018360225  0.018273682         3902 
 1519000   0.64408496   -7.5671815    334.13703  0.018330976  0.018257331         3902 
 1520000   0.63916155   -7.5796787    334.94807  0.018363381  0.018241009         3892 
 1521000   0.65169578   -7.5958447    334.31587   0.01831667  0.018224699         3901 
 1522000   0.64963065   -7.5893896    335.26116  0.018356393  0.018208406         3913 
 1523000   0.64398103   -7.5952549    334.14266   0.01828314  0.018192103         3908 
 1524000    0.6378637   -7.5923178    334.62586  0.018297565  0.018175848         3914 
 1525000   0.64651336   -7.5937222    334.35176  0.018270588  0.018159599         3913 
 1526000    0.6528485   -7.6018917    334.36838  0.018259522  0.018143371         3921 
 1527000   0.63778121   -7.5623463    334.97281  0.018280551  0.018127148         3899 
 1528000   0.63308007   -7.5774473    334.61445  0.018249043  0.018110943         3895 
 1529000   0.63067924   -7.5858638    334.72652  0.018243216  0.018094747         3911 
 1530000   0.63137695   -7.5973882    334.33896  0.018210183  0.018078577         3903 
 1531000   0.62749579   -7.5994561    334.47723  0.018205815  0.018062397         3900 
 1532000   0.64032617   -7.5915663     334.5512  0.018197955  0.018046228         3917 
 1533000   0.63638316   -7.5786924    334.98246  0.018209527  0.018030103         3917 
 1534000   0.63504884   -7.5935978    334.21258  0.018155833  0.018013976         3919 
 1535000   0.64969486     -7.59284    334.37339  0.018152736  0.017997858         3921 
 1536000   0.64454992   -7.5974321    334.97844  0.018173743  0.017981755         3906 
 1537000   0.62754598   -7.5910237    335.15194  0.018171326  0.017965672         3905 
 1538000   0.64464658   -7.5706458    334.38427  0.018117917  0.017949617         3920 
 1539000   0.63649484   -7.5820124    334.95872  0.018137249  0.017933577         3901 
 1540000   0.62774224   -7.6024935    333.92975  0.018069792  0.017917552         3922 
 1541000   0.62906068   -7.6027062    334.68368  0.018098836  0.017901534         3926 
 1542000   0.63838767   -7.6146893      334.442  0.018074038  0.017885536         3910 
 1543000    0.6288091   -7.6120043    334.18864  0.018048641  0.017869551         3909 
 1544000   0.64000583   -7.5968838    334.52861  0.018055301  0.017853575         3897 
 1545000   0.64006705    -7.611635    334.83302  0.018060034  0.017837628         3923 
 1546000   0.64191005   -7.6166693    334.18425  0.018013381  0.017821668         3926 
 1547000   0.62893572   -7.6052307    334.40027  0.018013374  0.017805728         3917 
 1548000   0.64129284   -7.5981765    334.43062  0.018003371  0.017789806         3918 
 1549000   0.61739829   -7.6076935    334.36741  0.017988348  0.017773889         3891 
 1550000   0.63107397   -7.6128636    333.73411  0.017942694  0.017757976         3912 
 1551000   0.61706475   -7.6054483    334.12635    0.0179522  0.017742098         3900 
 1552000   0.62793653   -7.6139793    334.44281  0.017957625  0.017726221         3916 
 1553000   0.62931427   -7.6046933    333.83631  0.017913517  0.017710365         3924 
 1554000   0.62350335   -7.6037839    334.45989  0.017935429  0.017694532         3910 
 1555000   0.63247592   -7.6087583    334.10998  0.017905143  0.017678715         3908 
 1556000    0.6201057   -7.5958355    334.75827  0.017928356  0.017662911         3903 
 1557000   0.62844814   -7.6034857    334.18267  0.017886035  0.017647125         3890 
 1558000   0.61715977   -7.5908794    334.27951  0.017879734  0.017631345         3921 
 1559000   0.64687933   -7.5945812    333.96956  0.017851697  0.017615577         3907 
 1560000   0.62539266   -7.6032126    333.92728  0.017837996  0.017599823         3924 
 1561000   0.62614911   -7.6211007    334.00946  0.017830956  0.017584081         3913 
 1562000   0.64019602   -7.5830835    334.65454  0.017853955   0.01756835         3917 
 1563000    0.6334151   -7.6143699    333.61325  0.017787015   0.01755265         3918 
 1564000   0.63570557   -7.6051379    333.84292  0.017787879  0.017536952         3922 
 1565000   0.63849757   -7.5968735    333.96805  0.017783176  0.017521282         3915 
 1566000   0.62298778   -7.5984123    334.27607  0.017788212  0.017505623         3916 
 1567000   0.62730596   -7.6128642    334.69323  0.017799045  0.017489968         3912 
 1568000   0.62939985   -7.6022509    334.49136  0.017776964  0.017474343         3915 
 1569000   0.62797467   -7.6120902    334.25226  0.017752935  0.017458719         3931 
 1570000   0.61757455   -7.6227871    333.78705  0.017716935  0.017443112         3920 
 1571000   0.62834092   -7.6268747    334.02434  0.017718244  0.017427528         3916 
 1572000   0.61810237   -7.6290008    334.38832  0.017726268   0.01741195         3921 
 1573000   0.62087653   -7.6014344     334.1921  0.017704603  0.017396391         3921 
 1574000   0.60873359   -7.5902858    333.33979  0.017648231  0.017380846         3921 
 1575000   0.61437048    -7.625121    334.55571  0.017701361  0.017365303         3918 
 1576000   0.63658869   -7.6074549    333.19864  0.017618371  0.017349782         3916 
 1577000   0.63010078   -7.6064569    333.42008  0.017618901  0.017334278         3927 
 1578000   0.62245809   -7.6159504    333.97032  0.017636794  0.017318788         3920 
 1579000   0.61400986   -7.6060282    333.93016  0.017623505  0.017303306         3924 
 1580000   0.61558605   -7.6212144    334.30357  0.017632045  0.017287826         3927 
 1581000   0.62768641   -7.6271348      333.839  0.017596405  0.017272387         3918 
 1582000   0.63207317   -7.6114305    333.56059  0.017570617  0.017256948         3920 
 1583000   0.59564984   -7.6297573    333.22917  0.017542071  0.017241526         3925 
 1584000   0.62274605   -7.6069043    333.65346  0.017553318  0.017226118         3923 
 1585000   0.62826763   -7.6195783    334.73834  0.017599282  0.017210734         3909 
 1586000    0.6215428   -7.6286045    334.32064  0.017566238  0.017195351         3926 
 1587000   0.63172022   -7.6265171    333.80301  0.017527989  0.017179983         3911 
 1588000   0.62574094   -7.6248331    334.03513  0.017529131  0.017164641         3923 
 1589000   0.63266472   -7.6252758    333.22376  0.017475549  0.017149296         3924 
 1590000    0.6114871   -7.6299276    333.52545  0.017480369  0.017133975         3922 
 1591000   0.62915306   -7.6273447    333.61555  0.017474102  0.017118675         3920 
 1592000    0.6114544   -7.6249794    334.23143  0.017495364  0.017103398         3924 
 1593000   0.62909691   -7.6318279    333.90776  0.017467449  0.017088137         3919 
 1594000   0.61792666   -7.6410906    333.33092  0.017426334  0.017072892         3914 
 1595000   0.62274857   -7.6517818    333.84507  0.017442271  0.017057658         3911 
 1596000   0.61216132   -7.6428643    333.60609  0.017418864  0.017042414         3922 
 1597000   0.60837852   -7.6358679    333.64659   0.01741007  0.017027208         3913 
 1598000   0.62018822   -7.6289922    333.04093  0.017367591  0.017011996         3924 
 1599000   0.61001219   -7.6392926     333.4766  0.017379435  0.016996815         3920 
 1600000   0.60499396   -7.6437373    333.95028  0.017393244  0.016981648         3913 
 1601000   0.61410913   -7.6426091    333.69384  0.017369032  0.016966489         3905 
 1602000   0.60830536   -7.6208818    332.73642  0.017308386  0.016951336         3932 
 1603000   0.61818305   -7.6332606    333.94497  0.017360417  0.016936205         3928 
 1604000   0.62111813   -7.6407021    334.04504  0.017354792  0.016921091         3910 
 1605000     0.612544   -7.6420045    333.43456  0.017312283  0.016905985         3917 
 1606000    0.6094937    -7.637283    333.82564  0.017321795  0.016890903         3918 
 1607000   0.60608386   -7.6411328    333.51684  0.017295003  0.016875827         3918 
 1608000   0.60126944   -7.6492482    333.56594  0.017286792  0.016860765         3920 
 1609000   0.62187832   -7.6400547    334.10512  0.017303974   0.01684572         3920 
 1610000   0.60857577    -7.648708    333.51622  0.017262745  0.016830697         3917 
 1611000   0.61506609   -7.6387807    333.78302   0.01726583  0.016815686         3919 
 1612000   0.59720461   -7.6377568    333.56522  0.017243859    0.0168007         3912 
 1613000    0.6101383   -7.6371686    333.52375  0.017231026  0.016785716         3913 
 1614000   0.61692713   -7.6218975    333.98201  0.017244011  0.016770755         3916 
 1615000    0.6018105   -7.6310833    333.89766  0.017228981  0.016755798         3916 
 1616000   0.61136004   -7.6564801    333.78866  0.017212699  0.016740858         3907 
 1617000   0.60311798   -7.6534043    333.99302  0.017212586  0.016725951         3916 
 1618000   0.60088972   -7.6403402    333.35547  0.017169111  0.016711035         3902 
 1619000   0.61787892   -7.6552673    333.52185  0.017167071   0.01669615         3917 
 1620000   0.60634335   -7.6422507    333.61238  0.017161131  0.016681271         3916 
 1621000   0.61056335   -7.6415151    333.44975  0.017142183  0.016666394         3913 
 1622000   0.61227609   -7.6457629    333.55216  0.017136876  0.016651548         3917 
 1623000   0.59237967   -7.6436068    333.68541  0.017133159  0.016636713         3927 
 1624000   0.59065606    -7.627828    333.35468  0.017105639  0.016621903         3923 
 1625000   0.60121159   -7.6410153    333.08657  0.017081363  0.016607082         3924 
 1626000   0.61195946   -7.6465973    332.81849  0.017057118  0.016592281         3931 
 1627000   0.60539478   -7.6365014    333.56751  0.017084999  0.016577506         3914 
 1628000   0.60286341   -7.6390951    333.48688  0.017070377  0.016562743         3913 
 1629000   0.60138872   -7.6499899    334.50982  0.017112227  0.016547992         3931 
 1630000   0.58908825   -7.6476086    333.22986  0.017036291  0.016533261         3910 
 1631000   0.60024423   -7.6486088    333.48424  0.017038843  0.016518543         3921 
 1632000   0.60653856   -7.6382361    333.64572  0.017036648  0.016503842         3924 
 1633000   0.60992856   -7.6412442    333.10725  0.016998737  0.016489138         3922 
 1634000   0.60938322   -7.6580943    333.88304  0.017027899  0.016474463         3909 
 1635000   0.60431162   -7.6379709    333.20311  0.016982829  0.016459808         3915 
 1636000   0.59884459   -7.6442607    333.07946   0.01696615  0.016445152         3924 
 1637000   0.60090079   -7.6500057    333.12775  0.016958244  0.016430533         3916 
 1638000   0.61323938   -7.6517293     333.4705  0.016965329  0.016415907         3907 
 1639000   0.60437597   -7.6532386    333.13368  0.016937852  0.016401317         3914 
 1640000   0.60230098    -7.652609    332.92976  0.016917162  0.016386734         3916 
 1641000   0.59882231   -7.6429478    333.53179  0.016937426  0.016372168         3926 
 1642000   0.58629438   -7.6593671    333.06779  0.016903562   0.01635761         3917 
 1643000   0.59704745   -7.6531145    333.47805  0.016914083  0.016343061         3923 
 1644000   0.59052661   -7.6563328    333.31669  0.016895615  0.016328531         3916 
 1645000    0.5858098   -7.6302956    333.03363  0.016871005  0.016314018         3923 
 1646000   0.60211728   -7.6579997    333.17061   0.01686769  0.016299528         3914 
 1647000   0.59509626   -7.6567212    333.04874  0.016851282  0.016285041         3917 
 1648000   0.60735315   -7.6482233    332.53512  0.016815085  0.016270579         3917 
 1649000   0.59182531   -7.6599039    332.55615  0.016805951  0.016256123         3920 
 1650000   0.59441705   -7.6381857    333.49518  0.016843191  0.016241684         3917 
 1651000   0.59556278   -7.6688206    332.95655  0.016805802  0.016227277         3919 
 1652000   0.59013503   -7.6608487    333.30159  0.016813034  0.016212873         3919 
 1653000   0.59020363   -7.6612453    333.83582  0.016829795  0.016198469         3923 
 1654000    0.5757346   -7.6616951    332.99723   0.01677737  0.016184101         3925 
 1655000   0.59082782   -7.6671107    332.86343  0.016760495  0.016169732         3923 
 1656000   0.57913648   -7.6623863     333.5654  0.016785699  0.016155388         3918 
 1657000   0.59875545   -7.6753079     332.9422  0.016744226  0.016141058         3926 
 1658000   0.58232801   -7.6595562    333.13337  0.016743736  0.016126749         3921 
 1659000   0.59776227   -7.6693625    333.30212   0.01674212  0.016112447         3922 
 1660000   0.58074755   -7.6575336    332.70347  0.016701981  0.016098157         3926 
 1661000   0.58262827   -7.6500941    332.80768  0.016697154  0.016083887         3921 
 1662000   0.58570111   -7.6775598    332.78649  0.016686045  0.016069627         3931 
 1663000   0.60023252   -7.6630076    333.32263  0.016702878  0.016055376         3914 
 1664000   0.59466201   -7.6787037    332.94753  0.016674055   0.01604114         3910 
 1665000   0.58796177   -7.6782885    332.52942  0.016643114  0.016026925         3924 
 1666000   0.59736842   -7.6584932    333.61899  0.016687625  0.016012729         3921 
 1667000   0.58110973   -7.6690137     333.2628  0.016659808  0.015998538         3909 
 1668000   0.58550886   -7.6931882    333.11751  0.016642561  0.015984364         3918 
 1669000   0.59754937   -7.6613337    332.87254  0.016620358  0.015970201         3934 
 1670000   0.59275436   -7.6679074    332.68106  0.016600851  0.015956061         3925 
 1671000   0.58972096   -7.6606212    333.02942   0.01660829   0.01594194         3919 
 1672000   0.58917939   -7.6778122    332.78645  0.016586247  0.015927832         3929 
 1673000   0.58631984   -7.6792848    332.68636  0.016571347  0.015913725         3914 
 1674000   0.57859901   -7.6718359    332.91515  0.016572837  0.015899632         3918 
 1675000   0.58686845   -7.6831594    332.77167  0.016555804  0.015885552         3918 
 1676000   0.59489063   -7.6572572    332.71565  0.016543141  0.015871509         3920 
 1677000    0.5920946   -7.6799009    333.32001  0.016563308  0.015857462         3906 
 1678000     0.589702   -7.6952739    332.60346  0.016517851  0.015843441         3916 
 1679000   0.57700835    -7.663478    333.12168  0.016533734  0.015829431         3922 
 1680000   0.58005831   -7.6823718    333.10555  0.016523093   0.01581544         3916 
 1681000   0.59222154   -7.6848574    333.00511  0.016508284  0.015801465         3924 
 1682000   0.57558856   -7.6872438    332.60311  0.016478553    0.0157875         3929 
 1683000   0.58308321   -7.6776586     332.3676    0.0164571  0.015773544         3933 
 1684000    0.5822113   -7.6939244    332.69661  0.016463609    0.0157596         3928 
 1685000   0.58743546   -7.6969256    332.94013  0.016465882  0.015745682         3933 
 1686000   0.59377051   -7.6632084    332.78096  0.016448248  0.015731776         3930 
 1687000   0.57232518   -7.6896111    332.73239  0.016436099  0.015717876         3917 
 1688000   0.59388856   -7.6752074     332.5632   0.01641801  0.015703995         3921 
 1689000   0.58494865   -7.6886231    332.56534  0.016408394  0.015690149         3917 
 1690000    0.5811731   -7.6913375    332.13828  0.016377627  0.015676298         3926 
 1691000   0.57476279   -7.6951731    332.47469   0.01638452  0.015662455         3924 
 1692000   0.57490829   -7.6704125    332.68101  0.016384999  0.015648634         3911 
 1693000   0.59511486    -7.674789    333.04329  0.016393153  0.015634826         3926 
 1694000   0.58046603   -7.6794174    333.30516  0.016396358   0.01562103         3922 
 1695000   0.57590937   -7.6766874    332.72068  0.016357949  0.015607261         3917 
 1696000   0.57561734    -7.681544    332.79599  0.016352004    0.0155935         3932 
 1697000   0.58264124   -7.6858921    333.39899  0.016371979  0.015579762         3923 
 1698000   0.57524883   -7.6868665    332.77647  0.016331786  0.015566032         3925 
 1699000   0.57050337   -7.6769229     332.6548  0.016316206  0.015552312         3931 
 1700000   0.57180733   -7.6738028    332.62027  0.016304915  0.015538599         3917 
 1701000   0.58176583   -7.6848414    332.94611  0.016311293  0.015524913         3922 
 1702000    0.5754104   -7.6630186    332.60875  0.016285191  0.015511228         3921 
 1703000    0.5691371   -7.6779294    333.13623   0.01630144  0.015497569         3936 
 1704000   0.57601078   -7.6684559    332.47341  0.016259459  0.015483929         3918 
 1705000   0.57459547   -7.6859898    332.37446  0.016245086   0.01547029         3919 
 1706000   0.56247747   -7.6958811    332.62475   0.01624779  0.015456684         3921 
 1707000   0.57941061   -7.6882336     332.3722  0.016225942  0.015443074         3931 
 1708000   0.57956219   -7.6846223    333.34223   0.01626377  0.015429491         3918 
 1709000   0.57088619   -7.6695214    332.87579  0.016231509  0.015415917         3917 
 1710000   0.57226374   -7.6909763    332.72322  0.016214582  0.015402359         3918 
 1711000   0.57085813   -7.6913569    332.20262   0.01617975  0.015388814         3930 
 1712000   0.56891831   -7.6788977    332.84788  0.016201708  0.015375283         3922 
 1713000   0.57875762   -7.7095979    332.54071  0.016177307   0.01536176         3918 
 1714000   0.56664646   -7.7075435    332.51674  0.016166703  0.015348255         3921 
 1715000   0.57023489   -7.6803713    332.67367  0.016164901  0.015334777         3926 
 1716000   0.55808915   -7.6737293    332.59401  0.016151613  0.015321292         3924 
 1717000   0.56402462   -7.7144112    332.93253  0.016158636  0.015307826         3926 
 1718000   0.56958452   -7.6916185    333.12077  0.016158361  0.015294385         3928 
 1719000   0.56512222    -7.693675    332.87919   0.01613725  0.015280962         3920 
 1720000   0.56059879   -7.7055964    332.70809  0.016119578  0.015267536         3924 
 1721000   0.56569177   -7.7113019    332.99355  0.016124034  0.015254131         3918 
 1722000   0.56132637   -7.6828033    332.18052  0.016075325  0.015240736         3931 
 1723000   0.55319724   -7.7009735    332.71359  0.016091778  0.015227353         3912 
 1724000   0.56918166   -7.6885228     332.7858  0.016085934  0.015213994         3934 
 1725000   0.56425788   -7.6940639    332.16193   0.01604647  0.015200643         3919 
 1726000   0.55649696    -7.711234    332.62582   0.01605957  0.015187311         3923 
 1727000   0.54309262   -7.7056719    333.08503   0.01607243  0.015173979         3929 
 1728000   0.56874031   -7.6939955    332.65874   0.01604257  0.015160673         3913 
 1729000   0.55849454   -7.6951237      332.428  0.016022171  0.015147388         3932 
 1730000   0.56355306   -7.7059138    332.36597  0.016009921    0.0151341         3922 
 1731000   0.57173456   -7.6958984    332.44693   0.01600457   0.01512083         3921 
 1732000   0.55628091   -7.7016673    332.33085  0.015989745  0.015107581         3936 
 1733000   0.55788427   -7.6917094    331.84472  0.015957142  0.015094341         3912 
 1734000   0.57211779   -7.6969129    332.26394  0.015968086  0.015081111         3928 
 1735000   0.55585474   -7.7013601    332.48967  0.015969725    0.0150679         3921 
 1736000   0.57000453   -7.7067375    333.25367    0.0159972  0.015054713         3928 
 1737000   0.56064939   -7.7335303    332.19584  0.015937241  0.015041523         3921 
 1738000   0.56191103   -7.6890592     332.1249  0.015924669  0.015028358         3918 
 1739000   0.55045311   -7.7130737    333.01105  0.015957976  0.015015195         3921 
 1740000   0.56020517   -7.7276293    332.17716  0.015908868  0.015002045         3918 
 1741000   0.56695234   -7.6956896    332.41759  0.015911238  0.014988912         3929 
 1742000   0.55913471   -7.7128066    332.38643  0.015900614  0.014975803         3926 
 1743000   0.55014044   -7.6885367    332.21253  0.015883177  0.014962709         3928 
 1744000   0.56784462     -7.70024    332.65426  0.015895177  0.014949625         3930 
 1745000   0.54994115   -7.7155496    332.33554  0.015870847  0.014936551         3920 
 1746000   0.54614691   -7.7145281    331.53619  0.015823606  0.014923494         3929 
 1747000   0.53177688   -7.7128967    332.47798  0.015859472  0.014910445         3932 
 1748000   0.55956636   -7.7225369    331.95273  0.015825359  0.014897401         3924 
 1749000    0.5443386   -7.7050471    331.83758  0.015810824  0.014884387         3929 
 1750000   0.55982565   -7.7060564    331.78318  0.015799199  0.014871385         3914 
 1751000   0.54800953   -7.7055748    332.55094  0.015826715  0.014858401         3935 
 1752000   0.55970868   -7.6890255    332.06737  0.015794681   0.01484542         3916 
 1753000   0.54412866   -7.7052555    332.62637  0.015812244  0.014832456         3926 
 1754000   0.55697402   -7.7099228    332.24505  0.015785113  0.014819498         3928 
 1755000   0.54927596   -7.7163266    332.16401   0.01577227  0.014806563         3920 
 1756000   0.56036615   -7.7213573    332.40617   0.01577478   0.01479365         3916 
 1757000   0.55224483    -7.719656    331.83368  0.015738649  0.014780746         3924 
 1758000    0.5620115   -7.7195203    332.03184   0.01573909  0.014767852         3924 
 1759000   0.55584276    -7.715072    332.09847  0.015733299  0.014754975         3921 
 1760000    0.5531179   -7.7239281    332.01289  0.015720307  0.014742105         3935 
 1761000   0.55085424   -7.7204132    331.87773  0.015704984  0.014729254         3939 
 1762000   0.55490653   -7.7145448    332.29183  0.015715656  0.014716408         3927 
 1763000    0.5520366   -7.7267711    332.38914  0.015711341  0.014703566         3942 
 1764000   0.54381033   -7.7259665    332.01173  0.015684605  0.014690755         3931 
 1765000   0.54411649   -7.7217475    331.82149  0.015666737  0.014677945         3933 
 1766000   0.54109575   -7.7177185    331.94994  0.015663927  0.014665144         3941 
 1767000   0.54714322   -7.7222671    331.77223  0.015646681  0.014652367         3926 
 1768000   0.54661004      -7.7192    331.10157   0.01560622  0.014639606         3927 
 1769000   0.54295106   -7.7337956    331.58966  0.015620391  0.014626848         3937 
 1770000   0.54904931   -7.7288045    332.02263   0.01563195  0.014614115         3929 
 1771000   0.56041582   -7.7288624    331.83023  0.015614071  0.014601396         3939 
 1772000   0.54700595   -7.7224612    331.81601   0.01560459   0.01458869         3929 
 1773000   0.55429899   -7.7157117    332.21665   0.01561462  0.014575997         3929 
 1774000   0.55648348   -7.7062131    332.30777  0.015610098  0.014563319         3933 
 1775000    0.5460855   -7.7348212    331.74482  0.015574874  0.014550641         3934 
 1776000   0.53061659   -7.7319867    331.50799  0.015554992   0.01453799         3925 
 1777000   0.55446481   -7.7273928    331.79442  0.015559671  0.014525348         3932 
 1778000   0.54076911   -7.7384108    331.77463  0.015549992  0.014512719         3942 
 1779000   0.53931828   -7.7198178    331.47265  0.015527106  0.014500111         3924 
 1780000    0.5469229   -7.7219859    332.21666  0.015553214  0.014487508         3940 
 1781000   0.54586655   -7.7334593    332.16622  0.015542121  0.014474927         3934 
 1782000     0.538407   -7.7378801    331.32421  0.015494024  0.014462352         3934 
 1783000   0.54439206    -7.727084    332.38638  0.015534977   0.01444979         3927 
 1784000    0.5485342    -7.741976    331.72404  0.015495331  0.014437234         3930 
 1785000   0.52221557   -7.7246969    331.48235  0.015475366  0.014424692         3940 
 1786000   0.53808692   -7.7261828    331.46187  0.015465746  0.014412167         3944 
 1787000   0.53711916   -7.7150898    331.49824  0.015458788  0.014399656         3923 
 1788000   0.54148141   -7.7301127    331.71735  0.015460354  0.014387173         3933 
 1789000   0.52642782   -7.7385483    330.90774  0.015413999  0.014374684         3931 
 1790000   0.53554785   -7.7247116    331.31879  0.015424525  0.014362217         3939 
 1791000   0.54024976   -7.7292365    331.42922  0.015421051  0.014349761         3927 
 1792000    0.5358823   -7.7302333     331.3836  0.015410324  0.014337314         3928 
 1793000   0.54610464   -7.7276635     332.2019  0.015439761  0.014324888         3939 
 1794000   0.54094539     -7.74259    332.00955   0.01542222  0.014312473         3931 
 1795000   0.53483356   -7.7239936    331.93066  0.015409966  0.014300074         3914 
 1796000   0.53813616   -7.7584309     332.1037  0.015409415  0.014287697         3940 
 1797000   0.52778749   -7.7389848    331.64553  0.015379592  0.014275321         3933 
 1798000    0.5487918   -7.7418305      331.891  0.015382416  0.014262963         3936 
 1799000   0.53790324   -7.7411308    331.90721  0.015374616  0.014250626         3945 
 1800000   0.53562824   -7.7320072    331.77357  0.015359888  0.014238293         3929 
 1801000   0.53820622   -7.7260555    331.77992  0.015351653  0.014225966         3940 
 1802000   0.53317451   -7.7368786    331.69071  0.015339008  0.014213656         3929 
 1803000   0.53476081   -7.7419719    331.73921  0.015332742  0.014201359         3934 
 1804000   0.53429386   -7.7469335    331.63891   0.01531961  0.014189084         3921 
 1805000   0.52469034   -7.7487253    331.96244  0.015326059  0.014176828         3937 
 1806000   0.52706934   -7.7530138    331.62558  0.015302029  0.014164571         3933 
 1807000    0.5277695   -7.7495615    331.09169   0.01526894  0.014152318         3939 
 1808000   0.53400443   -7.7482966    331.68582  0.015287879  0.014140084         3929 
 1809000   0.52266734   -7.7454625    331.69294  0.015279756  0.014127864         3933 
 1810000   0.52789542   -7.7512426    331.70938  0.015272071   0.01411566         3927 
 1811000   0.52303502   -7.7420014     331.7595  0.015265944  0.014103462         3924 
 1812000   0.52216608   -7.7491936    331.23914  0.015233588  0.014091278         3931 
 1813000   0.53640821   -7.7437747    331.51165  0.015237711  0.014079116         3934 
 1814000   0.54376729   -7.7497921    331.38968  0.015223708  0.014066956         3938 
 1815000   0.54475576   -7.7393209    331.35387  0.015213676   0.01405481         3929 
 1816000   0.52524167   -7.7740258    331.22132  0.015199216  0.014042674         3926 
 1817000   0.52194087   -7.7574399    331.56887  0.015206791  0.014030558         3935 
 1818000   0.53916149   -7.7404583    331.30405  0.015186288  0.014018456         3931 
 1819000   0.52663022   -7.7430187    331.52863  0.015188228  0.014006362         3941 
 1820000   0.51994178   -7.7714183    331.69416  0.015187462  0.013994278         3939 
 1821000   0.52229957   -7.7502341    331.40132   0.01516572  0.013982216         3941 
 1822000   0.52312986   -7.7680035    331.07249  0.015142357  0.013970158         3933 
 1823000   0.51595117   -7.7522835    331.87869  0.015170904  0.013958119         3930 
 1824000   0.52410558   -7.7296919    331.33615  0.015137799  0.013946088         3929 
 1825000   0.52121731   -7.7456327    331.51001  0.015137443  0.013934072         3931 
 1826000   0.53703464   -7.7532873    331.69688  0.015137682  0.013922074         3939 
 1827000   0.52577194   -7.7416379    331.57063  0.015123637  0.013910092         3934 
 1828000   0.52723625   -7.7671839    331.68199  0.015120441  0.013898116         3930 
 1829000   0.52388568     -7.75869    331.50682  0.015104193  0.013886167         3942 
 1830000   0.51863978   -7.7739161    331.27992  0.015085607   0.01387422         3937 
 1831000   0.51794862   -7.7508869    331.23315  0.015075239  0.013862287         3930 
 1832000   0.52144544   -7.7456546    331.05286  0.015058809  0.013850367         3930 
 1833000   0.51383863   -7.7690583    331.52758  0.015072176  0.013838461         3940 
 1834000    0.5210748    -7.772105    331.33097  0.015055024  0.013826562         3936 
 1835000   0.51890732   -7.7631731    330.95722  0.015029847  0.013814671         3939 
 1836000   0.51749483   -7.7596945    331.63763  0.015052543  0.013802803         3944 
 1837000   0.51893547   -7.7664657    331.58769  0.015042084  0.013790936         3934 
 1838000   0.51427076   -7.7664449    331.03479  0.015008832  0.013779087         3939 
 1839000    0.5128417   -7.7684983    330.76312   0.01498836  0.013767241         3940 
 1840000   0.51916354   -7.7799689    331.24071  0.015001844  0.013755428         3937 
 1841000    0.5258887   -7.7427499    331.02789  0.014984062  0.013743616         3942 
 1842000    0.5210127   -7.7653644     331.3692  0.014991368  0.013731826         3940 
 1843000   0.52274216   -7.7589318    331.22504  0.014976716  0.013720031         3935 
 1844000   0.50831558   -7.7597697    331.70953  0.014990488   0.01370825         3934 
 1845000   0.51212092   -7.7669316    331.31504  0.014964546  0.013696488         3936 
 1846000   0.51600164   -7.7643541    330.94405  0.014939692  0.013684741         3932 
 1847000   0.51854381   -7.7639977    331.17398  0.014941977  0.013673013         3938 
 1848000   0.51931375   -7.7659091    331.89925  0.014966597  0.013661292         3933 
 1849000   0.49907354   -7.7696076    331.40307   0.01493614  0.013649581         3926 
 1850000   0.50693607   -7.7654939    331.01436  0.014910557  0.013637877         3933 
 1851000   0.52148087   -7.7832993    331.65677  0.014931423  0.013626193         3930 
 1852000   0.51852769    -7.765597    331.14797  0.014900467  0.013614527         3940 
 1853000   0.50829782   -7.7568529    331.39735   0.01490364  0.013602881         3937 
 1854000   0.51921717   -7.7632642    331.61778   0.01490551  0.013591236         3934 
 1855000   0.51810739   -7.7728475    331.27294  0.014881983  0.013579601         3938 
 1856000   0.51903641   -7.7746901    330.55679   0.01484181  0.013567981         3934 
 1857000   0.50124624   -7.7664972     330.7789  0.014843785  0.013556373         3943 
 1858000   0.50516042   -7.7815758     331.0669  0.014848713  0.013544778         3944 
 1859000    0.5084571   -7.7754373    331.07323  0.014841009  0.013533199         3935 
 1860000    0.5107411   -7.7543819    330.99713  0.014829621  0.013521633         3935 
 1861000    0.5075564   -7.7619404    330.68377   0.01480762  0.013510086         3934 
 1862000   0.51522829   -7.7873847    331.22843  0.014824044  0.013498549         3938 
 1863000   0.50193563   -7.7740358    330.86702   0.01479992  0.013487021         3942 
 1864000   0.51109179   -7.7592934    331.41997  0.014816701    0.0134755         3931 
 1865000   0.50270645   -7.7644111     331.1704  0.014797605  0.013463999         3942 
 1866000   0.50944111   -7.7712191    331.11959  0.014787406  0.013452513         3930 
 1867000   0.50615426   -7.7896828    331.01853  0.014774975  0.013441026         3943 
 1868000   0.50446093   -7.7938985    331.56068  0.014791251  0.013429563         3943 
 1869000   0.50338879   -7.7753694    330.27343  0.014725942  0.013418108         3938 
 1870000   0.50965159   -7.7866668    331.29951  0.014763793  0.013406664         3938 
 1871000   0.50705049   -7.7669695    330.95897  0.014740734   0.01339523         3939 
 1872000   0.49553883   -7.7803576    330.97114  0.014733402  0.013383809         3942 
 1873000   0.50098745   -7.7523889    331.15899  0.014733893  0.013372397         3930 
 1874000   0.51000636   -7.7726119    330.94838  0.014716666  0.013361004         3933 
 1875000   0.51788358   -7.7750412    331.43876  0.014730611  0.013349623         3937 
 1876000   0.50749621   -7.7694744    331.25766  0.014714715  0.013338257         3925 
 1877000   0.50522235   -7.7594454    330.74777  0.014684238  0.013326903         3939 
 1878000   0.49936374   -7.7937333     330.7597  0.014676948  0.013315558         3937 
 1879000   0.49549875   -7.7933586    331.05913  0.014682416   0.01330423         3940 
 1880000   0.49580808   -7.7961974    330.79026  0.014662689  0.013292912         3937 
 1881000   0.50453488   -7.7826242    330.97802  0.014663212  0.013281602         3922 
 1882000     0.491691   -7.7854986    330.52077  0.014635174  0.013270307         3928 
 1883000   0.50081068   -7.8053113    331.19833  0.014657388  0.013259019         3935 
 1884000    0.4958324   -7.7898719    330.62945  0.014624445  0.013247739         3924 
 1885000   0.50525783   -7.7816008    330.97551  0.014631985  0.013236482         3939 
 1886000   0.49197237   -7.7848332      330.797   0.01461634  0.013225235         3941 
 1887000   0.49552992   -7.7772733    330.89094  0.014612742  0.013213998         3931 
 1888000    0.5009855   -7.7887688    330.66761  0.014595145  0.013202774         3930 
 1889000     0.509391   -7.7748863    330.78346  0.014592529  0.013191559         3929 
 1890000   0.50134482   -7.7914337    330.33031  0.014564829  0.013180349         3932 
 1891000   0.49808581   -7.7927456    331.09203  0.014590694  0.013169169         3921 
 1892000   0.49849589   -7.7927772    330.37831  0.014551546  0.013157997         3940 
 1893000   0.49718016   -7.7914184    330.84062  0.014564211  0.013146838         3939 
 1894000   0.49050547   -7.7796484    330.57161  0.014544685  0.013135685         3930 
 1895000   0.49553894   -7.7843943    330.76104  0.014545341  0.013124549         3938 
 1896000   0.49677644   -7.7778972    330.53751  0.014527844  0.013113416         3937 
 1897000   0.49193237   -7.7889029    330.71743   0.01452809  0.013102305         3932 
 1898000   0.48532442   -7.7899551    330.47186  0.014509653  0.013091207         3941 
 1899000   0.48733274   -7.7747564    331.16036  0.014532226   0.01308012         3938 
 1900000   0.50088569   -7.7938957    330.76984  0.014507449  0.013069046         3935 
 1901000   0.50050953    -7.783979     330.5545  0.014490378  0.013057975         3930 
 1902000   0.49429082   -7.7942502    330.30108  0.014471656   0.01304691         3927 
 1903000   0.48936791   -7.8087461    330.36151  0.014466698   0.01303586         3936 
 1904000   0.49402794   -7.7934707     330.6756  0.014472846  0.013024825         3935 
 1905000   0.49238978   -7.8089161    330.40081  0.014453229  0.013013806         3940 
 1906000   0.49765789   -7.7918062      330.948   0.01446957  0.013002792         3939 
 1907000   0.49054911   -7.8057243    330.97912  0.014463342  0.012991803         3932 
 1908000   0.48611343   -7.7997127    330.73558  0.014445125  0.012980817         3938 
 1909000   0.48823157   -7.7969754    330.81421   0.01444099  0.012969843         3922 
 1910000    0.4859601   -7.7932861    330.49225  0.014419383  0.012958879         3932 
 1911000   0.48233127   -7.8040564    330.67442  0.014419781  0.012947937         3933 
 1912000   0.47428498   -7.7883369    330.50444  0.014404831     0.012937         3931 
 1913000   0.49470249   -7.8179083    331.00204  0.014418977  0.012926069         3928 
 1914000   0.48938624    -7.802265    330.36728  0.014383807  0.012915159         3931 
 1915000   0.48265398   -7.8048269    330.92851  0.014400718  0.012904259         3926 
 1916000   0.48673561   -7.8087364    330.24929  0.014363661  0.012893363         3933 
 1917000   0.48611093   -7.7920486    330.46752  0.014365655  0.012882484         3932 
 1918000   0.48422312   -7.7982699    331.09818  0.014385566  0.012871619         3935 
 1919000   0.48217007   -7.7832017    330.80656  0.014365406  0.012860769         3934 
 1920000   0.48162539   -7.7919455    330.57332    0.0143478  0.012849923         3937 
 1921000   0.48461948   -7.7987937    330.33471   0.01432998  0.012839096         3937 
 1922000   0.48122392   -7.8104194    330.79161  0.014342335  0.012828273         3940 
 1923000   0.48292811   -7.7974251    331.04155  0.014345708  0.012817462         3947 
 1924000    0.4796935   -7.7906109     330.4386  0.014312136  0.012806662         3938 
 1925000   0.49430868   -7.8051965    330.48728  0.014306809  0.012795873         3925 
 1926000   0.48950508    -7.820146     331.0371   0.01432317  0.012785093         3935 
 1927000   0.48412902   -7.8043189    330.68266  0.014300409   0.01277432         3930 
 1928000    0.4723877   -7.8199222    330.79503  0.014297849  0.012763566         3938 
 1929000   0.48018916   -7.7925468    330.62888  0.014283259  0.012752823         3943 
 1930000   0.49381125   -7.7890194    330.04975  0.014250853    0.0127421         3940 
 1931000   0.47823008   -7.8147462    330.53637  0.014264473  0.012731382         3943 
 1932000   0.48303396   -7.7968948    330.66337  0.014262568  0.012720679         3937 
 1933000   0.48477155   -7.8071611    330.42087  0.014244735  0.012709979         3944 
 1934000   0.48079209   -7.8064512    330.44873   0.01423857  0.012699295         3939 
 1935000   0.48328575   -7.8123731    330.43382   0.01423057  0.012688618         3936 
 1936000   0.47286926   -7.8158277    330.32871  0.014218695  0.012677956         3941 
 1937000   0.47059658   -7.8193101    330.09447  0.014201276  0.012667306         3931 
 1938000   0.47840512   -7.8072101    330.15508  0.014196555  0.012656665         3942 
 1939000    0.4744782   -7.8207121     330.3227  0.014196437   0.01264603         3930 
 1940000   0.47967988   -7.8147185    330.57524  0.014199968  0.012635419         3934 
 1941000    0.4897434   -7.8187177    330.46872  0.014188078  0.012624809         3932 
 1942000   0.47887585   -7.8188938    330.54714  0.014184137  0.012614215         3934 
 1943000   0.47187423   -7.8181285    330.61058  0.014179558  0.012603639         3941 
 1944000   0.48367104   -7.8020767    330.43743  0.014164842  0.012593069         3936 
 1945000   0.47884126   -7.8175332      330.093  0.014142802  0.012582517         3928 
 1946000   0.47389538   -7.8165101    330.49918  0.014152928  0.012571963         3938 
 1947000   0.47376729   -7.8135011    330.00449  0.014124486   0.01256142         3944 
 1948000   0.47218442   -7.8375436    330.32348  0.014130881  0.012550894         3936 
 1949000   0.46789066   -7.7935817    329.95726  0.014107973  0.012540372         3937 
 1950000   0.48320091   -7.8136664    330.04143  0.014104335  0.012529866         3935 
 1951000   0.46958358   -7.8128214    330.45247  0.014114662  0.012519369         3936 
 1952000   0.47441893   -7.8079946    329.90138  0.014083905  0.012508886         3945 
 1953000   0.47680075    -7.827588    330.41694  0.014098692  0.012498416         3937 
 1954000   0.48017338   -7.8114419    330.37304  0.014089604  0.012487958         3935 
 1955000   0.48226797   -7.8167974      330.559  0.014090324  0.012477515         3942 
 1956000   0.47575299    -7.817725    330.29831  0.014072014  0.012467074         3940 
 1957000   0.46658501   -7.8317631    330.36968  0.014067863  0.012456656         3926 
 1958000    0.4808333   -7.7945066    329.79195  0.014036089  0.012446246         3932 
 1959000    0.4829225    -7.813245    330.31461  0.014051157  0.012435845         3935 
 1960000   0.46823993   -7.8213913    330.56437  0.014054608  0.012425454         3942 
 1961000   0.46410689   -7.8264066    330.55043  0.014046848  0.012415075         3934 
 1962000   0.47772638   -7.8253087    330.52673  0.014038682  0.012404703         3932 
 1963000   0.47676356   -7.8231337    330.44701  0.014028146  0.012394346         3932 
 1964000   0.46469554   -7.8234427    330.53124  0.014024578  0.012383999         3941 
 1965000   0.46097578   -7.8316728    330.05655  0.013997309  0.012373662         3935 
 1966000   0.47027732   -7.8253203    330.09872  0.013991977  0.012363336         3934 
 1967000   0.46568019   -7.8356228    330.22231    0.0139901  0.012353023         3941 
 1968000   0.46545817   -7.8194707    330.11093  0.013978274  0.012342725         3940 
 1969000   0.45928024   -7.8268283    330.01716  0.013967207  0.012332429         3932 
 1970000   0.46446738   -7.8203709    330.12335  0.013964609  0.012322149         3946 
 1971000   0.46474887   -7.8255001    329.96068  0.013950646  0.012311875         3947 
 1972000   0.46062402    -7.840014    329.83059  0.013938074  0.012301615         3936 
 1973000   0.47726585   -7.8260404    330.24846   0.01394866  0.012291369         3933 
 1974000    0.4696028   -7.8256483    329.96657  0.013929693   0.01228113         3932 
 1975000   0.47155662   -7.8267204    329.79945  0.013915589  0.012270898         3941 
 1976000   0.47302379   -7.8147653     329.7012  0.013904403  0.012260683         3939 
 1977000   0.46484243   -7.8352334    330.02082  0.013910842  0.012250479         3943 
 1978000   0.46051717   -7.8316905    330.19137  0.013910995  0.012240285         3942 
 1979000   0.45552333   -7.8213913    329.85248  0.013889695  0.012230104         3933 
 1980000   0.45862119   -7.8323059    330.26169  0.013899903  0.012219931         3946 
 1981000    0.4608931   -7.8386721    330.25741  0.013892706   0.01220977         3936 
 1982000   0.45649759   -7.8154294    329.41933  0.013850459  0.012199619         3941 
 1983000   0.47045292   -7.8212805    330.07994  0.013871236  0.012189482         3933 
 1984000   0.46613502   -7.8384134    330.18257  0.013868555  0.012179357         3933 
 1985000   0.45085028   -7.8321885    330.16258   0.01386073  0.012169243         3936 
 1986000   0.45864286   -7.8261217     329.1151  0.013809798  0.012159133         3937 
 1987000   0.45320595   -7.8402337    329.84231  0.013833346  0.012149045         3942 
 1988000    0.4614587   -7.8423629    330.08188   0.01383643  0.012138955         3934 
 1989000   0.46616424   -7.8196267    330.14274  0.013832024  0.012128884         3942 
 1990000   0.45717239   -7.8381102     329.4216  0.013794874  0.012118821         3940 
 1991000    0.4606255   -7.8460514    329.60045  0.013795431  0.012108768         3942 
 1992000   0.46907743   -7.8595943    329.84833  0.013798876  0.012098724         3940 
 1993000   0.46418199   -7.8435034    330.05265  0.013800496  0.012088692         3942 
 1994000   0.45904516   -7.8257814    330.14726  0.013797529  0.012078679         3934 
 1995000   0.45167066   -7.8546263    329.88856  0.013779806  0.012068667         3938 
 1996000   0.45618825   -7.8357108    329.57386  0.013759764  0.012058671         3931 
 1997000   0.45471358   -7.8383132    330.29844   0.01378311  0.012048691         3939 
 1998000   0.45574471   -7.8369596    329.97324  0.013762648  0.012038713         3950 
 1999000    0.4513608   -7.8425881    329.65572  0.013742526  0.012028755         3941 
 2000000   0.44889592   -7.8337003    329.40427  0.013725178  0.012018802         3933 
 2001000   0.46099055   -7.8276598    329.42063     0.013719   0.01200885         3939 
 2002000   0.45095179   -7.8411851    329.67489  0.013722731  0.011998914         3942 
 2003000   0.45184056   -7.8489146    329.80656  0.013721358  0.011988994         3939 
 2004000   0.45461813   -7.8594361     329.8951  0.013718193  0.011979075         3936 
 2005000   0.46147385   -7.8696688    330.15093  0.013721984  0.011969176         3940 
 2006000   0.45170034   -7.8449654     329.9241  0.013705721  0.011959289         3933 
 2007000   0.45845794   -7.8465503    330.02679  0.013703155  0.011949408         3934 
 2008000   0.44965245   -7.8499181    329.68994  0.013682351  0.011939541         3940 
 2009000   0.44415968    -7.841832    329.49852  0.013667601  0.011929679         3937 
 2010000   0.45285004   -7.8545742    329.61248  0.013665526  0.011919832         3940 
 2011000    0.4562419   -7.8511163    329.93367   0.01367204  0.011909989         3936 
 2012000   0.45550927   -7.8554633    329.67323  0.013654458  0.011900159         3941 
Loop time of 4285.97 on 48 procs for 2000000 steps with 4000 atoms

Performance: 80635.193 tau/day, 466.639 timesteps/s
99.4% CPU use with 48 MPI tasks x no OpenMP threads

MPI task timing breakdown:
Section |  min time  |  avg time  |  max time  |%varavg| %total
---------------------------------------------------------------
Pair    | 258.81     | 269.58     | 284.9      |  31.4 |  6.29
Neigh   | 26.386     | 27.052     | 27.745     |   5.4 |  0.63
Comm    | 231.96     | 244.8      | 260.37     |  41.5 |  5.71
Output  | 4.5279     | 4.5303     | 4.5671     |   0.3 |  0.11
Modify  | 3674.9     | 3692.5     | 3704.9     |  13.7 | 86.15
Other   |            | 47.54      |            |       |  1.11

Nlocal:        83.3333 ave          89 max          78 min
Histogram: 1 2 3 14 8 8 4 4 2 2
Nghost:        1766.65 ave        1783 max        1753 min
Histogram: 3 2 5 7 12 6 5 5 0 3
Neighs:        10543.9 ave       11330 max        9918 min
Histogram: 1 5 4 13 9 6 3 4 2 1
FullNghs:      21088.9 ave       22499 max       19822 min
Histogram: 2 1 6 10 11 7 2 7 0 2

Total # of neighbors = 1012266
Ave neighs/atom = 253.06650
Neighbor list builds = 107938
Dangerous builds = 0

#clear
#
#next RN
#
#jump SELF
Total wall time: 1:11:29
