
units lj                  # Use reduced LJ style units
atom_style atomic         # Uncharged point particles
atom_modify map hash      # Needed for indexing of clusters etc
                          # Used to be able to find where atoms are in relation to each other.

lattice fcc 1.0 spacing 1 1 1
Lattice spacing in x,y,z = 1.5874011 1.5874011 1.5874011
region box block 0 10 0 10 0 10 units lattice
create_box 2 box
Created orthogonal box = (0.0000000 0.0000000 0.0000000) to (15.874011 15.874011 15.874011)
  3 by 4 by 4 MPI processor grid
create_atoms 1 box
Created 4000 atoms
  using lattice units in orthogonal box = (0.0000000 0.0000000 0.0000000) to (15.874011 15.874011 15.874011)
  create_atoms CPU = 0.019 seconds
set type 1 type/fraction 2 0.16 78393
Setting atom values ...
  677 settings made for type/fraction
mass 1 1.0
mass 2 1.0
pair_style lj/cut  3.5
pair_modify tail  yes
pair_coeff 1  1  1.0  1.0   # Intearaction between 1 and 1 set with epsilon = 1 and sigma = 1
pair_coeff 1  2  1.5  0.8
pair_coeff 2  2  0.5  0.88

write_data data.0
System init for write_data ...
Neighbor list info ...
  update every 1 steps, delay 10 steps, check yes
  max neighbors/atom: 2000, page size: 100000
  master list distance cutoff = 3.8
  ghost atom cutoff = 3.8
  binsize = 1.9, bins = 9 9 9
  1 neighbor lists, perpetual/occasional/extra = 1 0 0
  (1) pair lj/cut, perpetual
      attributes: half, newton on
      pair build: half/bin/atomonly/newton
      stencil: half/bin/3d
      bin: standard
WARNING: Not all mixed pair coeffs generated from mixing. Use write_data with 'pair ij' option to store all pair coeffs. (../write_data.cpp:312)


#############################
#   M E L T   S Y S T E M   #
#############################

velocity all create 2.4 6583654 mom yes dist gaussian # Assign velocities
                                                    # Temperature 2.4, random number seed, zero linear momentum
                                                                                # Gaussian distribution

timestep 0.002   # simulation timestep
thermo 1000       # output thermodynamic data every 1000 steps bf 100

# Define a fix  in this case with index 1 applied to all
# particles in the simulation. This fix is for simulations
# in the anisotropic NPT ensemble. Note that we use the MTK
# correction.
fix 1 all npt temp 2.4 2.4 0.1 iso 5.68 5.68 0.5 mtk yes tchain 5 pchain 5 # Use NPT ensemble
                                                                         # Set temperature and pressure and damping
                                                                         # Numbers of thermostats in chain and in barostat
run 10000          # run for 10000 steps
Per MPI rank memory allocation (min/avg/max) = 3.642 | 3.644 | 3.648 Mbytes
Step Temp E_pair E_mol TotEng Press Volume 
       0          2.4   -7.2871769            0   -3.6880769   -3.4159639         4000 
    1000    2.3627241   -4.7516706            0   -1.2084705    5.6125178    4614.1704 
    2000    2.3928012   -4.7194498            0   -1.1311452    6.1975202    4570.8086 
    3000    2.4585378   -4.7091666            0   -1.0222819    5.6812506    4636.7203 
    4000    2.3805778   -4.7001248            0   -1.1301509     5.755543    4618.2674 
    5000     2.371247   -4.7276437            0   -1.1716624    5.6558371     4628.236 
    6000    2.3739096   -4.7369691            0    -1.176995    5.6967562    4603.8733 
    7000    2.4142769     -4.78518            0     -1.16467    5.3874316    4627.1143 
    8000    2.4249232    -4.766271            0   -1.1297955     5.781648    4596.3913 
    9000    2.3811262   -4.8226751            0   -1.2518788    5.6628554    4578.4168 
   10000    2.4193202   -4.8084375            0   -1.1803645    5.8499991    4565.3171 
Loop time of 2.24919 on 48 procs for 10000 steps with 4000 atoms

Performance: 768278.146 tau/day, 4446.054 timesteps/s
99.6% CPU use with 48 MPI tasks x no OpenMP threads

MPI task timing breakdown:
Section |  min time  |  avg time  |  max time  |%varavg| %total
---------------------------------------------------------------
Pair    | 0.94065    | 1.0113     | 1.1274     |   3.6 | 44.96
Neigh   | 0.19343    | 0.20237    | 0.22923    |   1.3 |  9.00
Comm    | 0.67514    | 0.78442    | 0.87182    |   5.1 | 34.88
Output  | 0.00024575 | 0.00025111 | 0.0003352  |   0.0 |  0.01
Modify  | 0.19806    | 0.23614    | 0.27571    |   3.9 | 10.50
Other   |            | 0.01471    |            |       |  0.65

Nlocal:        83.3333 ave          91 max          75 min
Histogram: 1 5 2 7 7 7 8 6 2 3
Nghost:        1501.44 ave        1529 max        1479 min
Histogram: 2 3 6 9 9 8 4 3 2 2
Neighs:        8353.10 ave        9634 max        7384 min
Histogram: 4 2 6 4 15 8 3 5 0 1

Total # of neighbors = 400949
Ave neighs/atom = 100.23725
Neighbor list builds = 905
Dangerous builds = 180

# Equilibrate just above the melting temperature to avoid step fn in T

fix 1 all npt temp 1.25 1.25 0.1 iso 5.68 5.68 0.5 mtk yes tchain 5 pchain 5
run 2000
Per MPI rank memory allocation (min/avg/max) = 3.642 | 3.644 | 3.649 Mbytes
Step Temp E_pair E_mol TotEng Press Volume 
   10000    2.4193202   -4.8084375            0   -1.1803645    5.8499991    4565.3171 
   11000    1.2339784   -6.4378844            0   -4.5873796    5.5586619    3773.3279 
   12000     1.214033   -6.3939487            0   -4.5733545     5.928172    3765.9704 
Loop time of 0.505224 on 48 procs for 2000 steps with 4000 atoms

Performance: 684052.839 tau/day, 3958.639 timesteps/s
99.6% CPU use with 48 MPI tasks x no OpenMP threads

MPI task timing breakdown:
Section |  min time  |  avg time  |  max time  |%varavg| %total
---------------------------------------------------------------
Pair    | 0.22712    | 0.24107    | 0.2575     |   1.6 | 47.72
Neigh   | 0.033053   | 0.03498    | 0.037386   |   0.5 |  6.92
Comm    | 0.15638    | 0.1729     | 0.1916     |   2.3 | 34.22
Output  | 5.1075e-05 | 5.2518e-05 | 6.6424e-05 |   0.0 |  0.01
Modify  | 0.042889   | 0.051686   | 0.061477   |   2.0 | 10.23
Other   |            | 0.004535   |            |       |  0.90

Nlocal:        83.3333 ave          89 max          71 min
Histogram: 1 0 0 1 1 10 14 9 8 4
Nghost:        1705.15 ave        1722 max        1683 min
Histogram: 2 0 0 8 9 11 5 4 7 2
Neighs:        10133.1 ave       10891 max        8732 min
Histogram: 1 0 1 3 5 11 8 5 8 6

Total # of neighbors = 486387
Ave neighs/atom = 121.59675
Neighbor list builds = 144
Dangerous builds = 10

#############################
# L I N E A R  Q U E N C H  #
#############################

# Define solid atoms. This closely follows ten Wolde  Ruiz-Montero and Frenkel  Faraday Discuss  1996  104  93-110
# Compute components of the per-atom q6 vector
compute q6 all orientorder/atom degrees 1 6 components 6 nnn NULL cutoff 1.3 # compute the Q6 parameter.
                                                                             # Use all neighbours within 1.3 unit cell.

# get number of connections
compute coord_number all coord/atom orientorder q6 0.5

# An atom is solid if it has 8 or more connections (of a possible 14)
variable is_solid atom c_coord_number>=8
group solid dynamic all var is_solid    # Must be dynamic to update
dynamic group solid defined

# do clustering
compute cluster solid cluster/atom 1.3 # Create a cluster where all atoms within are solid and max 1.3 units from another member

# define chunks one chunk per cluster
compute clus_chunks solid chunk/atom c_cluster nchunk every compress yes  # Says which atoms are in which chunk

# count the size of each chunk
compute size_chunks solid property/chunk clus_chunks count


# Find the maximum entry in the vector of chunk sizes
variable max_n equal max(c_size_chunks)


# Thermo style which includes this variable
# thermo_style custom step temp pe vol v_max_n

thermo ${N}  # Print the thermo information every 100 steps
thermo 1000  

# Reset the npt fix at a lower temperature (below freezing)
fix 1  all npt temp  ${temp} ${temp}  0.1  iso  5.68  5.68  0.5  mtk yes tchain  5  pchain  5
fix 1  all npt temp  0.45 ${temp}  0.1  iso  5.68  5.68  0.5  mtk yes tchain  5  pchain  5
fix 1  all npt temp  0.45 0.45  0.1  iso  5.68  5.68  0.5  mtk yes tchain  5  pchain  5

dump dmp2 all dcd ${N} traj.dcd
dump dmp2 all dcd 1000 traj.dcd


compute msd all msd com yes
variable twopoint equal c_msd[4]/6/(step*dt+1.0e-6)
fix 9 all vector 10 c_msd[4]
variable fit equal slope(f_9)/6/(10*dt)
thermo_style custom step temp pe c_msd[4] v_twopoint v_fit v_max_n

fix 1 all npt temp 1.25 ${temp} 0.1 iso 5.68 5.68 0.5 mtk yes tchain 5 pchain 5
fix 1 all npt temp 1.25 0.45 0.1 iso 5.68 5.68 0.5 mtk yes tchain 5 pchain 5
run 2000000 # 5000000  # Run for this many steps
Neighbor list info ...
  update every 1 steps, delay 10 steps, check yes
  max neighbors/atom: 2000, page size: 100000
  master list distance cutoff = 3.8
  ghost atom cutoff = 3.8
  binsize = 1.9, bins = 9 9 9
  4 neighbor lists, perpetual/occasional/extra = 1 3 0
  (1) pair lj/cut, perpetual
      attributes: half, newton on
      pair build: half/bin/atomonly/newton
      stencil: half/bin/3d
      bin: standard
  (2) compute orientorder/atom, occasional
      attributes: full, newton on
      pair build: full/bin/atomonly
      stencil: full/bin/3d
      bin: standard
  (3) compute coord/atom, occasional
      attributes: full, newton on
      pair build: full/bin/atomonly
      stencil: full/bin/3d
      bin: standard
  (4) compute cluster/atom, occasional
      attributes: full, newton on
      pair build: full/bin/atomonly
      stencil: full/bin/3d
      bin: standard
Per MPI rank memory allocation (min/avg/max) = 9.764 | 9.769 | 9.773 Mbytes
Step Temp PotEng c_msd[4] v_twopoint v_fit v_max_n 
   12000     1.214033   -6.3939487 3.4090624e-30 2.3674043e-32 8.3333333e+20            3 
   13000    1.2435812   -6.4087883    0.5719394 0.0036662781  0.048107779            2 
   14000    1.2377906   -6.4451688    1.1203124 0.0066685261  0.046227337            4 
   15000    1.2573824    -6.473368    1.6052655 0.0089181416  0.044826841            4 
   16000    1.2409132   -6.4106392    2.1833211  0.011371464  0.044289387            3 
   17000    1.2266748   -6.4630559    2.7986175  0.013718713  0.045216057            5 
   18000     1.235033   -6.4317387    3.3071853  0.015311043  0.045630492            1 
   19000    1.2505585   -6.4224186    3.8045639  0.016686683  0.045457317            2 
   20000    1.2603293   -6.4704923    4.3094262  0.017955942  0.044988183            2 
   21000    1.2315857   -6.4072951    4.9020522  0.019452588  0.044917907            2 
   22000    1.2167894   -6.3825451    5.3878662  0.020408584  0.044795503            2 
   23000    1.2264098   -6.4402738    5.9658486  0.021615393  0.044723064            2 
   24000    1.2387466   -6.4517292    6.4021213  0.022229587  0.044601976            3 
   25000    1.2340672   -6.4308269    6.8164105  0.022721368  0.044288209            2 
   26000    1.2444747   -6.4079935    7.2315406  0.023178014  0.043751714            2 
   27000    1.2665276   -6.4516454    7.8081561  0.024099247   0.04337671            2 
   28000    1.2242557   -6.4086046    8.3268685  0.024782346  0.043138359            2 
   29000    1.2747783   -6.4616161    8.9288384  0.025657581  0.043043927            1 
   30000    1.2609944    -6.433986    9.3549282  0.025985911  0.042928979            1 
   31000    1.2643437   -6.4548364     9.844106   0.02646265  0.042830384            2 
   32000    1.2317642   -6.4534415    10.413174  0.027117641   0.04276396            1 
   33000    1.2216134   -6.4772429      10.9415  0.027630049  0.042762375            3 
   34000    1.2443798   -6.4008954    11.449518  0.028062543  0.042791672            2 
   35000    1.2339199   -6.4753733    11.893169   0.02831707   0.04277818            2 
   36000    1.2703937   -6.4513295    12.395158  0.028692495  0.042714299            1 
   37000     1.225545   -6.4442178     12.96149  0.029192545  0.042680004            2 
   38000    1.2361827   -6.4503207    13.402482  0.029391407  0.042630301            3 
   39000    1.2288669   -6.4661091    13.909335  0.029720801  0.042587348            2 
   40000    1.2339906   -6.4485291    14.463276  0.030131825  0.042573787            1 
   41000    1.2288546   -6.4845164    14.980116   0.03044739  0.042569111            2 
   42000    1.2452095   -6.4188478    15.489672  0.030733475  0.042562274            2 
   43000    1.2391413   -6.4482836    16.028008  0.031062031   0.04256921            2 
   44000    1.2316753   -6.4654915     16.42345  0.031105018  0.042564475            3 
   45000      1.22067   -6.4311318    16.995596  0.031473326  0.042535844            2 
   46000    1.2153117   -6.4502554    17.519219  0.031737716  0.042510413            1 
   47000    1.2375147   -6.4497865      18.0633  0.032027128  0.042509943            2 
   48000     1.254647   -6.4576216    18.537967   0.03218397   0.04251528            2 
   49000    1.2402341   -6.4538261    19.024087   0.03235389  0.042497596            1 
   50000    1.2386538   -6.4822476    19.554599  0.032590997  0.042509905            3 
   51000    1.2274252   -6.4489635    20.162138   0.03294467  0.042512788            1 
   52000    1.2426874    -6.460582    20.754542  0.033260484  0.042539654            2 
   53000    1.2240385    -6.448333    21.358364  0.033582333   0.04259068            3 
   54000    1.2537616   -6.4670099     21.72875  0.033532022  0.042634246            1 
   55000    1.2294131    -6.441777    22.281617  0.033760025  0.042665544            2 
   56000    1.2220068   -6.4492915     22.75714  0.033864791  0.042681077            2 
   57000    1.2168357    -6.455765    23.332939  0.034112484  0.042721593            2 
   58000    1.2319239   -6.5111019    23.947773  0.034407719  0.042769618            2 
   59000    1.2173499   -6.4860328    24.425303  0.034499015  0.042819307            1 
   60000    1.2262051   -6.4667806    24.961521  0.034668779  0.042870698            3 
   61000    1.2289968   -6.4743839    25.707149  0.035119056  0.042931494            1 
   62000    1.2416866   -6.4708229    26.117033  0.035103539  0.042984778            2 
   63000     1.240167   -6.4547419    26.480315  0.035026872  0.043011657            2 
   64000    1.2379081   -6.4659792    27.010519  0.035169947  0.043023028            4 
   65000    1.2328524   -6.4456494     27.65454  0.035454538  0.043034983            2 
   66000    1.2183034   -6.4169523    28.221917  0.035633733  0.043063841            2 
   67000    1.2429955   -6.4895981    28.457899  0.035395396  0.043076043            2 
   68000    1.2164306   -6.4320983    29.041599  0.035590195  0.043074997            2 
   69000    1.2221475   -6.4559379    29.542721  0.035679615  0.043094428            4 
   70000    1.2254777   -6.4664966    30.166019  0.035911927  0.043098217            3 
   71000    1.2205641   -6.4683822    30.626113  0.035946142  0.043111207            1 
   72000    1.2429719   -6.4762158    31.303114  0.036230455  0.043138455            5 
   73000    1.2438697     -6.49521    31.779672  0.036278164  0.043164598            4 
   74000    1.2490931   -6.4754004    32.359615  0.036441008  0.043186983            3 
   75000    1.1815408   -6.4811273    32.662353  0.036291503  0.043200044            2 
   76000     1.251765   -6.4784582    33.273103  0.036483666   0.04320676            2 
   77000    1.1967734   -6.5082083    33.843252  0.036626896  0.043215184            2 
   78000     1.243098   -6.4780217    34.482443  0.036840217  0.043223461            3 
   79000    1.2201702    -6.484976    34.663174  0.036564529  0.043225962            2 
   80000    1.2125684   -6.4767792     35.17254  0.036638062  0.043209518            3 
   81000    1.2060304    -6.490121     35.53883  0.036562582   0.04318785            1 
   82000    1.1986544   -6.4636828    36.099922  0.036686912  0.043154523            1 
   83000    1.2145605   -6.4879994    36.429744  0.036576048  0.043126347            3 
   84000    1.1881549   -6.5046791    36.806457  0.036514342  0.043082298            4 
   85000    1.2346847   -6.4759638    37.481948  0.036747008  0.043043197            4 
   86000     1.218906   -6.4814138    37.814741  0.036642191  0.043011809            4 
   87000     1.201832   -6.4803915    38.140536   0.03653308  0.042958494            3 
   88000    1.2278673   -6.4572506    38.648091  0.036598571  0.042906356            1 
   89000    1.2173577   -6.4969029     39.02792  0.036542996   0.04285453            2 
   90000    1.1934621   -6.5525104    39.491822  0.036566501  0.042803862            1 
   91000    1.2216929   -6.5204273    40.016533  0.036645177  0.042751698            2 
   92000    1.2013769   -6.4672392    40.711688  0.036876528  0.042703026            3 
   93000    1.2387877   -6.4890295    41.224669  0.036939667  0.042662949            1 
   94000     1.224702   -6.4533063    41.706678  0.036974005  0.042623946            5 
   95000    1.2142181   -6.4789913    42.204693  0.037021661  0.042587149            5 
   96000    1.2062265   -6.4670324    42.937517   0.03727215  0.042551861            4 
   97000    1.1983178   -6.5047394    43.292275  0.037192676  0.042525429            3 
   98000    1.2081884   -6.4460905    43.747859   0.03720056  0.042498997            2 
   99000    1.2212374   -6.4876288    44.220456  0.037222606  0.042474583            1 
  100000    1.2228047   -6.4926107    44.879694  0.037399745  0.042450875            2 
  101000    1.2252863   -6.5172116    45.396479   0.03745584  0.042437033            1 
  102000     1.198137   -6.4914799    45.682789   0.03732254   0.04242132            1 
  103000    1.2326704   -6.5305142    46.339721  0.037491684  0.042408364            2 
  104000      1.22859    -6.480081    47.114115  0.037751694  0.042396721            2 
  105000    1.2147982   -6.5200252    47.504043  0.037701621  0.042393283            1 
  106000    1.2207437   -6.4693565    48.060359  0.037783301  0.042388244            4 
  107000    1.2234919   -6.4961135    48.363433  0.037666225  0.042377796            2 
  108000     1.207865    -6.484298    49.144089  0.037919822  0.042373429            6 
  109000    1.2256353   -6.4951315    49.644129  0.037954227   0.04237385            1 
  110000    1.2085671   -6.4981112    50.064126  0.037927368  0.042371149            4 
  111000    1.2080679   -6.4947972    50.663247  0.038035471  0.042362699            2 
  112000    1.2418496   -6.4892941    51.124589  0.038039129  0.042359671            2 
  113000    1.1861164   -6.4557281    51.857108  0.038242705  0.042365116            1 
  114000    1.2091071   -6.5290431    52.060509  0.038055928  0.042362844            2 
  115000    1.2002443   -6.5306134    52.430456  0.037993084  0.042358125            2 
  116000     1.219194   -6.4917978    53.034689  0.038099633  0.042352466            2 
  117000     1.191377   -6.5376227     53.67504  0.038230086  0.042350465            2 
  118000    1.1856541   -6.5041102    54.082653  0.038193964  0.042346216            2 
  119000     1.189736   -6.5279288    54.754503   0.03834349  0.042344813            3 
  120000    1.2184358   -6.4958797    55.367913  0.038449939  0.042346416            1 
  121000    1.2071555   -6.5228519    55.820553  0.038443907  0.042348916            3 
  122000    1.1979416   -6.5102949    56.077631  0.038304393  0.042352279            4 
  123000     1.213167   -6.4633108    57.065384  0.038662184  0.042357499            1 
  124000    1.2187829   -6.5706726    57.356524  0.038546051  0.042357054            4 
  125000    1.1935581   -6.5439156    57.682995   0.03845533  0.042361367            2 
  126000    1.2141885   -6.5362808    58.116117  0.038436585  0.042360558            2 
  127000    1.2145334   -6.5457216    58.663424   0.03849306  0.042357277            4 
  128000    1.1983122   -6.4866154    59.193276  0.038537289  0.042353693            4 
  129000    1.2010962   -6.5080603    59.375537   0.03835629  0.042342027            5 
  130000    1.2105755   -6.5016564    59.920433  0.038410534  0.042323663            3 
  131000    1.1693653   -6.4982928    60.173116  0.038278063  0.042307815            2 
  132000    1.1803199   -6.5632008    60.557049   0.03823046  0.042289246            3 
  133000    1.1939809   -6.4693982    61.307146  0.038412999  0.042269267            2 
  134000    1.2034406   -6.5289949    61.438316  0.038207908   0.04224378            2 
  135000    1.2044802   -6.5380336    61.682235  0.038075453  0.042215727            2 
  136000    1.1727579   -6.5358255    62.263164  0.038151449  0.042185098            2 
  137000    1.1576614   -6.5414091     62.52575  0.038032695  0.042157385            1 
  138000    1.2056144   -6.5396559    63.267299   0.03820489  0.042129279            2 
  139000    1.2066676   -6.5518338    63.705415  0.038192695  0.042099249            2 
  140000    1.1836649   -6.4718208    64.140935  0.038179128  0.042070354            2 
  141000    1.2051802   -6.5227727     64.38943  0.038055219  0.042040696            3 
  142000    1.2329263   -6.5414545    64.852038  0.038058708   0.04200731            1 
  143000    1.1952616    -6.498239    65.426456  0.038127305   0.04197735            1 
  144000    1.2021871   -6.4786677    65.831394  0.038096872  0.041947134            3 
  145000    1.2139415   -6.5030939    66.723529  0.038346855    0.0419184            2 
  146000    1.2112082   -6.5157519    66.574208  0.037998977  0.041891958            3 
  147000      1.22469   -6.5463295    67.354748  0.038182964  0.041865211            2 
  148000    1.2155426   -6.5439258    67.651248  0.038091919  0.041836817            2 
  149000    1.1782738    -6.522948    68.031365  0.038048862  0.041806675            2 
  150000    1.2223193   -6.5009893    68.536484  0.038075824  0.041776354            2 
  151000    1.1820823   -6.5329415    69.408517  0.038304921  0.041749827            3 
  152000    1.2117639   -6.5124319    69.790812  0.038262507  0.041722338            3 
  153000    1.2079667   -6.5571524     70.19509   0.03823262  0.041697907            3 
  154000    1.2059689   -6.5559361    70.289186  0.038035274   0.04166953            1 
  155000     1.170095   -6.5300142    70.518996  0.037913439  0.041634241            1 
  156000     1.181672   -6.5410188    71.412479  0.038147692  0.041599174            2 
  157000    1.1793076   -6.5092948    71.731942  0.038074279    0.0415685            3 
  158000    1.1805255   -6.5254178    72.185188  0.038072356   0.04153153            2 
  159000    1.1922772   -6.5575679    72.303202   0.03789476  0.041491981            2 
  160000    1.2121609   -6.5621291    72.914454  0.037976278  0.041456439            2 
  161000    1.1717655   -6.5634662    73.009586  0.037789641  0.041420549            2 
  162000    1.1899454   -6.5945719    73.544188  0.037831372  0.041380937            6 
  163000    1.1887579   -6.5365413    74.298951  0.037985149  0.041342401            2 
  164000    1.1681636   -6.5542627    74.398301  0.037804015  0.041307143            3 
  165000    1.1792649   -6.5512806    75.079652  0.037919016  0.041270866            1 
  166000     1.169523   -6.5740141    75.299015   0.03780071  0.041234036            2 
  167000    1.2014215   -6.5317644    75.530112  0.037689676  0.041194107            2 
  168000    1.1781243   -6.5248838    76.387188   0.03789047  0.041155375            3 
  169000    1.1727612   -6.5486502    76.524759  0.037734102  0.041118041            3 
  170000    1.1918545   -6.5446622    77.214194  0.037850095  0.041080509            2 
  171000    1.1855567   -6.5696526    77.746768  0.037888289  0.041044286            4 
  172000    1.2047935   -6.5874639    77.655804  0.037623936  0.041009608            3 
  173000    1.1557296   -6.5735379    78.541352  0.037833021  0.040974767            1 
  174000    1.1882919   -6.5333906    79.348897  0.038002345  0.040943644            2 
  175000    1.1565643   -6.5731956    79.662379  0.037934466  0.040916452            3 
  176000    1.2058691   -6.5175185    80.278725   0.03801076  0.040888013            2 
  177000    1.1737253   -6.5791544    80.498166  0.037899325  0.040858837            2 
  178000    1.1987636   -6.5557215    80.799415  0.037827441  0.040831406            1 
  179000    1.1941757   -6.5554124    81.333371  0.037864698  0.040801263            2 
  180000    1.1748379   -6.5245072    81.807903  0.037874029  0.040772357            2 
  181000    1.1613463   -6.5719401    82.117606  0.037807369  0.040740036            3 
  182000    1.1737029   -6.5941636    82.862475  0.037940693  0.040712136            1 
  183000    1.1731821   -6.5819211    83.261156  0.037914916  0.040684535            4 
  184000    1.1994395   -6.5441811    83.383525  0.037764277  0.040659852            1 
  185000    1.1980331   -6.5187387    84.095467  0.037880841  0.040634308            1 
  186000    1.1972771   -6.5429457    84.547062  0.037879508  0.040607421            3 
  187000     1.175029   -6.5404514    84.690933  0.037741057  0.040582871            1 
  188000    1.1742007   -6.5598106    85.158145  0.037747405  0.040553983            2 
  189000    1.1733407   -6.5602418    85.592165   0.03773905  0.040524712            2 
  190000    1.1701893   -6.5812778    86.202381  0.037808062  0.040497296            1 
  191000    1.1610993   -6.5484159    86.879095  0.037905364  0.040471896            3 
  192000    1.1904621   -6.5800621      87.0963  0.037802214  0.040447759            1 
  193000    1.1812356    -6.569952    87.591658  0.037820232  0.040423523            3 
  194000    1.1659702    -6.562761    88.533903  0.038030027  0.040400991            1 
  195000     1.175249   -6.5597576    89.076406   0.03806684  0.040383186            2 
  196000    1.1693967   -6.5521113    89.430798  0.038023298    0.0403642            2 
  197000    1.1518464   -6.5729657     89.46902  0.037846455  0.040343305            1 
  198000     1.166023    -6.574936    89.798433  0.037793953  0.040321149            3 
  199000    1.1625198   -6.5813874    90.399864  0.037855889  0.040298281            2 
  200000    1.1870918   -6.5410024    90.940679  0.037891949   0.04027444            1 
  201000    1.1625188   -6.5689458    91.035764  0.037742854  0.040250439            6 
  202000    1.1842922   -6.5737561    91.559805  0.037772197  0.040225101            4 
  203000    1.1691244   -6.5729952    92.081688  0.037800364  0.040200018            6 
  204000     1.165027   -6.5930659    92.628719  0.037838529  0.040174732            3 
  205000    1.1676641   -6.5932184    92.846552  0.037742501  0.040151604            2 
  206000    1.1765064   -6.6011962     93.36505  0.037769033  0.040129661            2 
  207000    1.1647368   -6.5215916    93.955738  0.037824371  0.040106473            3 
  208000    1.1845254   -6.5531748    94.391354  0.037817049  0.040085943            4 
  209000    1.1657784   -6.5718051    94.398103  0.037638797  0.040065066            1 
  210000    1.1676714   -6.5863424    95.269098  0.037805198  0.040043298            2 
  211000    1.1802704   -6.5578904    96.068813  0.037941869  0.040024817            3 
  212000    1.1757271   -6.5769345     96.56933  0.037959642  0.040008212            2 
  213000    1.1718367   -6.5448174    96.760208  0.037856106  0.039991396            1 
  214000    1.1571249   -6.5912689     97.21406  0.037855942  0.039973213            1 
  215000    1.1886667   -6.5465301    97.784789  0.037901081  0.039957778            1 
  216000    1.1912145   -6.5716461    98.152153  0.037867343  0.039940929            4 
  217000    1.1973301   -6.6030339    98.452062  0.037808011  0.039924081            2 
  218000    1.1625373   -6.5936014    98.776161  0.037758471  0.039907166            4 
  219000    1.1732888   -6.5545496    99.519353  0.037868856  0.039891071            2 
  220000    1.1787879    -6.566762    99.903309  0.037842163  0.039875093            3 
  221000    1.1563896    -6.590881    100.59933  0.037933383  0.039859738            1 
  222000    1.1803174   -6.5932351    101.11626  0.037956553  0.039845649            2 
  223000    1.1732575    -6.604279    101.23926  0.037832308  0.039829357            2 
  224000    1.1305955   -6.5788155    101.84378  0.037888311   0.03981329            3 
  225000    1.1696294   -6.5636739    102.04792  0.037795526   0.03979424            1 
  226000    1.1773183   -6.5771101     102.7873  0.037900922  0.039776432            2 
  227000    1.1787235   -6.6021146    102.92338  0.037783915  0.039758661            2 
  228000    1.1435905   -6.6124354    103.34852  0.037773582  0.039741001            1 
  229000    1.1715327   -6.6177031    103.54638  0.037680632  0.039721468            4 
  230000    1.1671267   -6.6165669    103.93718  0.037658397  0.039704021            4 
  231000    1.1812139   -6.5868688    104.64046  0.037749085  0.039686604            2 
  232000    1.1565661   -6.6027282    105.06203    0.0377378  0.039670923            3 
  233000    1.1482642   -6.5901012    105.94334  0.037891037  0.039654844            1 
  234000    1.1714845   -6.5696785    106.36472  0.037879174  0.039638534            3 
  235000    1.1768436   -6.5907547    106.44603   0.03774682  0.039621955            2 
  236000     1.144551   -6.6229544    106.48348  0.037600097  0.039605013            4 
  237000    1.1696752   -6.5838263    107.52571  0.037807916  0.039587452            1 
  238000    1.1615845   -6.6351077    107.66442  0.037697625  0.039569911            3 
  239000    1.1524745   -6.5964631     108.1285   0.03770171  0.039553093            2 
  240000    1.1877529   -6.5820265     108.4374  0.037651875  0.039534203            2 
  241000    1.1814299    -6.578991    108.68826  0.037582385  0.039513642            2 
  242000    1.1563321   -6.6254145      108.856  0.037484848  0.039491786            5 
  243000    1.1270306   -6.6323315    109.09274  0.037411775  0.039470703            1 
  244000    1.1724911   -6.6107546    109.92272  0.037541911  0.039449921            2 
  245000    1.1645283    -6.624415    109.81129  0.037350779  0.039429433            4 
  246000    1.1544397   -6.5860144    110.63178  0.037476889   0.03940908            2 
  247000    1.1428872   -6.5864925    111.06082  0.037469913  0.039388166            2 
  248000    1.1558434   -6.5898302    111.53404  0.037477835  0.039367167            3 
  249000    1.1631322   -6.6210763    112.06101  0.037503684  0.039347524            2 
  250000    1.1559616   -6.5706121    112.21417  0.037404722  0.039327752            5 
  251000    1.1652057    -6.624214    112.34886  0.037300417  0.039307811            3 
  252000    1.1575799   -6.6137122     113.1536  0.037418519  0.039287897            2 
  253000    1.1532588   -6.6124458    113.47374  0.037376066   0.03926726            2 
  254000    1.1565982   -6.5901524    113.91461  0.037373561  0.039244008            3 
  255000    1.1545561    -6.597622    113.73515  0.037168349  0.039220943            2 
  256000     1.179671   -6.5859917     114.6498  0.037320899  0.039198274            2 
  257000    1.1493523   -6.6077786     115.0446  0.037303695  0.039175548            4 
  258000    1.1337849   -6.6408518    114.94005  0.037125337  0.039153075            2 
  259000    1.1230632   -6.6144073    115.59896  0.037194001   0.03912967            3 
  260000    1.1377428   -6.6187349    115.91641  0.037152694  0.039105491            2 
  261000    1.1394336   -6.6057816    116.87014  0.037314859  0.039082251            3 
  262000    1.1452898   -6.6251433    117.28293   0.03730373  0.039062438            2 
  263000    1.1381045   -6.6037417    117.86971  0.037347817  0.039044292            2 
  264000    1.1617448    -6.615664    118.11169  0.037282729  0.039026233            2 
  265000    1.1584878   -6.6356031    118.63025   0.03730511  0.039006098            3 
  266000    1.1555388   -6.6151147    118.85854  0.037236385  0.038986086            3 
  267000    1.1491349   -6.6173208    119.38455  0.037261094  0.038967451            4 
  268000    1.1499777   -6.5891811    120.00222  0.037314123  0.038950394            1 
  269000    1.1359344   -6.6133791    120.66691  0.037381321  0.038933859            3 
  270000    1.1275886   -6.6666482    120.30071  0.037129849  0.038914935            4 
  271000    1.1530614   -6.6038064    121.25891  0.037287489  0.038896687            2 
  272000    1.1271792   -6.6039888    121.83603  0.037327216  0.038880028            2 
  273000    1.1437752   -6.6456478    122.74214  0.037467075  0.038863416            3 
  274000    1.1491051   -6.6214796    122.66615  0.037307223  0.038846179            1 
  275000    1.1414401   -6.6375924    122.81166  0.037215656  0.038827584            2 
  276000    1.1330309   -6.5909554    123.20694  0.037200162  0.038808536            1 
  277000    1.1481693   -6.6556207    123.72944  0.037223055  0.038788862            3 
  278000    1.1531771   -6.6061143    124.19041  0.037227342  0.038769035            3 
  279000    1.1464493   -6.5999312    124.10789  0.037069262  0.038747345            2 
  280000    1.1283671   -6.6119663    124.71436  0.037117369  0.038725753            2 
  281000    1.1662564   -6.5901438    125.30765  0.037161226  0.038706724            4 
  282000    1.1420388   -6.6098956    125.25375  0.037013518  0.038685874            4 
  283000    1.1413204   -6.6509321    125.49601  0.036954065  0.038663627            5 
  284000    1.1294737   -6.6058895    126.29134  0.037057318   0.03864107            1 
  285000    1.1508502    -6.607876    127.21528   0.03719745  0.038620581            2 
  286000      1.15743    -6.606642    127.63435  0.037189496  0.038602403            3 
  287000    1.1553824   -6.6307828    127.60166  0.037050424  0.038583787            3 
  288000    1.1266202   -6.6030062    128.20616  0.037096689   0.03856459            1 
  289000    1.1358348   -6.6127785    128.41197  0.037027674  0.038545664            2 
  290000    1.1496146   -6.6408719    128.46774  0.036916018  0.038526716            1 
  291000    1.1589977   -6.5901365    129.17229  0.036990918   0.03850695            2 
  292000    1.1380272    -6.625108    128.78902  0.036754858  0.038486158            1 
  293000    1.1395211   -6.6541082    129.93183  0.036954446  0.038464231            2 
  294000    1.1254682   -6.6098146    130.19902  0.036904484   0.03844357            3 
  295000     1.148595   -6.6191611    130.64969  0.036906692   0.03842261            2 
  296000    1.1179093   -6.6743424    130.56522  0.036758225   0.03840093            2 
  297000    1.1486944   -6.6248068    131.00759  0.036758583   0.03837853            2 
  298000    1.1341324    -6.632085    131.82503  0.036863822  0.038355204            3 
  299000    1.1328169   -6.5999703    131.99444  0.036787747  0.038332743            2 
  300000    1.1310848   -6.6719315    132.31366  0.036753795  0.038311029            2 
  301000    1.1586837   -6.6302436    132.53628  0.036693323  0.038288763            3 
  302000    1.1359666   -6.6454007    132.97596  0.036693146  0.038265848            2 
  303000    1.1339322   -6.6295198    133.39512  0.036687326  0.038243095            1 
  304000    1.1218207   -6.6323497    133.69822  0.036649731  0.038219693            2 
  305000    1.1469779   -6.6882083    133.36364  0.036438152  0.038196804            3 
  306000    1.1154826   -6.6539731    134.55337  0.036643074  0.038174351            1 
  307000    1.1413549   -6.6552726    134.37702  0.036475846  0.038151879            3 
  308000    1.1162272   -6.6283492    135.50986  0.036663922  0.038129881            3 
  309000    1.1453798   -6.6659951    135.61545  0.036573746  0.038107962            1 
  310000    1.1191829   -6.6511245    136.21274  0.036616327  0.038086533            3 
  311000    1.1453913   -6.6789799    136.29088  0.036519529  0.038064865            1 
  312000    1.1460443   -6.6442869    136.32594  0.036411842  0.038042967            2 
  313000    1.1541153   -6.6402268     137.0706   0.03649377  0.038019801            3 
  314000    1.1382119   -6.6969152    137.47402  0.036484613   0.03799741            3 
  315000    1.1543779   -6.6597467      137.682   0.03642381  0.037975717            7 
  316000    1.1280545   -6.6448703    138.42143  0.036503542  0.037954562            4 
  317000    1.1196244   -6.6861447    139.07045  0.036559004  0.037934847            2 
  318000    1.1209269   -6.6361192    139.69347  0.036607304  0.037916218            2 
  319000    1.1292912   -6.6262486     140.2911  0.036648667  0.037898245            3 
  320000    1.1283227    -6.660887    141.08966    0.0367421  0.037881876            2 
  321000    1.1230567   -6.6462259    141.05673  0.036619088  0.037864592            3 
  322000    1.1479344    -6.672181    141.34537  0.036580064  0.037846514            2 
  323000    1.1171362   -6.6749216    141.45027  0.036493878  0.037827021            1 
  324000     1.140677   -6.6295973    142.08076  0.036543406  0.037808446            4 
  325000    1.1031621   -6.6658095    141.97936  0.036404963  0.037789543            3 
  326000    1.1130403   -6.6408372    142.82677   0.03650991  0.037770688            2 
  327000    1.1101906   -6.6828565    142.99593   0.03644137   0.03775167            2 
  328000    1.1121494   -6.7227688    143.48595  0.036454765  0.037732414            3 
  329000    1.1149193   -6.6530032    144.26028   0.03654009  0.037715471            3 
  330000    1.1320271    -6.653644    144.34236  0.036450092  0.037699651            3 
  331000    1.1175076   -6.6462819    145.05945  0.036520507  0.037682061            1 
  332000    1.1299223   -6.6649161    145.02448  0.036401727  0.037663689            2 
  333000    1.1223373   -6.6386011    145.44789  0.036398372  0.037645083            4 
  334000    1.1315494   -6.6713731    145.97605  0.036421171  0.037626129            1 
  335000    1.1203809   -6.6391308    146.17984  0.036363145  0.037607597            1 
  336000    1.1103073   -6.6501954    146.73538  0.036392704  0.037588638            4 
  337000    1.1460398   -6.6917283     146.5816  0.036246686   0.03756978            5 
  338000    1.1111545   -6.6258953    146.97021  0.036235259  0.037551216            2 
  339000    1.1226276   -6.6790322    147.62556   0.03628947  0.037531023            3 
  340000    1.1144381   -6.6891545     147.5789    0.0361713  0.037510075            2 
  341000    1.1328949   -6.6544749    148.29732  0.036240792  0.037490049            3 
  342000    1.1183706    -6.672239    148.28978  0.036132987  0.037469014            4 
  343000    1.1063636   -6.7025276    148.69212  0.036125394  0.037448895            4 
  344000    1.1159285   -6.6492865    149.61484  0.036243905  0.037430156            2 
  345000    1.0981414   -6.6789451    149.73975  0.036169022   0.03741082            1 
  346000    1.1286228   -6.6516359    149.95072  0.036115299  0.037390703            5 
  347000    1.1336917   -6.6668176    150.48281  0.036139003  0.037370292            2 
  348000    1.1121478   -6.6518667    151.08562  0.036179507  0.037351524            5 
  349000    1.1183312   -6.6555361    151.73931  0.036231927  0.037333267            3 
  350000    1.1036659   -6.6720526    151.96986  0.036183301  0.037315812            3 
  351000    1.0988419   -6.6831924    152.38334  0.036178382  0.037298078            6 
  352000    1.1270062   -6.6826779    152.29993  0.036055855  0.037279476            1 
  353000    1.1016451   -6.6959741    153.09805  0.036142126  0.037260437            2 
  354000    1.1091104   -6.6767548    153.06487  0.036032219  0.037241512            3 
  355000    1.1293225   -6.7604618    153.37817  0.036004266  0.037221983            4 
  356000    1.1199093   -6.6429864    154.27059   0.03611203  0.037202395            1 
  357000    1.0875511   -6.6811986    154.56678  0.036080015   0.03718554            3 
  358000      1.11307    -6.701349    154.57773   0.03598178  0.037167102            3 
  359000    1.1214096   -6.6796147    154.90263   0.03595697  0.037148189            3 
  360000    1.1095625   -6.7033207    154.80137   0.03583365  0.037128776            2 
  361000    1.1082454   -6.7230422    155.39449  0.035871304  0.037108312            4 
  362000    1.1064348   -6.6842043    155.91017  0.035890922  0.037087097            1 
  363000    1.0940797   -6.6822458    155.93233  0.035797137  0.037065347            1 
  364000    1.1103435   -6.6371465    156.96075  0.035934237  0.037043577            2 
  365000    1.1062381   -6.7148713     156.7225  0.035781392  0.037022731            3 
  366000    1.1363214   -6.7299002    156.93326  0.035731616  0.037001971            1 
  367000    1.1149384   -6.7658796    156.59871  0.035558291  0.036981432            2 
  368000    1.1108963   -6.6876416    158.36548  0.035861749  0.036960439            3 
  369000    1.1176781   -6.7030532    158.09657  0.035703832  0.036939524            1 
  370000    1.1019142    -6.671446    158.07846  0.035603257  0.036918691            2 
  371000    1.0899678   -6.7160954    158.56699  0.035617023   0.03689767            4 
  372000    1.0934856   -6.7300654    159.02217  0.035623246  0.036875962            3 
  373000      1.12281   -6.7411852    159.51769  0.035638446  0.036855053            3 
  374000    1.1036012   -6.6878319    160.06411  0.035664909  0.036834086            2 
  375000    1.1165237   -6.7163612      160.325  0.035627777  0.036813171            5 
  376000    1.1012971    -6.653119    160.78277  0.035634479  0.036792302            5 
  377000    1.1126697   -6.6899428     160.8553  0.035555991  0.036771592            5 
  378000    1.0969267   -6.6816521    161.55638  0.035616486  0.036750499            1 
  379000     1.116155   -6.7226822    161.59405  0.035530794  0.036729735            3 
  380000    1.1013691   -6.7043203    162.15779  0.035560919  0.036709246            5 
  381000    1.0791785   -6.7339881    162.25464  0.035488766  0.036687785            2 
  382000    1.0789015   -6.6943431    163.24041  0.035610909  0.036667326            1 
  383000    1.0800738   -6.7135142    162.69999  0.035400347  0.036645945            3 
  384000    1.0928972   -6.7445712    162.94164  0.035360599  0.036623769            5 
  385000    1.0887099    -6.681446    164.03955  0.035506397  0.036603042            1 
  386000    1.0951635   -6.6708439    163.90995  0.035386431  0.036581949            2 
  387000    1.1194455    -6.675865    163.96683  0.035307241  0.036560428            2 
  388000    1.1082433   -6.7186657    164.28824  0.035285275  0.036537383            3 
  389000    1.0978001   -6.6817937    165.14942  0.035379053  0.036515486            1 
  390000    1.1145069   -6.7121276    164.70605    0.0351936  0.036493755            2 
  391000     1.099115   -6.7060553     165.7315  0.035322144  0.036471984            3 
  392000    1.0815905   -6.6762524    166.77737  0.035454374  0.036450286            6 
  393000    1.1086017   -6.7255586     166.1608  0.035233418  0.036428339            4 
  394000    1.0959982   -6.7291886    166.58488  0.035233688  0.036406011            3 
  395000    1.0855504   -6.6958707    166.88798  0.035208435  0.036384093            2 
  396000    1.0801551   -6.7315706    167.56897  0.035262831   0.03636215            4 
  397000    1.1116852   -6.7511552    167.02869  0.035060598  0.036339941            5 
  398000    1.0624047   -6.6692639    167.79052  0.035132018  0.036318886            3 
  399000    1.0893736   -6.7043089    168.44548  0.035180759  0.036297098            2 
  400000    1.0850106   -6.7286937    168.66163  0.035137839  0.036275032            2 
  401000    1.1034519   -6.7482993    168.17714   0.03494953  0.036252546            1 
  402000    1.1102037    -6.714612    168.54421  0.034938683  0.036229899            2 
  403000    1.0981186   -6.7214542    169.12009  0.034971068  0.036207633            2 
  404000    1.0652538   -6.7115902    169.91223  0.035047902  0.036185925            3 
  405000    1.0940506   -6.7243365    170.13891  0.035008006  0.036163829            2 
  406000    1.0965412   -6.7176346      170.434  0.034982347  0.036142099            2 
  407000     1.094425   -6.7196934    170.84984  0.034981539  0.036120369            3 
  408000    1.0848069   -6.7583128    170.97966  0.034922316  0.036099291            2 
  409000     1.087722    -6.687113    172.05685  0.035056408  0.036077869            5 
  410000    1.1133566   -6.7624094    171.97336  0.034953935  0.036056791            4 
  411000    1.0896402   -6.7297927    172.40374  0.034956152  0.036035383            2 
  412000    1.0842158    -6.725077    172.18184  0.034826425   0.03601429            3 
  413000    1.0819604   -6.7562079    172.48372  0.034803011  0.035991722            1 
  414000    1.0986321   -6.7032979    172.60741  0.034743843   0.03596892            2 
  415000    1.0854125   -6.7228833    172.91526  0.034721939  0.035946256            3 
  416000    1.0842267   -6.7448842    173.25481  0.034706491  0.035923324            3 
  417000    1.0865109   -6.7093823    173.79193  0.034730601  0.035899717            3 
  418000    1.1155739   -6.7247903    174.12959  0.034714831  0.035877357            4 
  419000    1.1070197   -6.7304177    174.73659  0.034752703  0.035854771            2 
  420000    1.0818505   -6.7165426    175.11039  0.034744124   0.03583246            2 
  421000    1.0842103   -6.7417522    175.37384  0.034713745  0.035810593            4 
  422000    1.1174547   -6.7093068    175.52807  0.034661941  0.035788251            1 
  423000    1.0706133   -6.7401718    175.79395  0.034632377  0.035766423            3 
  424000    1.0953389   -6.7084135    175.97359  0.034586004  0.035743934            2 
  425000    1.0733635   -6.6985239    176.90889  0.034688018  0.035722083            2 
  426000    1.0921017   -6.7234873    177.11062  0.034646052   0.03570006            2 
  427000    1.1011266    -6.738526    176.62575  0.034470286  0.035677639            3 
  428000    1.0922002    -6.735635    177.08342  0.034478859  0.035654695            2 
  429000    1.0645106   -6.7605707    177.20682  0.034422458  0.035632195            3 
  430000    1.0824966   -6.7442737    177.54305  0.034407569   0.03560924            3 
  431000    1.0693622   -6.7147138    177.94847  0.034406124  0.035586521            2 
  432000    1.0713763   -6.7285414    178.19171  0.034373401  0.035563031            2 
  433000        1.079   -6.7177517    178.66117  0.034384368  0.035539811            2 
  434000    1.0928812   -6.7784722    179.24389  0.034417029  0.035516175            4 
  435000    1.0645517   -6.7304814    179.50822  0.034388547  0.035492812            2 
  436000    1.0769414   -6.7360156    179.70218  0.034346746  0.035469552            2 
  437000    1.0604439   -6.7152923    179.79235  0.034285344  0.035446138            4 
  438000    1.0795267   -6.7812335     179.9179  0.034230955  0.035422475            2 
  439000    1.0668362   -6.7651214     180.6307  0.034288287  0.035398814            3 
  440000    1.0838229   -6.7486979     181.2602  0.034329584  0.035375474            5 
  441000    1.0630458   -6.7845411    181.55955  0.034308304  0.035352808            3 
  442000    1.0748027   -6.7365081    182.00773  0.034315182  0.035329958            3 
  443000    1.0860707   -6.8033923    181.58255  0.034157742  0.035306901            3 
  444000    1.0644163   -6.7413906    182.26289  0.034208501  0.035283324            7 
  445000    1.0577767   -6.7867316    182.54498  0.034184453  0.035259731            5 
  446000    1.0798188   -6.7847549    183.21876    0.0342337  0.035237428            4 
  447000    1.0747368   -6.7816992    183.23793  0.034160689  0.035215059            3 
  448000     1.070681   -6.7759223    184.07591   0.03424031  0.035192894            6 
  449000    1.0570703   -6.7562898     183.4874  0.034054826  0.035169926            4 
  450000    1.0773882   -6.7673628    184.29818  0.034129292  0.035147291            2 
  451000    1.0940473   -6.8030486    183.90989  0.033981872  0.035124597            2 
  452000    1.0804073   -6.7928217    184.02391  0.033927712  0.035101207            5 
  453000    1.0585127   -6.7929331    185.31336  0.034090022  0.035077952            3 
  454000    1.0975142   -6.7711561    185.27051  0.034007069  0.035055407            7 
  455000     1.047464   -6.7471128    185.90454  0.034048451   0.03503282            2 
  456000     1.071362   -6.7790959    185.63173  0.033923927  0.035010101            1 
  457000    1.0675912   -6.7620916    185.96544  0.033910547  0.034987156            4 
  458000    1.0727434   -6.7742802    186.85541  0.033998437  0.034964635            2 
  459000    1.0751175   -6.7837157    186.17765  0.033801316  0.034941327            2 
  460000     1.048621   -6.7349253    186.82668  0.033845413  0.034918421            1 
  461000      1.05264   -6.7410508    188.23852   0.03402721   0.03489652            2 
  462000    1.0822224   -6.7683613    187.70147  0.033856686  0.034874216            2 
  463000    1.0859748    -6.729875    188.50861  0.033928835  0.034852019            3 
  464000    1.0576305   -6.7633255    188.04405  0.033772278  0.034830397            2 
  465000    1.0792462   -6.7465931    189.18716  0.033904508  0.034807701            2 
  466000       1.0849    -6.777887    188.78834  0.033760433    0.0347856            1 
  467000    1.0594993   -6.7844302    189.33499  0.033785687  0.034763101            1 
  468000    1.0658635   -6.7576429    190.21646  0.033870452  0.034741416            2 
  469000    1.0679431   -6.7845223    189.83099  0.033729743  0.034720406            3 
  470000    1.0780083   -6.7646813    191.43955  0.033943182  0.034699952            2 
  471000    1.0671111   -6.7445853    190.87874  0.033771893  0.034680071            2 
  472000    1.0907622   -6.7715326    191.61342  0.033830053  0.034659654            2 
  473000    1.0651815   -6.7649237    192.04017  0.033833716  0.034639603            1 
  474000    1.0549781    -6.796264    192.83854  0.033902697  0.034619459            3 
  475000    1.0635611   -6.7789473    192.58461  0.033786774  0.034599051            6 
  476000    1.0640502   -6.7763803    192.85026    0.0337623  0.034578757            3 
  477000    1.0632159   -6.7815341    193.34271  0.033777552  0.034558193            4 
  478000     1.046568    -6.809582    192.52145  0.033563712  0.034536985            2 
  479000    1.0780785   -6.7819774    193.53779  0.033670458  0.034515313            4 
  480000    1.0866026   -6.7747696    193.65219  0.033620173  0.034493471            3 
  481000    1.0561332   -6.7814897    194.03644  0.033616846  0.034471256            4 
  482000    1.0760725   -6.7599643    193.86782   0.03351795  0.034449089            2 
  483000    1.0370284   -6.7858179    194.37144  0.033535446  0.034427119            5 
  484000    1.0499802   -6.7764583    194.29587  0.033453145  0.034404172            3 
  485000    1.0623205   -6.7783439    194.81957  0.033474153  0.034381079            2 
  486000    1.0549488   -6.8160235    194.72059  0.033388304  0.034358319            4 
  487000    1.0682283   -6.7779725    195.19054  0.033400161  0.034336038            3 
  488000    1.0741813   -6.7764087    195.23746  0.033339731  0.034313528            4 
  489000    1.0153958   -6.8309107    195.93376  0.033390212  0.034291202            2 
  490000    1.0702736    -6.764244    196.78487  0.033466814  0.034269393            3 
  491000    1.0650185   -6.7885793     196.1303   0.03328756  0.034247782            3 
  492000    1.0371426   -6.7525614    196.91243  0.033352376  0.034226159            4 
  493000    1.0407071   -6.7765573    197.72468  0.033422022  0.034204884            1 
  494000    1.0646252   -6.8067815    197.22945  0.033270825  0.034182761            3 
  495000    1.0445295   -6.7861925    197.48847  0.033247217  0.034160327            1 
  496000     1.057557   -6.7845696    197.98606  0.033263788  0.034138199            3 
  497000    1.0676294   -6.7689231    198.13642   0.03322207  0.034116696            2 
  498000    1.0527662   -6.8110665    198.75114  0.033258223  0.034094834            4 
  499000     1.052434   -6.8267357    198.33235  0.033121635  0.034072555            2 
  500000    1.0481147   -6.8248931    198.82836   0.03313806  0.034049962            4 
  501000    1.0774324   -6.7834739    199.07755  0.033113364  0.034027737            2 
  502000    1.0590998    -6.835793    199.58399  0.033131472  0.034005354            2 
  503000    1.0587272   -6.8323445    199.66102  0.033078366  0.033983099            8 
  504000    1.0620898    -6.801996    200.01002  0.033070439  0.033960916            2 
  505000    1.0675104   -6.7601894    200.97405  0.033164035  0.033939035            2 
  506000     1.050162   -6.8260696    200.73116  0.033058492  0.033917482            3 
  507000    1.0722006   -6.7910263    201.20255  0.033070767  0.033895241            2 
  508000     1.044308    -6.810307    200.97461  0.032968276  0.033872871            4 
  509000    1.0480049   -6.7867919    201.38903  0.032971355  0.033850797            2 
  510000    1.0313285   -6.7649475    201.81843  0.032976867  0.033828272            3 
  511000    1.0550752   -6.7965219    202.29255  0.032989652  0.033805906            5 
  512000    1.0528095   -6.7591655    201.99416  0.032876653  0.033783249            3 
  513000    1.0432343   -6.8135046    201.96982  0.032808613  0.033760841            3 
  514000    1.0243397   -6.8210501    202.63517  0.032852654   0.03373843            2 
  515000    1.0308079    -6.779591    202.29042  0.032733077  0.033715416            3 
  516000    1.0501161   -6.8321852    202.33957  0.032677579  0.033691881            8 
  517000    1.0576174   -6.8061386    203.47119  0.032796775  0.033668556            1 
  518000    1.0447316   -6.8104205    203.48232   0.03273525  0.033645827            2 
  519000     1.043972    -6.808207    203.95426  0.032747955  0.033622918            4 
  520000    1.0497274   -6.8282866    203.57331  0.032623928  0.033600141            2 
  521000    1.0679374     -6.82276    204.60935  0.032727024  0.033577402            1 
  522000    1.0351374   -6.8408793    205.23616  0.032764393  0.033554715            2 
  523000    1.0396126   -6.8357126    204.85463  0.032640954  0.033532532            4 
  524000    1.0448275   -6.8159827    205.74486  0.032720238  0.033510331            2 
  525000    1.0682195   -6.8322979    205.47034   0.03261434  0.033488522            4 
  526000    1.0375525   -6.8078059     205.9162  0.032622972  0.033466051            2 
  527000     1.059742    -6.797957    206.26605   0.03261639  0.033444398            3 
  528000    1.0278121   -6.7798957    206.88435  0.032652202  0.033422822            3 
  529000    1.0173302   -6.8079316     206.5189  0.032532908  0.033400653            2 
  530000     1.044209   -6.7996538    207.20744  0.032579786  0.033378603            3 
  531000    1.0522831   -6.8093113    207.53472  0.032569793  0.033355815            3 
  532000    1.0394737   -6.8594109    207.13907  0.032446596  0.033333564            2 
  533000     1.033054    -6.798256    208.26491  0.032561744  0.033311243            2 
  534000    1.0479493   -6.8143417    207.50853  0.032382729   0.03328916            4 
  535000    1.0512176   -6.8557065    207.35014   0.03229753   0.03326622            4 
  536000    1.0404009   -6.8502723    208.34206   0.03239149  0.033243015            2 
  537000    1.0393553   -6.8328244    209.60347  0.032526919  0.033220492            3 
  538000    1.0212616   -6.8326482    209.77906  0.032493658   0.03319853            1 
  539000    1.0345769   -6.8293981    210.12362  0.032486645  0.033176975            2 
  540000     1.015821   -6.8569566    209.89366  0.032390997  0.033155155            9 
  541000    1.0310179   -6.8414007    210.62861  0.032444334  0.033133464            3 
  542000    1.0355332   -6.8182143    210.51736  0.032367368   0.03311181            3 
  543000    1.0464846    -6.813801    211.01531  0.032384179  0.033090083            2 
  544000    1.0636739   -6.8264842      211.123  0.032341146  0.033068021            2 
  545000    1.0317271   -6.8066779     211.0636  0.032272721  0.033046381            5 
  546000    1.0389722   -6.8652706    211.34558  0.032256651  0.033024641            4 
  547000    1.0446718   -6.8547758    211.93458  0.032287414   0.03300265            2 
  548000    1.0408674   -6.8547363    211.87612  0.032219604  0.032980392            5 
  549000    1.0459951   -6.8297457     212.2456  0.032217001   0.03295848            2 
  550000    1.0519382   -6.8414938    212.41215  0.032183659  0.032936469            6 
  551000    1.0310114   -6.8242345     212.5059  0.032139428    0.0329148            2 
  552000    1.0506368   -6.8319092      213.391  0.032214825  0.032893354            7 
  553000    1.0459349   -6.8569677    213.29207  0.032141663  0.032871855            5 
  554000    1.0271627    -6.870484    213.11197  0.032056553  0.032850677            5 
  555000     1.045049   -6.8577453    214.33346    0.0321822  0.032829396            2 
  556000    1.0460041   -6.8598448    214.19368   0.03210337  0.032807567            4 
  557000    1.0329522   -6.8680151    214.75945  0.032130378  0.032786162            2 
  558000    1.0350469   -6.8485185    215.02146  0.032111927  0.032765413            2 
  559000    1.0491857   -6.8356649    215.00486  0.032052007    0.0327444            6 
  560000    1.0285376   -6.8362072    215.40497  0.032054311  0.032723614            5 
  561000    1.0439119   -6.8825683    215.77624  0.032052323  0.032702556            3 
  562000    1.0187528   -6.8486556     216.2987  0.032072761  0.032681628            2 
  563000    1.0317077   -6.8107117    216.93261  0.032109622  0.032661143            3 
  564000    1.0130862   -6.8355164    217.38567  0.032119632  0.032641555            4 
  565000    1.0068175   -6.8787086    217.83843  0.032129561  0.032621912            3 
  566000    1.0283918   -6.8473582    217.62733  0.032041716  0.032602371            2 
  567000    1.0148554   -6.8591998    217.97788  0.032036725  0.032582686            1 
  568000    1.0158102   -6.8460139    218.46028  0.032051098     0.032563            4 
  569000     1.015991   -6.8392752    218.57391   0.03201141  0.032543092            7 
  570000    1.0251274   -6.8530087    218.06857  0.031881369  0.032523101            3 
  571000    1.0311407   -6.8423351    218.91303  0.031948779  0.032502805            3 
  572000    1.0177616   -6.8623118    219.02916  0.031909842  0.032482998            4 
  573000    1.0257594   -6.8562955     219.1653  0.031873952   0.03246299            3 
  574000    1.0459201   -6.8663414       219.99  0.031938154  0.032443154            2 
  575000    1.0197898   -6.8610298    219.43487  0.031802156   0.03242336            4 
  576000    1.0303896   -6.8797042    220.11502  0.031845345  0.032403397            5 
  577000    1.0279308   -6.8724899    220.94015  0.031909323  0.032383447            1 
  578000    1.0287266   -6.8791058    220.68617  0.031817499  0.032363629            3 
  579000    0.9924447   -6.8798208    220.57104  0.031745975  0.032343836            2 
  580000    1.0078747   -6.8672341     221.7705  0.031863577  0.032324352            2 
  581000    1.0347001   -6.8701972    221.75403  0.031806372  0.032305308            4 
  582000    1.0347503   -6.8639393    222.28978  0.031828434  0.032286097            2 
  583000    1.0233939   -6.8868806    222.18902  0.031759437  0.032266975            7 
  584000    1.0394215   -6.8494535    222.92262  0.031809735  0.032247832            4 
  585000    1.0152644   -6.8819475    222.69547  0.031723002   0.03222864            3 
  586000    1.0376378   -6.8386686    223.09692  0.031725956  0.032209285            5 
  587000    1.0251878    -6.844552    223.57057   0.03173915  0.032190305            3 
  588000    1.0278067   -6.8543701     223.9639  0.031740915  0.032171805            2 
  589000      1.00867   -6.8538475    224.02919  0.031696264  0.032152762            3 
  590000    1.0177564   -6.8474293    224.14952  0.031659537  0.032133853            2 
  591000     1.004965   -6.8793293    223.79329  0.031555737  0.032114057            4 
  592000    1.0027459   -6.9034264    224.39015  0.031586451  0.032094299            6 
  593000    1.0085689    -6.911311    224.50637  0.031549518  0.032074598            2 
  594000     1.025779   -6.8935182    223.77285  0.031393498  0.032054151            3 
  595000     1.038204   -6.8742361    225.02774   0.03151649  0.032034146            3 
  596000    1.0244157     -6.88809    225.41766  0.031518129  0.032014663            5 
  597000    1.0274783   -6.8732105    225.86322  0.031527529   0.03199527            2 
  598000   0.99466616   -6.9283145    225.85542  0.031473721  0.031976041            8 
  599000    1.0111566   -6.8928912    226.04294  0.031447264  0.031956412            2 
  600000    1.0252699   -6.8685973    227.19611  0.031555016  0.031937014            1 
  601000   0.99061659   -6.8874446    226.75272  0.031441031  0.031917396            2 
  602000    1.0190484   -6.8737372    227.25883  0.031458863  0.031897698            3 
  603000    1.0424182    -6.888998    227.01228  0.031372621  0.031878128            5 
  604000   0.99701776   -6.8809625    227.86053  0.031437712  0.031858194            3 
  605000    1.0229657   -6.8858751     227.1417  0.031286736  0.031838135            3 
  606000    1.0016023   -6.8909821    227.32993  0.031260992  0.031818147            2 
  607000   0.99382168   -6.8916174     227.9979  0.031301195   0.03179802            3 
  608000    1.0334064   -6.8687128    228.96033  0.031381624  0.031778707            4 
  609000    1.0108921   -6.8492467    228.85207  0.031315281  0.031759421            3 
  610000    1.0196592   -6.8713169    228.37245  0.031198422   0.03173993            2 
  611000   0.99182307   -6.9179256    228.68819  0.031190424  0.031720157            3 
  612000   0.99564357   -6.8507935    228.85025  0.031161527  0.031700417            4 
  613000    1.0013417   -6.9011908    229.53769  0.031204145  0.031680936            4 
  614000     1.016145   -6.9021106    229.84379  0.031194869  0.031661602            3 
  615000     1.016796   -6.9009071    229.90291  0.031152156  0.031642125            5 
  616000    1.0033887   -6.8783739    230.03603  0.031119593  0.031622754            2 
  617000    1.0193791   -6.9206795    230.29835  0.031104585   0.03160331            3 
  618000   0.99463669   -6.8619407    231.02632  0.031152417   0.03158424            3 
  619000    1.0197824   -6.8897127    231.03115  0.031102739  0.031564999            5 
  620000    1.0041825   -6.8911673    230.89872  0.031034775    0.0315456            2 
  621000    1.0176837   -6.9104459    231.18788  0.031023602  0.031526189            3 
  622000    1.0198742   -6.8857782    232.11031  0.031097308  0.031506634            2 
  623000    1.0145474   -6.8974203    231.85521  0.031013271  0.031486979            1 
  624000    1.0112928   -6.8824333    232.08239  0.030993908  0.031466873            3 
  625000    1.0003971   -6.9467951    231.94423  0.030925898  0.031446788            2 
  626000    1.0046984   -6.8807552    233.03605  0.031021838  0.031427298            2 
  627000    1.0211771   -6.9168441    233.18333  0.030991937  0.031407916            2 
  628000    1.0227661   -6.9108358    232.66708  0.030874082  0.031388376            5 
  629000   0.99357865   -6.8741854    233.51775  0.030937699  0.031369098            3 
  630000    1.0200784   -6.8867187    233.09291  0.030832395  0.031349466            4 
  631000    1.0164744   -6.8990999    233.90978  0.030891414  0.031329534            2 
  632000     0.986721    -6.913237    234.41551  0.030909219   0.03131024            2 
  633000    1.0215307   -6.9120521     234.2275  0.030835637  0.031290843            3 
  634000   0.99630065   -6.9007736    235.21423  0.030916697   0.03127157            4 
  635000    1.0187447   -6.8675307    235.77511  0.030941615  0.031252454            5 
  636000   0.97706679   -6.9077142    235.43827   0.03084883  0.031233435            3 
  637000   0.99249073   -6.9226292    235.89805  0.030860551  0.031214132           10 
  638000    1.0207851    -6.910705     235.5129  0.030761874  0.031194766            9 
  639000    1.0128381   -6.9465144    235.06377  0.030655161  0.031175333            3 
  640000   0.99725355    -6.897841    235.83858  0.030708148  0.031156086            3 
  641000   0.99448075   -6.9277545    236.22862  0.030710949  0.031137124            2 
  642000   0.97263808   -6.8675714    237.78053  0.030864555   0.03111813            2 
  643000    1.0074708   -6.8945464    236.86403  0.030697775   0.03109967            6 
  644000    1.0104718   -6.9108455    237.31722   0.03070875    0.0310811            3 
  645000   0.99980482    -6.880486     238.6236  0.030829923  0.031062407            3 
  646000   0.98976341   -6.9285877    238.30588  0.030741213   0.03104403            4 
  647000   0.99044804   -6.9016613    238.96068  0.030778037  0.031025896            4 
  648000    1.0141328   -6.8988439    238.86875  0.030718718  0.031007326            2 
  649000   0.98160101   -6.9431703    239.04177  0.030693602  0.030988546            3 
  650000    1.0012164   -6.9389627    239.18551  0.030664809  0.030970186            6 
  651000   0.98660805   -6.9345521    239.57924  0.030668106  0.030951864            4 
  652000   0.99740547   -6.9533726    239.14085  0.030565037   0.03093347            4 
  653000    1.0187583   -6.9095756    241.12008  0.030770811  0.030915263            1 
  654000   0.98086839   -6.9110696    240.86237  0.030690924  0.030897506            4 
  655000   0.98544493   -6.8913964    241.61787  0.030740187   0.03087976            4 
  656000   0.97052697     -6.94264    240.79039  0.030588211  0.030861912            4 
  657000   0.99578207   -6.9442712    240.73321    0.0305344  0.030843688            4 
  658000   0.97732572   -6.9678986    241.07381  0.030531131  0.030825377            5 
  659000   0.98347848   -6.9194236    241.30804  0.030514421  0.030807137            2 
  660000    1.0306328   -6.9320664    241.73873  0.030522567  0.030789057            2 
  661000    0.9758229   -6.9512976    242.22973  0.030538292    0.0307709            3 
  662000   0.98055648   -6.9475969    241.89246  0.030449706   0.03075281            3 
  663000     0.993588   -6.9544186    242.43909  0.030472485  0.030734828            3 
  664000   0.97326083   -6.9215782    243.46922  0.030555876  0.030716675            3 
  665000    1.0012009    -6.935817    242.99502  0.030450504  0.030698848            2 
  666000    1.0016577   -6.9328403    242.94291  0.030398262  0.030680571            2 
  667000   0.96358778   -6.9541361    242.65033  0.030316134  0.030662225            1 
  668000    1.0019246   -6.9494833     243.0339  0.030318601  0.030644115            3 
  669000   0.98647751   -6.9626588       243.65  0.030350025   0.03062583            4 
  670000   0.99078492   -6.9645311    243.69532  0.030310364  0.030607777            3 
  671000   0.97343411   -6.9444645     244.5578  0.030372304  0.030589504            8 
  672000   0.97799394   -6.9713789    243.78775  0.030231616  0.030571062            2 
  673000   0.97457911   -6.9404944    244.10458  0.030225926  0.030552666            5 
  674000   0.97239971   -6.9582948    244.68939  0.030253387  0.030534374            3 
  675000   0.98906363   -6.9264696     245.5607  0.030316136  0.030516289            5 
  676000   0.96485496   -6.9557925    245.49294  0.030262937  0.030498389            2 
  677000   0.99420039   -6.9564911     245.1758  0.030179197  0.030480523            2 
  678000   0.98052658   -6.9304008    246.02773  0.030239396  0.030462731            1 
  679000   0.98552598   -6.9392712     246.4394  0.030245385  0.030444857            6 
  680000    0.9728678   -6.9663945    245.60432  0.030098569  0.030426742            3 
  681000   0.96631546   -6.9476838    246.64106  0.030181236  0.030408616            6 
  682000   0.97764109   -6.9679682    246.24941  0.030089126  0.030390131            6 
  683000   0.97765847   -6.9301368    246.83562  0.030116596  0.030371808            2 
  684000   0.95093096    -6.966681    247.44453  0.030146751  0.030353711            3 
  685000   0.98947709   -6.9472114    247.52373  0.030112376  0.030335602            3 
  686000   0.97371852   -6.9631792    247.72516  0.030092949  0.030317917            4 
  687000   0.94505491   -6.9898427    248.13828  0.030099257   0.03030012            3 
  688000   0.98787724   -6.9725383    248.33234  0.030079014  0.030282074            2 
  689000   0.96470043   -6.9296888    248.34107  0.030036414  0.030264168            4 
  690000   0.99009845    -6.939483    248.24097  0.029980794  0.030246538            2 
  691000   0.97547631   -6.9383453    248.26628  0.029940458  0.030228766            3 
  692000   0.98677789   -6.9645524    248.77813   0.02995883  0.030210952            7 
  693000   0.98740784   -6.9842458    248.85587  0.029924948  0.030193237            4 
  694000   0.96044553   -6.9573431    250.32628  0.030058391  0.030175717            2 
  695000    1.0059405   -6.9919322    250.14575  0.029993495  0.030158313            2 
  696000   0.98585865   -6.9609468     249.4705  0.029869552  0.030140655            5 
  697000   0.98569778   -6.9986505    250.50701  0.029950622  0.030123129            3 
  698000   0.98210959   -6.9561606    251.20227   0.02999072  0.030105501            3 
  699000   0.97360706   -6.9619228    250.55304  0.029870415  0.030087653            3 
  700000   0.97062339   -6.9499421    250.59278  0.029832474  0.030069762            4 
  701000   0.95779255   -6.9740204    250.88853  0.029825075  0.030051864            3 
  702000   0.97943189   -6.9552354    251.52408  0.029858034  0.030033904            2 
  703000   0.96417769   -6.9316084    251.35625  0.029795667  0.030016131            2 
  704000   0.95455496   -6.9920392    251.93396  0.029821728  0.029998578            3 
  705000   0.97143098   -6.9476017     252.2924  0.029821796    0.0299808            6 
  706000   0.97637644   -6.9482442    252.18493  0.029766871  0.029963076            4 
  707000   0.99511738   -6.9638357     252.7793  0.029794826  0.029945644            2 
  708000   0.98505968   -7.0284985    251.64892  0.029619694  0.029927882            6 
  709000   0.98423867   -6.9824835    252.42759  0.029669439  0.029910361            3 
  710000   0.99157357   -6.9823646    252.92179  0.029685657  0.029892905            2 
  711000   0.96696281   -6.9809842    254.02953  0.029773738  0.029875958            3 
  712000   0.96568624   -6.9506354    254.05603  0.029735022  0.029858862            3 
  713000   0.97658101   -6.9539705    254.60829  0.029757865  0.029841975            3 
  714000   0.95371299   -6.9596699    254.40763  0.029692768  0.029825244            2 
  715000   0.98529855   -7.0085996    254.94632  0.029714024  0.029808251            2 
  716000   0.98420487    -6.947984    255.09801  0.029690178  0.029791286            3 
  717000   0.96231291   -6.9785613    254.75584  0.029609001  0.029774203            2 
  718000   0.97221016   -6.9967441    254.94171  0.029589335  0.029757212            5 
  719000   0.96344503   -6.9945455    255.24992  0.029583904  0.029739888            3 
  720000   0.97924744   -7.0061522    255.94674  0.029623466  0.029722575            3 
  721000   0.96203475   -6.9922937    255.88437   0.02957517   0.02970543            3 
  722000   0.96488832   -6.9706534    256.00518  0.029548151  0.029688242            3 
  723000   0.96165099   -6.9721171    255.84429  0.029488737  0.029671108            3 
  724000    0.9678831   -6.9799584    256.32075  0.029502848  0.029653941            4 
  725000   0.96213678    -6.958643    256.76573  0.029513302  0.029636861            5 
  726000   0.95821647   -7.0074815    256.32028  0.029421519  0.029619797            2 
  727000   0.94117892   -6.9924131    257.41776   0.02950685  0.029602273            4 
  728000   0.95725496   -6.9845665    256.70957  0.029385253  0.029584974            6 
  729000   0.97562996   -6.9904151    257.09932  0.029389497  0.029567468            2 
  730000   0.97870343   -6.9596519    257.04536  0.029343077  0.029549433            4 
  731000      0.97678   -6.9763001    257.16721  0.029316827  0.029531762            3 
  732000   0.94702978   -7.0140009    257.72706  0.029340512  0.029514201            3 
  733000   0.98271764   -7.0190817    257.33548  0.029255966  0.029496359            6 
  734000   0.97286595   -6.9977589    257.85701  0.029275319  0.029478367            4 
  735000   0.96421387   -6.9884321    257.30533  0.029172939  0.029460687            4 
  736000   0.96662612   -7.0230272    257.59982  0.029166647  0.029443022            4 
  737000   0.96686056   -7.0177094    257.87236  0.029157888  0.029425109            2 
  738000   0.97371604   -6.9943651    258.31154   0.02916797   0.02940694            4 
  739000    0.9669461   -6.9672726    259.04743  0.029211483  0.029388883            2 
  740000   0.96720871   -7.0068871    259.27045  0.029197123  0.029370797            4 
  741000   0.95369932   -6.9941219    258.46626  0.029067281  0.029352757            3 
  742000   0.94229077   -6.9868333    259.37817  0.029130523  0.029335094            3 
  743000   0.97900545   -6.9394812    259.81696  0.029140529  0.029317096            3 
  744000   0.95127792   -6.9969569     259.2253  0.029035092  0.029299088           14 
  745000   0.97092454   -6.9655404    259.86264  0.029067409  0.029280975            3 
  746000   0.94772461   -6.9987894    259.62886   0.02900233  0.029262825            3 
  747000   0.93695179   -7.0012334    260.03561  0.029008881  0.029244499            3 
  748000    0.9523502   -6.9816271     259.5766  0.028918962  0.029226154            2 
  749000   0.93408216    -7.017456    260.18215  0.028947725  0.029207489            2 
  750000    0.9692395   -7.0175573     260.0456  0.028893956  0.029188849            4 
  751000   0.96590517   -6.9646629    260.36999  0.028891477  0.029170208            8 
  752000   0.94913617   -6.9775198    260.55661  0.028873737  0.029151645            2 
  753000   0.96769191    -6.996107    260.79988  0.028862316  0.029133201            3 
  754000   0.94946092   -7.0126948    260.50551  0.028791502  0.029114668            3 
  755000   0.94244637   -6.9941757    260.77652   0.02878328  0.029095964            2 
  756000    0.9596186   -7.0099221    261.06941  0.028777493  0.029077304            3 
  757000   0.94700083   -7.0582249    261.71019  0.028810017  0.029058497            2 
  758000    0.9534488    -7.027369    261.17096  0.028712726  0.029039792            4 
  759000    0.9514826   -6.9956879    262.55078  0.028826392  0.029021139            6 
  760000    0.9333372   -6.9886183    261.30098  0.028651423  0.029002701            3 
  761000   0.93119897   -6.9552458    262.50364  0.028745471  0.028984219            3 
  762000     0.962477   -7.0315948    262.59336  0.028717559  0.028965697            4 
  763000   0.93987317   -7.0114849    262.66191  0.028687408  0.028947093            3 
  764000    0.9403124   -7.0398997    262.28668  0.028608931  0.028928412            4 
  765000   0.94056381   -7.0220478    263.34159  0.028686448  0.028909865            3 
  766000   0.93474194   -6.9868076    263.54468  0.028671092  0.028891583            8 
  767000   0.95382832   -7.0170865    263.05801  0.028580836   0.02887316            5 
  768000   0.93092118   -7.0404318    263.89022  0.028633922    0.0288548            2 
  769000    0.9457136   -7.0390986    264.19393  0.028629598   0.02883638            2 
  770000   0.96133739   -7.0295604    264.43535  0.028618545  0.028817994            4 
  771000   0.94770506   -7.0456381    263.67578  0.028499328   0.02879975            3 
  772000   0.95327148   -7.0227328    264.20388  0.028519417  0.028781517            6 
  773000   0.94719663   -7.0298971    264.57137  0.028522139  0.028763215            3 
  774000   0.95342675   -6.9958691    265.71842  0.028608788  0.028745147            3 
  775000   0.95609315    -7.002142    265.48683  0.028546971  0.028727356            5 
  776000   0.93974262   -7.0429973    265.88576  0.028553024  0.028709304            2 
  777000   0.93182944   -7.0156275    265.38298  0.028462353  0.028691345            6 
  778000   0.93752271   -7.0220201    265.46405  0.028434453  0.028673434            3 
  779000   0.93370873   -7.0300307    266.02251  0.028457692  0.028655139            8 
  780000   0.94306198   -7.0380505     265.6049  0.028376592   0.02863706            5 
  781000   0.95586355   -7.0568151     266.0748  0.028390397  0.028618807            4 
  782000   0.94262749   -7.0070998    266.28983  0.028377007   0.02860047            3 
  783000   0.94050248   -7.0301185    266.70209  0.028384642  0.028581929            9 
  784000   0.94504445   -7.0272274     266.6758  0.028345642  0.028563402            8 
  785000   0.93769576   -7.0083217    267.19508  0.028364658  0.028545087            2 
  786000   0.95428603   -7.0472089    266.60368   0.02826587  0.028526656            4 
  787000   0.93877556   -7.0353318    266.28634  0.028196351  0.028508126            3 
  788000   0.93037191   -7.0398272    267.40826  0.028279215  0.028489797            7 
  789000   0.93809098   -7.0215874    267.46213  0.028249063  0.028471536            3 
  790000   0.93446633   -7.0326593    267.81085  0.028250089  0.028453266            1 
  791000   0.95094563   -7.0156499    267.51895  0.028183623  0.028435104            2 
  792000   0.93736129   -7.0288519    267.64451  0.028161249  0.028416484            5 
  793000   0.94110897   -7.0294225    267.54428  0.028115204  0.028397938            5 
  794000   0.92408408   -7.0412481    268.37335  0.028166808  0.028379358            4 
  795000   0.91887094   -7.0588904     267.6583  0.028056426  0.028360602            5 
  796000   0.93594923   -7.0557079    267.72439  0.028028098  0.028341617            4 
  797000   0.94285602   -7.0252922    268.90394  0.028116263  0.028322696            3 
  798000   0.94395589   -7.0389194    269.24882  0.028117045  0.028303991            4 
  799000   0.94632864   -7.0390611    268.85789  0.028041082   0.02828549            2 
  800000   0.93656062   -7.0421324    269.11923  0.028033253  0.028266834            4 
  801000   0.92362428   -7.0246564    269.14328  0.028000757  0.028248073            3 
  802000   0.94819327   -7.0381828    269.88282  0.028042687  0.028229549            3 
  803000   0.94000669   -7.0754837     269.7132  0.027990161  0.028210987            4 
  804000   0.93686541   -7.0309804    270.09216  0.027994627  0.028192481            5 
  805000   0.93232951   -7.0753035    269.82134  0.027931815  0.028174082            6 
  806000   0.92585338   -7.0370994    270.00458  0.027916106  0.028155564            4 
  807000   0.94824072    -7.038774    269.98151  0.027879132  0.028137268            4 
  808000   0.93912504   -7.0305339    271.59243  0.028010771   0.02811883            3 
  809000   0.94481558   -7.0512379    269.92176  0.027804054  0.028100534            3 
  810000   0.92146269     -7.05573     270.8919  0.027869537  0.028082241            3 
  811000   0.93382621   -7.0760014     271.3194    0.0278791  0.028063984            4 
  812000   0.93316837   -7.0834503    271.07335  0.027819515  0.028045532            4 
  813000   0.92170506   -7.0559112    271.41675  0.027820495  0.028027245            3 
  814000   0.91503488   -7.0886741    271.74409  0.027819829   0.02800903            4 
  815000   0.91653674   -7.0984994    271.46637  0.027757297  0.027990893            5 
  816000   0.93798899   -7.0900769    271.95399   0.02777308  0.027972591            5 
  817000   0.92594916   -7.0654563    272.89954   0.02783553   0.02795451            2 
  818000    0.9311744   -7.0646941    273.13952   0.02782595  0.027936661            6 
  819000   0.94190906   -7.0604927    273.41898  0.027820409  0.027918933            5 
  820000   0.92224471   -7.0425187    273.39618  0.027784164  0.027901119            2 
  821000    0.9238815   -7.0534567    273.14372  0.027724698  0.027883381            2 
  822000   0.92836995   -7.0835012    273.48888  0.027725961  0.027865526            4 
  823000   0.93699208   -7.0552213    273.78147  0.027721898  0.027847658            4 
  824000   0.93348986   -7.0322399    273.47392  0.027657152  0.027829542            3 
  825000   0.92587345   -7.0476621    273.70107  0.027646573  0.027811492            2 
  826000   0.92985451   -7.0544863    273.07957  0.027550401  0.027793222            6 
  827000   0.93309502   -7.0690099    273.69311   0.02757891  0.027774954            4 
  828000   0.92720691   -7.0724304    273.48068  0.027524224  0.027756534           11 
  829000   0.91779801    -7.068761    273.65385  0.027508429  0.027738237            2 
  830000   0.92631436    -7.049742    274.11882  0.027521969  0.027719823            5 
  831000   0.91679348   -7.0749132    274.23208  0.027500208  0.027701435            2 
  832000   0.91287673   -7.0847767     273.7077  0.027414633   0.02768316           10 
  833000   0.94143499   -7.0911325     274.1079  0.027421759  0.027664904            3 
  834000   0.94029726    -7.051148    274.88822  0.027466849  0.027646618            5 
  835000   0.91665156   -7.0762367    275.05619  0.027450718  0.027628324            4 
  836000   0.91181374   -7.0893647    275.47811  0.027459939  0.027609986            3 
  837000   0.88935128   -7.0753824    275.71158  0.027450377  0.027591658            4 
  838000   0.90533301    -7.091704    274.69083  0.027316113   0.02757332            4 
  839000   0.89434174   -7.0556218    275.99303  0.027412895  0.027555188           10 
  840000   0.91912815   -7.1147653    275.24816  0.027306365  0.027536977            7 
  841000   0.89848836   -7.0998131    275.75181  0.027323802  0.027518699            4 
  842000   0.90968649     -7.07847    275.72342  0.027288542  0.027500271            5 
  843000   0.91430567   -7.1252291    275.30645  0.027214951  0.027481773            5 
  844000   0.92540364   -7.0963482    275.70147  0.027221709  0.027463387            3 
  845000   0.91404387   -7.0379363    276.87468  0.027305196  0.027445204            4 
  846000   0.93558501   -7.0542299     276.1263  0.027199203  0.027426846            4 
  847000   0.93354663   -7.0752164    275.89271  0.027144108  0.027408259            3 
  848000   0.92621115   -7.0610453    276.41943  0.027163859  0.027389659            4 
  849000   0.92179012   -7.0898177    275.78302  0.027069397  0.027370796            7 
  850000   0.89759934   -7.0830037    276.96847  0.027153772  0.027352279            4 
  851000   0.91755776    -7.067062    276.52861   0.02707879  0.027333955            2 
  852000   0.91011768   -7.0834289    276.13307  0.027008321  0.027315323            4 
  853000   0.89852394   -7.0649392     277.5897  0.027118962  0.027296842            3 
  854000   0.90668616   -7.0857987    276.97096  0.027026831  0.027278304            4 
  855000   0.91610789   -7.1039732    277.27938   0.02702528  0.027259702            4 
  856000    0.8989824   -7.0910506    277.97874  0.027061794   0.02724109            5 
  857000   0.90237135   -7.1065312    277.32268  0.026966421  0.027222588            4 
  858000   0.92576685   -7.0858648    278.55981  0.027055148  0.027204145            6 
  859000   0.92848643   -7.1249656    277.71168  0.026941373  0.027185863            2 
  860000    0.9206798   -7.1310357    279.01258  0.027036103  0.027167404            3 
  861000   0.90606356   -7.0586345    278.77049  0.026981271  0.027149062            8 
  862000   0.90691026   -7.0882486    278.10116  0.026885263  0.027130587            5 
  863000   0.89341338    -7.106897    277.92544  0.026837142  0.027112187            5 
  864000   0.91643116   -7.0864493    279.25418  0.026934238  0.027093856            4 
  865000   0.89969456    -7.079704    278.62026  0.026842029  0.027075395           10 
  866000   0.89931688   -7.0677731    279.07392  0.026854689  0.027057078            4 
  867000   0.91229233   -7.0635742    279.69803  0.026883701  0.027038727            7 
  868000   0.88857168   -7.1080966    279.69371  0.026852314  0.027020269           14 
  869000   0.92475397    -7.098468    279.69542  0.026821578  0.027002036            1 
  870000   0.88307986   -7.1104161    279.83493  0.026804112  0.026983671            6 
  871000   0.89783801    -7.084297    279.91704  0.026781194  0.026965182            5 
  872000   0.89959381   -7.1127477    279.78686  0.026738041  0.026946595            4 
  873000   0.91478152   -7.0898033    280.65334  0.026790124  0.026928187            3 
  874000   0.91166257   -7.0852726    280.39171  0.026734526  0.026909817            2 
  875000   0.91850347   -7.0949412    279.86346  0.026653662  0.026891451            4 
  876000   0.90207921   -7.1171691     280.6346  0.026696595  0.026872983            5 
  877000   0.90379356   -7.1114149    280.50724  0.026654052  0.026854473            5 
  878000   0.91523937   -7.1077291    281.20523  0.026689942  0.026836078            6 
  879000   0.90208117   -7.0841623    281.13489  0.026652909  0.026817766            9 
  880000   0.91330679   -7.0989697    280.55686  0.026567884  0.026799386            3 
  881000   0.90782385   -7.1408794    281.94463  0.026668996  0.026780963            2 
  882000   0.90109167   -7.1082074    281.37757  0.026585183  0.026762657            2 
  883000   0.89929551    -7.129424    281.59521  0.026575615   0.02674427            2 
  884000   0.90223803   -7.1465047    281.65239  0.026550941  0.026726011            2 
  885000   0.91036174   -7.1090228    281.25425  0.026483451  0.026707514            5 
  886000   0.90696763   -7.1477856    281.50433  0.026477082  0.026689032            9 
  887000   0.89036525   -7.1140175    281.97329  0.026491289  0.026670553            3 
  888000   0.90759799    -7.113571    282.23694  0.026486199  0.026651959            7 
  889000   0.90887144   -7.1196538    282.39234  0.026470973  0.026633426            3 
  890000   0.90937209   -7.1176383    282.44234  0.026445912  0.026614902            4 
  891000   0.88745363    -7.114311    282.67662  0.026438143   0.02659633            7 
  892000     0.878727   -7.1280172    282.83589  0.026423383  0.026577796            7 
  893000   0.88610346   -7.1437369    282.80217  0.026390647  0.026559449            8 
  894000   0.91491154    -7.123549    283.01122  0.026380614  0.026541022            5 
  895000   0.88627036   -7.1192902    282.69078  0.026321302  0.026522614            4 
  896000   0.90325903   -7.1108911    284.42156  0.026452898  0.026504321            4 
  897000   0.89977122   -7.1656043    283.19814  0.026309749  0.026485967            5 
  898000   0.91040027   -7.1359172    283.63161  0.026320677  0.026467434            3 
  899000   0.90651999   -7.0941172     282.6935   0.02620444  0.026448847            4 
  900000   0.87516922   -7.1308541    283.14838  0.026217443  0.026430354            4 
  901000   0.88384219   -7.1140962    282.58582  0.026136314  0.026411709            8 
  902000   0.90688519   -7.1164964    284.02272  0.026240089   0.02639321            3 
  903000   0.90550104   -7.1683492    283.29518  0.026143889  0.026374788            5 
  904000   0.88570959   -7.1474185    283.40688  0.026125265   0.02635631            2 
  905000   0.90455331   -7.1591192    283.46552  0.026101798  0.026337981            3 
  906000   0.89743154   -7.1269399    284.04282  0.026126087   0.02631957            2 
  907000   0.89807385   -7.1302392    285.06584  0.026191276  0.026301237            5 
  908000    0.8964194   -7.1349809     284.5133   0.02611172  0.026282929            3 
  909000   0.91378217   -7.1202169    284.73851   0.02610364  0.026264651            5 
  910000   0.88444896   -7.1537162    284.58908  0.026061271  0.026246338            7 
  911000   0.90864794   -7.1492052    284.71036  0.026043758  0.026227925            4 
  912000   0.88036719   -7.1368526    285.24285  0.026063856  0.026209776            7 
  913000   0.89379723   -7.1267406    286.06894   0.02611071  0.026191585            4 
  914000   0.89318398   -7.1443708     285.1997  0.026002891  0.026173401            2 
  915000   0.89189271   -7.1138611    286.28455  0.026073274  0.026155214            4 
  916000   0.89726867   -7.1215002    285.97051   0.02601624  0.026137128            7 
  917000     0.886206   -7.1646861    286.29705  0.026017543  0.026118856            6 
  918000   0.89344202   -7.1666073    285.62073  0.025927807    0.0261005            4 
  919000    0.8883061   -7.1174715    285.87337  0.025922503  0.026082364            8 
  920000   0.88821384   -7.1901454    285.90891  0.025897546  0.026064177            8 
  921000   0.86862064   -7.1356474    286.87984  0.025957278  0.026046075            2 
  922000   0.91562023   -7.1218466    286.90279  0.025931199  0.026027909            5 
  923000    0.9149912   -7.1651133    287.28484  0.025937598  0.026009896            2 
  924000    0.8934063   -7.1246686    287.45646  0.025925006  0.025991914           12 
  925000   0.88107679   -7.1552585    287.29955  0.025882842  0.025973928            3 
  926000   0.90651797   -7.1390958    287.73023  0.025893649  0.025955908            3 
  927000   0.89984078   -7.1506258    287.17726  0.025816007  0.025937898            5 
  928000   0.88209646    -7.143208    287.39123  0.025807402  0.025919897            5 
  929000   0.86823144   -7.1439412    288.61069   0.02588901  0.025902001            3 
  930000   0.86299874   -7.1359271    288.71715  0.025870712  0.025884173            3 
  931000    0.8620176   -7.1071295    287.98387  0.025777289  0.025866338            6 
  932000   0.89973159   -7.1801628    288.57017  0.025802054  0.025848633            4 
  933000   0.90417112   -7.1590672    288.61082  0.025778029  0.025830994            3 
  934000   0.84924721   -7.1390638    289.00901  0.025785957  0.025813384            5 
  935000   0.86696893    -7.144299    288.06214  0.025673988  0.025795769            4 
  936000    0.8848643   -7.1833307     288.3277  0.025670201  0.025777812            4 
  937000   0.86162376   -7.1780578    287.93118   0.02560754  0.025759825            3 
  938000   0.87822598   -7.1852528    288.12429  0.025597396  0.025741883            7 
  939000   0.88567928   -7.1575839     288.9656    0.0256448  0.025723954            4 
  940000   0.87331936   -7.1640125    289.29882  0.025647059  0.025706051            7 
  941000    0.8534097   -7.1413996    289.81075  0.025665139  0.025688398            3 
  942000   0.87575845   -7.1474981    289.62437  0.025621406  0.025670771            6 
  943000   0.90673041   -7.1883967    289.44093  0.025578025  0.025653053            8 
  944000   0.88384796   -7.1704468    289.74668   0.02557792  0.025635582           10 
  945000   0.87920828   -7.1602548    289.96427  0.025570042  0.025617954            5 
  946000   0.88021726   -7.1664603    290.06419  0.025551813  0.025600357            3 
  947000   0.87673527   -7.1424316    290.30731  0.025546226  0.025582933            6 
  948000   0.88333235   -7.1689705    289.91368  0.025484677  0.025565475            5 
  949000   0.87504128   -7.1874944    290.53304  0.025512209  0.025548059            3 
  950000   0.88900704   -7.1727144    290.95395  0.025522276  0.025530621            5 
  951000   0.86571828   -7.1698626    290.40888  0.025447676  0.025513294            3 
  952000   0.86666309   -7.1830209    290.38376  0.025418747  0.025495827            3 
  953000   0.88215069   -7.1910616    290.68025     0.025418  0.025478302            3 
  954000    0.8802876   -7.1481387    291.15607   0.02543292  0.025460893            2 
  955000   0.87275127   -7.1483079    292.24656  0.025501445  0.025443529            6 
  956000   0.85084854   -7.1681101    291.29029  0.025391413   0.02542619            4 
  957000   0.88967428   -7.1700761    291.70557  0.025401043  0.025408713            5 
  958000   0.87772003   -7.1960621    291.31104  0.025340209  0.025391208            4 
  959000   0.87840677   -7.1821527    291.40472  0.025321926  0.025373721            8 
  960000   0.86696957   -7.1967248    291.95793   0.02534357  0.025356248            4 
  961000   0.87450534   -7.1934928    291.18035   0.02524977  0.025338801            3 
  962000     0.867596   -7.2054815    291.64719  0.025263963  0.025321154            6 
  963000   0.86911097   -7.1990466    292.10551   0.02527739  0.025303588            8 
  964000   0.86232896   -7.2032792    292.92851  0.025322313  0.025286239            4 
  965000   0.87959842   -7.2017213    292.73335  0.025279218  0.025268683            4 
  966000   0.87716838   -7.1663373    293.38579  0.025309333  0.025251326            3 
  967000   0.87320358   -7.1807828    292.47494  0.025204666  0.025234088            4 
  968000   0.87699155   -7.1958784    293.37562  0.025256166  0.025216819            6 
  969000   0.83831711   -7.1758932    293.32926  0.025226115   0.02519953            3 
  970000   0.86142624   -7.1854719     293.2519  0.025193462  0.025182291           10 
  971000   0.88006651   -7.2132538    293.30741   0.02517228  0.025165044           10 
  972000    0.8640071   -7.1833815    293.50746  0.025163534  0.025147888            6 
  973000   0.87699022    -7.206584    293.12407  0.025104836  0.025130535            5 
  974000   0.85196929    -7.189145     294.2773  0.025177729  0.025113181            5 
  975000   0.87427888   -7.1797014    294.12088  0.025138536   0.02509591            4 
  976000   0.86707504   -7.1716745    293.22803  0.025036547   0.02507864            2 
  977000    0.8751237   -7.1994873    294.43836  0.025114156  0.025061307            3 
  978000    0.8661108   -7.2000586    294.01496    0.0250524  0.025044083            7 
  979000   0.86116157   -7.2127867    293.71344  0.025001144   0.02502687            2 
  980000   0.86912587   -7.2044713    294.46364  0.025039426  0.025009537            3 
  981000   0.88189195   -7.1969858    294.64405  0.025029226  0.024992297            2 
  982000   0.87152025   -7.1973152    294.75076  0.025012794  0.024975129            4 
  983000   0.83956543   -7.2114921    294.53038  0.024968666  0.024957936            2 
  984000   0.88096658   -7.2138031    294.68136  0.024956077  0.024940817            3 
  985000   0.85775913   -7.2172498    294.25708  0.024894846  0.024923417            4 
  986000   0.87232705   -7.2229386    294.32368  0.024875226  0.024906021            5 
  987000   0.86687006   -7.1980453    294.37333  0.024854215  0.024888666            4 
  988000   0.85060328   -7.1955305    294.90873  0.024874218  0.024871183            7 
  989000   0.84928462    -7.225839    294.94378  0.024852021  0.024853702            3 
  990000   0.87827469   -7.2041822    295.65301  0.024886617  0.024836322            2 
  991000   0.86633127   -7.2056304    295.31441  0.024833031  0.024818884            5 
  992000     0.875093   -7.1941616    295.39642  0.024814888   0.02480139            7 
  993000   0.86887466   -7.1835539    295.99046   0.02483975  0.024784036            3 
  994000   0.85783695   -7.2099067    294.90009  0.024723347  0.024766693            3 
  995000   0.84998925   -7.1874479    296.40028  0.024824144   0.02474937            3 
  996000   0.86155472   -7.2182458    296.40659  0.024799748  0.024732221            4 
  997000   0.85425244   -7.1891036    296.63081  0.024793615  0.024715184            6 
  998000   0.84809283   -7.2411189    296.52072  0.024759579  0.024698053            3 
  999000   0.87062752   -7.1947374    296.35436  0.024720918   0.02468082            6 
 1000000   0.84020389   -7.2164711    296.94976  0.024745813  0.024663646            6 
 1001000   0.84153651   -7.2133992    296.80283   0.02470886  0.024646495            5 
 1002000   0.85047613   -7.2090783    296.83171  0.024686602  0.024629416            5 
 1003000   0.86091144   -7.2420445    297.14266  0.024687825  0.024612229           11 
 1004000   0.85285517   -7.2323937    296.70178  0.024626642  0.024595042            4 
 1005000    0.8412181   -7.1931493    297.26415  0.024648769   0.02457782            5 
 1006000   0.86397528   -7.2444698    296.52902  0.024563372  0.024560602            4 
 1007000    0.8455631     -7.21944    296.24306  0.024515315  0.024543245            5 
 1008000   0.87511036   -7.2455817    296.59415  0.024520019   0.02452602            5 
 1009000   0.86139564   -7.2246446    296.56085  0.024492968  0.024508672            6 
 1010000   0.86686084   -7.2294465    297.06924  0.024510664  0.024491166            6 
 1011000   0.85076024   -7.2267097    296.35955  0.024427922  0.024473709            3 
 1012000   0.85025797   -7.2306547    296.32127  0.024400632  0.024456194            4 
 1013000   0.86092658   -7.2188359    296.73696  0.024410741  0.024438735            5 
 1014000   0.85731295   -7.2263068    296.78031   0.02439023  0.024421166            5 
 1015000   0.83515447   -7.2682332    296.51852  0.024344706  0.024403554            9 
 1016000   0.84902601    -7.226981    297.96691  0.024439543  0.024386007            4 
 1017000   0.85084094   -7.2281966    297.08311  0.024343093  0.024368439            4 
 1018000   0.85191904     -7.20908    296.28716  0.024254024  0.024350953            2 
 1019000   0.87852517   -7.2218366    298.04099   0.02437365  0.024333465            4 
 1020000   0.83798527   -7.2216293    297.54058  0.024308871  0.024316084            3 
 1021000   0.84309033   -7.2284062    298.05844  0.024327329  0.024298715            2 
 1022000   0.85493202   -7.2699937    297.45593  0.024254397  0.024281243            4 
 1023000   0.84187709    -7.237106    297.65511  0.024246913  0.024263694            4 
 1024000   0.85691423   -7.2123526    298.08218   0.02425799   0.02424618            5 
 1025000   0.84230112    -7.204294    298.51161  0.024269237  0.024228781            2 
 1026000   0.85266448   -7.2402941    299.10141  0.024293487  0.024211273            4 
 1027000   0.85503655   -7.2461908    298.32165  0.024206561  0.024193873            8 
 1028000   0.83602645   -7.2318173    298.71001  0.024214495  0.024176398            6 
 1029000   0.83627449   -7.2457522    297.89387  0.024124868  0.024158916            5 
 1030000   0.84457261    -7.246779    297.61986  0.024079277  0.024141466            6 
 1031000   0.85009978   -7.2080617    298.46023  0.024123847   0.02412402            7 
 1032000   0.84974261   -7.2807644    298.06572  0.024068615  0.024106527            3 
 1033000   0.87196461   -7.2309912    298.20974  0.024056933  0.024089079            2 
 1034000   0.84180755   -7.2464896    298.41965  0.024050584  0.024071582            6 
 1035000   0.83564471    -7.203511    299.35589  0.024102729  0.024054249            3 
 1036000   0.84102927   -7.2266722    298.99391  0.024050347  0.024037083            6 
 1037000   0.83788685   -7.2659645     299.6519  0.024080031  0.024019924            3 
 1038000   0.83923434   -7.2186457    298.85935  0.023993204  0.024002608            4 
 1039000   0.84263505   -7.2421149    299.30246  0.024005651  0.023985198            4 
 1040000   0.83394843   -7.2722123    299.18844  0.023973433  0.023967667            6 
 1041000   0.83815146   -7.2340358    298.45392  0.023891605  0.023950038            8 
 1042000   0.82668306    -7.277027    298.95645  0.023908866  0.023932417            4 
 1043000    0.8387363   -7.2276146    298.47413  0.023847406   0.02391479            5 
 1044000   0.82011151   -7.2479356    299.42335  0.023900331   0.02389717            3 
 1045000   0.83072297    -7.266979    300.13183  0.023933958  0.023879533            3 
 1046000   0.83354071   -7.2601654    299.02293  0.023822732  0.023861894            5 
 1047000   0.84162228   -7.2725727     299.2206  0.023815711  0.023844263            4 
 1048000   0.83494027   -7.2651027    299.40412  0.023807579  0.023826706            5 
 1049000   0.83797703   -7.2268275    300.13569  0.023843001  0.023809079            5 
 1050000   0.84518831   -7.2562392    298.90307  0.023722465  0.023791434            5 
 1051000   0.83880547   -7.2540602    299.07955  0.023713887  0.023773775            3 
 1052000   0.84239412   -7.2676489     299.6987  0.023740391  0.023756142            5 
 1053000    0.8274326   -7.2504557    299.99258  0.023741103  0.023738629            6 
 1054000    0.8322016   -7.2459301    300.19179  0.023734329  0.023721106            5 
 1055000    0.8292743    -7.260028    300.91676  0.023769096  0.023703571            2 
 1056000   0.84353324   -7.2650089    299.72912  0.023652866  0.023686086            2 
 1057000   0.84307887   -7.2632623    299.37405  0.023602495  0.023668592            3 
 1058000   0.85202825   -7.2777946     300.5981  0.023676599  0.023650974            3 
 1059000   0.83946866   -7.2405376    301.18438  0.023700376  0.023633419            3 
 1060000   0.82530256   -7.2262182    299.91948  0.023578576  0.023616002            3 
 1061000   0.83595796    -7.269041    299.65389  0.023535493  0.023598416            4 
 1062000   0.84523042   -7.2578952    300.32022  0.023565617  0.023580738            3 
 1063000   0.83446256    -7.296347     299.7869  0.023501639  0.023562973            5 
 1064000   0.82347001   -7.2472934    300.48653  0.023534346  0.023545407           12 
 1065000   0.83082055   -7.2785082    299.87557  0.023464442  0.023527708            5 
 1066000   0.83915372   -7.2696154    300.72413  0.023508765   0.02351023            5 
 1067000   0.82786665   -7.2767314    300.88122  0.023499002  0.023492837            6 
 1068000   0.83297559   -7.2518019     301.3268  0.023511766  0.023475409           10 
 1069000   0.81400249    -7.278962    300.43879  0.023420548  0.023457946            4 
 1070000   0.83249368   -7.2785294    300.81567  0.023428012   0.02344047            3 
 1071000   0.83457016   -7.2925754    301.43821  0.023454576  0.023422998            8 
 1072000   0.82059625   -7.2807244    301.31629  0.023423219  0.023405494            5 
 1073000   0.83862076   -7.3016623     301.3353  0.023402866  0.023388026            4 
 1074000   0.83485915   -7.3008401    301.43778  0.023389027  0.023370494           11 
 1075000   0.83342091   -7.2811543    301.38984  0.023363554  0.023353064            4 
 1076000   0.81761212   -7.2833255    301.10467  0.023319755  0.023335548            5 
 1077000   0.81369584   -7.2754868    301.48228  0.023327319   0.02331804            4 
 1078000   0.82395551   -7.2836626    301.02384  0.023270242  0.023300449            6 
 1079000   0.82125565   -7.2898301    301.48513  0.023284301  0.023282946            5 
 1080000   0.81165626   -7.2850151    300.98736  0.023224333  0.023265391           10 
 1081000    0.8205182   -7.2945902    301.18203  0.023217856  0.023247953            9 
 1082000   0.82520087   -7.2770682    301.98334  0.023258113  0.023230581            2 
 1083000   0.82016788   -7.3124568    301.64725  0.023210777  0.023213136            5 
 1084000   0.81667947   -7.3088942    302.12376  0.023225996  0.023195774            5 
 1085000   0.81710819   -7.2584501    302.86983  0.023261891  0.023178407            2 
 1086000   0.81328747   -7.2744343    302.58259  0.023218431  0.023161184            4 
 1087000   0.82533661   -7.2762478    301.85563  0.023141339   0.02314392            4 
 1088000   0.83444338   -7.2681517    302.48405  0.023168202  0.023126563            5 
 1089000   0.82332055   -7.3022969     302.0529  0.023113935  0.023109302            5 
 1090000   0.80867425   -7.3275825    301.50985  0.023051212  0.023091983            9 
 1091000    0.8129937   -7.3370529    302.99099  0.023143216  0.023074676            5 
 1092000   0.82513457   -7.2994699    302.58417  0.023090977  0.023057404            7 
 1093000   0.80935762    -7.287393    302.78204  0.023084937  0.023040083            5 
 1094000   0.84139237   -7.3115576    302.40929  0.023035442  0.023022714            9 
 1095000   0.83598756   -7.3212689    302.05753  0.022987636  0.023005468            7 
 1096000   0.82719687   -7.3065035    302.55912  0.023004799  0.022988143           10 
 1097000   0.81674246    -7.326717    303.29776  0.023039939  0.022970939            6 
 1098000   0.81599667   -7.2807218    302.87583  0.022986933  0.022953795            8 
 1099000   0.83757363   -7.3266359    303.02661   0.02297745  0.022936786            3 
 1100000   0.79096252   -7.3215503    304.49543  0.023067835   0.02291972            2 
 1101000   0.79562895   -7.2988791    304.57099  0.023052603  0.022902814            6 
 1102000    0.8032368   -7.3199884    303.78378  0.022972155  0.022885883            6 
 1103000   0.81868275   -7.3362314    303.94809  0.022963742  0.022868945            6 
 1104000   0.81686058   -7.2855493    304.46328   0.02298183  0.022852003            5 
 1105000   0.82897778   -7.3225656     304.8649   0.02299132  0.022835059            2 
 1106000   0.81236077   -7.2912087    304.21529  0.022921586  0.022818137            5 
 1107000   0.81076578   -7.2870307    304.49345  0.022921819  0.022801287            4 
 1108000   0.82035719   -7.3302351    304.21062   0.02287986    0.0227843            4 
 1109000   0.81406428   -7.2912479     304.5855  0.022887398  0.022767345            6 
 1110000   0.83645209   -7.3307752    305.01327  0.022898894  0.022750454            7 
 1111000   0.81954573   -7.2983228    304.67857  0.022853178  0.022733611            6 
 1112000   0.81724871   -7.2929852    304.37811   0.02281011  0.022716776            5 
 1113000   0.81499036   -7.3516693    305.33933  0.022861585  0.022699856            5 
 1114000   0.83435222   -7.2912454    304.51156  0.022779141  0.022682976            6 
 1115000   0.80591315   -7.3445974    305.16278  0.022807383  0.022666228            3 
 1116000   0.82055653   -7.2947899    304.94455  0.022770651  0.022649408            7 
 1117000   0.80694137   -7.3117947    305.23809  0.022772164  0.022632759            3 
 1118000   0.82124888   -7.3232175    305.24098  0.022752011    0.0226161            4 
 1119000   0.80159878   -7.3212056    305.65054  0.022762179  0.022599599            5 
 1120000   0.81197731     -7.32266    306.33827  0.022793026  0.022583009            4 
 1121000   0.82415298   -7.3335527    306.03321  0.022750015   0.02256639            4 
 1122000    0.7933819   -7.3298732    304.94492  0.022648909  0.022549751            8 
 1123000   0.80705385   -7.3086286    305.60747  0.022677906  0.022533022            7 
 1124000   0.79545465     -7.34964     305.0686  0.022617779  0.022516236            7 
 1125000   0.79992903   -7.3214818    306.45614  0.022700455  0.022499624            5 
 1126000   0.79415698   -7.3646649    306.31047  0.022669514  0.022483121            8 
 1127000   0.79450732   -7.3236163    306.47791   0.02266178  0.022466561           12 
 1128000   0.79864768   -7.3311119    306.85166  0.022669301  0.022450073            5 
 1129000   0.80710928   -7.3203593    306.61513  0.022631763  0.022433635            3 
 1130000   0.78819062   -7.3064044    306.98903  0.022639309  0.022417231            7 
 1131000   0.78517312    -7.322268    306.51211  0.022584152  0.022400796           11 
 1132000   0.79803135    -7.325445    306.32934  0.022550747  0.022384305            3 
 1133000   0.79799267   -7.3126069    307.31006  0.022602976  0.022367873            5 
 1134000   0.78814305   -7.3258437    307.45007  0.022593333  0.022351475            5 
 1135000   0.79740461   -7.3355543    306.64078  0.022514007  0.022335145            4 
 1136000    0.8079701   -7.3311256    306.97936  0.022519026  0.022318773            4 
 1137000   0.79455357   -7.3063984    308.03138  0.022576325  0.022302565           10 
 1138000    0.8126815   -7.3365322    306.91889  0.022475021  0.022286243            4 
 1139000   0.79692903   -7.3429234    306.75959  0.022443634   0.02226982            4 
 1140000   0.79345665   -7.3182312    306.99743  0.022441333  0.022253453            3 
 1141000   0.79966125   -7.2986137    307.60908  0.022466337  0.022237093            5 
 1142000   0.80939344   -7.3345354    307.74958  0.022456916  0.022220779            5 
 1143000   0.77367878   -7.3187437    307.57577  0.022424597  0.022204481            6 
 1144000   0.78513079   -7.3517163    307.30295  0.022385121  0.022188083            5 
 1145000   0.80513313    -7.322282    307.47449  0.022378056  0.022171764            2 
 1146000   0.79694321   -7.3605819    307.68131  0.022373568  0.022155496            5 
 1147000   0.80574151   -7.3444329    307.37486  0.022331798  0.022139089            5 
 1148000   0.80008524   -7.3279841    308.03206  0.022360051  0.022122788            7 
 1149000   0.78450607   -7.3389247    307.45807  0.022298961  0.022106473            7 
 1150000   0.79637013    -7.310398    308.65947  0.022366628    0.0220902            9 
 1151000   0.77216826   -7.3551756    307.65811  0.022274697  0.022073925            4 
 1152000   0.81124782   -7.3474371    308.93843  0.022347976  0.022057737            2 
 1153000   0.79594998   -7.3483938    308.87446  0.022323971   0.02204151           11 
 1154000   0.80845418   -7.3501127    308.10353  0.022248955  0.022025231           13 
 1155000   0.81392459   -7.3497646    309.16195  0.022306057  0.022009068            3 
 1156000   0.78833645   -7.3482247    308.73252  0.022255805  0.021992848            8 
 1157000   0.78548039   -7.3837002    308.15868  0.022195238  0.021976653            5 
 1158000   0.77591386   -7.3501414    308.62749  0.022209808  0.021960545           10 
 1159000   0.78929475   -7.3534197    309.26877  0.022236754  0.021944477            8 
 1160000   0.79060234   -7.3304829    309.37163  0.022224974  0.021928476            9 
 1161000   0.78451257   -7.3681083    309.82757  0.022238556  0.021912546            9 
 1162000   0.77207127   -7.3515439    310.20106  0.022246203  0.021896639            9 
 1163000   0.79468059   -7.3470868    309.81213  0.022199207  0.021880776            9 
 1164000   0.80049545   -7.3328902    308.99645  0.022121739  0.021864919            7 
 1165000    0.7902031    -7.372623    309.79282  0.022159715  0.021849219            4 
 1166000    0.7821854    -7.323379    310.12889  0.022164729  0.021833473            5 
 1167000   0.78830075   -7.3353099    309.85217  0.022125976  0.021817708            6 
 1168000   0.78257389   -7.3537362    309.90493  0.022110797  0.021801929            4 
 1169000   0.77903777   -7.3392666    309.72006  0.022078704  0.021786238            4 
 1170000    0.7852497   -7.3352915    310.39993  0.022108257  0.021770639           10 
 1171000   0.78354373   -7.3428929     311.3654  0.022158084  0.021755038            7 
 1172000   0.76717998   -7.3858195    310.61042  0.022085496  0.021739345            8 
 1173000   0.78499847   -7.3787948    309.90233  0.022016363  0.021723674            6 
 1174000   0.78590928   -7.3680121    310.84033  0.022064192  0.021708045            3 
 1175000     0.786298   -7.3621886    311.52305  0.022093834  0.021692509            4 
 1176000    0.7927976   -7.3725917    310.79944   0.02202377  0.021676974            3 
 1177000   0.79564588   -7.3460265    310.75459  0.022001882  0.021661401            9 
 1178000   0.77807488   -7.3300113     311.4508  0.022032456  0.021645858            5 
 1179000   0.78451482   -7.3580802     311.6427  0.022027333  0.021630318            7 
 1180000   0.76735108   -7.3594795    310.86289  0.021953594  0.021614652           12 
 1181000   0.77561091   -7.3570264    310.69181  0.021922933  0.021599038            2 
 1182000    0.7920044   -7.3883413    311.10146  0.021933267  0.021583412            4 
 1183000   0.77478511   -7.3836322    311.26309  0.021926113   0.02156779            5 
 1184000   0.76835625   -7.3877649    311.91961  0.021953802  0.021552199            9 
 1185000   0.78673644   -7.3897672    311.04568  0.021873817  0.021536607            6 
 1186000   0.75415388     -7.36527    311.52672  0.021889174  0.021521143            3 
 1187000   0.78745468   -7.3645401    311.55567  0.021872766  0.021505713            3 
 1188000   0.78352034   -7.3965243    311.96129  0.021882806  0.021490277            5 
 1189000   0.76808252   -7.3941258    312.05804  0.021871183   0.02147491            2 
 1190000   0.78784255   -7.3758414    312.30323  0.021869974  0.021459547            5 
 1191000   0.77698501    -7.367036    312.05059  0.021833935  0.021444206            6 
 1192000   0.77964665   -7.3617194    312.36801  0.021837808  0.021428858            4 
 1193000   0.76850173   -7.3969129    312.20004   0.02180777  0.021413565           10 
 1194000   0.77918301   -7.3951588    311.59237  0.021747095  0.021398217            6 
 1195000   0.75840063   -7.3908327    313.14975    0.0218375  0.021382974            4 
 1196000   0.77090329   -7.3752926    313.27761   0.02182815  0.021367743            7 
 1197000   0.76759898   -7.3839095    313.44026  0.021821237    0.0213526            4 
 1198000   0.76212131   -7.3926872    313.02915  0.021774426  0.021337486            6 
 1199000   0.78439212   -7.3770828     313.1946  0.021767765  0.021322398            3 
 1200000   0.76674926    -7.382146    314.16182  0.021816793  0.021307353            3 
 1201000   0.78861098   -7.3778549    314.51677  0.021823256   0.02129231            4 
 1202000   0.79055684   -7.3808556    313.35354  0.021724455  0.021277244            8 
 1203000    0.7679717   -7.3990213    313.60076  0.021723522  0.021262297            7 
 1204000   0.77945007   -7.3860716    314.27497  0.021752143  0.021247336            6 
 1205000   0.76249138   -7.4146071    313.82211  0.021702774  0.021232328            6 
 1206000   0.77127587   -7.3882087    313.54925  0.021665924  0.021217299            5 
 1207000   0.77575724   -7.3737662    313.92139  0.021673666  0.021202376            3 
 1208000   0.76142612   -7.3756711    314.02622  0.021662957  0.021187566            7 
 1209000   0.77384361   -7.3669616    314.40606   0.02167122  0.021172759            3 
 1210000   0.76133011    -7.389059    314.11846  0.021633503  0.021157962            8 
 1211000   0.78754796   -7.3933354    314.43782  0.021637615  0.021143155           10 
 1212000   0.76734607   -7.3802731     314.4915  0.021623453  0.021128445            3 
 1213000   0.75861923   -7.3839197    314.53133  0.021608363  0.021113664            7 
 1214000   0.77100542    -7.422522    313.75166  0.021537044  0.021098842           11 
 1215000   0.78050405   -7.4072625     315.0182  0.021606187  0.021084042            3 
 1216000   0.78501073    -7.395835    314.89708  0.021580118  0.021069303            4 
 1217000   0.78726942   -7.4165066     315.4526  0.021600425  0.021054557            6 
 1218000   0.75405075   -7.4274719    314.07501  0.021488438  0.021039761            8 
 1219000   0.75666443   -7.4121253    314.87534  0.021525522  0.021024988            6 
 1220000   0.77594804   -7.4037314    315.85823  0.021575016  0.021010222            6 
 1221000   0.76072108   -7.3950518    315.22105  0.021513858   0.02099552            4 
 1222000   0.77162307   -7.3977781     315.6582  0.021526064   0.02098089            5 
 1223000   0.76901914   -7.3776617    315.76177   0.02151552  0.020966375            5 
 1224000   0.76721481   -7.3940595    314.93982  0.021441981  0.020951884            6 
 1225000   0.76207288   -7.3964143    316.19255  0.021509697  0.020937305           14 
 1226000   0.77443264   -7.4139668    315.50324  0.021445299  0.020922698            9 
 1227000   0.77964398   -7.3998063    315.86948  0.021452695  0.020908086           12 
 1228000   0.76480801   -7.4367439    315.97805  0.021442593   0.02089349            5 
 1229000   0.75394722   -7.4210573    316.09298  0.021432939  0.020878884            5 
 1230000   0.77387479   -7.3873962    316.60386  0.021450126  0.020864312            5 
 1231000   0.75530853   -7.3974604    315.79211  0.021377749  0.020849797            3 
 1232000   0.75341384     -7.43694    316.20825  0.021388545  0.020835315            8 
 1233000   0.77152449   -7.4081493    316.43446  0.021386487  0.020820798            5 
 1234000   0.75078207   -7.3875295    316.97561    0.0214057  0.020806373            7 
 1235000   0.76004117   -7.3878123    315.86906  0.021313702   0.02079191            4 
 1236000   0.74869309   -7.4067732    316.17808  0.021317292  0.020777465            4 
 1237000   0.76161057   -7.3942041    316.71679  0.021336351  0.020763075            5 
 1238000   0.75372345   -7.3968619    316.84142  0.021327505   0.02074877            4 
 1239000   0.74600752   -7.3938112    316.49558  0.021287031  0.020734342            3 
 1240000   0.77110533   -7.3973878    316.49969  0.021270141  0.020719857            5 
 1241000   0.75889986   -7.4147317    316.01795  0.021220652  0.020705362            4 
 1242000   0.75771657   -7.4252912    316.66041  0.021246673  0.020690896            4 
 1243000   0.76688139   -7.3992712    316.58027  0.021224207  0.020676451            4 
 1244000   0.76569915   -7.4102129    317.70152  0.021282256  0.020662027            2 
 1245000   0.75517773   -7.3938051    317.14904  0.021228182  0.020647651            3 
 1246000    0.7754778   -7.4185505    317.58544  0.021240332  0.020633268            3 
 1247000   0.74422087   -7.4350207    317.13222  0.021193011  0.020618817            6 
 1248000   0.75180623   -7.4477131    317.09368  0.021173456  0.020604373            5 
 1249000    0.7598764   -7.4208466    317.23223  0.021165748  0.020590004            8 
 1250000   0.74434342   -7.4237413    317.81528  0.021187685  0.020575634            4 
 1251000   0.75718125   -7.4513724    316.93141  0.021111871  0.020561269            4 
 1252000   0.75699118   -7.4190009    317.61998   0.02114084  0.020546965            7 
 1253000   0.75413755    -7.427755    318.31394  0.021170121  0.020532701            5 
 1254000   0.74270805   -7.4364744     318.1224  0.021140511  0.020518505           11 
 1255000   0.75009546   -7.4212125      318.179  0.021127424  0.020504331            4 
 1256000   0.76074605   -7.4567017    317.72844  0.021080709  0.020490087            3 
 1257000   0.74363743   -7.4546063    317.83765  0.021071178  0.020475844            4 
 1258000   0.74211599    -7.431967    318.37183  0.021089814  0.020461674            3 
 1259000   0.74154695    -7.447481    318.36514   0.02107262  0.020447531            6 
 1260000    0.7394358   -7.4403577    318.07509  0.021036712  0.020433364            6 
 1261000   0.75006903   -7.4510042    318.52777  0.021049945  0.020419216            3 
 1262000   0.74318478   -7.4316142    318.14039  0.021007685  0.020405121            4 
 1263000   0.73202292   -7.4179746    319.47555  0.021079147  0.020390936            4 
 1264000   0.75047719   -7.4302892     318.6134   0.02100563  0.020376747            7 
 1265000   0.75753636   -7.4200302    318.38472   0.02097396  0.020362607            8 
 1266000   0.74818896   -7.4244798     318.6647  0.020975823   0.02034845            3 
 1267000    0.7387474   -7.4562617    318.74937  0.020964837  0.020334389            8 
 1268000   0.75544774   -7.4647512    318.82392  0.020953202  0.020320346            3 
 1269000   0.74868992   -7.4515844    319.44791  0.020977667  0.020306356            5 
 1270000   0.74286859   -7.4470796    319.20849  0.020945439  0.020292308            6 
 1271000   0.76681069   -7.4458893    318.50453  0.020882804  0.020278276            5 
 1272000   0.75108285   -7.4293614    318.56055  0.020870057  0.020264179            3 
 1273000   0.74136674     -7.44536    319.45609  0.020912286  0.020250114            3 
 1274000   0.76292432   -7.4764652    319.01595  0.020867082  0.020236077            7 
 1275000   0.72931363   -7.4486391     319.3813  0.020874595  0.020222043            5 
 1276000   0.74562693   -7.4781551    319.27333  0.020851184  0.020208039            3 
 1277000   0.76075638   -7.4543965    319.49669  0.020849432  0.020194018           13 
 1278000   0.73153133   -7.4625387    318.84995  0.020790946  0.020179996            7 
 1279000    0.7441148   -7.4356334    319.61151   0.02082431  0.020165953            6 
 1280000   0.74267298   -7.4683202     318.7636  0.020752839  0.020151912            6 
 1281000   0.72769757   -7.4489954    318.85179  0.020742375   0.02013788            9 
 1282000   0.74743871   -7.4701679    319.41141  0.020762572  0.020123888            6 
 1283000   0.75919706   -7.4507204    319.35533  0.020742747  0.020109865            5 
 1284000   0.74194071   -7.4807775    319.40561  0.020729855  0.020095795            6 
 1285000   0.73407154   -7.4903468    318.92166  0.020682338   0.02008169           19 
 1286000   0.74242686   -7.4959009    318.64901  0.020648588  0.020067592           19 
 1287000   0.73428647   -7.4519192    318.82551  0.020643973  0.020053465            7 
 1288000   0.74290202   -7.4684686    319.42805  0.020666928  0.020039453            6 
 1289000   0.73903609   -7.4678769    319.12694  0.020631429  0.020025448            6 
 1290000   0.74426972   -7.4443376    320.42601  0.020699355  0.020011488            4 
 1291000   0.72777582   -7.4666225    319.13473   0.02059997   0.01999742            6 
 1292000   0.72465768   -7.4925228      319.491  0.020607005  0.019983357            8 
 1293000   0.72903581    -7.475527    320.08111  0.020629099  0.019969277           10 
 1294000    0.7422623   -7.4398671    319.22994  0.020558342  0.019955217            5 
 1295000   0.74113289   -7.4947675    319.15317  0.020537527  0.019941112            5 
 1296000   0.74170518   -7.4390175    319.80866  0.020563829  0.019927054            6 
 1297000   0.74031953   -7.4441166     319.5849  0.020533597  0.019913024           12 
 1298000   0.74282757   -7.4563419    319.32522  0.020501105  0.019898959            8 
 1299000   0.74242851   -7.4662501    319.52502  0.020498141  0.019884828            9 
 1300000   0.71259088   -7.4841825    319.29402  0.020467565   0.01987066           11 
 1301000   0.72249371   -7.5016966    319.06362  0.020437075  0.019856489           12 
 1302000   0.74167879     -7.51281    318.61549  0.020392696  0.019842312           16 
 1303000   0.73857752   -7.5079442    319.01046  0.020402306  0.019828174           11 
 1304000   0.71436129   -7.4964117    319.28826  0.020404413  0.019814025           22 
 1305000   0.71876787    -7.464117    319.85779  0.020425146  0.019799841            8 
 1306000   0.72419855   -7.5040575    319.74443  0.020402273  0.019785712           12 
 1307000   0.74046484    -7.505981     319.8768  0.020395103  0.019771594           12 
 1308000   0.73287993   -7.4828473    320.26803  0.020404436   0.01975747            5 
 1309000   0.73384577    -7.488377    318.80699  0.020295836  0.019743415            4 
 1310000   0.73800476   -7.4942093    320.06997  0.020360685  0.019729331            5 
 1311000   0.73831321   -7.4898653    320.00179   0.02034082  0.019715255            7 
 1312000   0.72755549   -7.4778616    320.27078  0.020342402  0.019701203            5 
 1313000   0.72382185   -7.4962385     321.0769  0.020378072  0.019687137            7 
 1314000   0.73877189      -7.4881    320.49657  0.020325759   0.01967308            5 
 1315000   0.71016882   -7.4882724    320.32653  0.020299527  0.019659002            6 
 1316000   0.72598823   -7.4655997    319.68466  0.020243456  0.019644974            4 
 1317000   0.72578349   -7.4843511    319.93511  0.020243933  0.019630895            7 
 1318000   0.73374484   -7.4778634    319.93135  0.020228336  0.019616906           13 
 1319000   0.72390674   -7.5130675    320.43846  0.020245038  0.019602902            3 
 1320000   0.72248365    -7.463627    319.77569  0.020187859  0.019588899            6 
 1321000   0.72942588   -7.4721613    320.88405  0.020242496   0.01957492            4 
 1322000   0.74990948   -7.5263534    319.79133  0.020158304   0.01956088            8 
 1323000   0.73510102   -7.4982609    320.19699  0.020168619  0.019546806            9 
 1324000   0.73302137   -7.4933613     320.1486   0.02015034  0.019532775            8 
 1325000   0.72378278   -7.4956302    320.60812  0.020164033  0.019518773            9 
 1326000   0.73207076   -7.5058401    319.68934  0.020091085  0.019504759            3 
 1327000   0.72314673    -7.482906    320.34827  0.020117324   0.01949071            2 
 1328000   0.73529699   -7.4908506    319.84635   0.02007068  0.019476716            4 
 1329000   0.72492252   -7.5077553    320.04718   0.02006817  0.019462705            5 
 1330000   0.72622242   -7.5054805     319.9909  0.020049555  0.019448725            3 
 1331000   0.73996693   -7.5132547    319.97042  0.020033209  0.019434711            4 
 1332000   0.72583644   -7.5061564    320.56269  0.020055223  0.019420649           11 
 1333000   0.70347271   -7.4705689    320.54541  0.020039098  0.019406624           12 
 1334000   0.73097164    -7.494839    320.29104  0.020008186  0.019392616            6 
 1335000   0.72966969   -7.4781437      320.996  0.020037204  0.019378647           11 
 1336000   0.71989427   -7.5128761    320.04058  0.019962611  0.019364653            7 
 1337000   0.71733961   -7.5196302    320.64277  0.019985214  0.019350626            5 
 1338000   0.70668733    -7.546832     320.1733  0.019941038  0.019336561            5 
 1339000   0.72281143   -7.5092049     320.3891  0.019939575   0.01932247            3 
 1340000   0.71970432   -7.5186897    320.20327  0.019913139  0.019308368            8 
 1341000   0.72543166   -7.5037474    320.75133  0.019932347  0.019294319            6 
 1342000   0.71892936   -7.5127261    320.64792  0.019911073  0.019280317            5 
 1343000   0.70827419   -7.5322446    319.98716  0.019855247   0.01926629            3 
 1344000   0.71362497   -7.4977454    320.42303  0.019867499  0.019252311            5 
 1345000   0.70716837   -7.5039371    320.47434  0.019855907  0.019238383           10 
 1346000   0.70703211   -7.5229604    320.86644  0.019865431  0.019224417            5 
 1347000   0.72771979   -7.5234708      320.904  0.019853007  0.019210454            3 
 1348000   0.71675786     -7.52728    321.18359  0.019855563  0.019196521            7 
 1349000   0.72052412   -7.5295992    320.97093  0.019827707  0.019182568            8 
 1350000   0.69674554   -7.5379545    320.42914  0.019779577  0.019168642            3 
 1351000   0.73093979   -7.5060093    320.63925  0.019777896  0.019154727            5 
 1352000   0.72997121   -7.5308175    320.18458  0.019735243  0.019140837            8 
 1353000   0.71992668   -7.5166918    320.89623  0.019764488   0.01912694           29 
 1354000   0.70834866   -7.5197424    320.59443  0.019731317  0.019113068            4 
 1355000   0.71593186   -7.5459862    320.92346   0.01973699  0.019099209            3 
 1356000   0.70807164    -7.532321    320.67628  0.019707244   0.01908534            5 
 1357000   0.71109861   -7.5453451    320.86036  0.019704026  0.019071538            8 
 1358000   0.70433765   -7.5174153    321.29494  0.019716184  0.019057762           14 
 1359000   0.72338425   -7.5414451    321.36131  0.019705746   0.01904404            8 
 1360000   0.70028939   -7.5379259    322.14681  0.019739388  0.019030363            9 
 1361000   0.72341356   -7.5165696    321.79867  0.019703568  0.019016696           12 
 1362000   0.69841873   -7.5345068    321.86216  0.019692986  0.019003059            9 
 1363000   0.71579419    -7.554548    321.34759  0.019647077  0.018989337           13 
 1364000    0.7077053   -7.5397522    321.88502  0.019665507  0.018975652            8 
 1365000   0.70302975   -7.5303336    321.45695  0.019624966  0.018961934            9 
 1366000   0.70679919   -7.5155986    321.76926  0.019629652  0.018948259            9 
 1367000   0.71155805   -7.5604539    321.41121  0.019593465  0.018934561            4 
 1368000   0.70010234   -7.5566598    320.99324  0.019553682  0.018920848            5 
 1369000   0.71336487   -7.5549556    321.81793  0.019589599  0.018907184            5 
 1370000   0.70563625   -7.5211824    322.38504  0.019609795  0.018893571            4 
 1371000   0.72202888   -7.5595414    322.31546  0.019591263  0.018879978           29 
 1372000   0.70026327   -7.5536038    321.37217   0.01951969   0.01886636            6 
 1373000   0.70025207   -7.5647487    322.54869  0.019576881   0.01885279            3 
 1374000   0.70740637   -7.5640507    321.76167    0.0195149  0.018839153            4 
 1375000   0.70978926   -7.5487929    321.92299  0.019510484   0.01882561            6 
 1376000   0.72061167    -7.547542    322.32935  0.019520915  0.018812053            2 
 1377000   0.69076343   -7.5656508    321.77894  0.019473429  0.018798483            7 
 1378000   0.71915593   -7.5425617    322.35785  0.019494306  0.018784935            5 
 1379000   0.69671667   -7.5871094    321.67167  0.019438703  0.018771369            5 
 1380000   0.70952172     -7.52499    322.26322  0.019460339  0.018757822            8 
 1381000   0.69757654   -7.5607788    322.58395  0.019465602  0.018744287            8 
 1382000   0.69572596   -7.5425282    322.84178  0.019467063  0.018730731            5 
 1383000   0.70019424    -7.542419     323.0213  0.019463804  0.018717192            4 
 1384000   0.69777101   -7.5579626    323.07733  0.019453115  0.018703628            3 
 1385000   0.68801944   -7.5488263    321.97147  0.019372531  0.018690023           10 
 1386000   0.70370835   -7.5510014    321.98196  0.019359185  0.018676455           10 
 1387000   0.70451894   -7.5472806    322.43782  0.019372616  0.018662904            9 
 1388000   0.71385917   -7.5579881    322.44674  0.019359194  0.018649389            5 
 1389000   0.70304186   -7.5718791    322.68303  0.019359433  0.018635948           10 
 1390000   0.70382373    -7.567806    322.54705  0.019337353  0.018622434            4 
 1391000   0.68748162   -7.5629583    322.37096  0.019312902  0.018608884            4 
 1392000    0.7089717   -7.5670542    322.11302  0.019283586  0.018595361            9 
 1393000   0.69933477    -7.570843    322.95052  0.019319845  0.018581829            9 
 1394000   0.70619325   -7.5596337    322.74511  0.019293706  0.018568306            5 
 1395000   0.69530237   -7.5654186    322.35375  0.019256497  0.018554805            7 
 1396000   0.69521983   -7.5799324    322.52163  0.019252724  0.018541298           12 
 1397000    0.6911814   -7.6067917       322.22   0.01922095   0.01852775            4 
 1398000    0.6942815   -7.5700513    321.93966   0.01919049  0.018514185            3 
 1399000   0.69327796   -7.5533187    322.26096  0.019195911  0.018500659           11 
 1400000   0.67446969   -7.5819161    322.84381  0.019216894   0.01848713           14 
 1401000   0.68775758    -7.586168    322.20229  0.019165019  0.018473578           20 
 1402000      0.69395   -7.5936588    322.39684  0.019162912  0.018460052           11 
 1403000    0.6869688    -7.613586    323.13317   0.01919299  0.018446541            7 
 1404000   0.70425178   -7.6033824    322.57528  0.019146206  0.018432982           12 
 1405000   0.69096371   -7.5909218    321.95153  0.019095583  0.018419468            9 
 1406000   0.67850984   -7.6083153    321.87089  0.019077222  0.018405894           12 
 1407000   0.69114275   -7.6063607    322.51479    0.0191018  0.018392325            7 
 1408000   0.68789777   -7.5847443    322.29958  0.019075496  0.018378794            4 
 1409000   0.69001339   -7.5816629    321.92079  0.019039555  0.018365309            6 
 1410000   0.69834172   -7.5943456    322.56957  0.019064396  0.018351818            7 
 1411000   0.68441033   -7.6206746    322.08408  0.019022211  0.018338329            9 
 1412000   0.69745406   -7.5930201    322.97546  0.019061347  0.018324824            6 
 1413000   0.67703517   -7.5936792    322.78617  0.019036693  0.018311359           10 
 1414000   0.68199473   -7.5912484    322.37462  0.018998976   0.01829792            9 
 1415000   0.68005238   -7.5920561    323.12686   0.01902985  0.018284465            4 
 1416000   0.69652655   -7.5702027    323.37284  0.019030888  0.018271091            8 
 1417000   0.68097481   -7.6057411     322.3543  0.018957557    0.0182577            5 
 1418000   0.67839175   -7.5924983    322.74509  0.018967154  0.018244309            5 
 1419000   0.67956522   -7.5862157    322.63532  0.018947341  0.018230938            5 
 1420000   0.68094544   -7.5713727    322.74408   0.01894038   0.01821755            5 
 1421000   0.68931639   -7.5893824    322.61129  0.018919264  0.018204153            5 
 1422000   0.68311197   -7.5939781    322.08961  0.018875387   0.01819075            4 
 1423000   0.68648638   -7.6048785    323.16205  0.018924927  0.018177359            9 
 1424000   0.68680961   -7.6168967    322.58684  0.018877975  0.018163968           10 
 1425000   0.67923659   -7.5995997    322.51779  0.018860689  0.018150565            8 
 1426000   0.67635997   -7.5942994     322.6788  0.018856872  0.018137175            4 
 1427000   0.66151178   -7.5916364    323.09465  0.018867943   0.01812382           14 
 1428000    0.6785358   -7.6175853    322.46837  0.018818182  0.018110428           14 
 1429000   0.68113251   -7.6101533    322.75286  0.018821603  0.018097017            9 
 1430000   0.68976276   -7.6193821    323.20947   0.01883505  0.018083624            5 
 1431000   0.67841614   -7.6159448    322.45301  0.018777837  0.018070233           12 
 1432000   0.67857315   -7.6160112    322.11267  0.018744918  0.018056846           15 
 1433000   0.67633588   -7.6219415    323.35226  0.018803923  0.018043508           12 
 1434000   0.67204478   -7.5776898    323.03598   0.01877243  0.018030211            6 
 1435000    0.6827609   -7.6100366    322.38423    0.0187215  0.018016918            7 
 1436000     0.671661    -7.609795    322.88023  0.018737246  0.018003577            8 
 1437000   0.66467913   -7.6318248    322.28596  0.018689745   0.01799022           13 
 1438000   0.67417622   -7.6296329    322.92265  0.018713645  0.017976834            7 
 1439000   0.67186612   -7.6125032    323.31486  0.018723353  0.017963492            4 
 1440000   0.67137131   -7.6038505    322.31572   0.01865253  0.017950144           13 
 1441000   0.67084064   -7.6302015    322.58981  0.018655437  0.017936809           13 
 1442000   0.67390061   -7.6412125    323.05587  0.018669433  0.017923503            6 
 1443000   0.66932493   -7.6184959    322.98152  0.018652201  0.017910184            5 
 1444000   0.67898335   -7.6144146    322.10142  0.018588494  0.017896876            5 
 1445000    0.6645126   -7.6040093    322.80021  0.018615929  0.017883598            8 
 1446000   0.68036379   -7.6247508    323.17544   0.01862468  0.017870359           11 
 1447000   0.66926921   -7.6062786    323.14555  0.018610087  0.017857105           14 
 1448000   0.68158596   -7.6064298    322.69397  0.018571246  0.017843876            9 
 1449000   0.67689594   -7.6126315    322.98042  0.018574903  0.017830596           10 
 1450000   0.67132024   -7.6212922    323.46297  0.018589826  0.017817367            6 
 1451000   0.68418706   -7.6061256    323.11479  0.018557018   0.01780415            7 
 1452000   0.68531379    -7.620082    322.92845  0.018533543  0.017790912            9 
 1453000   0.67890991   -7.5963933    323.33254  0.018543963  0.017777705            7 
 1454000    0.6867488   -7.5961627    323.06391  0.018515813  0.017764495           11 
 1455000   0.66007642   -7.6178085    322.72828  0.018483865  0.017751226            8 
 1456000   0.67950237   -7.6013653     322.6302  0.018465556  0.017738005           15 
 1457000   0.68344866    -7.621779    322.95172  0.018471272  0.017724811            5 
 1458000   0.69161441   -7.6136025    323.48901  0.018489312  0.017711618            4 
 1459000   0.66361048   -7.6377619    322.63361  0.018427782  0.017698416            5 
 1460000   0.66807527    -7.611645    323.21541  0.018448368  0.017685205           13 
 1461000   0.67352573   -7.6200929    322.68294   0.01840537  0.017672031            8 
 1462000   0.68207074   -7.6424684    323.01793  0.018411875  0.017658835            5 
 1463000   0.67491355   -7.6116855    323.55535  0.018429902  0.017645647            7 
 1464000   0.67981208   -7.6261231      323.381  0.018407389   0.01763247            8 
 1465000   0.66314685   -7.6005155    323.16138  0.018382331  0.017619298            5 
 1466000   0.69479741   -7.6196338    323.69907  0.018400356  0.017606152            9 
 1467000    0.6748957   -7.6262923    323.58758   0.01838148  0.017593061            7 
 1468000   0.66575562   -7.6044961    323.66378  0.018373284  0.017579985            6 
 1469000   0.67416177   -7.6422481    323.35863  0.018343467  0.017566912            9 
 1470000   0.67370456   -7.6390787    322.92808   0.01830658  0.017553863           11 
 1471000   0.67709674   -7.6076416     323.1377  0.018306011   0.01754081            4 
 1472000   0.65898841   -7.6150069    323.54551  0.018316662  0.017527734            9 
 1473000   0.66525185   -7.6150164     323.4572  0.018299231  0.017514687           10 
 1474000   0.66424755   -7.6490148    323.48941  0.018288637  0.017501669           12 
 1475000   0.66547625   -7.6211891    324.01008  0.018305654  0.017488616           11 
 1476000   0.65444406   -7.6138881    323.35773  0.018256421   0.01747558           10 
 1477000   0.67180058   -7.6555149    322.93784   0.01822037  0.017462532            7 
 1478000   0.65425465   -7.6499082    322.57504  0.018187587  0.017449456            9 
 1479000   0.67544152   -7.6576685    323.02876  0.018200854  0.017436346            9 
 1480000   0.65386584   -7.6504539    322.69086   0.01816953  0.017423225            8 
 1481000   0.67285445   -7.6801602    323.22467  0.018187299  0.017410121           13 
 1482000   0.65917056   -7.6512232    322.42704  0.018130175  0.017397023            8 
 1483000   0.68230233   -7.6564666    323.34533  0.018169551  0.017383935           13 
 1484000   0.66388428   -7.6737416    323.56945  0.018169893  0.017370894            9 
 1485000   0.67254511   -7.6509213    323.62215  0.018160615  0.017357888            7 
 1486000   0.66075163   -7.6553644    324.00283  0.018169741  0.017344896            8 
 1487000   0.65993183   -7.6774634    323.11548  0.018107794  0.017331905            7 
 1488000   0.64909978   -7.6442018    323.11985   0.01809587  0.017318931            6 
 1489000    0.6537668   -7.6648875    323.85139  0.018124658   0.01730602           10 
 1490000     0.670971   -7.6382115    324.39149  0.018142701  0.017293098            7 
 1491000   0.66403648   -7.6340413    323.44351  0.018077549  0.017280158            7 
 1492000   0.65268123   -7.6608446    323.75487  0.018082824  0.017267216            7 
 1493000   0.65748755   -7.6512184    323.05212  0.018031487  0.017254267            7 
 1494000   0.65428492   -7.6503542    324.05063  0.018075113  0.017241329            7 
 1495000   0.66218141   -7.6455773    323.67143  0.018041886  0.017228432           12 
 1496000   0.65470689   -7.6518206     323.4551  0.018017775  0.017215533            8 
 1497000   0.65389597   -7.6642875    323.96315  0.018034021  0.017202664            3 
 1498000    0.6586054   -7.6561985    323.28751  0.017984396  0.017189774            4 
 1499000   0.65447704    -7.651981    323.33908  0.017975266  0.017176919            3 
 1500000   0.64988161   -7.6574529    323.42512  0.017968062  0.017164054            5 
 1501000    0.6681237   -7.6746582    323.72058  0.017972495  0.017151195           12 
 1502000    0.6685484    -7.636065    323.81794  0.017965931  0.017138385            9 
 1503000   0.65298047   -7.6374206    324.49026  0.017991254  0.017125606            4 
 1504000   0.65996098   -7.6605661    324.33137  0.017970488  0.017112827            6 
 1505000   0.65535565   -7.6751993    324.63909  0.017975586  0.017100095            4 
 1506000   0.64640538   -7.6483632    323.77136  0.017915635  0.017087348           12 
 1507000   0.66021983   -7.6586723     324.0901  0.017921372  0.017074611           13 
 1508000   0.65593693   -7.6804076     324.4044  0.017926857  0.017061892            6 
 1509000    0.6573215   -7.6838175    323.77442  0.017880187  0.017049154           16 
 1510000   0.64838695   -7.6549338    323.99066  0.017880279  0.017036419           13 
 1511000   0.66336428   -7.6809605    323.91838   0.01786446  0.017023681           11 
 1512000    0.6534182   -7.6626544    323.91011  0.017852189   0.01701094           13 
 1513000   0.63721386   -7.6641265    324.22666  0.017857825  0.016998203            8 
 1514000   0.65593746   -7.6916177    323.60028  0.017811552  0.016985481            9 
 1515000   0.64680218   -7.6663919    324.33061  0.017839967  0.016972788            5 
 1516000   0.64811923   -7.6945135    324.45936  0.017835277  0.016960097            6 
 1517000   0.64378278   -7.6784471    324.34712  0.017817355  0.016947418            7 
 1518000   0.65949566   -7.6497416    323.98316  0.017785637  0.016934757           16 
 1519000   0.64950234   -7.6753058    324.28261  0.017790356  0.016922118            9 
 1520000   0.64807973   -7.6716169     323.8279  0.017753722  0.016909463           16 
 1521000   0.63744962   -7.6617983    323.74522   0.01773752  0.016896839           16 
 1522000   0.64208799   -7.6545635    324.49469  0.017766902  0.016884226            8 
 1523000   0.65058063   -7.6610206    324.99906  0.017782833   0.01687159           10 
 1524000   0.64823779    -7.674169    324.14613  0.017724526   0.01685898           18 
 1525000   0.63683982   -7.6757723    324.31893  0.017722346   0.01684632            7 
 1526000   0.65356404   -7.6872284    324.94453  0.017744896  0.016833693            9 
 1527000   0.63495427   -7.6849075    323.92458  0.017677613  0.016821062           11 
 1528000   0.63737802   -7.6922744    323.80755  0.017659661  0.016808425           18 
 1529000   0.63096218   -7.6772666    324.03845  0.017660696  0.016795781            7 
 1530000   0.63995223    -7.695972    324.52832  0.017675834   0.01678314           14 
 1531000   0.62335233   -7.6781398    323.93105  0.017631779   0.01677052           11 
 1532000   0.63710623   -7.6949839    323.75913  0.017610919  0.016757912           11 
 1533000   0.64732049   -7.6865131    323.63644  0.017592762  0.016745276           20 
 1534000   0.64819165   -7.6842731    324.18686  0.017611194  0.016732647           11 
 1535000   0.64076149   -7.7101265    323.45359  0.017559912  0.016720058            9 
 1536000   0.64889254   -7.6947433    324.31636  0.017595289  0.016707464           12 
 1537000   0.64445007     -7.69144    323.64135  0.017547243  0.016694873            5 
 1538000   0.63662103   -7.7059048    324.03908  0.017557384   0.01668229            8 
 1539000   0.63108838   -7.6970851     323.9888  0.017543253  0.016669713           12 
 1540000   0.63727106   -7.6900785    324.42198  0.017555302  0.016657171           15 
 1541000   0.62272015   -7.6802034    324.43547  0.017544639  0.016644643           15 
 1542000   0.63556322   -7.7075703    323.81374  0.017499662   0.01663211            9 
 1543000   0.64306058   -7.6910626    323.86051  0.017490846   0.01661957           15 
 1544000   0.63008862   -7.7106807    324.20848  0.017498299   0.01660703           15 
 1545000   0.61847059   -7.6844839    324.00765  0.017476141  0.016594534           18 
 1546000   0.63299335   -7.7247674    323.88844  0.017458411  0.016582022           17 
 1547000   0.64960965   -7.7002822    323.27037  0.017413832  0.016569466           14 
 1548000   0.64726272   -7.6939232    324.09162  0.017446793   0.01655694           11 
 1549000   0.63194975   -7.6901715    323.52953   0.01740529  0.016544399           15 
 1550000   0.62558799   -7.6931513    323.83285  0.017410368  0.016531842           18 
 1551000   0.64436999   -7.7220957    324.12538   0.01741486  0.016519307           11 
 1552000   0.63909852   -7.7116151    323.61584   0.01737628  0.016506754           15 
 1553000   0.63357303   -7.7202769    322.52238  0.017306417   0.01649418           17 
 1554000   0.62335111   -7.7153791    323.61585  0.017353917  0.016481607           15 
 1555000    0.6264591   -7.7247901    323.26461  0.017323934  0.016469076           19 
 1556000   0.62678643   -7.7024926    323.88608  0.017346084  0.016456541           17 
 1557000   0.63490113   -7.7256415    324.25767  0.017354831  0.016444015            7 
 1558000     0.641393    -7.712314    323.49624  0.017302965  0.016431543           19 
 1559000   0.64106475   -7.6925607    323.66815  0.017301056  0.016419106            4 
 1560000   0.62929378   -7.7314568    324.03387  0.017309501  0.016406697           13 
 1561000   0.63789865   -7.7176753    323.51808  0.017270878  0.016394282            8 
 1562000   0.62863085    -7.697845      323.903  0.017280357   0.01638189            8 
 1563000   0.62256567   -7.6876416    324.56062  0.017304362  0.016369486            5 
 1564000   0.62546955   -7.7196925    323.70371   0.01724764   0.01635711           12 
 1565000   0.62121462   -7.7060239    324.26349  0.017266427  0.016344756            8 
 1566000   0.62036934   -7.6998102    324.73616  0.017280553  0.016332395            8 
 1567000   0.63416887    -7.712363    324.51207  0.017257609   0.01632006            5 
 1568000   0.61892228   -7.6857515    323.94144  0.017216276  0.016307732            4 
 1569000   0.61281247   -7.6997881     324.2564  0.017222031  0.016295411            6 
 1570000   0.62227351   -7.7018804    324.19103  0.017207592  0.016283089           10 
 1571000   0.62828956   -7.7106993    323.80164  0.017175984  0.016270787           27 
 1572000   0.59986284   -7.7197677    323.89456  0.017169983   0.01625847           11 
 1573000   0.61954409   -7.7262516    324.75344  0.017204569  0.016246162           12 
 1574000   0.62802123   -7.7340998    323.91677  0.017149342  0.016233835           13 
 1575000   0.63201876   -7.7084341    324.00378  0.017143057  0.016221543            6 
 1576000   0.62622872   -7.6979181    324.21006  0.017143087  0.016209251           12 
 1577000   0.62681437   -7.7165885    324.04729  0.017123615  0.016196985           18 
 1578000   0.62164937   -7.6875919    324.37845  0.017130252  0.016184724           11 
 1579000   0.63513607   -7.7149059    324.18149  0.017109008  0.016172442           13 
 1580000   0.63164181   -7.7147749    323.50664  0.017062587  0.016160164           11 
 1581000   0.60631633   -7.7358516    323.57577  0.017055438  0.016147844            6 
 1582000   0.62162237   -7.7406333    324.12602  0.017073642  0.016135517           15 
 1583000   0.61145997   -7.7381604    323.87759  0.017049778  0.016123214           14 
 1584000   0.62737712   -7.7376512    323.42614  0.017015264  0.016110917           13 
 1585000   0.62006572   -7.7261422    324.34196  0.017052679   0.01609864           22 
 1586000   0.62442136   -7.7403327    324.44325  0.017047249  0.016086363           11 
 1587000   0.61901992   -7.7429719    323.68894  0.016996899  0.016074076           16 
 1588000   0.61422445   -7.7420534    323.65412  0.016984368  0.016061817           23 
 1589000   0.61480825    -7.734948    324.03236  0.016993516  0.016049533           18 
 1590000   0.61569941   -7.7634688    323.39505  0.016949426  0.016037249           16 
 1591000   0.62074792   -7.7405187    324.28499  0.016985386  0.016024984           19 
 1592000   0.61749457   -7.7134988    323.65077  0.016941518  0.016012725           12 
 1593000   0.62047869    -7.719713    323.69651  0.016933276  0.016000473           13 
 1594000   0.62650148   -7.7445481    323.90321  0.016933459  0.015988219           13 
 1595000   0.62600747   -7.7540107    324.06192  0.016931135  0.015975968           21 
 1596000   0.60387215   -7.7499638    323.28056  0.016879729  0.015963696           16 
 1597000    0.6082479   -7.7387334    322.95692  0.016852271   0.01595142           11 
 1598000   0.61780864   -7.7618673    323.25035  0.016857027  0.015939152           16 
 1599000   0.61367737   -7.7412892     323.2964  0.016848885  0.015926891           14 
 1600000   0.61119215   -7.7410555    322.67128  0.016805796  0.015914648           10 
 1601000   0.61979022   -7.7661442    322.63324  0.016793319   0.01590241           17 
 1602000   0.62153815   -7.7511431    323.52729  0.016829343  0.015890186           14 
 1603000   0.61182412   -7.7665262    323.31956  0.016808045  0.015877941           13 
 1604000   0.60405931   -7.7699167    323.56398  0.016810265  0.015865704           10 
 1605000   0.61102893   -7.7594495    323.29452  0.016785801  0.015853451           20 
 1606000   0.61839771   -7.7445257    323.45495  0.016783673  0.015841211            9 
 1607000   0.61599955   -7.7651352    323.01696  0.016750516  0.015828984           12 
 1608000   0.61223446   -7.7723275    323.21581  0.016750405  0.015816758           13 
 1609000    0.6097794   -7.7822977     322.9872  0.016728154  0.015804558            8 
 1610000   0.60605151   -7.7655146    323.27744  0.016732787  0.015792358           15 
 1611000   0.60728147   -7.7604237    323.71002  0.016744776  0.015780175           10 
 1612000   0.60885582   -7.7785406    323.58026  0.016727681   0.01576801            9 
 1613000   0.60625501   -7.7433554    323.58027  0.016717311  0.015755851           10 
 1614000   0.59921182   -7.7836306    323.47515  0.016701526  0.015743724            9 
 1615000   0.60614071   -7.7570027    323.64272  0.016699831  0.015731594            6 
 1616000   0.60440347    -7.752096    323.26409  0.016669971  0.015719478           10 
 1617000   0.60695946   -7.7734238    323.46749  0.016670145  0.015707387           23 
 1618000   0.61258436   -7.7854419    323.59931  0.016666631  0.015695305           11 
 1619000    0.6008996   -7.7723883    323.76037  0.016664627  0.015683227            8 
 1620000   0.61453971   -7.7680919    323.06534  0.016618587  0.015671121            6 
 1621000   0.61519345   -7.7621477     323.9103  0.016651774  0.015659063            7 
 1622000   0.61525919    -7.754504    323.11418  0.016600605  0.015646997           10 
 1623000   0.61296801   -7.7791077    323.04021  0.016586579   0.01563495            9 
 1624000    0.6113676   -7.7714301    323.64874  0.016607591  0.015622898            5 
 1625000    0.5999112   -7.7741126    323.00128  0.016564168  0.015610854            5 
 1626000   0.60964193   -7.7870301    323.29526  0.016569048  0.015598816           10 
 1627000   0.60623688     -7.77877    323.60466  0.016574711   0.01558679           17 
 1628000   0.60468731   -7.7675356    323.47376  0.016557829  0.015574766           10 
 1629000   0.60348073   -7.7721489    323.54029  0.016551069  0.015562751           11 
 1630000   0.60765062   -7.7840481    323.21456  0.016524262  0.015550723           12 
 1631000   0.60187944   -7.7939442    323.48405  0.016527899  0.015538721           10 
 1632000   0.59680084   -7.7862685    322.93786  0.016489883  0.015526724           12 
 1633000   0.59111669   -7.7863143    323.50537  0.016508745  0.015514722           13 
 1634000   0.60200436    -7.776844    323.13861  0.016479937  0.015502727            6 
 1635000   0.58458957   -7.7642968    323.66306  0.016496588  0.015490776            7 
 1636000   0.60796345   -7.7829594    322.81612  0.016443364  0.015478802            8 
 1637000   0.59575063   -7.7756554    323.53558  0.016469944  0.015466826            5 
 1638000   0.59805493   -7.7947943     323.0818  0.016436803  0.015454875            8 
 1639000   0.60275735   -7.7607429    323.05593  0.016425459  0.015442909           10 
 1640000   0.59754782   -7.7834976    323.16764   0.01642112  0.015430961           15 
 1641000   0.60339799     -7.79499     323.4238  0.016424121  0.015419027           17 
 1642000   0.58304654   -7.8074223    322.89643  0.016387354  0.015407084           11 
 1643000   0.59253701    -7.805215    322.91359  0.016378251  0.015395156           14 
 1644000    0.6028645   -7.8053517    322.66512  0.016355693  0.015383226           20 
 1645000   0.59913712   -7.8029119    322.98305  0.016361857  0.015371326           25 
 1646000   0.58649418   -7.7886395    323.02945  0.016354265  0.015359393           17 
 1647000   0.57700596   -7.8228529     322.9483   0.01634023  0.015347481           23 
 1648000   0.59439458   -7.7940954    323.28439  0.016347309  0.015335561           13 
 1649000    0.5954674   -7.7932335    322.48941  0.016297221  0.015323662           37 
 1650000   0.58609572   -7.7867887     322.4014  0.016282899  0.015311752           15 
 1651000   0.59074581    -7.783046    322.90976  0.016298696  0.015299866           18 
 1652000   0.59652769   -7.7883887    323.02638  0.016294712  0.015287968            7 
 1653000   0.59515985   -7.7924425    322.67793  0.016267288  0.015276097           25 
 1654000   0.58787051   -7.8125383    322.93312   0.01627031  0.015264207           22 
 1655000   0.60488025   -7.8126196    322.65555  0.016246503  0.015252364           10 
 1656000   0.60255188   -7.8242992    323.23916  0.016266061  0.015240522           13 
 1657000   0.59372357   -7.8100449    322.96901  0.016242658  0.015228699           16 
 1658000   0.58375534   -7.8098063    322.66485  0.016217574  0.015216875           37 
 1659000   0.59069115   -7.7865967    322.58508  0.016203791  0.015205074           27 
 1660000   0.59148611   -7.8051765    322.76345  0.016202984  0.015193273            9 
 1661000   0.59344512   -7.8057864    322.61819  0.016185942  0.015181501           26 
 1662000     0.596393   -7.7920888    323.40699  0.016215754  0.015169746           17 
 1663000   0.57683385   -7.7991335    323.08355  0.016189795   0.01515799           17 
 1664000   0.58583476   -7.8408494      323.055  0.016178636  0.015146212           14 
 1665000   0.58637511   -7.8078726    322.80992  0.016156653  0.015134446            8 
 1666000   0.58632532   -7.8042657    323.31804  0.016172371  0.015122683           12 
 1667000   0.59276638   -7.8055311    322.67088  0.016130318  0.015110923           18 
 1668000   0.57399653   -7.8167243    322.92968  0.016133577  0.015099178           13 
 1669000   0.58178868   -7.8027728    323.00438   0.01612764  0.015087437           11 
 1670000   0.57887641   -7.8048653    322.68613  0.016102103  0.015075714           10 
 1671000   0.60054494   -7.8348674    322.94859  0.016105555   0.01506397            6 
 1672000   0.58768331   -7.8145661     323.4398  0.016120405   0.01505222           17 
 1673000   0.58792036   -7.8117762    322.86057  0.016081917  0.015040495            8 
 1674000   0.58434804   -7.8213085    322.56695  0.016057694  0.015028785           18 
 1675000   0.58316338   -7.8311273    322.07473  0.016023619   0.01501708           14 
 1676000   0.58660761   -7.8273406    322.71049  0.016045669  0.015005368           18 
 1677000   0.57668158   -7.8192181    322.69574  0.016035368  0.014993669           10 
 1678000   0.58757737    -7.828346    322.76605  0.016029303  0.014981995           15 
 1679000   0.58326839   -7.8266121    322.29079  0.015996168  0.014970303           16 
 1680000   0.60196644   -7.8268929    323.19595  0.016031545  0.014958618           15 
 1681000   0.56894055   -7.8295454     322.4161  0.015983348  0.014946944           13 
 1682000   0.59556409   -7.8046543    322.45698  0.015975871  0.014935282            6 
 1683000   0.59004594   -7.8158599    322.23757  0.015955515  0.014923621           16 
 1684000   0.58556492   -7.8300849     322.3148  0.015949861  0.014911973           14 
 1685000   0.58876301   -7.8270168    322.03504   0.01592656   0.01490031           22 
 1686000    0.5746639   -7.8419164     322.0512  0.015917912  0.014888673            9 
 1687000   0.58034802   -7.8130378    323.14071  0.015962295   0.01487705           21 
 1688000   0.57397479   -7.8179135    322.48994  0.015920712   0.01486543           14 
 1689000   0.58588187   -7.8511683    322.57447  0.015915457    0.0148538            8 
 1690000   0.56987261   -7.8407561    322.34105  0.015894529  0.014842186            9 
 1691000   0.58510688    -7.835144    323.18278  0.015926611  0.014830575           14 
 1692000   0.58641661   -7.8340463     323.2029  0.015918189   0.01481898           25 
 1693000   0.56790335   -7.8293441    322.54352   0.01587633  0.014807417           17 
 1694000   0.57540294   -7.8520921    322.24904  0.015852472  0.014795837           11 
 1695000   0.58256486    -7.808123    322.67441  0.015864032  0.014784293            9 
 1696000   0.56158688   -7.8396983    322.49498  0.015845862  0.014772748           20 
 1697000   0.56107488   -7.8567173    322.01192  0.015812803  0.014761189           16 
 1698000   0.56587888   -7.8429369    322.93923     0.015849  0.014749632           28 
 1699000   0.57581117    -7.842261    322.60393  0.015823226  0.014738113           22 
 1700000   0.57748315   -7.8433466    321.86144  0.015777522  0.014726601           13 
 1701000   0.57620161   -7.8525957    322.03095   0.01577655  0.014715098           15 
 1702000   0.57331768   -7.8485351    322.14058  0.015772649  0.014703603           20 
 1703000   0.55983328   -7.8387499    323.27019  0.015818663  0.014692123           14 
 1704000   0.55984015   -7.8265022    322.74064  0.015783482  0.014680657           16 
 1705000   0.56468246   -7.8395054    322.25587  0.015750531  0.014669189           15 
 1706000   0.57945745   -7.8366048     322.3232  0.015744588  0.014657752           16 
 1707000   0.57175737   -7.8555416    322.81484  0.015759365  0.014646334           16 
 1708000   0.56634864   -7.8261607    322.68867  0.015743983  0.014634922           16 
 1709000   0.56982355   -7.8187014    322.93391  0.015746729  0.014623513           18 
 1710000   0.57941664   -7.8340689    321.46734   0.01566605  0.014612116           18 
 1711000   0.56474891   -7.8444826    322.37339  0.015701023  0.014600711           14 
 1712000   0.57553971   -7.8465919    322.36841  0.015691609  0.014589306           12 
 1713000   0.57192141   -7.8370129    322.02241  0.015665616  0.014577917           17 
 1714000   0.56498696   -7.8425458     322.2576  0.015667911  0.014566561           19 
 1715000   0.57537301   -7.8332079    322.33611   0.01566259  0.014555203           21 
 1716000   0.56342689   -7.8436323    322.47291  0.015660107  0.014543876           13 
 1717000   0.55649677   -7.8440625     321.8438  0.015620452  0.014532536           13 
 1718000    0.5654387   -7.8552401    322.35511  0.015636162  0.014521193           13 
 1719000   0.56134693   -7.8435124    322.08358  0.015613903  0.014509871           17 
 1720000   0.57458851   -7.8525731    322.70614  0.015634987  0.014498548           15 
 1721000   0.57321984   -7.8425597    322.29448  0.015605969  0.014487226           12 
 1722000   0.57087473   -7.8530335    322.23198  0.015593882  0.014475918           16 
 1723000   0.56466623   -7.8519062    321.82168  0.015564987  0.014464602           17 
 1724000   0.56165028    -7.853915    323.06346  0.015615983   0.01445333           12 
 1725000   0.56065927   -7.8491759    322.76801  0.015592658   0.01444206           10 
 1726000   0.56350913   -7.8467752    322.76367  0.015583414  0.014430792           18 
 1727000   0.55746012   -7.8564269    322.56527  0.015564817  0.014419536           12 
 1728000   0.55636942   -7.8722642    322.30091  0.015543061  0.014408292           23 
 1729000   0.56405471   -7.8561289    322.27062  0.015532611  0.014397031           12 
 1730000   0.56313496   -7.8637463    322.37914   0.01552886  0.014385779           19 
 1731000   0.55708484   -7.8650135    322.41254  0.015521497  0.014374526           20 
 1732000   0.56549808    -7.860762    322.37142  0.015510557  0.014363317           16 
 1733000   0.55631014   -7.8704815    322.25286  0.015495906   0.01435211           13 
 1734000   0.56233899    -7.874402    322.49006  0.015498369  0.014340898           17 
 1735000   0.55881872   -7.8671774     322.1587  0.015473521  0.014329684            8 
 1736000   0.56317647    -7.862614    321.56788  0.015436246   0.01431847           10 
 1737000   0.54291268   -7.8668162    322.39831    0.0154672  0.014307267           22 
 1738000   0.56014603   -7.8666331    322.64355  0.015470059  0.014296071           18 
 1739000   0.54124153    -7.847344    322.00167  0.015430404   0.01428489           14 
 1740000   0.55841886   -7.8709736    321.99696   0.01542131  0.014273717           21 
 1741000   0.56629933   -7.8625997    321.58102  0.015392543  0.014262564           22 
 1742000   0.56469704   -7.8600352    322.05839  0.015406544  0.014251402           15 
 1743000   0.56075859   -7.8811148    321.87248  0.015388816  0.014240247           39 
 1744000   0.55824291    -7.893325    322.19031  0.015395179    0.0142291           15 
 1745000    0.5564257   -7.8839662    321.71193  0.015363511  0.014217952           17 
 1746000   0.55597194   -7.8972315    321.65102  0.015351805  0.014206801           23 
 1747000   0.55714009   -7.8915091    322.29974  0.015373962  0.014195669           20 
 1748000    0.5583033   -7.8830565    322.25949  0.015363248  0.014184569           22 
 1749000   0.55848728   -7.8690537    322.40409  0.015361354  0.014173467           12 
 1750000   0.55838655   -7.8828337    322.33839  0.015349447   0.01416239           23 
 1751000   0.56033236   -7.8735449    322.26657  0.015337263  0.014151308           33 
 1752000   0.55476585   -7.8891872    322.00976  0.015316294  0.014140252           14 
 1753000   0.56277735   -7.8775599     321.9968  0.015306941  0.014129197           25 
 1754000   0.55716851     -7.87675    321.21521   0.01526108  0.014118156           14 
 1755000   0.55936528   -7.8692993    321.94311  0.015286947  0.014107127           14 
 1756000   0.56109646   -7.8718495    322.07736  0.015284613  0.014096129           14 
 1757000   0.54754719   -7.8917322     322.7793  0.015309206   0.01408515           14 
 1758000   0.56374243   -7.8719327    321.74399  0.015251422  0.014074148           15 
 1759000   0.54319772   -7.8828827    322.13898  0.015261464  0.014063169           31 
 1760000   0.55596012   -7.8783393    322.19098  0.015255255  0.014052193           13 
 1761000   0.55317946   -7.8749327    321.84743  0.015230334  0.014041218           20 
 1762000    0.5332642   -7.8817689    321.74003  0.015216611  0.014030259           20 
 1763000   0.54627861   -7.8871559    322.35192  0.015236903  0.014019311           17 
 1764000   0.55059172   -7.8879862    322.36579  0.015228921  0.014008374           19 
 1765000   0.55938622   -7.8937788    321.63981  0.015186016  0.013997446           15 
 1766000   0.54690811   -7.8681734    322.10344  0.015199294  0.013986506           17 
 1767000   0.54010082    -7.894369    321.70115   0.01517172  0.013975572           12 
 1768000   0.54182822    -7.869906    321.56722  0.015156826  0.013964656           13 
 1769000   0.55011484   -7.8770904    321.98947  0.015168149  0.013953757           19 
 1770000   0.54406114   -7.8886342    321.31002   0.01512759  0.013942883           11 
 1771000   0.54062243   -7.8774735     322.0546  0.015154084  0.013931995           19 
 1772000   0.54827568   -7.8926967     321.6212  0.015125151  0.013921107           21 
 1773000   0.54360839   -7.8802782    321.93266  0.015131259  0.013910233           14 
 1774000    0.5390685   -7.9010344     321.9897  0.015125409  0.013899355           18 
 1775000   0.54900689   -7.8951837    322.29303  0.015131128    0.0138885           31 
 1776000   0.55255123   -7.8907315    322.01849  0.015109726  0.013877644           10 
 1777000   0.54619491   -7.8804264    321.43326  0.015073779  0.013866805           10 
 1778000   0.53918028   -7.9056348    321.81966  0.015083411  0.013855986           41 
 1779000   0.54207723   -7.8742072    321.57833  0.015063628  0.013845181           21 
 1780000   0.56145026   -7.8991672    321.86128  0.015068412   0.01383438           14 
 1781000   0.53773518   -7.8853285    321.65324  0.015050217  0.013823586           19 
 1782000   0.55423332   -7.8952551    321.85693  0.015051297  0.013812795           10 
 1783000   0.52846933   -7.8790568    321.85893  0.015042949  0.013802009           17 
 1784000   0.53838168   -7.9040204    321.32515  0.015009583  0.013791235           23 
 1785000   0.53990801   -7.8838354    321.72447  0.015019816  0.013780453           17 
 1786000   0.54718628   -7.8926795     321.8355  0.015016587  0.013769693           16 
 1787000   0.54389923   -7.9024443    321.81046  0.015007017  0.013758927           23 
 1788000    0.5464623   -7.8794673    321.16151  0.014968378  0.013748186           18 
 1789000   0.55284025   -7.8916746    321.65435  0.014982967  0.013737437           18 
 1790000   0.53596342   -7.9095816    321.43956  0.014964598    0.0137267           25 
 1791000     0.528984   -7.8831665    321.82775  0.014974304  0.013715981           27 
 1792000   0.53496772   -7.9081199     321.9319  0.014970792  0.013705243           20 
 1793000   0.53776972   -7.8950254    321.68828  0.014951119  0.013694532           25 
 1794000   0.52611064    -7.902818    321.75077  0.014945688  0.013683835           21 
 1795000   0.54283547   -7.9158678    322.09275  0.014953238  0.013673151           22 
 1796000   0.53065198   -7.8900947     322.1367  0.014946951  0.013662476           19 
 1797000   0.53312008   -7.9020289    321.64309  0.014915744   0.01365182           23 
 1798000   0.54005141   -7.9021198    321.27168  0.014890234  0.013641175           18 
 1799000   0.53735218   -7.9034656      321.716  0.014902538  0.013630534           31 
 1800000   0.54470101   -7.9145247    322.13444  0.014913632   0.01361989           19 
 1801000   0.53432889   -7.9018762     321.4074   0.01487171  0.013609269           25 
 1802000   0.53048279   -7.9212186     321.4591  0.014865848  0.013598648            9 
 1803000   0.52700935   -7.9292175    321.61542  0.014864828  0.013588033           16 
 1804000   0.53105678   -7.9076377    321.26411   0.01484036   0.01357742           28 
 1805000   0.52851455   -7.9218541    321.22773  0.014830459  0.013566813           35 
 1806000   0.52015941   -7.9234947    321.35814  0.014828264  0.013556222           14 
 1807000   0.52499112   -7.9146527    321.42129  0.014822971  0.013545639           18 
 1808000   0.52761864   -7.9138752    321.09521  0.014799742  0.013535064           15 
 1809000   0.52314021   -7.9192943    321.59728  0.014814689  0.013524488           19 
 1810000   0.53212958   -7.9208869    321.34146  0.014794726  0.013513921           13 
 1811000    0.5281862   -7.9167899    321.77061  0.014806305  0.013503381           30 
 1812000   0.52838143   -7.9018027    321.61589  0.014791018  0.013492828           11 
 1813000   0.53629779   -7.9062728    321.13921  0.014760949  0.013482294           29 
 1814000   0.53192032   -7.9377224    321.02616  0.014747619  0.013471762           38 
 1815000   0.53584711   -7.9229282    321.44503  0.014758725  0.013461233           36 
 1816000    0.5308851   -7.9217808    320.68632  0.014715782  0.013450709           17 
 1817000   0.53653885   -7.9253952    321.41025  0.014740885  0.013440188           28 
 1818000   0.52914733   -7.9154475    321.09311  0.014718239  0.013429693           27 
 1819000    0.5362887   -7.9199569     321.1581  0.014713125  0.013419203           30 
 1820000   0.52290359   -7.9354131    321.36322  0.014714433  0.013408721           24 
 1821000   0.52571904   -7.9265016    320.75251  0.014678405  0.013398242           30 
 1822000   0.52703435   -7.9026002     320.8898  0.014676628  0.013387788           33 
 1823000   0.54135828   -7.9438472    321.58078  0.014700164  0.013377333           39 
 1824000   0.51334348   -7.9231643      321.269   0.01467786   0.01336689           28 
 1825000   0.52086558   -7.9109107    320.98059  0.014656648   0.01335646           16 
 1826000   0.53193334   -7.9131352    321.11119  0.014654581  0.013346042           33 
 1827000   0.53101957    -7.930689    321.75811  0.014676068  0.013335635           35 
 1828000   0.52990564   -7.9507154    321.18505  0.014641915  0.013325216           28 
 1829000   0.52236896   -7.9287249    321.32826  0.014640434   0.01331481           17 
 1830000   0.52383542   -7.9469223    321.39954   0.01463568  0.013304411           21 
 1831000   0.51266819   -7.9237981    320.97847  0.014608523  0.013294013           24 
 1832000   0.52686432   -7.9450317    320.65191  0.014585695  0.013283624           25 
 1833000   0.50748238   -7.9351228    321.31285  0.014607786  0.013273244           31 
 1834000   0.52255281   -7.9452678    321.32179  0.014600227   0.01326289           34 
 1835000    0.5271224   -7.9453562    320.56589  0.014557942  0.013252532           32 
 1836000   0.52000309   -7.9274198    321.00764  0.014570063  0.013242174           18 
 1837000   0.52886337   -7.9364101    321.17729  0.014569828  0.013231838           31 
 1838000   0.50227294   -7.9216298     320.9629  0.014552181  0.013221511           28 
 1839000   0.52982697   -7.9555007    321.00444   0.01454615  0.013211184           25 
 1840000   0.51194628   -7.9231845    321.20035  0.014547117   0.01320087           23 
 1841000   0.52949482   -7.9391954    320.78365  0.014520354  0.013190562           34 
 1842000   0.51560482   -7.9298965     321.0185  0.014523095  0.013180267           28 
 1843000   0.53427997   -7.9385456    321.05629  0.014516924   0.01316997           36 
 1844000   0.51805599   -7.9552519     321.0562  0.014509047  0.013159681           25 
 1845000   0.51411836   -7.9435734    321.16436  0.014506068  0.013149413           39 
 1846000   0.51379701   -7.9365724    320.84974  0.014484008  0.013139149           43 
 1847000   0.51423299   -7.9346956    320.31925  0.014452231  0.013128896           37 
 1848000   0.52201536   -7.9373064     320.8102  0.014466549  0.013118651           27 
 1849000    0.5231989   -7.9600685    320.68046  0.014452878  0.013108423           32 
 1850000    0.5277766   -7.9565096    320.78626  0.014449831  0.013098203           34 
 1851000    0.5174062   -7.9510428    320.74924  0.014440358   0.01308799           41 
 1852000   0.51294662   -7.9420356    321.09199  0.014447984  0.013077773           30 
 1853000   0.50936603   -7.9460505    321.12866  0.014441836  0.013067578           41 
 1854000   0.50496168   -7.9531214    320.14949  0.014390035  0.013057391           38 
 1855000   0.51145093   -7.9450631    320.62842  0.014403793  0.013047224           28 
 1856000   0.51114588   -7.9580093    321.54443   0.01443716  0.013037059           33 
 1857000    0.5018493   -7.9488637    320.94807  0.014402624  0.013026901           32 
 1858000   0.49958302   -7.9357592    320.66239  0.014382059  0.013016757           19 
 1859000   0.50753874   -7.9473619    321.66569  0.014419298  0.013006619           13 
 1860000   0.51773713   -7.9380222    320.85076  0.014375034   0.01299648           25 
 1861000   0.51708545   -7.9243445    320.78993  0.014364586  0.012986369           21 
 1862000   0.51827604   -7.9482682    320.80013  0.014357328  0.012976275           27 
 1863000   0.50407572   -7.9527417    321.29329  0.014371681  0.012966179           36 
 1864000   0.51652261   -7.9468862    320.58456  0.014332285  0.012956092           26 
 1865000   0.50423399   -7.9670634    320.79263  0.014333898  0.012946021           25 
 1866000   0.49772442   -7.9372641    320.69333  0.014321781  0.012935951           40 
 1867000   0.50046814   -7.9572742    321.26948  0.014339827  0.012925893           29 
 1868000   0.51350323   -7.9553933    320.97089   0.01431883  0.012915851           23 
 1869000   0.52235437   -7.9445872    320.58136  0.014293801  0.012905818           17 
 1870000   0.51122078   -7.9695356    321.11582  0.014309974  0.012895789           24 
 1871000   0.50433498   -7.9600697       321.34  0.014312311  0.012885769           10 
 1872000   0.51013441   -7.9670565    321.22537  0.014299562  0.012875755           19 
 1873000   0.51258261   -7.9560715    320.76239  0.014271329  0.012865737           27 
 1874000   0.50395366   -7.9568032    321.09748  0.014278614  0.012855723            8 
 1875000   0.51150773   -7.9440497     320.7756  0.014256694  0.012845734           22 
 1876000   0.49362537   -7.9462496     320.2846  0.014227283  0.012835759           45 
 1877000   0.50806837   -7.9654094    321.27421  0.014263639   0.01282578           34 
 1878000   0.50005447   -7.9644104    320.78686  0.014234419   0.01281581           21 
 1879000   0.51392058   -7.9574619    320.58384  0.014217839  0.012805857           29 
 1880000    0.5053407   -7.9719505    320.96203   0.01422704  0.012795901           17 
 1881000   0.50548169   -7.9599665    320.75128   0.01421014  0.012785954           27 
 1882000   0.51361962    -7.960656    320.95796  0.014211741  0.012776012           36 
 1883000   0.49886349   -7.9641679    321.12505  0.014211588  0.012766082           22 
 1884000   0.49353763   -7.9774683    320.64113   0.01418264  0.012756163           24 
 1885000   0.50190014   -7.9807074    320.50445  0.014169074   0.01274624           32 
 1886000    0.4989721   -7.9735405     320.9611  0.014181738  0.012736337           20 
 1887000   0.50520379   -7.9712883    320.69141  0.014162313  0.012726448           29 
 1888000   0.49897606   -7.9638164    320.92307  0.014165036  0.012716566           24 
 1889000    0.4916787   -7.9636686    320.51745  0.014139644  0.012706679           29 
 1890000    0.4965414   -7.9762273    320.87598  0.014147971  0.012696801           24 
 1891000   0.49048771   -7.9872283    320.89848  0.014141481  0.012686924           23 
 1892000   0.50242706   -7.9769992    320.82508  0.014130773  0.012677056           14 
 1893000   0.49809053   -7.9763109    320.43196  0.014106003  0.012667197           19 
 1894000   0.48598914    -7.973429     320.1422  0.014085806  0.012657342           25 
 1895000   0.50428472   -7.9720161     320.5351  0.014095651  0.012647505           57 
 1896000   0.48479547   -7.9842533    320.66868  0.014094088  0.012637677           33 
 1897000    0.4893407   -7.9743463    320.56264     0.014082  0.012627847           14 
 1898000   0.49585207   -7.9818625    320.72667  0.014081782  0.012618033           30 
 1899000   0.47986282   -7.9585801    320.53332  0.014065882  0.012608225           27 
 1900000   0.50586208   -7.9769654    320.44194  0.014054471  0.012598439           25 
 1901000   0.49825189   -7.9779234    320.21497  0.014037128  0.012588649           29 
 1902000    0.4947003   -7.9700754    320.60402  0.014046794  0.012578877           16 
 1903000   0.48581483   -7.9813335    320.90553  0.014052616  0.012569108           20 
 1904000   0.49229249   -7.9995307    320.53065  0.014028828  0.012559347           40 
 1905000   0.48814703   -7.9807395    320.13494  0.014004153  0.012549596           19 
 1906000    0.4896923   -7.9871771     320.4472  0.014010458  0.012539851           31 
 1907000   0.48842726   -7.9899835    320.33726  0.013998307  0.012530121           45 
 1908000   0.48261806   -7.9826489    320.68517  0.014006166  0.012520397           13 
 1909000   0.48046217   -7.9840957    320.54949  0.013992906  0.012510685           25 
 1910000   0.49393513    -7.998268    320.55463  0.013985804  0.012500981           21 
 1911000   0.47647741   -7.9882604    320.70346  0.013984975  0.012491286           36 
 1912000   0.49413417   -7.9907105    320.31807  0.013960864  0.012481607           28 
 1913000   0.49664727    -7.984517    320.77361   0.01397341  0.012471928           34 
 1914000   0.48689898   -7.9935065    320.19458    0.0139409  0.012462269           28 
 1915000   0.48803903   -7.9909679    320.64543  0.013953239  0.012452612           19 
 1916000   0.48740627   -7.9955183     320.2462  0.013928593  0.012442971           15 
 1917000    0.4786712   -7.9972893    320.33624  0.013925241  0.012433318           25 
 1918000   0.49589681   -7.9811452    320.83029  0.013939446  0.012423689           10 
 1919000   0.48747827   -7.9818884    320.58469  0.013921517   0.01241407           16 
 1920000    0.4854961   -7.9744009    320.18951  0.013897114   0.01240446           10 
 1921000    0.4904077   -7.9930459    320.55168  0.013905591  0.012394855           11 
 1922000   0.47913636   -7.9752733    320.61449  0.013901079  0.012385263           10 
 1923000    0.4823129   -7.9979301    320.19056  0.013875479  0.012375671            9 
 1924000   0.48716034   -7.9934589    320.22481  0.013869751  0.012366089           13 
 1925000   0.49356054   -7.9814134    320.27947  0.013864912   0.01235652           10 
 1926000     0.483693    -8.013851    320.36712  0.013861506   0.01234696           14 
 1927000   0.48582585   -7.9756003    320.12761  0.013843955  0.012337401           14 
 1928000    0.4885916   -7.9880654    320.58129  0.013856384   0.01232786           21 
 1929000   0.48520172   -8.0032929    320.18114  0.013831914  0.012318328           12 
 1930000   0.49053838   -7.9999594    320.15273  0.013823521  0.012308786           13 
 1931000   0.48671941   -8.0083668    320.66025  0.013838264  0.012299262           16 
 1932000    0.4806869   -8.0120883    320.04126  0.013804402  0.012289735           12 
 1933000   0.47591474   -7.9886976    320.35113  0.013810619  0.012280213           22 
 1934000   0.48510201     -7.99789    319.70053  0.013775445  0.012270718           19 
 1935000   0.49224337   -8.0131547    320.45747  0.013800925  0.012261227           35 
 1936000   0.48026955   -8.0085293    319.82983   0.01376678  0.012251748           10 
 1937000   0.46510991   -7.9908387    320.33454  0.013781386  0.012242275            9 
 1938000   0.48259482   -8.0099102    320.10928  0.013764589  0.012232815            9 
 1939000   0.48403741   -7.9850605    320.07458  0.013755999  0.012223362           22 
 1940000   0.48020344   -7.9951408    319.81937  0.013737945  0.012213921           14 
 1941000   0.48290214   -8.0035703    320.16331  0.013745634  0.012204484           14 
 1942000   0.48622315   -8.0247746    319.57401  0.013713268  0.012195056            8 
 1943000   0.46864954   -8.0046384    319.97734  0.013723509  0.012185623           23 
 1944000   0.47041568   -8.0106919     320.0678  0.013720327  0.012176199           13 
 1945000   0.47551027    -8.013268     319.7945  0.013701564  0.012166788           12 
 1946000   0.48375481   -7.9879102    319.83708  0.013696346  0.012157387           12 
 1947000   0.47165062   -8.0171175    319.77283  0.013686562  0.012147986           24 
 1948000   0.47542845   -8.0170293    320.22699  0.013698964  0.012138602           24 
 1949000   0.48044383   -8.0143615    319.81393  0.013674274  0.012129228           15 
 1950000   0.47157498   -8.0152493    320.22999  0.013685042  0.012119859           34 
 1951000   0.47294846   -8.0043685    319.88748  0.013663398  0.012110501           12 
 1952000   0.47804725    -8.017792     320.2276  0.013670919  0.012101162            8 
 1953000   0.48341885   -8.0138776     320.1113  0.013658956  0.012091816           18 
 1954000   0.47716933   -8.0280296    319.80305   0.01363882  0.012082484           13 
 1955000   0.46847704   -8.0033626    319.10257  0.013601985  0.012073158           14 
 1956000   0.47664875   -8.0098477    320.13562  0.013639043  0.012063833           15 
 1957000   0.46798188   -8.0310175    319.58193  0.013608496  0.012054528           16 
 1958000   0.47829433   -8.0028563    319.83977   0.01361252  0.012045225           17 
 1959000   0.46797752   -8.0194263    319.75583  0.013602001  0.012035936           13 
 1960000   0.47248425   -8.0064081    319.57743  0.013587476  0.012026648           21 
 1961000    0.4662763   -8.0292591    320.09762  0.013602652   0.01201737           13 
 1962000   0.47891322   -8.0234255      319.891  0.013586943  0.012008097           19 
 1963000   0.46760063   -8.0256393    320.22385  0.013594152  0.011998838           11 
 1964000   0.47037703   -8.0243288    320.36979  0.013593423  0.011989584           12 
 1965000   0.45714942   -8.0069004    319.94992  0.013568699  0.011980333           21 
 1966000   0.46025474    -8.026945    319.61887  0.013547765    0.0119711           13 
 1967000   0.46540306   -8.0236205    320.37529  0.013572924   0.01196188           21 
 1968000     0.462429   -8.0193656    319.43487  0.013526205   0.01195266           23 
 1969000   0.45647615   -8.0211832    320.14336  0.013549321  0.011943453           21 
 1970000   0.46756236   -8.0189467    319.93961  0.013533824  0.011934252           14 
 1971000   0.46347266   -8.0060664     319.6793  0.013515952  0.011925059           28 
 1972000   0.46083988   -8.0081011    320.15454  0.013529181   0.01191588           15 
 1973000   0.46221434   -8.0143781    320.17107  0.013523022  0.011906706           12 
 1974000   0.46479363   -8.0319865    319.66639  0.013494866  0.011897537           24 
 1975000   0.45526127   -8.0126769      319.671  0.013488228  0.011888384           16 
 1976000   0.46703703   -8.0165685    319.72447  0.013483657  0.011879231           19 
 1977000   0.46372859   -8.0094887    319.60755  0.013471908  0.011870082           29 
 1978000   0.45712891   -8.0129948    319.77608  0.013472198  0.011860947           17 
 1979000   0.46010834   -8.0301371    319.44869  0.013451604  0.011851828           11 
 1980000   0.46588525    -8.032238    319.37909  0.013441881    0.0118427           21 
 1981000    0.4759119   -8.0198073    319.89847  0.013456944  0.011833589           24 
 1982000   0.45855482   -8.0239763    320.04809  0.013456445   0.01182448           30 
 1983000   0.45643481    -8.027583    319.80416  0.013439408  0.011815371           11 
 1984000   0.45597968   -8.0295064     319.8793   0.01343579  0.011806274            9 
 1985000   0.46665277   -8.0542871    319.55409  0.013415369  0.011797181            9 
 1986000   0.46047157   -8.0410168    320.02405  0.013428334  0.011788096           11 
 1987000   0.46454516   -8.0217406    319.74081  0.013409697  0.011779019           22 
 1988000   0.44814579   -8.0351102    320.15178  0.013420179   0.01176995           20 
 1989000   0.45687331   -8.0281481    319.68014  0.013393671  0.011760897           18 
 1990000   0.45867229   -8.0407431    319.18795   0.01336633  0.011751858           13 
 1991000   0.46026323   -8.0331511    319.75852  0.013383497  0.011742809           14 
 1992000   0.46204902   -8.0321793     319.2827  0.013356873  0.011733783           20 
 1993000   0.46138094   -8.0431593    319.87455  0.013374918  0.011724747           14 
 1994000   0.45890624   -8.0305094     319.5465  0.013354501  0.011715718           12 
 1995000    0.4677568   -8.0264274    319.59798  0.013349957  0.011706699           23 
 1996000   0.44494093   -8.0536439    319.62461  0.013344381  0.011697686           11 
 1997000   0.46378049   -8.0481988    319.19039  0.013319579  0.011688681           15 
 1998000   0.45652248   -8.0407261    319.30212  0.013317573  0.011679687           28 
 1999000   0.45292924   -8.0454136    319.77063  0.013330441  0.011670711           11 
 2000000   0.45638906   -8.0464935    319.16338  0.013298474  0.011661736           11 
 2001000   0.45243006   -8.0447276    319.25064  0.013295462  0.011652764           15 
 2002000   0.45451431   -8.0483977    319.43895  0.013296659  0.011643809           15 
 2003000   0.45872587   -8.0381809    319.71791  0.013301627  0.011634856           12 
 2004000   0.44800255   -8.0477055     319.0635  0.013267777  0.011625899           10 
 2005000   0.45085705   -8.0401517    319.53311  0.013280678  0.011616953           27 
 2006000   0.44728271   -8.0687246    319.80795  0.013285475  0.011608018           26 
 2007000   0.46307178   -8.0358716    319.35687  0.013260126   0.01159909           12 
 2008000   0.44847405   -8.0319104    318.84097  0.013232112  0.011590171           25 
 2009000   0.45010813   -8.0458906    319.16746  0.013239068  0.011581259           11 
 2010000   0.45996426   -8.0555036    318.83631  0.013218753  0.011572362           16 
 2011000   0.45218514   -8.0536335    319.20316  0.013227381  0.011563462           17 
 2012000   0.45406708   -8.0586878    319.25528  0.013222966  0.011554573           12 
Loop time of 4442.37 on 48 procs for 2000000 steps with 4000 atoms

Performance: 77796.258 tau/day, 450.210 timesteps/s
99.4% CPU use with 48 MPI tasks x no OpenMP threads

MPI task timing breakdown:
Section |  min time  |  avg time  |  max time  |%varavg| %total
---------------------------------------------------------------
Pair    | 283.01     | 294.86     | 312.44     |  41.3 |  6.64
Neigh   | 28.836     | 29.524     | 30.527     |   6.9 |  0.66
Comm    | 257.72     | 274.69     | 288.02     |  49.0 |  6.18
Output  | 3.9382     | 3.9402     | 3.9736     |   0.2 |  0.09
Modify  | 3784.4     | 3796.3     | 3806.8     |   8.7 | 85.46
Other   |            | 43.08      |            |       |  0.97

Nlocal:        83.3333 ave          89 max          76 min
Histogram: 3 2 1 7 6 6 5 12 3 3
Nghost:        1883.06 ave        1908 max        1855 min
Histogram: 3 2 6 3 6 9 8 4 5 2
Neighs:        11797.4 ave       13163 max       10613 min
Histogram: 4 5 6 10 4 2 3 6 7 1
FullNghs:      23595.3 ave       25364 max       21329 min
Histogram: 3 2 2 5 6 10 3 7 6 4

Total # of neighbors = 1132576
Ave neighs/atom = 283.14400
Neighbor list builds = 107658
Dangerous builds = 0

#clear
#
#next RN
#
#jump SELF
Total wall time: 1:14:05
