
units lj                  # Use reduced LJ style units
atom_style atomic         # Uncharged point particles
atom_modify map hash      # Needed for indexing of clusters etc
                          # Used to be able to find where atoms are in relation to each other.

lattice fcc 1.0 spacing 1 1 1
Lattice spacing in x,y,z = 1.5874011 1.5874011 1.5874011
region box block 0 10 0 10 0 10 units lattice
create_box 2 box
Created orthogonal box = (0.0000000 0.0000000 0.0000000) to (15.874011 15.874011 15.874011)
  3 by 4 by 4 MPI processor grid
create_atoms 1 box
Created 4000 atoms
  using lattice units in orthogonal box = (0.0000000 0.0000000 0.0000000) to (15.874011 15.874011 15.874011)
  create_atoms CPU = 0.003 seconds
set type 1 type/fraction 2 0.63 78393
Setting atom values ...
  2531 settings made for type/fraction
mass 1 1.0
mass 2 1.0
pair_style lj/cut  3.5
pair_modify tail  yes
pair_coeff 1  1  1.0  1.0   # Intearaction between 1 and 1 set with epsilon = 1 and sigma = 1
pair_coeff 1  2  1.5  0.8
pair_coeff 2  2  0.5  0.88

write_data data.0
System init for write_data ...
Neighbor list info ...
  update every 1 steps, delay 10 steps, check yes
  max neighbors/atom: 2000, page size: 100000
  master list distance cutoff = 3.8
  ghost atom cutoff = 3.8
  binsize = 1.9, bins = 9 9 9
  1 neighbor lists, perpetual/occasional/extra = 1 0 0
  (1) pair lj/cut, perpetual
      attributes: half, newton on
      pair build: half/bin/atomonly/newton
      stencil: half/bin/3d
      bin: standard
WARNING: Not all mixed pair coeffs generated from mixing. Use write_data with 'pair ij' option to store all pair coeffs. (../write_data.cpp:312)


#############################
#   M E L T   S Y S T E M   #
#############################

velocity all create 2.4 9580093 mom yes dist gaussian # Assign velocities
                                                    # Temperature 2.4, random number seed, zero linear momentum
                                                                                # Gaussian distribution

timestep 0.002   # simulation timestep
thermo 1000       # output thermodynamic data every 1000 steps bf 100

# Define a fix  in this case with index 1 applied to all
# particles in the simulation. This fix is for simulations
# in the anisotropic NPT ensemble. Note that we use the MTK
# correction.
fix 1 all npt temp 2.4 2.4 0.1 iso 5.68 5.68 0.5 mtk yes tchain 5 pchain 5 # Use NPT ensemble
                                                                         # Set temperature and pressure and damping
                                                                         # Numbers of thermostats in chain and in barostat
run 10000          # run for 10000 steps
Per MPI rank memory allocation (min/avg/max) = 3.642 | 3.644 | 3.648 Mbytes
Step Temp E_pair E_mol TotEng Press Volume 
       0          2.4    -4.562992            0  -0.96389204   -3.9987934         4000 
    1000    2.3851078   -4.3114167            0  -0.73464933     5.686585    3612.6527 
    2000     2.402729   -4.3037793            0  -0.70058685    5.4646509    3628.0311 
    3000     2.383187   -4.3094661            0  -0.73557929    5.8841627    3588.3099 
    4000    2.3967385   -4.2905009            0  -0.69629198    5.9151868    3599.9532 
    5000    2.3672961    -4.309627            0  -0.75957063    5.5396353    3614.0475 
    6000    2.4528466    -4.305082            0  -0.62673193    5.3802874    3637.9519 
    7000    2.4929829    -4.249421            0  -0.51088148    5.7617706    3640.2359 
    8000    2.4320394   -4.3536844            0  -0.70653734    5.6210464     3602.255 
    9000    2.3765812   -4.2898288            0  -0.72584824    6.0127756    3589.6259 
   10000    2.4124922   -4.3291821            0   -0.7113485    5.6925121     3597.261 
Loop time of 2.68172 on 48 procs for 10000 steps with 4000 atoms

Performance: 644362.679 tau/day, 3728.951 timesteps/s
99.6% CPU use with 48 MPI tasks x no OpenMP threads

MPI task timing breakdown:
Section |  min time  |  avg time  |  max time  |%varavg| %total
---------------------------------------------------------------
Pair    | 1.2035     | 1.2687     | 1.3466     |   2.6 | 47.31
Neigh   | 0.21542    | 0.22283    | 0.23854    |   0.9 |  8.31
Comm    | 0.82695    | 0.9009     | 0.97848    |   3.9 | 33.59
Output  | 0.00024412 | 0.00024957 | 0.00031561 |   0.0 |  0.01
Modify  | 0.22864    | 0.2736     | 0.31828    |   4.9 | 10.20
Other   |            | 0.01545    |            |       |  0.58

Nlocal:        83.3333 ave          93 max          71 min
Histogram: 1 2 0 4 8 14 7 7 3 2
Nghost:        1762.06 ave        1808 max        1730 min
Histogram: 5 3 9 7 7 6 6 3 1 1
Neighs:        10609.2 ave       12223 max        8740 min
Histogram: 2 1 0 4 14 6 12 7 0 2

Total # of neighbors = 509244
Ave neighs/atom = 127.31100
Neighbor list builds = 902
Dangerous builds = 183

# Equilibrate just above the melting temperature to avoid step fn in T

fix 1 all npt temp 1.25 1.25 0.1 iso 5.68 5.68 0.5 mtk yes tchain 5 pchain 5
run 2000
Per MPI rank memory allocation (min/avg/max) = 3.644 | 3.646 | 3.650 Mbytes
Step Temp E_pair E_mol TotEng Press Volume 
   10000    2.4124922   -4.3291821            0   -0.7113485    5.6925121     3597.261 
   11000    1.2433966   -6.2898089            0   -4.4251803    5.6638839    2765.1247 
   12000    1.2698209   -6.3797665            0   -4.4755114    5.6908182    2744.9754 
Loop time of 0.64786 on 48 procs for 2000 steps with 4000 atoms

Performance: 533448.696 tau/day, 3087.087 timesteps/s
99.7% CPU use with 48 MPI tasks x no OpenMP threads

MPI task timing breakdown:
Section |  min time  |  avg time  |  max time  |%varavg| %total
---------------------------------------------------------------
Pair    | 0.29817    | 0.32274    | 0.34388    |   1.9 | 49.82
Neigh   | 0.041558   | 0.043779   | 0.045993   |   0.5 |  6.76
Comm    | 0.21011    | 0.23387    | 0.26205    |   2.6 | 36.10
Output  | 4.9344e-05 | 5.0728e-05 | 6.5116e-05 |   0.0 |  0.01
Modify  | 0.039355   | 0.042715   | 0.045565   |   1.0 |  6.59
Other   |            | 0.004712   |            |       |  0.73

Nlocal:        83.3333 ave          90 max          77 min
Histogram: 2 5 4 9 4 8 9 2 0 5
Nghost:        2122.52 ave        2147 max        2094 min
Histogram: 2 0 2 8 7 11 7 8 2 1
Neighs:        13904.1 ave       15804 max       12227 min
Histogram: 4 2 2 11 8 8 7 3 1 2

Total # of neighbors = 667399
Ave neighs/atom = 166.84975
Neighbor list builds = 144
Dangerous builds = 12

#############################
# L I N E A R  Q U E N C H  #
#############################

# Define solid atoms. This closely follows ten Wolde  Ruiz-Montero and Frenkel  Faraday Discuss  1996  104  93-110
# Compute components of the per-atom q6 vector
compute q6 all orientorder/atom degrees 1 6 components 6 nnn NULL cutoff 1.3 # compute the Q6 parameter.
                                                                             # Use all neighbours within 1.3 unit cell.

# get number of connections
compute coord_number all coord/atom orientorder q6 0.5

# An atom is solid if it has 8 or more connections (of a possible 14)
variable is_solid atom c_coord_number>=8
group solid dynamic all var is_solid    # Must be dynamic to update
dynamic group solid defined

# do clustering
compute cluster solid cluster/atom 1.3 # Create a cluster where all atoms within are solid and max 1.3 units from another member

# define chunks one chunk per cluster
compute clus_chunks solid chunk/atom c_cluster nchunk every compress yes  # Says which atoms are in which chunk

# count the size of each chunk
compute size_chunks solid property/chunk clus_chunks count


# Find the maximum entry in the vector of chunk sizes
variable max_n equal max(c_size_chunks)


# Thermo style which includes this variable
# thermo_style custom step temp pe vol v_max_n

thermo ${N}  # Print the thermo information every 100 steps
thermo 1000  

# Reset the npt fix at a lower temperature (below freezing)
fix 1  all npt temp  ${temp} ${temp}  0.1  iso  5.68  5.68  0.5  mtk yes tchain  5  pchain  5
fix 1  all npt temp  0.45 ${temp}  0.1  iso  5.68  5.68  0.5  mtk yes tchain  5  pchain  5
fix 1  all npt temp  0.45 0.45  0.1  iso  5.68  5.68  0.5  mtk yes tchain  5  pchain  5

dump dmp2 all dcd ${N} traj.dcd
dump dmp2 all dcd 1000 traj.dcd


compute msd all msd com yes
variable twopoint equal c_msd[4]/6/(step*dt+1.0e-6)
fix 9 all vector 10 c_msd[4]
variable fit equal slope(f_9)/6/(10*dt)
thermo_style custom step temp pe c_msd[4] v_twopoint v_fit v_max_n

fix 1 all npt temp 1.25 ${temp} 0.1 iso 5.68 5.68 0.5 mtk yes tchain 5 pchain 5
fix 1 all npt temp 1.25 0.45 0.1 iso 5.68 5.68 0.5 mtk yes tchain 5 pchain 5
run 5000000 # 5000000  # Run for this many steps
Neighbor list info ...
  update every 1 steps, delay 10 steps, check yes
  max neighbors/atom: 2000, page size: 100000
  master list distance cutoff = 3.8
  ghost atom cutoff = 3.8
  binsize = 1.9, bins = 8 8 8
  4 neighbor lists, perpetual/occasional/extra = 1 3 0
  (1) pair lj/cut, perpetual
      attributes: half, newton on
      pair build: half/bin/atomonly/newton
      stencil: half/bin/3d
      bin: standard
  (2) compute orientorder/atom, occasional
      attributes: full, newton on
      pair build: full/bin/atomonly
      stencil: full/bin/3d
      bin: standard
  (3) compute coord/atom, occasional
      attributes: full, newton on
      pair build: full/bin/atomonly
      stencil: full/bin/3d
      bin: standard
  (4) compute cluster/atom, occasional
      attributes: full, newton on
      pair build: full/bin/atomonly
      stencil: full/bin/3d
      bin: standard
Per MPI rank memory allocation (min/avg/max) = 9.848 | 9.853 | 9.857 Mbytes
Step Temp PotEng c_msd[4] v_twopoint v_fit v_max_n 
   12000    1.2698209   -6.3797665 1.0399159e-30 7.2216378e-33 8.3333333e+20            4 
   13000    1.2524999    -6.419687   0.52638803 0.0033742821  0.043123148            2 
   14000    1.2464992   -6.3657193    1.0235224 0.0060923951  0.041787965            3 
   15000    1.2843011   -6.3766538     1.484128  0.008245155  0.041304061            2 
   16000    1.2630857   -6.3662869    1.9912864  0.010371283  0.041136333            1 
   17000    1.2253357   -6.3702241    2.4743892  0.012129359  0.041136026            2 
   18000     1.256558   -6.3803338    2.9448467  0.013633549  0.040913326            3 
   19000    1.2415404   -6.4010961    3.3358581  0.014630956  0.040069314            2 
   20000    1.2342239   -6.3327364    3.7845472  0.015768946  0.039379283            2 
   21000    1.2281863   -6.3695238      4.34747  0.017251865  0.039216418            2 
   22000    1.2262778   -6.3949145    4.8478244  0.018362971  0.039419104            6 
   23000    1.2230978   -6.3860656    5.3795599  0.019491159  0.039795325            2 
   24000    1.2667831   -6.3947271    5.8289578  0.020239436  0.039964776            2 
   25000    1.2411917   -6.4239143    6.3202653  0.021067551  0.040015827            1 
   26000     1.233517   -6.4296125     6.891404  0.022087833  0.040283757            3 
   27000    1.2382452   -6.3971054    7.4451329  0.022978805  0.040643593            3 
   28000    1.2190519    -6.374393    7.9595712    0.0236892  0.040872928            2 
   29000    1.2655474   -6.3818926    8.3856254  0.024096624   0.04100048            1 
   30000    1.2439094   -6.3785712    8.8297216  0.024527004  0.040971618            2 
   31000    1.2281632   -6.4130692     9.225885  0.024800766  0.040944076            2 
   32000    1.2645066   -6.3982059    9.5819421  0.024952974  0.040740596            2 
   33000    1.2302149   -6.4075217    10.087245  0.025472841  0.040518238            2 
   34000    1.2290542   -6.3926356    10.484454   0.02569719  0.040357571            3 
   35000    1.2564368    -6.394061     11.06527   0.02634588  0.040240905            1 
   36000    1.2468856   -6.3979913    11.462333  0.026533177  0.040143975            1 
   37000    1.2646923    -6.389267    11.949208  0.026912631  0.040047645            2 
   38000    1.2511487   -6.3903722    12.473432  0.027354016  0.039952885            2 
   39000    1.2476598   -6.3832345    12.891654  0.027546268  0.039860187            2 
   40000    1.2415436   -6.3710674    13.387942  0.027891546  0.039778275            2 
   41000    1.2452933   -6.3876932    13.983753  0.028422262  0.039772256            3 
   42000    1.2461838   -6.3856194    14.366903   0.02850576  0.039745514            4 
   43000    1.2514652   -6.4480391    14.807153  0.028696032  0.039721762            4 
   44000    1.2418668   -6.3927273    15.327961  0.029030229   0.03973031            2 
   45000    1.2662112   -6.4064445    15.803958  0.029266588  0.039721883            3 
   46000     1.246127   -6.4221015    16.131375  0.029223506   0.03969522            2 
   47000    1.2411852   -6.4235267    16.574085  0.029386675  0.039617852            3 
   48000    1.2532995   -6.4043386      17.1001  0.029687673  0.039532719            6 
   49000    1.2198849   -6.4236413    17.452698  0.029681459  0.039462328            5 
   50000    1.2250244   -6.4051452    17.794975  0.029658291  0.039369596            3 
   51000    1.2732236   -6.4322211    18.203211  0.029743808  0.039273994            2 
   52000    1.2445704   -6.3750484    18.802922  0.030132888  0.039177572            1 
   53000    1.2244136   -6.4218248    19.213594  0.030210053  0.039135081            2 
   54000    1.2654087   -6.4025591    19.771079  0.030510924  0.039091944            3 
   55000    1.2675642   -6.4130302    20.178012  0.030572745  0.039064809            7 
   56000    1.2291775   -6.3875878    20.774131  0.030913885  0.039030648            2 
   57000    1.2388349   -6.4040529     21.08497   0.03082598  0.038997998            3 
   58000    1.2187883   -6.3874871    21.493437  0.030881375  0.038965123            2 
   59000    1.2325128   -6.4194853    22.040631  0.031130834  0.038913751            1 
   60000     1.254009   -6.3943586    22.558553  0.031331323   0.03888298            2 
   61000    1.2348403   -6.4339184    22.958445  0.031363996  0.038863002            2 
   62000    1.2462994   -6.4075667    23.368142  0.031408793  0.038843428            2 
   63000    1.2511143   -6.4228965    23.982368  0.031722708  0.038822922            3 
   64000    1.2398644   -6.4504285    24.424567  0.031802821  0.038834425            2 
   65000    1.2323724   -6.4460247    24.787974  0.031779454  0.038819107            2 
   66000    1.2277078   -6.4642231    25.023417  0.031595223  0.038775839            2 
   67000    1.2479009   -6.4042099    25.575259  0.031810024  0.038727014            2 
   68000    1.2619357   -6.4000764    26.120837  0.032010829  0.038682876            1 
   69000    1.2552631   -6.4007873    26.435939  0.031927462  0.038641803            4 
   70000    1.2856913   -6.4104327     26.97491  0.032112988  0.038607248            1 
   71000     1.218697   -6.4511824    27.215514  0.031943091  0.038569714            3 
   72000    1.2495789   -6.4221306    27.749862  0.032117896  0.038529773            2 
   73000    1.2416446   -6.3821638    28.243659   0.03224162  0.038491547            2 
   74000    1.2620876   -6.4445021    28.529861  0.032128221  0.038447712            3 
   75000    1.2673603   -6.4136346     29.12231  0.032358122  0.038396642            3 
   76000    1.2570331    -6.436818    29.553078  0.032404691   0.03836605            3 
   77000    1.2542079   -6.4007129    29.952843  0.032416496  0.038324279            2 
   78000    1.2627025   -6.3987582    30.400921  0.032479616  0.038284258            6 
   79000    1.2657195   -6.4097145    30.874335  0.032567864  0.038245104            3 
   80000    1.2220532   -6.4283003    31.301695  0.032605932  0.038211098            2 
   81000    1.2307966   -6.4193253    31.881059  0.032799443  0.038192096            4 
   82000     1.225127   -6.3948544    32.338427  0.032864255   0.03817081            4 
   83000    1.2592466   -6.4879568    32.607913  0.032738868  0.038150054            2 
   84000    1.2410554   -6.4385741     33.00998  0.032747996  0.038127057            1 
   85000    1.2434159   -6.3818916    33.724338  0.033063076  0.038108039            2 
   86000    1.2431668   -6.4237496    34.101984  0.033044558  0.038099012            2 
   87000    1.2468505   -6.4341875    34.469728  0.033016981  0.038081071            2 
   88000     1.237304   -6.4298915    35.143007  0.033279362  0.038068795            1 
   89000    1.2546254   -6.3976859    35.351968  0.033101094  0.038060784            2 
   90000    1.2258066   -6.3985298    35.881104  0.033223244  0.038050294            5 
   91000    1.2309002   -6.4406128    36.284264  0.033227348  0.038031058            3 
   92000    1.2191856   -6.3895995    36.743597  0.033282244  0.038014356            6 
   93000    1.2332099   -6.4019943    37.330247  0.033450042  0.038005943            3 
   94000    1.2688835   -6.3904137     37.66627  0.033392083   0.03799218            1 
   95000    1.2741931   -6.3796628    38.257156  0.033558908  0.037982294            2 
   96000    1.2626099   -6.3972868    38.677181  0.033573942   0.03797633            4 
   97000    1.2421616   -6.3931142     39.04667  0.033545249  0.037967728            2 
   98000    1.2396089   -6.4717223    39.311021  0.033427739  0.037945024            1 
   99000    1.2451844   -6.4304653    39.881469   0.03357026  0.037927351            3 
  100000    1.2487841    -6.440125    40.239089  0.033532574  0.037910784            2 
  101000    1.2407803   -6.4154409    40.572891  0.033475983  0.037888879            3 
  102000    1.2329736   -6.4380145    41.008517   0.03350369  0.037866533            4 
  103000    1.2300984   -6.3998975     41.45002  0.033535615  0.037841914            3 
  104000    1.2265739   -6.4184116    41.705782  0.033418094  0.037814822            2 
  105000    1.2436025   -6.3982984     42.16848  0.033467047  0.037786921            2 
  106000    1.2113135    -6.468395    42.573196  0.033469494  0.037756438            4 
  107000    1.2667766   -6.4521515    42.953763  0.033453087  0.037719254            2 
  108000    1.2512724   -6.4177978    43.598956  0.033641169  0.037687436            2 
  109000    1.2306075   -6.4783604     43.98729  0.033629427  0.037665031            2 
  110000    1.2309406     -6.42844    44.502491  0.033714008  0.037646247            3 
  111000     1.239734   -6.4567877    44.354707  0.033299329  0.037612307            2 
  112000     1.241396   -6.4433183    44.915025  0.033418917   0.03758004            3 
  113000    1.2631094   -6.4277146    45.482329  0.033541541  0.037545156            1 
  114000    1.2320412   -6.4254893    45.739657  0.033435422  0.037514377            2 
  115000    1.2351788   -6.4347991    46.215037  0.033489157  0.037477386            4 
  116000    1.2521551   -6.4351158    46.462367  0.033378137  0.037437742            2 
  117000    1.2330579     -6.44384     46.68153  0.033248953   0.03739693            2 
  118000    1.2344929   -6.4102658    47.602122  0.033617318  0.037355643            2 
  119000    1.2350609    -6.410877    48.044569  0.033644656  0.037322638            2 
  120000    1.2487278   -6.5078456    48.012533  0.033342037    0.0372894            2 
  121000    1.2486618   -6.3959983    48.794001  0.033604684  0.037253901            3 
  122000    1.2527999   -6.4249771    49.243192   0.03363606  0.037225698            3 
  123000    1.2201245   -6.4456109    49.631914  0.033625958  0.037198422            2 
  124000    1.2440683   -6.4540972    49.855487  0.033505032  0.037165421            2 
  125000    1.2251236   -6.3901696    50.401519  0.033601013  0.037129375            1 
  126000    1.2208075   -6.4546495    50.502637  0.033401215   0.03708848            2 
  127000    1.2590286   -6.4347045    50.711584  0.033275317  0.037045942            1 
  128000    1.2559227   -6.3976453    51.106175  0.033272249  0.036999923            2 
  129000    1.2379164   -6.4841456     51.15529  0.033046053  0.036947054            2 
  130000    1.2577791   -6.4334929    51.713326  0.033149568  0.036894555            4 
  131000    1.2138115   -6.4004758    52.514888  0.033406417  0.036847864            3 
  132000    1.2160259   -6.3987298    52.980139  0.033447057  0.036807268            7 
  133000    1.2173876   -6.4264535    53.044379  0.033235826  0.036765263            5 
  134000    1.2223263   -6.3886546    53.411479  0.033216094  0.036721765            5 
  135000    1.2497127   -6.4234633    53.780269  0.033197697  0.036673472            1 
  136000    1.2141985   -6.4025204    54.407766  0.033338092  0.036632249            2 
  137000    1.2491417   -6.4656441    54.804829  0.033336271  0.036598466            4 
  138000    1.2330759   -6.4365132     55.35413  0.033426407  0.036568528            1 
  139000    1.2436468   -6.4706898    55.793472  0.033449324  0.036540362            1 
  140000    1.2296813   -6.4436794    56.376684   0.03355755  0.036518806            3 
  141000    1.2332671    -6.469122    57.010477  0.033694135  0.036501932            3 
  142000    1.2456426   -6.4478608    57.597965  0.033801623  0.036488098            2 
  143000     1.220332   -6.4765001     57.87997  0.033729586  0.036474716            2 
  144000    1.2409962   -6.4324744     58.35818  0.033772095   0.03646089            3 
  145000    1.2158746   -6.4954589    58.952088   0.03388051  0.036452076            3 
  146000    1.2361524   -6.4653695    59.589138  0.034012065  0.036444867            1 
  147000    1.2105441   -6.4195884    60.073271  0.034055142  0.036441232            3 
  148000     1.236478   -6.4387324    60.123052   0.03385307  0.036435337            4 
  149000    1.2232445   -6.4675403    60.927866  0.034075988  0.036432711            4 
  150000    1.2124222   -6.4464676    61.463483  0.034146379  0.036432809            3 
  151000    1.2223133   -6.4093059    62.260942  0.034360343  0.036432426            3 
  152000     1.215844   -6.4276422    62.109493  0.034051257  0.036432222            3 
  153000    1.2209319   -6.4456537    62.605848  0.034099045   0.03642907            1 
  154000    1.2620457   -6.4890188    63.130979  0.034161785  0.036425795            3 
  155000    1.2226549   -6.4207764    63.401457  0.034086805   0.03642914            3 
  156000    1.2247173   -6.4361695    64.200386  0.034295078  0.036430445            2 
  157000    1.2340877   -6.4281695    64.935661  0.034466911  0.036433109            2 
  158000    1.2537441   -6.4384163    64.853958  0.034205674  0.036437436            3 
  159000    1.2392552   -6.4146173    65.835524  0.034504992  0.036443258            2 
  160000    1.2176532    -6.444189     66.17394  0.034465594  0.036449359            3 
  161000    1.2364439   -6.4195023    66.723178  0.034535806  0.036455872            3 
  162000    1.2116764   -6.4551379    66.992411  0.034461117   0.03645622            4 
  163000    1.2251895    -6.472077    67.150324  0.034330431   0.03645675            4 
  164000    1.2174705    -6.416301    67.453097  0.034274948  0.036454546            3 
  165000    1.2353935   -6.4255769     68.08539   0.03438656  0.036452132            1 
  166000    1.2365222   -6.3940074    68.497528  0.034386309  0.036452498            3 
  167000    1.2162094   -6.4528991    68.945484  0.034403934  0.036454147            3 
  168000    1.2275501   -6.4723025    69.516008  0.034482147  0.036458686            2 
  169000    1.2175726   -6.4754875    70.171055  0.034601112  0.036464289            2 
  170000    1.2075457   -6.4417832    70.798566  0.034705179   0.03647165            2 
  171000    1.2149129   -6.4451138    71.121899  0.034659795  0.036479244            2 
  172000    1.2195145   -6.4544195    71.579317  0.034679902  0.036485143            1 
  173000    1.2378262   -6.4610448    71.872283   0.03462056  0.036490581            2 
  174000    1.2289392   -6.4792183    72.486245  0.034715634  0.036496349            2 
  175000    1.2444299   -6.4463812    72.776557  0.034655503  0.036503409            2 
  176000    1.2165074   -6.4634597    73.291074  0.034702213  0.036510542            2 
  177000      1.23243    -6.457397    73.511388  0.034609881  0.036514344            3 
  178000      1.24546   -6.4634546    74.253949  0.034763085  0.036522442            1 
  179000      1.23374   -6.4426175    74.440996  0.034655957  0.036527683            2 
  180000     1.215003   -6.4759557    74.812306  0.034635327  0.036530882            5 
  181000    1.2569547   -6.4351779    75.327049  0.034680962  0.036533033            5 
  182000    1.2294376   -6.4467376    75.866292  0.034737313  0.036538868            3 
  183000     1.202831   -6.4743559    75.831356  0.034531583  0.036542379            4 
  184000    1.2115542   -6.4529752    76.454281  0.034626033  0.036542439            3 
  185000    1.2120152   -6.4507308    77.002562  0.034685839  0.036542964            2 
  186000    1.2294813   -6.4780825    77.271147  0.034619689  0.036543626            2 
  187000    1.2290703   -6.4812981    77.960417  0.034741719  0.036546334            4 
  188000    1.2154408   -6.4939859    78.365802  0.034736614  0.036551163            1 
  189000    1.2198382   -6.4354286    79.211596  0.034925748  0.036554524            2 
  190000    1.1825621   -6.4975336    79.138318  0.034709789  0.036558103            2 
  191000    1.2241395   -6.4286439    80.217149  0.034998756  0.036560574            1 
  192000    1.2014935    -6.453653    80.205597  0.034811457  0.036563634            2 
  193000    1.1940758   -6.4270163    81.056978  0.034998695  0.036568721            2 
  194000    1.2382635   -6.4460264    81.499931  0.035008561  0.036576894            2 
  195000    1.2266525   -6.4706048    81.848031  0.034977791  0.036586737            2 
  196000    1.1935969    -6.479364    82.315179   0.03499795  0.036594431            5 
  197000    1.2274767   -6.4468455    83.025011  0.035120563  0.036601451            4 
  198000     1.211068   -6.4749847    82.941981  0.034908241  0.036606681            2 
  199000    1.2449477   -6.4557929     83.55133  0.034987994  0.036610838            2 
  200000    1.2174561   -6.4888919    83.561702  0.034817376   0.03661181            3 
  201000    1.2449738   -6.4490054    84.579314   0.03506605  0.036617367            3 
  202000    1.2358437   -6.4157304    85.004667  0.035067932  0.036622108            2 
  203000    1.2154613   -6.4670282    85.211638  0.034980147  0.036624635            4 
  204000    1.1891772   -6.4929747    85.305464  0.034847003  0.036625874            3 
  205000     1.224498   -6.4848297    85.980312  0.034951346  0.036627134            5 
  206000    1.2352493   -6.5112341     86.21142   0.03487517  0.036626805            2 
  207000    1.2109408   -6.4739508    87.186333  0.035099168  0.036627659            2 
  208000    1.2085227   -6.4105683     87.68998  0.035132204  0.036632764            2 
  209000     1.227441   -6.4827747    87.774808   0.03499793   0.03663791            3 
  210000    1.2259526   -6.4415609    88.298422  0.035039056  0.036639733            1 
  211000    1.2224915   -6.4862238    88.120528  0.034802736  0.036639134            2 
  212000    1.2046263   -6.4467068    88.676861  0.034857257   0.03663604            1 
  213000    1.1969362   -6.3996321    89.217904  0.034905283  0.036631782            1 
  214000    1.2181148   -6.4312394    89.516568  0.034858477   0.03662775            3 
  215000    1.1947689   -6.4531927    89.801337   0.03480672  0.036621392            4 
  216000    1.1894515   -6.4938863    89.919277  0.034691079  0.036615887            2 
  217000    1.1989035   -6.5006529    90.808518  0.034872703  0.036610784            1 
  218000    1.2160361   -6.4681436    91.350081  0.034919756  0.036606121            3 
  219000    1.2107683   -6.4511838    91.637045    0.0348695  0.036602481            3 
  220000    1.1937581   -6.4408065    92.597448  0.035074791  0.036598955            3 
  221000    1.2223161   -6.4822305    92.423413  0.034850457  0.036594859            2 
  222000    1.2345051   -6.4666817    93.095902  0.034945909  0.036590049            2 
  223000    1.2111379   -6.4043549    93.038378  0.034767705  0.036585578            1 
  224000    1.1980105   -6.4641006    93.748774  0.034876776  0.036580207            1 
  225000    1.1992708   -6.4965162    93.853666  0.034760617  0.036572508            2 
  226000    1.2162283   -6.5341562    94.019839  0.034668082  0.036563725            2 
  227000    1.2435725   -6.4932464    94.784473  0.034796062  0.036557396            2 
  228000    1.2163501   -6.4795602    95.014897  0.034727667  0.036550058            1 
  229000     1.218812   -6.5239237    95.571157  0.034778441  0.036541064            2 
  230000    1.2372031   -6.4513435    95.387923  0.034560842  0.036531137            3 
  231000     1.231435   -6.5163645    95.505237  0.034453549  0.036520993            2 
  232000    1.2405216   -6.5011693    96.491118  0.034659166  0.036510868            1 
  233000    1.2125706   -6.4718337    96.954745  0.034676232  0.036502213            5 
  234000    1.2298261   -6.4285834    97.378449  0.034678935  0.036495017            2 
  235000    1.2105134   -6.4847351    97.798639  0.034680368  0.036488316            3 
  236000    1.1912472   -6.4563604    98.558203  0.034801625  0.036478539            6 
  237000    1.2165322   -6.4497343     98.71834   0.03471109  0.036468713            1 
  238000    1.2270133   -6.4483901    99.328599  0.034778921  0.036460194            2 
  239000    1.1866748   -6.4475752    99.692026  0.034760121  0.036452682            2 
  240000     1.230533    -6.516268    100.08233  0.034750809   0.03644425            2 
  241000    1.2336857   -6.4822404    100.23466  0.034659289  0.036435307            2 
  242000     1.230337   -6.4583876    100.83007  0.034721097   0.03642687            2 
  243000    1.1940297   -6.4952631    100.87181  0.034592526  0.036417535            4 
  244000    1.2115158   -6.5101905    100.80663  0.034428495  0.036405836            4 
  245000    1.2006392   -6.4955472    101.64169  0.034572004  0.036392798            3 
  246000    1.2168687   -6.4769417    102.05623  0.034571895  0.036377632            2 
  247000    1.2072214   -6.4848485    102.24468  0.034495505  0.036363817            1 
  248000     1.229569   -6.5038923    102.74355  0.034524044  0.036347931            2 
  249000    1.1791408   -6.4630194    102.98781   0.03446714  0.036332031            2 
  250000    1.1887871   -6.4791906    103.32062  0.034440206  0.036317198            1 
  251000    1.1884023   -6.4586497    103.96921  0.034518329  0.036301406            3 
  252000    1.2183329   -6.4537808       104.37  0.034513887  0.036287598            3 
  253000    1.2186262   -6.5120491     104.3969  0.034386332  0.036274862            2 
  254000    1.2264053   -6.4491201    105.42228  0.034587362  0.036261204            2 
  255000    1.2115624   -6.4980969    105.52812  0.034486315  0.036249834            4 
  256000    1.2325782   -6.4792877    106.12969  0.034547426  0.036237575            3 
  257000    1.2035611    -6.467222    106.52213  0.034540249  0.036226275            3 
  258000     1.236795   -6.5337257     106.5658  0.034420476  0.036214624            2 
  259000    1.1856419   -6.4297376     107.6118  0.034624131  0.036201894            1 
  260000    1.2046219   -6.5013353    107.65239  0.034503971  0.036190491            2 
  261000    1.2240032   -6.4610936    108.44067  0.034623459  0.036176332            3 
  262000     1.211784   -6.4679473    108.89066  0.034634432  0.036162701            4 
  263000    1.2200184    -6.492895     108.4959  0.034377661  0.036149929            3 
  264000    1.2178554   -6.5052816    109.10328  0.034439167  0.036136644            3 
  265000    1.2202613   -6.4778546    109.34037  0.034383763  0.036123097            4 
  266000    1.2396158   -6.4923574    109.36205  0.034261294  0.036107997            2 
  267000    1.1862214   -6.5053537     109.5713  0.034198282   0.03609285            4 
  268000    1.2125719   -6.4809053    110.23558  0.034277232  0.036078612            4 
  269000    1.1929274   -6.4685114    111.30274  0.034480402  0.036067033            2 
  270000    1.2018275   -6.4727162    111.96923  0.034558405  0.036056515            3 
  271000    1.1749542   -6.4411985    112.07814  0.034464372  0.036044634            2 
  272000    1.1997795    -6.488626    112.32157  0.034412245  0.036033269            4 
  273000    1.1763465    -6.547597    112.35475  0.034296321  0.036021112            3 
  274000    1.1956143   -6.4762946    113.47993  0.034513361  0.036009742            4 
  275000    1.1954516   -6.4627145    114.14152   0.03458834  0.036002345            3 
  276000     1.194907   -6.4618662    114.92235  0.034698776  0.035994991            1 
  277000    1.1934234   -6.5078482     115.4444  0.034730565  0.035988364            1 
  278000    1.2017157   -6.4642728    115.75336   0.03469825  0.035982496            2 
  279000    1.1939735   -6.5062253    116.13303  0.034687284  0.035977434            2 
  280000    1.1912424   -6.4815906    117.07869  0.034844849  0.035971678            2 
  281000    1.1956191   -6.5087187    117.05176   0.03471286  0.035967019            7 
  282000    1.2180682   -6.5258757    116.66088  0.034474255  0.035961491            2 
  283000    1.1940301   -6.5089176    117.41796  0.034575372  0.035953995            5 
  284000    1.2037517   -6.5016087    118.57751  0.034793871  0.035946954            3 
  285000    1.1865775   -6.5183037    118.47363  0.034641413  0.035942386            3 
  286000    1.2143673   -6.5000513    118.90332   0.03464549  0.035938793            1 
  287000    1.2077803   -6.5534518    119.01649  0.034557633  0.035933737            1 
  288000    1.1927988   -6.4968737    119.68065  0.034629818  0.035928811            4 
  289000    1.2138924   -6.4988547    120.02272  0.034608627  0.035921697            2 
  290000    1.1847169   -6.4987112    120.26188   0.03455801   0.03591263            2 
  291000    1.1872022   -6.5053697    120.52146  0.034513591  0.035905516            3 
  292000    1.2031403    -6.522503     120.5979  0.034417209  0.035898307            2 
  293000    1.1992071   -6.5197199    121.56192  0.034573925  0.035891508            1 
  294000    1.2272548   -6.4861486    121.93639  0.034562469  0.035885144            3 
  295000    1.1784041   -6.4924643    122.29377  0.034546263  0.035878044            2 
  296000    1.1891815     -6.52002     122.3297  0.034439667  0.035868249            2 
  297000    1.1988828   -6.5059334    122.62047  0.034405295  0.035857923            2 
  298000     1.211618   -6.4879433     122.9722  0.034388198  0.035846588            1 
  299000    1.2132994   -6.5213488    122.97506  0.034273984  0.035835625            2 
  300000    1.2056256   -6.4948216    123.50915  0.034308097  0.035824556            2 
  301000    1.2154563   -6.4920169    123.79849  0.034274221  0.035814036            4 
  302000    1.2046319    -6.512233    124.37323  0.034319323  0.035801033            2 
  303000    1.2059255   -6.5162505    124.47086  0.034232908  0.035787261            2 
  304000    1.1823642    -6.513295    125.16211  0.034309788   0.03577379            6 
  305000    1.1895763   -6.5178233     125.5301  0.034297841  0.035760524            2 
  306000    1.1926301   -6.5029906    126.01303  0.034317274   0.03574913            3 
  307000    1.2185414   -6.4917888    126.36948  0.034302247  0.035737789            3 
  308000    1.1658579   -6.5149346    126.48831  0.034223029   0.03572648            4 
  309000    1.1798731   -6.5137476    126.88467  0.034219167  0.035714264            1 
  310000    1.2168216   -6.4798797    127.29706  0.034219639  0.035701421            2 
  311000    1.1970069   -6.5306532    127.61294   0.03419425  0.035688782            3 
  312000    1.2028031   -6.5257646    127.96544  0.034178804  0.035676822            2 
  313000    1.2051581   -6.5131089    128.32211  0.034164565   0.03566471            3 
  314000    1.1906991   -6.5273202    128.26576  0.034040807   0.03565056            3 
  315000     1.188996   -6.4846468    129.26674   0.03419755  0.035637264            3 
  316000    1.1884916   -6.5261373    129.35304  0.034112087  0.035623386            2 
  317000    1.2118776   -6.5120685    129.77649  0.034115795  0.035609246            1 
  318000    1.1915144    -6.495749    130.12162  0.034098956  0.035594112            3 
  319000    1.1833161   -6.4831575    130.71295  0.034146538  0.035579474            3 
  320000    1.1973336   -6.5342586    130.77761  0.034056669  0.035564584            4 
  321000    1.1871643   -6.4849801    131.20812  0.034062338   0.03554925            3 
  322000    1.2042466   -6.4684269    131.74408   0.03409526  0.035534861            2 
  323000    1.1779371   -6.4984908    132.19641  0.034106401  0.035521709            3 
  324000    1.1768372   -6.5214711    131.94066  0.033935356  0.035506707            2 
  325000    1.2008735   -6.5318098    132.43362  0.033957339  0.035492858            3 
  326000     1.195189   -6.5682274    133.11156  0.034026473  0.035478059            3 
  327000    1.1961425   -6.5348952    133.19618  0.033943981  0.035463332            2 
  328000    1.1644831    -6.491377    134.20276   0.03409623  0.035448791            3 
  329000     1.183168   -6.4918584    134.39679  0.034041739  0.035434735            2 
  330000    1.2261962   -6.5697016    133.86323  0.033803846  0.035419951            2 
  331000    1.2146692    -6.550344    134.62242  0.033892856  0.035403243            3 
  332000    1.2059952   -6.5399229    134.94642  0.033872094  0.035387725            3 
  333000    1.2068403   -6.5555018    135.39965  0.033883797  0.035373159            3 
  334000    1.1912677   -6.5631101    136.25157  0.033994904  0.035359558            4 
  335000     1.204846   -6.5521431    136.58111  0.033975401  0.035345501            3 
  336000    1.1802605   -6.5035346    137.21385  0.034031213  0.035332495            3 
  337000    1.2092693   -6.4697518    138.06014  0.034139501  0.035321049            3 
  338000    1.1970073   -6.4874148     137.5074   0.03390222  0.035308767            1 
  339000    1.2281554   -6.5122305    138.33704  0.034006154  0.035294539            7 
  340000     1.200987    -6.540002    138.06248  0.033838843  0.035280729            3 
  341000    1.2073911   -6.5308077    138.56415  0.033862208  0.035268234            4 
  342000    1.2096732   -6.5196697    139.31256  0.033945555  0.035255328            6 
  343000    1.1910032   -6.5145671    139.73055  0.033948142  0.035241524            3 
  344000    1.2117914   -6.4684736    139.97359  0.033908332     0.035229            4 
  345000    1.1959658   -6.5277192    139.99843  0.033816046  0.035216585            3 
  346000    1.1803454   -6.4746034    140.75352  0.033900174  0.035202972            4 
  347000    1.2010065   -6.4876635    141.43472  0.033966072  0.035189672            2 
  348000    1.1974662   -6.5146306    140.83288  0.033724349  0.035175961            2 
  349000    1.2003589   -6.4904354    142.00525  0.033907653  0.035162008            2 
  350000    1.2066029   -6.5349555    141.76058  0.033752519  0.035147436            4 
  351000    1.2057787   -6.4841823    142.52505  0.033837855  0.035132385            2 
  352000    1.2053775   -6.5185966    142.44478  0.033722722  0.035117745            3 
  353000    1.1750049   -6.5056066    142.83865  0.033720173  0.035102223            2 
  354000    1.1945167   -6.5106752    142.88481  0.033635784  0.035086298            2 
  355000    1.1815038   -6.5013176    144.01912  0.033807304  0.035070636            2 
  356000    1.2136197   -6.5267676    143.30813   0.03354591   0.03505554            6 
  357000    1.1821615   -6.5574849    143.45191  0.033485505  0.035039733            3 
  358000    1.1748906   -6.5236373    144.09877  0.033542545  0.035023847            2 
  359000    1.1725018   -6.5284857     145.1102   0.03368389  0.035008039            3 
  360000    1.1955434   -6.5050529    145.74833  0.033738038  0.034992925            2 
  361000    1.2188044   -6.5835945    145.80718  0.033658167  0.034977655            4 
  362000    1.1781099   -6.5009701    145.99239  0.033607824   0.03496273            2 
  363000    1.2368889   -6.5248017    146.82935  0.033707381  0.034948312            1 
  364000    1.1729567   -6.5070934    147.10878   0.03367875  0.034934913            6 
  365000    1.2048618   -6.4892639     146.9813  0.033557374  0.034920357            4 
  366000    1.1868352   -6.5150592    147.26639  0.033530599  0.034904387            2 
  367000    1.1837259   -6.5367152    147.62463  0.033520578   0.03488817            1 
  368000    1.1946106   -6.5531087    148.29929  0.033582267  0.034872822            4 
  369000     1.189984   -6.5272843    148.38024   0.03350954  0.034858724            2 
  370000    1.1793993   -6.5265234       149.11  0.033583333  0.034844772            2 
  371000    1.1817876   -6.4464272    150.96286  0.033908998  0.034831646            2 
  372000    1.1784928   -6.5540625    149.98397   0.03359856  0.034818206            3 
  373000    1.1938308   -6.5595574    150.93208  0.033720305  0.034804776            4 
  374000    1.1782152   -6.5456077    150.56082  0.033547419  0.034792088            5 
  375000    1.1846849   -6.5409454    151.35578  0.033634618  0.034779329            3 
  376000    1.1862924   -6.5133421    151.86019  0.033656958  0.034766786            3 
  377000    1.1769198   -6.5811931    152.37129  0.033680655  0.034754712            2 
  378000    1.1828956   -6.5218492    152.82206   0.03369093  0.034742743            2 
  379000    1.2100784   -6.5694366    152.62943   0.03355968  0.034731077            1 
  380000    1.1870725   -6.5224602    153.67215  0.033700034   0.03471879            2 
  381000    1.1776844   -6.5517012    153.54291  0.033583313  0.034707289            2 
  382000    1.1848503   -6.5253606    153.59594  0.033506969  0.034695125            3 
  383000    1.1957829   -6.5565861    154.15072  0.033540192  0.034682065            1 
  384000    1.1728772   -6.5183125    154.70332  0.033572769  0.034670427            1 
  385000    1.2011573   -6.5573761    154.98195  0.033545876  0.034659299            2 
  386000    1.1783783   -6.5011723    156.55191  0.033797908  0.034648539            2 
  387000    1.1860281   -6.5479571    156.64819  0.033731307  0.034638813            2 
  388000    1.2018785   -6.5674006    156.33796   0.03357774  0.034628884            2 
  389000    1.2004434   -6.5448828    157.03087   0.03363986  0.034619339            4 
  390000    1.1719995   -6.5623797    157.92155  0.033743922  0.034610245            1 
  391000    1.1898871   -6.4876701    158.76298  0.033836952  0.034601859            2 
  392000    1.1872417   -6.5455229    158.99032  0.033798962  0.034593944            2 
  393000    1.1981772    -6.510009    158.88739  0.033691135  0.034585234            2 
  394000    1.1802599   -6.5510404    158.55748  0.033535846  0.034577164            2 
  395000    1.1743095   -6.5141545    160.35586   0.03383035  0.034569214            3 
  396000     1.182401   -6.5354613    160.53408  0.033782424  0.034562013            3 
  397000    1.1638063   -6.5720096    161.09433  0.033814931  0.034553702            2 
  398000    1.1931146   -6.5506459    161.19234  0.033750491  0.034545239            5 
  399000     1.208924   -6.5274667    161.19912  0.033667319  0.034537536            2 
  400000    1.1752343   -6.5274394    161.63319  0.033673582  0.034530351            2 
  401000     1.200371   -6.5641545    161.69764  0.033603001  0.034521799            2 
  402000    1.1798643   -6.5702244    162.28238  0.033640626  0.034513687            6 
  403000    1.1826157   -6.5298769    163.48031  0.033804861  0.034506445            2 
  404000    1.2183327   -6.5150157    164.46527  0.033924354  0.034500266            3 
  405000    1.1936075   -6.5496928    164.75184  0.033899556  0.034494934            6 
  406000    1.2031438   -6.5277436    165.35536  0.033939934  0.034489443            4 
  407000    1.1867311   -6.5461616    165.46294  0.033878571  0.034484512            2 
  408000    1.1882956   -6.5629517    164.96388  0.033693602  0.034478697            5 
  409000    1.2051167   -6.5207163    166.14788  0.033852462  0.034472669            2 
  410000    1.1992411   -6.5050815    166.92756  0.033928366  0.034467187            2 
  411000    1.1622939   -6.5708321    166.36297  0.033731341  0.034460533            2 
  412000    1.2033193   -6.5429995     167.5858  0.033896804  0.034454864            2 
  413000    1.1687554   -6.6008053    167.34368  0.033765875  0.034448902            1 
  414000    1.1746552   -6.5374823    168.24247  0.033865231  0.034443532            2 
  415000    1.1765518   -6.5576181    168.42983  0.033821251  0.034438899            2 
  416000    1.1890804   -6.5505619    168.54023  0.033762065  0.034433225            4 
  417000    1.2078319   -6.5258948    169.66181  0.033905239  0.034428637            3 
  418000    1.1688025   -6.5465043    169.44696  0.033781291  0.034423731            2 
  419000    1.1815631   -6.5845679    169.87528  0.033785855  0.034418133            3 
  420000     1.160889   -6.5465726    170.43789  0.033817042  0.034412088            4 
  421000    1.1768613   -6.5611875    170.73588  0.033795702  0.034407085            1 
  422000    1.1796018   -6.5401985     171.4556  0.033857741  0.034401978            3 
  423000    1.1747034   -6.5309246    171.69369  0.033824605  0.034396829            1 
  424000    1.1714676   -6.5951585    170.67845  0.033545294  0.034390406            2 
  425000    1.1885205   -6.5635167    171.82141  0.033690473   0.03438259            2 
  426000    1.1894768   -6.5116083    172.20921  0.033687248  0.034375502            3 
  427000    1.1963917   -6.5557785    171.98009  0.033563639  0.034368424            4 
  428000    1.1828005   -6.5639872    172.67568  0.033620654  0.034361553            2 
  429000    1.1761163   -6.5456571    173.48354  0.033699211  0.034355357            3 
  430000    1.1880523   -6.5497786    174.08809  0.033738001  0.034349595            2 
  431000    1.2019371   -6.5476613     174.0185  0.033646269  0.034342343            2 
  432000    1.1613269    -6.522033    174.07532  0.033579344  0.034335113            3 
  433000    1.1862963   -6.5573491    174.22912  0.033531393  0.034327388            4 
  434000     1.153651   -6.5762723    173.91585  0.033393981   0.03431953            2 
  435000    1.1859173    -6.557847    175.04205   0.03353296  0.034311627            3 
  436000    1.1875025   -6.5279717    175.59317  0.033561387  0.034303215            3 
  437000    1.1893552   -6.5976289       175.34  0.033436308  0.034295035            7 
  438000    1.1731883    -6.504233     176.6145  0.033602455   0.03428682            1 
  439000    1.1961968   -6.5289919    176.37543   0.03348053  0.034278029            2 
  440000    1.1816711   -6.5603325    177.12063  0.033545574  0.034268491            2 
  441000    1.1966715   -6.4879721    178.27016  0.033686727  0.034260095            1 
  442000    1.1802113    -6.531285    177.74795  0.033512058  0.034251715            2 
  443000    1.1796457   -6.5644103    178.47767  0.033573678   0.03424355            2 
  444000    1.1800976   -6.5837196    178.49211  0.033500772  0.034235342            5 
  445000    1.1901586   -6.5800856    178.26345  0.033382669  0.034227025            4 
  446000    1.2075796   -6.5829932    179.79746  0.033594443  0.034219038            2 
  447000    1.1900372     -6.58155    179.28585   0.03342391  0.034211571            4 
  448000    1.1931344   -6.5960307    179.72864  0.033431667  0.034203401            2 
  449000    1.1970731   -6.5426607    180.94358  0.033582698  0.034196977            2 
  450000    1.1919785   -6.5388067    181.48473  0.033608283  0.034190306            2 
  451000    1.1731816   -6.5507724    181.19934  0.033481031   0.03418277            3 
  452000    1.1815356   -6.5897665    180.79155  0.033331776  0.034174801            4 
  453000     1.178237   -6.5633822     181.8781  0.033458077  0.034165248            2 
  454000    1.1999329    -6.579437    181.38594  0.033294042  0.034156697            5 
  455000    1.1607385   -6.5921267    181.96735  0.033327354  0.034146475            3 
  456000    1.1999088   -6.5734878    182.33092  0.033320709  0.034136881            1 
  457000    1.1814471   -6.6143283    182.60255  0.033297328  0.034127484            1 
  458000    1.1763004   -6.5352715    183.09866  0.033314894  0.034117664            3 
  459000     1.203293   -6.5421106    183.13401   0.03324873  0.034107575            4 
  460000    1.1502194   -6.5284623    183.32409  0.033210886  0.034097248            3 
  461000    1.1965392   -6.5669752    184.54061   0.03335875  0.034087043            3 
  462000    1.1642302   -6.5050639    184.95915   0.03336204   0.03407765            2 
  463000    1.1581381   -6.5978987    184.56162  0.033218434  0.034067899            1 
  464000    1.1803507   -6.5952804    185.12801  0.033248565  0.034058114            3 
  465000    1.1860358    -6.534727    186.25739  0.033379461  0.034048459            5 
  466000    1.1803707   -6.5441992    186.03466  0.033268001  0.034039956            3 
  467000    1.1888306   -6.5708714    186.83183  0.033339014  0.034030777            3 
  468000    1.1506776   -6.5897703    186.44323   0.03319858  0.034022151            4 
  469000    1.1970451   -6.5756495    187.13696  0.033251059  0.034012727            3 
  470000    1.1676865   -6.5489736    187.61875  0.033265736   0.03400364            2 
  471000    1.1849546   -6.5221551    187.84364  0.033234897   0.03399528            6 
  472000    1.1508209   -6.5737765    187.83141  0.033162326  0.033985861            3 
  473000    1.1616637   -6.5946103     187.7652   0.03308055  0.033976077            1 
  474000      1.17571   -6.5371831    189.06349   0.03323901  0.033966346            1 
  475000    1.1815416   -6.5683989    189.29954  0.033210445  0.033957265            1 
  476000    1.1700193   -6.5553656    189.89239  0.033244467  0.033948665            3 
  477000    1.1826526   -6.4942548    190.77243  0.033328517  0.033939754            2 
  478000    1.1746165   -6.5718577    189.83171   0.03309479  0.033931046            2 
  479000    1.1606352   -6.5757656    190.20262  0.033090227  0.033921782            3 
  480000    1.1752249   -6.5814272    190.72863  0.033112609   0.03391167            6 
  481000    1.1769896   -6.5696714    190.69331  0.033037649  0.033901198            5 
  482000    1.1692034   -6.6127599    191.04254  0.033029485  0.033891252            2 
  483000    1.1657105   -6.5507034    191.81904  0.033095073   0.03388068            4 
  484000    1.1842449   -6.5791862    191.66363  0.032999937  0.033870547            1 
  485000    1.1420135   -6.5799674    192.34692  0.033049299  0.033860378            4 
  486000    1.1773113   -6.5590042    192.53596   0.03301371  0.033850263            2 
  487000    1.1736537   -6.5792543    192.71222  0.032976081   0.03384054            2 
  488000    1.1661266   -6.5621834    193.61991  0.033063508  0.033830227            6 
  489000    1.1600098   -6.5693301    194.06081   0.03307103  0.033819905            3 
  490000    1.1955177   -6.5727356    194.40405  0.033061913  0.033809693            6 
  491000    1.1749152   -6.5956133    194.89483  0.033077873  0.033799936            2 
  492000    1.1544244   -6.5529403    195.08792  0.033043347  0.033790448            5 
  493000    1.1935374    -6.584349    194.94575   0.03295229  0.033781199            3 
  494000    1.1551134   -6.5590232    196.07462  0.033076016  0.033772325            3 
  495000    1.1942457    -6.550191    196.79858  0.033131074  0.033763179            2 
  496000    1.1643857    -6.562285    197.08683  0.033112707  0.033755334            3 
  497000    1.1705084    -6.546976    197.75833  0.033158674  0.033746592            1 
  498000    1.1407441   -6.5825554    197.75265   0.03309114  0.033738365            2 
  499000    1.1640193   -6.5900646    198.33739  0.033122477    0.0337294            3 
  500000    1.1622859   -6.5970234    198.28251  0.033047084  0.033720578            3 
  501000    1.1451206   -6.5881174     198.4111  0.033002512  0.033711768            4 
  502000    1.1707035   -6.5889681    198.66061  0.032978188  0.033703457            4 
  503000    1.1866417    -6.543391    199.53834  0.033058042  0.033695117            4 
  504000     1.144516    -6.596529    199.72021  0.033022522  0.033686506            2 
  505000    1.1578512   -6.5930945    199.48405   0.03291816  0.033676914            2 
  506000    1.1579003   -6.6097735    199.56232  0.032865994  0.033666964            3 
  507000    1.1670637    -6.563919     200.7742  0.033000361  0.033657394            5 
  508000     1.174797   -6.6016008     199.8603  0.032785482  0.033647166            3 
  509000    1.1979166   -6.5682946    200.76421  0.032869058  0.033636395            1 
  510000    1.1880976   -6.5869964    201.24896  0.032883816  0.033626416            3 
  511000    1.1880309   -6.5638274    201.49343  0.032859332  0.033616096            2 
  512000    1.1711758   -6.5968861    202.15263  0.032902446  0.033606195            3 
  513000    1.1473812    -6.612892    201.79704  0.032780545  0.033596552            2 
  514000    1.1802743   -6.6170815     202.7957   0.03287868  0.033586655            6 
  515000    1.1762591   -6.5593454    203.21967  0.032883441  0.033576332            2 
  516000    1.1654923   -6.5687488    203.90665  0.032930661  0.033566915            3 
  517000    1.1739812   -6.6242035    203.90885   0.03286732  0.033557421            2 
  518000    1.1831983    -6.589943    203.74998  0.032778311  0.033547601            2 
  519000    1.1811479   -6.5971517    204.55438  0.032844313  0.033537388            1 
  520000    1.1580189   -6.6272504    204.51817  0.032775348  0.033527222            2 
  521000    1.1583077   -6.6322721    204.20255  0.032661957  0.033517412            3 
  522000    1.1599221   -6.5880059    205.14073  0.032749159  0.033506219            1 
  523000    1.1941821    -6.546432    205.86924   0.03280262   0.03349582            2 
  524000    1.1389381   -6.5683088    206.18674  0.032790511  0.033485917            4 
  525000    1.1926585   -6.5836136    206.38036  0.032758787  0.033476574            2 
  526000    1.1740162   -6.5908783    206.58383  0.032728743  0.033466535            7 
  527000     1.173722   -6.6122017    206.21478  0.032608283  0.033456459            5 
  528000    1.1731283   -6.5576876    207.45869  0.032742849   0.03344673            3 
  529000    1.1629605   -6.6269525    206.60236  0.032546056  0.033436271            5 
  530000    1.1856662   -6.6311722    207.00656  0.032548201  0.033425647            2 
  531000    1.1514328   -6.6287522    207.58922  0.032578346  0.033415298            5 
  532000     1.149909   -6.6215693    209.20485  0.032770183  0.033405321            4 
  533000    1.1748468   -6.5979671    208.92679  0.032665226   0.03339578            2 
  534000    1.1438206   -6.5683791    209.68076  0.032721716  0.033385976            3 
  535000    1.1520958   -6.5786344    209.07736  0.032566566  0.033376426            2 
  536000    1.1549169   -6.5975686    209.85004  0.032625939  0.033366478            2 
  537000    1.1466518   -6.6344489    209.60945  0.032527848    0.0333567            3 
  538000    1.1506705    -6.620406    211.22143  0.032717074   0.03334688            4 
  539000    1.1836416   -6.5893842    211.46662  0.032694282  0.033337093           10 
  540000    1.1663102   -6.5846224    211.72494  0.032673603  0.033328064            3 
  541000    1.1617211   -6.6092804     212.3927  0.032716066  0.033318789            3 
  542000    1.1778979   -6.5724825    212.31095  0.032643135  0.033309824            2 
  543000    1.1753013   -6.5728092    213.63465  0.032786164  0.033301411            2 
  544000    1.1718751   -6.5875755    213.47151  0.032700906  0.033292508            2 
  545000    1.1344968   -6.5885925    213.79631  0.032690568  0.033283562            2 
  546000    1.1685561   -6.5786412    214.63508  0.032758712   0.03327473            3 
  547000    1.1968521   -6.5913617    214.64351  0.032700108  0.033265712            2 
  548000    1.1529637   -6.6020428    214.67511  0.032645241  0.033256613            4 
  549000     1.177378   -6.6670931    214.57025  0.032569861  0.033247394            2 
  550000    1.1650836   -6.5716764    215.98862  0.032725549   0.03323819            2 
  551000    1.1812924   -6.6247141    215.97589   0.03266423  0.033229516            4 
  552000    1.1404842   -6.6360769    215.05336  0.032465784  0.033221118            4 
  553000    1.1528743    -6.582811    216.25284   0.03258783  0.033212212            2 
  554000    1.1450875   -6.6407989    216.35916     0.032545  0.033203794            3 
  555000    1.1620248   -6.6127633    216.73707  0.032543103  0.033195272            3 
  556000      1.15547   -6.5826517    217.24105   0.03256011  0.033186735            2 
  557000    1.1726398   -6.6182817    217.35573   0.03251881  0.033178021            1 
  558000    1.1888061   -6.6336519    217.85533  0.032535144  0.033169818            4 
  559000     1.152455    -6.610373    218.82184  0.032621025  0.033161665            4 
  560000    1.1510816   -6.5537085    219.56635  0.032673564  0.033154028            4 
  561000     1.160184   -6.5924784    219.62813  0.032624499  0.033145629            3 
  562000    1.1563813   -6.6479751    219.82705  0.032595945  0.033137148            2 
  563000    1.1522377   -6.6369352    219.76661  0.032529101  0.033128414            4 
  564000     1.134597   -6.6363362    220.43459  0.032570123  0.033120052            4 
  565000    1.1365684   -6.5868252    221.00372  0.032596419  0.033112211            4 
  566000    1.1425386   -6.6421153    220.96931  0.032533761  0.033104053            4 
  567000    1.1562527   -6.5773777      222.136  0.032647855   0.03309593            2 
  568000     1.173258   -6.6312262    221.35693  0.032476076  0.033088428            4 
  569000    1.1736996   -6.6272726    222.14565  0.032534512  0.033080301            5 
  570000    1.1658592    -6.619332    223.62629  0.032693902  0.033072443            4 
  571000    1.1380121   -6.6383306    223.11432  0.032561927   0.03306481            2 
  572000    1.1207013    -6.620598    223.55072  0.032568578  0.033056558            2 
  573000    1.1572526   -6.5946473    224.19215  0.032605024  0.033049147            4 
  574000    1.1466159   -6.6456815    223.85891  0.032499842  0.033041062            2 
  575000    1.1535732   -6.6032892    224.19752  0.032492394  0.033032201            2 
  576000    1.1382595   -6.5976605    224.46568   0.03247478  0.033024076            5 
  577000    1.1271756   -6.5943127     225.2639  0.032533781  0.033015609            2 
  578000    1.1646164   -6.6408644    224.87238  0.032421047  0.033007138            2 
  579000    1.1300501   -6.5960987    226.06747  0.032537057   0.03299843            4 
  580000    1.1528114   -6.5932796    226.02017  0.032474163  0.032990355            4 
  581000    1.1845816   -6.5649579    227.02372  0.032562208  0.032982871            5 
  582000    1.1618331    -6.641474     226.6747  0.032456286  0.032975305            3 
  583000    1.1612088   -6.6490258    226.10689  0.032319453  0.032967219            2 
  584000    1.1853836   -6.6351938    228.71443  0.032636191  0.032960117            2 
  585000    1.1466425   -6.5995529      228.119  0.032495584  0.032952701            6 
  586000    1.1485118   -6.6166153    228.21883  0.032454327  0.032945221            5 
  587000    1.1565309   -6.5982167    229.03253  0.032514556  0.032937542            5 
  588000    1.1366283   -6.6226812    229.28866  0.032495558  0.032929632            4 
  589000    1.1607816   -6.6183023     229.5072  0.032471307  0.032922069            1 
  590000    1.1692006   -6.6094368    229.50554  0.032416036  0.032914286            2 
  591000    1.1563979   -6.5894971    230.93486  0.032562727  0.032907036            3 
  592000    1.1366964   -6.6287881    229.94367  0.032368197  0.032899451            2 
  593000     1.170576   -6.6333688    230.52013  0.032394622   0.03289189            4 
  594000    1.1679335   -6.5964397     230.6541  0.032358881  0.032883485            3 
  595000    1.1576871   -6.6328327    231.23866  0.032386367  0.032875182            3 
  596000    1.1618044   -6.6152558    231.53103  0.032372907  0.032867196            4 
  597000    1.1396516   -6.6056778    232.10241  0.032398438  0.032859835            2 
  598000    1.1572393   -6.5545444    232.98426  0.032467149  0.032852222            3 
  599000    1.1440306   -6.6081505    233.18779  0.032441261  0.032844609            3 
  600000    1.1694412   -6.6566926    232.72383  0.032322754  0.032836592            2 
  601000    1.1385742   -6.6489842     232.8839  0.032291167  0.032828466            3 
  602000    1.1612277   -6.6310206    233.39352  0.032308074  0.032820731            3 
  603000    1.1663663   -6.5948666    235.97069  0.032610654  0.032813201            3 
  604000    1.1477032   -6.5808345    234.55914  0.032361912   0.03280578            2 
  605000    1.1689826   -6.6461585    234.28997  0.032271346  0.032797702            2 
  606000    1.1659086   -6.6164198    234.71906  0.032277099  0.032790011            4 
  607000    1.1470533   -6.6226242    235.35184  0.032310796  0.032782348            5 
  608000    1.1272901   -6.6574968    234.94986  0.032202558   0.03277437            1 
  609000    1.1600442   -6.5814017    237.24338  0.032463516  0.032766528            2 
  610000    1.1378294   -6.5902984    237.25686   0.03241214   0.03275944            3 
  611000    1.1508668   -6.6349274    236.76336  0.032291784  0.032751799            4 
  612000    1.1445958   -6.6130955    237.96734  0.032402961  0.032744105            1 
  613000    1.1749702    -6.614028     237.7378  0.032318897  0.032736008            3 
  614000    1.1485304   -6.6215435    237.87581  0.032284991  0.032727573            4 
  615000    1.1539424     -6.63125    237.50698  0.032182518   0.03271938            4 
  616000    1.1139551   -6.6130572     238.8315  0.032309456  0.032711637            2 
  617000     1.164999   -6.6916986    238.09465   0.03215757  0.032703603            2 
  618000    1.1645347   -6.5983843    239.11334  0.032242899  0.032695095            3 
  619000     1.135524   -6.6562978     239.5214  0.032245746  0.032687201            2 
  620000    1.1343448   -6.6283254    241.02988  0.032396489  0.032679556            6 
  621000    1.1445301   -6.6408095    240.38857  0.032258263  0.032671837            5 
  622000    1.1390746   -6.5977018    240.98938  0.032286894  0.032664024            3 
  623000    1.1911304    -6.657728     241.4199  0.032292656  0.032656867            3 
  624000    1.1510265   -6.6136703    242.12502  0.032335072  0.032649543            2 
  625000    1.1453919   -6.6429795    242.09304  0.032279072  0.032642433            2 
  626000    1.1442844   -6.5735946      243.559  0.032422657   0.03263552            2 
  627000     1.160704   -6.6374537    242.62492    0.0322468  0.032628664            1 
  628000    1.1286184   -6.6620078    243.29725  0.032284667  0.032622282            2 
  629000    1.1538295   -6.6684207    243.47923   0.03225745  0.032615632            4 
  630000    1.1570062   -6.6148702    244.77421  0.032377541  0.032608943            4 
  631000    1.1267322   -6.6304524    244.43895  0.032281953  0.032602077            3 
  632000    1.1637381   -6.6541895    245.45878  0.032365345  0.032595443            2 
  633000    1.1567915   -6.6659007    243.84141  0.032101291  0.032588748            3 
  634000    1.1657448   -6.5950945    246.38932  0.032385557   0.03258182            4 
  635000    1.1277366   -6.6263408    244.51397  0.032088447  0.032575059            1 
  636000    1.1529302   -6.6708336    245.43086  0.032158131  0.032568067            2 
  637000    1.1655434   -6.6731549    245.83207  0.032160135  0.032560581            8 
  638000    1.1410253   -6.6134242    247.32447  0.032304659  0.032553695            8 
  639000    1.1179706   -6.6485718    247.17617  0.032234764  0.032546786            4 
  640000    1.1728556   -6.6540622    247.06948  0.032170505  0.032539548            2 
  641000    1.1454533   -6.6045457    248.26954  0.032276332  0.032532651            3 
  642000    1.1581697   -6.6344446    247.87483  0.032174822  0.032525964            2 
  643000    1.1550456   -6.6377802    248.70869  0.032232853  0.032518962            6 
  644000     1.136728   -6.6809157    248.82855  0.032198311  0.032511854            3 
  645000    1.1235344    -6.614791    249.60762  0.032249047  0.032505286            4 
  646000    1.1457988   -6.6378772    250.29575  0.032287893  0.032499706            5 
  647000    1.1591723   -6.5985981    251.51802  0.032395418  0.032493726            3 
  648000      1.12538   -6.6325991    251.08976   0.03229035  0.032488056            4 
  649000    1.1276174   -6.6407145    251.98951  0.032356127  0.032482428            2 
  650000    1.1580108   -6.6733322    252.07696  0.032317559  0.032476049            2 
  651000    1.1412424   -6.6090536    252.39228  0.032308279  0.032469947            4 
  652000    1.1540797   -6.6353543    252.30985  0.032248192  0.032464659            3 
  653000    1.1279479   -6.6376497    252.78241  0.032259113  0.032459517            3 
  654000    1.1419421    -6.616681    253.88005  0.032349649  0.032454404            2 
  655000     1.140132   -6.6435702    255.04399  0.032448345  0.032449453            3 
  656000    1.1338577   -6.6043498    254.10904  0.032280112  0.032444643            3 
  657000    1.1227867   -6.6724097    254.70519  0.032306595  0.032440277            2 
  658000    1.1382977   -6.6646135    255.96261  0.032416744  0.032435169            3 
  659000    1.1749791    -6.662073    255.00131  0.032245993  0.032430622            4 
  660000     1.132696   -6.5959652    257.30487  0.032487989  0.032426411            4 
  661000    1.1426026   -6.6693338    256.03342  0.032278545  0.032422266            8 
  662000    1.1481963   -6.6344837    257.24842  0.032382731  0.032417031            4 
  663000    1.1506987   -6.6708122    256.43883   0.03223213  0.032412049            2 
  664000    1.1392153   -6.6636509     256.8446  0.032234513  0.032406842            2 
  665000    1.1232812   -6.6638342    256.13602  0.032097246   0.03240137            3 
  666000    1.1501226    -6.664903    256.70639  0.032120419  0.032395432            4 
  667000    1.1537593   -6.6281704    258.18956  0.032257566  0.032389728            4 
  668000    1.1727524   -6.6203056    258.58457  0.032258554  0.032384448            3 
  669000    1.1682544   -6.6675126    258.74269  0.032230031  0.032379174            4 
  670000    1.1347967    -6.661757     258.1364  0.032106517  0.032373092            5 
  671000    1.1471087   -6.6525728    258.70562  0.032129362  0.032366917            1 
  672000    1.1575995   -6.6693685    258.49833  0.032055844  0.032360906            2 
  673000    1.1587021   -6.6136036    260.56529  0.032264152   0.03235477            2 
  674000    1.1432735     -6.66316    258.69245  0.031984724  0.032348863            4 
  675000    1.1197918   -6.6109705    260.97682  0.032219361  0.032342534            3 
  676000    1.1322252    -6.722536    258.92937  0.031919301  0.032335576            4 
  677000    1.1684523   -6.6732111    260.41315  0.032054794   0.03232871            9 
  678000    1.1386521   -6.6905379    259.96167  0.031952025  0.032322228            2 
  679000    1.1646774   -6.6377404    261.61257  0.032107581  0.032315558            2 
  680000    1.1483301   -6.6248508    261.56112  0.032054059  0.032309394            2 
  681000    1.1516059   -6.6475279    261.72595   0.03202716  0.032303185            2 
  682000      1.12146   -6.6297964    262.60965  0.032088178  0.032297152            3 
  683000    1.1377503   -6.6720387    261.77225  0.031939025  0.032290379            3 
  684000    1.1271459   -6.6766562    263.08602   0.03205239  0.032283888            3 
  685000    1.1548157   -6.6620521    263.64143  0.032073167  0.032277659            2 
  686000    1.1148081   -6.6816365    263.31312   0.03198653  0.032271147            3 
  687000    1.1696314   -6.6754839    263.73993  0.031991743  0.032264362            2 
  688000    1.1408508   -6.6646349     264.2263  0.032004154  0.032257738            3 
  689000    1.1231457   -6.6703001    264.64246  0.032008038  0.032250715            3 
  690000    1.1297782   -6.6447368    265.14763   0.03202266  0.032244417            2 
  691000    1.1476072   -6.6622858    264.74004  0.031927163  0.032237417            1 
  692000    1.1469435   -6.6313226    266.32265   0.03207161  0.032230911            4 
  693000    1.1295195   -6.6392286    266.31951  0.032024953  0.032224574            3 
  694000    1.1358821   -6.6914101    265.70935  0.031905542  0.032217909            3 
  695000    1.1469727   -6.7021571    266.03578  0.031898775   0.03221104            3 
  696000    1.1286293   -6.6362502    267.08591  0.031978677  0.032204645            4 
  697000     1.137186   -6.7000138    266.35365  0.031845248  0.032198468            3 
  698000    1.1383453   -6.7236415     266.2881  0.031791798  0.032192284            3 
  699000    1.1693755   -6.6766162    267.74231  0.031919684  0.032186186            4 
  700000    1.1209584   -6.6963367    267.72415  0.031871923  0.032179947            1 
  701000    1.1544248   -6.6364302    269.93034  0.032088723  0.032173683            2 
  702000    1.1480787    -6.672044    269.04197  0.031937556  0.032167816            3 
  703000    1.1565095   -6.5939671    270.04045  0.032010485   0.03216176            3 
  704000    1.1232239   -6.6941958    270.03296  0.031964128  0.032156155            4 
  705000    1.1187745   -6.6636882    270.21174  0.031939922  0.032150153            3 
  706000    1.1467747   -6.6798672    270.31855  0.031907289  0.032143798            2 
  707000    1.1162445   -6.6879805    270.16964  0.031844606  0.032137583            4 
  708000    1.1617981   -6.6788394     269.6096   0.03173371  0.032130705            5 
  709000    1.1436382   -6.6393823    271.08509  0.031862376  0.032123612            2 
  710000    1.1431539    -6.676725    271.25177  0.031837062  0.032116795            2 
  711000    1.1276133   -6.6199535    271.97098  0.031876579  0.032109751            6 
  712000    1.0966246   -6.6460537    270.91762  0.031708523  0.032103038            2 
  713000    1.1399638     -6.67673     271.7888  0.031765872  0.032095616            5 
  714000    1.1264801   -6.5917607    272.18735  0.031767898  0.032088442            3 
  715000    1.1588139   -6.6351181    272.53886  0.031764436   0.03208107            5 
  716000    1.1181039   -6.6723159    271.98815  0.031655976  0.032073449            3 
  717000    1.1316871   -6.6755175    272.36179  0.031655252  0.032065743            3 
  718000    1.1061449   -6.6618118    273.27516  0.031717173  0.032058003            3 
  719000    1.1329327    -6.671612    273.65704   0.03171732  0.032050669            3 
  720000    1.1173388    -6.678887    273.15885  0.031615608  0.032042592            5 
  721000     1.136473   -6.6418162    274.55006  0.031732554  0.032034716            3 
  722000    1.1444105   -6.6399206    274.56301  0.031690098  0.032026894            5 
  723000     1.164658   -6.6800862    274.14858    0.0315985  0.032019319            2 
  724000    1.1100867   -6.6528056    274.30284  0.031572611  0.032011315            4 
  725000    1.1364166     -6.68431    275.16571  0.031628243  0.032003369            4 
  726000    1.1253148   -6.6447294    275.84882  0.031663088  0.031995764            2 
  727000    1.1005722   -6.6631641     274.7599  0.031494716  0.031987515            9 
  728000    1.1223086   -6.6823636    275.38201  0.031522666  0.031979463            4 
  729000    1.1418378     -6.67911    274.50422  0.031379083  0.031971259            4 
  730000     1.139727   -6.6996791    275.08065  0.031401901  0.031963019            5 
  731000     1.112017   -6.6734331    276.16138  0.031482146  0.031954587            2 
  732000    1.1306902   -6.6606765     277.4542  0.031586316  0.031946281            1 
  733000    1.1524196   -6.6714728    276.94019  0.031484787  0.031938203            3 
  734000    1.1385509   -6.6678388    276.11035  0.031347679  0.031929407            5 
  735000    1.1012107   -6.6485361    277.18669  0.031427062  0.031920612            3 
  736000    1.1112237   -6.7086114     277.9079  0.031466021  0.031912004            4 
  737000    1.1375514   -6.6836085    279.25843  0.031576033  0.031903505            5 
  738000    1.1330553   -6.6883667    278.42905  0.031439595  0.031895536            4 
  739000    1.0943322   -6.6817276    279.36485  0.031502577  0.031887284            2 
  740000    1.1450724   -6.6941941    278.60679  0.031374639  0.031879159            4 
  741000    1.1285374   -6.6743296     279.4053  0.031422098  0.031870851            3 
  742000    1.1284628   -6.6656849    280.02619  0.031449482  0.031862613            4 
  743000    1.1363017   -6.6662843    280.89065  0.031504111  0.031854773            4 
  744000    1.1219125   -6.6469727    281.81799  0.031565635  0.031847236            2 
  745000    1.1340659   -6.6910327    280.75184  0.031404008  0.031839659            5 
  746000    1.1251946   -6.7292357    281.79305  0.031478222  0.031832066            4 
  747000     1.124721   -6.7060631    282.68447  0.031535528  0.031824677            2 
  748000    1.1312749   -6.6479563    282.92769  0.031520464  0.031817181            1 
  749000    1.1378539   -6.7113462    282.27547  0.031405815  0.031809809            3 
  750000     1.125799   -6.6705937    284.13988  0.031571098  0.031802759            7 
  751000    1.1511393   -6.7262865    284.02362  0.031516159  0.031795889            2 
  752000    1.1410355   -6.7426301    283.44864  0.031410532  0.031789433            2 
  753000    1.1303183   -6.6774231    286.40231  0.031695696  0.031783102            4 
  754000    1.1361662   -6.6580356    286.22412  0.031633966  0.031776937            2 
  755000    1.1433586   -6.6903051    286.70493  0.031645136  0.031771009            2 
  756000    1.1326368   -6.6679001    287.11488  0.031648466  0.031764973            3 
  757000    1.1298535   -6.7155111    286.38186  0.031525964  0.031758606            4 
  758000    1.1282968   -6.6859553    287.52066  0.031609572  0.031751857            4 
  759000    1.1379953   -6.6421088    288.04801  0.031625825   0.03174572            2 
  760000    1.1297729   -6.6838991     287.4826  0.031522214  0.031739502            2 
  761000     1.132824   -6.6974984    287.67642  0.031502017  0.031733511            3 
  762000    1.1262467   -6.6490708    288.90963  0.031595541  0.031727061            2 
  763000    1.1476051   -6.6362209    289.58218  0.031627586  0.031720875            3 
  764000     1.128893   -6.6654727    289.33285  0.031558993  0.031714866            1 
  765000    1.1413503   -6.6904944     290.2949  0.031622538  0.031708535            2 
  766000    1.1407627   -6.6947944     289.8512  0.031532985  0.031702252            1 
  767000    1.1216916   -6.7471809    288.60521  0.031356498  0.031695886            4 
  768000    1.1323562   -6.7479175    289.21663  0.031382013  0.031689271            3 
  769000    1.1481483   -6.7215514     289.9751  0.031423396  0.031682461            5 
  770000    1.1406672    -6.687164    290.63032  0.031453498  0.031675791            2 
  771000    1.1389035   -6.6728348    291.65231  0.031523163  0.031669187            2 
  772000    1.1341156   -6.6739985    291.36062  0.031450845  0.031662617            2 
  773000    1.1737489   -6.6484404    291.90862  0.031469235  0.031656051            2 
  774000    1.1494403   -6.7133839    292.26851  0.031467325  0.031649864            3 
  775000    1.1326462   -6.6919061    292.62708  0.031465278  0.031643445            3 
  776000    1.1468605   -6.7222548    292.42624  0.031403162  0.031637005            3 
  777000    1.1100997   -6.6874264     293.0157  0.031425965  0.031630636            3 
  778000    1.1373706   -6.7233539    292.73994  0.031356034  0.031624395            2 
  779000    1.1338602   -6.7292851    293.22866  0.031368064  0.031618097            3 
  780000     1.128855   -6.6849726    293.31464  0.031337035  0.031611769            3 
  781000    1.1452967   -6.7020888    293.89367  0.031358693  0.031605649            5 
  782000    1.1140884   -6.7243489     294.1102  0.031341667  0.031599414            5 
  783000     1.155108   -6.6702068    295.56967  0.031456967  0.031592903            2 
  784000    1.1665633   -6.6986698    294.53786  0.031307171  0.031586556            2 
  785000    1.1206754   -6.7204388    294.67733  0.031282095  0.031579917            8 
  786000    1.1359514   -6.7149231    295.55498  0.031335346  0.031573162            4 
  787000    1.1101676   -6.7097631    295.60715  0.031301054  0.031566516            2 
  788000    1.1248335   -6.7132142    297.48667  0.031460097  0.031560033            8 
  789000    1.1421634   -6.7250178     296.8334  0.031351225  0.031553398            3 
  790000    1.1455077   -6.7076703    297.23017  0.031353393  0.031546869            1 
  791000    1.1232004   -6.7279108    297.00836  0.031290388  0.031539962            2 
  792000    1.1446585   -6.6783216    297.08542  0.031258988  0.031533587            2 
  793000    1.1199601   -6.7358624    296.85704  0.031195569  0.031526809            7 
  794000    1.1124411   -6.7301678    297.95792  0.031271822  0.031520147            4 
  795000    1.1064615   -6.6603344    298.69321   0.03130956  0.031513267            4 
  796000    1.1108115   -6.7491146    298.25584  0.031224439  0.031506285            5 
  797000     1.134717   -6.6865593     299.4298  0.031308009  0.031499619            3 
  798000    1.1070702   -6.6895884    300.02418  0.031330846  0.031492726            4 
  799000    1.1336558   -6.6730176     299.7273   0.03126067  0.031485863            6 
  800000    1.1054992   -6.7307734    299.22374  0.031169139  0.031479161            7 
  801000    1.1010246   -6.7186659    300.58467  0.031271814  0.031472269            2 
  802000    1.1240914   -6.7038871    299.52881  0.031123109  0.031465284            3 
  803000    1.1329714   -6.6902076    301.06881  0.031244168  0.031458663            6 
  804000    1.1084781   -6.6945374    300.49277  0.031145602  0.031451651            2 
  805000    1.1201178    -6.693273     300.8423  0.031143095  0.031444262            2 
  806000    1.1152597   -6.7283648    301.07582  0.031128601   0.03143707            2 
  807000    1.1115358   -6.6840947    301.99798  0.031185252  0.031430314            3 
  808000    1.1077959   -6.6980113    301.15514  0.031059729  0.031423277            2 
  809000    1.1231996   -6.6983007    302.65082  0.031175404  0.031416199            2 
  810000    1.1291514    -6.686426    302.85333   0.03115775  0.031409233            4 
  811000    1.1540845   -6.6960732    303.52032  0.031187867  0.031402963            2 
  812000      1.12943   -6.7151053    303.88399  0.031186781  0.031396394            4 
  813000    1.1088332   -6.6878755    304.05185  0.031165626  0.031389764            2 
  814000    1.0973975   -6.7569599    303.31005  0.031051398  0.031383175            2 
  815000    1.0973269   -6.6862143    304.77042   0.03116262  0.031376094            3 
  816000    1.1377035   -6.6726273    305.37922  0.031186603  0.031369329            4 
  817000    1.0998469   -6.7283016     305.2565  0.031135914  0.031362439            4 
  818000    1.1178282    -6.688375    306.49254  0.031223772  0.031355995            6 
  819000    1.1206132   -6.6996869    306.81816  0.031218779  0.031349486            2 
  820000    1.1201378    -6.677805    306.48714  0.031147067  0.031343184            2 
  821000     1.113256   -6.7480151    305.97353  0.031056997  0.031336663            5 
  822000    1.1494293   -6.7123247    306.95246  0.031118457  0.031330211            5 
  823000    1.1232047   -6.7282819    306.85907   0.03107119  0.031324102            3 
  824000    1.1181611   -6.7295672    307.65535  0.031114012  0.031317147            8 
  825000    1.1453113   -6.7453071    306.63128  0.030972856  0.031310295            4 
  826000    1.1189821   -6.6772321    308.56883  0.031130834  0.031303548            3 
  827000    1.1425349   -6.6902072    308.14314  0.031050296  0.031297058            4 
  828000    1.1260813   -6.6874407    308.93444  0.031092435  0.031290421            4 
  829000    1.1170145   -6.6840025    309.54576  0.031116381  0.031283799            2 
  830000    1.1144309   -6.7622838    307.53689  0.030877198  0.031276797            3 
  831000    1.1041727   -6.7004365    309.18501  0.031005316  0.031270002            2 
  832000    1.1062037   -6.6936891    310.18195  0.031067904  0.031263341            5 
  833000    1.1236134   -6.6950022    310.52384   0.03106481  0.031256628            3 
  834000    1.1219419   -6.7193271    310.79202  0.031054359  0.031250185            2 
  835000    1.0942715   -6.7442667     310.2939  0.030967455  0.031243436            9 
  836000     1.109057   -6.7077173    311.58481  0.031059092  0.031236588            2 
  837000    1.1278839    -6.722087    310.34168  0.030898216  0.031229731            4 
  838000    1.1153771   -6.7129387    310.48975  0.030876069  0.031222506            3 
  839000    1.1364302   -6.7259463    310.90733  0.030880744  0.031215215            2 
  840000    1.1244543   -6.7693887    309.96138  0.030750136  0.031207568            1 
  841000    1.1093301   -6.7025807    312.23866  0.030939225  0.031200157            5 
  842000    1.0891809   -6.7032782    312.95354  0.030973232  0.031192928            3 
  843000    1.1053535   -6.7735482    311.53709   0.03079647  0.031185731            2 
  844000    1.1054139   -6.7072234    313.25545  0.030929646  0.031178637            2 
  845000    1.1189717   -6.7456985    312.24844  0.030793732   0.03117152            7 
  846000    1.1027323   -6.7077915    313.63971  0.030894376  0.031164234            2 
  847000    1.1028227   -6.7465454    314.65786  0.030958074  0.031157134            6 
  848000    1.1159959   -6.7391055    313.81993  0.030839223  0.031150154            3 
  849000    1.1103942   -6.7465899    314.99894  0.030918623  0.031143363            3 
  850000    1.1139008   -6.7426872    315.50498  0.030931861  0.031136634            2 
  851000    1.1069355   -6.7383875    314.95461  0.030841618  0.031130386            3 
  852000    1.1057659   -6.7139852    317.13055  0.031018246  0.031124126            5 
  853000    1.1221991   -6.7356137    316.38887  0.030909424  0.031117453            5 
  854000    1.1328831   -6.7650522    315.53073  0.030789494  0.031110394            5 
  855000    1.1142599   -6.7465908    315.90534  0.030789994  0.031103843            3 
  856000    1.1103955   -6.7449295    316.37114  0.030799371  0.031096844            4 
  857000     1.120795   -6.7466351    317.37075  0.030860633  0.031089763            3 
  858000    1.1103389   -6.7213434    318.08985  0.030894508  0.031082708            2 
  859000    1.1254645   -6.7805702    316.32646  0.030687472  0.031075584            3 
  860000      1.11515   -6.7203649    318.23236  0.030836469  0.031068396            2 
  861000     1.111093   -6.7472042    317.72973  0.030752006  0.031061471            6 
  862000    1.1256481   -6.7225499    319.48762  0.030886274  0.031054592            3 
  863000    1.1241202   -6.7274498     319.1898  0.030821727  0.031047695            2 
  864000    1.1126845   -6.7299824    319.71044   0.03083627  0.031040766            2 
  865000    1.1098946   -6.7492871    320.25496  0.030853079  0.031034023            2 
  866000    1.1022688   -6.7196679    319.63705  0.030757992   0.03102708            4 
  867000    1.1108244    -6.742658    319.76442  0.030734758  0.031020355            2 
  868000     1.101983   -6.7075008    321.41613  0.030857924  0.031013741            3 
  869000    1.1175618    -6.676322    321.85171  0.030864184  0.031007428            2 
  870000    1.1169378   -6.7568385    321.78493  0.030822311  0.031000781            2 
  871000    1.0904886   -6.7409398    322.08158  0.030815306  0.030993888            3 
  872000    1.1008533   -6.7474791    322.59075  0.030828626  0.030987164            7 
  873000    1.1018548   -6.7992276    320.63716  0.030606831   0.03098008            5 
  874000    1.1112627   -6.7422878    322.53668  0.030752925  0.030973018            3 
  875000    1.1532838   -6.6879839    323.72662  0.030831106  0.030966381            3 
  876000     1.101661   -6.7059396    323.01187  0.030727918  0.030959552            4 
  877000    1.0805365   -6.7192496    323.29467  0.030719752  0.030952975            3 
  878000    1.0991799   -6.7569162    323.05974  0.030662466  0.030946004            2 
  879000    1.1197106   -6.7359148    323.77915  0.030695786  0.030939213            5 
  880000    1.1196796   -6.7349878    324.36841  0.030716706  0.030932856            3 
  881000    1.1238882   -6.7342817     324.5367  0.030697758  0.030926234            3 
  882000    1.1374155   -6.7840355    324.63879  0.030672599  0.030919496            4 
  883000     1.108091    -6.783512    324.54258  0.030628783  0.030912645            3 
  884000    1.1108585   -6.7456145    325.77919  0.030710708  0.030905893            3 
  885000    1.1316469   -6.7406688    325.67425  0.030666125  0.030898859            2 
  886000    1.1127917   -6.7691641    326.10286  0.030671826  0.030892166            4 
  887000    1.1177936   -6.6637628    327.82162  0.030798724  0.030885575            2 
  888000    1.1038226   -6.7611924    326.53762  0.030643545  0.030879233            4 
  889000    1.1010186   -6.7272363    327.29237  0.030679825  0.030872682            4 
  890000    1.0852341   -6.7586949    326.06202  0.030530152  0.030866209            3 
  891000    1.1023998   -6.7472196    327.38221  0.030619361   0.03085946            1 
  892000    1.0910138   -6.7184686    328.90259  0.030727074  0.030852741            4 
  893000     1.115648   -6.7551894    328.74747  0.030678189  0.030846321            4 
  894000    1.1104451   -6.7563387    328.94843  0.030662605  0.030839361            2 
  895000    1.1174722   -6.7683133    329.17674  0.030649603  0.030832594            6 
  896000    1.0935297   -6.7208661    329.87959  0.030680765  0.030826022            2 
  897000    1.1234147   -6.7729704    329.26248   0.03058923  0.030819307            3 
  898000    1.0987151   -6.7401787    329.81068  0.030606039  0.030812733            4 
  899000    1.0898691   -6.7187554    330.09618  0.030598459  0.030806376            4 
  900000    1.1226058   -6.7184395    330.64439  0.030615221  0.030799849            6 
  901000    1.1116363   -6.7702988    330.80813  0.030596386  0.030793429            3 
  902000    1.1106352   -6.7773731    330.20459  0.030506707  0.030786948            2 
  903000    1.1287148   -6.7528356    331.63495  0.030604924  0.030780345            3 
  904000    1.1073191   -6.7316151    332.42227  0.030643645  0.030773948            1 
  905000    1.1196128   -6.7505369    332.54244  0.030620851  0.030767669            2 
  906000    1.1044945   -6.6917453    332.54101  0.030586921  0.030761456            3 
  907000    1.1099613   -6.7338195    334.18359  0.030704115  0.030754991            9 
  908000    1.0853729   -6.8237829    332.73642  0.030537484  0.030748147            5 
  909000    1.1040458   -6.7545352    333.53988  0.030577547  0.030741817            8 
  910000    1.1341578   -6.7687797    334.29259  0.030612874  0.030735221            2 
  911000    1.1025648    -6.707693    334.06023  0.030558016  0.030728777            2 
  912000    1.1171635   -6.7125235    335.17918  0.030626753  0.030721996            4 
  913000    1.0803363   -6.7633466    333.63901  0.030452629  0.030715641            3 
  914000    1.1150194   -6.7307108    334.66686  0.030513025  0.030708945            2 
  915000    1.1061594    -6.719918    335.47865  0.030553611  0.030702194            3 
  916000    1.0971583   -6.7283383    335.05088   0.03048134  0.030695508            3 
  917000    1.1239832   -6.7456791    335.38052  0.030478055  0.030688785            3 
  918000    1.1050378   -6.6841542    336.30607  0.030528873  0.030682091            3 
  919000    1.1305376   -6.7630575    334.87828  0.030366185  0.030675129            3 
  920000     1.124679   -6.7683577    335.21095   0.03036331  0.030668048            5 
  921000    1.1095438   -6.7465304    337.10264  0.030501505  0.030660969            4 
  922000    1.0960553   -6.7963222     336.5775   0.03042096  0.030653942            3 
  923000    1.1222264   -6.7403377    337.27544  0.030451015  0.030646993            1 
  924000    1.0792839   -6.7382863    337.19213  0.030410546  0.030640011            5 
  925000    1.0959882   -6.7496202    336.94599  0.030355495   0.03063291            3 
  926000     1.104617   -6.7406696    337.62917  0.030384194  0.030625683            2 
  927000    1.0784864    -6.736382    337.28251  0.030320255  0.030618402            4 
  928000    1.0896333   -6.7399139    337.63446  0.030319186  0.030610963            4 
  929000    1.1037912   -6.7630831    337.72383  0.030294567  0.030603308            3 
  930000    1.0901742   -6.7265689    337.87309  0.030275366  0.030595786            7 
  931000    1.1037725   -6.7453783    337.85372  0.030241113  0.030588259            2 
  932000    1.1087668   -6.8004853    337.50208  0.030177225  0.030580284            2 
  933000    1.1068418   -6.7175561    338.51921  0.030235728  0.030572451            2 
  934000    1.1159814   -6.7497715    338.89905  0.030237246  0.030564624            4 
  935000    1.1288656   -6.7745761    338.40463   0.03016084  0.030556483            4 
  936000    1.1061169   -6.7871251    338.07092  0.030098907  0.030548401            7 
  937000    1.0958963   -6.7532556    340.37687  0.030271867  0.030540695            2 
  938000    1.1237262   -6.7393923    340.69118  0.030267518  0.030532956            7 
  939000    1.0967319   -6.7783497    339.28186  0.030110211  0.030525332            1 
  940000    1.1311069   -6.7666775    340.71811  0.030205506  0.030517548            2 
  941000    1.1142448   -6.7574463    339.92011  0.030102738  0.030509602            6 
  942000    1.1128273   -6.7377079    341.69081  0.030227425  0.030502089            3 
  943000    1.0968522   -6.7612803    341.75906  0.030201402  0.030494592            6 
  944000    1.0904475   -6.7660728    342.09732  0.030199269  0.030487132            3 
  945000    1.0825128   -6.7802791    341.40119  0.030105925  0.030479413            2 
  946000    1.0850621   -6.7527786    342.34971  0.030157656  0.030471584            3 
  947000    1.1159857   -6.7723564      342.375  0.030128036  0.030464069            2 
  948000    1.0960173   -6.7442147    343.58045  0.030202219  0.030456524            2 
  949000    1.0924926   -6.7430631    344.01963  0.030208959  0.030449172            2 
  950000    1.0781299   -6.7088868    343.79713  0.030157643  0.030441812            2 
  951000    1.1223957   -6.7798467    342.83422  0.030041554  0.030434303            3 
  952000    1.0973759   -6.7644006     343.6894  0.030084856  0.030427051            4 
  953000    1.0877206   -6.7912311    342.91903  0.029985924  0.030419527            4 
  954000    1.0862721   -6.7336761    344.75139  0.030114552  0.030411903            3 
  955000    1.1045306   -6.7802479    344.67231  0.030076118  0.030404382            4 
  956000    1.0874221   -6.7297831    346.92568  0.030241081  0.030397226            1 
  957000    1.1107653   -6.7559815    347.33699  0.030245297  0.030390344            5 
  958000    1.1125821   -6.7770825    346.90222  0.030175906  0.030383499            3 
  959000    1.0921961   -6.7695094    347.33127  0.030181723  0.030376541            6 
  960000    1.0868896    -6.747436    347.89925  0.030199588  0.030369748            2 
  961000    1.1021558    -6.786486    347.56439  0.030139125  0.030362797            3 
  962000     1.093407   -6.7922679    347.12863  0.030070047  0.030356075            3 
  963000    1.1085225   -6.7604283    348.82171  0.030185333  0.030349389            6 
  964000     1.119547   -6.7647965    348.39337  0.030116993  0.030343103            7 
  965000    1.1346928   -6.7994065    349.97057  0.030221984  0.030336746            3 
  966000    1.1022946   -6.7687351    350.40384  0.030228074  0.030330261            7 
  967000    1.0672908   -6.7654518     350.1732  0.030176939  0.030323938            2 
  968000    1.0935833    -6.778698    352.09077  0.030310844  0.030317739            2 
  969000    1.0855807   -6.7413174     351.6382  0.030240643  0.030311481            4 
  970000    1.0962129   -6.8178067    351.34519  0.030184295  0.030305446            2 
  971000    1.0849899   -6.7545747    352.55271  0.030256841  0.030299465            2 
  972000    1.0870833   -6.7723769    352.23343  0.030198339  0.030293549            2 
  973000     1.093215   -6.7846164    352.39886  0.030181472   0.03028741            3 
  974000    1.0814258   -6.7717243    354.07287  0.030293709  0.030281171            5 
  975000    1.0964147   -6.7811103    353.07702  0.030177523  0.030274883            4 
  976000    1.1071324   -6.7933968    353.46523  0.030179749  0.030268508            6 
  977000    1.0894329   -6.7897658    353.87209  0.030183563  0.030262088            6 
  978000    1.0907744   -6.7742828    352.92849  0.030072298  0.030255549            4 
  979000    1.0887449   -6.7658477    354.14952  0.030145516  0.030249156            3 
  980000    1.0850509   -6.7613564    353.84092  0.030088514  0.030242489            3 
  981000    1.0984847   -6.7630811    354.27786  0.030094959  0.030236126            3 
  982000    1.1181472   -6.7607626    354.21844   0.03005927  0.030229484            3 
  983000    1.0922071   -6.7450525    353.98079  0.030008545  0.030222849            6 
  984000    1.0922599   -6.7040163    355.60355  0.030115477  0.030216145            4 
  985000    1.1073382   -6.7961224    354.60175  0.030000148  0.030209461            3 
  986000    1.1051435    -6.797084    355.30296  0.030028986  0.030202691            2 
  987000    1.1191601   -6.7521829    354.98851  0.029972012  0.030195735            4 
  988000    1.0889786   -6.8134509    355.45504  0.029981026  0.030188795            5 
  989000    1.1155731   -6.7328412    356.45805  0.030035225  0.030181935            3 
  990000    1.1072008   -6.8191579    355.68725  0.029940004   0.03017515            5 
  991000    1.0756138   -6.7828053    356.25222  0.029957301  0.030168219            3 
  992000    1.1234791   -6.7721841    357.47793  0.030030068  0.030161508            4 
  993000    1.1146937   -6.7939261    357.10471  0.029968505   0.03015479            2 
  994000     1.091411    -6.764674    357.60498  0.029980296  0.030148179            6 
  995000    1.0995821   -6.7971784    358.63735  0.030036629  0.030141404            2 
  996000    1.0665275   -6.7539115     358.3941  0.029986119  0.030134623            3 
  997000    1.0643215   -6.7315424    358.64712  0.029977192  0.030127943            3 
  998000     1.076576   -6.7985674    358.75837  0.029956443  0.030121252            3 
  999000    1.0793222   -6.7417334    359.38423  0.029978665  0.030114636            7 
 1000000    1.0967679   -6.7872043    359.19421  0.029932851  0.030107997            3 
 1001000    1.1062149   -6.7734685    359.99108  0.029969287  0.030101387            5 
 1002000    1.1117642   -6.8423806    358.73046  0.029834536  0.030094247            5 
 1003000    1.0880293   -6.7803971    359.97726   0.02990838  0.030087121            4 
 1004000    1.1069035   -6.7444878    360.86212  0.029952035  0.030080398            1 
 1005000    1.0706562   -6.7566807    360.68017  0.029907145  0.030073521            3 
 1006000    1.1023468   -6.8044297    359.92064  0.029814499  0.030066397            5 
 1007000    1.1077955   -6.7821249    361.57596  0.029921877  0.030059204            3 
 1008000    1.0906418   -6.8155525    360.34049  0.029790054  0.030052051            5 
 1009000    1.0950758   -6.7780212    361.26071   0.02983653  0.030044864            5 
 1010000    1.0736883   -6.7814331    360.83596  0.029771944   0.03003776            4 
 1011000    1.0901619   -6.7645681     361.8536  0.029826377  0.030030653            3 
 1012000    1.0763005   -6.8103469    361.18381   0.02974175  0.030023214            4 
 1013000    1.0849054   -6.8023936    361.92776   0.02977359  0.030015759            2 
 1014000    1.0737383   -6.8127211    362.23796   0.02976972  0.030008317            5 
 1015000    1.0875251   -6.8083276    361.90618  0.029713151  0.030001106            4 
 1016000    1.0845842    -6.770602    362.37627  0.029722463  0.029993868            1 
 1017000    1.1029393   -6.8118204    362.31089   0.02968788  0.029986774            4 
 1018000    1.0872529   -6.7869402    362.59961  0.029682352  0.029979494            5 
 1019000    1.0655505   -6.8143351    364.15813  0.029780678  0.029972389            2 
 1020000    1.0860484   -6.7649733    364.85511  0.029808424  0.029965316            4 
 1021000    1.0964846   -6.8053481    365.94097  0.029867856  0.029958453            8 
 1022000    1.0938014   -6.7946496    364.42508  0.029715026  0.029951376            3 
 1023000     1.080002   -6.8454991    363.27661  0.029592425  0.029944287            8 
 1024000    1.0690885   -6.8148153    364.63584  0.029674141  0.029937236            9 
 1025000    1.0720444   -6.7850592    365.58157  0.029722079  0.029930274            3 
 1026000     1.085786   -6.7387203    365.91556  0.029720237   0.02992334            4 
 1027000    1.0687438    -6.778449    366.21908  0.029715927  0.029916258            3 
 1028000    1.1249714   -6.8052554    365.86777  0.029658541  0.029909312            4 
 1029000    1.0750922   -6.7579463    367.44908  0.029757781  0.029902851            2 
 1030000    1.0908773   -6.7601783    368.22701  0.029791829  0.029896596            5 
 1031000    1.0728592   -6.7752238    368.47619  0.029783074  0.029890095            2 
 1032000    1.0974269   -6.8105085    367.32175  0.029660994  0.029883551            9 
 1033000    1.0931592   -6.8228912    368.61913  0.029736942  0.029876936            2 
 1034000     1.090391   -6.7630153    369.36648  0.029768414  0.029870284            3 
 1035000    1.0794902   -6.8045724    368.57062  0.029675573  0.029863689            7 
 1036000    1.0818776   -6.7871131    369.09611  0.029689198   0.02985676            2 
 1037000    1.0880008   -6.7836027    369.40813  0.029685642  0.029849731            4 
 1038000    1.0641334   -6.8422398    367.91669  0.029537307  0.029842563            3 
 1039000    1.0668998   -6.8224906    368.66862  0.029569186  0.029835438            6 
 1040000    1.0771817   -6.7610601       369.58  0.029613782  0.029828393            5 
 1041000    1.0608917   -6.8245611    369.35655  0.029567447  0.029821071            4 
 1042000    1.0905868   -6.8163757     371.6306  0.029720938  0.029813968            2 
 1043000    1.0884552   -6.8181249    371.77024  0.029703599  0.029806896            8 
 1044000    1.1002693   -6.7977109    371.67746  0.029667741  0.029800067            5 
 1045000     1.089795   -6.7726863    371.80938  0.029649871  0.029793212            3 
 1046000    1.0681904   -6.7495913    372.16622  0.029649954  0.029786274            4 
 1047000    1.0935406   -6.7610866    372.68196  0.029662684  0.029779497            2 
 1048000    1.0721304   -6.8138127    372.23785  0.029599066  0.029772744            3 
 1049000    1.0841028   -6.8040745    372.00317  0.029552206  0.029765833            2 
 1050000    1.0876108   -6.8200432    371.16701  0.029457699  0.029758711            3 
 1051000    1.0794262   -6.8168835    372.65873  0.029547949  0.029751607            3 
 1052000     1.094681   -6.8728918    371.55059  0.029432081  0.029744344            4 
 1053000    1.0755847   -6.8500491    372.38931  0.029470506   0.02973708            2 
 1054000     1.078029   -6.8396459    373.62053   0.02953989  0.029729991            5 
 1055000    1.0882133   -6.8016583    374.22618   0.02955973  0.029722911           10 
 1056000    1.0724227   -6.7880789    374.69242  0.029568531  0.029716172            2 
 1057000     1.097677   -6.7860103    374.53001  0.029527752  0.029709171            2 
 1058000    1.0509561   -6.7961032    375.24881   0.02955646  0.029702163            5 
 1059000    1.0990984   -6.8417945    373.79137  0.029413863  0.029694853            2 
 1060000    1.1008839    -6.813525    374.86906  0.029470838   0.02968753            5 
 1061000    1.0768054   -6.8629465    374.19856  0.029390399  0.029680141            2 
 1062000    1.0865438   -6.8087421    375.24538  0.029444866  0.029672565            2 
 1063000    1.0772667   -6.8075343    375.08012  0.029404211  0.029664654            2 
 1064000    1.1039394   -6.8429975    374.78848  0.029353734    0.0296572            2 
 1065000    1.0804612   -6.8015559    375.30239  0.029366384   0.02964958            3 
 1066000    1.1008513   -6.8636316    374.23018  0.029255017  0.029641967            2 
 1067000    1.0796823   -6.8123231     374.8444   0.02927557  0.029634119            3 
 1068000    1.0808553   -6.7867705    376.39177  0.029368896  0.029626483            4 
 1069000    1.1010528   -6.7995175    376.14168  0.029321927  0.029618872            3 
 1070000    1.0842303   -6.8276587    375.56897   0.02924992  0.029611118            3 
 1071000     1.097652   -6.8020669    376.97849  0.029332282  0.029603396            3 
 1072000    1.0627004   -6.7666974    377.64383  0.029356641  0.029595672            2 
 1073000    1.0697335   -6.8399238    376.37656   0.02923086  0.029587872            4 
 1074000    1.0764824   -6.7934992    379.04872  0.029410981  0.029580161            2 
 1075000    1.0630526    -6.826889    376.84562  0.029212839  0.029572571            5 
 1076000    1.0792952   -6.8151815    377.82793  0.029261766  0.029564544            7 
 1077000    1.0655458   -6.8157024    377.61896  0.029218428  0.029556842            4 
 1078000    1.0943459   -6.7619259    378.38625  0.029250638  0.029548967            3 
 1079000    1.0764291   -6.7865022    379.05358  0.029275068   0.02954115            4 
 1080000    1.0671768   -6.8366362     378.8034  0.029228657  0.029533332            3 
 1081000    1.0840708   -6.8472588    378.34065  0.029165946  0.029525521            4 
 1082000    1.0821546   -6.8286922    377.78686  0.029096339  0.029517789            3 
 1083000    1.0800447   -6.8141536     379.2856  0.029184795  0.029509864            4 
 1084000    1.0865208   -6.8384281    380.03844  0.029215747  0.029501914            4 
 1085000    1.0506959   -6.8212267    380.08342  0.029192275  0.029493917            5 
 1086000     1.081338   -6.8309498    378.83172  0.029069346  0.029485991            3 
 1087000    1.0543931   -6.8238519    379.37455  0.029084218  0.029477851            3 
 1088000    1.0679538   -6.8286511    380.56021    0.0291483  0.029469824            3 
 1089000    1.0775042   -6.8379104    380.50978  0.029117675  0.029462165            3 
 1090000    1.0617634   -6.8266083    381.14798  0.029139753  0.029454252            3 
 1091000    1.0778523   -6.8526654    380.62316  0.029072957  0.029445899            3 
 1092000    1.0637576   -6.8088823    381.10587  0.029083171  0.029438026            4 
 1093000    1.0563034   -6.8264585     381.0595  0.029053027  0.029430173            3 
 1094000    1.0734912   -6.8150605    382.42207  0.029130261  0.029422585            3 
 1095000      1.06086   -6.8244084    382.74621  0.029128327  0.029414945            3 
 1096000    1.0666633   -6.7442036      385.334   0.02929851  0.029407436            6 
 1097000    1.0589155   -6.8845736    383.76122  0.029152326  0.029399923            5 
 1098000    1.0546927    -6.865282    382.29201  0.029014269  0.029392307            7 
 1099000    1.0582101   -6.8370944    382.75719  0.029023141  0.029384404            6 
 1100000    1.1003035   -6.8366376    384.09676   0.02909824  0.029376803            5 
 1101000     1.064619   -6.8269016     384.1241   0.02907388  0.029369108            3 
 1102000    1.0758283    -6.805864    385.12894  0.029123483  0.029361732            5 
 1103000    1.0826231   -6.8000305    384.25458   0.02903102  0.029353792            4 
 1104000    1.0840582   -6.8515234    384.47461  0.029021332  0.029345762            4 
 1105000    1.0728687   -6.8006942    384.62975  0.029006769  0.029337915            3 
 1106000    1.0757263   -6.7921569    385.83439  0.029071307  0.029330113            3 
 1107000    1.0757639   -6.8406614     385.7889  0.029041621   0.02932271            3 
 1108000    1.0794035   -6.8326111    385.55244  0.028997626  0.029315242            4 
 1109000    1.0822281   -6.8240356    385.44128  0.028963126   0.02930717            2 
 1110000    1.0747833   -6.8770214    385.46489  0.028938805  0.029298843            5 
 1111000     1.064769   -6.8631134    385.91361  0.028946415  0.029290715            5 
 1112000    1.0850829      -6.8578    386.98173  0.029000429  0.029282676            2 
 1113000     1.089733   -6.8517137    385.62896  0.028873088  0.029274737            4 
 1114000    1.0518066   -6.8409947     386.4498  0.028908572  0.029266747            5 
 1115000    1.0981909   -6.8259753    386.90928  0.028916986  0.029258856            2 
 1116000    1.0814244   -6.7935148    388.03732  0.028975308  0.029250933            4 
 1117000    1.0755126   -6.8506238    386.90625  0.028864984   0.02924276            6 
 1118000    1.0733493   -6.8640897    387.40901  0.028876641  0.029234499            3 
 1119000    1.0762481   -6.8190557    388.56682  0.028937059  0.029226471            5 
 1120000    1.0624953   -6.8055752    389.93324   0.02901289  0.029218554            4 
 1121000    1.0694936   -6.8265474    388.74273  0.028898508  0.029210489            4 
 1122000     1.078137    -6.866933    386.89031  0.028735168  0.029202169            4 
 1123000    1.0551432   -6.8699661    388.21413  0.028807816  0.029193798            6 
 1124000    1.0787686   -6.8451871    388.92979  0.028835246  0.029185659            7 
 1125000    1.0979958   -6.8648293    388.83438  0.028802547  0.029177401            2 
 1126000    1.0459233   -6.8776826    388.32395  0.028739191  0.029169083            6 
 1127000    1.0864812   -6.8348206     389.5807  0.028806618  0.029160805            5 
 1128000    1.0715306   -6.8807288    388.94337  0.028733996  0.029152303            4 
 1129000    1.0487793   -6.8439894    389.02196  0.028714346  0.029143997            2 
 1130000    1.0407914   -6.8060581     390.0775  0.028766777  0.029135491            1 
 1131000    1.0866522   -6.8488838     389.5293  0.028700951  0.029127327            2 
 1132000     1.090911   -6.8456488    390.84065  0.028772132  0.029118916            2 
 1133000    1.0488886   -6.8558553    390.17434   0.02869773  0.029110686            2 
 1134000    1.0753512   -6.8495987    390.88021  0.028724296  0.029102609            4 
 1135000    1.0883081   -6.8731408     390.4864  0.028670074  0.029094409            5 
 1136000    1.0815423   -6.8709327    389.82281  0.028596157  0.029085957            2 
 1137000    1.0304527   -6.8651992     391.1236  0.028666344  0.029077371            4 
 1138000    1.0745233   -6.8238861    391.90376  0.028698284  0.029069115            2 
 1139000    1.0556307   -6.8245036    391.40316  0.028636462  0.029060861            6 
 1140000    1.0935539   -6.8389017    391.34805  0.028607314  0.029052499            3 
 1141000    1.0754408   -6.8853114     391.8145  0.028616308  0.029043999            7 
 1142000    1.0857893   -6.8912645     391.4501   0.02856466  0.029035346            2 
 1143000    1.0720747   -6.8639494    391.21375  0.028522437  0.029026595            3 
 1144000    1.0877369   -6.8488175    393.04404   0.02863083  0.029017969            3 
 1145000    1.0695494    -6.850321    391.34562  0.028482214  0.029009397            5 
 1146000    1.0738397    -6.846759    392.38004   0.02853258  0.029000596            3 
 1147000    1.0867394   -6.8435435    392.89183  0.028544888  0.028991762            3 
 1148000    1.0492132   -6.8383107    392.46218  0.028488834  0.028983091            2 
 1149000    1.1019261   -6.8511418    394.23279  0.028592456   0.02897444            3 
 1150000    1.0737311   -6.8574995    393.82365  0.028537945  0.028965787            2 
 1151000    1.0578906   -6.8665429    393.48616  0.028488717  0.028957303            2 
 1152000    1.0804888   -6.8793312    394.00194  0.028501298  0.028948667            3 
 1153000    1.0463983   -6.8816002    393.10449  0.028411715  0.028940074            4 
 1154000    1.0711785    -6.878248    393.49074  0.028414987  0.028931195            9 
 1155000     1.047642     -6.89528    393.93721  0.028422598  0.028922159            3 
 1156000    1.0160708    -6.846198    394.86746   0.02846507  0.028913369            5 
 1157000    1.0621556   -6.8889488     393.9241  0.028372522  0.028904662            5 
 1158000    1.0703848    -6.873088    394.58524  0.028395599   0.02889587            4 
 1159000    1.0704405   -6.8254443    395.83021  0.028460614  0.028887256            3 
 1160000    1.0818023   -6.8473345    395.17383  0.028388925  0.028878545            3 
 1161000    1.0753228   -6.8529737    395.07818  0.028357607  0.028869634            7 
 1162000    1.0581578   -6.8474763    396.29565  0.028420514  0.028860921            3 
 1163000    1.0673425   -6.8597178    396.32661  0.028398296  0.028852136            4 
 1164000    1.0757962   -6.8631108    396.02047  0.028351981  0.028843278            3 
 1165000    1.0378057   -6.8243997    398.35887  0.028494912  0.028834823            4 
 1166000    1.0712758   -6.8494981    398.14382  0.028455104  0.028826531            8 
 1167000    1.0638864   -6.8687426    396.76971  0.028332598  0.028817939            3 
 1168000    1.0725167   -6.8819895    397.37898  0.028351811  0.028809309            4 
 1169000    1.0622103   -6.8180896    399.09778  0.028450084  0.028800695            5 
 1170000    1.0585157   -6.8640865    397.57915  0.028317603  0.028792116            5 
 1171000    1.0750192   -6.9031513     397.8029  0.028309344  0.028783534            4 
 1172000    1.0738839   -6.8293021    400.28896  0.028461957  0.028775151            2 
 1173000    1.0623769    -6.860934    399.04498  0.028349316  0.028766645            6 
 1174000     1.030474   -6.8832287    399.16096  0.028333401  0.028758191            5 
 1175000    1.0513205   -6.8592115    399.51714  0.028334549  0.028749482            4 
 1176000    1.0688921   -6.8805049    398.38523  0.028230246  0.028740978            4 
 1177000    1.0620399   -6.8747163     397.8781  0.028170355  0.028732392            4 
 1178000    1.0502901   -6.8626383    398.62824  0.028199508  0.028723483            2 
 1179000    1.0645787   -6.8688956    399.71166  0.028252167  0.028714566            7 
 1180000    1.0614906   -6.8393707    401.60164  0.028361698  0.028705851            4 
 1181000    1.0736135   -6.8806739    399.93948  0.028220398  0.028697144            6 
 1182000    1.0282515     -6.84061    399.55924  0.028169715  0.028688447            5 
 1183000    1.0535558   -6.8737537    400.18106  0.028189706  0.028679652            5 
 1184000    1.0715731   -6.8803724    401.00851  0.028224135  0.028670967            2 
 1185000    1.0494846   -6.8341117    401.61489   0.02824296  0.028662255            7 
 1186000    1.0551375   -6.8775552    402.65405  0.028292162   0.02865371            3 
 1187000    1.0578491   -6.8839369    401.00109  0.028152281  0.028644912            3 
 1188000    1.0620103   -6.9277133    401.47102  0.028161548  0.028636128            3 
 1189000    1.1050396   -6.8807018    402.41543  0.028204053  0.028627452            2 
 1190000    1.0542099   -6.8786076    402.01183  0.028152089  0.028618572            3 
 1191000    1.0688656   -6.8769779     402.4579  0.028159663  0.028609881            5 
 1192000    1.0631752   -6.8448918    402.48188  0.028137716  0.028601231            2 
 1193000    1.0540764   -6.8771588    402.50241  0.028115564   0.02859261            5 
 1194000    1.0579224   -6.8716198    403.78026  0.028181202  0.028584001            5 
 1195000    1.0522823   -6.9055088    403.12835  0.028112159   0.02857547            5 
 1196000    1.0549585   -6.8976754    402.88279  0.028071544  0.028566793            4 
 1197000    1.0614998   -6.8615129    405.29138  0.028215774  0.028558044            3 
 1198000    1.0700303   -6.8927829    404.80841  0.028158626  0.028549333            2 
 1199000    1.0363866   -6.8721541    402.76175  0.027992893  0.028540452            4 
 1200000     1.083501   -6.8332657    405.63069  0.028168798  0.028531796            3 
 1201000    1.0676734   -6.8676602    405.09573  0.028108224  0.028523081            3 
 1202000    1.0559648   -6.8648177    405.27506  0.028097273  0.028514278            3 
 1203000    1.0561005   -6.8115024    406.11496  0.028132098  0.028505508            3 
 1204000    1.0599758   -6.8550969    406.48806  0.028134556  0.028496856            4 
 1205000    1.0692367   -6.8829284    406.24852  0.028094642  0.028488167            4 
 1206000    1.0460923   -6.8906862    405.40123  0.028012799  0.028479135            3 
 1207000    1.0727939   -6.8889143    403.79056  0.027878387  0.028470068            5 
 1208000    1.0620523   -6.8974303    404.78149  0.027923668   0.02846101            2 
 1209000    1.0616838   -6.8648983    405.72358  0.027965507   0.02845203            2 
 1210000    1.0373073   -6.9019423    405.86694  0.027952269  0.028443001            2 
 1211000    1.0450037    -6.913531    404.42095  0.027829683  0.028433829            4 
 1212000    1.0386124   -6.8814295     406.1849  0.027928005  0.028424632            6 
 1213000    1.0654847   -6.8794253    405.17681  0.027835724  0.028415565            9 
 1214000    1.0537522   -6.8895397    406.26249  0.027887321  0.028406339            2 
 1215000    1.0546257   -6.9277218    406.70094   0.02789444  0.028397091            3 
 1216000    1.0539909   -6.8981565    407.56146  0.027930473  0.028387856            3 
 1217000    1.0774426   -6.8657638    406.72679  0.027850369  0.028378681            6 
 1218000    1.0598714   -6.8739257    406.84077  0.027835302  0.028369532            6 
 1219000    1.0526059   -6.8880616    408.00078  0.027891767  0.028360289            2 
 1220000    1.0665223    -6.923448    406.43161  0.027761722  0.028350996            4 
 1221000    1.0398412   -6.8735475     408.2157  0.027860749  0.028342015            2 
 1222000    1.0478531   -6.8965171     408.5252  0.027859056  0.028333018            3 
 1223000    1.0605191   -6.8754788     408.2455  0.027817219  0.028323742            5 
 1224000    1.0569371   -6.9319874    406.99225  0.027709167  0.028314636            2 
 1225000    1.0611412   -6.8653302    409.71773  0.027871954  0.028305613            5 
 1226000    1.0446401   -6.8392249    409.31767  0.027822028  0.028296605            1 
 1227000     1.061707   -6.8752097    410.84005  0.027902747  0.028287627            4 
 1228000    1.0568094   -6.8913728    410.39753  0.027849995  0.028278711            4 
 1229000     1.054299   -6.9045068    409.47551  0.027764816  0.028269773            3 
 1230000    1.0569426   -6.8862581    410.75349  0.027828827   0.02826073            2 
 1231000    1.0621248   -6.9102123    410.59323  0.027795372  0.028251765            4 
 1232000    1.0681617   -6.8806737      410.024  0.027734307  0.028242857            5 
 1233000    1.0612278   -6.9163538    410.34959  0.027733819   0.02823393            2 
 1234000    1.0397012   -6.9157312    409.49693  0.027653764   0.02822487            3 
 1235000    1.0534068   -6.8983367    410.25643   0.02768262  0.028215721            3 
 1236000    1.0412379   -6.8928089    411.70891  0.027758152   0.02820671            4 
 1237000    1.0410256   -6.8584362    412.46829  0.027786869  0.028197829            2 
 1238000     1.049191   -6.8786655    411.86502  0.027723816  0.028189084            5 
 1239000    1.0672827   -6.8639604    411.38269     0.027669  0.028180093            9 
 1240000    1.0526019   -6.9380734    410.95669  0.027618057  0.028171002            3 
 1241000     1.066145   -6.8969295    412.11418  0.027673528  0.028161991            2 
 1242000    1.0260009   -6.8696199    412.94636  0.027707083     0.028153            5 
 1243000    1.0436734   -6.9084828    412.84253  0.027677831  0.028144166            6 
 1244000    1.0608312   -6.8536813    415.40613  0.027827313   0.02813558            3 
 1245000     1.059946   -6.8924689    413.21411   0.02765824   0.02812695            4 
 1246000     1.043419   -6.8871402    414.06839  0.027693178  0.028118231            3 
 1247000    1.0659667   -6.8853235    414.69529  0.027712863  0.028109442            1 
 1248000     1.059501   -6.9380542     412.8653  0.027568463  0.028100709            3 
 1249000    1.0482536    -6.877964     414.3966  0.027648559  0.028091937            4 
 1250000    1.0671605   -6.8797321    414.96356  0.027664237  0.028083362            5 
 1251000    1.0604791   -6.9080555    415.54444  0.027680818   0.02807469            3 
 1252000    1.0733185   -6.8781143    415.49414  0.027655361  0.028066226            7 
 1253000    1.0447737   -6.9603503     414.3668  0.027558313  0.028057514            4 
 1254000    1.0575114   -6.9228029    415.37103  0.027603072  0.028048711            5 
 1255000    1.0419131   -6.9201665    417.44454  0.027718761  0.028040016            1 
 1256000    1.0600572   -6.8638796    416.99979  0.027667183  0.028031428            3 
 1257000    1.0756717   -6.8636928    417.13611  0.027654211  0.028022781            2 
 1258000    1.0535924   -6.8540727    418.05428   0.02769305  0.028014174            5 
 1259000     1.037679   -6.8729834    417.17974  0.027613168  0.028005704            6 
 1260000    1.0306756   -6.8967155    416.60131  0.027552996  0.027997278            4 
 1261000    1.0514764   -6.9134012     417.2451  0.027573692   0.02798871            2 
 1262000    1.0410807   -6.9208498    416.68569  0.027514903  0.027980001            7 
 1263000    1.0813475   -6.9119659    417.54885  0.027550069  0.027971243            4 
 1264000    1.0433163   -6.8812356    418.78082  0.027609495  0.027962855            2 
 1265000    1.0279517   -6.9410794    416.59255  0.027443514  0.027954382            5 
 1266000    1.0533548   -6.8806464    419.09742  0.027586718  0.027945889            2 
 1267000    1.0316835   -6.9299917    418.75518  0.027542435  0.027937424            2 
 1268000    1.0642107   -6.9097095    420.05601  0.027606205  0.027928774            5 
 1269000    1.0606014   -6.8889877     421.4159  0.027673753  0.027920352            5 
 1270000    1.0535681   -6.9099974    420.02927  0.027560976  0.027911856            5 
 1271000    1.0526518   -6.8937496    418.26972  0.027423926  0.027903065            3 
 1272000    1.0217349   -6.9086021    419.87655  0.027507636   0.02789442           10 
 1273000    1.0430148   -6.8800556     420.2548  0.027510788  0.027885634            9 
 1274000     1.035609   -6.9019988    420.64684  0.027514838  0.027877171            6 
 1275000     1.057113   -6.8961992    422.04166  0.027584422  0.027868802            3 
 1276000    1.0304375   -6.8887991    421.34913  0.027517576  0.027860468            4 
 1277000    1.0486887   -6.9231847    420.38872  0.027433354  0.027852004            4 
 1278000    1.0427601   -6.9332901    421.76048  0.027501335  0.027843454            4 
 1279000    1.0239606   -6.9048255    422.12582  0.027503637  0.027835015            5 
 1280000    1.0614703   -6.8990853    421.81161  0.027461693  0.027826745            3 
 1281000    1.0502713   -6.9350456    422.00931  0.027453117  0.027818421            8 
 1282000    1.0269955   -6.9116531     421.8837  0.027423538  0.027809747            3 
 1283000    1.0625253   -6.9321913    421.89562  0.027402937  0.027801149            2 
 1284000    1.0470474   -6.9195222    422.35459  0.027411383  0.027792632            6 
 1285000    1.0505155   -6.8970174    424.07516  0.027501632  0.027784237            2 
 1286000    1.0494429   -6.8982461    423.43467  0.027438743  0.027775748            5 
 1287000    1.0545325   -6.8993347    423.20837  0.027402769  0.027767284            4 
 1288000    1.0545283   -6.9184587    424.39728  0.027458416  0.027758964            6 
 1289000    1.0498954   -6.9394209     423.3928  0.027372175  0.027750554            4 
 1290000    1.0334909   -6.9192118    424.02582  0.027391849  0.027742206            8 
 1291000    1.0495425   -6.9172557    425.65093  0.027475532   0.02773391            2 
 1292000    1.0224803   -6.9205444    424.90929   0.02740643  0.027725593            6 
 1293000    1.0272752   -6.9168637     425.7711  0.027440777  0.027717473            2 
 1294000    1.0407276   -6.9226309    426.69065   0.02747879  0.027709265            2 
 1295000    1.0383172   -6.9169423    425.89922  0.027406642  0.027700992            2 
 1296000    1.0603936    -6.936845    426.44594   0.02742065  0.027692688            6 
 1297000    1.0445447   -6.9065085    426.04128  0.027373508   0.02768428            3 
 1298000    1.0409848   -6.9040297    426.75588  0.027398298  0.027676014            4 
 1299000    1.0455652   -6.9525439    427.61577  0.027432369  0.027667826            2 
 1300000    1.0288386   -6.9277276    428.13723  0.027444694  0.027659614            2 
 1301000    1.0466086   -6.9162489    428.81291  0.027466878  0.027651526            3 
 1302000    1.0506351   -6.8992562    428.98992  0.027457112  0.027643508            3 
 1303000    1.0419944   -6.9496198    426.05215  0.027248155  0.027635405            4 
 1304000    1.0441271   -6.9357891    427.38776  0.027312613  0.027627235            7 
 1305000    1.0455146   -6.9213551    429.24077  0.027410011  0.027619051            4 
 1306000    1.0601149   -6.9391895    427.75032  0.027293921  0.027611047            8 
 1307000    1.0549874   -6.8835628    428.72154  0.027334962  0.027603098            2 
 1308000    1.0536528   -6.9241927    427.88463  0.027260743  0.027594918           14 
 1309000    1.0509684   -6.9318308    429.15374  0.027320712   0.02758654            2 
 1310000    1.0306059   -6.9219113    430.56366  0.027389546  0.027578174            7 
 1311000    1.0378147   -6.9127197    428.56298  0.027241481  0.027569948            5 
 1312000    1.0286786   -6.9333995    428.00367  0.027185193  0.027561705            4 
 1313000    1.0359649   -6.9212797    427.99142   0.02716371  0.027553422            4 
 1314000    1.0436827   -6.9351551     429.1482    0.0272164  0.027545137            3 
 1315000    1.0239067   -6.8686009    430.81374  0.027301251  0.027537012            8 
 1316000    1.0596353   -6.9250217    430.01801  0.027230117  0.027528881            3 
 1317000    1.0380208   -6.8863695    430.60182  0.027246382  0.027520816           17 
 1318000    1.0221837    -6.902845    430.76591  0.027236084  0.027512733            5 
 1319000    1.0253644   -6.9121232    430.08025  0.027172116  0.027504505            3 
 1320000    1.0381935   -6.9111247    430.98608  0.027208717  0.027496171            4 
 1321000    1.0463322   -6.9217933    429.92672  0.027121292  0.027488002            3 
 1322000    1.0512126   -6.9254894    430.90293  0.027162313  0.027479656            3 
 1323000    1.0412804    -6.898254    430.68826   0.02712826  0.027471405            5 
 1324000    1.0218531   -6.9104443    432.15893  0.027200335  0.027463026            5 
 1325000    1.0353947   -6.9574838    431.74634  0.027153858  0.027454831            4 
 1326000    1.0344509   -6.9612564    432.12298   0.02715705  0.027446484            7 
 1327000     1.043441   -6.8964612    434.40343  0.027279793  0.027438264            1 
 1328000    1.0369583   -6.9477619    431.11773   0.02705307  0.027430136            2 
 1329000    1.0486425   -6.9415997    431.98691  0.027087215   0.02742194            2 
 1330000    1.0227398   -6.9492504    432.17448  0.027078601  0.027413747            5 
 1331000    1.0353184    -6.902292    433.37987  0.027133726  0.027405577            4 
 1332000    1.0219595   -6.9309696    432.60627  0.027064957  0.027397426            4 
 1333000    1.0315554   -6.9047604    434.67972  0.027174276  0.027389206            3 
 1334000    1.0498994   -6.8961357    435.72738  0.027219352  0.027381029            3 
 1335000    1.0523208   -6.9404772    434.76987  0.027139193   0.02737292            4 
 1336000    1.0193355   -6.9138208    435.28686  0.027151127  0.027364842            2 
 1337000    1.0269748   -6.9124754     434.8851  0.027105778  0.027356839            2 
 1338000    1.0685806   -6.9025401    435.03279  0.027094718  0.027348872            4 
 1339000    1.0282884     -6.94366    435.26994  0.027089242  0.027340805            3 
 1340000    1.0359473   -6.8852417     435.1037  0.027058688  0.027332651            5 
 1341000    1.0245738   -6.8800905    436.47441   0.02712369  0.027324567            7 
 1342000     1.010331   -6.9269416    436.80869  0.027124236  0.027316591            7 
 1343000    1.0266358   -6.9302426    435.33548  0.027012626  0.027308688            3 
 1344000    1.0370409   -6.9169299    436.62075  0.027072219  0.027300811            3 
 1345000    1.0576105   -6.9556005     435.9524  0.027010682  0.027292869            4 
 1346000    1.0658168   -6.9569459    435.95819  0.026990973   0.02728494            3 
 1347000    1.0480052   -6.9847108    437.24352  0.027050453  0.027277004            8 
 1348000    1.0275193   -6.9424559    436.98953  0.027014684   0.02726905            4 
 1349000    1.0227591    -6.901102    438.99971  0.027118836  0.027261279            3 
 1350000    1.0320151   -6.9108497    439.05076  0.027101899   0.02725364            6 
 1351000    1.0409881   -6.9052428    439.12598  0.027086478  0.027246026            4 
 1352000    1.0397712   -6.9184315    437.99357  0.026996645  0.027238229            3 
 1353000    1.0731968   -6.9254634    438.77458  0.027024796  0.027230335            2 
 1354000    1.0425623   -6.9701663    438.65903  0.026997725  0.027222424            4 
 1355000    1.0195011   -6.9274376    439.86354  0.027051879  0.027214415            5 
 1356000    1.0362948   -6.9629245    438.29396   0.02693547  0.027206473            3 
 1357000    1.0133354   -6.8893641    441.56653  0.027116589  0.027198684            3 
 1358000    1.0372623   -6.9486144    439.74667  0.026984945  0.027191019            5 
 1359000    1.0330237   -6.9211679    441.81694  0.027092037  0.027183306            5 
 1360000    1.0182618   -6.8876399    442.33887  0.027104097  0.027175689            2 
 1361000    1.0249316   -6.9419046     441.4625  0.027030523  0.027168134            7 
 1362000    1.0359362   -6.9234608    441.30424  0.027000994   0.02716059            6 
 1363000     1.054664   -6.9352519    441.86647  0.027015558  0.027152949            4 
 1364000    1.0529197   -6.9342709    441.52418   0.02697484  0.027145246            5 
 1365000      1.03893   -6.9540657    442.04196  0.026986689  0.027137442            6 
 1366000     1.033634   -6.9646705    441.62549  0.026941526  0.027129783            4 
 1367000    1.0143061   -6.9587573    441.92441   0.02694004  0.027121996            4 
 1368000    1.0340494   -6.9129688    441.60176  0.026900692  0.027114331            3 
 1369000    1.0348232    -6.959648    442.37955  0.026928387  0.027106606            5 
 1370000    1.0452638   -6.9690043    442.71253  0.026928986  0.027098987            7 
 1371000    1.0352898   -6.9461537    442.44699  0.026893204  0.027091355            4 
 1372000    1.0440795   -6.9198504    443.58447  0.026942691   0.02708373            5 
 1373000    1.0011423    -6.929663    443.34645  0.026908622  0.027076051            4 
 1374000    1.0496915   -6.9794065    444.13516  0.026936873  0.027068365            5 
 1375000    1.0353291     -6.94447    443.75222  0.026894074  0.027060712            2 
 1376000    1.0406106   -6.9518537    445.26067  0.026965884  0.027053071            4 
 1377000    1.0318236   -6.9116641    445.24545   0.02694538  0.027045488            9 
 1378000    1.0061205   -6.9546888    444.59489  0.026886483   0.02703793            6 
 1379000    1.0465909   -6.9243037    445.29071  0.026909035  0.027030237            3 
 1380000    1.0152223   -6.9375685    446.68012  0.026973437  0.027022722            6 
 1381000    1.0092573    -6.918812    445.60245  0.026888876   0.02701512            3 
 1382000    1.0227965   -6.9455818    447.19375  0.026965373  0.027007499            2 
 1383000    1.0182441   -6.9334426    446.47164  0.026902365  0.027000089            5 
 1384000    1.0192319   -6.9453107    446.06137  0.026858223   0.02699261            2 
 1385000    1.0179015   -6.9408558    446.37227  0.026857538  0.026984934            2 
 1386000    1.0504955   -6.9031326    447.80478  0.026924289  0.026977388            4 
 1387000    1.0405089   -6.9349081    447.61202  0.026893296  0.026969829            4 
 1388000    1.0395753   -6.9801695    447.51413  0.026868043  0.026962233            2 
 1389000    1.0372605   -6.9454831    447.75032   0.02686287  0.026954709            2 
 1390000    1.0339121   -6.9773844    447.72934  0.026842287  0.026947325            4 
 1391000    1.0236067   -6.9532474    448.09613  0.026844964  0.026939972            7 
 1392000    1.0198249   -6.9603514     447.0306   0.02676189  0.026932631            3 
 1393000    1.0447833   -6.9499708    449.66088  0.026900029  0.026925207            2 
 1394000    1.0403235   -6.9878045    448.14781   0.02679028  0.026917817            5 
 1395000    1.0264546   -6.9656137    449.38536  0.026845004   0.02691047            2 
 1396000     1.037906   -6.9359389     449.3194  0.026821836  0.026903028            3 
 1397000    1.0287454   -6.9586086    448.65551  0.026763035  0.026895651            3 
 1398000    1.0203875   -6.9510716    449.63213  0.026802106  0.026888147            4 
 1399000    1.0157664   -6.9586022    447.55539  0.026659244  0.026880678            4 
 1400000    1.0096641   -6.9966467    449.63334  0.026763889  0.026873261            5 
 1401000    1.0397776   -6.9844193    450.76731  0.026812236  0.026865851            3 
 1402000    1.0235392   -6.9299315    450.07478  0.026751948  0.026858395            7 
 1403000   0.99007609   -6.9537749    449.93829  0.026724773  0.026850783            3 
 1404000     1.007303   -6.9637771    450.18384  0.026720313  0.026843148            4 
 1405000    1.0249219   -6.9447246    451.64341  0.026787865  0.026835618            7 
 1406000    1.0200183   -6.9463947    450.49176  0.026700555  0.026828017            3 
 1407000    1.0426394    -6.950066    451.82778  0.026760707  0.026820584            7 
 1408000     1.009985   -6.9569326    450.58107  0.026667914  0.026813122            2 
 1409000    1.0437386   -6.9433073     449.8358  0.026604909  0.026805422            6 
 1410000    1.0098511   -6.9769969    450.87673  0.026647561  0.026797915            6 
 1411000    1.0259799   -6.9516088    451.30404  0.026653912  0.026790293            6 
 1412000    1.0187778   -6.9394392    451.32939  0.026636532  0.026782903            7 
 1413000    1.0120113   -6.9649929    452.25314   0.02667216  0.026775521           11 
 1414000    1.0334508   -6.9521656    453.67067  0.026736838  0.026768158            5 
 1415000    1.0212259   -6.9572944    453.55917  0.026711376  0.026760767            2 
 1416000    1.0344707   -7.0319492    451.17919  0.026552448  0.026753393            9 
 1417000    1.0381188   -6.9840541    452.74463  0.026625772  0.026745887            6 
 1418000   0.99998895   -6.9517069    453.49727  0.026651226  0.026738552            6 
 1419000    1.0381743   -6.9783384    453.74861  0.026647205  0.026731158            6 
 1420000    1.0454724   -6.9657692    454.96799  0.026699999  0.026723795            5 
 1421000    1.0379871   -6.9405746    454.46766  0.026651868  0.026716317            3 
 1422000    1.0287046   -6.8960086    456.09396  0.026728432  0.026709089            4 
 1423000    1.0310145   -6.9652701    454.20726   0.02659916  0.026701897            6 
 1424000    1.0351126   -6.9461657    455.50523  0.026656439  0.026694542            6 
 1425000    1.0113599   -6.9272024    457.35702  0.026746025  0.026687287            8 
 1426000   0.99657663   -6.9395451    457.01695  0.026707395  0.026680197            4 
 1427000    1.0049285   -6.9700381    454.85988  0.026562712   0.02667268            5 
 1428000    1.0450212   -6.9663088    457.00999  0.026669584   0.02666541            4 
 1429000    1.0252978   -6.9642705    455.95458  0.026589373  0.026658147            7 
 1430000    1.0076064   -6.9750421    455.75191  0.026558969  0.026650898            4 
 1431000    1.0162186    -6.974364    455.19701  0.026508095  0.026643654            4 
 1432000    1.0174543   -6.9338213    456.96991  0.026592755  0.026636346            4 
 1433000    1.0381893   -7.0039049    455.64232  0.026496995  0.026628902            7 
 1434000    1.0178305   -7.0042597    454.82782  0.026431184  0.026621359            4 
 1435000    1.0231837   -6.9833424    456.62965  0.026517401  0.026613814            7 
 1436000    1.0227565   -6.9395076    455.61922  0.026440298  0.026606373            4 
 1437000    1.0140653    -7.001682      455.779  0.026431165  0.026598882            6 
 1438000    1.0185921   -6.9885255     457.0901  0.026488763  0.026591449            6 
 1439000    1.0090462    -7.015801    457.08051    0.0264698  0.026584012            6 
 1440000     1.019445   -6.9584836    459.11422   0.02656911  0.026576717            5 
 1441000    1.0251387   -6.9766174     457.0461  0.026431072  0.026569467            8 
 1442000    1.0297232   -6.9942928    457.94338  0.026464597  0.026562255            6 
 1443000    1.0333748   -6.9596836    459.56563  0.026539942   0.02655508            4 
 1444000    1.0202963   -7.0061441    457.44086  0.026398942  0.026547894            6 
 1445000     1.006074   -7.0304741    459.08319  0.026475386  0.026540816            4 
 1446000    1.0299937   -7.0074819     459.6079  0.026487315  0.026533583            6 
 1447000    1.0391012   -6.9718546    460.08755  0.026496634  0.026526466            2 
 1448000    1.0046623   -7.0242699    460.16023  0.026482518  0.026519379            3 
 1449000    1.0172358   -6.9973387    462.24187  0.026583959  0.026512211            3 
 1450000    1.0042271   -6.9580194    462.86931  0.026601684  0.026505309            5 
 1451000    1.0202248   -6.9764544    461.10837  0.026482217  0.026498281            2 
 1452000    1.0240003    -7.009171    461.22451  0.026470644  0.026491195            8 
 1453000    1.0114038    -6.992708    460.98963  0.026438955  0.026484143            4 
 1454000    1.0272266   -6.9840098     461.5059  0.026450361  0.026477144            3 
 1455000    1.0239114   -6.9568311    462.64615  0.026497489  0.026470274            6 
 1456000    1.0127601   -7.0214915    462.72112   0.02648358  0.026463247            4 
 1457000    1.0270988   -6.9856302    463.39084  0.026503708  0.026456276           10 
 1458000    1.0479535   -6.9545019    464.28201  0.026536466  0.026449364            8 
 1459000   0.99124204   -6.9810975    464.46753  0.026528874  0.026442486            4 
 1460000    1.0067106   -6.9703023    463.62455  0.026462588  0.026435425            4 
 1461000    1.0041469   -6.9722534     464.1542  0.026474686  0.026428501            2 
 1462000    1.0091929   -6.9742135     464.8251  0.026494819  0.026421576            3 
 1463000    1.0005851   -6.9686771    466.07579  0.026547949  0.026414618            3 
 1464000    1.0519304   -6.9711692    463.83114  0.026402046  0.026407803            5 
 1465000      1.03057   -6.9667759    466.30553  0.026524774  0.026400958            5 
 1466000    1.0258061   -6.9903262    467.47782  0.026573319  0.026394199            5 
 1467000   0.99698576   -6.9814231    467.66444  0.026565806  0.026387573            5 
 1468000    1.0072977   -6.9972467    464.55464  0.026371176  0.026380893            3 
 1469000    1.0117779    -7.006595    464.58874  0.026355159  0.026374092            5 
 1470000    1.0280212   -6.9710021    467.01159   0.02647458  0.026367307            4 
 1471000    1.0330018   -6.9827732    466.71028  0.026439513  0.026360441            4 
 1472000   0.99882358   -6.9906902    466.01968  0.026382455  0.026353508            4 
 1473000   0.99928567   -6.9753673    467.34734  0.026439655  0.026346684            5 
 1474000    1.0082977   -7.0036862    466.69721  0.026384962  0.026339753            8 
 1475000    1.0077898   -6.9814889    468.74331  0.026482673  0.026333002            5 
 1476000    1.0182328   -6.9955052    466.50109  0.026338137  0.026326316            3 
 1477000    1.0226785   -7.0049515     466.2331  0.026305185  0.026319431            3 
 1478000    1.0211815   -6.9875429     467.7761  0.026374385  0.026312409            4 
 1479000    1.0221797   -7.0010238     468.4707  0.026395689  0.026305607            1 
 1480000    1.0209194   -7.0233905    467.97615  0.026350008  0.026298864            4 
 1481000     1.025235   -7.0417748    467.54924  0.026308195  0.026291909            3 
 1482000    1.0329884   -7.0185148    467.23265  0.026272641   0.02628494            6 
 1483000     1.010444   -7.0193136    467.46234  0.026267832  0.026277939            4 
 1484000    1.0088724   -6.9925693    468.54739  0.026311062  0.026271006            3 
 1485000   0.99913025   -6.9412363    470.14171  0.026382812  0.026264116            2 
 1486000    1.0031629   -7.0232275     468.6139   0.02627938  0.026257205            4 
 1487000     1.000713   -6.9940857    468.17904  0.026237337   0.02625016            3 
 1488000    1.0163425   -6.9964325    467.82858  0.026200077  0.026243047            2 
 1489000    1.0323738   -7.0275319    467.36756   0.02615668  0.026236057            4 
 1490000    1.0175339   -7.0135651    469.26706  0.026245362  0.026228902            6 
 1491000    1.0082267    -7.002079    467.82376  0.026147092  0.026221729            5 
 1492000    1.0057939   -7.0288667    469.33652  0.026214059  0.026214553            3 
 1493000    1.0150232   -7.0312087    468.50749  0.026150229   0.02620737            3 
 1494000     1.018989   -7.0200307     468.1581  0.026113237  0.026200062            3 
 1495000    1.0358447   -7.0108637    469.69168  0.026181253  0.026192777            2 
 1496000    1.0186924   -7.0175377    469.17412  0.026134922  0.026185523            6 
 1497000    1.0321791   -7.0277729    468.39838  0.026074281  0.026178248           11 
 1498000    1.0038758   -7.0034901    469.42946  0.026114234  0.026170886            3 
 1499000    1.0122143   -7.0211338    468.95394  0.026070377   0.02616353            8 
 1500000      1.01285   -6.9982562    469.44388  0.026080216  0.026156233            3 
 1501000    1.0154188   -6.9977665    469.26775  0.026053062  0.026148782            2 
 1502000   0.99097795   -6.9995256    469.58575  0.026053359  0.026141461            6 
 1503000   0.99382867   -7.0021192     469.7636  0.026045886  0.026134126            5 
 1504000    1.0111788   -6.9982241    471.84384   0.02614383  0.026127012            9 
 1505000    1.0053479   -6.9956899    472.02785  0.026136647  0.026119965            2 
 1506000   0.99302322   -6.9985403    472.15061  0.026126085  0.026112861            3 
 1507000    1.0045493   -6.9786364    472.04005  0.026102635  0.026105722            3 
 1508000    1.0141732   -7.0037579    472.50476  0.026111006  0.026098713            5 
 1509000    1.0338674   -7.0026496    471.54058  0.026040456   0.02609172            2 
 1510000    1.0093084   -7.0040861    473.39984  0.026125819  0.026084693            3 
 1511000    1.0144427   -7.0054294    474.68276  0.026179283  0.026077817            4 
 1512000   0.98679419   -7.0557724    473.30391  0.026085974  0.026070852            4 
 1513000    1.0251037   -7.0107929    473.89908  0.026101514  0.026063993            2 
 1514000    1.0034361     -6.94798    475.18582  0.026155098  0.026057217            4 
 1515000    1.0107893   -7.0032134    473.19423  0.026028285  0.026050371            3 
 1516000   0.99362947   -6.9890309    474.36696  0.026075581   0.02604338            5 
 1517000    1.0059348   -6.9931486    474.49726  0.026065549  0.026036396            5 
 1518000   0.98952542   -7.0152749    474.23734  0.026034109  0.026029321            4 
 1519000    1.0027749   -6.9937256    475.41787  0.026081735  0.026022166            3 
 1520000    1.0205203   -7.0162723    473.25171  0.025945817  0.026015109            2 
 1521000   0.99299365   -7.0014562     474.6044  0.026002871  0.026007987            4 
 1522000    1.0221472   -7.0292902    473.29712  0.025914209   0.02600059            3 
 1523000    1.0049311   -6.9777795    475.57036  0.026021578  0.025993302            2 
 1524000    1.0116295   -7.0108988    473.97239  0.025917126  0.025986083            1 
 1525000   0.99333774    -7.019072    474.28653  0.025917297  0.025978761            8 
 1526000    1.0197083   -7.0119975     474.6601  0.025920713  0.025971509            6 
 1527000   0.97741885   -7.0154745    474.91538   0.02591767  0.025964265            4 
 1528000   0.99394035   -7.0280937    474.22509  0.025863061  0.025956954            4 
 1529000    1.0101642   -7.0098892     476.4379  0.025966749  0.025949765            4 
 1530000    1.0071467   -7.0216214    475.93527    0.0259224  0.025942593            6 
 1531000    1.0428959   -7.0380311    475.56859   0.02588551  0.025935368            3 
 1532000    1.0157712   -7.0320659     476.7068  0.025930526  0.025928294            3 
 1533000    1.0181394   -7.0489031    475.74813  0.025861499  0.025921287            6 
 1534000    1.0217656   -7.0416636    475.54918  0.025833832  0.025914166            5 
 1535000    1.0311524   -7.0397526    478.30134  0.025966414  0.025906998            5 
 1536000    1.0218177   -7.0288057     476.5377  0.025853825  0.025899867            9 
 1537000   0.99924264   -7.0392365    477.09912  0.025867443  0.025892762            6 
 1538000   0.99397211   -7.0419153    478.21093  0.025910865  0.025885669            8 
 1539000    1.0156701   -7.0340334    477.31439  0.025845483  0.025878631            3 
 1540000    1.0071333    -7.009831    478.28543  0.025881246  0.025871522            3 
 1541000    1.0168778   -7.0512706     479.1475   0.02591107  0.025864444            4 
 1542000   0.98400369   -7.0149779    479.15069  0.025894438   0.02585746            6 
 1543000   0.99711826   -7.0115996    479.90156  0.025918209  0.025850537            3 
 1544000   0.99614551     -7.03116    477.88793  0.025792742  0.025843472            5 
 1545000    1.0134653   -7.0403032    477.49998  0.025755123  0.025836224            6 
 1546000    1.0295711   -7.0521984    480.03624  0.025875175  0.025828977            3 
 1547000    1.0023922   -7.0484349    479.01821  0.025803609  0.025821706            2 
 1548000     1.032145    -7.019037    480.12407  0.025846472  0.025814529            5 
 1549000    1.0071553    -7.036141    479.46746  0.025794462  0.025807366            5 
 1550000   0.99844448   -7.0530468    478.04276  0.025701223  0.025800295            5 
 1551000   0.99278114    -7.014596    482.04036  0.025899439  0.025793189            4 
 1552000    1.0099238   -7.0655598    479.50874  0.025746818  0.025786004            6 
 1553000   0.99521492   -7.0228031    479.75749  0.025743587   0.02577881            6 
 1554000   0.98950181   -7.0138851    480.83532   0.02578482  0.025771724            3 
 1555000     1.024913   -7.0465644    479.91982  0.025719176  0.025764615            4 
 1556000    1.0184138   -7.0192543    480.04526  0.025709365  0.025757432           10 
 1557000    1.0165208    -7.016687    481.31504  0.025760814   0.02575037            3 
 1558000    1.0112021   -7.0855705      479.351  0.025639228  0.025743183            3 
 1559000   0.98004542   -7.0484332    480.49042  0.025683687  0.025735971            6 
 1560000    1.0088497   -7.0486503     480.7887  0.025683157   0.02572872            3 
 1561000    0.9960211    -7.014154    482.29751  0.025747251   0.02572146            5 
 1562000   0.99117848    -7.054143    481.38066  0.025681853  0.025714233            3 
 1563000     1.008543   -7.0236109    482.14623  0.025706239  0.025707064            3 
 1564000    1.0237967   -7.0443152    480.44011  0.025598897  0.025699781            2 
 1565000   0.99254519    -7.012537     483.3894  0.025739585  0.025692518            3 
 1566000   0.98872348   -7.0278058    482.62868  0.025682667   0.02568542            3 
 1567000    1.0064235   -7.0250958    482.56844  0.025663074  0.025678265            3 
 1568000   0.97754452   -7.0663902     480.8546  0.025555623  0.025671055           10 
 1569000    1.0428857   -7.0421551    481.78435  0.025588716  0.025663693            3 
 1570000    1.0027385   -7.0646316    482.70758  0.025621421  0.025656425            7 
 1571000   0.99697561   -7.0162089    483.13639  0.025627859  0.025649069            7 
 1572000    1.0084002   -7.0215473    483.91947  0.025653068  0.025642053            7 
 1573000   0.98239342   -7.0457408    483.31573  0.025604775  0.025634773            3 
 1574000   0.96753197   -7.0226279    482.96089  0.025569721   0.02562752            5 
 1575000   0.99183504   -7.0812566    482.67236   0.02553822  0.025620227            6 
 1576000   0.99896619   -7.0310014    482.82791   0.02553024  0.025613044            3 
 1577000    1.0069917   -7.0270576    484.59782  0.025607579  0.025605793            4 
 1578000    1.0109785     -7.04711    482.84621  0.025498849  0.025598596            2 
 1579000   0.99452982   -7.0650879    482.35108  0.025456569  0.025591256            6 
 1580000    1.0069309    -7.045684    483.92922  0.025523693  0.025583984            3 
 1581000    1.0118295   -7.0300847    484.13632  0.025518465  0.025576768            6 
 1582000    1.0069252   -7.0539325    484.80832  0.025537733  0.025569409           10 
 1583000   0.96781275   -7.0300972     484.3955  0.025499869  0.025562185            3 
 1584000    1.0036136    -7.050666    484.55678  0.025492255  0.025554982            5 
 1585000   0.99887751   -7.0841846     484.9999  0.025499469  0.025547783            4 
 1586000   0.99159198   -7.0707387    485.21573  0.025494731  0.025540577            2 
 1587000    1.0143312    -7.010228    486.57075  0.025549819  0.025533421            3 
 1588000   0.99049058   -7.0349751    488.07592  0.025612716  0.025526361            5 
 1589000    0.9925577   -7.0758986    486.52998  0.025515522  0.025519257            6 
 1590000    1.0010022   -7.0153612    486.49557  0.025497671   0.02551221            2 
 1591000       0.9883   -7.0260514    487.13353   0.02551506    0.0255052            5 
 1592000    1.0362621   -7.0753595    485.30519  0.025403329  0.025498019            4 
 1593000   0.97654093    -7.056665    486.88817  0.025470191  0.025490851            5 
 1594000    1.0133125   -7.0469912    485.56988  0.025385293   0.02548366            3 
 1595000   0.99247062    -7.056829     487.0686   0.02544768  0.025476438            6 
 1596000    1.0149126   -7.0207626    487.53924   0.02545631  0.025469185            3 
 1597000   0.98470714   -7.0528077    488.24844  0.025477377  0.025461994            2 
 1598000   0.99286963   -7.0637514    487.17806  0.025405614  0.025454705            4 
 1599000   0.98821784   -7.0478727    487.65934  0.025414808  0.025447454            4 
 1600000   0.99636005   -7.0447651    488.31874  0.025433268  0.025440213            3 
 1601000    1.0033037   -7.0484947    488.38543  0.025420853  0.025433091            3 
 1602000   0.97757609   -7.0681077    487.21094   0.02534389  0.025425875            5 
 1603000    1.0145406   -7.0542476    488.26262  0.025382752  0.025418611            4 
 1604000    0.9924194   -7.0485365    487.93933  0.025350131  0.025411288            4 
 1605000   0.97562063   -7.0749895    487.44807   0.02530883  0.025403948            6 
 1606000    1.0048498   -7.0961718    487.62867  0.025302442  0.025396637            6 
 1607000   0.98588052   -7.0462351    488.28861  0.025320919  0.025389211            2 
 1608000   0.98273937   -7.0773594    487.37826  0.025257994   0.02538185            6 
 1609000    1.0231107   -7.0335035    488.89947  0.025321083   0.02537438            4 
 1610000   0.99851042   -7.0538705     487.5911  0.025237635  0.025367186            5 
 1611000    1.0013404   -7.0680607    488.14341  0.025250538  0.025359728            4 
 1612000   0.96319018   -7.0488529    489.42493  0.025301124  0.025352367            4 
 1613000   0.98858836   -7.0658076     489.4185  0.025285105  0.025345104            7 
 1614000   0.97385042   -7.0521057     491.1163  0.025357099  0.025337836            4 
 1615000   0.99930413    -7.069412    488.67274  0.025215311  0.025330478            4 
 1616000    1.0250939   -7.0699624    489.52516  0.025243666  0.025323205            7 
 1617000    1.0187034   -7.0610027    489.82389  0.025243449  0.025316001            6 
 1618000   0.99563582   -7.0368035    491.74811  0.025326952  0.025308713            4 
 1619000    1.0047685   -7.0510691    489.94745  0.025218625  0.025301392            4 
 1620000    1.0107729   -7.0680137    489.56209  0.025183235  0.025294014            3 
 1621000   0.99554653   -7.0460026    490.66756   0.02522453  0.025286613            5 
 1622000    0.9760475   -7.0523097     490.7125  0.025211288  0.025279236            5 
 1623000   0.97996057   -7.0306965    489.96337   0.02515729  0.025271756            3 
 1624000    0.9930162   -7.0990523    489.34696  0.025110168  0.025264321            4 
 1625000   0.97295669   -7.0458393    490.68816  0.025163495  0.025256957            3 
 1626000   0.97252617   -7.0478187    490.59011  0.025142995  0.025249491            4 
 1627000   0.98512373   -7.0450391    491.26066  0.025161886  0.025242207           11 
 1628000   0.98080802   -7.0782268    492.23589   0.02519635  0.025234819            6 
 1629000    1.0027493   -7.0750358    490.85039  0.025110006  0.025227465            4 
 1630000   0.95544981   -7.0328979     492.8102  0.025194796  0.025220145            2 
 1631000    1.0156901   -7.0581365    492.87533  0.025182676  0.025212883            4 
 1632000      1.00408    -7.103391    491.42048  0.025092957  0.025205559            3 
 1633000   0.99586833   -7.0558987    492.48651  0.025131992  0.025198222            6 
 1634000   0.95880986   -7.0566263    493.54074  0.025170376  0.025190909            5 
 1635000   0.99592298   -7.0361245    494.30977  0.025194178  0.025183697            7 
 1636000   0.98910547   -7.0348503    494.41601  0.025184189  0.025176466            3 
 1637000   0.99199806   -7.0283497     494.7397  0.025185283  0.025169181            5 
 1638000    1.0138808   -7.0886613    492.42717  0.025052257  0.025161903            4 
 1639000   0.98889424   -7.0315952    493.98236  0.025116044  0.025154539            4 
 1640000   0.97137378   -7.0993093    493.70768  0.025086772  0.025147184            5 
 1641000   0.97690233   -7.0802913    492.80582  0.025025687  0.025139761            6 
 1642000   0.97505816   -7.0511718    493.44471   0.02504287  0.025132367            3 
 1643000    0.9781021   -7.1240661    492.76111  0.024992956  0.025124841            7 
 1644000   0.97665045   -7.0698245    494.35443  0.025058517  0.025117356            4 
 1645000     1.004733   -7.0370697    494.04188  0.025027451  0.025109775            4 
 1646000   0.99016927   -7.0763356    493.10458  0.024964792  0.025102307            7 
 1647000    1.0004423   -7.0959587    492.83775  0.024936134  0.025094756            6 
 1648000   0.98960271   -7.0538417    494.44056  0.025002051  0.025087096            2 
 1649000   0.96034657   -7.1115479    492.63295   0.02489554  0.025079496            4 
 1650000   0.99703522    -7.097418    493.59177  0.024928877  0.025071963            9 
 1651000    1.0002541   -7.0596541    493.74283  0.024921403  0.025064524            5 
 1652000    1.0157775   -7.0924775    493.77849  0.024908116  0.025056961            7 
 1653000   0.98618304   -7.0701467    493.54429  0.024881241  0.025049391            6 
 1654000   0.99982519   -7.0740268    496.00186  0.024990017  0.025041752            5 
 1655000    1.0060359   -7.0723851    494.36495  0.024892495  0.025034201            5 
 1656000   0.96263752   -7.0660423    495.51126  0.024935148   0.02502667            3 
 1657000    1.0028378   -7.0454319    495.75535  0.024932375  0.025019224            3 
 1658000   0.98103522   -7.0342404    497.10489  0.024985167  0.025011703            3 
 1659000   0.96784425   -7.0534149    496.34017  0.024931694  0.025004194            2 
 1660000    1.0078139   -7.0790861    495.04398  0.024851605  0.024996584           10 
 1661000   0.97374444   -7.0532175    496.30536  0.024899928  0.024989024            2 
 1662000    1.0006612   -7.0685387    495.43994  0.024841553  0.024981402            5 
 1663000    1.0085424   -7.1020287      495.498  0.024829525  0.024973724            4 
 1664000   0.98705271   -7.0837029    495.22713  0.024801038  0.024966023            7 
 1665000   0.97353698   -7.0886306    496.96011  0.024872879   0.02495847            3 
 1666000    0.9740392   -7.1266095    494.61449  0.024740621  0.024950826            4 
 1667000    0.9944631   -7.1094823     495.5182  0.024770956  0.024943057            6 
 1668000   0.97337746    -7.072563    495.48415  0.024754404  0.024935366            9 
 1669000   0.97169733   -7.0960831    498.03029  0.024866701  0.024927685            3 
 1670000   0.99157118   -7.0860765    496.25415  0.024763181  0.024919986            3 
 1671000   0.99066971   -7.0859504    496.97159   0.02478414  0.024912366           10 
 1672000   0.98422634    -7.066992    497.08512  0.024774976  0.024904695            2 
 1673000   0.97804688   -7.1121172     496.2302  0.024717583  0.024897082            3 
 1674000   0.97280941    -7.072227    497.12862  0.024747542  0.024889427            4 
 1675000   0.98565447   -7.0689876    497.90192   0.02477124  0.024881837            7 
 1676000   0.98412955    -7.096492     496.1688  0.024670286  0.024874197            5 
 1677000   0.98759261   -7.0489467     498.1402  0.024753538  0.024866668            4 
 1678000   0.99593796   -7.0706701    498.91258  0.024777145  0.024859097            2 
 1679000   0.99542876   -7.0903789    498.83456  0.024758515  0.024851572            5 
 1680000    1.0019077    -7.081134    498.69953   0.02473708  0.024844012            3 
 1681000    1.0010302   -7.0956832    497.86745  0.024681115  0.024836482           19 
 1682000   0.98088291   -7.0588554    498.72492  0.024708924   0.02482887            3 
 1683000   0.97555224   -7.0861303    498.75493  0.024695728   0.02482132            4 
 1684000   0.97432747   -7.0733891    499.10421  0.024698348   0.02481385            3 
 1685000   0.99683398   -7.0376697    498.91731  0.024674446  0.024806368            5 
 1686000    0.9826193   -7.1638515    498.41801  0.024635133  0.024798781            5 
 1687000   0.99019525   -7.0702094    500.99136  0.024747647  0.024791247            4 
 1688000   0.97159565   -7.0853335    501.44949  0.024755603  0.024783805            2 
 1689000   0.96935954    -7.071593    501.07566  0.024722501  0.024776352            8 
 1690000   0.96592926    -7.064227    500.86483  0.024697477  0.024768856            5 
 1691000   0.96446228   -7.0645564    498.85204   0.02458368  0.024761279            4 
 1692000   0.96822382   -7.0635477    500.92047  0.024671024  0.024753759            4 
 1693000   0.99188815   -7.0843727    500.31774  0.024626784  0.024746281            6 
 1694000   0.99664921    -7.073328    500.09613  0.024601344  0.024738645           11 
 1695000   0.99367384   -7.0624867    501.18713  0.024640468  0.024731112            4 
 1696000   0.98110482   -7.0505187    503.66956  0.024747915   0.02472367            2 
 1697000   0.98301259   -7.0356179    503.39809  0.024720001  0.024716346            3 
 1698000   0.98454797   -7.0867599    502.90382  0.024681184  0.024708924            8 
 1699000    0.9756166   -7.0996775    501.75935  0.024610523  0.024701364            4 
 1700000    0.9877751   -7.0755251    501.75155  0.024595664   0.02469385            6 
 1701000   0.96435437   -7.0858823    502.42346  0.024614122  0.024686404            3 
 1702000    0.9841777   -7.0991672    502.51653  0.024604217   0.02467886            7 
 1703000   0.96607686   -7.0913828    502.49056  0.024588499  0.024671385            3 
 1704000   0.99549574   -7.0780736    501.30562   0.02451612  0.024663959            7 
 1705000   0.96864596   -7.1330739    501.22736  0.024497916   0.02465652            3 
 1706000   0.98326337   -7.0964042    502.77198  0.024559006  0.024648979            3 
 1707000   0.97349618   -7.0839552    502.71391  0.024541784  0.024641614            6 
 1708000   0.99693409   -7.0897245     503.6135  0.024571306  0.024634044            3 
 1709000   0.97410343   -7.1163654    502.67769  0.024511298  0.024626507            3 
 1710000    0.9755495   -7.1293392    503.33442  0.024528968  0.024618863            3 
 1711000   0.98081073   -7.0915254    502.55245  0.024476546  0.024611279            6 
 1712000   0.99735092   -7.1065447    504.47869  0.024556011  0.024603758            2 
 1713000   0.97426363     -7.11807    503.57523  0.024497725  0.024596216            3 
 1714000   0.97186863   -7.0849517    503.34568  0.024472271  0.024588651            4 
 1715000   0.98721475   -7.1581474     502.7782  0.024430428   0.02458106            6 
 1716000   0.99276416   -7.0863507    504.46351  0.024498034  0.024573531            3 
 1717000   0.99137214   -7.1096646    504.61499  0.024491118  0.024566045            6 
 1718000   0.98156475   -7.1293488    505.17786  0.024504165  0.024558651            4 
 1719000   0.97359339   -7.1056163    505.39361  0.024500369   0.02455114            6 
 1720000    0.9792791   -7.1037232    505.00151  0.024467127  0.024543574            3 
 1721000   0.95935622   -7.1157767    503.82081  0.024395739  0.024536015            8 
 1722000   0.98367519   -7.1353725    503.41815  0.024362086  0.024528444            6 
 1723000    1.0022808   -7.1136592    505.24156  0.024436137  0.024520879            7 
 1724000   0.97991904   -7.1095375    505.99771  0.024458513  0.024513364            5 
 1725000   0.97637986   -7.1279617    505.49627   0.02442011  0.024505849            4 
 1726000   0.98328099   -7.0727703    506.14941  0.024437495  0.024498373            5 
 1727000   0.97719371   -7.1126908    504.53422  0.024345407  0.024490776            6 
 1728000   0.95921482   -7.0696148    505.82267  0.024393454  0.024483278            6 
 1729000   0.96231163   -7.0667971    507.68558  0.024469133  0.024475882            2 
 1730000   0.97409195   -7.0641808     506.1542  0.024381223  0.024468535            4 
 1731000   0.98315614   -7.0771422    509.12694  0.024510251  0.024461128            5 
 1732000   0.97298759   -7.1222828    506.09084  0.024350021  0.024453734            6 
 1733000   0.96851684   -7.1296103    506.73339  0.024366868  0.024446184            9 
 1734000   0.96122287    -7.097662    507.65295  0.024397009  0.024438764            6 
 1735000   0.97158024    -7.079456    507.41377  0.024371459  0.024431281            3 
 1736000    0.9639486   -7.1173852    507.04423  0.024339681  0.024423794            6 
 1737000   0.95110164   -7.0799663    508.55466  0.024398132  0.024416401            9 
 1738000   0.94474702    -7.098094    508.01118  0.024358035  0.024408923            5 
 1739000   0.99162739    -7.173988    505.55773  0.024226458  0.024401227            5 
 1740000   0.97804187   -7.1310066    506.79984  0.024272023  0.024393554            2 
 1741000   0.96335072   -7.0917936    506.51384  0.024244392  0.024386047            6 
 1742000   0.96349586   -7.1056766    506.99832  0.024253651  0.024378527            4 
 1743000   0.95994339   -7.1077827    509.02004  0.024336395  0.024370983            2 
 1744000   0.96404272   -7.1109736    510.60219   0.02439804  0.024363576            2 
 1745000   0.96601749   -7.0995788    508.48544  0.024282972  0.024356116            3 
 1746000   0.95907765   -7.1052294    508.31361  0.024260863  0.024348628            7 
 1747000    1.0016825   -7.1051471     507.6601  0.024215803  0.024341072            6 
 1748000   0.98921769   -7.1059973    506.96295  0.024168714   0.02433351            4 
 1749000   0.95508738   -7.1172869    508.12179   0.02421011  0.024325941            6 
 1750000    0.9609994   -7.1509059    507.26463  0.024155459   0.02431834            4 
 1751000   0.97257424   -7.0781989    510.78685  0.024309292  0.024310943            4 
 1752000   0.96151732    -7.145061    509.20175  0.024220023   0.02430352            9 
 1753000   0.96109322   -7.1384686    509.20653  0.024206433  0.024296096            5 
 1754000   0.97841156   -7.1290969    508.25263  0.024147312  0.024288629            7 
 1755000   0.97686323   -7.1651823     508.0813  0.024125418  0.024281128            3 
 1756000   0.95881561   -7.1141185    508.63018  0.024137727  0.024273639            3 
 1757000    0.9787274   -7.1308939    510.48734  0.024212073  0.024266157            3 
 1758000   0.97814433   -7.1223006    510.56001  0.024201745  0.024258701            4 
 1759000   0.98868319   -7.1336209    508.91828  0.024110208   0.02425115            7 
 1760000   0.96643203   -7.1109294    510.13584  0.024154159  0.024243727           11 
 1761000   0.95094139   -7.1471152    510.90387  0.024176787  0.024236242            5 
 1762000   0.94206551   -7.0871422    513.09261  0.024266582  0.024228881            5 
 1763000   0.96212465   -7.1566982     510.6302  0.024136424  0.024221476            6 
 1764000   0.97656055   -7.1441604    512.05584  0.024190091  0.024214009            5 
 1765000   0.95518573   -7.1516702     511.7652  0.024162663  0.024206573            9 
 1766000    0.9417941   -7.1531455    511.41876  0.024132633  0.024199167            6 
 1767000   0.97438557   -7.1560432    511.73056   0.02413368  0.024191718            2 
 1768000   0.96444613   -7.1175057    512.42119  0.024152583   0.02418429            7 
 1769000   0.95677553   -7.1704941    511.02747  0.024073274  0.024176914            4 
 1770000   0.96426476   -7.1397672    511.52388  0.024083045  0.024169441            9 
 1771000    0.9691123   -7.1476856    510.96214  0.024043014  0.024162024            6 
 1772000    0.9624935   -7.1031744    511.73711  0.024065891   0.02415455            4 
 1773000   0.94704153   -7.1389751    512.22193  0.024075105  0.024147171            5 
 1774000   0.96437358   -7.1262571    513.48177  0.024120714  0.024139893            5 
 1775000   0.96766594    -7.126887    512.96087   0.02408267  0.024132601            5 
 1776000    1.0003118   -7.1194152    513.97966  0.024116913  0.024125391            3 
 1777000   0.98086833   -7.1384584    513.40393  0.024076343   0.02411807            4 
 1778000   0.95990997   -7.1209497    514.06283  0.024093683  0.024110693            4 
 1779000   0.95372578   -7.1615688    512.99168  0.024029964  0.024103275            2 
 1780000   0.96097373   -7.1605195     512.6032  0.023998277  0.024095761            5 
 1781000   0.96554496   -7.1247675     514.6632   0.02408119  0.024088352            8 
 1782000   0.95997475   -7.1530248    511.52391  0.023920871  0.024080878            9 
 1783000   0.99383718   -7.1524027    513.59361  0.024004188   0.02407344            4 
 1784000   0.96582114   -7.1325903    515.03254  0.024057947  0.024065976            4 
 1785000   0.95809069   -7.1080431    514.85087  0.024035988  0.024058585            4 
 1786000    0.9890474   -7.1297185    514.82267  0.024021214  0.024051288            6 
 1787000   0.94899449   -7.1410302    515.89913  0.024057971  0.024044001            4 
 1788000   0.95619122   -7.1235859    515.94903  0.024046841  0.024036838            6 
 1789000   0.95392681   -7.1812267    513.31903  0.023910892  0.024029564           12 
 1790000   0.97022659   -7.1641961    513.57215  0.023909318  0.024022183            4 
 1791000   0.96218408   -7.1393019    515.86955  0.024002864  0.024014833            5 
 1792000   0.98226546   -7.1254724    516.69734  0.024027964   0.02400747            8 
 1793000   0.96619143   -7.1302339    515.77993  0.023971924  0.024000129            5 
 1794000    0.9773597   -7.1261958    516.74133  0.024003221  0.023992866            3 
 1795000    0.9307094   -7.1323975    516.62721   0.02398455  0.023985549            4 
 1796000    0.9724706   -7.1343487    516.76628  0.023977649  0.023978244            5 
 1797000   0.94929878   -7.1206191    518.59273  0.024049005  0.023971066            6 
 1798000   0.95379573   -7.1392775    517.66227  0.023992504  0.023963898           11 
 1799000   0.95974015   -7.1223619    517.47418  0.023970455  0.023956714            3 
 1800000   0.95420737   -7.1254772    517.97222  0.023980195    0.0239496            8 
 1801000   0.94906854   -7.1553453    516.25063  0.023887221  0.023942399            7 
 1802000   0.97682875   -7.1374472    516.98835  0.023908081   0.02393512            5 
 1803000   0.97716691   -7.1847379    516.82464  0.023887254  0.023927692            3 
 1804000   0.96179066   -7.1762527    517.36385  0.023898921  0.023920265            5 
 1805000   0.97099878   -7.1768333     515.9538  0.023820582  0.023912808           11 
 1806000   0.97015323    -7.156837    516.84023  0.023848294  0.023905385            5 
 1807000   0.95607955     -7.15061    518.71529  0.023921568  0.023898019            4 
 1808000   0.97352569   -7.1392921    516.96954  0.023827873  0.023890577            7 
 1809000   0.96579703   -7.1762771    515.80183   0.02376091  0.023883165           12 
 1810000   0.97126746   -7.2111301    514.16552  0.023672446  0.023875652            3 
 1811000   0.96126928   -7.1524908     516.7784  0.023779606   0.02386809            5 
 1812000   0.94324005   -7.1779775    516.48234  0.023752867  0.023860606            4 
 1813000   0.98063944   -7.1831609    517.41869  0.023782804  0.023853145            8 
 1814000    0.9688827   -7.1519635    517.84438   0.02378925  0.023845735            5 
 1815000   0.96037742   -7.1647657    517.22552  0.023747728  0.023838358            3 
 1816000    0.9278963   -7.1758473    518.90974  0.023811937  0.023831023            5 
 1817000   0.95056107     -7.12127    519.62768  0.023831759  0.023823757            4 
 1818000   0.98214827    -7.136646    519.90609  0.023831412  0.023816408            5 
 1819000   0.95795059   -7.1957627    517.96773  0.023729509   0.02380905            3 
 1820000     0.962278   -7.1371996    518.26912  0.023730271   0.02380172            7 
 1821000    0.9332598   -7.1586896    518.58306  0.023731606  0.023794356            5 
 1822000   0.94478509       -7.159     519.6101  0.023765555  0.023787007           10 
 1823000   0.94908256   -7.1612924    519.22571  0.023734947   0.02377965            7 
 1824000   0.95563382   -7.1173674    519.93835  0.023754493  0.023772276            6 
 1825000   0.95497308   -7.1400194    520.81778  0.023781634  0.023764965            7 
 1826000   0.95524401    -7.147588     520.3439  0.023746983  0.023757658            3 
 1827000   0.95746592   -7.1390194    520.86119   0.02375758  0.023750439            4 
 1828000   0.96982997   -7.1395183    519.91942  0.023701651  0.023743109            3 
 1829000   0.95282402    -7.116869     521.5277  0.023761969  0.023735828            5 
 1830000   0.95703928   -7.1252114    521.27531  0.023737491  0.023728604            7 
 1831000      0.95704   -7.1469679    520.99404  0.023711726  0.023721427            4 
 1832000   0.96066009   -7.1681577    521.04568  0.023701132  0.023714307            7 
 1833000   0.95298394   -7.1960633    521.35011  0.023702042  0.023707105            6 
 1834000   0.95146118   -7.1797725    521.88253   0.02371331  0.023699899            8 
 1835000   0.96248956   -7.2045888    520.23581  0.023625604  0.023692593           11 
 1836000   0.94994306    -7.211522    520.78819  0.023637808  0.023685207            6 
 1837000   0.99214096   -7.1940682    521.76809  0.023669393  0.023677907            2 
 1838000   0.93888068   -7.1886287    520.96429  0.023620071  0.023670596            4 
 1839000   0.94757309   -7.1679217    521.72793  0.023641831  0.023663369            6 
 1840000   0.95075145   -7.1506462    521.44351  0.023616101  0.023656198            4 
 1841000   0.96579142   -7.1839871    520.91909  0.023579535  0.023649012            4 
 1842000   0.96140401   -7.1794911    521.64862  0.023599738  0.023641805            8 
 1843000   0.94215593   -7.1114237    524.05748  0.023695853  0.023634584            3 
 1844000   0.94828487    -7.187558    521.54022  0.023569244  0.023627433            3 
 1845000   0.98506191   -7.1838476    520.63179  0.023515438  0.023620138            8 
 1846000   0.94157141   -7.2239586    520.96566  0.023517771  0.023612799            6 
 1847000   0.97081688    -7.187617    521.44211  0.023526535  0.023605506            2 
 1848000   0.93451002   -7.2040817      523.068  0.023587121   0.02359821            3 
 1849000   0.95078748   -7.1663425    524.38112  0.023633546     0.023591            8 
 1850000   0.95254842   -7.1620703    524.50877  0.023626521  0.023583814           11 
 1851000   0.97274414   -7.1647567    524.14161  0.023597227  0.023576653            6 
 1852000   0.96335822   -7.1908586    524.26831  0.023590187  0.023569508            3 
 1853000   0.96159353   -7.1783301    524.44787  0.023585531  0.023562277            6 
 1854000   0.96122307   -7.2076047    522.91219  0.023503784  0.023554993            6 
 1855000   0.95465713   -7.1533761    525.43422  0.023604413  0.023547771            2 
 1856000   0.96174995    -7.153081    523.69722  0.023513704  0.023540675            5 
 1857000   0.94524445   -7.1421892    525.18322  0.023567727  0.023533622            4 
 1858000   0.96842838    -7.185124    524.52566   0.02352555  0.023526467            3 
 1859000   0.97146164   -7.1403894    525.39673  0.023551942  0.023519318            6 
 1860000   0.93673118    -7.125192    525.98638  0.023565698  0.023512286            3 
 1861000   0.94520312   -7.1871255    524.37807  0.023481017  0.023505179            6 
 1862000   0.96133833   -7.1835978    526.71799  0.023573129  0.023498044            6 
 1863000   0.94781603   -7.1580927    526.96076  0.023571335  0.023490992           10 
 1864000   0.97100734   -7.1603139    526.34225  0.023531038  0.023483951            5 
 1865000   0.95746718   -7.1725421    525.52488  0.023481898  0.023476886           10 
 1866000     0.961125   -7.1512368    526.57923    0.0235164   0.02346988           14 
 1867000   0.94631817   -7.1726627    526.59704  0.023504599   0.02346278           10 
 1868000   0.95033583   -7.1456915    525.91126  0.023461423  0.023455682           11 
 1869000   0.94872838    -7.155361    528.69611  0.023573039  0.023448597            4 
 1870000   0.94865484   -7.1932772    525.55801  0.023420589  0.023441489            7 
 1871000   0.95093243   -7.1933124    527.91074   0.02351286  0.023434436            7 
 1872000   0.93616242   -7.1814369    527.23452  0.023470198  0.023427422            3 
 1873000   0.94711351   -7.2065321    526.50013  0.023424992   0.02342038            6 
 1874000   0.97519505   -7.1702836     527.7566  0.023468366  0.023413315            3 
 1875000   0.96402612    -7.192169    527.01019  0.023422675  0.023406219            5 
 1876000   0.94569071   -7.1585559    528.35236   0.02346981  0.023399142            6 
 1877000   0.96277042   -7.1911497    528.60115  0.023468351  0.023392065            4 
 1878000   0.94243976   -7.2273049    525.60298  0.023322816  0.023385024            6 
 1879000    0.9593446    -7.172294    529.13314  0.023466966  0.023377958            3 
 1880000   0.96715864   -7.1859965    528.82176  0.023440681  0.023370946            2 
 1881000   0.93919843   -7.1830057    529.21647  0.023445706  0.023363944            4 
 1882000    0.9564492   -7.2362967    527.34461  0.023350364  0.023356961            9 
 1883000   0.94868561   -7.2134041    527.60662  0.023349558  0.023349785            5 
 1884000   0.95151964   -7.1671736    529.72268  0.023430763   0.02334266            3 
 1885000   0.97325754   -7.1826341    528.25097   0.02335327   0.02333559           10 
 1886000   0.92013006   -7.1834985    529.48043  0.023395211  0.023328557            4 
 1887000    0.9455143   -7.1953517    527.32689  0.023287709   0.02332146            4 
 1888000   0.96032265    -7.182239    528.39246  0.023322407  0.023314371            6 
 1889000   0.95867021   -7.2240187    527.93178  0.023289738  0.023307194            8 
 1890000   0.95033142   -7.1666597    529.33354  0.023339221  0.023300048           14 
 1891000    0.9653928   -7.1677684    530.64346  0.023384605  0.023293018            8 
 1892000   0.93411151   -7.1989846    530.92332  0.023384572  0.023286054            5 
 1893000    0.9616356   -7.1715921    531.64179  0.023403847  0.023279011            6 
 1894000   0.93376614   -7.1961094    530.05581  0.023321709  0.023272011            3 
 1895000    0.9428671   -7.1613817      531.852   0.02338839  0.023265075            4 
 1896000   0.95969736   -7.1749134    531.19463  0.023347162  0.023258135            4 
 1897000   0.93749899   -7.1641579    531.80304  0.023361581   0.02325114           11 
 1898000   0.95124246   -7.2462771    529.52133  0.023249092  0.023244022            9 
 1899000   0.94606457   -7.1891228    529.08707  0.023217793  0.023236845            2 
 1900000   0.96575129     -7.17983    530.24689  0.023256443  0.023229736            4 
 1901000   0.97609733   -7.1856815    530.23165  0.023243541  0.023222764            4 
 1902000   0.96150195   -7.1882598    531.61072  0.023291742  0.023215797            3 
 1903000   0.92032203   -7.2128127     531.9136  0.023292766  0.023208694            9 
 1904000   0.92940963   -7.1682235    531.73343  0.023272647   0.02320162            7 
 1905000   0.94195125   -7.1981658    530.83456   0.02322111   0.02319448            7 
 1906000   0.94770539   -7.2070273    530.75488  0.023205442  0.023187307            6 
 1907000   0.92148947   -7.1594581    532.17075  0.023255146   0.02318024            3 
 1908000   0.94064775   -7.1823422    530.87147   0.02318621  0.023173266           24 
 1909000   0.94423677   -7.2035837    530.77672  0.023169929  0.023166091            6 
 1910000   0.96831334   -7.2165938    529.57956  0.023105565  0.023158984           10 
 1911000   0.94937713   -7.1881302    531.49586  0.023177039  0.023151802            8 
 1912000   0.93508565   -7.2063767    530.77145  0.023133344  0.023144642            8 
 1913000    0.9130687   -7.1611897    533.46169  0.023238443  0.023137594            5 
 1914000   0.95282513    -7.178082    531.96762  0.023161251  0.023130575            7 
 1915000   0.94220221   -7.2129599    531.54916  0.023130947    0.0231234            9 
 1916000   0.93067331   -7.2478523    531.50058  0.023116762  0.023116209            6 
 1917000   0.93542192    -7.211051    531.61627  0.023109732  0.023109022            5 
 1918000   0.93809143   -7.2185695    532.68276   0.02314402  0.023101878            9 
 1919000   0.93417053   -7.2320415     532.3196  0.023116189  0.023094684            5 
 1920000   0.95986365   -7.1809897    533.53723  0.023156998  0.023087542            6 
 1921000   0.94787309    -7.202353    532.04672  0.023080284  0.023080497            6 
 1922000   0.95234326   -7.2034048    532.95483   0.02310765   0.02307348            3 
 1923000   0.93871289   -7.2356733    531.36762  0.023026851  0.023066386           11 
 1924000   0.95837517   -7.1955569     532.4838  0.023063228   0.02305929            5 
 1925000   0.93716337   -7.2088303    533.03239  0.023074995  0.023052174            9 
 1926000   0.95895807   -7.2001001    534.20789  0.023113875  0.023045085            4 
 1927000   0.96358254   -7.2000397     535.0865  0.023139876  0.023037992           11 
 1928000   0.94313859    -7.187105    533.88032   0.02307574  0.023031024            5 
 1929000   0.91844275   -7.1958391    535.13349  0.023117915  0.023024047            6 
 1930000   0.94099318   -7.1944962    535.01996  0.023101035  0.023017043           10 
 1931000   0.94596225   -7.2016459    534.18624  0.023053092  0.023010069            4 
 1932000   0.93982355   -7.1989023    535.80743  0.023111087   0.02300315            6 
 1933000   0.94161985   -7.2036993    535.04707   0.02306635  0.022996209            5 
 1934000   0.94752034   -7.2129701    535.18479  0.023060358  0.022989237            5 
 1935000   0.95196398   -7.1961814    535.63694  0.023067913  0.022982223            6 
 1936000   0.93777766   -7.1627549    536.36524  0.023087347   0.02297528            6 
 1937000   0.95009736   -7.2038429    535.59693  0.023042373  0.022968331           12 
 1938000   0.93151881   -7.1949533    536.54231  0.023071135  0.022961292            3 
 1939000   0.96505944   -7.2031219    535.41739   0.02301089  0.022954305            4 
 1940000   0.92540781   -7.1992008    536.97099  0.023065764  0.022947321            8 
 1941000   0.96837257   -7.1660297    535.76354  0.023002041   0.02294035            5 
 1942000   0.95041389   -7.2325558    535.54999  0.022981033   0.02293345            6 
 1943000   0.94814587   -7.1721532    537.45876  0.023051071  0.022926584            5 
 1944000   0.93785351   -7.2075699     537.7134  0.023050128  0.022919742            8 
 1945000    0.9009936    -7.234519    535.98999  0.022964438  0.022912883            5 
 1946000   0.92862746   -7.1864764    537.56875  0.023020245  0.022906033            7 
 1947000   0.93570968   -7.2102609    537.58149  0.023008966  0.022899143            4 
 1948000   0.94060113   -7.2138894    537.46886  0.022992337  0.022892275            8 
 1949000   0.94212567   -7.2041031     537.0445  0.022962395  0.022885473            4 
 1950000    0.9418062    -7.220179    537.66979  0.022977342   0.02287861            5 
 1951000   0.93543611   -7.2466064     536.7255   0.02292523   0.02287168            6 
 1952000   0.92349088   -7.2284598    537.62805  0.022952017   0.02286478            4 
 1953000   0.92590864    -7.200226     537.9065  0.022952146  0.022857904            4 
 1954000   0.95096293   -7.2451755    537.26553  0.022913064  0.022851032            4 
 1955000   0.94967217    -7.300355    536.42058  0.022865327  0.022844047            5 
 1956000   0.92622976   -7.2262865    539.31203  0.022976825  0.022837128            8 
 1957000   0.92861104   -7.2156216    538.01726   0.02290995  0.022830266            4 
 1958000   0.93328939    -7.232599    539.31099  0.022953311  0.022823418            3 
 1959000   0.93307481   -7.1957584    538.61847  0.022912135  0.022816555            4 
 1960000   0.95645324    -7.237093    537.92431  0.022870932  0.022809713            4 
 1961000   0.94051036   -7.2297352    539.69253   0.02293441  0.022802925           15 
 1962000    0.9353753   -7.2024325    540.11672  0.022940737   0.02279606           10 
 1963000   0.92530372   -7.1825513    540.61785  0.022950325  0.022789245            5 
 1964000    0.9369628   -7.1680807     540.9983  0.022954782   0.02278247            3 
 1965000   0.96391083   -7.2411962    539.36486  0.022873828  0.022775706           10 
 1966000   0.94389924   -7.1954492    541.34944  0.022946314  0.022768918            2 
 1967000   0.93299642   -7.1750726     543.1621  0.023011443   0.02276213            4 
 1968000   0.95811737   -7.1804974    541.79558  0.022941886  0.022755419            8 
 1969000   0.94212756   -7.2399684     539.4528  0.022831082  0.022748669            5 
 1970000   0.94696602    -7.209621    539.87455  0.022837333    0.0227418            9 
 1971000   0.91942472   -7.2145793    540.91117  0.022869574  0.022734876           16 
 1972000   0.91339444   -7.2172176    540.23878  0.022829563  0.022727948            4 
 1973000   0.91662559   -7.2297199    540.41246  0.022825328  0.022721137            4 
 1974000   0.93636439   -7.2164051    540.31822  0.022809786   0.02271429            6 
 1975000   0.93514678    -7.222529    540.43246  0.022803057  0.022707435            3 
 1976000   0.93850297   -7.2051833     540.9602  0.022813774  0.022700604            5 
 1977000   0.93734485   -7.1920403    543.49834   0.02290922   0.02269387            5 
 1978000   0.92147411    -7.212801     542.3701  0.022850105  0.022687132            7 
 1979000   0.95034272   -7.2134374    541.26506  0.022792027  0.022680331            4 
 1980000   0.92377262   -7.2055082     542.8103  0.022845552  0.022673648           10 
 1981000   0.95507039   -7.2380315    542.88571  0.022837191  0.022666961            3 
 1982000   0.93701301   -7.2125359    541.55514  0.022769725  0.022660178            6 
 1983000   0.91283306   -7.2531586    541.59387   0.02275987  0.022653414            9 
 1984000   0.92601148   -7.2258945    543.20829  0.022816209  0.022646697           10 
 1985000   0.92784883   -7.2606411    542.83839  0.022789185  0.022639914            2 
 1986000   0.92424401   -7.2608668    542.56718   0.02276633  0.022633104           11 
 1987000   0.93669629   -7.2078309    542.28359  0.022742979   0.02262642            6 
 1988000   0.91623639   -7.2526629    543.28222    0.0227734  0.022619671            6 
 1989000   0.92767614   -7.2250995    543.84009  0.022785323  0.022612897            7 
 1990000   0.93235799   -7.2428102    543.31416  0.022751849   0.02260611           10 
 1991000   0.92498061   -7.2484201    544.22488   0.02277854  0.022599414            6 
 1992000   0.93375843   -7.2460213    544.33032  0.022771516  0.022592704            5 
 1993000   0.92272081   -7.2429993    544.63349  0.022772767  0.022585992            5 
 1994000   0.94275673   -7.2734579    542.54138  0.022673913  0.022579212            6 
 1995000   0.92768137   -7.2816513    543.53515  0.022704058  0.022572501            4 
 1996000   0.93184884   -7.2298412    543.94488   0.02270979  0.022565743            9 
 1997000   0.93098594   -7.2216419    545.57711  0.022766529  0.022559013            9 
 1998000   0.91467576   -7.2531203     544.3694  0.022704763  0.022552339            8 
 1999000   0.90301675   -7.2500943    544.65204  0.022705187  0.022545586            6 
 2000000   0.91680732   -7.2303133    546.28366  0.022761819  0.022538892            5 
 2001000   0.92123293   -7.2048138    545.49826  0.022717735  0.022532224           11 
 2002000   0.92135978   -7.2099249    544.26237  0.022654944  0.022525538            3 
 2003000   0.93963302   -7.2776192    544.35315   0.02264741  0.022518834            3 
 2004000   0.92353287   -7.2284545    546.21544  0.022713549  0.022512134            6 
 2005000   0.93432889   -7.2424654    545.34921  0.022666218  0.022505384            6 
 2006000   0.94985997   -7.2902962    544.49444   0.02261941   0.02249862            5 
 2007000   0.92212759   -7.2513292    545.56869  0.022652744  0.022491853            6 
 2008000   0.93687229    -7.236815    546.07122  0.022662318  0.022485121           13 
 2009000   0.92829877   -7.2209767    547.00469  0.022689758  0.022478466            5 
 2010000   0.93026351    -7.236229    546.19773  0.022645014  0.022471827           10 
 2011000   0.94592293   -7.2682985    544.90732   0.02258028  0.022465161            6 
 2012000   0.93170516   -7.2715407    545.64358  0.022599552  0.022458415            7 
 2013000   0.91591131    -7.264202     545.4652  0.022580941  0.022451726            7 
 2014000    0.9228645     -7.24806    546.66094  0.022619205  0.022444995           12 
 2015000   0.92997737   -7.2883497     545.3792  0.022554971  0.022438308            5 
 2016000   0.93585713   -7.2430895    545.85012  0.022563249  0.022431568            4 
 2017000   0.91316223   -7.2484832    547.58304  0.022623659  0.022424877            4 
 2018000   0.95439085   -7.2289953    546.51484  0.022568336  0.022418148           13 
 2019000   0.93322372   -7.2451333    547.26972  0.022588316  0.022411424            6 
 2020000   0.93742112   -7.2586455    546.78051  0.022556952  0.022404758            6 
 2021000   0.94662333    -7.257243    546.56949  0.022537089  0.022398037            2 
 2022000   0.91710441    -7.244748    548.02945  0.022586113  0.022391366            6 
 2023000   0.90986674   -7.2427349    546.21845  0.022500348  0.022384669            8 
 2024000      0.92745   -7.2425513    548.42839   0.02258022  0.022377929            4 
 2025000   0.95008428   -7.2567235    546.85527  0.022504332  0.022371185            4 
 2026000   0.92815091   -7.2709535     546.2931  0.022470101  0.022364431            6 
 2027000   0.93186167   -7.2783048    546.64437  0.022473457  0.022357723            4 
 2028000   0.93009025   -7.2576843    546.29227  0.022447907  0.022350967            4 
 2029000   0.92326886    -7.266916    547.88333   0.02250219  0.022344187            5 
 2030000   0.93384363   -7.2658596    547.07062  0.022457743  0.022337386            4 
 2031000    0.9205011   -7.2866388    547.82232  0.022477528  0.022330514            6 
 2032000   0.91408482    -7.265387    546.41406  0.022408713  0.022323656            7 
 2033000   0.92669188   -7.2328638    548.80111  0.022495536  0.022316903            6 
 2034000   0.93031524   -7.2762268    547.27358  0.022421894  0.022310123            5 
 2035000   0.92272462   -7.2345993    548.58551  0.022464599  0.022303324            7 
 2036000   0.92662236   -7.2196001    548.95001  0.022468484  0.022296554            3 
 2037000   0.91646443   -7.2217647    550.40052  0.022516794  0.022289885            8 
 2038000   0.90357725   -7.2380124    548.94029  0.022446037  0.022283138            8 
 2039000    0.9237933   -7.2588818    547.29898  0.022367949  0.022276391            8 
 2040000   0.92728089   -7.2985673    547.32995   0.02235825  0.022269575            7 
 2041000   0.91777063   -7.2478265    549.63933  0.022441586  0.022262797            8 
 2042000    0.9353295   -7.2302409    548.83294  0.022397688  0.022256067            6 
 2043000   0.91858386   -7.2265801    550.10438  0.022438586  0.022249349            4 
 2044000   0.93482108   -7.2476479    548.05682   0.02234413   0.02224262            6 
 2045000   0.93965115   -7.2511719    549.54892  0.022394007  0.022235868            5 
 2046000   0.91419144   -7.3039959    547.70981  0.022308155  0.022229104            8 
 2047000   0.93213408   -7.2673947    548.13587  0.022314601  0.022222309           13 
 2048000   0.93311722   -7.2215607    551.14781  0.022426262  0.022215612            5 
 2049000   0.93163026   -7.2121847    550.80667  0.022401443  0.022208937            5 
 2050000   0.92510759   -7.2472291    550.27794  0.022369022  0.022202122           11 
 2051000   0.92736988   -7.2900983    549.18553   0.02231373  0.022195189            4 
 2052000   0.91938993   -7.2754744    549.62403  0.022320664  0.022188297            6 
 2053000   0.91835977   -7.2753629     547.9321  0.022241115  0.022181417            5 
 2054000   0.91321378    -7.270318    549.78757  0.022305565  0.022174529           10 
 2055000   0.91977191   -7.2372009    550.33013  0.022316712  0.022167719            3 
 2056000   0.93166625    -7.224424    549.99841  0.022292413  0.022160907            2 
 2057000     0.926495   -7.2870901    548.25151  0.022210805  0.022154073            5 
 2058000   0.91395543   -7.2578008    550.29936  0.022282935  0.022147186            6 
 2059000    0.9150903   -7.2748751    549.15144  0.022225653  0.022140338            3 
 2060000   0.93848001   -7.2937701     549.0819  0.022212051  0.022133451            5 
 2061000   0.90997343   -7.2573405    548.22993  0.022166826  0.022126546           13 
 2062000   0.93544634   -7.2449169    550.83846  0.022261496  0.022119609            8 
 2063000   0.92817713   -7.2320109    549.20865   0.02218487  0.022112772            5 
 2064000   0.92485411   -7.2868329    548.79822  0.022157551  0.022105901            4 
 2065000   0.92513988    -7.291586    549.95622  0.022193552  0.022098957            9 
 2066000   0.91990457   -7.2500989    550.48452  0.022204119  0.022091969            5 
 2067000   0.93548959    -7.247903    550.93973  0.022211729  0.022085127           12 
 2068000   0.93905667   -7.2747761    549.70616   0.02215128  0.022078319            5 
 2069000   0.92284408    -7.266838    549.37324  0.022127164  0.022071362            9 
 2070000   0.92515999   -7.2407626     551.0336  0.022183317  0.022064435           10 
 2071000   0.92758806   -7.2699162    550.61351  0.022155702  0.022057493            5 
 2072000   0.90669187    -7.248769    548.72449  0.022069035  0.022050613           12 
 2073000   0.91898371   -7.2552349    550.41515  0.022126353  0.022043658            5 
 2074000   0.91846868   -7.2659443    550.93843   0.02213671  0.022036769            6 
 2075000   0.91048234   -7.2752092    549.97628  0.022087401  0.022029876            3 
 2076000   0.90016515   -7.2567226    552.84977  0.022192107  0.022023009            5 
 2077000   0.89916791   -7.3018561    551.36056  0.022121672  0.022016167            6 
 2078000   0.93554951   -7.2893441    550.26389  0.022067047  0.022009282            2 
 2079000   0.91965732   -7.2810153    552.12298  0.022130951  0.022002312            5 
 2080000   0.91604579   -7.2939186    550.57983  0.022058487  0.021995359           11 
 2081000   0.93410963   -7.2686248    551.28274  0.022076035    0.0219885            6 
 2082000   0.92357262   -7.2970203    551.44526  0.022071937  0.021981627            3 
 2083000   0.92484174   -7.2436594    553.90722  0.022159834  0.021974822            5 
 2084000    0.9154448   -7.2350193    552.48031  0.022092143  0.021968022            7 
 2085000   0.90135467   -7.2664373    551.93862  0.022059897  0.021961156            6 
 2086000   0.90794225   -7.2927506    550.71821  0.022000568  0.021954362            5 
 2087000   0.90738279   -7.2736078    551.36501  0.022015852  0.021947474            7 
 2088000   0.92752832   -7.3013356    552.10422  0.022034811   0.02194064            6 
 2089000   0.92811197   -7.2429452    554.04695  0.022101761  0.021933838           11 
 2090000   0.90326398    -7.279988    554.33736  0.022102766  0.021927039           10 
 2091000   0.92000104   -7.2620511    552.53448  0.022020344  0.021920197            5 
 2092000   0.91148021   -7.2929059    553.27302  0.022039237  0.021913355           12 
 2093000   0.91629418    -7.272866    552.36194  0.021992433  0.021906508            5 
 2094000   0.92792647   -7.2892189     552.9521  0.022005416  0.021899632            4 
 2095000   0.90345171   -7.2916475    552.65258  0.021982999  0.021892763            6 
 2096000   0.93835796   -7.2463738    553.83494  0.022019519  0.021885929            9 
 2097000   0.92217691   -7.2986462    551.91229  0.021932613  0.021879045            4 
 2098000   0.91389776   -7.2801034    552.72116  0.021954288  0.021872164            8 
 2099000    0.9116451   -7.3019846    552.48891  0.021934608  0.021865191            8 
 2100000   0.90602036   -7.3087604    553.07101  0.021947262  0.021858268            6 
 2101000   0.93163186   -7.2359536    554.80233  0.022005487    0.0218514            5 
 2102000   0.91807218   -7.2862588    552.94138  0.021921241  0.021844544           10 
 2103000   0.91026083   -7.2854323    554.06907  0.021955503  0.021837656            4 
 2104000     0.903581   -7.2836725    551.72099  0.021852067   0.02183075           10 
 2105000    0.9223438    -7.243356    555.26077   0.02198182  0.021823914            7 
 2106000   0.91644017   -7.2702024    555.17552  0.021968009  0.021817107            5 
 2107000   0.92227739   -7.2619412      554.996  0.021950483  0.021810327            3 
 2108000   0.92427956   -7.2547959    554.87254  0.021935189  0.021803505            5 
 2109000   0.90075133   -7.3051519    554.16312  0.021896757  0.021796691            5 
 2110000   0.91546592   -7.2675595    554.02649  0.021880983   0.02178983            4 
 2111000   0.92456821   -7.2593234    553.44383  0.021847617  0.021783016            7 
 2112000   0.92453364   -7.3111122    553.60246  0.021843531  0.021776151           12 
 2113000   0.90513172   -7.3133401    555.06021  0.021890685  0.021769158            5 
 2114000   0.92619602   -7.2544054    553.91173  0.021835057  0.021762248            4 
 2115000   0.92155872   -7.2575385    555.41048  0.021883786  0.021755432            9 
 2116000   0.90784046   -7.2800537    556.56611  0.021918955  0.021748577            5 
 2117000    0.9295237   -7.2689656    555.77472  0.021877449  0.021741752            4 
 2118000   0.90616211   -7.2675255    555.46326  0.021854865  0.021734853            8 
 2119000   0.92081672   -7.2990849    554.36079  0.021801195  0.021727962            4 
 2120000   0.91782601   -7.3190092    554.12884  0.021781794  0.021721029            8 
 2121000   0.91451221   -7.2620809     556.4522  0.021862808  0.021714079            9 
 2122000   0.90873691    -7.305446    554.68321  0.021783035  0.021707181            9 
 2123000   0.89619112   -7.2624872    556.53979   0.02184565  0.021700303            8 
 2124000   0.90755547   -7.2802904    556.09136  0.021817772  0.021693455            5 
 2125000   0.92816797   -7.2653196    556.33363  0.021817005  0.021686666            3 
 2126000    0.9225367    -7.274893    556.10543  0.021797798  0.021679902            7 
 2127000   0.93824314   -7.3082388    555.10248  0.021748256  0.021673056            4 
 2128000   0.90816388   -7.3208456    555.14326  0.021739633  0.021666242            8 
 2129000   0.90088443   -7.2954513    557.75224  0.021831542   0.02165944            5 
 2130000   0.93275691   -7.3033813     556.4261  0.021769409   0.02165264           10 
 2131000   0.91510927    -7.276968    557.29739  0.021793266  0.021645816            9 
 2132000    0.9461912   -7.2730795    556.83814  0.021765093  0.021639059            3 
 2133000    0.9064035   -7.2933378    556.47389  0.021740658  0.021632276            9 
 2134000   0.93441886   -7.3179184    554.88147  0.021668286  0.021625461            6 
 2135000    0.8996681   -7.3044419    556.74414  0.021730841  0.021618582            4 
 2136000   0.92073426    -7.349915    556.50964  0.021711518  0.021611674           11 
 2137000   0.88371827   -7.3327588    554.89875  0.021638541  0.021604725            6 
 2138000   0.92720128   -7.3166103    557.30242  0.021722109  0.021597785           13 
 2139000   0.90546825   -7.3177334    556.43085  0.021677998  0.021590953            4 
 2140000   0.88962631   -7.2768253    557.75325  0.021719363   0.02158406            9 
 2141000   0.90381137    -7.307556    556.91453  0.021676574  0.021577232            6 
 2142000   0.90704652   -7.3160794    557.24986    0.0216795  0.021570337            6 
 2143000   0.89266935   -7.2867302    557.51016  0.021679505  0.021563455           16 
 2144000   0.91779363   -7.3103741    557.45779  0.021667358  0.021556672           10 
 2145000   0.91234901   -7.2908483     556.8675  0.021634324  0.021549889           18 
 2146000   0.90235683   -7.3119663    556.90087  0.021625538  0.021542992            6 
 2147000   0.89569844   -7.3077536    558.61729  0.021682087  0.021536085           11 
 2148000   0.89875899    -7.343252    555.83702   0.02156413  0.021529175            4 
 2149000   0.91521545   -7.2928752    557.39127  0.021614366  0.021522284            8 
 2150000   0.92763993   -7.3090713    558.00458  0.021628084  0.021515429            4 
 2151000   0.89748189   -7.3272793    557.07911  0.021582175  0.021508563            5 
 2152000   0.90727583    -7.306596     558.1042  0.021611842  0.021501671            4 
 2153000   0.90972438   -7.2663734    560.12736  0.021680111  0.021494828            4 
 2154000   0.91791909   -7.2610005      558.932  0.021623801  0.021487999            8 
 2155000   0.91815532   -7.2975498    559.34368  0.021629686  0.021481146            7 
 2156000   0.90605245   -7.3136491    558.91539    0.0216031  0.021474316            7 
 2157000   0.91226022   -7.2836061    558.48021  0.021576272  0.021467582            7 
 2158000   0.93160518   -7.3279066    558.10051  0.021551611  0.021460812            5 
 2159000    0.9067921   -7.2965044    559.34137  0.021589523  0.021454011            3 
 2160000   0.90835146   -7.2993609    560.51413  0.021624773  0.021447163            4 
 2161000   0.88983136   -7.2968737    561.09376  0.021637119  0.021440352            5 
 2162000   0.90481183   -7.3137922    559.33489  0.021559316  0.021433586            8 
 2163000   0.93763877   -7.2964724    558.77194   0.02152766  0.021426817            9 
 2164000   0.90412144   -7.3249955    558.94705  0.021524455  0.021420017            5 
 2165000   0.91014685   -7.2934896    559.46226  0.021534344  0.021413202            7 
 2166000   0.92158078   -7.3415103    557.97708  0.021467262  0.021406303            5 
 2167000   0.87514695   -7.3443581    559.25807  0.021506617  0.021399364            3 
 2168000    0.9125271   -7.3425351    559.69396  0.021513452  0.021392466            7 
 2169000   0.91130549   -7.3464338    556.75603  0.021390657  0.021385637            6 
 2170000   0.91702997   -7.3445329     557.9803  0.021427815  0.021378759            6 
 2171000   0.92307452   -7.3382263     558.6092  0.021442085  0.021371838            5 
 2172000   0.90248656   -7.3450902    558.87893  0.021442562   0.02136501            7 
 2173000   0.89230524   -7.3509989    559.39145  0.021452349  0.021358174            9 
 2174000   0.90723029   -7.3410659    559.30044  0.021438993   0.02135127            4 
 2175000   0.89457144   -7.3491493    560.58916  0.021478512  0.021344389           12 
 2176000   0.89698748   -7.3459569    558.64584  0.021394219   0.02133752           11 
 2177000   0.89650818   -7.3404261    560.40114  0.021451583  0.021330631            4 
 2178000   0.90820799   -7.3569961    557.73955  0.021339897  0.021323745           14 
 2179000   0.91841142   -7.3569718    559.24352  0.021387621  0.021316843           10 
 2180000   0.92210491   -7.3459088    559.40682  0.021384053  0.021309961            6 
 2181000   0.91248376   -7.3333513    559.10827  0.021362841  0.021303102            6 
 2182000   0.89633001   -7.3503988     559.0576  0.021351115  0.021296251            7 
 2183000   0.91171284   -7.3224828    561.21674  0.021423757  0.021289369            3 
 2184000   0.91314083   -7.3662574    557.94414  0.021289077    0.0212825            6 
 2185000   0.91495303   -7.3015392    559.79157  0.021349793  0.021275578            8 
 2186000   0.87439177   -7.3353459    560.16246  0.021354165  0.021268595            8 
 2187000   0.89277412   -7.3510671    558.74834  0.021290517   0.02126163            7 
 2188000   0.88831687   -7.3250612    561.05235  0.021368538  0.021254673            4 
 2189000    0.9112071   -7.3160938    560.90104  0.021353017  0.021247759            9 
 2190000   0.89494318   -7.3351236    560.91658  0.021343858  0.021240877            6 
 2191000     0.927195   -7.3498543    560.03541  0.021300601  0.021234045           12 
 2192000   0.89092543   -7.3116489    561.29174  0.021338646  0.021227159            8 
 2193000   0.90061485   -7.3138729    562.03266   0.02135707  0.021220312           10 
 2194000    0.9023522   -7.3548063    559.58654  0.021254426   0.02121346            6 
 2195000   0.88785527   -7.3131627    561.50634  0.021317629   0.02120657           13 
 2196000   0.89913498   -7.3704188    559.86485   0.02124563  0.021199701           27 
 2197000   0.90573484   -7.3181758    562.47368  0.021334914  0.021192893           11 
 2198000   0.89570529   -7.3285682      562.303  0.021318737  0.021186081           14 
 2199000   0.90236831   -7.3335882    562.26124   0.02130746  0.021179273            6 
 2200000   0.90784309   -7.3375642    561.80998  0.021280681  0.021172334           11 
 2201000   0.90675408   -7.3449203     561.9907  0.021277855  0.021165392            8 
 2202000   0.90294838    -7.363529    561.52268   0.02125048  0.021158503           10 
 2203000   0.89338873   -7.3590391    561.66461  0.021246202   0.02115159            5 
 2204000   0.91371791   -7.3470692    562.04854  0.021251079  0.021144704           12 
 2205000    0.8957359   -7.3310726    560.42592  0.021180118  0.021137832            5 
 2206000   0.90099333   -7.3253542     562.7344  0.021257721  0.021130968           11 
 2207000   0.87873668   -7.3596172    562.03836  0.021221808  0.021124099            4 
 2208000   0.90921577   -7.3455728    560.67421  0.021160711  0.021117223            8 
 2209000   0.90820962   -7.3494471    561.64334  0.021187692  0.021110285            8 
 2210000   0.91608182   -7.3618666    561.68028  0.021179498  0.021103382            8 
 2211000    0.8965648   -7.3987936    560.75258  0.021134953  0.021096451            3 
 2212000   0.88772477   -7.3575774    562.01705  0.021173035  0.021089463            8 
 2213000   0.88463805   -7.3617989    562.99983  0.021200476   0.02108254            8 
 2214000    0.9080456   -7.3254635    562.95471  0.021189202  0.021075721            3 
 2215000   0.90791503   -7.3363605    561.18016  0.021112873  0.021068849            6 
 2216000   0.89982896   -7.3321033    561.88799  0.021129963  0.021061902            7 
 2217000   0.92725554   -7.3650794    561.68298  0.021112727  0.021054968            9 
 2218000   0.89968974   -7.3592112    562.39409  0.021129925  0.021048023            9 
 2219000   0.90277396   -7.3151744    564.41742  0.021196388  0.021041064            7 
 2220000   0.90360216   -7.3804626    561.36714   0.02107234  0.021034137            5 
 2221000   0.88841197   -7.3701375    562.60586   0.02110933   0.02102721            3 
 2222000   0.91087422   -7.3130397    561.93846    0.0210748  0.021020355            9 
 2223000   0.91005956   -7.3537065    562.74826  0.021095676  0.021013496            8 
 2224000   0.89428072   -7.2943088    564.87003  0.021165694   0.02100663            9 
 2225000   0.90073715   -7.3201341    564.50669  0.021142573  0.020999756            4 
 2226000   0.88677597   -7.3496102    561.88502  0.021034929  0.020992854            5 
 2227000   0.89368314   -7.3462709    562.57157  0.021051174  0.020985944            5 
 2228000   0.89442348   -7.3489143    562.69422  0.021046313  0.020979002            8 
 2229000   0.88980285   -7.3574618    563.39433  0.021063045  0.020972073            4 
 2230000   0.89629331   -7.3781436    563.73669  0.021066394  0.020965184           11 
 2231000   0.88744644   -7.3327766    564.87608   0.02109951   0.02095835            5 
 2232000   0.90859605   -7.3426137    562.81086   0.02101295  0.020951525            9 
 2233000   0.90049496   -7.3487435    564.99549  0.021085068  0.020944614            6 
 2234000   0.89573368   -7.3602472    563.97579  0.021037593   0.02093779            7 
 2235000   0.89628485   -7.3498307    564.63609    0.0210528  0.020930992           12 
 2236000   0.90017421   -7.3398255    565.72519  0.021083974  0.020924191           40 
 2237000    0.8880416   -7.3547628    566.32829  0.021097016  0.020917415           14 
 2238000    0.8985784   -7.3220737     564.2654  0.021010776  0.020910605           10 
 2239000   0.89656057   -7.3539467    565.19111  0.021035846  0.020903822            5 
 2240000   0.89415796   -7.3469185    565.52869  0.021039014  0.020896996           11 
 2241000   0.89700358   -7.3512149    565.62918  0.021033362  0.020890165           11 
 2242000   0.88455389   -7.3524259    565.74774  0.021028388  0.020883398            6 
 2243000   0.88915897   -7.3201043    565.89462   0.02102447  0.020876581            9 
 2244000   0.89315644   -7.3324939    567.42463  0.021071919  0.020869847            6 
 2245000   0.87879521   -7.3511852    565.27989  0.020982921  0.020863051            3 
 2246000   0.86188111   -7.3465655    564.86389  0.020958144  0.020856217            4 
 2247000   0.88477806   -7.3614687    566.17835  0.020997565  0.020849436            8 
 2248000   0.89662907   -7.3615891     565.1407  0.020949759  0.020842626            7 
 2249000   0.90113243   -7.3974159    565.22158  0.020943441  0.020835811            6 
 2250000   0.88743926   -7.3676377     566.7814  0.020991904  0.020829049           17 
 2251000   0.89164721   -7.3477894    567.59642  0.021012751  0.020822294            5 
 2252000   0.90731337   -7.3515989    565.86866  0.020939486  0.020815546            6 
 2253000   0.88234513   -7.3329831    566.75211  0.020962869  0.020808817            4 
 2254000   0.90080568   -7.3670085    568.67264  0.021024573  0.020802096            6 
 2255000   0.86778927   -7.3704515    566.73549  0.020943662  0.020795394            6 
 2256000   0.87148691   -7.3933715    565.86389  0.020902183  0.020788635            6 
 2257000   0.90002757   -7.3596819    566.02065   0.02089871  0.020781882            4 
 2258000   0.88023176   -7.3634916    567.79715  0.020955017  0.020775091            3 
 2259000   0.91013999    -7.372076    565.88742  0.020875292  0.020768321            6 
 2260000   0.86988977   -7.3512539    567.10947  0.020911116  0.020761552            5 
 2261000    0.8891937   -7.3801796    567.57667  0.020919087  0.020754828            9 
 2262000   0.91106014   -7.3549677    567.14464  0.020893923  0.020748127            8 
 2263000   0.89707827   -7.3582476    567.60295  0.020901567  0.020741422           18 
 2264000   0.90257097   -7.3549255    567.66024  0.020894443  0.020734753            7 
 2265000   0.89297024   -7.3488755    566.71909  0.020850592  0.020728094            6 
 2266000   0.89530461   -7.3657765    568.03718  0.020889864  0.020721415            9 
 2267000   0.88543015   -7.3573383     567.5791   0.02086381  0.020714691           10 
 2268000    0.8780737   -7.3146466    568.50774  0.020888732  0.020708004            5 
 2269000   0.87811024   -7.3556052     568.1235  0.020865414  0.020701299            7 
 2270000   0.87315751   -7.3536355    567.69516  0.020840498  0.020694486            4 
 2271000   0.89731469   -7.3952759    565.38224  0.020746449  0.020687739           10 
 2272000   0.88550723   -7.3638638    567.72191  0.020823134   0.02068096            4 
 2273000   0.87996988   -7.3741143    566.62915  0.020773909  0.020674142            9 
 2274000   0.88514133   -7.3744917    567.29054  0.020789011  0.020667344            2 
 2275000   0.87546525    -7.382074    569.67694  0.020867287  0.020660564            9 
 2276000   0.89900058    -7.375362    567.53272   0.02077961  0.020653814            4 
 2277000   0.87591676   -7.4198655    565.96507  0.020713112  0.020646972            6 
 2278000   0.88568667   -7.4004253    567.81345  0.020771636  0.020640101            7 
 2279000   0.89262291   -7.3792979    566.54382  0.020716097  0.020633302           14 
 2280000   0.88048268   -7.4131408    567.76793  0.020751752  0.020626457            8 
 2281000   0.88248416   -7.3809178    569.03418  0.020788915  0.020619639            9 
 2282000   0.88063817   -7.4585642    565.96395  0.020667687   0.02061276            8 
 2283000    0.8864984   -7.3734981    568.37124  0.020746505  0.020605863            5 
 2284000    0.8823813   -7.4022652    568.67047  0.020748339  0.020599068            3 
 2285000   0.87437871    -7.387641    568.66035  0.020738889   0.02059233            6 
 2286000   0.88149527   -7.3950618    567.77985   0.02069772  0.020585592           16 
 2287000    0.8775278   -7.3713703     569.2995  0.020744042  0.020578865           22 
 2288000   0.87125535   -7.3758935    569.50115  0.020742321  0.020572172            8 
 2289000   0.88014607   -7.4546263    567.84021   0.02067279  0.020565389            7 
 2290000   0.90022235   -7.4471043    566.98564  0.020632665  0.020558562           11 
 2291000   0.90193661   -7.3905828    567.67616  0.020648776  0.020551795            6 
 2292000   0.87975862   -7.3910595    568.40064  0.020666108  0.020545058           12 
 2293000   0.87113901   -7.3931258    569.62269  0.020701508   0.02053823            6 
 2294000   0.89440237   -7.3866198    569.30939  0.020681102   0.02053143            5 
 2295000   0.89278539   -7.3930667    568.72388  0.020650831  0.020524632            4 
 2296000   0.87583431    -7.396643    569.38352  0.020665778  0.020517931            7 
 2297000   0.86756663   -7.4234525    568.19191  0.020613551  0.020511186            9 
 2298000   0.86880782   -7.3970393    569.36776  0.020647221  0.020504428            4 
 2299000   0.90119153   -7.3636787    571.21076  0.020705044  0.020497731           15 
 2300000   0.88121351   -7.3756416    570.95805  0.020686886  0.020491016            5 
 2301000   0.88109838   -7.3703178    570.48643  0.020660815  0.020484324            6 
 2302000   0.90598757   -7.3718062    569.71911  0.020624063  0.020477658            6 
 2303000   0.89081303   -7.3922894     571.2465  0.020670376  0.020470969            5 
 2304000   0.88954652   -7.3307776    571.20958  0.020660069  0.020464311            5 
 2305000   0.87349568    -7.391164    570.70247  0.020632772  0.020457688            5 
 2306000   0.89169641   -7.3698332    570.92168  0.020631746   0.02045107            4 
 2307000   0.87201705   -7.3734088    570.56324  0.020609855  0.020444356            6 
 2308000   0.88094148   -7.3972139    570.10241  0.020584287  0.020437641           10 
 2309000   0.88298892   -7.3836025    570.60027   0.02059334  0.020430904           11 
 2310000   0.88931821   -7.4013574    569.76704  0.020554367   0.02042413            9 
 2311000   0.87103534   -7.3900278    569.12187  0.020522208  0.020417393            4 
 2312000   0.89976065   -7.3907542    570.79299  0.020573565  0.020410652            4 
 2313000   0.86930967   -7.3732665    571.50759  0.020590416  0.020403929            4 
 2314000   0.87677235   -7.3802614    572.50326  0.020617375  0.020397295            6 
 2315000   0.88967461   -7.3946254    571.67448  0.020578635  0.020390619            3 
 2316000   0.88253942   -7.3703154    571.09792  0.020549004  0.020383958            6 
 2317000   0.86042464   -7.3650274    572.89213  0.020604666  0.020377289            8 
 2318000   0.88550133   -7.3891522    571.77807  0.020555726  0.020370641            6 
 2319000   0.86771023   -7.3732494    573.45195  0.020607013  0.020364015            8 
 2320000   0.89282003   -7.4057025    571.68945  0.020534822  0.020357404           10 
 2321000   0.86929059   -7.3771498     571.0045  0.020501382  0.020350787            6 
 2322000   0.87600731   -7.4011112    572.03632  0.020529584  0.020344118            5 
 2323000   0.87087072   -7.3935501     571.7214  0.020509449  0.020337417            3 
 2324000   0.87883305   -7.4225265    572.47512   0.02052765   0.02033071            7 
 2325000   0.86608576   -7.4012428    572.47504  0.020518819  0.020324007            5 
 2326000   0.89550139   -7.4254164    570.75482  0.020448367  0.020317313            7 
 2327000   0.86780941   -7.3869855    572.37983  0.020497773  0.020310612            5 
 2328000   0.87766534   -7.4153494    570.98969  0.020439207  0.020303955            8 
 2329000   0.86840495   -7.3991469    571.20804  0.020438244   0.02029731            5 
 2330000    0.8960658   -7.4193971    572.31206  0.020468958  0.020290642            4 
 2331000   0.89147116      -7.3791    573.49632  0.020502514  0.020283948            8 
 2332000   0.89107391   -7.3547983    574.91548  0.020544436  0.020277373            7 
 2333000   0.87840623   -7.3560587    572.43224   0.02044693  0.020270801            7 
 2334000   0.88481518   -7.3869092    572.45522   0.02043899  0.020264224            5 
 2335000   0.88211642   -7.3911469    573.69742  0.020474569  0.020257627            5 
 2336000   0.88031053   -7.4174523    573.74118  0.020467365  0.020251052            6 
 2337000   0.87484726   -7.3810612    573.62298  0.020454392  0.020244449            7 
 2338000   0.88596443   -7.3827746     573.4868   0.02044079  0.020237865            4 
 2339000   0.89716652   -7.4120443    572.18896  0.020385812  0.020231241           11 
 2340000   0.88408851    -7.409004      572.327  0.020382016  0.020224597           13 
 2341000    0.8699201   -7.4359233    574.35691  0.020445568  0.020217898            7 
 2342000   0.87652383    -7.419995    573.11591  0.020392681  0.020211233            9 
 2343000   0.88309311   -7.3905655     573.2479  0.020388672  0.020204632           21 
 2344000   0.89430201   -7.4257022    574.08817  0.020409847  0.020197979            7 
 2345000   0.87785855   -7.3958656    574.03259  0.020399168  0.020191338            8 
 2346000   0.86305655   -7.3798789    574.20787  0.020396699  0.020184708            9 
 2347000   0.90560547   -7.4259153    572.81262  0.020338468  0.020178095           13 
 2348000   0.87440502   -7.4173944    573.07302  0.020339048  0.020171445            4 
 2349000   0.87568509   -7.4127027    574.24839  0.020372087  0.020164816            8 
 2350000   0.89630189   -7.3774283    573.69153  0.020343671  0.020158252           10 
 2351000   0.88829944   -7.4143794    572.81418   0.02030392  0.020151641           10 
 2352000   0.86729933   -7.4076345    574.35606  0.020349917  0.020145056            8 
 2353000   0.86927911   -7.3923311    574.04508  0.020330255  0.020138433           25 
 2354000    0.8683179   -7.4245359     573.5435  0.020303862  0.020131829           17 
 2355000   0.88948778    -7.434743    574.58113  0.020331958  0.020125246            4 
 2356000   0.89323338   -7.3804141    574.21484  0.020310372  0.020118699           12 
 2357000   0.87365236   -7.4066267    574.71506  0.020319441  0.020112069            9 
 2358000   0.85995578   -7.4223874    574.50045  0.020303239  0.020105504            6 
 2359000   0.86907004   -7.3751018     576.0099  0.020347954  0.020098945            6 
 2360000   0.86501498   -7.3925418    576.00122  0.020339026  0.020092398            7 
 2361000   0.86229349   -7.3900495    574.76546  0.020286794  0.020085791           18 
 2362000   0.87707055   -7.4033537    574.71683   0.02027649  0.020079135           10 
 2363000   0.88173932   -7.3976104    574.28462  0.020252667  0.020072513            8 
 2364000    0.8589034   -7.3731167    576.38308  0.020318072  0.020065912            7 
 2365000   0.89567627   -7.4171262     574.9399  0.020258629  0.020059304            8 
 2366000   0.85655169   -7.4244978    575.04208  0.020253666  0.020052659            7 
 2367000   0.86081688   -7.3920086    576.35426  0.020291306  0.020046083           10 
 2368000   0.84564635   -7.4040905    574.68251  0.020223906  0.020039477            6 
 2369000   0.87991389   -7.4468519    575.05694   0.02022854  0.020032856            5 
 2370000   0.88159077   -7.4461634    573.98705  0.020182386   0.02002619            3 
 2371000   0.88557142   -7.4068917    574.52735  0.020192863   0.02001956            6 
 2372000   0.86345098   -7.4156045    575.11357  0.020204946   0.02001294           10 
 2373000   0.89686151   -7.4381738    573.82333  0.020151121  0.020006266           11 
 2374000   0.86729888   -7.3675074    576.05432  0.020220946   0.01999965           10 
 2375000   0.86863763   -7.4164565    575.33074  0.020187043  0.019993086            5 
 2376000   0.87951321   -7.4243681    575.65984   0.02019009  0.019986509            6 
 2377000   0.86064231   -7.4114601    576.11333  0.020197494  0.019979873           10 
 2378000   0.86055552   -7.4030869    575.63433  0.020172215  0.019973258            6 
 2379000   0.84763345   -7.4016103     574.8677  0.020136882  0.019966662            5 
 2380000   0.86626588   -7.4185374    575.10659  0.020136785  0.019960086            4 
 2381000   0.89313092    -7.412846    575.96295    0.0201583   0.01995349            7 
 2382000   0.88809104   -7.4377095    575.98218   0.02015051  0.019946913            6 
 2383000    0.8719526   -7.4214865    575.45983  0.020123787  0.019940358            4 
 2384000   0.86931626   -7.4494989    576.16575  0.020140022  0.019933821            8 
 2385000   0.88722778   -7.4465306    576.10651  0.020129508  0.019927182            9 
 2386000   0.86490169   -7.4544079    575.18384  0.020088846  0.019920558            7 
 2387000   0.88119169    -7.401483    575.69652  0.020098328  0.019913941            7 
 2388000   0.88710145    -7.393776    578.62311  0.020192041  0.019907382            4 
 2389000   0.87370275     -7.38808    578.50153  0.020179347  0.019900864           12 
 2390000   0.86964934     -7.40117     576.5698   0.02010355  0.019894329            5 
 2391000    0.8739899   -7.3919266    577.27582  0.020119748  0.019887773            5 
 2392000   0.87982433   -7.4272156    577.91429   0.02013358  0.019881195           21 
 2393000   0.90750938   -7.4583472    575.24544  0.020032227   0.01987463           10 
 2394000   0.85712861    -7.391561    575.67444  0.020038793  0.019868091            6 
 2395000   0.86264498   -7.4211861    577.27397  0.020086081   0.01986151            5 
 2396000   0.86642346   -7.4406612    576.87584  0.020063851  0.019854935            5 
 2397000   0.88033497   -7.4387451    576.28491  0.020034936  0.019848363            3 
 2398000   0.87868663   -7.4484412     576.5139  0.020034539  0.019841778           18 
 2399000   0.88410626   -7.4183486    576.10458   0.02001197  0.019835169            9 
 2400000   0.87036481   -7.4287113    577.91767  0.020066586  0.019828623            6 
 2401000    0.8691785      -7.4099    577.59181  0.020046918  0.019822107            5 
 2402000   0.86612011   -7.3784595     577.6972  0.020042229  0.019815611           14 
 2403000    0.8869917   -7.4171749     579.0001  0.020079071  0.019809121            9 
 2404000    0.8756412    -7.421317    577.61478  0.020022698  0.019802608            5 
 2405000    0.8648858   -7.4463883    577.58948  0.020013495  0.019796076           19 
 2406000    0.8681112   -7.4114211    580.28721  0.020098615  0.019789533            5 
 2407000   0.86044788   -7.4744267    576.90739  0.019973251  0.019782988            9 
 2408000   0.88697141   -7.5175699    575.74601  0.019924765  0.019776349            9 
 2409000   0.86077134   -7.4782893    575.86743  0.019920694   0.01976973           11 
 2410000   0.86644809   -7.4737065    576.80829  0.019944962  0.019763129            9 
 2411000   0.87769811   -7.4231774    579.82752  0.020041045  0.019756647            9 
 2412000   0.87304427   -7.4196647    579.41857  0.020018607  0.019750192           10 
 2413000   0.84456705   -7.4045184    579.57263  0.020015632  0.019743769            5 
 2414000   0.86723864   -7.4222198    580.07942  0.020024835  0.019737361            7 
 2415000   0.83640723   -7.4308963    578.40615  0.019958804   0.01973083            4 
 2416000   0.87053423   -7.4460387       579.06  0.019973096  0.019724258           12 
 2417000   0.87677969   -7.4406988    579.03025  0.019963807  0.019717791           11 
 2418000   0.87502047   -7.4503424    579.00313  0.019954616  0.019711299           13 
 2419000   0.86634414   -7.4677894    578.34277  0.019923617  0.019704751            8 
 2420000   0.86431698   -7.4309003    578.46225  0.019919499  0.019698218            5 
 2421000   0.84699483   -7.4627331    578.55937  0.019914614  0.019691678            7 
 2422000    0.8829596   -7.4465181    579.88401  0.019951968  0.019685198            9 
 2423000   0.86558292   -7.4431573    578.28037  0.019888581  0.019678691           10 
 2424000   0.87565819   -7.4453169    578.69658  0.019894684  0.019672209            5 
 2425000   0.86967312   -7.4548885    577.37677  0.019841126  0.019665737            8 
 2426000    0.8794787   -7.4177327    578.92969  0.019886291  0.019659249            8 
 2427000   0.86179899   -7.4635018    579.01934  0.019881175   0.01965274           16 
 2428000   0.85771236   -7.4649849    578.64408  0.019860107  0.019646265           22 
 2429000   0.85919296   -7.4133476     580.5167  0.019916176  0.019639814           26 
 2430000    0.8450227   -7.4595481    579.28989  0.019865908  0.019633357           17 
 2431000   0.86921455    -7.478237    578.03939   0.01981487  0.019626823            8 
 2432000   0.85844807   -7.4630018    578.01024  0.019805724   0.01962026           13 
 2433000   0.85994068    -7.467016    579.58823  0.019851631  0.019613661           28 
 2434000    0.8929787   -7.4684584    579.90662  0.019854376  0.019607103           25 
 2435000   0.86690536   -7.4328822    578.46717   0.01979696  0.019600579           13 
 2436000   0.84974432   -7.4434041    579.14007  0.019811852  0.019594064            3 
 2437000   0.86485118   -7.4498884    580.74254  0.019858519  0.019587552            8 
 2438000   0.88431433   -7.4441629    578.99178  0.019790531  0.019581029            9 
 2439000   0.86361682   -7.4619646    579.66495  0.019805417  0.019574497            5 
 2440000   0.87220873   -7.4473012    580.54333    0.0198273  0.019567963           11 
 2441000   0.83771024   -7.4882883    578.66479  0.019755046  0.019561417           13 
 2442000   0.86596995   -7.4564424     580.9236  0.019824038  0.019554875           17 
 2443000   0.87219828   -7.4712517    579.98649  0.019783957  0.019548357            6 
 2444000    0.8630365   -7.4983245    580.30439  0.019786702  0.019541846           11 
 2445000    0.8686289   -7.4459432    580.92203   0.01979966  0.019535332            6 
 2446000   0.86104715   -7.4475962    579.94014  0.019758113  0.019528814            9 
 2447000   0.86328997   -7.4428846    581.03406  0.019787293  0.019522393            9 
 2448000   0.86401317   -7.4307048    580.18219  0.019750211  0.019515977            6 
 2449000   0.86164795   -7.4699484    580.28998  0.019745814  0.019509517            6 
 2450000   0.86694165   -7.4540106     580.5251  0.019745752   0.01950308            7 
 2451000   0.83670289   -7.4635581    579.95771  0.019718404  0.019496585            9 
 2452000   0.86256089   -7.4602507     579.7831  0.019704428  0.019490082           11 
 2453000   0.86977348   -7.4648603    579.88505  0.019699859  0.019483574            7 
 2454000   0.86778121   -7.4411247    580.89108  0.019725994  0.019477089            5 
 2455000   0.85215705      -7.4912    580.93733  0.019719529  0.019470569            9 
 2456000   0.87100996   -7.4736321    578.67833  0.019634851   0.01946404           16 
 2457000   0.85026005    -7.487194    579.63154  0.019659189  0.019457525           13 
 2458000   0.85887956   -7.4491781    581.13145  0.019702043  0.019451007           12 
 2459000   0.86950253   -7.4655488    579.87483  0.019651445  0.019444514            6 
 2460000    0.8668493   -7.4512442    580.50483  0.019664798  0.019437971           13 
 2461000   0.84827451   -7.4722737    580.25779  0.019648442  0.019431434           10 
 2462000    0.8674861   -7.4249645    580.86562  0.019661035  0.019424909            6 
 2463000   0.83964902   -7.4752441    580.02226  0.019624518   0.01941833            8 
 2464000   0.86195814   -7.4603323     579.7944  0.019608847  0.019411768           12 
 2465000    0.8591486   -7.4953977    579.75501  0.019599561  0.019405217           15 
 2466000    0.8740194   -7.4621144    580.23771  0.019607925  0.019398664           15 
 2467000   0.85732132   -7.4695025    581.55401   0.01964444  0.019392091            8 
 2468000   0.85114337   -7.4539453    580.29515  0.019593974  0.019385542           10 
 2469000   0.87770342   -7.4920451    580.10982  0.019579783  0.019378953           18 
 2470000   0.83846413   -7.4680471    581.27435  0.019611145  0.019372356            7 
 2471000   0.86371516   -7.4954976    579.94792  0.019558476  0.019365777            5 
 2472000   0.87889142   -7.4914343     578.9996  0.019518595  0.019359162            7 
 2473000   0.86885417   -7.4628399     580.1999  0.019551149  0.019352578           21 
 2474000   0.86735413   -7.4866113    579.79496  0.019529607  0.019345945           14 
 2475000   0.84905049   -7.4891849    579.48157  0.019511164  0.019339278            8 
 2476000   0.85888755   -7.4966907    579.33234  0.019498261  0.019332624            5 
 2477000   0.86669998   -7.5040029    579.23338   0.01948706  0.019325965           12 
 2478000   0.87998083   -7.4852596    582.49235  0.019588793  0.019319353            8 
 2479000   0.85987406   -7.4538709    581.50147  0.019547582  0.019312753            6 
 2480000    0.8694288    -7.464774    581.07165  0.019525257  0.019306175            7 
 2481000   0.84618263   -7.4783392    578.93702  0.019445688  0.019299606           17 
 2482000   0.84981702   -7.4789683    580.05791  0.019475487  0.019293014           10 
 2483000   0.86174516   -7.4902932    580.75372  0.019490996  0.019286385           10 
 2484000   0.84898579   -7.4657724    580.22642  0.019465459  0.019279768            4 
 2485000    0.8612157   -7.5026485    579.79578  0.019443185  0.019273185           15 
 2486000   0.86749021   -7.4953988    580.58007  0.019461654  0.019266559            6 
 2487000   0.85292351    -7.482601    580.53648  0.019452368  0.019259897           11 
 2488000   0.84773827   -7.4784711    581.13481   0.01946459  0.019253298            7 
 2489000   0.87462361   -7.4997357    579.76594   0.01941094  0.019246688            6 
 2490000   0.85427619   -7.4894762    581.17921  0.019450442   0.01924005           10 
 2491000   0.85584559   -7.5266549    580.46182  0.019418634  0.019233432           12 
 2492000   0.84389129   -7.4447342    581.48756  0.019445143  0.019226837            7 
 2493000   0.87807643   -7.4876188    581.16467   0.01942655  0.019220263           13 
 2494000    0.8474877   -7.4952375    582.88849   0.01947636  0.019213705           12 
 2495000   0.84156352   -7.5031861     581.6403  0.019426864  0.019207111           12 
 2496000   0.85541278   -7.4802499    581.10844  0.019401323  0.019200532            7 
 2497000   0.82971822   -7.5061181    580.79253  0.019383011  0.019193936            4 
 2498000   0.85677989   -7.4910313    581.68461  0.019405011  0.019187349            5 
 2499000   0.85816842   -7.4937669    578.27979  0.019283707  0.019180715           10 
 2500000   0.85208999   -7.5110536    580.82095  0.019360698  0.019174107            8 
 2501000   0.85364944   -7.4982865     580.6873  0.019348504  0.019167503            6 
 2502000   0.84928604   -7.5191501    580.77372  0.019343649  0.019160926           16 
 2503000   0.84822915   -7.5044658     580.6634  0.019332248  0.019154331           10 
 2504000   0.86572497   -7.5037856    581.50817  0.019352641  0.019147742           10 
 2505000   0.85761738   -7.5056156    580.70975  0.019318355  0.019141168           19 
 2506000   0.87631243   -7.4800051    581.92296   0.01935099  0.019134578            6 
 2507000   0.85881126   -7.5240646    580.06081  0.019281372  0.019127981            4 
 2508000   0.84867919   -7.4844468    582.04198  0.019339513  0.019121369           10 
 2509000   0.84331152   -7.4831525    583.23325  0.019371371  0.019114827            8 
 2510000   0.84235378   -7.4875935    582.18813  0.019328955  0.019108274            8 
 2511000   0.85149513   -7.4718285    582.76156  0.019340288  0.019101762           12 
 2512000   0.84139324    -7.495985    582.51253  0.019324327    0.0190952           10 
 2513000   0.84117436   -7.4911851    581.25593  0.019274968  0.019088581           19 
 2514000   0.84711497   -7.4927784    582.86933  0.019320781  0.019082007           19 
 2515000   0.84826464   -7.5277493    582.16661  0.019289815  0.019075472           14 
 2516000   0.86748656   -7.5393995    580.38004  0.019222974  0.019068891           11 
 2517000   0.83390817   -7.4961299    582.76175  0.019294191  0.019062299            7 
 2518000   0.84830933   -7.5124303    582.29078  0.019270942  0.019055718           10 
 2519000   0.86259243   -7.4811138    581.75212  0.019245472  0.019049183           11 
 2520000   0.85407654   -7.5034592    581.80108  0.019239454  0.019042599            9 
 2521000   0.85989192   -7.4773689    582.68956  0.019261191  0.019036039            7 
 2522000   0.82774058   -7.5301555    582.72125  0.019254601   0.01902951           17 
 2523000   0.85239971   -7.4895782    583.71027  0.019279636  0.019022983            5 
 2524000    0.8525408   -7.5175711    583.11474  0.019252336  0.019016516            5 
 2525000   0.83922682   -7.5096785    583.21163  0.019247908  0.019010002            8 
 2526000   0.84944702   -7.4869986    582.02252   0.01920106  0.019003513            8 
 2527000   0.86472065   -7.4965826    584.29825  0.019268508  0.018997057            6 
 2528000   0.85344013   -7.5185016    582.50826  0.019201881  0.018990581            6 
 2529000   0.83876568   -7.4995556    582.43803  0.019191974  0.018984101           11 
 2530000   0.83766674   -7.5232175    583.86436  0.019231369  0.018977608            9 
 2531000   0.83805906   -7.4650647    585.33348  0.019272141   0.01897116           11 
 2532000   0.85628935   -7.4811684    584.95291  0.019252005  0.018964739           10 
 2533000   0.84813392   -7.5162212    585.29707  0.019255727  0.018958301            5 
 2534000   0.83970679   -7.5292735     583.1681  0.019178114  0.018951841            6 
 2535000   0.83230449   -7.4714304    583.60651  0.019184961  0.018945343            8 
 2536000   0.84394862   -7.4955682    583.37243  0.019169704  0.018938838            5 
 2537000   0.84939925   -7.4822031    583.84519  0.019177677  0.018932327           15 
 2538000   0.83654975   -7.5346203    581.82715   0.01910386  0.018925803           21 
 2539000    0.8370817    -7.545284    582.47878  0.019117723  0.018919263           27 
 2540000   0.83529917   -7.5249878    583.89265  0.019156583  0.018912693           22 
 2541000   0.83709808   -7.5083402    583.56865  0.019138418  0.018906169            7 
 2542000   0.84465841   -7.4852494    583.41336  0.019125799  0.018899665            7 
 2543000     0.846711   -7.5027636    584.19338  0.019143839  0.018893182            9 
 2544000   0.84757536   -7.5141556    583.46594  0.019112485  0.018886679            8 
 2545000   0.85684236   -7.5018623    584.45656  0.019137412  0.018880187            9 
 2546000   0.83977744    -7.495628     584.4648  0.019130165  0.018873729           23 
 2547000   0.83081521   -7.5104259    584.46032  0.019122508  0.018867259           10 
 2548000   0.86265426   -7.5180535    583.37106  0.019079378  0.018860754           13 
 2549000   0.82692941   -7.4864128    586.03142  0.019158867  0.018854287           18 
 2550000   0.87272459   -7.5319757     584.7956  0.019110967  0.018847835           22 
 2551000   0.84089168   -7.5192375    583.59571  0.019064279  0.018841325           11 
 2552000   0.83942681    -7.521949    583.84425  0.019064924  0.018834872           11 
 2553000   0.84994213   -7.4633711    587.44085  0.019174855  0.018828422           22 
 2554000   0.84638717   -7.5187522    584.37875  0.019067435  0.018821967           24 
 2555000   0.85922912   -7.4860661    584.07588  0.019050094  0.018815511           27 
 2556000   0.84804678   -7.5175518    584.23113  0.019047703  0.018809045           13 
 2557000   0.83760277   -7.4986049    585.76803  0.019090341  0.018802603           17 
 2558000   0.83093156   -7.5342209    584.33451  0.019036178  0.018796154           18 
 2559000   0.84569829   -7.4929505    587.16013  0.019120754  0.018789743           11 
 2560000   0.85851756   -7.5127687      585.418  0.019056576  0.018783324            7 
 2561000   0.87605049   -7.5418184    583.96132  0.019001735  0.018776844           13 
 2562000   0.82805983   -7.5480252    583.12295  0.018967049  0.018770318           19 
 2563000   0.82155632   -7.5640448    582.09126  0.018926104  0.018763768            6 
 2564000   0.84341003   -7.5666033    582.98704  0.018947837  0.018757244           10 
 2565000   0.83922763   -7.5386512    583.16121  0.018946108  0.018750752           11 
 2566000   0.84909044   -7.5339082    584.49531  0.018982051   0.01874427            8 
 2567000    0.8549154   -7.4848744    586.73493  0.019047362  0.018737827           13 
 2568000   0.82159688   -7.5083834    584.85388  0.018978903  0.018731424           13 
 2569000   0.84043294   -7.5418568    585.62307  0.018996467  0.018724983           17 
 2570000   0.83861285   -7.5070796    585.26075  0.018977327  0.018718537           18 
 2571000   0.82824823   -7.4999056    584.97892   0.01896081  0.018712086            2 
 2572000   0.83307014   -7.5586456    584.00652  0.018921932  0.018705664            9 
 2573000   0.81194301   -7.5077122    586.64101  0.018999903  0.018699237           13 
 2574000   0.83640884   -7.4883348     587.3709  0.019016152  0.018692835            7 
 2575000   0.86029851   -7.5287743    585.81677  0.018958472  0.018686425            6 
 2576000   0.82056713   -7.4981528    586.34932   0.01896834  0.018679984            7 
 2577000   0.82166006   -7.5484792    584.92792  0.018915015  0.018673589            6 
 2578000    0.8444591   -7.5543276    585.01863   0.01891061  0.018667146            8 
 2579000   0.83667877   -7.5292534    585.97135  0.018934062  0.018660676            9 
 2580000   0.83779552   -7.5471911     584.9642  0.018894192   0.01865421           13 
 2581000   0.83566899   -7.5484156    584.89378  0.018884598  0.018647752           22 
 2582000   0.84243615   -7.5542806    585.30082  0.018890422  0.018641306           11 
 2583000   0.84101524   -7.5004351    586.08427  0.018908384  0.018634853            7 
 2584000   0.83131961   -7.5358872    585.19492  0.018872385  0.018628416            8 
 2585000   0.83765486   -7.5277616    584.81426  0.018852813  0.018622027           25 
 2586000   0.84188396    -7.510374    586.59617  0.018902944  0.018615609           10 
 2587000   0.86115581   -7.5296337    585.98942  0.018876093  0.018609209            7 
 2588000   0.82660545   -7.5390225    584.14239  0.018809325  0.018602805            8 
 2589000     0.830329   -7.5293819     585.4808   0.01884514  0.018596367           14 
 2590000   0.83447621   -7.5409733     585.7223  0.018845634   0.01858996           10 
 2591000   0.83213595   -7.5111991    586.03362  0.018848373  0.018583542            6 
 2592000   0.82700177   -7.5385168    585.75098  0.018832015  0.018577153            8 
 2593000   0.83477861   -7.5218658    586.79791  0.018858398  0.018570764           12 
 2594000   0.82870889   -7.5077226    586.98047  0.018856993  0.018564395            6 
 2595000   0.83783649   -7.5156508    587.31072  0.018860332  0.018558078            7 
 2596000   0.84212356   -7.5525931    585.38751   0.01879133  0.018551744           12 
 2597000   0.84084111   -7.5408213    587.85606  0.018863306  0.018545351           17 
 2598000   0.84319457   -7.5071307    587.99546  0.018860516  0.018539006           15 
 2599000   0.83897436   -7.5733194    586.66353  0.018810553  0.018532623            8 
 2600000   0.84663707   -7.5293305    587.00653  0.018814312  0.018526228           10 
 2601000   0.81579423   -7.5690545    586.08929  0.018777691  0.018519844            9 
 2602000   0.85430336   -7.5528347    585.97236  0.018766729  0.018513454           10 
 2603000    0.8238364   -7.5451407    585.24047  0.018736089  0.018507068            8 
 2604000   0.85098308   -7.5323568     587.8323  0.018811838  0.018500709           13 
 2605000   0.82818443   -7.5487034    586.02768  0.018746887  0.018494364           13 
 2606000   0.84361782   -7.5373566    586.92731  0.018768461  0.018487952            7 
 2607000   0.84705842   -7.5549609    586.13016  0.018735781  0.018481515           10 
 2608000    0.8363004   -7.5659656    585.64612   0.01871313   0.01847509           11 
 2609000   0.83053654   -7.5567839    587.68926  0.018771217  0.018468671           10 
 2610000    0.8516066   -7.5509549    586.26419  0.018718524  0.018462275           10 
 2611000   0.83175499   -7.5743213      585.265  0.018679465   0.01845586           42 
 2612000   0.83050026     -7.55253    584.67614  0.018653527  0.018449426           38 
 2613000   0.83886575   -7.5523449    586.81837  0.018714708  0.018443013           26 
 2614000   0.85492681   -7.5517475    587.63937  0.018733721   0.01843659           23 
 2615000   0.84960167   -7.5354909    586.43668  0.018688231  0.018430196           19 
 2616000   0.84189376   -7.5485596    585.77169  0.018659904  0.018423786            6 
 2617000    0.8376029    -7.508883    587.03865  0.018693117  0.018417384           19 
 2618000   0.83373579    -7.585614    586.37936  0.018664991  0.018410962           13 
 2619000   0.82350853   -7.5705086    585.48473  0.018629398  0.018404574           23 
 2620000    0.8253808   -7.5909092    585.27566  0.018615638  0.018398153            8 
 2621000   0.83584533   -7.5795967      584.808  0.018593667  0.018391667            6 
 2622000   0.83186789   -7.5568899    586.41253  0.018637571   0.01838523            4 
 2623000   0.85016454   -7.5693069    586.45179  0.018631713  0.018378801           11 
 2624000   0.82678887   -7.5608417    585.11111  0.018582035  0.018372346           10 
 2625000   0.81991253   -7.5668549    587.03881  0.018636153  0.018365895           15 
 2626000    0.8220996   -7.5795267    584.58311  0.018551127  0.018359466           21 
 2627000    0.8352945   -7.5862157    586.73133  0.018612211  0.018353046           11 
 2628000   0.84069676    -7.568506    586.58986  0.018600642  0.018346654           11 
 2629000   0.83357081   -7.5722904    587.55859  0.018624274  0.018340287           10 
 2630000   0.83463533   -7.5550839     586.8749  0.018595529  0.018333871           10 
 2631000   0.82397245   -7.5659061    589.33799  0.018666476  0.018327475            7 
 2632000   0.82799433   -7.5752755    588.45924  0.018631562  0.018321049            9 
 2633000   0.84200196   -7.5957679    587.35441  0.018589518  0.018314586           14 
 2634000   0.82555199   -7.5624033    586.61904  0.018559195  0.018308173           19 
 2635000   0.83746454   -7.5659723    586.49058  0.018548089  0.018301717           25 
 2636000   0.82359914    -7.570204    585.74245  0.018517402  0.018295306           13 
 2637000   0.83137283   -7.5679364    586.50625  0.018534517   0.01828889           13 
 2638000    0.8324332   -7.5290243    589.38011  0.018618275  0.018282506            8 
 2639000   0.82134794   -7.5636886    585.92003  0.018501959  0.018276122            6 
 2640000   0.81236864   -7.6007699    586.93341  0.018526938  0.018269687           19 
 2641000   0.83908183   -7.5740569    586.59409  0.018509217  0.018263249            8 
 2642000   0.82651292   -7.5706944    586.21794  0.018490346  0.018256816            6 
 2643000   0.82725802   -7.5788712     586.1667  0.018481735  0.018250379            9 
 2644000   0.82002895   -7.5742066    587.29971  0.018510455  0.018243908            8 
 2645000   0.80341673   -7.5567754    587.60146  0.018512963  0.018237447            7 
 2646000   0.82414787    -7.606927    585.87572  0.018451616  0.018230973           14 
 2647000   0.84623605   -7.5867674    587.88372  0.018507862  0.018224499            5 
 2648000   0.81775421   -7.5641031     587.0797   0.01847557  0.018218035           18 
 2649000   0.81000288   -7.5696356    587.69466  0.018487941   0.01821165           15 
 2650000   0.81734526   -7.5651748    588.08045  0.018493096  0.018205251           20 
 2651000   0.84616096   -7.5746345    587.39811  0.018464671  0.018198904           17 
 2652000   0.83783852   -7.5489191    587.69782  0.018467126  0.018192533            9 
 2653000   0.83480953   -7.5593908    587.76603  0.018462308  0.018186169           11 
 2654000   0.82242543   -7.5843903    587.46063  0.018445762  0.018179772           11 
 2655000   0.84031298   -7.5725585    587.71607  0.018446832  0.018173374            8 
 2656000   0.82186623   -7.5601469    588.14588  0.018453372  0.018166964            9 
 2657000    0.8271093   -7.5622838    586.89479  0.018407188  0.018160571           17 
 2658000    0.8172583   -7.5846397    585.60646  0.018359872  0.018154171            8 
 2659000   0.83106851   -7.5691831    587.18085  0.018402308  0.018147759            7 
 2660000   0.82654873    -7.591702    586.14054  0.018362799  0.018141358           10 
 2661000   0.82638678   -7.5712401    588.80839  0.018439446   0.01813493           11 
 2662000    0.8123996   -7.5765503    586.87007   0.01837184   0.01812852           19 
 2663000   0.83755764   -7.5664972    588.03702  0.018401459  0.018122111           21 
 2664000   0.83666392   -7.5844523    587.25284  0.018370021  0.018115724           12 
 2665000   0.82174978   -7.5411549    588.31544  0.018396355   0.01810931           10 
 2666000   0.83101419   -7.5911672    588.67298  0.018400631   0.01810293           13 
 2667000   0.82915116   -7.5297904    589.24542  0.018411618   0.01809656            8 
 2668000   0.82026176     -7.56419    589.39839  0.018409495  0.018090231           11 
 2669000   0.82364711   -7.5696743     587.6673  0.018348548  0.018083868           25 
 2670000   0.82101842   -7.5710234    588.55199  0.018369288  0.018077508            8 
 2671000   0.83616408   -7.5658632    587.19873   0.01832019  0.018071136            8 
 2672000    0.8192257   -7.5345222    587.73433  0.018330038  0.018064794           11 
 2673000   0.80320052   -7.5846147    587.32294  0.018310355   0.01805842           12 
 2674000   0.81920801   -7.5478321    589.01511  0.018356242  0.018052059           29 
 2675000   0.82308416   -7.5899571    585.32887  0.018234544  0.018045661           56 
 2676000   0.81762112    -7.578729    588.48398  0.018325983  0.018039285           15 
 2677000   0.81148301   -7.5911815    587.51371  0.018288934  0.018032913           10 
 2678000    0.8041853   -7.5670136    589.62993  0.018347956  0.018026526            8 
 2679000   0.82653568   -7.5878998    587.63759  0.018279134   0.01802009           20 
 2680000   0.81777114   -7.5639777    588.95808  0.018313373  0.018013639            9 
 2681000   0.82371403   -7.6080907    587.19759  0.018251821  0.018007218            9 
 2682000   0.83594842   -7.5596411    587.56291  0.018256367  0.018000802           11 
 2683000   0.82002586   -7.6000169    587.89392  0.018259843  0.017994409           15 
 2684000   0.83288935   -7.5826289    587.94629  0.018254666  0.017987989            7 
 2685000   0.84522192   -7.5755636    588.03416  0.018250595  0.017981605           10 
 2686000   0.81316197   -7.5793904    586.92965  0.018209532  0.017975218           10 
 2687000   0.83976734   -7.5928869    588.85906  0.018262593  0.017968829           10 
 2688000   0.80729366   -7.5972508    587.22467   0.01820513  0.017962441           11 
 2689000   0.82088085   -7.5712706    587.87972   0.01821866  0.017956055           11 
 2690000   0.84499412   -7.5777863    588.34447  0.018226285  0.017949663           10 
 2691000    0.8237316   -7.5577804    589.01503  0.018240277  0.017943275            8 
 2692000   0.81306079   -7.5771895    588.25871  0.018210089  0.017936911            9 
 2693000   0.82019199   -7.5794639    590.15726  0.018262076  0.017930575           28 
 2694000   0.83249925   -7.5868376    588.26239  0.018196684  0.017924241           14 
 2695000   0.83141472   -7.5628769    587.97393  0.018181012  0.017917831           31 
 2696000   0.82385687   -7.5822915    587.68289  0.018165272  0.017911418           31 
 2697000    0.8214082    -7.587043    587.57049  0.018155064  0.017904997           13 
 2698000   0.82002336   -7.6027351    588.29361   0.01817067  0.017898589            6 
 2699000   0.81188661   -7.6098272    587.49385  0.018139245  0.017892184            6 
 2700000   0.80892629   -7.5993129    589.01079  0.018179345  0.017885748            9 
 2701000   0.81436298   -7.6179808    587.21418  0.018117184  0.017879325           14 
 2702000   0.80924565   -7.6146858    587.56378  0.018121261   0.01787292           22 
 2703000     0.812106    -7.636064    588.05322  0.018129647  0.017866528           22 
 2704000   0.82767483   -7.6160996    587.34498  0.018101115  0.017860156           13 
 2705000     0.822911   -7.6037174    587.79308  0.018108228  0.017853776           22 
 2706000   0.80575783   -7.6112293    588.31068  0.018117476  0.017847366           15 
 2707000    0.8106239    -7.629605    587.39845  0.018082701   0.01784096            8 
 2708000   0.82591964   -7.5959324    588.94844  0.018123721   0.01783457            7 
 2709000   0.81830095     -7.57506    588.24115  0.018095274  0.017828177           35 
 2710000   0.81304053   -7.5975506    588.79126  0.018105512  0.017821803           10 
 2711000   0.81652476   -7.5790566    589.34794  0.018115946  0.017815424           31 
 2712000   0.82322399   -7.5949955    588.96278  0.018097431   0.01780905           25 
 2713000   0.82326757    -7.610867    589.69185  0.018113154  0.017802707           17 
 2714000   0.83452598   -7.5856714     590.2913  0.018124887  0.017796338           22 
 2715000   0.80598783   -7.5826857    589.06818  0.018080669  0.017789963           19 
 2716000   0.82982786   -7.6165945    587.92421  0.018038912  0.017783585           12 
 2717000   0.83692825   -7.6039184    588.23011  0.018041655  0.017777217           10 
 2718000   0.82098464   -7.6240161    588.66836  0.018048453  0.017770863           14 
 2719000   0.81927463   -7.6018168    589.71663  0.018073943   0.01776448           32 
 2720000   0.81903581    -7.601449    589.02167  0.018046007  0.017758111           24 
 2721000   0.80616478   -7.6461892    587.78893  0.018001621   0.01775174            9 
 2722000    0.8188836   -7.6129668    586.88788  0.017967422  0.017745343           14 
 2723000   0.81728741   -7.6117721    588.68831  0.018015923  0.017738944           17 
 2724000   0.82366231    -7.607588    590.22439  0.018056302  0.017732573            9 
 2725000   0.81235006   -7.5965933    589.36011  0.018023245  0.017726279           17 
 2726000   0.82029053     -7.63078    587.98199  0.017974504  0.017719933            7 
 2727000   0.82380796   -7.6177526    588.60389  0.017986918  0.017713586           19 
 2728000   0.82451723   -7.5993024     589.1189  0.017996056  0.017707219           14 
 2729000   0.83770289   -7.6196714    588.89717  0.017982691  0.017700853           17 
 2730000   0.84366294   -7.5782341    589.75049  0.018002152  0.017694513           16 
 2731000   0.83598058   -7.5980757    590.33187    0.0180133  0.017688161           14 
 2732000   0.82592384   -7.5991458    589.57906  0.017983744  0.017681823           22 
 2733000   0.79762144   -7.6247425    588.27092  0.017937277  0.017675486           15 
 2734000   0.79294745   -7.6130106    588.93411   0.01795093  0.017669093           20 
 2735000    0.8019276   -7.6207976    589.78963  0.017970434  0.017662734           11 
 2736000   0.80579217   -7.5928273    589.80269  0.017964263  0.017656379           15 
 2737000   0.79967118   -7.5967694     587.5004  0.017887602  0.017650005           23 
 2738000   0.81925275    -7.640772    588.47011  0.017910583   0.01764366           21 
 2739000   0.81111466   -7.6193393      590.309  0.017959991  0.017637304           13 
 2740000   0.80828139   -7.6349312    587.76415  0.017876039  0.017630959           55 
 2741000   0.80403522   -7.6345874    588.79368  0.017900817  0.017624608           48 
 2742000   0.79419935   -7.6403505    588.20323  0.017876344  0.017618249           28 
 2743000   0.82521409   -7.6600658    588.60443  0.017882016  0.017611879           31 
 2744000   0.82732966   -7.6220564    588.98264  0.017886985   0.01760556           10 
 2745000   0.81243772   -7.6320832    589.49408  0.017895995  0.017599257           20 
 2746000   0.82923001   -7.6231681    590.51873  0.017920573  0.017592958           40 
 2747000   0.81524957   -7.6311965    588.52651  0.017853613  0.017586664           10 
 2748000   0.80673784   -7.6225001    589.79533  0.017885593  0.017580348           20 
 2749000    0.8130132   -7.6065976    589.87898  0.017881623  0.017574053           10 
 2750000    0.8223048    -7.612328    590.97024  0.017908189   0.01756775           37 
 2751000   0.80883505   -7.6359478    590.23938   0.01787954  0.017561466           44 
 2752000   0.81374393   -7.6405648    591.12093  0.017899737  0.017555151           31 
 2753000   0.80130044   -7.6331826    590.04565  0.017860687  0.017548817           15 
 2754000   0.80909159   -7.6346502    589.53327  0.017838697  0.017542539           17 
 2755000   0.81060257   -7.6258553    590.37575  0.017857706  0.017536281           33 
 2756000   0.82452421   -7.6141729    592.17615  0.017905665  0.017530026           12 
 2757000   0.81929439   -7.5974028    589.85314  0.017828955  0.017523752           21 
 2758000   0.79962443   -7.6366131    590.66069   0.01784689  0.017517499            7 
 2759000   0.81827716   -7.6070193    589.87396   0.01781666  0.017511244           15 
 2760000   0.81792201   -7.6445656    589.16829  0.017788898  0.017504959           18 
 2761000    0.7938053   -7.6033815    589.32275  0.017787117  0.017498664            9 
 2762000   0.80506294   -7.6518068     589.4188  0.017783575   0.01749236           12 
 2763000   0.79909338   -7.6669538    590.03853   0.01779583   0.01748606           11 
 2764000   0.81433283   -7.6530363    590.77182    0.0178115  0.017479743           13 
 2765000   0.82034031   -7.6315264     590.2526  0.017789409  0.017473418            6 
 2766000   0.80569361   -7.6522518    589.75455  0.017767973  0.017467147           13 
 2767000   0.80166179   -7.6595326    589.17139  0.017743988   0.01746088           16 
 2768000   0.81950642   -7.6419895    590.09492  0.017765382  0.017454585            7 
 2769000   0.80432994   -7.6640279    589.52209  0.017741727  0.017448334           11 
 2770000   0.82289325   -7.6758583    588.76412  0.017712519  0.017442047           20 
 2771000   0.83924625   -7.6582426    590.26612  0.017751297  0.017435758           16 
 2772000   0.82506085   -7.6704499    588.84716  0.017702236  0.017429431           12 
 2773000   0.78941639    -7.670918    588.62045  0.017689039  0.017423111           13 
 2774000   0.78966436   -7.6541417    589.07267  0.017696247  0.017416805           10 
 2775000   0.81110552   -7.6671534    589.12499  0.017691441  0.017410503           11 
 2776000   0.80359984   -7.6515813    590.98507  0.017740906  0.017404212           11 
 2777000   0.83183129   -7.6688932    590.24509  0.017712312  0.017397902           10 
 2778000   0.80277375   -7.6590146    590.22779  0.017705417  0.017391616           16 
 2779000   0.79452769   -7.6886966     589.5207  0.017677843  0.017385294           26 
 2780000   0.80426667   -7.6832189    590.33122   0.01769578  0.017378965           20 
 2781000   0.81198506   -7.6432113    590.53265  0.017695453  0.017372648           23 
 2782000   0.82368208   -7.6583559    589.16713  0.017648189  0.017366362           31 
 2783000    0.7990228   -7.6902259    588.24505  0.017614237  0.017360028           41 
 2784000   0.79863262   -7.6853542    589.12712  0.017634313  0.017353677           39 
 2785000   0.80542571   -7.6516788    588.19216  0.017600005  0.017347311           27 
 2786000   0.81889139   -7.6667981    589.52191  0.017633462  0.017340995           15 
 2787000   0.80006587   -7.6840008    589.27497  0.017619751  0.017334653           24 
 2788000   0.79571487   -7.6608389    589.28791  0.017613818  0.017328299           21 
 2789000   0.82947119   -7.6688816    589.36702  0.017609867   0.01732196           25 
 2790000   0.80612102   -7.6707928    589.17683  0.017597874  0.017315634           19 
 2791000   0.79060179    -7.685308    589.23763  0.017593384  0.017309309           17 
 2792000   0.82399319   -7.6710454    589.37535  0.017591194  0.017302995           21 
 2793000   0.79091121   -7.6924645    588.82007  0.017568328  0.017296676           21 
 2794000   0.81577508   -7.6926531    589.30814  0.017576597  0.017290348           38 
 2795000   0.79612538   -7.6539471    589.11594  0.017564578  0.017284046           17 
 2796000   0.82134974   -7.6547494    590.12346  0.017588324   0.01727774           27 
 2797000   0.81743614   -7.6703897     591.5753  0.017625292  0.017271441           49 
 2798000   0.80331937   -7.6999989     587.5307  0.017498532  0.017265125           22 
 2799000    0.7976407   -7.6647225    588.67771  0.017526429  0.017258814           16 
 2800000   0.80873781   -7.6509885    589.92011  0.017557146  0.017252536           30 
 2801000   0.79575561   -7.6456623    589.98921  0.017552934  0.017246251           31 
 2802000   0.80726102    -7.654914     589.5623  0.017533973  0.017239965           23 
 2803000   0.80195429   -7.6515126    589.68359  0.017531323  0.017233734           21 
 2804000   0.79521363   -7.6819705    588.81634  0.017499297  0.017227441           30 
 2805000   0.82028079   -7.6401746    590.28021  0.017536548  0.017221119           35 
 2806000   0.80615144   -7.6560466    590.78653  0.017545335  0.017214819           35 
 2807000   0.79927629   -7.6674329    588.91394  0.017483492  0.017208519           11 
 2808000   0.79944916   -7.6542965    590.55313  0.017525912  0.017202218           17 
 2809000   0.79219037   -7.6140028    591.28946  0.017541517  0.017195918           32 
 2810000   0.80966371   -7.6531743    589.38482  0.017478791  0.017189648           23 
 2811000   0.80359033   -7.6555035    588.90024  0.017458207  0.017183353           18 
 2812000   0.79617893    -7.649572    589.30885  0.017464108  0.017177094            5 
 2813000   0.82358516   -7.6416306    589.96244  0.017477261  0.017170832           19 
 2814000   0.80097743   -7.6571363    589.95971   0.01747097  0.017164537           30 
 2815000   0.81755309   -7.6558055    590.25687   0.01747356  0.017158261           46 
 2816000     0.806137   -7.6638067     590.2335  0.017466664  0.017151991           17 
 2817000   0.81161729   -7.6648751    590.14758  0.017457921  0.017145675           20 
 2818000   0.79470162   -7.6507961    591.77397  0.017499822   0.01713936           11 
 2819000   0.80301816   -7.6530629    589.29955  0.017420467  0.017133059           13 
 2820000   0.81199215   -7.6434338     591.2896  0.017473097  0.017126747           11 
 2821000   0.79224512   -7.6977312     590.1181  0.017432297   0.01712042           11 
 2822000   0.80418552   -7.6644848    589.45314  0.017406483   0.01711408            8 
 2823000   0.81091617   -7.6996225     590.2121  0.017422721  0.017107768           13 
 2824000    0.7882723    -7.684687    588.44005   0.01736426  0.017101455           21 
 2825000   0.80000014   -7.7169164    588.21117  0.017351362  0.017095107           32 
 2826000   0.79699692   -7.7079404    589.60712  0.017386386  0.017088749           21 
 2827000   0.79696833   -7.7470021    588.37353  0.017343872  0.017082408           28 
 2828000   0.79676342   -7.6961657    589.07605  0.017358441  0.017076085           25 
 2829000   0.80604553   -7.6897458    588.07951   0.01732295  0.017069766           10 
 2830000   0.80979291   -7.7238356      587.872  0.017310718  0.017063419           11 
 2831000   0.77531313   -7.6653482     589.9877  0.017366882  0.017057081           13 
 2832000   0.77996909   -7.7059499    589.31752  0.017341029  0.017050752            7 
 2833000   0.79748899   -7.6952833    589.05749  0.017327259  0.017044423           24 
 2834000    0.8065206   -7.6868798    590.99995  0.017378262  0.017038133            8 
 2835000   0.80251288    -7.714631    588.95439  0.017312004  0.017031847           19 
 2836000   0.79364697   -7.7194753    589.69564  0.017327681   0.01702552            6 
 2837000   0.78725073   -7.6988938    588.51567  0.017286913  0.017019187           12 
 2838000   0.78303964   -7.6977309     589.4649  0.017308695  0.017012861           24 
 2839000   0.80441075   -7.6993924    589.35394  0.017299341  0.017006545           19 
 2840000   0.79636672   -7.7021756    589.14967  0.017287255  0.017000271           23 
 2841000    0.8036035   -7.6805697    590.19879  0.017311944  0.016994003           10 
 2842000   0.79857425   -7.6732861    590.93947  0.017327571   0.01698773           30 
 2843000   0.78850298   -7.6734947    590.37695  0.017304987  0.016981492           20 
 2844000   0.80309547   -7.6950359    588.89965  0.017255616  0.016975222           30 
 2845000   0.79985889   -7.6767971    590.31995  0.017291153  0.016968953           27 
 2846000   0.78321557    -7.717443    590.43139   0.01728834  0.016962687           28 
 2847000   0.81294296   -7.6703133    590.39915  0.017281324  0.016956418           15 
 2848000   0.80100535   -7.6689414    591.46308  0.017306387  0.016950157           20 
 2849000   0.80558866   -7.6807078    588.73646  0.017220559  0.016943919           21 
 2850000   0.79778293   -7.6790158    589.86396  0.017247484   0.01693768           11 
 2851000   0.80281411   -7.7281317    589.05765  0.017217867  0.016931435           24 
 2852000   0.79215749   -7.6558143    591.43674  0.017281345  0.016925207           20 
 2853000   0.79317684   -7.7074983    591.50855  0.017277385  0.016918998           16 
 2854000   0.80397262   -7.6910643    590.74798  0.017249123  0.016912802           26 
 2855000   0.79493171   -7.6834345    591.61976  0.017268528  0.016906605           21 
 2856000   0.79938519   -7.7073611     591.3203  0.017253744  0.016900376           34 
 2857000    0.7933998    -7.694059    589.76225  0.017202259  0.016894112           28 
 2858000   0.79611714   -7.7063409    591.09111  0.017234987  0.016887878           30 
 2859000   0.80342226   -7.7046258    590.80274  0.017220553  0.016881647           27 
 2860000   0.78207415   -7.7156861    590.08286  0.017193557  0.016875422           23 
 2861000    0.7920297   -7.6938657    590.05461  0.017186724  0.016869214           24 
 2862000   0.80546289   -7.7071214    591.35683  0.017218636  0.016863021           17 
 2863000   0.79899155    -7.681575    591.76133  0.017224395  0.016856815           25 
 2864000   0.77539998   -7.7132843    590.87368  0.017192553  0.016850634           36 
 2865000   0.77692491   -7.6939864    591.20352  0.017196147  0.016844431           17 
 2866000   0.79134485    -7.727739    589.94846  0.017153654  0.016838226           30 
 2867000   0.79480137   -7.6917018    590.76596  0.017171432  0.016832041           16 
 2868000   0.77793859   -7.7061947    591.93068  0.017199288  0.016825878           16 
 2869000   0.79206239   -7.6960994    591.38493  0.017177441  0.016819742           19 
 2870000   0.79700334   -7.6778639    591.28297  0.017168495  0.016813568           13 
 2871000   0.80998397   -7.6873426    591.59583  0.017171596  0.016807422           13 
 2872000   0.77613478   -7.6696876    591.95863  0.017176144  0.016801312           10 
 2873000    0.7819322   -7.6715416    592.03395   0.01717235  0.016795207           20 
 2874000   0.80849122   -7.6735383    592.66443  0.017184656  0.016789082           10 
 2875000   0.80286898   -7.6759183    592.40087   0.01717104  0.016782897           24 
 2876000   0.76581218   -7.6757107     591.5878   0.01714151  0.016776768           14 
 2877000   0.78967243   -7.6831402    591.44279  0.017131352   0.01677064           10 
 2878000   0.79727063   -7.7092538    590.15658  0.017088157  0.016764466           25 
 2879000   0.77437138   -7.7040649    591.32924  0.017116164  0.016758295           16 
 2880000   0.79843609   -7.6862085    591.61206  0.017118404  0.016752144           15 
 2881000   0.80295523   -7.7017016    591.76893     0.017117  0.016745985           10 
 2882000   0.77520278   -7.6770953    591.95394   0.01711641  0.016739847           10 
 2883000   0.79546001   -7.7226533    590.42464  0.017066269  0.016733701           18 
 2884000   0.78386064   -7.6920093    591.96911  0.017104979  0.016727571           19 
 2885000   0.77778735   -7.6665219    591.21144  0.017077165  0.016721429           11 
 2886000   0.78294009    -7.674231    591.95339  0.017092671  0.016715293           19 
 2887000   0.76692438   -7.6685148    590.18891  0.017035819  0.016709161           12 
 2888000   0.79804135   -7.6755662    591.88808   0.01707895  0.016703041           14 
 2889000   0.77400814   -7.6674047    592.37211     0.017087  0.016696933           12 
 2890000   0.79481527   -7.6773094    590.57193  0.017029179  0.016690821           18 
 2891000   0.78316852   -7.6594296    592.52041  0.017079454    0.0166847           10 
 2892000   0.79564501   -7.6893131     590.3222  0.017010206  0.016678593           18 
 2893000   0.79053343   -7.6564124    593.87097  0.017106549  0.016672487           24 
 2894000   0.81662585   -7.6905678    592.30383  0.017055512  0.016666417           16 
 2895000    0.7788993   -7.7216934     589.4911  0.016968656  0.016660299           18 
 2896000   0.78150674   -7.6780167    591.80703  0.017029438  0.016654176           15 
 2897000   0.78907773    -7.709622    592.89162  0.017054758  0.016648065           32 
 2898000   0.79764483   -7.7150828    589.28958  0.016945295  0.016641928           23 
 2899000   0.78706847   -7.7183405     591.9603  0.017016221  0.016635785           31 
 2900000   0.78074667    -7.714325    590.62914  0.016972102  0.016629627           62 
 2901000   0.77379524   -7.6834085    590.85688  0.016972793  0.016623487           24 
 2902000   0.79839579   -7.6775515    592.03109  0.017000663  0.016617357           22 
 2903000   0.76187217   -7.6957805    592.20466  0.016999789  0.016611235           48 
 2904000   0.79343232   -7.6890533    592.70999  0.017008436  0.016605112           18 
 2905000   0.78274674   -7.7166767    592.22612  0.016988701  0.016598977           11 
 2906000   0.77461325   -7.7005737    592.16305  0.016981046   0.01659284           28 
 2907000   0.78790324   -7.6916802    591.33849  0.016951568  0.016586714           31 
 2908000   0.78381296   -7.7150166     592.2621  0.016972206  0.016580594           24 
 2909000   0.78420334    -7.717992    592.07237  0.016960937    0.0165745           33 
 2910000   0.78030059   -7.7047097     592.8675  0.016977878  0.016568409           15 
 2911000   0.78933936   -7.6740478    592.83328  0.016971066   0.01656235           22 
 2912000   0.78133441   -7.6834822    592.24627  0.016948439  0.016556282            7 
 2913000    0.7898571   -7.6815892    593.45872  0.016977306  0.016550221           10 
 2914000   0.79649054   -7.7165561    592.37439  0.016940471  0.016544142            5 
 2915000    0.7863306   -7.7050318    592.49084  0.016937989  0.016538068            8 
 2916000   0.78874539   -7.6879796    592.47833  0.016931823  0.016532005           14 
 2917000   0.78402533   -7.6714798    592.89468  0.016937912  0.016525946           29 
 2918000    0.7813664   -7.6831543    591.96127  0.016905451  0.016519909           22 
 2919000   0.78307246   -7.6980406    592.14622  0.016904939  0.016513855           16 
 2920000   0.79673667   -7.6952804    592.55985  0.016910955  0.016507772           11 
 2921000   0.78786705   -7.6843328    592.37438  0.016899874  0.016501689           15 
 2922000   0.78561482   -7.6968901    592.80016  0.016906233  0.016495619           16 
 2923000   0.78475379   -7.6683079    593.19942  0.016911832  0.016489544            9 
 2924000   0.79526329   -7.7150919    592.15917  0.016876401   0.01648344           10 
 2925000   0.79651317   -7.7146966    591.91661  0.016863721  0.016477302           14 
 2926000   0.77817191   -7.6819967    592.26821  0.016867971  0.016471201           12 
 2927000   0.78541224   -7.7149569    591.84917  0.016850278  0.016465133           13 
 2928000   0.76212878   -7.7074555    591.95955  0.016847665  0.016459048            8 
 2929000   0.78004278      -7.7248    592.41753  0.016854943  0.016452988           17 
 2930000   0.77778564   -7.7067624     591.2651  0.016816414  0.016446887           21 
 2931000   0.79471183   -7.7066605    591.50066  0.016817373  0.016440801            8 
 2932000    0.7854127   -7.7206178    592.15988  0.016830374  0.016434727           18 
 2933000   0.79256839   -7.7363094    592.37006  0.016830607  0.016428675           16 
 2934000   0.76726815   -7.7143465    592.24304  0.016821263  0.016422612           11 
 2935000   0.76092429    -7.718605    591.96878  0.016807745  0.016416549           13 
 2936000   0.78548335   -7.7020753    592.66701  0.016821838  0.016410509           17 
 2937000   0.77162949   -7.6870513    594.55229  0.016869603  0.016404462           15 
 2938000   0.76497281   -7.7223233    592.17653  0.016796475  0.016398414           20 
 2939000   0.78572521   -7.7107569    593.01804  0.016814621  0.016392344           27 
 2940000   0.79083475   -7.7303265     592.8991   0.01680553  0.016386291           11 
 2941000   0.79553927   -7.7060973    593.16797  0.016807434  0.016380238           14 
 2942000   0.77748332   -7.6985946    592.03665  0.016769676  0.016374212           47 
 2943000   0.77976201   -7.6893221    593.97191  0.016818777  0.016368215           18 
 2944000   0.78343486   -7.6761282    594.03043   0.01681472  0.016362215           16 
 2945000   0.78264816    -7.701238    594.24246   0.01681501  0.016356226           10 
 2946000   0.77824441   -7.7220362    593.27793  0.016782019  0.016350209           31 
 2947000   0.78089652   -7.7135665    592.40299  0.016751583  0.016344184           31 
 2948000   0.77549389   -7.7261637    592.64201  0.016752657  0.016338145           19 
 2949000   0.79164953   -7.7357394    591.70342  0.016720454  0.016332111           11 
 2950000   0.75757011   -7.7108704    593.71549  0.016771624  0.016326096           12 
 2951000   0.75535548   -7.7200948    592.55944  0.016733295  0.016320085           12 
 2952000   0.77124879   -7.7340089    592.71669  0.016732066  0.016314075           31 
 2953000   0.78545013    -7.740979    593.34705  0.016744188  0.016308094           12 
 2954000   0.78607203    -7.706294    592.25431  0.016707693  0.016302083           25 
 2955000   0.76557317   -7.7439653    591.65157  0.016685042  0.016296064           20 
 2956000   0.78917148   -7.7303534    592.31234  0.016698025  0.016290028           19 
 2957000   0.76459322   -7.7486407     593.3485  0.016721579     0.016284           23 
 2958000   0.77775771    -7.757602    591.78715  0.016671939  0.016277984           16 
 2959000   0.78098705   -7.7310265    593.97272  0.016727856  0.016271944           19 
 2960000   0.80098645   -7.7264764    592.41338  0.016678305  0.016265917           11 
 2961000   0.76130974   -7.7170588    594.46437  0.016730394  0.016259923           13 
 2962000   0.77697221   -7.6969108    593.90133  0.016708905  0.016253967           24 
 2963000   0.77794512   -7.7036786    592.87583  0.016674424  0.016248016           12 
 2964000   0.75292049   -7.6959132    594.87902  0.016725119  0.016242028            8 
 2965000   0.78443383   -7.7589617    592.23696  0.016645221   0.01623603           11 
 2966000   0.78031487   -7.7342894      593.053  0.016662537  0.016230031           11 
 2967000   0.79617736   -7.7506167    592.37786  0.016637958  0.016224031            9 
 2968000   0.77279106   -7.7657854    591.81953  0.016616676   0.01621801           19 
 2969000   0.78873866   -7.7583699    593.03098  0.016645082  0.016211991           20 
 2970000   0.78209371   -7.7576328    592.33133  0.016619847  0.016205977           15 
 2971000   0.77960119     -7.74835    592.15594  0.016609333  0.016199981           17 
 2972000   0.77231611   -7.7528485    592.26398  0.016606774  0.016193971           12 
 2973000   0.76949619   -7.7617079    591.46654  0.016578836  0.016187959           25 
 2974000   0.79239172   -7.7492017    592.39432  0.016599258   0.01618195           20 
 2975000   0.77244756   -7.7576633    593.06643  0.016612505   0.01617594           13 
 2976000   0.81082647   -7.7612433    592.16701  0.016581738  0.016169966           17 
 2977000   0.77627921   -7.7251735    592.64535  0.016589557  0.016164002           12 
 2978000   0.78160115   -7.7277135    593.17615   0.01659884  0.016158054           13 
 2979000   0.77520328   -7.7154645    594.04988   0.01661771  0.016152097           10 
 2980000    0.7663029   -7.7676516      592.948   0.01658132  0.016146149            9 
 2981000   0.78512544   -7.7255786    593.69208  0.016596558  0.016140205            9 
 2982000   0.78031263   -7.7407728    594.14689  0.016603702  0.016134281           13 
 2983000   0.77016563    -7.729841    593.38175  0.016576761  0.016128344           16 
 2984000   0.77431174   -7.7359999    593.91764  0.016586172  0.016122377           14 
 2985000    0.7720998   -7.7232999    593.71193  0.016574872  0.016116426            9 
 2986000   0.78028056   -7.7447328    592.35263  0.016531386  0.016110479           14 
 2987000   0.78070557   -7.7396696    592.42652  0.016527913  0.016104533           22 
 2988000   0.76866939   -7.7664917    593.16411  0.016542953  0.016098587           32 
 2989000   0.77256593   -7.7712051    592.72519  0.016525181  0.016092634            8 
 2990000   0.78200609   -7.7362365    594.03521  0.016556165  0.016086697           15 
 2991000   0.79238515   -7.7473834    592.79771  0.016516151  0.016080752           44 
 2992000   0.78243219    -7.747385    594.06037  0.016545799  0.016074827           18 
 2993000   0.77545424   -7.7428555    594.05529  0.016540129    0.0160689           16 
 2994000   0.75084266   -7.7346765    593.28767   0.01651324  0.016062954           34 
 2995000   0.77825188   -7.7376034    594.40119  0.016538709   0.01605701           13 
 2996000    0.7662376   -7.7332703    593.71372  0.016514067  0.016051102           24 
 2997000    0.7659673   -7.7232993    594.33925  0.016525949  0.016045182           19 
 2998000   0.76477891   -7.7492356    593.79104  0.016505199  0.016039278           51 
 2999000   0.77743831   -7.7715945    592.51822  0.016464327  0.016033355           23 
 3000000    0.7739421   -7.7738648    592.70025  0.016463896  0.016027419           28 
 3001000   0.76279588   -7.7713125    593.15338  0.016470993  0.016021475           15 
 3002000   0.77459289   -7.7835313    593.58215  0.016477408  0.016015544           17 
 3003000    0.7768285   -7.7487597    592.10303  0.016430876  0.016009619           17 
 3004000   0.76353397   -7.7789095    593.08819  0.016452735  0.016003672           21 
 3005000   0.75872529   -7.7567121    592.30514  0.016425545  0.015997742           23 
 3006000   0.76813134   -7.7453627    593.67691  0.016458109  0.015991823           17 
 3007000   0.76264765   -7.7497051    594.24382  0.016468347  0.015985902           19 
 3008000   0.75091837   -7.7865649    594.39817  0.016467148  0.015979986           15 
 3009000    0.7671706   -7.7582504    592.32821  0.016404348  0.015974061           21 
 3010000   0.77627484   -7.7803281    593.40642  0.016428749  0.015968158           20 
 3011000   0.76944879     -7.75945    592.99343  0.016411863  0.015962258            9 
 3012000   0.76657084   -7.7704373     593.1074  0.016409567  0.015956339           11 
 3013000   0.76990479   -7.7573663    594.42119  0.016440458  0.015950425           10 
 3014000   0.77810428   -7.7339752    594.77888  0.016444893  0.015944516           14 
 3015000   0.76893212   -7.7637317    592.98459  0.016389845  0.015938615           19 
 3016000    0.7639269   -7.7283548    595.12538  0.016443561   0.01593272           10 
 3017000   0.77554733   -7.7505499    593.35806  0.016389296  0.015926837            8 
 3018000    0.7798482   -7.7660491    592.23863  0.016352955  0.015920944           13 
 3019000   0.79697505   -7.7657081    593.01183  0.016368881  0.015915047            9 
 3020000   0.78305364   -7.7249451    594.38064  0.016401232  0.015909159           23 
 3021000    0.7547708    -7.760588    592.63334  0.016347604  0.015903273           14 
 3022000   0.76055807   -7.7805344    594.96694  0.016406545  0.015897375           10 
 3023000    0.7802192   -7.7523004    593.00713  0.016347093    0.0158915           20 
 3024000   0.76525952    -7.751335    591.43553  0.016298378  0.015885632           20 
 3025000   0.75760214   -7.7402185    593.06569  0.016337898  0.015879728           25 
 3026000   0.77392441   -7.7888758    592.85864  0.016326797  0.015873806            7 
 3027000   0.77347526   -7.7631699    593.04784  0.016326611  0.015867888           13 
 3028000   0.75997554   -7.7567058    593.39624  0.016330808  0.015862002           18 
 3029000   0.75957854   -7.7651962    594.04396  0.016343236  0.015856095           36 
 3030000    0.7545575   -7.7476074    594.75852  0.016357495  0.015850194           16 
 3031000   0.77588518   -7.7876552    592.59972  0.016292745  0.015844308           19 
 3032000   0.76759214   -7.7465887    593.56551  0.016313916  0.015838406           12 
 3033000   0.75747492    -7.784295    592.24647  0.016272296  0.015832485           21 
 3034000   0.77236482   -7.7701131    591.70639  0.016252098  0.015826554           20 
 3035000   0.76170963   -7.7652908    592.59098  0.016271032  0.015820649           51 
 3036000   0.76815038   -7.7821039    594.76745  0.016325413  0.015814738           26 
 3037000    0.7530976   -7.8034948    592.01154  0.016244417  0.015808795           39 
 3038000   0.76939459   -7.7942626    591.78749  0.016232924  0.015802874           21 
 3039000    0.7648035   -7.7933233    592.73645  0.016253605  0.015796953           29 
 3040000   0.74225681   -7.7549373    594.06315  0.016284626   0.01579102           27 
 3041000   0.76147861   -7.7692013    592.25577  0.016229743   0.01578511           34 
 3042000   0.74154013   -7.7704191    591.66859  0.016208322  0.015779203           23 
 3043000   0.77085463   -7.7956982      592.379  0.016222451   0.01577327           27 
 3044000   0.76900799   -7.8015329    592.53379  0.016221359  0.015767349           30 
 3045000   0.76716251   -7.8161692    591.03008  0.016174879  0.015761429           28 
 3046000   0.76011837   -7.8064005    591.09962  0.016171471  0.015755503           18 
 3047000   0.77491666   -7.8102286    592.56269  0.016206178  0.015749566           11 
 3048000   0.77159845   -7.7990386    592.07428  0.016187508  0.015743653           15 
 3049000   0.76127843   -7.8152838    592.28389  0.016187928  0.015737719           20 
 3050000   0.76300408   -7.7916566    593.46028  0.016214762  0.015731769           17 
 3051000   0.75801793   -7.8214448    591.02274   0.01614287  0.015725822           16 
 3052000   0.75985204   -7.8252827    592.40536  0.016175332  0.015719872           12 
 3053000   0.76042012    -7.824217     592.4365  0.016170884  0.015713931           10 
 3054000   0.75579155    -7.829267    590.19197  0.016104343  0.015708007           21 
 3055000    0.7657767   -7.8150632    594.02141   0.01620353  0.015702087            9 
 3056000   0.77241041   -7.7903034    592.40685  0.016154201  0.015696206           19 
 3057000   0.75519385   -7.7851815    594.31883  0.016201037  0.015690309           18 
 3058000   0.76954449   -7.8114819    592.67589  0.016150967  0.015684437           21 
 3059000   0.78407104   -7.8091936    592.01178  0.016127595  0.015678539           20 
 3060000   0.75638735    -7.789677    592.41789  0.016133385  0.015672637           13 
 3061000   0.75974962   -7.8155695    592.49467  0.016130205  0.015666734           11 
 3062000    0.7735722   -7.8125745    593.29057  0.016146597   0.01566085           14 
 3063000   0.77279415   -7.7927639    593.43994   0.01614539  0.015654967            7 
 3064000    0.7563713   -7.7855471    593.15902   0.01613248  0.015649094           14 
 3065000   0.75696637   -7.7768449      593.373  0.016133034  0.015643233           17 
 3066000   0.75416634   -7.7885198      594.145  0.016148755  0.015637388           14 
 3067000   0.76305299   -7.7576205    594.02013  0.016140097  0.015631549            6 
 3068000   0.76252762   -7.7869179    594.25533  0.016141225  0.015625724           17 
 3069000    0.7817826   -7.8006267    591.78425  0.016068867  0.015619877           15 
 3070000   0.74594399   -7.7824621    593.84015  0.016119439  0.015614024            8 
 3071000   0.76995159   -7.7705936    593.61765  0.016108153  0.015608184           17 
 3072000   0.74870239   -7.7907477     593.7714   0.01610708  0.015602357           21 
 3073000   0.75310796   -7.8067291    592.29906  0.016061912    0.0155965           21 
 3074000   0.74943603    -7.825611    591.76112  0.016042104  0.015590664           22 
 3075000   0.76854025    -7.807474    592.40613  0.016054367  0.015584824           13 
 3076000   0.76472793   -7.7985879    592.74479  0.016058322  0.015578995           21 
 3077000   0.73506326   -7.7814551    593.44042  0.016071943  0.015573192           21 
 3078000   0.77003153   -7.8196018    592.77867  0.016048805  0.015567364            9 
 3079000   0.74408529   -7.8034682    594.20087  0.016082085  0.015561536           19 
 3080000   0.77062169   -7.7785091    594.43731   0.01608326  0.015555716           24 
 3081000    0.7670837   -7.7986516    593.85826  0.016062378  0.015549897           16 
 3082000   0.75594626   -7.8294935    591.89093  0.016003973  0.015544058           19 
 3083000   0.75448125   -7.8141715    593.23376  0.016035078  0.015538223           32 
 3084000   0.75882479   -7.7945358    592.95831  0.016022436  0.015532371           19 
 3085000   0.75519863     -7.79036    592.49549   0.01600474  0.015526535           32 
 3086000   0.77629718   -7.7717612    593.31799  0.016021765    0.0155207           17 
 3087000   0.74439547   -7.7848608    593.61281  0.016024533  0.015514875           16 
 3088000   0.77498519   -7.7979367    592.90205  0.016000163  0.015509058           21 
 3089000   0.75447463   -7.8176598    593.50986  0.016011381  0.015503217           13 
 3090000   0.76150351   -7.7827833    592.93618  0.015990728  0.015497389           19 
 3091000   0.76249994   -7.8314942    592.10845  0.015963239  0.015491554           23 
 3092000   0.74364375   -7.7964917    593.00174  0.015982151  0.015485725           22 
 3093000   0.75542777   -7.8475933    592.36665  0.015959873  0.015479876           15 
 3094000   0.75674382   -7.8133743    593.76219  0.015992302  0.015474047           13 
 3095000   0.74538279   -7.7772117     594.9515  0.016019157  0.015468229            8 
 3096000   0.75337301   -7.7731064    594.05066  0.015989736  0.015462438           15 
 3097000   0.75988231   -7.8068459    592.74738  0.015949504  0.015456635           15 
 3098000   0.75761678   -7.8004567    593.40444   0.01596203  0.015450826           12 
 3099000   0.74102112   -7.8083868    591.48134  0.015905167  0.015445006           13 
 3100000   0.74812286   -7.8085478    593.61461  0.015957382  0.015439171           16 
 3101000   0.75416289   -7.8109603    592.71078  0.015927948  0.015433333           25 
 3102000    0.7595952   -7.8535551    592.06084  0.015905352  0.015427485           29 
 3103000   0.75689791    -7.856967    592.54175  0.015913142  0.015421651           28 
 3104000   0.75567101   -7.7980507    592.78958  0.015914669  0.015415806           21 
 3105000   0.74544061    -7.825651    593.36062  0.015924869  0.015409978           31 
 3106000   0.76897231   -7.8268242    592.41804  0.015894453  0.015404162           13 
 3107000   0.76837725   -7.7866642     593.2676  0.015912123  0.015398339           14 
 3108000   0.75378123   -7.8393877    593.40545    0.0159107  0.015392514           24 
 3109000   0.76588807   -7.8107092    592.33266  0.015876827   0.01538669           20 
 3110000   0.74239725   -7.8329972    592.49409  0.015876047  0.015380879           24 
 3111000   0.75509602   -7.8248901      592.406  0.015868585  0.015375072           28 
 3112000   0.74640979   -7.8350148    592.38812  0.015863007  0.015369247           32 
 3113000   0.75745183   -7.8386743    592.31427  0.015855934  0.015363413           91 
 3114000   0.74075603    -7.811269    592.01721  0.015842892  0.015357589           70 
 3115000    0.7513364   -7.8286727    592.12675  0.015840737  0.015351757           44 
 3116000   0.76879128   -7.8419204    590.86528  0.015801917  0.015345922          112 
 3117000   0.73642326   -7.8193587    591.60755  0.015816692  0.015340076           71 
 3118000   0.76228904    -7.835401    592.52421  0.015836119  0.015334247           26 
 3119000   0.75933507   -7.8407355    590.49346  0.015776784   0.01532843           66 
 3120000   0.76127412   -7.8132629    591.46079  0.015797564  0.015322604           51 
 3121000   0.75880984   -7.8050112    591.99369  0.015806731  0.015316771          101 
 3122000   0.75540801   -7.8020937    593.08794  0.015830876  0.015310963           77 
 3123000   0.73305798   -7.8175161    592.53246  0.015810985  0.015305125           83 
 3124000    0.7531166   -7.8349713    591.16865  0.015769544   0.01529929           66 
 3125000   0.76354015   -7.8529355    592.00237   0.01578673  0.015293449           99 
 3126000   0.75487661   -7.8092025    591.65102  0.015772313    0.0152876           84 
 3127000   0.74500043   -7.8433438    591.95748  0.015775436  0.015281758           86 
 3128000   0.75315861   -7.8631255    590.11129  0.015721209    0.0152759           77 
 3129000    0.7310268   -7.8336663    590.87379  0.015736492  0.015270048           43 
 3130000   0.76718496   -7.8385888    591.87687   0.01575817  0.015264192           67 
 3131000   0.75908839   -7.8741013    591.33452  0.015738702  0.015258341           75 
 3132000   0.75331695   -7.8556341    590.52033  0.015712014  0.015252467           99 
 3133000   0.74976711   -7.8887105    591.51067  0.015733341  0.015246583           87 
 3134000   0.74971491   -7.8477269    592.00768  0.015741536  0.015240721           39 
 3135000    0.7569552   -7.8564418    591.05836   0.01571128  0.015234876           90 
 3136000   0.74592718   -7.8785342     590.3666  0.015687888  0.015229027           97 
 3137000   0.74560437   -7.8507059    591.16683  0.015704145  0.015223196           75 
 3138000   0.76091668   -7.8562415    591.65126  0.015712005  0.015217381           71 
 3139000    0.7668855   -7.8655169    592.05145  0.015717624  0.015211553          101 
 3140000   0.73202374   -7.8663811    591.92925  0.015709375   0.01520574           72 
 3141000   0.75300072   -7.8531804    593.06516   0.01573451  0.015199939           90 
 3142000   0.75744312   -7.8281762    592.06954  0.015703096  0.015194156           69 
 3143000   0.73904043   -7.8491129    592.06486  0.015697976  0.015188354           84 
 3144000   0.74560831   -7.8543852    592.37642  0.015701241  0.015182559           95 
 3145000   0.75562231   -7.8577638    591.31652  0.015668164  0.015176767           54 
 3146000   0.74880661   -7.8521934    591.79545   0.01567587   0.01517096          121 
 3147000   0.74595641   -7.8511991    592.08507  0.015678558  0.015165166           60 
 3148000   0.75512255   -7.8408923    592.04045  0.015672396  0.015159373           87 
 3149000    0.7519105   -7.8406814    592.31095  0.015674578  0.015153604           98 
 3150000   0.73553119   -7.8522397     592.9507  0.015686526  0.015147834           89 
 3151000   0.75362949   -7.8578999    592.21126  0.015661993  0.015142052           47 
 3152000   0.74969252   -7.8636637    591.78784  0.015645829  0.015136275           78 
 3153000   0.74815072   -7.8409296    593.66659  0.015690522  0.015130494           64 
 3154000   0.75184018   -7.8726985    593.06389  0.015669623  0.015124734           54 
 3155000   0.76172792   -7.8713301    591.45461   0.01562215  0.015118979           62 
 3156000   0.74029824   -7.8450731    592.52045  0.015645343  0.015113231           65 
 3157000   0.75407609   -7.8297076    592.78853  0.015647464  0.015107503          102 
 3158000   0.74876576   -7.8252157    592.61776  0.015638003  0.015101762           58 
 3159000   0.73131941   -7.8296074    592.64741  0.015633835  0.015096027           94 
 3160000   0.73985652   -7.8582101    591.61668  0.015601706  0.015090288           87 
 3161000   0.74363754   -7.8399945    591.79724   0.01560153  0.015084543           94 
 3162000   0.72724535   -7.8575978    591.94212  0.015600414  0.015078784          136 
 3163000   0.72785459   -7.8373029    592.02273  0.015597606  0.015073044           94 
 3164000   0.75554844   -7.8386867    593.37653  0.015628333  0.015067301           98 
 3165000    0.7381171   -7.8533687    591.90888  0.015584752   0.01506156          114 
 3166000    0.7437447   -7.8601144    591.72055  0.015574872  0.015055825           69 
 3167000   0.73795474   -7.8481749    592.09287  0.015579751  0.015050102           87 
 3168000   0.73492952   -7.8772628    592.51654  0.015585978  0.015044375           98 
 3169000   0.74763746   -7.8829963    591.87324  0.015564143  0.015038631           72 
 3170000   0.73910897   -7.8639629     590.7357   0.01552933  0.015032884          110 
 3171000    0.7379063    -7.872506    591.93026  0.015555825  0.015027148           86 
 3172000   0.75689823   -7.8377345    592.50165  0.015565932  0.015021426           84 
 3173000   0.73853469   -7.8409101    590.93068  0.015519768  0.015015709           97 
 3174000   0.75186572    -7.844289    593.73521  0.015588511  0.015009993          121 
 3175000   0.74080824   -7.8361398    592.11271  0.015541016  0.015004296           91 
 3176000   0.73662552   -7.8606133    593.36566  0.015568998  0.014998607          108 
 3177000   0.72924593   -7.8907181    593.10807  0.015557341  0.014992915           88 
 3178000   0.74916166   -7.9025356    591.05609  0.015498639  0.014987186          113 
 3179000   0.73542645   -7.9119875    590.66465  0.015483502  0.014981446          127 
 3180000   0.74150787   -7.8735016    592.27924  0.015520945   0.01497573          124 
 3181000   0.74588267   -7.8781695    591.62802  0.015499005  0.014969995          139 
 3182000   0.73980939    -7.866301     592.6853  0.015521823  0.014964273          138 
 3183000   0.75583177   -7.8761059    593.37932  0.015535117  0.014958576          140 
 3184000   0.76892858   -7.8890357    590.71786   0.01546058  0.014952872          115 
 3185000   0.74827164   -7.9116128    591.98939  0.015488995  0.014947156          136 
 3186000    0.7489906   -7.8532547    593.15132  0.015514525  0.014941418          130 
 3187000   0.75353801   -7.8611256    591.47388  0.015465795  0.014935705          116 
 3188000   0.74288233   -7.9030386    591.94708  0.015473313  0.014930013          147 
 3189000   0.73254896   -7.8863815    592.26824  0.015476854  0.014924316          110 
 3190000   0.74122297    -7.856834    592.76411  0.015484956  0.014918607           94 
 3191000   0.73372357    -7.881512    592.24007  0.015466418  0.014912892          192 
 3192000   0.72809395   -7.8906939     591.7313   0.01544829  0.014907193          124 
 3193000   0.73382758   -7.8776895     591.8838  0.015447432  0.014901477          123 
 3194000   0.74099994   -7.8768661    591.54365  0.015433721  0.014895777           92 
 3195000   0.74067027   -7.8736199    592.79195  0.015461449  0.014890089          140 
 3196000    0.7370476   -7.8871874    591.97848  0.015435401  0.014884399          113 
 3197000   0.74361648   -7.8998971    592.05883  0.015432667  0.014878715           94 
 3198000   0.76049258    -7.883643    590.89126  0.015397417  0.014873029          157 
 3199000   0.73362119   -7.8642445    592.14657  0.015425304  0.014867338          130 
 3200000   0.73310909   -7.8863631    592.08483  0.015418876  0.014861635          131 
 3201000   0.75254761   -7.9128256     590.6083  0.015375619  0.014855939           78 
 3202000   0.73079656   -7.8822492    592.47703  0.015419452  0.014850243          162 
 3203000   0.73475588   -7.8873719    590.60114  0.015365833  0.014844551          140 
 3204000   0.73019363   -7.8936686    591.51185  0.015384723   0.01483888           94 
 3205000   0.74229112   -7.8974278    591.41584  0.015377427  0.014833199           95 
 3206000   0.72898152   -7.9105064    592.38305  0.015397771  0.014827489          113 
 3207000   0.75210089   -7.8945905    591.63697  0.015373583  0.014821774          139 
 3208000   0.72897497   -7.8976667    591.41255  0.015362961  0.014816067          153 
 3209000   0.74171684    -7.905449    591.05842  0.015348977  0.014810369          133 
 3210000   0.73665603   -7.8944085    590.61426  0.015332665  0.014804655          137 
 3211000   0.73618827   -7.9027894    591.04015  0.015338943  0.014798957          156 
 3212000   0.73241109   -7.9107234    591.70048  0.015351299  0.014793244          118 
 3213000   0.72618965   -7.8875813    591.86372  0.015350755  0.014787543          130 
 3214000   0.74122628   -7.9142242    591.84333   0.01534545   0.01478185          184 
 3215000   0.73709619   -7.9033902    590.37216  0.015302544   0.01477616          159 
 3216000   0.74603581    -7.901236    592.26095  0.015346729  0.014770475          168 
 3217000   0.72736894    -7.898792    592.66394  0.015352397  0.014764802          165 
 3218000   0.72998493    -7.896689     591.0102  0.015304801  0.014759112          193 
 3219000    0.7447164   -7.9106893    592.57038  0.015340437  0.014753424          127 
 3220000   0.74303704   -7.9276834     590.4205  0.015280034   0.01474776          119 
 3221000   0.73489428   -7.9079323    591.52423  0.015303845  0.014742098          141 
 3222000   0.74700757   -7.9189881    591.85868  0.015307746  0.014736448          150 
 3223000   0.73310883   -7.9141988     591.7745   0.01530082  0.014730802          175 
 3224000   0.72479241   -7.8795522    591.30937  0.015284051  0.014725148          106 
 3225000   0.73823053   -7.9274555    591.05802  0.015272817  0.014719498          152 
 3226000   0.73537535   -7.8853499    592.96555  0.015317358  0.014713846          133 
 3227000   0.73435983   -7.9193695    591.61734  0.015277795  0.014708199          119 
 3228000   0.75072539    -7.920842    591.76831   0.01527696  0.014702543           96 
 3229000   0.74709652   -7.8936526    591.92402  0.015276247  0.014696893          150 
 3230000   0.72903353   -7.9081243    591.69761  0.015265676  0.014691228          130 
 3231000   0.72774567   -7.9587726    590.93437  0.015241266  0.014685567          124 
 3232000   0.74155035   -7.9255316    591.54454  0.015252283  0.014679911          156 
 3233000   0.72721363   -7.8797026    591.14127   0.01523717  0.014674262          140 
 3234000   0.74417969   -7.9090648    590.01229  0.015203368  0.014668608          142 
 3235000   0.72105307   -7.9240353     591.4103  0.015234681  0.014662962          124 
 3236000   0.74775617   -7.9232863    592.26586  0.015252005   0.01465731          141 
 3237000   0.73928976    -7.930442     592.0484  0.015241695  0.014651664          126 
 3238000   0.73602387   -7.8896493    592.53199  0.015249434  0.014646017           97 
 3239000    0.7437759   -7.9116606    591.97556   0.01523041  0.014640393          150 
 3240000   0.71405337   -7.9216486    591.41971  0.015211412  0.014634757          123 
 3241000   0.73136566   -7.9011728    591.76457  0.015215586  0.014629106          144 
 3242000   0.72578965   -7.9064633    592.04493  0.015218099  0.014623457          258 
 3243000   0.73273684   -7.9162476    590.88877  0.015183697  0.014617815          113 
 3244000   0.73907551   -7.9173293    590.26592  0.015163017  0.014612184          197 
 3245000   0.72312299   -7.9180194       591.35  0.015186184  0.014606542          147 
 3246000   0.73824355   -7.8994823    590.08167  0.015148944  0.014600898          187 
 3247000   0.73585554   -7.9035913    593.59389  0.015234419  0.014595255          162 
 3248000   0.72986093   -7.9269834    591.17338  0.015167626  0.014589624          154 
 3249000   0.71969246   -7.9191221     591.9987  0.015184126  0.014583987          161 
 3250000   0.73403992   -7.9033729    593.32571   0.01521348  0.014578377          179 
 3251000   0.74099957    -7.913974     590.4933  0.015136197  0.014572753          166 
 3252000   0.73497517   -7.9318519    590.72906  0.015137584  0.014567121          147 
 3253000   0.73287958   -7.8984837    590.52939  0.015127815  0.014561497          118 
 3254000    0.7257444   -7.9034688    591.55555  0.015149445  0.014555879          136 
 3255000   0.72100758    -7.904697    591.38179  0.015140343  0.014550262          190 
 3256000   0.74133733   -7.9443074    591.02038  0.015126443  0.014544635          126 
 3257000   0.71942397   -7.8926097    592.38441  0.015156699  0.014539014          136 
 3258000   0.73762407   -7.9177265    591.38897  0.015126585  0.014533409          156 
 3259000   0.71996758   -7.9154345    592.86232  0.015159618  0.014527779          165 
 3260000   0.72264481   -7.9222284    591.42177  0.015118143  0.014522169          203 
 3261000   0.70767114   -7.9335677    590.01668  0.015077601  0.014516562          127 
 3262000   0.74262787   -7.9406014    590.92958    0.0150963  0.014510944          164 
 3263000   0.73388036   -7.9828727    590.21891  0.015073524   0.01450533          163 
 3264000   0.72595536   -7.9396628    590.43888  0.015074522  0.014499727          173 
 3265000   0.73171634   -7.9283662    589.94471  0.015057292  0.014494116          140 
 3266000   0.72184317   -7.9560028    591.32839  0.015087987  0.014488503          144 
 3267000   0.72733587   -7.9326412    591.30727   0.01508283  0.014482892          148 
 3268000   0.74043729   -7.9463527    591.66675  0.015087381  0.014477292          152 
 3269000   0.72744835   -7.9421828    590.95604  0.015064649  0.014471699          172 
 3270000   0.72444378   -7.9297861    591.32585  0.015069466  0.014466096          141 
 3271000   0.73111752   -7.9298753    590.46237  0.015042861  0.014460496          124 
 3272000   0.73750278   -7.9268421    591.19947  0.015057036  0.014454901          139 
 3273000   0.73377156    -7.918673    591.72708  0.015065869  0.014449312          136 
 3274000   0.72608804   -7.9700413    589.71253  0.015009991  0.014443705          120 
 3275000   0.72445788    -7.962987    589.07347  0.014989147  0.014438091          122 
 3276000   0.73600034     -7.95716    591.58785  0.015048531  0.014432474           92 
 3277000   0.72476636    -7.977927    589.50836  0.014991058  0.014426868          134 
 3278000   0.72459377   -7.9471644    590.31256  0.015006929  0.014421255          170 
 3279000   0.72191865   -7.9663995    590.70314  0.015012279  0.014415646          185 
 3280000   0.72484446   -7.9604436    590.06972  0.014991609  0.014410062          139 
 3281000   0.73465111    -7.978051    590.58465  0.015000118  0.014404461          131 
 3282000   0.72517994   -7.9644812    589.60704  0.014970725  0.014398875          161 
 3283000   0.73071339   -7.9805094    590.06646  0.014977827  0.014393288          122 
 3284000   0.72517462    -7.953579    591.05944  0.014998463  0.014387708          151 
 3285000    0.7443981   -7.9327582    591.24692  0.014998654  0.014382125          175 
 3286000   0.72737631    -7.950249    589.55241  0.014951116  0.014376554          241 
 3287000   0.72544988    -7.946543    590.92189  0.014981287  0.014370977          118 
 3288000   0.73595015   -7.9370962    590.81743  0.014974083  0.014365412          208 
 3289000   0.70577713   -7.9798339    590.52939  0.014962232  0.014359834          251 
 3290000   0.73032613   -7.9488699    590.68124  0.014961531   0.01435425          154 
 3291000   0.73090027    -7.964196    588.79405  0.014909198  0.014348664          153 
 3292000   0.71367157   -7.9271603    592.14656  0.014989534  0.014343097          102 
 3293000   0.72434448   -7.9482406    590.13609  0.014934105  0.014337539          127 
 3294000   0.72203205   -7.9578698    590.38815  0.014935948  0.014331977          159 
 3295000   0.71556616   -7.9788042    590.32862   0.01492991  0.014326415          207 
 3296000   0.71322994   -7.9550782    590.52599   0.01493037  0.014320839          130 
 3297000   0.72391944   -7.9249922    590.43382  0.014923512  0.014315276          172 
 3298000   0.72336557   -7.9508089    589.97527    0.0149074  0.014309723          192 
 3299000   0.72649546   -7.9512791    591.07058  0.014930549  0.014304158          162 
 3300000    0.7243051   -7.9596496    590.24035  0.014905059  0.014298605          194 
 3301000   0.71772252   -7.9726774    590.40507  0.014904702  0.014293052          238 
 3302000    0.7397394   -7.9627042    590.82938  0.014910897  0.014287505          244 
 3303000    0.7259664   -7.9692169    590.78877  0.014905358  0.014281953          240 
 3304000   0.70572857   -7.9486445    590.52527  0.014894201  0.014276415          185 
 3305000   0.73286017   -7.9815654    590.03465  0.014877324  0.014270871          248 
 3306000   0.71576312   -7.9563096    591.24548  0.014903344  0.014265334          183 
 3307000   0.70305769   -7.9809954    589.95773  0.014866388  0.014259788          274 
 3308000   0.73523019   -7.9526618    590.02718  0.014863643  0.014254251          247 
 3309000   0.73016043   -7.9769177    590.51799  0.014871512   0.01424871          236 
 3310000    0.7259328   -7.9815711    589.66384  0.014845515  0.014243166          262 
 3311000   0.72068785   -7.9553868     589.7633  0.014843534  0.014237619          201 
 3312000   0.71517587   -7.9675643    589.51068  0.014832696  0.014232093          275 
 3313000   0.71909218   -7.9590616    590.02206  0.014841082  0.014226568          232 
 3314000   0.73054167   -7.9766643    590.53602  0.014849528  0.014221042          328 
 3315000   0.72904957   -7.9694832    590.18569  0.014836242  0.014215509          270 
 3316000   0.72625092   -7.9884945    589.94239  0.014825653  0.014209977          230 
 3317000   0.73153355   -7.9837583    589.84593   0.01481876  0.014204448          285 
 3318000   0.71039497   -7.9598909    590.53078  0.014831494  0.014198913          249 
 3319000   0.73391613   -7.9863789    589.35129  0.014797411   0.01419339          217 
 3320000   0.71155066   -7.9788861    592.11869  0.014862417  0.014187865          285 
 3321000   0.72867881   -7.9894551    589.11447  0.014782557  0.014182342          258 
 3322000   0.70462571   -7.9900751    589.08807  0.014777445  0.014176802          253 
 3323000    0.7134752   -7.9870057    590.34226   0.01480445  0.014171266          322 
 3324000   0.71096739   -7.9763929    589.41271  0.014776692  0.014165736          232 
 3325000   0.71288895   -8.0049064     590.2477  0.014793175  0.014160212          232 
 3326000   0.71442632   -7.9541671    589.95766  0.014781461  0.014154689          263 
 3327000   0.72760645   -7.9931333    590.09394  0.014780431  0.014149164          249 
 3328000   0.72327525   -7.9927034    590.22879  0.014779367  0.014143642          220 
 3329000   0.72375071   -7.9786358    590.88845   0.01479144  0.014138147          197 
 3330000   0.70434427   -7.9718256    588.39527  0.014724606  0.014132632          184 
 3331000   0.70600198   -7.9786886    591.11055  0.014788115  0.014127126          212 
 3332000    0.7128092   -7.9761278    589.32521  0.014739026  0.014121633          289 
 3333000   0.71186299   -7.9842804    589.05528  0.014727855  0.014116119          314 
 3334000   0.69974438   -7.9875507    589.18569  0.014726697  0.014110616          320 
 3335000   0.72804037    -7.966717    589.39793  0.014727584   0.01410512          245 
 3336000   0.72559843   -7.9798549    590.16186  0.014742253   0.01409963          255 
 3337000   0.72196091   -8.0025574    590.03837  0.014734751  0.014094131          245 
 3338000    0.7072931   -7.9522663     590.7431   0.01474793  0.014088644          241 
 3339000   0.71805532   -7.9912145    589.07471  0.014701875  0.014083152          298 
 3340000   0.71193592   -7.9861263    589.75762  0.014714512  0.014077671          242 
 3341000   0.70728205   -7.9700857     589.8465  0.014712324  0.014072192          273 
 3342000   0.71745395   -7.9734895    589.91181   0.01470955  0.014066725          183 
 3343000   0.72890554   -7.9676547    590.72485  0.014725418  0.014061251          217 
 3344000   0.70188187   -7.9351115    591.15289  0.014731681  0.014055789          231 
 3345000   0.72158862   -7.9843355    589.57372  0.014687935  0.014050324          244 
 3346000   0.72184391     -7.98383    589.40614  0.014679372  0.014044856          221 
 3347000   0.72286135   -7.9831979    590.15001  0.014693507  0.014039403          209 
 3348000   0.72226685   -7.9685554    590.92521  0.014708413  0.014033955          318 
 3349000   0.72346362   -7.9866272    590.00016  0.014681003   0.01402849          202 
 3350000   0.71289878   -7.9706571    590.26828  0.014683291  0.014023027          231 
 3351000   0.72288006   -7.9671103    590.76487  0.014691258  0.014017563          232 
 3352000   0.70043599   -7.9736031    589.23241  0.014648777  0.014012101          207 
 3353000   0.71373758   -7.9769412    589.55611  0.014652453  0.014006636          236 
 3354000   0.72394897   -8.0139248    589.93784  0.014657569  0.014001173          223 
 3355000   0.72069165   -7.9728918    590.95863  0.014678555  0.013995722          197 
 3356000   0.72253023   -7.9997629    589.35031  0.014634245  0.013990273          313 
 3357000   0.68913039   -7.9889284     589.8545  0.014642402  0.013984817          273 
 3358000   0.71617011   -7.9550485    590.12345  0.014644715  0.013979362          277 
 3359000   0.70355523   -7.9867201    590.04573  0.014638427  0.013973922          252 
 3360000   0.70097331   -7.9934038    589.23958  0.014614077  0.013968469          253 
 3361000    0.7040828   -7.9840005     590.4897  0.014640724  0.013963022          211 
 3362000   0.73257754   -7.9808971    588.72856  0.014592717  0.013957585          249 
 3363000    0.7184007   -7.9770303    589.88658  0.014617073  0.013952138          262 
 3364000   0.71671575   -8.0087224    588.75336  0.014584655  0.013946694          305 
 3365000   0.72140767   -7.9868764    589.20333  0.014591464  0.013941256          269 
 3366000    0.7121671   -8.0014163    588.14511  0.014560931  0.013935809          221 
 3367000   0.69451046   -7.9994479    590.85485  0.014623672   0.01393037          234 
 3368000    0.7172339   -8.0054054    589.41173  0.014583623  0.013924916          283 
 3369000   0.72030352   -7.9897044    589.10941  0.014571817  0.013919477          182 
 3370000   0.70884179    -7.964975    589.34823  0.014573398  0.013914036          234 
 3371000   0.70395777   -7.9722394    590.12472   0.01458827  0.013908592          237 
 3372000    0.6977301   -7.9974403    590.68283  0.014597737  0.013903165          246 
 3373000   0.70183424   -7.9886034    589.59152  0.014566447  0.013897734          189 
 3374000   0.71244045    -7.989096    588.85424   0.01454392  0.013892318          214 
 3375000   0.72440175   -7.9782306    587.79509  0.014513459  0.013886888          272 
 3376000     0.715888   -7.9590477    589.85302  0.014559958  0.013881467          221 
 3377000   0.70094297   -8.0138075    589.50161  0.014546975  0.013876043          344 
 3378000   0.70831789   -7.9940834    589.83133  0.014550802  0.013870629          271 
 3379000   0.69582641   -7.9778821      589.364  0.014534971  0.013865221          238 
 3380000   0.72355034   -7.9992146    589.04832  0.014522888  0.013859799          340 
 3381000   0.71279567    -7.984584    589.04534  0.014518519  0.013854382          308 
 3382000   0.70414449   -7.9907589    589.27189  0.014519808  0.013848968          298 
 3383000   0.69629152   -8.0195062    589.88865  0.014530709  0.013843552          257 
 3384000   0.72370585   -7.9738646     589.8922  0.014526502  0.013838146          272 
 3385000   0.70543828   -8.0149594    589.15521  0.014504067  0.013832742          397 
 3386000   0.72350776   -8.0135086    589.81474  0.014516015  0.013827348          387 
 3387000   0.69688399   -8.0020249    590.04076  0.014517291   0.01382195          373 
 3388000   0.71102267   -8.0216666    589.18629  0.014491989  0.013816541          346 
 3389000     0.705944   -8.0071035    590.23209  0.014513428  0.013811138          329 
 3390000   0.68810977   -7.9944709    589.02436  0.014479458  0.013805736          298 
 3391000   0.69832708   -7.9964785    588.39423  0.014459703  0.013800338          505 
 3392000   0.70516938   -7.9896689     589.9138  0.014492772  0.013794935          347 
 3393000   0.70527343   -8.0162669    588.20383  0.014446503  0.013789551          450 
 3394000   0.71814444    -8.005054    590.47498  0.014498011  0.013784149          459 
 3395000   0.70955542   -8.0051345    588.37302  0.014442146  0.013778754          383 
 3396000   0.71007163   -7.9827022     589.9428  0.014476413  0.013773368          378 
 3397000    0.7210617   -8.0063859     589.4867  0.014460963  0.013767978          488 
 3398000   0.68868398   -8.0175238    587.84268  0.014416389  0.013762591          361 
 3399000   0.71088865   -8.0110736    588.54625  0.014429397  0.013757204          379 
 3400000   0.69174969   -8.0304027    589.46447  0.014447659  0.013751829          564 
 3401000   0.71135132   -8.0133059    589.79209  0.014451438  0.013746451          439 
 3402000   0.70660567   -8.0132886     588.3661   0.01441226  0.013741061          377 
 3403000   0.71192399   -7.9969073     588.7583  0.014417629  0.013735677          346 
 3404000   0.69271487   -7.9985289    588.75989  0.014413432  0.013730299          450 
 3405000   0.71589865   -8.0103563    589.80454  0.014434766  0.013724923          414 
 3406000   0.70789101   -8.0423261    586.68393  0.014354177  0.013719554          527 
 3407000   0.70229428   -8.0283953    588.90092   0.01440419  0.013714182          544 
 3408000   0.70449952   -8.0128079    589.20368  0.014407367  0.013708798          541 
 3409000   0.71822652   -8.0014088    588.77016  0.014392543  0.013703433          580 
 3410000   0.69803386   -8.0184747    588.42295  0.014379838  0.013698064          501 
 3411000   0.69521971   -8.0447135    587.98934  0.014365028  0.013692679          527 
 3412000   0.70673144   -8.0416199    588.71888  0.014378636  0.013687293          518 
 3413000   0.72328637    -8.033913    587.90676  0.014354594  0.013681916          440 
 3414000   0.71890493   -8.0420492    588.32815  0.014360675   0.01367655          499 
 3415000   0.69796116   -8.0279682    588.26512  0.014354932  0.013671191          372 
 3416000   0.70976176   -8.0192358    588.45751  0.014355423  0.013665836          330 
 3417000   0.70860267   -8.0078684    590.13952  0.014392243  0.013660487          527 
 3418000   0.70845613   -8.0300848    589.29925  0.014367545  0.013655119          510 
 3419000   0.70709655   -8.0225464    588.54926  0.014345063  0.013649754          367 
 3420000   0.71512322    -8.022055    587.77794  0.014322074  0.013644381          627 
 3421000   0.69006372   -8.0447006    588.78484  0.014342415  0.013639009          501 
 3422000   0.70296969   -8.0254716     589.1042  0.014346001  0.013633638          573 
 3423000   0.70686814   -8.0171019    589.63486  0.014354729  0.013628278          535 
 3424000   0.71068051   -8.0259444    588.69784  0.014327732  0.013622936          481 
 3425000    0.6968149   -8.0459378    588.19383  0.014311285  0.013617587          567 
 3426000    0.7034832   -8.0513495    587.93328  0.014300771  0.013612234          588 
 3427000   0.70141168   -8.0279748    589.45067  0.014333496  0.013606878          570 
 3428000   0.70196751    -8.045645    589.07118  0.014320089  0.013601527          513 
 3429000   0.71093907   -8.0162789    588.42072  0.014300105  0.013596184          562 
 3430000   0.69751282   -8.0209281    590.13449  0.014337573  0.013590841          581 
 3431000   0.70259852   -8.0297413    587.83134  0.014277454  0.013585504          522 
 3432000   0.69885863   -8.0311411    588.68921  0.014294124  0.013580161          514 
 3433000    0.7073178   -8.0268555    587.73559  0.014266812  0.013574819          549 
 3434000   0.70722315   -8.0559957    588.06256  0.014270592  0.013569474          564 
 3435000   0.69911835   -8.0351421     587.8778  0.014261955  0.013564139          530 
 3436000   0.70288589    -8.046054    587.72936  0.014254205  0.013558805          582 
 3437000   0.72140588   -8.0231092     589.7753  0.014299663  0.013553479          535 
 3438000    0.7002516   -8.0162009    588.98663  0.014276387  0.013548156          546 
 3439000   0.70797846   -8.0347898    588.20989  0.014253414  0.013542838          564 
 3440000   0.68555646   -8.0232098    589.16089  0.014272308  0.013537529          578 
 3441000   0.70585733   -8.0463695    588.66555  0.014256165   0.01353222          569 
 3442000   0.69782594   -8.0258167    588.64522  0.014251531  0.013526918          546 
 3443000   0.71447778   -8.0444936     587.5099  0.014219912  0.013521615          497 
 3444000   0.71012785   -8.0315206    590.24977  0.014282079   0.01351631          508 
 3445000   0.69505927   -8.0521662    586.86626  0.014196088  0.013510996          608 
 3446000    0.6978247   -8.0468716    587.91731  0.014217385   0.01350568          616 
 3447000   0.71514684   -8.0567988    589.12155  0.014242374  0.013500366          534 
 3448000   0.71665223   -8.0423632    589.25009   0.01424135  0.013495061          543 
 3449000   0.71347979   -8.0335033    588.17566  0.014211261  0.013489764          600 
 3450000   0.71080046   -8.0505646    589.06007  0.014228504  0.013484461          597 
 3451000    0.6916952   -8.0505072     587.7906  0.014193726  0.013479156          562 
 3452000   0.70174161   -8.0699347    586.89828  0.014168074  0.013473849          607 
 3453000   0.69175538   -8.0417634    587.74884  0.014184498  0.013468555          556 
 3454000   0.70557127   -8.0340556    589.02142  0.014211094  0.013463259          579 
 3455000    0.6814472   -8.0611109    588.43853  0.014192922  0.013457956          650 
 3456000   0.70078947   -8.0554042    588.60865  0.014192917  0.013452665          543 
 3457000   0.70148197   -8.0649261    588.35357  0.014182663  0.013447363          556 
 3458000   0.71314287   -8.0666626    588.15162  0.014173694  0.013442074          615 
 3459000   0.68607295   -8.0579654    588.65254  0.014181665  0.013436785          540 
 3460000   0.69889144   -8.0385351    588.18047  0.014166196  0.013431495          571 
 3461000   0.70363827   -8.0282623     588.3639   0.01416652  0.013426209          670 
 3462000    0.6997001   -8.0470891    587.68102   0.01414599  0.013420924          671 
 3463000    0.6856587   -8.0403714    588.85001  0.014170036  0.013415638          640 
 3464000   0.70865092   -8.0601926    588.23038  0.014151039  0.013410365          635 
 3465000   0.68811187   -8.0180219    588.56401  0.014154978  0.013405094          564 
 3466000   0.70094883   -8.0805818    586.91847  0.014111331   0.01339982          622 
 3467000   0.70159953    -8.051448    586.81012  0.014104656  0.013394546          577 
 3468000   0.70007046   -8.0767441     587.7596  0.014123404   0.01338927          624 
 3469000   0.69189888    -8.037638    587.01476   0.01410144  0.013384007          610 
 3470000   0.68832333   -8.0476676    587.67867  0.014113321  0.013378742          673 
 3471000    0.6991336   -8.0608614    586.83885  0.014089092  0.013373477          710 
 3472000    0.6791632   -8.0644514     587.9611  0.014111969  0.013368213          662 
 3473000   0.69684764    -8.050989    586.91343  0.014082768  0.013362953          696 
 3474000   0.69934753   -8.0189135    588.23079  0.014110314  0.013357698          636 
 3475000   0.70554057   -8.0528114    588.69114  0.014117293  0.013352448          636 
 3476000   0.70264567   -8.0474777    589.00295  0.014120707   0.01334719          638 
 3477000   0.69065771   -8.0573179    588.26213  0.014098891  0.013341935          649 
 3478000   0.70820936   -8.0532293    587.40221  0.014074233  0.013336681          606 
 3479000   0.70741065   -8.0634552    587.68584  0.014076982  0.013331423          651 
 3480000   0.68650992   -8.0656813    587.12395  0.014059482  0.013326168          775 
 3481000   0.68835392   -8.0615589    588.07155  0.014078128  0.013320922          671 
 3482000    0.7034456   -8.0664342    588.30371  0.014079641   0.01331568          654 
 3483000    0.6863585   -8.0647999    587.63573  0.014059617  0.013310438          646 
 3484000   0.69811478   -8.0515871    586.43853  0.014026945  0.013305204          632 
 3485000   0.69385727   -8.0743059    587.29131  0.014043312  0.013299952          720 
 3486000   0.68813555   -8.0691664    586.89647  0.014029845  0.013294702          668 
 3487000   0.70590044   -8.0615325    588.17962  0.014056486   0.01328947          653 
 3488000   0.68733011   -8.0514294    586.73023  0.014017829  0.013284244          593 
 3489000   0.70212312   -8.0484325    587.80254  0.014039423  0.013279022          738 
 3490000   0.71114661   -8.0341162    587.15591   0.01401996  0.013273809          730 
 3491000   0.69173021   -8.0491754    588.65556  0.014051742  0.013268602          763 
 3492000   0.70124344   -8.0551089    587.64578   0.01402362  0.013263388          643 
 3493000   0.70280723   -8.0604379    588.82552  0.014047751  0.013258185          658 
 3494000   0.68900285   -8.0650506     587.8968   0.01402158  0.013252972          646 
 3495000   0.69375959   -8.0419496    586.98728  0.013995882  0.013247758          697 
 3496000   0.69048355   -8.0627198    587.87536  0.014013047  0.013242549          738 
 3497000   0.70474772   -8.0717974    587.27549  0.013994745  0.013237333          708 
 3498000   0.69739171    -8.061901    588.16414  0.014011915  0.013232118          798 
 3499000   0.69663469   -8.0464225    588.77826  0.014022536   0.01322691          704 
 3500000   0.69929128   -8.0508389      587.992   0.01399981  0.013221696          708 
 3501000   0.69324573   -8.0794442    586.65286  0.013963936  0.013216497          799 
 3502000   0.70898479   -8.0521559    586.89527  0.013965717  0.013211297          810 
 3503000   0.70032721   -8.0582297    587.36195  0.013972832  0.013206096          821 
 3504000   0.67631845   -8.0897107     586.9998  0.013960231  0.013200897          747 
 3505000   0.68027769    -8.083111    587.00686  0.013956416  0.013195688          750 
 3506000    0.7000605     -8.06631    587.43816  0.013962687   0.01319049          746 
 3507000   0.69393891   -8.1063009    586.46235  0.013935518  0.013185288          684 
 3508000   0.68306147   -8.0788629    587.50893  0.013956408  0.013180089          781 
 3509000   0.68815533   -8.0728579    587.71419  0.013957305  0.013174894          750 
 3510000   0.69385713   -8.0785751    586.85055  0.013932824  0.013169696          812 
 3511000   0.69725263   -8.1001525    586.38358  0.013917772  0.013164498          780 
 3512000   0.69959679    -8.094433    587.13287  0.013931589  0.013159304          780 
 3513000    0.6873727   -8.0592245    587.10306  0.013926916  0.013154105          733 
 3514000   0.68776171   -8.0786607    587.83398  0.013940286  0.013148909          847 
 3515000   0.68095688   -8.0985386     586.8589  0.013913203  0.013143703          804 
 3516000   0.69026241   -8.1011372    586.68757  0.013905185  0.013138504          738 
 3517000   0.69169068   -8.0769929    587.79466  0.013927463  0.013133318          795 
 3518000   0.69678576   -8.0861545     586.0174  0.013881405  0.013128141          752 
 3519000   0.69474244   -8.0592741    587.65889  0.013916333  0.013122962          809 
 3520000   0.68154941   -8.0839662    586.50674  0.013885103  0.013117784          891 
 3521000   0.68988365   -8.1061715    586.75888  0.013887127  0.013112611          898 
 3522000   0.69285269   -8.0917531    587.00525  0.013889013  0.013107427          824 
 3523000   0.67316735    -8.108991    587.86501  0.013905408  0.013102253          890 
 3524000    0.6807393   -8.0871233    587.76412  0.013899076  0.013097087          883 
 3525000    0.6794567    -8.103076    586.64717  0.013868727  0.013091915          904 
 3526000   0.67994472    -8.084242     585.5997  0.013840038  0.013086742          916 
 3527000   0.69236256   -8.0726962     587.7487  0.013886889  0.013081573          875 
 3528000   0.68852454   -8.0891737    586.71841  0.013858617  0.013076407          800 
 3529000   0.68888478   -8.1117339    586.67006  0.013853548  0.013071244          857 
 3530000    0.6978063   -8.0954909    586.38419  0.013842875  0.013066076          866 
 3531000   0.68961026   -8.0881657    586.43927  0.013840255  0.013060908          880 
 3532000   0.69230107   -8.0819184    586.42601  0.013836023  0.013055737          860 
 3533000   0.69130775    -8.085142    586.86249  0.013842402  0.013050578          913 
 3534000   0.69601483   -8.0952761    587.36548  0.013850346  0.013045431          980 
 3535000   0.68958252   -8.0967608    587.87627  0.013858469  0.013040278          914 
 3536000   0.68111183   -8.0890519    586.86064  0.013830615  0.013035125          955 
 3537000   0.70162892   -8.0860723    586.88707  0.013827327  0.013029979          884 
 3538000   0.69517852    -8.123766    585.08718  0.013781025   0.01302483          980 
 3539000   0.69019891    -8.096035    586.00309  0.013798698  0.013019675          804 
 3540000   0.68246645    -8.098743    587.48996  0.013829801  0.013014519          898 
 3541000   0.68371478   -8.1219181    585.74187  0.013784756  0.013009364          903 
 3542000   0.69354451   -8.0902671    586.27016  0.013793294  0.013004208          952 
 3543000   0.68413722   -8.1190117    585.40879  0.013769141  0.012999054          907 
 3544000   0.70471594   -8.1054203    586.62098  0.013793759  0.012993913          881 
 3545000   0.69022894   -8.0848124    586.47503  0.013786437  0.012988771          819 
 3546000   0.68945316   -8.1274104    585.84456  0.013767733  0.012983618          991 
 3547000   0.68078333    -8.092254    587.02242  0.013791524   0.01297848          941 
 3548000     0.676977   -8.1131522    587.30914  0.013794371  0.012973344         1017 
 3549000   0.68597124   -8.0995975    586.11995  0.013762561  0.012968216          887 
 3550000   0.68071393   -8.1224497    586.51387  0.013767931  0.012963078          991 
 3551000   0.69198082   -8.1149847    585.66314  0.013744089  0.012957935          962 
 3552000   0.69495216   -8.0840871    587.74905  0.013789158  0.012952805          874 
 3553000   0.66147632   -8.1165282    585.77347  0.013738941  0.012947685          960 
 3554000   0.69230966   -8.1105683    585.77772  0.013735174   0.01294256          954 
 3555000   0.68089825     -8.10715    586.90489  0.013757733  0.012937438          960 
 3556000   0.69335875    -8.100238     586.4276  0.013742679  0.012932314          989 
 3557000   0.68533856   -8.1100389    584.85954  0.013702079  0.012927203          937 
 3558000   0.68491573   -8.1340264    584.97082  0.013700834  0.012922088          968 
 3559000   0.67110934   -8.1177739    586.95504  0.013743445  0.012916964          979 
 3560000   0.68174835   -8.0783681    587.17668  0.013744773  0.012911858          970 
 3561000   0.66535063   -8.0884548    585.30387  0.013697086  0.012906755          959 
 3562000   0.68191855   -8.1238216    586.87354  0.013729963  0.012901643          897 
 3563000    0.6728019   -8.1338756    585.64273  0.013697323  0.012896536          950 
 3564000   0.67253141   -8.1037579    585.98337  0.013701444  0.012891422          939 
 3565000   0.68602974   -8.1135155     585.9079  0.013695837  0.012886321         1009 
 3566000   0.67531451   -8.1037383    586.31827  0.013701586  0.012881214          892 
 3567000   0.68477606   -8.1370227    585.40839  0.013676488  0.012876111          984 
 3568000   0.68856655   -8.1280737    587.07356  0.013711546   0.01287101          937 
 3569000   0.69051508   -8.1300566    585.55032  0.013672138  0.012865914         1021 
 3570000   0.67597849   -8.0938564    587.07658  0.013703935  0.012860812         1008 
 3571000    0.6727474   -8.1002779    587.88062  0.013718861  0.012855719          946 
 3572000   0.68780977   -8.1254597    585.71725   0.01366455  0.012850628          961 
 3573000    0.6874858   -8.1299179    586.07252  0.013669011  0.012845543          927 
 3574000   0.67116833   -8.1149829    587.94378  0.013708818  0.012840465          992 
 3575000   0.66700019   -8.1319823    586.43804  0.013669884  0.012835376          975 
 3576000   0.67810036   -8.1305197    585.73376   0.01364965  0.012830292         1059 
 3577000   0.67842844   -8.1210277    587.34908  0.013683466  0.012825206         1031 
 3578000   0.66597333   -8.1218821    586.96142  0.013670612  0.012820127          995 
 3579000   0.67644321   -8.1277325     586.4402  0.013654657  0.012815046          998 
 3580000   0.68212247   -8.1211206     586.0836  0.013642542  0.012809969          961 
 3581000   0.68920172   -8.1440623    587.01814   0.01366048  0.012804888         1001 
 3582000   0.69144336   -8.1223719     585.1106  0.013612288  0.012799811          972 
 3583000   0.67505455   -8.1393184    586.27508  0.013635573  0.012794729          987 
 3584000   0.66831114   -8.1062452    586.82805  0.013644626  0.012789647         1016 
 3585000   0.67165014   -8.0937117    586.14618  0.013624969  0.012784572         1018 
 3586000   0.66254662   -8.1168962    585.40943  0.013604049  0.012779511         1053 
 3587000   0.68554207   -8.1270889    584.73397  0.013584564  0.012774441         1092 
 3588000   0.68458517   -8.1246737     585.5385  0.013599463  0.012769388         1103 
 3589000   0.68245461   -8.1182181    586.47181  0.013617345  0.012764334         1070 
 3590000   0.68618886   -8.1205263    585.88738  0.013599986  0.012759282         1034 
 3591000   0.67642338   -8.1248541    585.83808  0.013595054  0.012754228         1057 
 3592000   0.68895399   -8.1257923    586.88559  0.013615571  0.012749179         1089 
 3593000   0.68020093   -8.1319976    585.90538  0.013589048  0.012744121         1139 
 3594000   0.67466756   -8.1310685    585.09885  0.013566566  0.012739066         1094 
 3595000   0.67603922   -8.1387328    585.63074  0.013575121  0.012734024         1145 
 3596000   0.68301489   -8.1319416     585.8955  0.013577482  0.012728968         1117 
 3597000   0.67619849   -8.1147118    585.97742  0.013575605  0.012723922         1043 
 3598000   0.68829224   -8.1547133    584.18911  0.013530413  0.012718873         1100 
 3599000   0.67707085   -8.1503218      584.806  0.013540937  0.012713829         1082 
 3600000   0.68178605   -8.1310853    585.65122  0.013556741  0.012708784         1098 
 3601000   0.66597591   -8.1306055    584.74416  0.013531986  0.012703742         1017 
 3602000   0.69341995   -8.1049929    586.12319  0.013560133  0.012698709         1065 
 3603000   0.67437869   -8.1412774    585.54475  0.013542991  0.012693678         1102 
 3604000   0.66968725   -8.1139984    584.71378  0.013520019  0.012688645         1143 
 3605000   0.67438477   -8.1366764    585.62742  0.013537388  0.012683605         1103 
 3606000   0.67180378   -8.1414332    585.32691   0.01352669  0.012678575         1151 
 3607000   0.67547365   -8.1355507    585.84624  0.013534938   0.01267355         1048 
 3608000   0.67713813   -8.1273412    585.21056  0.013516504  0.012668526         1077 
 3609000   0.65726695   -8.1366119    585.86737  0.013527925  0.012663504         1094 
 3610000   0.66529287   -8.1464202    584.15901  0.013484742  0.012658473         1093 
 3611000   0.66889531   -8.1653298    584.33426  0.013485052   0.01265344         1206 
 3612000   0.67674877    -8.143389    585.45846  0.013507255  0.012648417         1152 
 3613000   0.67980416   -8.1452114    586.16579  0.013519831  0.012643397         1227 
 3614000   0.67390846   -8.1324659    585.32874  0.013496789  0.012638378         1165 
 3615000   0.68306636   -8.1447222    586.23185  0.013513874  0.012633369         1233 
 3616000   0.67497652   -8.1381701    586.20039  0.013509412  0.012628359         1124 
 3617000   0.67973345   -8.1490433    584.57136  0.013468145  0.012623348         1086 
 3618000    0.6738865   -8.1416604    584.97626  0.013473748   0.01261833         1219 
 3619000   0.66829188   -8.1168614    584.62268  0.013461884  0.012613319         1188 
 3620000   0.67861657   -8.1489577    585.37998  0.013475598  0.012608314         1147 
 3621000   0.67746652   -8.1454253    585.47603  0.013474087  0.012603316         1079 
 3622000   0.67768568   -8.1225268    585.42925  0.013469291  0.012598315         1151 
 3623000   0.68995283   -8.1508476    584.84055  0.013452032  0.012593323         1134 
 3624000   0.66145744   -8.1405908    585.48803  0.013463209  0.012588328         1070 
 3625000   0.66796406   -8.1413192    584.69836  0.013441342  0.012583331         1157 
 3626000   0.66720048   -8.1402857    584.91485   0.01344261  0.012578335         1141 
 3627000   0.67526948    -8.158426    585.36076  0.013449149  0.012573339         1187 
 3628000   0.67767975   -8.1600455    584.55203  0.013426866  0.012568344         1210 
 3629000   0.65805247   -8.1776589    585.15286  0.013436963  0.012563351         1120 
 3630000   0.67862227   -8.1458234     586.6077   0.01346666   0.01255837         1124 
 3631000   0.66560894   -8.1302545    584.96579  0.013425268  0.012553392         1124 
 3632000   0.66877151   -8.1685649    584.70049  0.013415485  0.012548415         1172 
 3633000   0.65200544   -8.1529663    585.13655  0.013421795  0.012543437         1058 
 3634000   0.67200716    -8.152926     583.8355  0.013388266  0.012538471         1045 
 3635000    0.6727102   -8.1482925    584.81219  0.013406974  0.012533501         1145 
 3636000   0.66590001   -8.1360933    585.17232   0.01341154  0.012528531         1143 
 3637000    0.6837185   -8.1484495    586.09742  0.013429049  0.012523563         1137 
 3638000   0.68466034   -8.1421451    584.76804  0.013394906  0.012518589         1161 
 3639000   0.67132104   -8.1505943    584.91646  0.013394624  0.012513624         1239 
 3640000   0.65930251   -8.1375237    584.95127  0.013391742  0.012508656         1161 
 3641000    0.6721187   -8.1674977    585.54417  0.013401633  0.012503688         1224 
 3642000   0.67178176   -8.1739428    585.14911  0.013388914  0.012498728         1192 
 3643000   0.66826074    -8.145881    584.88606  0.013379222  0.012493773         1185 
 3644000   0.67610713   -8.1732902    584.71676  0.013371679  0.012488826         1198 
 3645000   0.65505907    -8.164776    584.79558  0.013369812  0.012483877         1196 
 3646000   0.67312603   -8.1477729    585.52455  0.013382806  0.012478922         1227 
 3647000   0.66935726   -8.1503012    583.92089  0.013342494  0.012473971         1196 
 3648000    0.6627812    -8.175164    584.29992  0.013347494  0.012469022         1183 
 3649000   0.67436039   -8.1494881    583.83608  0.013333244  0.012464071         1181 
 3650000   0.65365764   -8.1517484    584.62013  0.013347492  0.012459118         1268 
 3651000   0.67652376   -8.1543961    584.50079  0.013341112  0.012454173         1193 
 3652000   0.65589456   -8.1641194    584.79607  0.013344196  0.012449232         1220 
 3653000   0.66037966   -8.1681257    584.48149  0.013333367  0.012444293         1225 
 3654000   0.64979242   -8.1526238    584.62802   0.01333306  0.012439356         1231 
 3655000   0.65818361   -8.1574842    584.81872   0.01333376  0.012434428         1200 
 3656000   0.67168809   -8.1590375     584.7075  0.013327578    0.0124295         1194 
 3657000   0.66108763   -8.1702694    584.48015  0.013318753  0.012424572         1223 
 3658000   0.65938366   -8.1896528    584.71787  0.013320527  0.012419645         1269 
 3659000   0.66271167   -8.1567092    585.11867  0.013326015  0.012414724         1133 
 3660000   0.67214382   -8.1736531    583.64624  0.013288849  0.012409798         1193 
 3661000   0.66656181   -8.1679303    584.31495   0.01330044  0.012404874         1293 
 3662000   0.66003163   -8.1624936    584.40874  0.013298943  0.012399954         1280 
 3663000   0.64319541    -8.169488    585.18293  0.013312925  0.012395036         1241 
 3664000   0.67514398    -8.148758    583.82961  0.013278512  0.012390118         1165 
 3665000   0.66940013    -8.178706    584.49578  0.013290036  0.012385202         1223 
 3666000   0.66847649   -8.1722023    584.16384  0.013278865  0.012380282         1178 
 3667000    0.6597952   -8.1595343     585.0014  0.013294278  0.012375369         1264 
 3668000   0.66468724   -8.1585125    584.95228  0.013289538  0.012370461         1255 
 3669000   0.66308711   -8.1804262    584.44167  0.013274318  0.012365546         1218 
 3670000   0.65650734   -8.1695091    584.13501  0.013263738  0.012360642         1222 
 3671000   0.67074878   -8.1840112     584.7104  0.013273186  0.012355739         1192 
 3672000   0.66063937    -8.169293    585.09072  0.013278203  0.012350837         1167 
 3673000   0.66762918   -8.1916664    584.59988  0.013263451  0.012345944         1237 
 3674000   0.66822706   -8.1817161    583.66353  0.013238603  0.012341043         1289 
 3675000    0.6624491   -8.1834815    584.46955  0.013253278  0.012336146         1201 
 3676000   0.66519602   -8.1766112    584.31196    0.0132461  0.012331256         1173 
 3677000    0.6538132    -8.154482    585.78748  0.013275938  0.012326374         1184 
 3678000   0.67076058   -8.1605202    585.34752   0.01326236  0.012321487         1179 
 3679000   0.68090955   -8.1733126    584.51242  0.013239839  0.012316611         1196 
 3680000   0.65274586   -8.1656345    585.11329  0.013249848  0.012311725         1268 
 3681000   0.66335384   -8.1669727    584.80956  0.013239372  0.012306847         1262 
 3682000    0.6541144   -8.1624471    584.67077  0.013232636  0.012301969         1115 
 3683000   0.66157936    -8.184457    584.45352  0.013224127  0.012297093         1232 
 3684000   0.65193686   -8.1763546    584.46149  0.013220718  0.012292228         1200 
 3685000    0.6751727    -8.176389    584.93645  0.013227871  0.012287363         1145 
 3686000   0.67397781   -8.2000926    584.52851   0.01321506  0.012282497         1237 
 3687000   0.66249455   -8.1654447    585.96114  0.013243855  0.012277634         1289 
 3688000   0.65970566    -8.180191    585.49598  0.013229754  0.012272768         1316 
 3689000   0.65787349   -8.1843381    584.16211  0.013196036  0.012267908         1332 
 3690000   0.65923321   -8.1459096    585.15389  0.013214858  0.012263045         1239 
 3691000   0.64408621   -8.1826147    584.21474  0.013190074  0.012258186         1221 
 3692000   0.66551013   -8.1749248    583.53051  0.013171057  0.012253322         1279 
 3693000   0.65212337   -8.1670045    584.55097  0.013190517   0.01224846         1351 
 3694000   0.66646432   -8.1740939    584.10437  0.013176872  0.012243601         1299 
 3695000   0.64565833   -8.1680576    584.56823  0.013183767  0.012238745         1271 
 3696000   0.65382584   -8.1942996    584.47727  0.013178149  0.012233885         1196 
 3697000   0.66437496   -8.1846151    584.57001  0.013176675  0.012229032         1256 
 3698000   0.65603962   -8.1763867    584.47166  0.013170896  0.012224175         1281 
 3699000   0.65989214   -8.1813818    585.68548  0.013194681  0.012219332         1254 
 3700000       0.6599   -8.1953015    583.97924  0.013152686  0.012214496         1280 
 3701000     0.667378   -8.1754192    585.07013  0.013173695  0.012209667         1251 
 3702000   0.66186599   -8.1975838    582.61573  0.013114887  0.012204839         1244 
 3703000   0.66127034    -8.192137    584.58091   0.01315557  0.012200006         1277 
 3704000   0.65282751   -8.1835661    584.69822  0.013154658  0.012195179         1200 
 3705000   0.66336927   -8.1900302    584.12341  0.013138178  0.012190354         1206 
 3706000   0.65385471   -8.1905893    584.97677  0.013153822  0.012185529         1281 
 3707000   0.65322174   -8.1909307    583.72903  0.013122224  0.012180706         1291 
 3708000   0.65323017   -8.2126176    584.22281  0.013129783  0.012175881         1268 
 3709000   0.64950886   -8.2070633    583.20266  0.013103322  0.012171055         1317 
 3710000   0.64553689   -8.1974199     583.1892  0.013099488  0.012166227         1323 
 3711000   0.66810268    -8.204153    583.86282  0.013111085  0.012161397         1339 
 3712000   0.64964497   -8.1951537    583.25559   0.01309392  0.012156577         1304 
 3713000   0.64926636   -8.1884321    584.32369  0.013114366  0.012151762         1279 
 3714000   0.65167922    -8.183699    584.44502  0.013113557  0.012146947         1350 
 3715000   0.65345169   -8.2041826    584.73859  0.013116613  0.012142141         1271 
 3716000   0.66742654   -8.1939694    583.90077  0.013094294   0.01213733         1172 
 3717000   0.67006549   -8.1852456    584.32414  0.013100263  0.012132522         1326 
 3718000    0.6605853   -8.2100228    583.83279  0.013085727  0.012127715         1361 
 3719000   0.64935905   -8.1882048    584.19398  0.013090302  0.012122893         1381 
 3720000   0.64995048   -8.2136176    584.21476  0.013087248  0.012118081         1306 
 3721000   0.65284501   -8.1689061    584.39071  0.013087672  0.012113273         1323 
 3722000   0.65537546   -8.2001042    584.12872  0.013078289  0.012108467         1293 
 3723000   0.65444857    -8.227314    583.00285  0.013049576  0.012103666         1392 
 3724000   0.65648679   -8.2064799    583.62137  0.013059912  0.012098866         1343 
 3725000   0.66266203   -8.2025235    583.67106  0.013057518   0.01209407         1318 
 3726000   0.65092284    -8.209767    584.21592    0.0130662  0.012089279         1366 
 3727000   0.67409876   -8.1976899    583.81988  0.013053839  0.012084487         1357 
 3728000    0.6639719   -8.2222549    582.71504   0.01302564  0.012079691         1335 
 3729000   0.63999568   -8.1834499    584.35257  0.013058742  0.012074898         1422 
 3730000   0.64556048   -8.2074889    583.49493   0.01303608  0.012070117         1353 
 3731000   0.67014659    -8.208347      583.215  0.013026334  0.012065335         1398 
 3732000   0.64914913   -8.2160946    583.86621  0.013037384  0.012060546         1293 
 3733000   0.65619839   -8.1907044    584.43818   0.01304666  0.012055762         1317 
 3734000   0.65628809   -8.2041982    583.90106  0.013031179  0.012050986         1354 
 3735000   0.65452266   -8.2109366    583.18143  0.013011634  0.012046206         1472 
 3736000   0.65231488   -8.2215534    583.31098  0.013011041   0.01204143         1394 
 3737000   0.65154262   -8.2111325    584.73007  0.013039204  0.012036647         1379 
 3738000   0.65616498   -8.2304888    584.78399  0.013036918  0.012031877         1384 
 3739000   0.66539114   -8.2224539     583.0698  0.012995226  0.012027109         1403 
 3740000   0.65395098    -8.202785    584.29442  0.013019038  0.012022343         1339 
 3741000   0.64642113   -8.2045101    584.51611  0.013020496  0.012017577         1264 
 3742000   0.65606228   -8.2065581     584.1552  0.013008979  0.012012822         1396 
 3743000   0.66583695   -8.2145512    583.59431  0.012993016  0.012008057         1390 
 3744000   0.63047625   -8.2012236    584.97562  0.013020291  0.012003297         1374 
 3745000   0.65814067   -8.2118979    582.79339  0.012968255  0.011998542         1338 
 3746000   0.64671823   -8.2162256    583.89084  0.012989207  0.011993789         1365 
 3747000    0.6613538   -8.2130171    584.66559  0.013002971   0.01198904         1445 
 3748000   0.65249072    -8.213275    583.84928  0.012981352    0.0119843         1367 
 3749000   0.65092106   -8.2110322    582.90428  0.012956884  0.011979543         1335 
 3750000   0.64489739   -8.2432535    583.80185  0.012973374  0.011974792         1303 
 3751000     0.668975   -8.2196019    582.69678  0.012945365  0.011970042         1362 
 3752000   0.64757446   -8.2148776    583.86766  0.012967921  0.011965298         1376 
 3753000   0.63246106   -8.2241863    582.66601  0.012937783  0.011960553         1404 
 3754000   0.64487739   -8.2307223    583.77495  0.012958954  0.011955815         1361 
 3755000   0.64917741   -8.2072602    583.57516  0.012951069  0.011951077         1399 
 3756000   0.62914005   -8.2146862    583.70257  0.012950448  0.011946341         1363 
 3757000    0.6287866   -8.2091561    583.13666  0.012934448  0.011941605         1419 
 3758000   0.65329766   -8.2267839    583.62701   0.01294188  0.011936876         1434 
 3759000    0.6536224   -8.1899451    583.50421  0.012935715  0.011932152         1335 
 3760000   0.64687495    -8.207735    583.20246  0.012925587  0.011927426         1204 
 3761000   0.64530686   -8.2190624    584.03867  0.012940678  0.011922701         1367 
 3762000   0.64783384    -8.228228    582.50262  0.012903212  0.011917974         1347 
 3763000   0.64305385   -8.2156228    582.80471  0.012906473   0.01191325         1395 
 3764000   0.65509762   -8.1897423    583.82907  0.012925723  0.011908527         1333 
 3765000   0.64418346   -8.2113202    583.80588  0.012921777  0.011903809         1405 
 3766000   0.65920853   -8.2353193    583.14078  0.012903629  0.011899085         1388 
 3767000   0.64994361   -8.2180317    581.71091  0.012868572  0.011894372         1322 
 3768000     0.633936   -8.2028098    582.44384  0.012881366  0.011889656         1321 
 3769000   0.65796547   -8.2077053    581.47205  0.012856462  0.011884949         1394 
 3770000   0.65289468   -8.2039094     583.7275  0.012902907  0.011880239         1406 
 3771000   0.64196885   -8.2169736     583.7104  0.012899107   0.01187553         1441 
 3772000     0.645053   -8.2073865    582.69988  0.012873362  0.011870828         1482 
 3773000   0.63938096   -8.2132635    583.01441  0.012876897  0.011866125         1451 
 3774000    0.6514814   -8.2288392    583.17056  0.012876933  0.011861435         1381 
 3775000   0.64148858   -8.1964253    583.36128  0.012877732  0.011856736         1460 
 3776000   0.64560035   -8.2159868    582.49924  0.012855298  0.011852031         1498 
 3777000   0.66990321   -8.2317503    582.57831  0.012853638  0.011847339         1422 
 3778000   0.65268582   -8.2022832    583.37425  0.012867793  0.011842646         1492 
 3779000   0.63806367   -8.2021711    582.28235  0.012840309  0.011837955         1481 
 3780000   0.65237093       -8.183    584.29672  0.012881321  0.011833273         1510 
 3781000   0.65789257   -8.2152613    583.39302  0.012857997  0.011828588         1526 
 3782000   0.65267631   -8.2360066    583.84357  0.012864524  0.011823905         1549 
 3783000   0.65086312   -8.2199586    583.29613  0.012849065  0.011819219         1518 
 3784000   0.65690797   -8.2083363    583.70162  0.012854599  0.011814539         1494 
 3785000   0.63843472   -8.2020212    583.18032  0.012839725  0.011809858         1441 
 3786000   0.64634468   -8.2227576     582.9387  0.012831016  0.011805179         1475 
 3787000   0.65368831   -8.2273507    583.47603  0.012839451  0.011800503         1519 
 3788000   0.64683872   -8.2348172    582.69215  0.012818817  0.011795825         1456 
 3789000   0.64187647   -8.2149078     583.6582  0.012836681   0.01179115         1402 
 3790000   0.65169919   -8.2060348    582.71045  0.012812455  0.011786482         1529 
 3791000   0.65125931    -8.223401     582.6853  0.012808522   0.01178182         1463 
 3792000   0.64188528   -8.2358949    581.98426  0.012789738  0.011777154         1529 
 3793000   0.64153412     -8.22054    581.97582  0.012786181   0.01177249         1621 
 3794000   0.63774867   -8.2405631    583.71869  0.012821092  0.011767832         1538 
 3795000   0.63932774    -8.224249    582.55842  0.012792236  0.011763183         1454 
 3796000   0.64608357   -8.2012021    584.13786  0.012823539  0.011758529         1478 
 3797000   0.65242894   -8.2271842    583.60751  0.012808522  0.011753882         1532 
 3798000   0.64539762   -8.2268919    582.69677  0.012785167  0.011749234         1436 
 3799000   0.65283168   -8.2219021    583.36138   0.01279638  0.011744581         1448 
 3800000   0.64677898   -8.2155595     582.2028  0.012767605  0.011739936         1516 
 3801000   0.63927689   -8.2347598    583.34028  0.012789184  0.011735294         1462 
 3802000   0.64711335   -8.2115673    582.79746  0.012773923  0.011730649         1547 
 3803000   0.63741002   -8.2349076    582.95961  0.012774117  0.011726016         1521 
 3804000   0.63880439   -8.2516832    582.32697    0.0127569  0.011721377         1450 
 3805000   0.63597025   -8.2247689    582.53573  0.012758119  0.011716737         1426 
 3806000   0.64306952    -8.236916    582.85279  0.012761709  0.011712105         1471 
 3807000     0.637761    -8.252463    582.13225  0.012742585  0.011707469         1570 
 3808000   0.63867121     -8.22297    581.28731  0.012720748  0.011702828         1502 
 3809000   0.62134007   -8.2171444     582.6336  0.012746863  0.011698194         1540 
 3810000   0.65731471   -8.2200371    583.68863  0.012766593  0.011693563         1496 
 3811000   0.64308012   -8.2306214    581.87792  0.012723649  0.011688934         1500 
 3812000   0.64136182   -8.2276935    582.74563   0.01273928  0.011684301         1589 
 3813000   0.64269064   -8.2417675    582.39574  0.012728292  0.011679677         1566 
 3814000   0.62587377   -8.2285382    582.30879  0.012723055  0.011675048         1442 
 3815000   0.63776394   -8.2098893    582.74601  0.012729271  0.011670426         1472 
 3816000   0.65057359   -8.2232994    581.19308  0.012692022  0.011665807         1448 
 3817000   0.63871402   -8.2281532    581.03577  0.012685263  0.011661189         1533 
 3818000     0.636343   -8.2441804    581.21227  0.012685792  0.011656565         1515 
 3819000   0.63528805   -8.2467789    581.84843  0.012696352  0.011651952         1536 
 3820000   0.63142886   -8.2379909    582.69393  0.012711473  0.011647333         1479 
 3821000    0.6403723   -8.2214453    582.24454  0.012698345  0.011642729         1488 
 3822000   0.65080226   -8.2299559    582.85272  0.012708284  0.011638128         1543 
 3823000   0.64945506   -8.2400771    581.69355  0.012679692  0.011633525         1489 
 3824000   0.63551128   -8.2236428    582.53872  0.012694794   0.01162893         1456 
 3825000   0.63946214   -8.2514867    583.38381  0.012709887   0.01162433         1418 
 3826000   0.64492221   -8.2225702     581.8175   0.01267245  0.011619727         1522 
 3827000   0.64261227   -8.2291212    583.03557  0.012695662  0.011615134         1450 
 3828000   0.65943162   -8.2146746     582.4005   0.01267852  0.011610541         1523 
 3829000   0.65171385   -8.2325724    582.39985  0.012675195  0.011605955         1441 
 3830000   0.63331602   -8.2424497    582.85616  0.012681814  0.011601366         1464 
 3831000   0.64063042   -8.2482708    582.17236  0.012663629  0.011596781         1493 
 3832000   0.63701161   -8.2139056    582.88955  0.012675921  0.011592198         1554 
 3833000   0.64743958   -8.2177285    581.83381  0.012649661  0.011587615         1463 
 3834000   0.62394541   -8.2477544    583.01582  0.012672053  0.011583044         1527 
 3835000   0.63890823   -8.2247963    583.19725  0.012672691  0.011578467         1502 
 3836000    0.6400331   -8.2505945    581.87343  0.012640629  0.011573896         1448 
 3837000   0.63300695   -8.2432872    581.77297  0.012635153  0.011569313         1474 
 3838000     0.639538   -8.2337516    582.52963   0.01264829   0.01156474         1513 
 3839000   0.63963593   -8.2371452    581.29137  0.012618116  0.011560176         1446 
 3840000   0.63202991   -8.2406251    582.20228  0.012634598  0.011555614         1496 
 3841000   0.63123832   -8.2493882    582.50509  0.012637878  0.011551049         1464 
 3842000    0.6443143   -8.2370213    582.58997   0.01263643  0.011546486         1543 
 3843000   0.62409466   -8.2396788    580.99566   0.01259857  0.011541919         1552 
 3844000   0.62851149   -8.2218389    582.10425  0.012619326  0.011537363         1487 
 3845000   0.63823446   -8.2498711    582.86537   0.01263254  0.011532804         1564 
 3846000   0.63267572   -8.2502594    581.94607  0.012609336   0.01152825         1527 
 3847000   0.63914358   -8.2450572    582.63625  0.012621009  0.011523702         1544 
 3848000   0.64112586   -8.2426707     582.5486  0.012615831  0.011519149         1514 
 3849000   0.63296761   -8.2280794    581.47213  0.012589247  0.011514603         1576 
 3850000   0.62037985   -8.2685462    581.52051  0.012587024  0.011510055         1469 
 3851000    0.6403566   -8.2445712    582.62454  0.012607646  0.011505507         1591 
 3852000   0.66088661   -8.2244923    580.97145  0.012568611  0.011500961         1508 
 3853000   0.63745537   -8.2523632    582.24986  0.012592998  0.011496417         1532 
 3854000   0.64373765   -8.2412831    581.23878  0.012567869  0.011491881         1617 
 3855000   0.63290224   -8.2418673    581.76101  0.012575897  0.011487344         1525 
 3856000   0.62861066   -8.2262148    582.38628  0.012586149  0.011482812         1562 
 3857000   0.62881492    -8.231199    583.66424  0.012610497  0.011478281         1580 
 3858000   0.63760574   -8.2292433    582.40622  0.012580055  0.011473759         1513 
 3859000   0.63886518   -8.2496068    582.21111  0.012572582  0.011469236         1523 
 3860000   0.62733848   -8.2375092    581.86552  0.012561863  0.011464711         1524 
 3861000   0.63984696   -8.2528315    581.55473  0.012551902  0.011460191         1581 
 3862000   0.63295718   -8.2679838    581.48383  0.012547122  0.011455676         1601 
 3863000   0.65022071   -8.2408651    582.37965  0.012563199  0.011451162         1492 
 3864000   0.63158832   -8.2460479     582.2926   0.01255807  0.011446645         1553 
 3865000   0.61785171   -8.2321206    582.58734  0.012561176   0.01144213         1489 
 3866000   0.63556581   -8.2499601    581.91358  0.012543404  0.011437619         1584 
 3867000   0.62587614   -8.2533971    581.24991  0.012525858   0.01143311         1530 
 3868000   0.61825673   -8.2617029    581.10889  0.012519581  0.011428595         1633 
 3869000   0.61906184   -8.2354753    581.76149  0.012530402  0.011424083         1571 
 3870000   0.64063881   -8.2449648    581.31563  0.012517563  0.011419579         1501 
 3871000   0.62711544   -8.2395913    582.07857  0.012530754  0.011415081         1493 
 3872000     0.630854   -8.2394506    581.65483  0.012518398  0.011410581         1521 
 3873000   0.64181727   -8.2635237    582.96896  0.012543441  0.011406082         1520 
 3874000   0.64725318   -8.2583724    581.59684  0.012510687  0.011401588         1570 
 3875000   0.63997641   -8.2516873    581.95344  0.012515128  0.011397091         1507 
 3876000   0.63662441   -8.2503955    581.55337  0.012503297  0.011392597         1599 
 3877000   0.63774288   -8.2695136    582.16231  0.012513161  0.011388111         1562 
 3878000   0.62436014   -8.2693845    581.34211  0.012492309   0.01138362         1660 
 3879000   0.62737401   -8.2526441     582.2852  0.012509349  0.011379131         1524 
 3880000   0.63929442   -8.2460447     582.9809  0.012521067  0.011374652         1541 
 3881000   0.63942558   -8.2532686    581.95379  0.012495787  0.011370168         1553 
 3882000   0.64206489   -8.2492624    582.19987  0.012497851  0.011365688         1533 
 3883000   0.63707515   -8.2497457    581.49792  0.012479567  0.011361218         1555 
 3884000   0.63283561   -8.2436402    581.45108  0.012475349  0.011356756         1545 
 3885000   0.63989408   -8.2417426    582.17338  0.012487632  0.011352282         1462 
 3886000   0.63141885   -8.2398872    581.48378   0.01246963  0.011347816         1576 
 3887000   0.62736427   -8.2523614    582.36113  0.012485231  0.011343346         1601 
 3888000   0.63019715   -8.2582307    582.97345  0.012495144  0.011338885         1531 
 3889000    0.6509698   -8.2634893    581.60185  0.012462541  0.011334424         1510 
 3890000    0.6268785   -8.2594103    581.86061   0.01246488  0.011329963         1567 
 3891000   0.61916654   -8.2581044     581.8445  0.012461332  0.011325503         1563 
 3892000   0.64003414   -8.2541761    582.36684  0.012469314  0.011321045         1482 
 3893000    0.6098718   -8.2385175    582.60986  0.012471313   0.01131659         1570 
 3894000   0.62320988   -8.2609088    580.89461  0.012431403  0.011312141         1556 
 3895000   0.62574883   -8.2358624    581.74487  0.012446403  0.011307692         1608 
 3896000   0.61846054    -8.263022    580.93454  0.012425876  0.011303248         1529 
 3897000   0.62697282   -8.2319967     581.6319  0.012437599    0.0112988         1516 
 3898000   0.62522559   -8.2654168    581.73922  0.012436703  0.011294353         1557 
 3899000   0.63013052   -8.2574014    581.57155   0.01242993  0.011289909         1640 
 3900000   0.63335841   -8.2474339    581.11297  0.012416944   0.01128547         1572 
 3901000   0.63453251   -8.2458851    581.90376  0.012430654  0.011281033         1563 
 3902000   0.62212292   -8.2452608    581.60566  0.012421102    0.0112766         1542 
 3903000   0.63218106   -8.2529813    581.79185  0.012421894  0.011272165         1586 
 3904000   0.62164619   -8.2518343    581.08259  0.012403573  0.011267732         1580 
 3905000   0.62902446    -8.231527    581.99368   0.01241984  0.011263302         1548 
 3906000   0.63397336   -8.2513555    581.77859  0.012412071  0.011258877         1578 
 3907000   0.62889172   -8.2616445    582.85659  0.012431887  0.011254449         1623 
 3908000   0.62387294   -8.2669442    581.04328  0.012390039  0.011250023         1659 
 3909000   0.62817974   -8.2605216    582.05775  0.012408496  0.011245601         1580 
 3910000   0.60762124   -8.2643852    581.74038  0.012398559  0.011241178         1613 
 3911000   0.62367026   -8.2664589    581.05162  0.012380713  0.011236762         1644 
 3912000   0.62380778    -8.254437    582.54794  0.012409423  0.011232346         1631 
 3913000   0.62445277   -8.2352122    581.94493  0.012393409  0.011227932         1666 
 3914000   0.63276935   -8.2435813    581.92415    0.0123898  0.011223514         1622 
 3915000   0.61606028   -8.2808513    581.10426  0.012369184  0.011219094         1736 
 3916000   0.63272953   -8.2524238    581.54962  0.012375503  0.011214685         1716 
 3917000   0.63330944   -8.2737919     581.7475  0.012376553  0.011210274         1703 
 3918000   0.64182388   -8.2663299    581.58853  0.012370013  0.011205864         1683 
 3919000   0.61777952   -8.2525478    582.47114  0.012385624  0.011201463         1633 
 3920000   0.62834254    -8.277425     581.3355  0.012358323  0.011197066         1593 
 3921000    0.6308002   -8.2494112    582.43621  0.012378564  0.011192673         1634 
 3922000   0.63326851   -8.2605687    581.75785  0.012360995   0.01118828         1570 
 3923000   0.61972453     -8.24237    582.78253   0.01237961  0.011183889         1622 
 3924000   0.62141263   -8.2672706    580.91203  0.012336732  0.011179494         1652 
 3925000   0.61130079   -8.2266557     580.9933  0.012335314  0.011175099         1632 
 3926000   0.62454005   -8.2874029     580.4489  0.012320617  0.011170709         1624 
 3927000   0.62267927   -8.2808959    580.91214   0.01232731  0.011166312         1633 
 3928000    0.6311788   -8.2648095     581.0463  0.012327018  0.011161915         1691 
 3929000   0.61581565   -8.2690016    581.09173  0.012324844  0.011157521         1693 
 3930000   0.61406261   -8.2865854    581.00418  0.012319851  0.011153132         1657 
 3931000    0.6182159   -8.2668576    580.18967   0.01229945  0.011148742         1696 
 3932000   0.62086732   -8.2721387    580.68143  0.012306744  0.011144353         1650 
 3933000    0.6146815   -8.2770384    580.61208  0.012302146  0.011139965         1739 
 3934000   0.62097642   -8.2709173    580.13757  0.012288967  0.011135587         1670 
 3935000    0.6164807   -8.2601431    581.92865  0.012323775   0.01113121         1672 
 3936000   0.61363699   -8.2856511    580.06149  0.012281112  0.011126833         1651 
 3937000   0.61793897   -8.2769507    581.02276   0.01229834  0.011122455         1619 
 3938000   0.62311858   -8.2668311     582.1387  0.012318832  0.011118078         1758 
 3939000   0.62309482    -8.268202    580.43495   0.01227966    0.0111137         1702 
 3940000   0.61624002   -8.2770889    580.46819  0.012277246   0.01110933         1687 
 3941000   0.62582091   -8.2776828    580.93269  0.012283953  0.011104961         1644 
 3942000   0.61997368   -8.2541155    581.00266  0.012282316  0.011100595         1577 
 3943000   0.62305665   -8.2944851    581.40747  0.012287756  0.011096231         1640 
 3944000   0.62095205   -8.2808369    580.78275  0.012271441   0.01109187         1720 
 3945000   0.62280348    -8.275833    580.20435  0.012256112  0.011087515         1665 
 3946000   0.63373425   -8.2889089    582.02271  0.012291407  0.011083159         1692 
 3947000   0.61628873   -8.2659111    581.60758  0.012279528  0.011078806         1683 
 3948000   0.61862614   -8.2641648    580.42439  0.012251444  0.011074449         1629 
 3949000   0.62638077    -8.273975    581.12518  0.012263129  0.011070099         1669 
 3950000   0.62594028   -8.2750911    580.53757  0.012247628  0.011065747         1645 
 3951000   0.60412968   -8.2761788     580.3762  0.012241125  0.011061397         1646 
 3952000   0.62231194   -8.2724712    581.14787  0.012254299  0.011057051         1751 
 3953000   0.60415639   -8.3093773    580.15838  0.012230339  0.011052707         1681 
 3954000   0.61633101   -8.2926728    580.99784  0.012244939  0.011048367         1706 
 3955000   0.62546872   -8.2722313    581.41527  0.012250638   0.01104403         1623 
 3956000   0.62895052   -8.2793282    580.58549  0.012230062  0.011039694         1647 
 3957000   0.63506499   -8.2743678    581.48714  0.012245959  0.011035364         1674 
 3958000   0.60849526   -8.2985471    579.85665  0.012208536  0.011031034         1701 
 3959000   0.61541261   -8.2725504    580.92122  0.012227861  0.011026706         1659 
 3960000   0.61807857   -8.2741446    580.74272  0.012221017  0.011022376         1657 
 3961000   0.61181149   -8.2841791    581.22606    0.0122281  0.011018049         1754 
 3962000   0.62106819   -8.2851633    581.36755   0.01222799  0.011013717         1730 
 3963000   0.61134322    -8.292701    579.35391  0.012182562  0.011009394         1810 
 3964000   0.62240199   -8.2919576    581.06806  0.012215524  0.011005076         1749 
 3965000   0.61277422   -8.2776878    580.08131  0.012191705  0.011000759         1722 
 3966000   0.60297378    -8.260301    581.31123  0.012214474  0.010996441         1764 
 3967000   0.60721368   -8.2884117    581.24375  0.012209977  0.010992127         1705 
 3968000   0.61599298   -8.3028623    580.63523   0.01219412  0.010987812         1738 
 3969000   0.62171674   -8.2880433    581.57925  0.012210869  0.010983503         1718 
 3970000   0.62188875   -8.2892251    581.02515  0.012196162  0.010979193         1862 
 3971000   0.60799577   -8.2956246    580.83399  0.012189079   0.01097488         1644 
 3972000   0.61155901   -8.2922925    580.29013    0.0121746  0.010970574         1748 
 3973000   0.62119911   -8.2849352    580.75229  0.012181229  0.010966269         1669 
 3974000   0.59610958   -8.2870117    580.44451   0.01217171  0.010961969         1776 
 3975000   0.61394842   -8.3131164    580.17132  0.012162921  0.010957668         1736 
 3976000   0.61005962    -8.269591    582.06793  0.012199613  0.010953369         1674 
 3977000   0.62077699   -8.2867409    581.23164  0.012179022  0.010949075         1670 
 3978000   0.61927426   -8.2920747    580.11608  0.012152591   0.01094478         1709 
 3979000   0.60804557   -8.2952952    581.16101  0.012171421  0.010940493         1765 
 3980000   0.61588716   -8.2912285     580.2942  0.012150214  0.010936205         1731 
 3981000   0.60419212   -8.2659397    581.38263  0.012169945  0.010931915         1680 
 3982000    0.6157315   -8.2697583    580.78408  0.012154363  0.010927631         1705 
 3983000   0.60998198   -8.3038096    581.31605  0.012162441  0.010923348         1712 
 3984000   0.62120896   -8.2942411     581.6406  0.012166177  0.010919069         1674 
 3985000   0.60703677    -8.302959    580.26352  0.012134327   0.01091479         1713 
 3986000   0.62059947   -8.3042272    581.25576  0.012152027  0.010910514         1760 
 3987000   0.61110669   -8.2730567    580.48528  0.012132875  0.010906249         1717 
 3988000   0.62267989   -8.3023074    580.36054  0.012127226   0.01090198         1760 
 3989000   0.60520668   -8.2973964    579.65867  0.012109524  0.010897709         1732 
 3990000   0.61874728    -8.289292    580.21396  0.012118086  0.010893443         1787 
 3991000   0.61439286   -8.2843389    580.90652  0.012129511  0.010889175         1731 
 3992000   0.61964853   -8.2846382    580.32465  0.012114325  0.010884907         1759 
 3993000   0.59848176    -8.297281    580.86158  0.012122497   0.01088064         1821 
 3994000   0.62654043   -8.2885844    581.12308  0.012124918  0.010876379         1697 
 3995000   0.61847135   -8.2821282    580.27231  0.012104137  0.010872119         1797 
 3996000   0.62121988   -8.2893629    580.91016  0.012114409  0.010867859         1767 
 3997000   0.61629642   -8.3016958     579.4224   0.01208036  0.010863602         1684 
 3998000   0.61443358   -8.3013352    580.38949  0.012097496  0.010859342         1776 
 3999000   0.60219341   -8.2974823    580.42172  0.012095143  0.010855084         1656 
 4000000   0.61811283    -8.284688    579.74972  0.012078119  0.010850836         1724 
 4001000   0.61506188   -8.3221946    579.68361  0.012073723  0.010846585         1745 
 4002000   0.61126823   -8.3049679      580.241  0.012082313  0.010842338         1745 
 4003000   0.60704246   -8.3180437    579.88208  0.012071823  0.010838089         1851 
 4004000   0.60340173   -8.2977793    580.00529  0.012071372  0.010833841         1771 
 4005000   0.60797952    -8.306272    579.05405  0.012048565  0.010829598         1698 
 4006000   0.61270398   -8.3217971    579.81669  0.012061422  0.010825358         1749 
 4007000    0.6057424   -8.2876947    580.09644   0.01206423  0.010821119         1739 
 4008000   0.61347352   -8.3169495    580.94505  0.012078864  0.010816879         1782 
 4009000   0.60316214   -8.3138837    580.43336  0.012065215   0.01081264         1821 
 4010000   0.60026605   -8.3095091    578.99701  0.012032357  0.010808404         1744 
 4011000   0.60173014   -8.2972132    579.99217  0.012050033  0.010804169         1737 
 4012000     0.602841   -8.3171701    580.13798  0.012050058  0.010799936         1731 
 4013000   0.60653482   -8.2918115    580.52501  0.012055092  0.010795702         1731 
 4014000   0.60545698   -8.3183087    578.77373  0.012015731  0.010791475         1755 
 4015000   0.60662502   -8.2945347    579.52104  0.012028249  0.010787247         1727 
 4016000   0.61435186   -8.2983812    579.93748  0.012033895  0.010783027         1694 
 4017000   0.60613726   -8.3071145    580.73372  0.012047418   0.01077881         1696 
 4018000   0.59651489   -8.3117648    580.27374  0.012034879  0.010774595         1716 
 4019000    0.6049258   -8.3134554     579.6874  0.012019727   0.01077038         1727 
 4020000   0.61658767   -8.3166571    580.16077   0.01202655  0.010766168         1683 
 4021000   0.59792854   -8.3043095    579.36928  0.012007156  0.010761953         1770 
 4022000   0.60076847   -8.3062556    580.50653  0.012027733  0.010757745         1771 
 4023000   0.61752255   -8.3409177    579.48421  0.012003567  0.010753536         1759 
 4024000   0.60596536   -8.3125961    579.71523  0.012005368  0.010749325         1784 
 4025000   0.61564153   -8.3288308    578.38907  0.011974929  0.010745122         1777 
 4026000   0.60311248   -8.3160736    580.30837  0.012011682  0.010740921         1828 
 4027000   0.60353414   -8.2955834    579.67314  0.011995554  0.010736718         1742 
 4028000    0.6076829   -8.3115647    579.76248  0.011994424  0.010732521         1716 
 4029000   0.59535748   -8.2941513    580.00329  0.011996428  0.010728322         1750 
 4030000   0.60338217   -8.3035297    580.68074  0.012007459  0.010724127         1808 
 4031000   0.60756079   -8.3123477    579.35189  0.011977009  0.010719934         1726 
 4032000   0.61623361   -8.3107495    579.65434   0.01198029  0.010715741         1740 
 4033000   0.61065068   -8.3065103      580.179   0.01198816  0.010711554         1694 
 4034000   0.61828672   -8.3134938    580.47464  0.011991296  0.010707364         1822 
 4035000   0.62579892   -8.3165233     580.2721  0.011984141  0.010703179         1667 
 4036000    0.6067538   -8.3140173    580.59702   0.01198788  0.010698998         1762 
 4037000   0.60545539   -8.3286067    580.16015  0.011975893  0.010694815         1696 
 4038000   0.61492671    -8.328219    580.21413  0.011974041   0.01069064         1679 
 4039000   0.60400884   -8.3041513    580.39514  0.011974811   0.01068646         1776 
 4040000   0.60177492   -8.2964739    580.09703  0.011965698  0.010682283         1677 
 4041000   0.60837803   -8.3030741    579.99156  0.011960562  0.010678105         1701 
 4042000   0.61079856   -8.3124717    580.41968  0.011966429  0.010673938         1719 
 4043000   0.59998789   -8.2947334    579.36406  0.011941711   0.01066977         1725 
 4044000   0.60734407   -8.3259825    579.75454  0.011946805  0.010665607         1783 
 4045000   0.59775796   -8.3115995     580.4889   0.01195898  0.010661447         1725 
 4046000   0.60216126   -8.3151594    578.78414  0.011920912  0.010657289         1680 
 4047000   0.61544794   -8.3181334     579.7487  0.011937828  0.010653128         1746 
 4048000   0.61201343   -8.3084616     580.0025  0.011940104  0.010648967         1745 
 4049000   0.60319137   -8.3118602    579.88318    0.0119347  0.010644806         1795 
 4050000   0.61705402    -8.302728    580.10574  0.011936332  0.010640651         1731 
 4051000    0.5991478   -8.3360861    580.27256  0.011936817  0.010636498         1767 
 4052000   0.59783337    -8.333132    580.44019  0.011937319  0.010632349         1709 
 4053000   0.60543275   -8.3234327    579.95175  0.011924331  0.010628204         1765 
 4054000    0.5861944   -8.3239826    580.19819  0.011926455  0.010624062         1737 
 4055000   0.60232889   -8.3222934    579.50619  0.011909293  0.010619922         1758 
 4056000   0.60218093   -8.3148661     578.7862  0.011891564   0.01061578         1777 
 4057000   0.60261022   -8.3374584    578.75626  0.011888018  0.010611641         1741 
 4058000   0.60129482   -8.3254896    578.88615  0.011887756  0.010607499         1728 
 4059000    0.5984856   -8.3412116    579.07555  0.011888715  0.010603358         1743 
 4060000   0.58421277   -8.3328411    579.52635   0.01189504  0.010599216         1682 
 4061000   0.61045605   -8.3291038    579.76912  0.011897093  0.010595082         1805 
 4062000   0.59630415   -8.3040582    579.73854  0.011893536  0.010590951         1721 
 4063000   0.60175388   -8.3211168    578.94409  0.011874315   0.01058682         1768 
 4064000   0.58746413   -8.3078874    579.87451  0.011890471  0.010582694         1774 
 4065000   0.59839751   -8.3241612    580.34693  0.011897231  0.010578561         1799 
 4066000   0.59623363   -8.3099917    579.56778  0.011878336   0.01057443         1781 
 4067000   0.59715193   -8.3189401    579.54733  0.011874997   0.01057031         1857 
 4068000   0.60168822   -8.3109627    579.03613  0.011861605  0.010566186         1679 
 4069000   0.60807134   -8.3313366    580.39262  0.011886471  0.010562062         1782 
 4070000   0.61272948   -8.3331388    580.49513   0.01188565  0.010557946         1726 
 4071000   0.60629646    -8.331523    578.71844  0.011846361  0.010553833         1768 
 4072000   0.60737731   -8.3325803    579.70455  0.011863633  0.010549724         1723 
 4073000   0.59338386   -8.3233868    578.73225  0.011840827  0.010545616         1749 
 4074000   0.58945082    -8.305587    580.40059  0.011872046  0.010541508         1722 
 4075000   0.59357187   -8.3085698    579.57435  0.011852236  0.010537403         1717 
 4076000   0.61349597   -8.3368037    579.66451  0.011851172  0.010533294         1639 
 4077000   0.59947954   -8.3359042    578.74172  0.011829403  0.010529189         1751 
 4078000    0.6058617   -8.3369053    578.36603  0.011818825   0.01052509         1808 
 4079000   0.60084358   -8.3251552    579.39456   0.01183694  0.010520992         1712 
 4080000   0.60629955   -8.3346959     579.8858  0.011844073  0.010516899         1777 
 4081000   0.59590629   -8.3142732    579.24119  0.011828008  0.010512805         1767 
 4082000    0.6056992   -8.3153092    579.53391  0.011831086  0.010508707         1709 
 4083000   0.60044882   -8.3315649    579.28677  0.011823144  0.010504618         1812 
 4084000   0.57905346   -8.3265777    579.85076  0.011831757  0.010500532         1682 
 4085000   0.58882306   -8.3124064    578.87838  0.011809024  0.010496444         1775 
 4086000   0.60105374   -8.3207662    579.99835  0.011828976  0.010492359         1722 
 4087000   0.60522555   -8.3143277    578.95458  0.011804799   0.01048827         1719 
 4088000   0.60305622   -8.3078935    579.26033  0.011808144  0.010484185         1747 
 4089000   0.60180348   -8.3358907    578.36376  0.011786984  0.010480109         1791 
 4090000   0.58791464   -8.3299601    578.50506  0.011786982  0.010476025         1754 
 4091000   0.60001502   -8.3233265    579.91713  0.011812864  0.010471948         1735 
 4092000   0.59224115   -8.3295078     578.6106   0.01178337  0.010467872         1756 
 4093000   0.58852071   -8.3565733    579.11765  0.011790815  0.010463796         1744 
 4094000   0.60291116   -8.3239007     578.9185  0.011783881  0.010459725         1665 
 4095000   0.59385897   -8.3276732    578.94662  0.011781576  0.010455657         1834 
 4096000   0.59052119   -8.3237305    579.62462  0.011792493  0.010451594         1745 
 4097000   0.59310985   -8.3323492      579.683  0.011790802  0.010447533         1862 
 4098000   0.59601654   -8.3247111    578.29508  0.011759701  0.010443473         1742 
 4099000   0.59749485   -8.3497746    579.07407   0.01177267  0.010439412         1826 
 4100000   0.60454559   -8.3600846    579.42606  0.011776952  0.010435356         1769 
 4101000   0.59062048   -8.3416148    578.84359  0.011762245  0.010431299         1808 
 4102000   0.59030775   -8.3369745    578.87078   0.01175993  0.010427245         1770 
 4103000   0.58488218   -8.3195553    580.09126  0.011781852  0.010423194         1824 
 4104000   0.60015208   -8.3397994    578.31493  0.011742912  0.010419142         1752 
 4105000   0.59048723   -8.3374537    579.56385  0.011765405  0.010415091         1770 
 4106000   0.60314265   -8.3390148    579.31167  0.011757421  0.010411045         1830 
 4107000   0.60129766   -8.3265533    579.52266   0.01175884     0.010407         1780 
 4108000   0.59725443   -8.3260914    579.95685  0.011764785  0.010402964         1756 
 4109000   0.59899325   -8.3219673     579.6554  0.011755808  0.010398928         1812 
 4110000   0.59258126   -8.3281756    579.67917   0.01175343  0.010394898         1804 
 4111000   0.60270239   -8.3343108    580.68056   0.01177087  0.010390868         1783 
 4112000   0.60123369   -8.3236269    579.35554  0.011741155  0.010386837         1682 
 4113000   0.59496185   -8.3293247    578.51125  0.011721194  0.010382803         1738 
 4114000   0.58947792   -8.3360793    578.74905  0.011723162  0.010378775         1717 
 4115000   0.59642027   -8.3290853    579.59855  0.011737516  0.010374744         1765 
 4116000   0.58500464   -8.3258297    579.11302  0.011724834  0.010370719         1683 
 4117000   0.59346785   -8.3259459    579.35097  0.011726803  0.010366701         1728 
 4118000   0.59910274   -8.3250953    580.28653  0.011742888   0.01036268         1727 
 4119000   0.57845638   -8.3524023    579.85557  0.011731318  0.010358656         1719 
 4120000   0.59411649    -8.329194    578.90859  0.011709316   0.01035464         1725 
 4121000   0.58743178    -8.333274    579.38664  0.011716142  0.010350627         1753 
 4122000   0.60122412   -8.3358819    578.61078  0.011697614  0.010346609         1774 
 4123000   0.60256538   -8.3478731    578.99548  0.011702552  0.010342598         1739 
 4124000   0.59059088   -8.3372318    579.84105  0.011716801  0.010338586         1759 
 4125000   0.58417561   -8.3412379    579.48973  0.011706863  0.010334578         1690 
 4126000   0.59117588   -8.3554166    579.22482  0.011698675  0.010330571         1730 
 4127000   0.58081667   -8.3444063    579.52993  0.011702002  0.010326566         1766 
 4128000   0.59539316   -8.3378082    579.38779  0.011696297  0.010322559         1806 
 4129000   0.57973675   -8.3322557    579.75525  0.011700881  0.010318556         1734 
 4130000   0.59873831   -8.3493546     578.5217  0.011673158  0.010314556         1766 
 4131000   0.59157032   -8.3515774    578.74084  0.011674753  0.010310553         1823 
 4132000   0.60999984   -8.3472011    578.92224  0.011675586  0.010306558         1789 
 4133000   0.59525747   -8.3493353     578.6928  0.011668134  0.010302564         1706 
 4134000   0.58514611   -8.3436144     578.1836  0.011655047  0.010298572         1759 
 4135000   0.59353353    -8.334546    579.58603  0.011680492   0.01029458         1759 
 4136000   0.59915353   -8.3480502     578.3297  0.011652355  0.010290588         1830 
 4137000   0.58749683   -8.3450736    578.94896  0.011662013  0.010286603         1827 
 4138000   0.59432874    -8.321482    579.20803  0.011664412  0.010282618         1708 
 4139000   0.58617664   -8.3380937    577.52627  0.011627734  0.010278636         1726 
 4140000   0.58980027   -8.3351245    579.64578  0.011667588  0.010274657         1685 
 4141000   0.58986354   -8.3614478    579.80571  0.011667989  0.010270681         1753 
 4142000   0.58164742   -8.3509512     579.2109  0.011653205   0.01026671         1741 
 4143000   0.58502561   -8.3595748    578.68792  0.011639873  0.010262737         1661 
 4144000   0.58934626   -8.3415756    578.53569  0.011634003  0.010258767         1794 
 4145000   0.58352757   -8.3465647    578.94549  0.011639435  0.010254795         1746 
 4146000   0.57771801   -8.3480113    579.29448  0.011643642  0.010250829         1868 
 4147000   0.59622902   -8.3387445    577.55199  0.011605819  0.010246864         1749 
 4148000   0.58037113   -8.3506328    578.03117  0.011612648  0.010242901         1805 
 4149000   0.59277383   -8.3444163    579.22886  0.011633905  0.010238944         1806 
 4150000   0.58411985   -8.3501999    578.45289   0.01161552  0.010234986         1762 
 4151000   0.57527125   -8.3506897    578.65797  0.011616839  0.010231027         1761 
 4152000   0.59175322   -8.3471573    579.28012  0.011626528  0.010227075         1670 
 4153000   0.58062498   -8.3410119    578.49412  0.011607956  0.010223127         1776 
 4154000   0.58081918   -8.3531131    578.83738  0.011612048  0.010219172         1695 
 4155000   0.58326499    -8.346863    579.27113  0.011617953  0.010215219         1762 
 4156000   0.58434843   -8.3358986    578.33245  0.011596336  0.010211268         1812 
 4157000   0.59989006   -8.3443794    579.27127  0.011612366  0.010207318         1666 
 4158000   0.58732809   -8.3617377    578.42732  0.011592659  0.010203371         1773 
 4159000   0.60509348   -8.3570795    578.82753  0.011597891  0.010199423         1859 
 4160000    0.5835673   -8.3399201    579.26796  0.011603926  0.010195481         1744 
 4161000   0.59836066   -8.3750229    577.40616   0.01156385  0.010191539         1763 
 4162000   0.60041769   -8.3550414    579.20328  0.011597054  0.010187596         1784 
 4163000    0.5633099   -8.3405809    579.32524   0.01159671  0.010183656         1685 
 4164000   0.58396707   -8.3618124    578.67059  0.011580824  0.010179715         1829 
 4165000   0.58579836   -8.3695382    577.92073   0.01156304  0.010175778         1787 
 4166000   0.58149575   -8.3650781    579.33008  0.011588456  0.010171842         1783 
 4167000    0.5788445   -8.3746065    578.40101  0.011567095   0.01016791         1771 
 4168000   0.59698826   -8.3518438    578.84814  0.011573259  0.010163977         1826 
 4169000   0.58131196   -8.3478943    579.13732  0.011576264  0.010160047         1736 
 4170000    0.5837472   -8.3430497    579.19987  0.011574738  0.010156121         1777 
 4171000   0.59015447   -8.3409194    578.74011  0.011562777  0.010152201         1724 
 4172000   0.59857776   -8.3474297     577.6187  0.011537606  0.010148284         1679 
 4173000   0.57980217   -8.3585698    578.92404  0.011560908  0.010144365         1744 
 4174000   0.57595616   -8.3602299    578.10635  0.011541813  0.010140448         1777 
 4175000    0.5893836   -8.3626568    578.16273  0.011540174  0.010136537         1821 
 4176000   0.58661057   -8.3510444    579.14467  0.011557006   0.01013262         1781 
 4177000   0.57876405   -8.3714378    579.01834  0.011551719  0.010128712         1786 
 4178000   0.58188866   -8.3527188    578.69131  0.011542431  0.010124806         1779 
 4179000    0.5818109   -8.3562218    577.77225  0.011521342  0.010120902         1746 
 4180000     0.589693   -8.3712184    578.55298   0.01153415  0.010116999         1804 
 4181000   0.58716023   -8.3508376    578.61847  0.011532697  0.010113101         1726 
 4182000   0.57737803   -8.3576298    578.40193  0.011525624  0.010109207         1760 
 4183000   0.57344233   -8.3460376    578.79929  0.011530785  0.010105311         1740 
 4184000   0.58679172   -8.3464018    578.95313  0.011531093  0.010101419         1710 
 4185000   0.58164543   -8.3615272    577.83719  0.011506117  0.010097525         1788 
 4186000   0.57334698    -8.347656    578.10547  0.011508709  0.010093635         1771 
 4187000   0.58495053   -8.3451317    578.82177  0.011520217  0.010089742         1760 
 4188000   0.58675385   -8.3702279    577.29071  0.011487001  0.010085854         1816 
 4189000   0.58410399   -8.3385231    578.67025  0.011511702  0.010081972         1757 
 4190000   0.58611296   -8.3608474    577.97814   0.01149519  0.010078085         1794 
 4191000     0.582296   -8.3678751    577.95076  0.011491902  0.010074203         1771 
 4192000   0.57612149    -8.375283    578.05676  0.011491268  0.010070323         1781 
 4193000   0.57397426    -8.363789    578.27146  0.011492795  0.010066442         1791 
 4194000   0.58090379   -8.3496906    578.86693  0.011501886  0.010062568         1696 
 4195000   0.58359148   -8.3587499    579.06173  0.011503014  0.010058693         1818 
 4196000    0.5866638    -8.356114    577.59995  0.011471242  0.010054819         1788 
 4197000    0.5827679   -8.3582799    578.45822   0.01148555  0.010050952         1841 
 4198000   0.57789804   -8.3616513     578.4416  0.011482484  0.010047081         1785 
 4199000   0.57286858   -8.3586693    579.09021  0.011492622  0.010043217         1720 
 4200000   0.58480068    -8.371746    577.60758  0.011460468  0.010039351         1779 
 4201000   0.57123042   -8.3655853    577.36325  0.011452893  0.010035486         1835 
 4202000   0.57444239   -8.3729793    578.09277  0.011464635  0.010031621         1765 
 4203000   0.58144892   -8.3844303    577.78249  0.011455756   0.01002776         1735 
 4204000   0.57781307   -8.3708936    577.69363  0.011451269  0.010023896         1794 
 4205000   0.57786351   -8.3750483    577.72901  0.011449247  0.010020033         1791 
 4206000   0.58073103   -8.3688143     578.3719  0.011459263  0.010016174         1796 
 4207000   0.58194992   -8.3616016    577.19838  0.011433293  0.010012313         1723 
 4208000   0.57779987   -8.3657462    577.97494  0.011445955  0.010008462         1778 
 4209000   0.57089844   -8.3566548    578.69941  0.011457579  0.010004616         1773 
 4210000   0.57022698   -8.3817424    578.11107  0.011443212  0.010000763         1814 
 4211000   0.56873004     -8.33746    577.65046  0.011431379 0.0099969193         1838 
 4212000   0.56868023   -8.3684644    579.20505  0.011459422 0.0099930766         1692 
 4213000   0.57470833   -8.3618671    576.36098  0.011400447 0.0099892304         1841 
 4214000   0.58020689   -8.3694552    577.88688  0.011427917 0.0099853878         1801 
 4215000   0.57744395   -8.3718741     578.0092  0.011427624 0.0099815438         1747 
 4216000   0.58162116   -8.3594123    578.21029  0.011428888 0.0099777083         1805 
 4217000   0.57477477   -8.3834185    577.89629  0.011419973  0.009973872         1750 
 4218000   0.57072733   -8.3735563    579.12545  0.011441549 0.0099700388         1806 
 4219000   0.58095122   -8.3706002    579.24593  0.011441217 0.0099662081         1793 
 4220000   0.58874408   -8.3615985    578.34529  0.011420721 0.0099623828         1728 
 4221000   0.58451231    -8.378084    578.61096   0.01142326 0.0099585561         1768 
 4222000   0.57795985   -8.3912877    578.44883  0.011417354 0.0099547264         1740 
 4223000   0.58353703   -8.3760936    576.82005  0.011382509 0.0099509055         1779 
 4224000   0.57130399   -8.3725287    578.47646  0.011412493 0.0099470847         1760 
 4225000   0.58343917   -8.3625304    577.11531  0.011382945 0.0099432697         1746 
 4226000   0.58328972   -8.3834058    576.89325  0.011375873 0.0099394488         1838 
 4227000   0.56910576   -8.3817252    578.34168  0.011401737 0.0099356308         1742 
 4228000   0.57533143   -8.3565165    577.71073  0.011386604 0.0099318147         1779 
 4229000   0.57088404   -8.3345216    578.31388  0.011395796 0.0099280044         1701 
 4230000   0.57778721   -8.3651332    578.35224  0.011393858 0.0099241966         1831 
 4231000   0.58110665   -8.3644847    578.46073  0.011393302 0.0099203849         1795 
 4232000   0.59203477   -8.3612955    578.24968  0.011386454 0.0099165793         1790 
 4233000   0.56923732   -8.3711211    578.80377  0.011394672 0.0099127791         1755 
 4234000   0.59495913   -8.3644241    578.10061  0.011378141 0.0099089764         1771 
 4235000    0.5710607   -8.3754679    578.14391  0.011376307 0.0099051783         1716 
 4236000   0.58220793   -8.3634966    577.94882  0.011369783 0.0099013818         1815 
 4237000   0.58137769   -8.3775261    577.82252  0.011364616 0.0098975873         1779 
 4238000   0.56058936   -8.3641694    578.87399   0.01138261 0.0098937926         1705 
 4239000   0.56948809   -8.3691108    578.97055  0.011381823 0.0098900013         1741 
 4240000   0.57457101   -8.3738195    578.88469  0.011377451 0.0098862085         1735 
 4241000    0.5657891   -8.3701781    577.14227   0.01134053 0.0098824161         1850 
 4242000   0.56823337   -8.3899646    577.40602  0.011343038 0.0098786267         1820 
 4243000   0.57788356   -8.3602714    576.94474  0.011331305 0.0098748395         1763 
 4244000   0.56224259   -8.4071752    577.15694  0.011332802 0.0098710529         1795 
 4245000   0.56196627   -8.4012653     577.2279  0.011331525  0.009867272         1812 
 4246000   0.57733644   -8.3724144    578.31156  0.011350125 0.0098634909         1763 
 4247000   0.57741907   -8.3698444    577.87235  0.011338834 0.0098597137         1792 
 4248000   0.58058765   -8.3605218    577.52517  0.011329354 0.0098559419         1720 
 4249000   0.58455487   -8.3836302     578.9033  0.011353717  0.009852166         1792 
 4250000   0.58712367   -8.3746207    577.50194  0.011323567 0.0098483909         1770 
 4251000   0.58421346   -8.3834372    577.76948  0.011326148 0.0098446216         1766 
 4252000   0.57670163   -8.3586443    577.46221  0.011317462 0.0098408556         1775 
 4253000   0.55882346   -8.3771756    577.70252   0.01131951  0.009837089         1812 
 4254000   0.57389908   -8.3853188    577.92597  0.011321226 0.0098333245         1844 
 4255000   0.57457343    -8.369668    578.75073  0.011334719 0.0098295587         1801 
 4256000   0.58042467   -8.3605871    577.99456  0.011317249 0.0098257959         1840 
 4257000   0.56907221   -8.3542359    577.64311  0.011307711 0.0098220384         1769 
 4258000   0.56457106   -8.3654216    577.75783  0.011307301 0.0098182797         1872 
 4259000   0.56736627   -8.3962023    577.80399  0.011305549 0.0098145248         1786 
 4260000   0.57264535   -8.3722426    578.25401  0.011311698  0.009810771         1839 
 4261000   0.56156974   -8.3963671    578.37272  0.011311365   0.00980702         1729 
 4262000   0.55840603   -8.3661609    578.00617  0.011301544 0.0098032727         1815 
 4263000   0.56787315   -8.3851927      578.492   0.01130839 0.0097995234         1806 
 4264000   0.56432102   -8.3771093    577.24366  0.011281341 0.0097957746         1765 
 4265000   0.57347588   -8.3659288       577.77   0.01128898 0.0097920315         1844 
 4266000   0.57003464   -8.3747008    578.30533  0.011296791  0.009788287         1821 
 4267000   0.57046195   -8.3768714    577.54425   0.01127928 0.0097845435         1797 
 4268000   0.57445171   -8.3780806    577.65223  0.011278745 0.0097808053         1805 
 4269000   0.57215576   -8.3958201    578.91846  0.011300821 0.0097770633         1777 
 4270000   0.57188933   -8.3860381    578.20504  0.011284251  0.009773329         1825 
 4271000   0.58244973    -8.385998    577.94392  0.011276514 0.0097695974         1841 
 4272000   0.54955429   -8.3889474    577.82307  0.011271517 0.0097658662         1842 
 4273000   0.56528896   -8.4026992    576.95311  0.011251913 0.0097621377         1782 
 4274000   0.58196325   -8.3896324    578.44706  0.011278409 0.0097584107         1779 
 4275000   0.56945322   -8.3702137    578.65627  0.011279849 0.0097546842         1828 
 4276000   0.57772977   -8.3700102    578.42762  0.011272755 0.0097509583         1838 
 4277000   0.56595219   -8.3750571    579.16996  0.011284583 0.0097472386         1831 
 4278000   0.56759457   -8.3702187    577.16812  0.011242951 0.0097435184         1836 
 4279000   0.56495966   -8.4080116    577.34584  0.011243784 0.0097397994         1781 
 4280000   0.57735147   -8.3892926    577.12239  0.011236807 0.0097360846         1779 
 4281000   0.57300376   -8.3938232    576.56605  0.011223352 0.0097323698         1865 
 4282000   0.57098143   -8.3688019    578.25007  0.011253504 0.0097286579         1779 
 4283000   0.56833472   -8.3726012     577.9931  0.011245877  0.009724948         1798 
 4284000   0.54869447   -8.3884634     577.0979  0.011225838 0.0097212357         1851 
 4285000   0.55749131    -8.381941    579.20294  0.011264157 0.0097175239         1839 
 4286000   0.55730419   -8.3994107    577.47996  0.011228028 0.0097138161         1873 
 4287000   0.57765602   -8.3737885    577.81448  0.011231912 0.0097101119         1858 
 4288000    0.5684521   -8.3987067    578.22095  0.011237192 0.0097064114         1807 
 4289000   0.57337652   -8.4002221     578.0244  0.011230753  0.009702713         1787 
 4290000   0.57381442   -8.3832548    577.27256  0.011213531 0.0096990141         1811 
 4291000   0.57081359   -8.3858859    577.80314  0.011221222 0.0096953205         1852 
 4292000   0.55507589   -8.3833316     576.8879  0.011200837 0.0096916234         1804 
 4293000   0.56847891   -8.3779949    577.70863  0.011214159 0.0096879289         1813 
 4294000   0.55693042   -8.3996313    578.30257  0.011223074 0.0096842324         1759 
 4295000   0.58432404   -8.3793431    577.48821  0.011204661 0.0096805394         1821 
 4296000   0.56596872   -8.3913489    577.69829  0.011206128 0.0096768513         1829 
 4297000   0.55722916   -8.3862231    577.11811  0.011192268 0.0096731634         1773 
 4298000   0.55336048   -8.3944596    576.97343  0.011186859 0.0096694784         1794 
 4299000   0.54828627   -8.3708526    577.04367  0.011185618 0.0096657926         1754 
 4300000   0.55813952   -8.3670966    578.38836  0.011209077 0.0096621139         1739 
 4301000   0.56296028   -8.3927454    577.46965   0.01118867 0.0096584344         1762 
 4302000   0.55410038   -8.3763434    577.93842   0.01119515 0.0096547572         1785 
 4303000    0.5509949    -8.367404    577.82139  0.011190282 0.0096510839         1828 
 4304000   0.56456076   -8.4077807    577.11478     0.011174 0.0096474106         1791 
 4305000   0.56755406   -8.3896022    577.73178  0.011183348 0.0096437402         1824 
 4306000   0.56298184   -8.3890023    577.85765  0.011183187 0.0096400672         1761 
 4307000   0.56822657    -8.398694    577.71203  0.011177773 0.0096363995         1848 
 4308000    0.5579635   -8.3872257    577.80073  0.011176894 0.0096327375         1727 
 4309000   0.56572899   -8.3845948    577.89781  0.011176178 0.0096290698         1820 
 4310000   0.56128192   -8.3883681    578.02864  0.011176115 0.0096254059         1824 
 4311000    0.5633825   -8.3978537    577.90799   0.01117119 0.0096217427         1817 
 4312000   0.55793957    -8.380847    576.66522  0.011144581 0.0096180838         1795 
 4313000   0.55075089   -8.3861173    577.69691  0.011161931 0.0096144305         1839 
 4314000   0.56515257   -8.3872873    578.15143  0.011168124 0.0096107753         1755 
 4315000   0.55578406   -8.4008698    577.83916  0.011159505 0.0096071235         1788 
 4316000   0.57776364   -8.3926262     576.9814  0.011140358 0.0096034679         1784 
 4317000   0.56521071   -8.3839091    578.11449   0.01115965 0.0095998128         1772 
 4318000   0.57497634   -8.4098595    577.60004  0.011147137 0.0095961635         1783 
 4319000   0.54886953   -8.3851964    577.60709  0.011144692 0.0095925153         1808 
 4320000   0.55895997   -8.4137533     577.2446   0.01113512 0.0095888727         1764 
 4321000    0.5529738     -8.40049    577.17038  0.011131111 0.0095852249         1795 
 4322000   0.56114287   -8.3929772    578.14271  0.011147284 0.0095815816         1743 
 4323000   0.57099088   -8.3909293    577.62421   0.01113471 0.0095779365         1758 
 4324000   0.56088055   -8.3894117    576.64801  0.011113321 0.0095742957         1800 
 4325000   0.55487163   -8.4088438    578.17945  0.011140259 0.0095706536         1836 
 4326000   0.55452565   -8.3903566    578.26635  0.011139358 0.0095670159         1841 
 4327000   0.54937171   -8.3762692      577.244  0.011117094 0.0095633855         1748 
 4328000   0.56185281   -8.3822446    576.99442   0.01110972 0.0095597597         1797 
 4329000   0.55170052   -8.3937312    577.45338  0.011115989 0.0095561296         1786 
 4330000   0.55514505   -8.4263172    577.01487  0.011104982 0.0095525006         1755 
 4331000   0.56485655   -8.3864097    577.82514  0.011118009  0.009548871         1770 
 4332000    0.5538158   -8.4033579    577.71396  0.011113303 0.0095452472         1875 
 4333000   0.55602693   -8.3912368    578.48959  0.011125656 0.0095416254         1819 
 4334000   0.55352925   -8.3868569    578.07596  0.011115135 0.0095380061         1750 
 4335000   0.56182786   -8.3639195    577.61601   0.01110373  0.009534389         1764 
 4336000   0.55499983   -8.3996316    576.18866  0.011073737 0.0095307693         1840 
 4337000   0.55119081   -8.3843495    577.18763  0.011090378 0.0095271567         1801 
 4338000    0.5602153   -8.3660271    576.20782  0.011068999 0.0095235467         1664 
 4339000   0.56489297   -8.3872288     576.9413  0.011080535 0.0095199349         1838 
 4340000   0.56799775   -8.3938149    577.52394  0.011089169 0.0095163225         1811 
 4341000   0.57001522   -8.4032121    577.80511  0.011092012 0.0095127106         1760 
 4342000   0.54930408    -8.412044    576.79073  0.011069989 0.0095091065         1817 
 4343000   0.55497452   -8.3852525    577.92514  0.011089208 0.0095054983         1788 
 4344000   0.54563177   -8.3854705    577.52122  0.011078906 0.0095018949         1756 
 4345000   0.55820717   -8.4122734    577.26102  0.011071366 0.0094982961         1739 
 4346000   0.54702406   -8.3808481    577.77653  0.011078703 0.0094946947         1810 
 4347000   0.55819677   -8.4047835    577.26894  0.011066424 0.0094910947         1850 
 4348000   0.55499443   -8.3951039    577.25962    0.0110637 0.0094874989         1840 
 4349000   0.55358021   -8.4071499    576.97141  0.011055634 0.0094839027         1782 
 4350000   0.56571802   -8.3775073    577.50922  0.011063395 0.0094803083         1843 
 4351000   0.55490593   -8.3954478     576.7454  0.011046223 0.0094767197         1744 
 4352000   0.56458835   -8.4130658    576.58178  0.011040552 0.0094731265         1838 
 4353000   0.55686078   -8.4002617    576.75846  0.011041398 0.0094695346         1766 
 4354000   0.56559937   -8.4032622    577.55578  0.011054122 0.0094659478         1815 
 4355000   0.55185101   -8.4074293    576.75248  0.011036213 0.0094623634         1804 
 4356000    0.5702164   -8.3941239    577.36439  0.011045385 0.0094587824         1758 
 4357000   0.53767694   -8.3904724    577.66537  0.011048607 0.0094552011         1709 
 4358000   0.55512612   -8.4041544    577.31074   0.01103929 0.0094516215         1790 
 4359000   0.55594262   -8.4074948    577.06817  0.011032121 0.0094480459         1759 
 4360000   0.54519821   -8.4074563    576.59727   0.01102059  0.009444472         1780 
 4361000   0.55281266   -8.4038025    578.32136  0.011051008 0.0094408989         1775 
 4362000   0.55979142    -8.376297    576.91805  0.011021665 0.0094373283         1808 
 4363000   0.55907862   -8.4042958    578.45225  0.011048442 0.0094337616         1844 
 4364000   0.54689991   -8.3799542    577.75759  0.011032646 0.0094301976         1772 
 4365000   0.56019425   -8.3974464    577.42966  0.011023858 0.0094266305         1745 
 4366000   0.54630411   -8.3866457    577.08731  0.011014798 0.0094230648         1760 
 4367000   0.55675133   -8.3919247    576.67266  0.011004363 0.0094194991         1787 
 4368000   0.55532664   -8.4045862    577.18173  0.011011556 0.0094159386         1853 
 4369000   0.55538183   -8.4014034    576.78799  0.011001526 0.0094123807         1769 
 4370000   0.55767162   -8.4282671    576.27389  0.010989205  0.009408823         1799 
 4371000   0.55598309   -8.3759769    576.52028  0.010991388 0.0094052662         1825 
 4372000   0.54910176   -8.4041188    577.05924  0.010999147 0.0094017111         1802 
 4373000   0.54989167   -8.3997156    578.07853  0.011016055 0.0093981616         1802 
 4374000   0.54051467   -8.4108675    577.91948  0.011010507 0.0093946078         1812 
 4375000   0.55515532   -8.4071879    577.06205  0.010991658 0.0093910574         1775 
 4376000   0.55670605   -8.4061571    576.79915   0.01098414 0.0093875096         1772 
 4377000   0.56622531   -8.3868602     576.9658  0.010984803 0.0093839642         1740 
 4378000   0.54891996   -8.4236343     576.9869  0.010982696 0.0093804194         1771 
 4379000   0.54903039   -8.4042093    576.84199   0.01097743 0.0093768752         1804 
 4380000   0.55664507    -8.398567    577.94302  0.010995872 0.0093733343         1844 
 4381000   0.55520405   -8.3903779    577.40285  0.010983087 0.0093697923         1784 
 4382000   0.54973045   -8.4150448    576.49941    0.0109634 0.0093662532         1767 
 4383000   0.55408306   -8.4107689    576.92725  0.010969033 0.0093627144         1730 
 4384000    0.5431241    -8.433449    576.65055  0.010961271 0.0093591791         1784 
 4385000   0.55015469   -8.4093208    577.25355  0.010970231 0.0093556407         1829 
 4386000   0.54694689    -8.400673     576.7879  0.010958882 0.0093521096         1800 
 4387000   0.56222216   -8.4125417    577.60599  0.010971924 0.0093485771         1791 
 4388000   0.55115343   -8.4048662    576.20439  0.010942806 0.0093450486         1736 
 4389000   0.55699236   -8.4086907    576.59604  0.010947749 0.0093415229         1758 
 4390000   0.53580379    -8.408859    576.57585  0.010944872 0.0093379945         1781 
 4391000   0.54731822    -8.415637    577.24769   0.01095513 0.0093344695         1805 
 4392000   0.54506444   -8.4146675    577.18298  0.010951407 0.0093309486         1805 
 4393000   0.55249409   -8.4306179    576.01744  0.010926805 0.0093274281         1840 
 4394000   0.55062354   -8.4171891    577.79282  0.010957989 0.0093239059         1823 
 4395000   0.54267087   -8.4134619    576.91518  0.010938854 0.0093203864         1677 
 4396000   0.55073599   -8.4294052    576.68002  0.010931908  0.009316869         1838 
 4397000   0.55741716   -8.4043397    577.37929  0.010942675 0.0093133559         1738 
 4398000    0.5296756   -8.4188564    576.75276  0.010928315 0.0093098431         1809 
 4399000   0.54965149   -8.4001725    577.11844  0.010932758 0.0093063321         1732 
 4400000   0.54926056   -8.4158087    576.72191  0.010922763 0.0093028241         1746 
 4401000   0.54853749   -8.4191801    577.08866  0.010927226 0.0092993169         1774 
 4402000   0.55848422   -8.4266043    576.41122  0.010911919 0.0092958153         1824 
 4403000   0.55033719   -8.4053905    577.19672  0.010924308  0.009292312         1820 
 4404000   0.54791732    -8.413931    576.56122  0.010909802 0.0092888095         1792 
 4405000   0.53636702   -8.4092963    577.29678  0.010921241 0.0092853096         1800 
 4406000   0.54425624   -8.4005832    576.56066  0.010904839 0.0092818175         1795 
 4407000   0.54437392   -8.4175201    576.94443  0.010909622  0.009278322         1794 
 4408000   0.53292338   -8.4238414    577.62529  0.010920018 0.0092748268         1753 
 4409000   0.54967568   -8.4119636    576.43681  0.010895078 0.0092713333         1849 
 4410000   0.54003403   -8.4240376    576.66349  0.010896891 0.0092678407         1902 
 4411000   0.54923283   -8.4177936    578.33146  0.010925933 0.0092643558         1757 
 4412000   0.54598268   -8.4219476    576.62595  0.010891243 0.0092608695         1800 
 4413000   0.55399936   -8.4348744    576.15729  0.010879925 0.0092573828         1772 
 4414000    0.5546916   -8.4046509     576.8248  0.010890062 0.0092539015         1815 
 4415000   0.53659023    -8.405773    577.71286  0.010904357 0.0092504215         1802 
 4416000    0.5406045   -8.4298574    576.22719  0.010873852  0.009246942         1896 
 4417000    0.5424532   -8.4319398    576.85354  0.010883208 0.0092434663         1827 
 4418000    0.5538159   -8.4281597    576.65158  0.010876935 0.0092399888         1815 
 4419000   0.53732668   -8.4187176    575.78687  0.010858167 0.0092365132         1861 
 4420000    0.5424839   -8.4055022    576.49144  0.010868994 0.0092330364         1926 
 4421000   0.53614655   -8.4187676    576.58585  0.010868315 0.0092295645         1891 
 4422000   0.53603987   -8.4426994     577.0195  0.010874029 0.0092260937         1839 
 4423000   0.55167667   -8.4270078    576.55233  0.010862769 0.0092226235         1753 
 4424000   0.54501715   -8.3989513     577.6552  0.010881088 0.0092191576         1836 
 4425000   0.54154325   -8.4271117    576.85398   0.01086354  0.009215691         1904 
 4426000   0.54257038   -8.4130322    577.09485  0.010865621 0.0092122222         1757 
 4427000   0.54199364   -8.4133108    576.79814  0.010857581  0.009208756         1772 
 4428000    0.5382664   -8.4180906    575.93538  0.010838892 0.0092052942         1918 
 4429000   0.54590539   -8.4192921     577.8562  0.010872586 0.0092018328         1868 
 4430000    0.5423556   -8.4181887    576.14564  0.010837954 0.0091983753         1781 
 4431000   0.55567053   -8.4191753    576.31578  0.010838708 0.0091949213         1779 
 4432000    0.5491533    -8.421984    576.63696  0.010842301 0.0091914677         1749 
 4433000   0.54001141   -8.4274721    575.79963  0.010824115 0.0091880151         1815 
 4434000   0.53441143   -8.4279418    576.27067  0.010830527 0.0091845611         1895 
 4435000   0.53863905   -8.4234051    576.69865  0.010836126 0.0091811087         1851 
 4436000   0.53923803   -8.4244697    576.65394  0.010832844  0.009177658         1808 
 4437000   0.54577272   -8.4343803    576.53446  0.010828158 0.0091742107         1808 
 4438000   0.53032906   -8.4374039     577.2192  0.010838576  0.009170764         1890 
 4439000   0.54390778   -8.4302418    576.30226  0.010818921 0.0091673199         1857 
 4440000   0.54002134   -8.4319643    577.36857  0.010836497 0.0091638775         1861 
 4441000   0.55039022   -8.4345591    576.23294  0.010812747  0.009160439         1847 
 4442000   0.55290793   -8.4318182    576.24184   0.01081048 0.0091570002         1805 
 4443000   0.54485683   -8.4244418    576.19459  0.010807161 0.0091535627         1782 
 4444000   0.54166021   -8.4185292    577.23546  0.010824247 0.0091501308         1749 
 4445000   0.53929432   -8.4314384    576.03872  0.010799376 0.0091466961         1886 
 4446000   0.53593051    -8.441911     576.7536  0.010810346 0.0091432603         1863 
 4447000   0.53432634    -8.423801    577.12854  0.010814941 0.0091398264         1768 
 4448000   0.53387822   -8.4240826     576.5122  0.010800963 0.0091363933         1860 
 4449000   0.54258573   -8.4279759     576.0162  0.010789245 0.0091329638         1783 
 4450000    0.5371236   -8.4507484    575.98792  0.010786291 0.0091295374         1834 
 4451000   0.53208903   -8.4193679    577.08299   0.01080437 0.0091261111         1789 
 4452000   0.53619868    -8.428698    576.64679  0.010793778  0.009122687         1710 
 4453000   0.53299508   -8.4275132    575.95389  0.010778387 0.0091192626         1828 
 4454000   0.53043132   -8.4330329    576.95861  0.010794765 0.0091158423         1809 
 4455000   0.54432511    -8.442312    576.64134  0.010786407 0.0091124216         1819 
 4456000     0.528258   -8.4423768    575.79323  0.010768126 0.0091090018         1807 
 4457000    0.5307279   -8.4383915    577.03959  0.010789013 0.0091055852         1827 
 4458000     0.547978   -8.4481075    576.54301  0.010777311 0.0091021739         1775 
 4459000   0.53155022   -8.4220434    576.06328  0.010765928  0.009098761         1863 
 4460000   0.54334647   -8.4256169    575.68234  0.010756397 0.0090953513         1828 
 4461000    0.5398087   -8.4237137    576.89143  0.010776572 0.0090919433         1881 
 4462000    0.5393287   -8.4364554    575.58481  0.010749754 0.0090885368         1830 
 4463000   0.53608234   -8.4373223    576.94651  0.010772771 0.0090851318         1843 
 4464000   0.53755905   -8.4470281    576.36103  0.010759428 0.0090817285         1842 
 4465000   0.53676936   -8.4351172    576.24559  0.010754864 0.0090783282         1840 
 4466000   0.52985786   -8.4277781    576.75544  0.010761969 0.0090749286         1783 
 4467000   0.53645251    -8.434043    577.31474  0.010769994 0.0090715294         1850 
 4468000   0.53514878   -8.4360944    576.17074  0.010746246 0.0090681308         1808 
 4469000   0.53248423   -8.4216841    576.59443  0.010751742 0.0090647338         1820 
 4470000   0.53267086   -8.4476783    575.28322  0.010724892 0.0090613371         1865 
 4471000    0.5221459   -8.4208997    576.02343   0.01073629 0.0090579444         1869 
 4472000   0.53217767   -8.4304637    576.55219  0.010743742 0.0090545521         1849 
 4473000   0.54935247   -8.4307514    576.25299  0.010735766 0.0090511637         1801 
 4474000   0.54596433   -8.4401376    575.82383  0.010725373 0.0090477758         1815 
 4475000   0.54401702   -8.4214912    576.24697  0.010730856 0.0090443924         1791 
 4476000    0.5398331   -8.4317535    577.04174  0.010743255 0.0090410071         1804 
 4477000   0.53803231    -8.426559    576.28597  0.010726788 0.0090376248         1808 
 4478000   0.53855489   -8.4358309     575.7708  0.010714806 0.0090342464         1841 
 4479000   0.54068861   -8.4394831    575.87436   0.01071434 0.0090308689         1838 
 4480000   0.52758669   -8.4315599    575.64773  0.010707733 0.0090274925         1824 
 4481000   0.54358809   -8.4144585    576.19111  0.010715449 0.0090241156         1833 
 4482000   0.54681394    -8.446439    576.20233  0.010713267 0.0090207419         1772 
 4483000   0.53454447   -8.4334901    576.52074  0.010716796 0.0090173696         1836 
 4484000   0.51950569   -8.4237365    576.50038  0.010714027  0.009013998         1808 
 4485000   0.53340439   -8.4421585    576.54689  0.010712503 0.0090106251         1826 
 4486000   0.53558377   -8.4277209    576.35338   0.01070652 0.0090072547         1799 
 4487000   0.54025799   -8.4359297    576.67521  0.010710111 0.0090038895         1796 
 4488000   0.53733077   -8.4316829    575.96069  0.010694457 0.0090005225         1864 
 4489000     0.534776   -8.4298172    575.65062  0.010686319 0.0089971585         1712 
 4490000   0.52421947   -8.4248679    575.71578  0.010685148 0.0089937997         1746 
 4491000   0.53155241   -8.4275846    575.63815  0.010681328 0.0089904365         1826 
 4492000   0.52766009   -8.4411096    576.20916  0.010689544 0.0089870802         1818 
 4493000   0.52672315   -8.4341248    576.12556  0.010685614 0.0089837249         1801 
 4494000   0.53898194   -8.4448739    575.21234  0.010666302 0.0089803685         1812 
 4495000   0.53458883   -8.4454556    575.64108  0.010671878  0.008977016         1842 
 4496000    0.5277463   -8.4321019    576.12909  0.010678549 0.0089736624         1824 
 4497000   0.52601167   -8.4257932    576.42745  0.010681704 0.0089703112         1782 
 4498000   0.54850073   -8.4507467    576.08743  0.010673029 0.0089669633         1837 
 4499000   0.52993113   -8.4288775     577.2263  0.010691752 0.0089636198         1854 
 4500000   0.52530364    -8.439986    576.34547  0.010673064 0.0089602774         1783 
 4501000   0.54622395    -8.438227    577.35512  0.010689386 0.0089569347         1843 
 4502000   0.53084859   -8.4508081    576.30042  0.010667489 0.0089535946         1865 
 4503000    0.5349996    -8.453519    576.16783  0.010662666 0.0089502557         1787 
 4504000   0.53333286   -8.4377911    575.80384  0.010653564 0.0089469163         1808 
 4505000   0.52633381   -8.4303338    577.23271  0.010677631 0.0089435811         1833 
 4506000   0.53937028   -8.4510399    574.77792  0.010629862 0.0089402461         1850 
 4507000   0.52899091   -8.4331826    576.08262  0.010651628 0.0089369153         1819 
 4508000   0.52701843   -8.4550256    575.21088   0.01063315 0.0089335798         1844 
 4509000   0.52435272   -8.4441805    575.73697  0.010640515 0.0089302464         1864 
 4510000   0.52958053   -8.4375982    575.31814  0.010630416 0.0089269171         1814 
 4511000   0.52693927   -8.4403449    575.46469  0.010630767  0.008923586         1829 
 4512000   0.53091436   -8.4442338    577.18377  0.010660161 0.0089202616         1819 
 4513000   0.52908494   -8.4409831    575.96366   0.01063527 0.0089169337         1857 
 4514000    0.5246434   -8.4430822    575.29594  0.010620587 0.0089136074         1902 
 4515000   0.51516122   -8.4405045    575.97983  0.010630857 0.0089102851         1849 
 4516000   0.51710031   -8.4370622    576.81809  0.010643971 0.0089069652         1874 
 4517000   0.52101407   -8.4501085    575.85349  0.010623819 0.0089036473         1903 
 4518000   0.52148454   -8.4295699    576.43893  0.010632266 0.0089003264         1905 
 4519000    0.5281677   -8.4561665    576.07113  0.010623131  0.008897011         1834 
 4520000   0.52717093   -8.4378086    576.09501  0.010621221 0.0088936961         1891 
 4521000    0.5229246   -8.4414739    575.32354  0.010604651  0.008890381         1870 
 4522000   0.53111973   -8.4426087     576.0274  0.010615277 0.0088870712         1882 
 4523000   0.53492592   -8.4453643    576.81645  0.010627468 0.0088837587         1831 
 4524000   0.52379619   -8.4317462    575.46738  0.010600269 0.0088804507         1912 
 4525000   0.52820385      -8.4438    574.91733  0.010587796 0.0088771396         1900 
 4526000   0.51996936   -8.4438839    575.09233  0.010588679 0.0088738365         1846 
 4527000   0.52761932   -8.4537203    575.43157  0.010592585  0.008870532         1864 
 4528000   0.52861392   -8.4495098    575.57915  0.010592961 0.0088672324         1805 
 4529000   0.53669434   -8.4707278    576.44243  0.010606507 0.0088639322         1861 
 4530000   0.53102282   -8.4494817    576.00703  0.010596156  0.008860631         1821 
 4531000   0.52115508   -8.4566517    574.90928  0.010573628  0.008857334         1789 
 4532000    0.5360349   -8.4592162    575.66729  0.010585233  0.008854038         1808 
 4533000   0.52235735   -8.4494267     575.3085  0.010576302 0.0088507459         1853 
 4534000    0.5280477    -8.448874    575.83692  0.010583681 0.0088474543         1806 
 4535000   0.52536727   -8.4166829    576.54061  0.010594278 0.0088441655         1792 
 4536000   0.53436448   -8.4459931    575.52135  0.010573217 0.0088408787         1813 
 4537000   0.54288293   -8.4467556     576.1312  0.010582088 0.0088375917         1876 
 4538000    0.5269868   -8.4424298    576.13237  0.010579778 0.0088343071         1875 
 4539000   0.53058866   -8.4477755    574.94526  0.010555652 0.0088310236         1786 
 4540000   0.52085909   -8.4657306    575.69436  0.010567077 0.0088277391         1820 
 4541000   0.51838922   -8.4476832    576.07921  0.010571813 0.0088244588         1854 
 4542000   0.52453713   -8.4492723     576.0311  0.010568602  0.008821181         1789 
 4543000    0.5303073   -8.4292628    576.60601  0.010576822 0.0088179034         1790 
 4544000   0.52531396   -8.4634347    575.45384  0.010553364 0.0088146294         1815 
 4545000   0.52843793   -8.4263073    574.84236  0.010539831 0.0088113574         1814 
 4546000   0.52037172   -8.4542271    575.82425  0.010555511 0.0088080833         1822 
 4547000   0.53906547   -8.4501775    575.66734  0.010550314 0.0088048123         1834 
 4548000   0.51654053    -8.444092    575.83619  0.010551088 0.0088015438         1829 
 4549000   0.51763652   -8.4642793    575.28325  0.010538639 0.0087982767         1794 
 4550000   0.51550819   -8.4517406    575.45338  0.010539439 0.0087950097         1849 
 4551000   0.52875967   -8.4496455    575.92899  0.010545832 0.0087917466         1928 
 4552000   0.52919197   -8.4409566    576.37437  0.010551669 0.0087884825         1808 
 4553000   0.53227202   -8.4686473    576.29957  0.010547982 0.0087852199         1809 
 4554000   0.52740554   -8.4366617    575.86356  0.010537688 0.0087819581         1780 
 4555000   0.53311949   -8.4547211    575.17296   0.01052274 0.0087786995         1801 
 4556000    0.5087638   -8.4712743    575.96062  0.010534837 0.0087754385         1848 
 4557000   0.52647685   -8.4562799    575.01905  0.010515307 0.0087721827         1896 
 4558000   0.52011223   -8.4755472    575.80086  0.010527294 0.0087689287         1797 
 4559000   0.51672429   -8.4470878    576.32274  0.010534524 0.0087656758         1841 
 4560000   0.52269455   -8.4615475    575.69721  0.010520782 0.0087624264         1797 
 4561000   0.52162412   -8.4596784    575.63158  0.010517276 0.0087591763         1858 
 4562000   0.52014845   -8.4430782    575.19643  0.010507022 0.0087559285         1833 
 4563000   0.53200249   -8.4609272    576.13556  0.010521871 0.0087526816         1737 
 4564000   0.52413885   -8.4746711    574.99317  0.010498707 0.0087494325         1915 
 4565000   0.51938012   -8.4573753    575.47916  0.010505279 0.0087461872         1902 
 4566000   0.52500696   -8.4641645    574.60923  0.010487101 0.0087429423         1824 
 4567000   0.52348117   -8.4489984    575.28856    0.0104972 0.0087397015         1832 
 4568000   0.53062981   -8.4687954    576.12476  0.010510157 0.0087364644         1940 
 4569000    0.5242493   -8.4442979     575.0485  0.010488227 0.0087332247         1847 
 4570000   0.50760005   -8.4500247    575.32488  0.010490972 0.0087299866         1831 
 4571000   0.53218114   -8.4742689    575.23078  0.010486961 0.0087267543         1782 
 4572000   0.52260324   -8.4559362    574.64828   0.01047405 0.0087235225         1823 
 4573000   0.52523115   -8.4515751    574.92691  0.010476837 0.0087202931         1824 
 4574000   0.51333638   -8.4543091    575.59886  0.010486789 0.0087170622         1812 
 4575000   0.50222542   -8.4596385    574.89626  0.010471699 0.0087138368         1877 
 4576000   0.51878014   -8.4461972    575.89282  0.010487559 0.0087106084         1814 
 4577000   0.51005606   -8.4498659    575.23553    0.0104733 0.0087073863         1895 
 4578000   0.50799059   -8.4521249     575.9355  0.010483754 0.0087041634         1844 
 4579000    0.5261234   -8.4572856    575.14514   0.01046708 0.0087009417         1925 
 4580000   0.53213777   -8.4550923    575.63675   0.01047374 0.0086977225         1863 
 4581000   0.51196645   -8.4750298    576.20318  0.010481758 0.0086945053         1816 
 4582000   0.52269169   -8.4643655    575.22977  0.010461766 0.0086912878         1810 
 4583000   0.52607336   -8.4564077    575.98986  0.010473305 0.0086880718         1911 
 4584000   0.51303688    -8.465964     575.6717  0.010465236 0.0086848566         1848 
 4585000   0.51766502   -8.4695361    576.17935   0.01047218 0.0086816437         1873 
 4586000   0.50889757   -8.4754532    574.98255  0.010448149  0.008678431         1873 
 4587000   0.51826173   -8.4524941    574.78307  0.010442247 0.0086752201         1900 
 4588000   0.52616283   -8.4538414     575.4885  0.010452784 0.0086720113         1769 
 4589000   0.52131803   -8.4490598    574.84553  0.010438831  0.008668808         1819 
 4590000   0.52222419   -8.4488047    575.17869  0.010442605 0.0086656048         1875 
 4591000   0.52171886   -8.4603436    575.40744  0.010444483 0.0086624041         1771 
 4592000   0.52637031   -8.4649592    576.10047  0.010454785 0.0086592038         1836 
 4593000   0.50412912   -8.4733973    575.37769  0.010439395 0.0086560064         1912 
 4594000   0.51973593   -8.4684337    575.25363  0.010434872 0.0086528097         1874 
 4595000   0.51316139   -8.4637593    576.06751  0.010447361 0.0086496142         1846 
 4596000   0.51231635   -8.4715772    575.88222  0.010441729 0.0086464201         1807 
 4597000   0.51889605   -8.4652389    575.76529  0.010437338 0.0086432248         1809 
 4598000   0.52709775   -8.4578723    574.43526  0.010410962 0.0086400316         1876 
 4599000   0.51310876   -8.4717457    574.63684  0.010412351 0.0086368426         1905 
 4600000   0.53072501   -8.4680697    575.37412  0.010423444 0.0086336558         1794 
 4601000   0.53073097   -8.4769781    575.31392  0.010420088 0.0086304714         1838 
 4602000   0.50942622    -8.468062     574.4678  0.010402502  0.008627283         1873 
 4603000   0.51358905    -8.456005    576.79444  0.010442364 0.0086241014         1790 
 4604000   0.52104274   -8.4704744    575.20693  0.010411362 0.0086209162         1864 
 4605000   0.51704003   -8.4655565    574.11448  0.010389332  0.008617738         1864 
 4606000   0.52653301    -8.461347    574.75537  0.010398671 0.0086145573         1831 
 4607000   0.51181927   -8.4633814    575.71081  0.010413697 0.0086113799         1864 
 4608000   0.51491479    -8.487922    576.05657   0.01041769 0.0086082069         1854 
 4609000   0.50702288   -8.4616797    574.88378  0.010394225 0.0086050318         1877 
 4610000   0.50668284   -8.4549702     575.4781  0.010402713 0.0086018563         1850 
 4611000    0.5123362   -8.4616268    575.29385  0.010397127 0.0085986843         1847 
 4612000   0.50391678   -8.4642344    574.67857  0.010383756 0.0085955143         1851 
 4613000   0.51529148   -8.4685282    575.74534  0.010400776 0.0085923447         1760 
 4614000   0.51618327   -8.4862507     574.7976  0.010381404 0.0085891762         1897 
 4615000   0.50927829   -8.4814194    575.16814  0.010385846 0.0085860109         1835 
 4616000   0.52478252   -8.4790793      574.296  0.010367851 0.0085828451         1809 
 4617000   0.51557621   -8.4522782    574.98442  0.010378031 0.0085796862         1883 
 4618000    0.5295068   -8.4700647    574.81151  0.010372663 0.0085765281         1838 
 4619000    0.5162108   -8.4575436    575.84488  0.010389061 0.0085733695         1889 
 4620000   0.51126274   -8.4688581    574.29737  0.010358899 0.0085702141         1807 
 4621000    0.5151065   -8.4623753    575.50071  0.010378358 0.0085670599         1910 
 4622000   0.52199237   -8.4863805    574.97459  0.010366627 0.0085639053         1925 
 4623000   0.51612134   -8.4670474    575.83519  0.010379897 0.0085607564         1864 
 4624000   0.52009628   -8.4859147    575.22489  0.010366654 0.0085576068         1815 
 4625000    0.5110948   -8.4683546    574.66528  0.010354329 0.0085544572         1846 
 4626000   0.51418179   -8.4725835    575.62725   0.01036942 0.0085513071         1858 
 4627000   0.51785784   -8.4612056    576.19385  0.010377384  0.008548159         1824 
 4628000   0.51585566   -8.4836741    575.65709  0.010365476 0.0085450184         1828 
 4629000   0.51793223   -8.4564929    575.49916  0.010360394 0.0085418761         1827 
 4630000    0.5178189   -8.4787611    575.21895  0.010353113 0.0085387297         1880 
 4631000   0.50293302    -8.488486    575.32692   0.01035282 0.0085355897         1851 
 4632000    0.5134364   -8.4888488    574.87006  0.010342366 0.0085324476         1901 
 4633000   0.50859978   -8.4801023    575.39382  0.010349554 0.0085293089         1757 
 4634000   0.49654283   -8.4792499    574.94065  0.010339172 0.0085261695         1944 
 4635000   0.50941101   -8.4847303    574.72096  0.010332991 0.0085230342         1833 
 4636000   0.51616738   -8.4681804    575.84057  0.010350887  0.008519903         1868 
 4637000   0.51001904   -8.4708782    575.79048  0.010347755 0.0085167724         1862 
 4638000   0.50665143   -8.4566845    574.83824  0.010328415 0.0085136404         1823 
 4639000   0.52086097   -8.4699882    574.80359  0.010325566 0.0085105124         1819 
 4640000   0.50799434   -8.4681005    574.43994  0.010316809 0.0085073876         1871 
 4641000   0.50891085   -8.4616718    574.81047   0.01032124 0.0085042647         1881 
 4642000   0.49161176   -8.4708009    575.76591  0.010336168 0.0085011397         1759 
 4643000   0.51206661     -8.47616    575.84934  0.010335439  0.008498015         1914 
 4644000   0.49817282       -8.469    574.71576  0.010312872 0.0084948929         1813 
 4645000   0.50526656   -8.4642501    575.30278  0.010321184 0.0084917701         1791 
 4646000   0.50124247   -8.4673076    575.88827  0.010329464 0.0084886513         1809 
 4647000   0.50921327   -8.4674028    575.26844  0.010316126 0.0084855359         1877 
 4648000    0.5081552     -8.48176    574.02301  0.010291577 0.0084824193         1972 
 4649000   0.51926518   -8.4789792    575.26984  0.010311713 0.0084793063         1871 
 4650000   0.51123727   -8.4730672    574.64591  0.010298314 0.0084761956         1878 
 4651000   0.51033898   -8.4766983    574.80933  0.010299028 0.0084730845         1823 
 4652000   0.50095795   -8.4596548    574.42682  0.010289962  0.008469975         1807 
 4653000   0.49859526   -8.4862258    574.47457  0.010288605 0.0084668678         1882 
 4654000   0.50457256   -8.4914334    574.87759  0.010293611 0.0084637592         1897 
 4655000   0.50372969   -8.4735506    574.43198  0.010283423 0.0084606541         1849 
 4656000   0.50125558   -8.4748581    575.18292  0.010294654 0.0084575493         1839 
 4657000   0.50722392   -8.4743286    575.50328  0.010298176 0.0084544437         1884 
 4658000   0.50579096   -8.4673747     575.1089   0.01028891 0.0084513443         1864 
 4659000   0.49823936   -8.4850857    575.42753  0.010292401 0.0084482418         1880 
 4660000   0.50880336   -8.4857727    575.01564  0.010282826 0.0084451442         1844 
 4661000   0.50798192   -8.4746396    575.43607  0.010288137 0.0084420498         1872 
 4662000   0.50181088   -8.4709104    574.68769  0.010272553 0.0084389551         1911 
 4663000   0.50165742    -8.484371    575.60765  0.010286791 0.0084358606         1904 
 4664000   0.51545316   -8.4822277    574.88996  0.010271762  0.008432767         1879 
 4665000   0.50212114    -8.456389    575.32816  0.010277388 0.0084296763         1871 
 4666000   0.49715462   -8.4904055    575.17105  0.010272379 0.0084265879         1938 
 4667000   0.50263871    -8.497545    574.11357  0.010251296 0.0084234994         1817 
 4668000   0.50609995   -8.4865323    575.02926  0.010265447 0.0084204125         1896 
 4669000   0.49906687   -8.4682178    573.84762  0.010242158 0.0084173243         1899 
 4670000   0.49458901    -8.487644    574.39228  0.010249684 0.0084142392         1846 
 4671000   0.51430985   -8.4828754    574.17904  0.010243685 0.0084111545         1814 
 4672000   0.49213715   -8.4981545    575.65284   0.01026778 0.0084080718         1771 
 4673000   0.50337511    -8.469581    575.54095  0.010263588 0.0084049918         1839 
 4674000   0.50289838   -8.5036561    574.60192   0.01024465 0.0084019118         1905 
 4675000   0.50409102   -8.4842683    575.22921   0.01025364 0.0083988328         1868 
 4676000    0.5054135   -8.4880399    573.70714  0.010224322 0.0083957599         1893 
 4677000   0.48920044   -8.4915001    574.45345  0.010235433 0.0083926844         1836 
 4678000   0.49211821   -8.4714261    574.80822  0.010239565 0.0083896111         1831 
 4679000   0.50635874   -8.4810892    574.38634  0.010229863 0.0083865411         1895 
 4680000   0.50949107   -8.4918011    575.18205  0.010241846 0.0083834692         1892 
 4681000   0.49193674   -8.4784057    574.23563  0.010222809 0.0083804031         1806 
 4682000    0.4993149   -8.4751186    574.60167  0.010227141 0.0083773366         1816 
 4683000   0.50680904   -8.4782855    574.79531  0.010228403 0.0083742695         1878 
 4684000   0.50015094   -8.4993936    574.70129  0.010224546 0.0083712066         1897 
 4685000   0.51264754   -8.4763948    574.84553  0.010224929 0.0083681447         1810 
 4686000   0.50051144   -8.5072727     574.5421  0.010217351 0.0083650854         1966 
 4687000    0.4901401   -8.4568485    574.58912  0.010216007 0.0083620245         1857 
 4688000   0.50005812   -8.4733922    573.89373  0.010201467 0.0083589661         1882 
 4689000   0.49529632   -8.4854431    574.60547  0.010211941 0.0083559129         1850 
 4690000   0.50366303   -8.4902054    574.42856   0.01020662 0.0083528611         1845 
 4691000   0.50762906   -8.4943805     574.8846  0.010212545 0.0083498106         1996 
 4692000     0.495825   -8.4803722    575.10432  0.010214271 0.0083467633         1909 
 4693000   0.49534002   -8.4753758    574.80775  0.010206828 0.0083437142         1845 
 4694000   0.49604389   -8.4762387    574.48034  0.010198841 0.0083406661         1906 
 4695000   0.49515758   -8.5073939    574.08736  0.010189694 0.0083376207         1861 
 4696000   0.49292592   -8.5044346    575.19898  0.010207251 0.0083345744         1876 
 4697000   0.49925035    -8.486486    573.38427  0.010172881 0.0083315303         1864 
 4698000   0.49147753   -8.4886212     574.3301  0.010187493 0.0083284886         1869 
 4699000    0.5006124   -8.4818564    574.61643  0.010190403 0.0083254471         1844 
 4700000   0.50096808   -8.4928041    574.75508  0.010190693 0.0083224106         1920 
 4701000   0.50851938   -8.4826937    574.85091  0.010190224 0.0083193725         1869 
 4702000   0.50888049   -8.4860734    573.79144   0.01016928 0.0083163359         1861 
 4703000   0.51261223   -8.4727238    574.33249  0.010176704  0.008313301         1906 
 4704000   0.50108439   -8.4872108    574.05422  0.010169611 0.0083102693         1860 
 4705000   0.50366258   -8.4840892    574.77746   0.01018026 0.0083072388         1875 
 4706000   0.50101769   -8.4791875    574.20168  0.010167901 0.0083042128         1939 
 4707000   0.49365087   -8.4907011    574.53501  0.010171642 0.0083011814         1922 
 4708000   0.50822381   -8.4652307    574.58404  0.010170349 0.0082981585         1889 
 4709000   0.48690861   -8.4955325    574.37877  0.010164557 0.0082951338         1844 
 4710000    0.4984468   -8.4862952    574.62895  0.010166825 0.0082921064         1890 
 4711000   0.49920606   -8.4996774    573.55949  0.010145749 0.0082890818         1899 
 4712000   0.49709805   -8.4725581    574.25378  0.010155875 0.0082860624         1841 
 4713000   0.50011849   -8.4823376     574.3579  0.010155561 0.0082830419         1872 
 4714000    0.4961264   -8.4940027    573.78715  0.010143317 0.0082800224         1892 
 4715000   0.50132118   -8.4953776    574.10091  0.010146711  0.008277005         1899 
 4716000   0.51083502   -8.5051336     574.0851   0.01014428 0.0082739897         1842 
 4717000   0.49513059   -8.4744084    574.45072  0.010148589 0.0082709778         1818 
 4718000   0.48342566   -8.4912376    575.20686  0.010159793 0.0082679634         1838 
 4719000   0.49400412    -8.495915    574.22132  0.010140237 0.0082649516         1857 
 4720000   0.50424453   -8.4958566    574.61636  0.010145063 0.0082619408         1896 
 4721000   0.48675574   -8.5099381    574.28815  0.010137121 0.0082589314         1819 
 4722000   0.49961896   -8.4899438     574.2406  0.010134135 0.0082559219         1918 
 4723000   0.49179962   -8.4818533    575.18739  0.010148694 0.0082529147         1815 
 4724000   0.49175429   -8.5019191    573.42372  0.010115434 0.0082499088         1878 
 4725000   0.49232161   -8.4862734    574.06219  0.010124554 0.0082469069         1874 
 4726000   0.50540466   -8.4853953    573.52878  0.010113006 0.0082439047         1898 
 4727000   0.50091089   -8.4955901    574.10256  0.010120982 0.0082409035         1892 
 4728000   0.49397559   -8.4873189     573.9247  0.010115706 0.0082379029         1925 
 4729000   0.49984033   -8.5101668    573.88511  0.010112869  0.008234903         1907 
 4730000   0.49218366   -8.4826437    573.25705  0.010099666 0.0082319051         1845 
 4731000   0.50135306   -8.5034956    573.98614  0.010110374 0.0082289094         1905 
 4732000   0.49615191   -8.4823141    574.38186  0.010115206 0.0082259166         1872 
 4733000   0.48835569   -8.4942227    574.40729  0.010113517 0.0082229266         1900 
 4734000   0.50380232   -8.4738195    574.86299  0.010119402 0.0082199365         1848 
 4735000   0.48913841   -8.4891095    573.93843  0.010100993 0.0082169489         1873 
 4736000   0.49561358   -8.4918592    575.43731  0.010125234 0.0082139621         1899 
 4737000   0.50395396   -8.4977638    573.97906  0.010097443 0.0082109758         1897 
 4738000   0.49432718   -8.5050524    574.61861  0.010106561 0.0082079911         1864 
 4739000   0.49514228   -8.4961405    574.54089  0.010103061 0.0082050079         1878 
 4740000   0.48853086   -8.4921455    573.16075  0.010076666 0.0082020239         1877 
 4741000   0.49711687    -8.500213    574.79509  0.010103267  0.008199042         1829 
 4742000   0.49915268   -8.5088955    574.38847  0.010093991 0.0081960648         1844 
 4743000   0.50691508   -8.4964502    574.33636  0.010090947  0.008193086         1988 
 4744000   0.48602609   -8.4908102    574.11937  0.010085009 0.0081901093         1874 
 4745000   0.48965423   -8.4968282    573.44826  0.010071097 0.0081871354         1879 
 4746000    0.4960913   -8.5130523    574.41715  0.010085987 0.0081841642         1888 
 4747000   0.49804631   -8.5023392    573.73362  0.010071863 0.0081811919         1901 
 4748000   0.49818199   -8.5012139    573.95059   0.01007355 0.0081782196         1892 
 4749000   0.49690302   -8.4976854    574.74843  0.010085429  0.008175249         1845 
 4750000   0.48984834   -8.4941735    574.55522  0.010079916 0.0081722801         1870 
 4751000   0.48699457   -8.4881806    575.80368  0.010099693 0.0081693138         1750 
 4752000   0.48665588   -8.4927201      574.666  0.010077616 0.0081663499         1843 
 4753000   0.48923094   -8.4999406     573.7884  0.010060109 0.0081633879         1921 
 4754000   0.49418231   -8.4999616     574.4848  0.010070201 0.0081604279         1874 
 4755000   0.50216289   -8.5137414     574.5851   0.01006984 0.0081574659         1875 
 4756000   0.49956444   -8.5038496    574.21506   0.01006124 0.0081545087         1940 
 4757000    0.4983374   -8.4853119     573.9175  0.010053912 0.0081515504         1879 
 4758000   0.48335789   -8.5039342    573.96466  0.010052625 0.0081486005         1853 
 4759000   0.48626002   -8.5069445    573.42878  0.010041129 0.0081456449         1917 
 4760000   0.48301214    -8.493466     575.2198  0.010070375 0.0081426918         1835 
 4761000   0.49293159    -8.491545    574.82404  0.010061332 0.0081397402         1889 
 4762000   0.48656474   -8.5023486    574.06682  0.010045969 0.0081367878         1876 
 4763000   0.48781672   -8.4886533    573.31721  0.010030744  0.008133837         1917 
 4764000   0.49250778   -8.5103828    573.64776  0.010034421 0.0081308919         1913 
 4765000    0.4889942   -8.5004281    574.12229  0.010040614 0.0081279428         1903 
 4766000    0.4892687   -8.4846988    573.67223  0.010030638 0.0081249978         1858 
 4767000   0.49256997      -8.4954    573.64494  0.010028056 0.0081220528         1890 
 4768000   0.49673351   -8.5056576    573.46992  0.010022894  0.008119111         1896 
 4769000   0.49182587   -8.4886249    574.17277  0.010033074 0.0081161699         1884 
 4770000   0.49425438   -8.4923056     573.6494  0.010021827 0.0081132301         1900 
 4771000   0.49109896   -8.4959464    573.58114  0.010018535 0.0081102928         1882 
 4772000   0.46965108   -8.4979601    572.76492  0.010002181 0.0081073549         1910 
 4773000   0.48223887   -8.4987365    573.80162  0.010018186 0.0081044199         1912 
 4774000   0.48535424     -8.53206    574.36485  0.010025919 0.0081014855         1931 
 4775000   0.49107776   -8.5094978    573.65089  0.010011359 0.0080985529         1890 
 4776000    0.4931789   -8.5051833    574.56181  0.010025157  0.008095624         1860 
 4777000   0.49263254   -8.5014051    574.33748  0.010019145 0.0080926943         1932 
 4778000   0.49542258   -8.5128314    573.34181 0.0099996827 0.0080897693         1903 
 4779000   0.48724597   -8.5060188    573.90981  0.010007495 0.0080868415         1888 
 4780000    0.4878427    -8.500765    573.93505  0.010005841 0.0080839142         1919 
 4781000    0.4823348   -8.5140595     574.5569  0.010014587 0.0080809908         1954 
 4782000   0.48287198   -8.5029832    574.51152  0.010011702 0.0080780687         1910 
 4783000    0.4823784   -8.5106752    574.42049  0.010008023 0.0080751466         1867 
 4784000   0.48378493   -8.5074687    573.98714 0.0099983825 0.0080722271         1846 
 4785000   0.47926739   -8.5057123      574.805  0.010010536 0.0080693086         1965 
 4786000   0.48191213   -8.5159214    573.93538  0.009993303 0.0080663894         1897 
 4787000   0.48520847   -8.5080724    573.69026 0.0099869483 0.0080634737         1856 
 4788000   0.48839558   -8.5034929    573.77715 0.0099863748 0.0080605581         1928 
 4789000   0.48679245   -8.5045885    574.13571 0.0099905289  0.008057642         1857 
 4790000   0.47397544   -8.5071948    573.68905 0.0099806724  0.008054731         1938 
 4791000   0.48775656    -8.509753    573.68619 0.0099785394 0.0080518208         1871 
 4792000   0.49414055    -8.521793    574.13172 0.0099842049 0.0080489082         1950 
 4793000   0.48984284   -8.5155573    573.76726 0.0099757851 0.0080459993         1890 
 4794000   0.48414695   -8.5197975    573.35038 0.0099664578 0.0080430931         1927 
 4795000    0.4761919   -8.5114649    574.49562 0.0099842825 0.0080401872         1925 
 4796000   0.48637199   -8.5109567    573.96787 0.0099730308 0.0080372834         1903 
 4797000   0.49412304   -8.5174481    573.35612 0.0099603246 0.0080343821         1943 
 4798000   0.47559299   -8.5200148    573.71406 0.0099644655 0.0080314818         1919 
 4799000   0.48487161    -8.501695    574.12804 0.0099695776 0.0080285817         1922 
 4800000   0.47390859   -8.5106295     574.7461 0.0099782309 0.0080256828         1910 
 4801000   0.48018653   -8.5086684    574.41351 0.0099703796 0.0080227863         1884 
 4802000   0.48394899   -8.5292553    573.33693 0.0099496205 0.0080198884         1927 
 4803000   0.49030455   -8.5256068    573.59413 0.0099520114 0.0080169943         1915 
 4804000   0.49266994   -8.5070403    574.36934 0.0099633871 0.0080141026         1963 
 4805000   0.49001459   -8.5241695     573.1587 0.0099403173 0.0080112104         1842 
 4806000   0.47826658   -8.5119148    574.30584 0.0099581397 0.0080083232         1896 
 4807000   0.46533499   -8.5108512    573.95736 0.0099500271 0.0080054355         1923 
 4808000   0.47371823   -8.5162842     574.0424 0.0099494314 0.0080025476         1905 
 4809000   0.47381295    -8.512619    573.65322 0.0099406186 0.0079996616         1876 
 4810000   0.49229154   -8.5085735    574.01708 0.0099448559 0.0079967766         1879 
 4811000   0.48728565   -8.5061718    573.92569 0.0099412057 0.0079938952         1952 
 4812000   0.48735037   -8.5160322    573.37718 0.0099296408 0.0079910127         1962 
 4813000   0.47603902   -8.5192908    573.27909 0.0099258795 0.0079881317         1986 
 4814000   0.48640681   -8.5117381    573.24925  0.009923301 0.0079852529         1897 
 4815000   0.48661043   -8.5215755    573.92103 0.0099328666 0.0079823728         1930 
 4816000   0.49223206   -8.5045972    573.84805 0.0099295413 0.0079794975         1845 
 4817000   0.47485658   -8.5092896    573.14343 0.0099152901  0.007976622         1910 
 4818000   0.47414232   -8.5229493    572.72219 0.0099059463 0.0079737473         1932 
 4819000   0.48747569   -8.5090481    573.45683 0.0099165946 0.0079708731         1854 
 4820000    0.4754653   -8.5100367    573.81035 0.0099206492 0.0079680052         1881 
 4821000   0.47682144   -8.5074803    574.61647 0.0099325257 0.0079651367         1911 
 4822000   0.47006775   -8.5075958    573.97867 0.0099194434 0.0079622694         1766 
 4823000   0.47591616    -8.518187    573.83625 0.0099149259  0.007959404         1915 
 4824000     0.478606   -8.5212633    573.39175 0.0099051919   0.00795654         1828 
 4825000   0.48048695   -8.5022296    574.08434 0.0099151009 0.0079536759         1820 
 4826000   0.47758744   -8.5047619    573.75442 0.0099073494 0.0079508142         1872 
 4827000   0.48225595   -8.5070458    573.93186 0.0099083603 0.0079479528         1853 
 4828000   0.47353747   -8.5097412    573.94218 0.0099064861 0.0079450922         1864 
 4829000   0.47546964   -8.5039636    573.70752 0.0099003852 0.0079422344         1886 
 4830000   0.47693337   -8.5058912      574.479 0.0099116459 0.0079393775         1826 
 4831000   0.47689186   -8.5049227    573.64687 0.0098952403 0.0079365217         1869 
 4832000    0.4833315   -8.5207179    574.25769 0.0099037267 0.0079336683         1894 
 4833000   0.47838093   -8.5274366    573.81379 0.0098940236 0.0079308164         1835 
 4834000   0.48069844   -8.5183786    573.60445  0.009888368 0.0079279638         1912 
 4835000   0.48500489   -8.5334114    572.74771 0.0098715565 0.0079251116         1961 
 4836000   0.47801079   -8.5086956     572.9694 0.0098733354 0.0079222637         1845 
 4837000   0.47467133   -8.5016368    572.87718 0.0098697054 0.0079194167         1841 
 4838000   0.49304489   -8.5200233     573.6747 0.0098814024 0.0079165689         1890 
 4839000   0.47916702   -8.5129809    574.56883 0.0098947584 0.0079137255         1882 
 4840000   0.48466207   -8.5191504    572.40533 0.0098554637 0.0079108815         1856 
 4841000   0.46967712   -8.5232058    574.03492 0.0098814797 0.0079080401         1824 
 4842000   0.45782386   -8.5359109    573.43034 0.0098690338 0.0079051983         1894 
 4843000   0.48362791   -8.5199632    573.49001 0.0098680228 0.0079023562         1935 
 4844000   0.47010058   -8.5242568    573.93474 0.0098736364 0.0078995175         1938 
 4845000   0.47537451   -8.5327187    573.71313 0.0098677868 0.0078966799         1906 
 4846000   0.47164688   -8.5249747     573.5178 0.0098623916 0.0078938466         1853 
 4847000   0.48145844   -8.5246644    574.32189 0.0098741815 0.0078910125         1841 
 4848000   0.47584364   -8.5188981    574.26951 0.0098712444 0.0078881814         1886 
 4849000   0.48140192   -8.4985793    573.64612 0.0098584953 0.0078853516         1926 
 4850000   0.47046949    -8.518489    573.26242 0.0098498697 0.0078825229         1910 
 4851000   0.46241188   -8.5199164    573.44951 0.0098510532 0.0078796925         1802 
 4852000   0.47073201   -8.5204776    573.68299  0.009853033 0.0078768648         1841 
 4853000   0.48801021   -8.5146788    574.77945 0.0098698306 0.0078740397         1853 
 4854000   0.46146464    -8.513712    573.31385 0.0098426358 0.0078712153         1870 
 4855000   0.47287895   -8.5325594    573.72443 0.0098476558 0.0078683909         1872 
 4856000   0.47935334    -8.507724    573.71366 0.0098454431 0.0078655688         1905 
 4857000   0.47490346   -8.5279355    572.46807 0.0098220451 0.0078627483         1830 
 4858000   0.48016275   -8.5292462    573.29775 0.0098342554 0.0078599263         1887 
 4859000   0.47317652   -8.5278221    573.30907 0.0098324255 0.0078571076         1894 
 4860000   0.47698409   -8.5311547    573.14731 0.0098276287 0.0078542931         1849 
 4861000   0.48105313   -8.5399951    572.58619 0.0098159877 0.0078514777         1931 
 4862000   0.47509555   -8.5371505    572.69786 0.0098158827 0.0078486617         1920 
 4863000   0.47307429   -8.5353297    572.63824 0.0098128425 0.0078458482         1936 
 4864000   0.47401121   -8.5201544    572.47911 0.0098080988 0.0078430348         1909 
 4865000   0.47261168    -8.546812    573.56472 0.0098246784 0.0078402215         1917 
 4866000   0.47245468   -8.5410309    574.42551 0.0098374009 0.0078374119         1850 
 4867000    0.4702673   -8.5264083    573.12873  0.009813176  0.007834604         1870 
 4868000    0.4718258   -8.5330484    573.39583 0.0098157326 0.0078317943         1897 
 4869000   0.46822465    -8.519041    573.42774 0.0098142626  0.007828987         1895 
 4870000   0.46108106   -8.5208749    573.68193  0.009816597 0.0078261822         1912 
 4871000   0.45942322   -8.5279251    573.87568 0.0098178963 0.0078233767         1853 
 4872000   0.46908683   -8.5461209      573.369 0.0098072147 0.0078205744         1926 
 4873000   0.46813179   -8.5277936    573.68057 0.0098105303 0.0078177736         1912 
 4874000   0.46855271   -8.5225756     573.6761  0.009808441 0.0078149742         1913 
 4875000   0.47257395   -8.5260117    572.87723 0.0097927732 0.0078121744         1945 
 4876000   0.47038602   -8.5322739    573.03926  0.009793534 0.0078093779         1902 
 4877000   0.46647412   -8.5297125    573.26233 0.0097953374 0.0078065801         1892 
 4878000   0.47328378   -8.5301509    572.29904 0.0097768731  0.007803787         1901 
 4879000   0.47181917   -8.5169749    573.78524 0.0098002535 0.0078009943         1871 
 4880000   0.47226304   -8.5199565    573.58327 0.0097947963 0.0077982026         1852 
 4881000   0.47252355   -8.5257366    574.09572 0.0098015386 0.0077954128         1918 
 4882000   0.47783536   -8.5208538    574.33779  0.009803663 0.0077926252         1872 
 4883000   0.47864924   -8.5227092    573.35893   0.00978495 0.0077898362         1894 
 4884000   0.47852902   -8.5210306    572.61608 0.0097702716 0.0077870499         1893 
 4885000   0.47459736   -8.5309361    573.79213 0.0097883339 0.0077842663         1879 
 4886000   0.46732251   -8.5243911     573.5292 0.0097818461 0.0077814849         1858 
 4887000   0.45711654   -8.5472671    572.36027 0.0097599118 0.0077787021         1860 
 4888000   0.46627998   -8.5307654    573.80391 0.0097825271 0.0077759216         1877 
 4889000   0.46655298   -8.5186265    573.89135 0.0097820166 0.0077731432         1876 
 4890000   0.47634239   -8.5291241    572.96541 0.0097642367 0.0077703663         1857 
 4891000    0.4684715   -8.5369188    573.28555  0.009767695 0.0077675902         1924 
 4892000   0.47817346   -8.5331392    572.66422 0.0097551141 0.0077648125         1896 
 4893000   0.46902198   -8.5342289    573.89754 0.0097741253 0.0077620362         1870 
 4894000   0.47777485   -8.5479136    572.94112 0.0097558426 0.0077592623         1906 
 4895000     0.472675    -8.534167    572.53917 0.0097470066 0.0077564908         1952 
 4896000   0.45836953   -8.5235665    573.24213 0.0097569807 0.0077537192         1935 
 4897000   0.46119091   -8.5230232    572.58933 0.0097438795 0.0077509486         1874 
 4898000   0.46435682   -8.5314377    572.83899 0.0097461376  0.007748179         1854 
 4899000   0.46753633   -8.5449374    572.35372 0.0097358937 0.0077454133         1840 
 4900000   0.46734791   -8.5340692    572.70824 0.0097399361 0.0077426499         1870 
 4901000    0.4808202   -8.5366596    572.38472 0.0097324477 0.0077398845         1966 
 4902000   0.46746059   -8.5302318    572.43879 0.0097313815 0.0077371236         1911 
 4903000   0.46639994   -8.5324029    572.82519 0.0097359642 0.0077343627         1898 
 4904000   0.46605175    -8.537194    572.84689 0.0097343476 0.0077316033         1909 
 4905000   0.47126673   -8.5424544    573.17364 0.0097379144 0.0077288456         1884 
 4906000   0.46724737   -8.5334447    573.24416 0.0097371273 0.0077260876         1931 
 4907000   0.46398776   -8.5349374    572.33124 0.0097196392 0.0077233329         1964 
 4908000   0.46320516   -8.5382262    572.64414 0.0097229716  0.007720579         1916 
 4909000   0.46351628   -8.5227286    572.96565 0.0097264489 0.0077178244         1965 
 4910000   0.46869981    -8.551703    573.21766  0.009728745 0.0077150713         1914 
 4911000   0.47539429   -8.5426709     572.7532 0.0097188827 0.0077123193         1924 
 4912000   0.46083048   -8.5464689    572.58066  0.009713977 0.0077095709         1948 
 4913000   0.46265862    -8.554197    573.12709 0.0097212682 0.0077068232         1951 
 4914000   0.45970471   -8.5463628    573.50509 0.0097257003 0.0077040731         1953 
 4915000   0.46550196   -8.5347204    573.56238 0.0097246928 0.0077013268         1956 
 4916000   0.46092532    -8.531878    573.52363 0.0097220578  0.007698581         1943 
 4917000   0.46523487   -8.5350042    572.61987 0.0097047636 0.0076958376         1841 
 4918000   0.47329267   -8.5463568      572.763 0.0097052155 0.0076930943         1981 
 4919000   0.46268356   -8.5498535    573.49933 0.0097157167 0.0076903551         1969 
 4920000   0.45755624    -8.535414    573.16949 0.0097081553 0.0076876163         1886 
 4921000   0.46738463   -8.5349582    573.89361  0.009718445 0.0076848768         1872 
 4922000   0.45074287   -8.5445136    572.64988 0.0096954131 0.0076821385         1944 
 4923000   0.46183025    -8.552633    573.13373 0.0097016339 0.0076794029         1942 
 4924000   0.46421149    -8.542501    572.37998 0.0096869073 0.0076766702         1918 
 4925000   0.46559728   -8.5602849    572.29649 0.0096835278 0.0076739388         1970 
 4926000   0.46980821   -8.5314522    572.82115 0.0096904376 0.0076712064         1917 
 4927000   0.46899989   -8.5488635    573.26215 0.0096959297 0.0076684769         1917 
 4928000   0.46613696   -8.5531533    573.79504 0.0097029735  0.007665744         1919 
 4929000    0.4646279   -8.5582789    572.61498  0.009681054 0.0076630148         1926 
 4930000   0.45294565   -8.5408284    573.86764 0.0097002644 0.0076602885         1992 
 4931000   0.45147084   -8.5397828    573.02924 0.0096841283 0.0076575628         1920 
 4932000   0.46599177   -8.5544048    573.19223 0.0096849187 0.0076548383         1886 
 4933000   0.45901845   -8.5425467    572.77089 0.0096758377 0.0076521151         1922 
 4934000   0.46532663   -8.5477936    572.66458 0.0096720811 0.0076493925         1928 
 4935000   0.45880091   -8.5406972    573.13901 0.0096781326 0.0076466729         1914 
 4936000    0.4766881   -8.5516968    573.26398 0.0096782816 0.0076439555         1893 
 4937000   0.44773602    -8.539279    574.04741 0.0096895451 0.0076412381         1838 
 4938000   0.46328715   -8.5403959    573.16513 0.0096726935 0.0076385219         1864 
 4939000   0.45620091   -8.5404412    572.68336 0.0096626064 0.0076358067         1887 
 4940000   0.46825856   -8.5441172    573.05734 0.0096669592 0.0076330938         1917 
 4941000    0.4708483   -8.5540508    571.84987 0.0096446378 0.0076303809         1934 
 4942000   0.47044762   -8.5462014    572.98014 0.0096617452 0.0076276681         1979 
 4943000   0.46313296   -8.5426179    572.88972 0.0096582663 0.0076249593         1910 
 4944000   0.46418696   -8.5524217    572.34788 0.0096471797 0.0076222485         1871 
 4945000   0.46396415   -8.5580011    573.17538 0.0096591739 0.0076195391         1941 
 4946000   0.46679862   -8.5492776    573.13119 0.0096564765 0.0076168323         1892 
 4947000   0.46002357   -8.5439671    573.45047 0.0096599027 0.0076141274         1840 
 4948000   0.46061011   -8.5537633    573.31289 0.0096556335 0.0076114218         1878 
 4949000   0.45036502   -8.5436213    573.28114 0.0096531478  0.007608719         1894 
 4950000   0.45453422   -8.5480983    572.81256 0.0096433091 0.0076060177         1881 
 4951000   0.46112787   -8.5423013    572.90944  0.009642992 0.0076033178         1868 
 4952000   0.45218031    -8.537745    572.78906 0.0096390188 0.0076006188         1830 
 4953000   0.46859019   -8.5470817    572.26122  0.009628192 0.0075979204         1956 
 4954000   0.45653326     -8.55999    572.91327 0.0096372169 0.0075952237         1892 
 4955000   0.45146035   -8.5573625    572.52207 0.0096286928 0.0075925277         1932 
 4956000   0.45726419   -8.5291163     573.0804 0.0096361381 0.0075898332         1841 
 4957000   0.47027657   -8.5587309    573.39267 0.0096394437 0.0075871409         1910 
 4958000   0.46323595   -8.5457234    573.27493 0.0096355205 0.0075844483         1895 
 4959000   0.46828697   -8.5497593    573.36143 0.0096350312 0.0075817581         1884 
 4960000   0.46333483   -8.5472107    572.60446 0.0096203707 0.0075790683         1821 
 4961000   0.46507496   -8.5458749    572.81852 0.0096220272 0.0075763806         1866 
 4962000   0.46124603   -8.5539112    573.00939 0.0096232935 0.0075736936         1853 
 4963000    0.4571237   -8.5471632    573.20953  0.009624715 0.0075710081         1867 
 4964000   0.46303074   -8.5508687    572.21871 0.0096061427 0.0075683253         1843 
 4965000   0.46869082   -8.5454617    572.86915  0.009615125 0.0075656423         1868 
 4966000   0.46395002   -8.5594667     572.6307 0.0096091875 0.0075629617         1898 
 4967000   0.46480125   -8.5487641    571.82073 0.0095936637 0.0075602825         1901 
 4968000   0.46446683   -8.5628075    572.31053 0.0095999486 0.0075576042         1867 
 4969000   0.45670605    -8.539587    572.59472 0.0096027827 0.0075549238         1885 
 4970000   0.45601489   -8.5542713    572.78634 0.0096040634 0.0075522456         1964 
 4971000    0.4590455   -8.5456561    572.57002 0.0095985049  0.007549571         1886 
 4972000   0.46979507   -8.5527712    572.82319 0.0096008178 0.0075468977         1972 
 4973000   0.46096018   -8.5539872     572.0757 0.0095863613 0.0075442247         1845 
 4974000   0.46033349   -8.5396365    572.89129 0.0095980982  0.007541555         1874 
 4975000   0.45375043    -8.556989    572.55587 0.0095905506 0.0075388857         1860 
 4976000   0.45398592   -8.5553702    572.26424 0.0095837393 0.0075362183         1850 
 4977000   0.45627712   -8.5708774    572.39607  0.009584021 0.0075335474         1899 
 4978000   0.45768839   -8.5550698    572.12239 0.0095775142 0.0075308801         1871 
 4979000    0.4520088   -8.5431906    571.94933 0.0095726942 0.0075282148         1881 
 4980000   0.45256752   -8.5604081    573.28975 0.0095932019 0.0075255521         1862 
 4981000   0.45670225   -8.5635107    573.28802  0.009591247 0.0075228873         1921 
 4982000   0.45175251   -8.5587654    572.49908 0.0095761254 0.0075202274         1816 
 4983000   0.45857523   -8.5623272     572.0408 0.0095665395 0.0075175673         1873 
 4984000   0.45704328   -8.5546318    572.13177 0.0095661411 0.0075149126         1766 
 4985000   0.45316453   -8.5636288    572.80852 0.0095755352 0.0075122574         1882 
 4986000   0.44870751   -8.5491808    571.79499 0.0095566753 0.0075096016         1899 
 4987000   0.45937467   -8.5528334    572.33755 0.0095638252 0.0075069472         1849 
 4988000   0.43790679   -8.5589966    572.11466 0.0095581839 0.0075042927         1851 
 4989000   0.45379559   -8.5630617    572.47911 0.0095623556 0.0075016399         1899 
 4990000    0.4602771   -8.5641446    573.54765  0.009578284   0.00749899         1954 
 4991000   0.45344025   -8.5500183    572.24515 0.0095546175 0.0074963389         1915 
 4992000   0.44925932   -8.5601666    573.12753 0.0095674333 0.0074936892         1942 
 4993000    0.4571756   -8.5442984    573.20897 0.0095668764 0.0074910419         1904 
 4994000   0.45001096   -8.5581513     572.2174 0.0095484148  0.007488397         1959 
 4995000   0.44944068   -8.5567625     572.3154 0.0095481382   0.00748575         1886 
 4996000   0.45166668   -8.5732852    571.89701 0.0095392482 0.0074831064         1856 
 4997000   0.45516618   -8.5644622    573.03957 0.0095563934 0.0074804637         1876 
 4998000   0.45103149   -8.5523742    572.85532 0.0095514092  0.007477823         1816 
 4999000    0.4595316   -8.5522417    571.55597 0.0095278384 0.0074751834         1919 
 5000000   0.45250526   -8.5588245    572.37951 0.0095396585 0.0074725449         1855 
 5001000   0.45956091   -8.5675194      572.352 0.0095372926 0.0074699063         1974 
 5002000   0.45498011   -8.5657192    571.40563 0.0095196194 0.0074672693         1912 
 5003000   0.45012677   -8.5527791    572.04855 0.0095284255 0.0074646345         1923 
 5004000   0.45645707   -8.5551267    571.44558 0.0095164798 0.0074619986         1853 
 5005000    0.4515321   -8.5850197     571.6288  0.009517629  0.007459365         1874 
 5006000   0.45979795   -8.5445873    572.69344 0.0095334505 0.0074567333         1839 
 5007000   0.45846059   -8.5607747    572.97568  0.009536244  0.007454103         1881 
 5008000   0.44466674   -8.5683802    572.08344 0.0095194927 0.0074514752         1893 
 5009000   0.44890942   -8.5577064    572.53917 0.0095251741 0.0074488455         1900 
 5010000   0.44892049   -8.5658063    572.08678 0.0095157481 0.0074462171         1866 
 5011000   0.44995486    -8.566002    572.18882 0.0095155461 0.0074435923         1934 
 5012000   0.43950454   -8.5714245    572.96497 0.0095265525 0.0074409684         1903 
Loop time of 13328.4 on 48 procs for 5000000 steps with 4000 atoms

Performance: 64824.156 tau/day, 375.140 timesteps/s
99.4% CPU use with 48 MPI tasks x no OpenMP threads

MPI task timing breakdown:
Section |  min time  |  avg time  |  max time  |%varavg| %total
---------------------------------------------------------------
Pair    | 918.98     | 1090.4     | 1175.3     | 153.9 |  8.18
Neigh   | 91.683     | 96.043     | 100.97     |  18.4 |  0.72
Comm    | 835.39     | 931.42     | 1098.3     | 168.4 |  6.99
Output  | 19.593     | 19.598     | 19.692     |   0.3 |  0.15
Modify  | 11039      | 11067      | 11099      |  12.8 | 83.04
Other   |            | 123.6      |            |       |  0.93

Nlocal:        83.3333 ave          89 max          76 min
Histogram: 1 2 4 5 3 6 15 3 8 1
Nghost:        2428.46 ave        2448 max        2410 min
Histogram: 2 1 7 10 6 8 6 2 4 2
Neighs:        16882.9 ave       19079 max       14395 min
Histogram: 2 3 4 7 4 8 7 6 4 3
FullNghs:      33766.1 ave       35905 max       30474 min
Histogram: 1 0 6 3 3 7 13 3 9 3

Total # of neighbors = 1620773
Ave neighs/atom = 405.19325
Neighbor list builds = 266388
Dangerous builds = 1

#clear
#
#next RN
#
#jump SELF
Total wall time: 3:42:12
