
units lj                  # Use reduced LJ style units
atom_style atomic         # Uncharged point particles
atom_modify map hash      # Needed for indexing of clusters etc
                          # Used to be able to find where atoms are in relation to each other.

lattice fcc 1.0 spacing 1 1 1
Lattice spacing in x,y,z = 1.5874011 1.5874011 1.5874011
region box block 0 10 0 10 0 10 units lattice
create_box 2 box
Created orthogonal box = (0.0000000 0.0000000 0.0000000) to (15.874011 15.874011 15.874011)
  3 by 4 by 4 MPI processor grid
create_atoms 1 box
Created 4000 atoms
  using lattice units in orthogonal box = (0.0000000 0.0000000 0.0000000) to (15.874011 15.874011 15.874011)
  create_atoms CPU = 0.024 seconds
set type 1 type/fraction 2 0.14 78393
Setting atom values ...
  590 settings made for type/fraction
mass 1 1.0
mass 2 1.0
pair_style lj/cut  3.5
pair_modify tail  yes
pair_coeff 1  1  1.0  1.0   # Intearaction between 1 and 1 set with epsilon = 1 and sigma = 1
pair_coeff 1  2  1.5  0.8
pair_coeff 2  2  0.5  0.88

write_data data.0
System init for write_data ...
Neighbor list info ...
  update every 1 steps, delay 10 steps, check yes
  max neighbors/atom: 2000, page size: 100000
  master list distance cutoff = 3.8
  ghost atom cutoff = 3.8
  binsize = 1.9, bins = 9 9 9
  1 neighbor lists, perpetual/occasional/extra = 1 0 0
  (1) pair lj/cut, perpetual
      attributes: half, newton on
      pair build: half/bin/atomonly/newton
      stencil: half/bin/3d
      bin: standard
WARNING: Not all mixed pair coeffs generated from mixing. Use write_data with 'pair ij' option to store all pair coeffs. (../write_data.cpp:312)


#############################
#   M E L T   S Y S T E M   #
#############################

velocity all create 2.4 6229865 mom yes dist gaussian # Assign velocities
                                                    # Temperature 2.4, random number seed, zero linear momentum
                                                                                # Gaussian distribution

timestep 0.002   # simulation timestep
thermo 1000       # output thermodynamic data every 1000 steps bf 100

# Define a fix  in this case with index 1 applied to all
# particles in the simulation. This fix is for simulations
# in the anisotropic NPT ensemble. Note that we use the MTK
# correction.
fix 1 all npt temp 2.4 2.4 0.1 iso 5.68 5.68 0.5 mtk yes tchain 5 pchain 5 # Use NPT ensemble
                                                                         # Set temperature and pressure and damping
                                                                         # Numbers of thermostats in chain and in barostat
run 10000          # run for 10000 steps
Per MPI rank memory allocation (min/avg/max) = 3.642 | 3.644 | 3.648 Mbytes
Step Temp E_pair E_mol TotEng Press Volume 
       0          2.4   -7.4253508            0   -3.8262508   -3.2887046         4000 
    1000    2.3467142   -4.7067925            0   -1.1876012    5.6677201    4679.2817 
    2000    2.4258321   -4.7514635            0    -1.113625    5.3425713    4702.2943 
    3000     2.430566     -4.75831            0   -1.1133724     5.524045    4681.9874 
    4000    2.3287608   -4.7066736            0   -1.2144056    5.7893569    4665.5016 
    5000    2.3827049   -4.7039492            0   -1.1307854    5.5810087    4706.5164 
    6000    2.3547177   -4.7283733            0   -1.1971798    5.7384859    4665.6579 
    7000    2.3601206   -4.7440142            0   -1.2047182    5.5334878    4676.1435 
    8000     2.364004   -4.7458899            0   -1.2007703    5.7625925    4652.6425 
    9000    2.3765842   -4.6345186            0   -1.0705335    6.0504756    4683.2534 
   10000    2.3948646   -4.6957753            0   -1.1043764    5.6585933    4695.0889 
Loop time of 2.21351 on 48 procs for 10000 steps with 4000 atoms

Performance: 780659.788 tau/day, 4517.707 timesteps/s
99.6% CPU use with 48 MPI tasks x no OpenMP threads

MPI task timing breakdown:
Section |  min time  |  avg time  |  max time  |%varavg| %total
---------------------------------------------------------------
Pair    | 0.93981    | 0.98856    | 1.0656     |   2.9 | 44.66
Neigh   | 0.19266    | 0.20037    | 0.21601    |   1.0 |  9.05
Comm    | 0.69209    | 0.75985    | 0.8071     |   3.1 | 34.33
Output  | 0.00023832 | 0.00024362 | 0.00031154 |   0.0 |  0.01
Modify  | 0.20912    | 0.25008    | 0.27654    |   3.6 | 11.30
Other   |            | 0.01441    |            |       |  0.65

Nlocal:        83.3333 ave          92 max          75 min
Histogram: 3 4 5 3 6 12 5 6 3 1
Nghost:        1471.90 ave        1504 max        1450 min
Histogram: 4 3 11 9 7 5 1 4 3 1
Neighs:        8113.56 ave        9261 max        7026 min
Histogram: 3 3 5 4 9 10 5 6 2 1

Total # of neighbors = 389451
Ave neighs/atom = 97.362750
Neighbor list builds = 908
Dangerous builds = 217

# Equilibrate just above the melting temperature to avoid step fn in T

fix 1 all npt temp 1.25 1.25 0.1 iso 5.68 5.68 0.5 mtk yes tchain 5 pchain 5
run 2000
Per MPI rank memory allocation (min/avg/max) = 3.642 | 3.644 | 3.648 Mbytes
Step Temp E_pair E_mol TotEng Press Volume 
   10000    2.3948646   -4.6957753            0   -1.1043764    5.6585933    4695.0889 
   11000    1.2541632   -6.3723671            0   -4.4915926    5.6750099    3837.4591 
   12000    1.2413413   -6.3506144            0   -4.4890679    5.6846315    3842.8843 
Loop time of 0.49416 on 48 procs for 2000 steps with 4000 atoms

Performance: 699368.688 tau/day, 4047.272 timesteps/s
99.6% CPU use with 48 MPI tasks x no OpenMP threads

MPI task timing breakdown:
Section |  min time  |  avg time  |  max time  |%varavg| %total
---------------------------------------------------------------
Pair    | 0.21196    | 0.23504    | 0.26079    |   2.2 | 47.56
Neigh   | 0.031249   | 0.033733   | 0.037911   |   0.7 |  6.83
Comm    | 0.14208    | 0.17037    | 0.18476    |   2.7 | 34.48
Output  | 5.0114e-05 | 5.1288e-05 | 6.5246e-05 |   0.0 |  0.01
Modify  | 0.040103   | 0.050338   | 0.064761   |   2.6 | 10.19
Other   |            | 0.004629   |            |       |  0.94

Nlocal:        83.3333 ave          92 max          76 min
Histogram: 3 3 2 12 8 9 5 1 4 1
Nghost:        1686.83 ave        1716 max        1654 min
Histogram: 1 4 1 5 10 11 5 6 1 4
Neighs:        9936.52 ave       11124 max        9040 min
Histogram: 2 5 12 5 8 4 5 3 2 2

Total # of neighbors = 476953
Ave neighs/atom = 119.23825
Neighbor list builds = 141
Dangerous builds = 3

#############################
# L I N E A R  Q U E N C H  #
#############################

# Define solid atoms. This closely follows ten Wolde  Ruiz-Montero and Frenkel  Faraday Discuss  1996  104  93-110
# Compute components of the per-atom q6 vector
compute q6 all orientorder/atom degrees 1 6 components 6 nnn NULL cutoff 1.3 # compute the Q6 parameter.
                                                                             # Use all neighbours within 1.3 unit cell.

# get number of connections
compute coord_number all coord/atom orientorder q6 0.5

# An atom is solid if it has 8 or more connections (of a possible 14)
variable is_solid atom c_coord_number>=8
group solid dynamic all var is_solid    # Must be dynamic to update
dynamic group solid defined

# do clustering
compute cluster solid cluster/atom 1.3 # Create a cluster where all atoms within are solid and max 1.3 units from another member

# define chunks one chunk per cluster
compute clus_chunks solid chunk/atom c_cluster nchunk every compress yes  # Says which atoms are in which chunk

# count the size of each chunk
compute size_chunks solid property/chunk clus_chunks count


# Find the maximum entry in the vector of chunk sizes
variable max_n equal max(c_size_chunks)


# Thermo style which includes this variable
# thermo_style custom step temp pe vol v_max_n

thermo ${N}  # Print the thermo information every 100 steps
thermo 1000  

# Reset the npt fix at a lower temperature (below freezing)
fix 1  all npt temp  ${temp} ${temp}  0.1  iso  5.68  5.68  0.5  mtk yes tchain  5  pchain  5
fix 1  all npt temp  0.45 ${temp}  0.1  iso  5.68  5.68  0.5  mtk yes tchain  5  pchain  5
fix 1  all npt temp  0.45 0.45  0.1  iso  5.68  5.68  0.5  mtk yes tchain  5  pchain  5

dump dmp2 all dcd ${N} traj.dcd
dump dmp2 all dcd 1000 traj.dcd


compute msd all msd com yes
variable twopoint equal c_msd[4]/6/(step*dt+1.0e-6)
fix 9 all vector 10 c_msd[4]
variable fit equal slope(f_9)/6/(10*dt)
thermo_style custom step temp pe c_msd[4] v_twopoint v_fit v_max_n

fix 1 all npt temp 1.25 ${temp} 0.1 iso 5.68 5.68 0.5 mtk yes tchain 5 pchain 5
fix 1 all npt temp 1.25 0.45 0.1 iso 5.68 5.68 0.5 mtk yes tchain 5 pchain 5
run 5000000 # 5000000  # Run for this many steps
Neighbor list info ...
  update every 1 steps, delay 10 steps, check yes
  max neighbors/atom: 2000, page size: 100000
  master list distance cutoff = 3.8
  ghost atom cutoff = 3.8
  binsize = 1.9, bins = 9 9 9
  4 neighbor lists, perpetual/occasional/extra = 1 3 0
  (1) pair lj/cut, perpetual
      attributes: half, newton on
      pair build: half/bin/atomonly/newton
      stencil: half/bin/3d
      bin: standard
  (2) compute orientorder/atom, occasional
      attributes: full, newton on
      pair build: full/bin/atomonly
      stencil: full/bin/3d
      bin: standard
  (3) compute coord/atom, occasional
      attributes: full, newton on
      pair build: full/bin/atomonly
      stencil: full/bin/3d
      bin: standard
  (4) compute cluster/atom, occasional
      attributes: full, newton on
      pair build: full/bin/atomonly
      stencil: full/bin/3d
      bin: standard
Per MPI rank memory allocation (min/avg/max) = 9.758 | 9.765 | 9.773 Mbytes
Step Temp PotEng c_msd[4] v_twopoint v_fit v_max_n 
   12000    1.2413413   -6.3506144 1.1306349e-30 7.8516309e-33 8.3333333e+20            3 
   13000    1.2468044   -6.3541197   0.57009559 0.0036544588  0.046935877            3 
   14000    1.2220761    -6.389082    1.1052036 0.0065785927   0.04618873            2 
   15000    1.2254624   -6.3680562     1.605405 0.0089189161  0.044470379            2 
   16000    1.2346045   -6.3812341    2.2175133  0.011549548  0.045123574            1 
   17000    1.2372659   -6.3750305    2.7504144  0.013482423  0.045818405            1 
   18000    1.2688664   -6.3450478    3.2003137  0.014816266  0.045143088            2 
   19000      1.26098   -6.3615212    3.7006202   0.01623079  0.044158305            3 
   20000     1.242734   -6.4013536    4.2744168   0.01781007  0.043890331            3 
   21000    1.2051371   -6.3543497    4.8523208  0.019255241  0.044140898            2 
   22000    1.2530695   -6.3388135    5.3267602  0.020177121   0.04406378            2 
   23000    1.2568548   -6.3491626    5.8387753  0.021154983   0.04394315            2 
   24000    1.2362285   -6.3470978    6.4624728  0.022439141  0.044142034            2 
   25000    1.2592141   -6.3474098    6.9708937  0.023236312  0.044251509            2 
   26000    1.2568665   -6.3664555    7.5243576   0.02411653  0.044311123            2 
   27000    1.2385561   -6.3826659    8.0534338  0.024856277   0.04441471            2 
   28000    1.2472823   -6.3682843    8.5014918  0.025302058  0.044380737            1 
   29000    1.2312285   -6.3538123    9.0560457  0.026023119  0.044363475            2 
   30000     1.278867   -6.3549686    9.5376109  0.026493363  0.044288666            2 
   31000    1.2334019   -6.3447462    9.9878134   0.02684896   0.04413756            2 
   32000    1.2312318    -6.338529    10.506027  0.027359444  0.044008042            1 
   33000    1.2784697   -6.3682922    11.012386  0.027809055  0.043875565            4 
   34000    1.2545318   -6.3633659    11.569789  0.028357325  0.043773713            2 
   35000    1.2372045   -6.3112256     12.12502  0.028869095  0.043737885            2 
   36000    1.2615246   -6.3597659     12.59666  0.029158935  0.043707683            4 
   37000    1.2488239   -6.3599834    13.034523  0.029357034  0.043625168            1 
   38000    1.2195606   -6.3655091    13.545978  0.029706093  0.043506766            1 
   39000     1.225971   -6.3735795    13.959813  0.029828659  0.043381154            5 
   40000     1.231353   -6.3288418    14.689333  0.030602776  0.043315333            1 
   41000    1.2609668   -6.3956178      15.2055  0.030905487  0.043310239            4 
   42000    1.2656081   -6.4013971    15.727021  0.031204406  0.043338456            1 
   43000    1.2610796   -6.3590073    16.392296  0.031768015  0.043399389            1 
   44000    1.2345852   -6.3512535    16.894398  0.031996966   0.04345067            2 
   45000    1.2321331   -6.3841909    17.220588  0.031889978  0.043464005            3 
   46000    1.2371181   -6.3812727    17.513844  0.031727978  0.043379248            1 
   47000    1.2263468   -6.3129167    18.093117  0.032079994  0.043262916            3 
   48000    1.2288132   -6.3791111    18.700953  0.032466931  0.043205747            2 
   49000    1.2549901   -6.3417977    19.344278  0.032898432  0.043205233            3 
   50000    1.2622872   -6.3520244    19.812241  0.033020401  0.043211537            3 
   51000    1.2349393   -6.3556071    20.413271  0.033355018  0.043194236            3 
   52000    1.2299193   -6.3306477    20.975916  0.033615249  0.043204614            3 
   53000    1.2307953   -6.3495919    21.479306  0.033772493   0.04322967            1 
   54000    1.2346859   -6.4140133    22.066549  0.034053316  0.043254941            2 
   55000    1.2576965   -6.3802493    22.474948  0.034052952  0.043280519            2 
   56000    1.2237459   -6.4442608    22.746007  0.033848225  0.043269388            1 
   57000    1.2351276   -6.3562003    23.314548  0.034085596  0.043232132            2 
   58000    1.2479143   -6.3705339    23.783143  0.034171182  0.043194238            4 
   59000    1.2577771   -6.3564936    24.263923  0.034271077  0.043147844            1 
   60000    1.2500095    -6.362223     24.98579  0.034702486  0.043121929            2 
   61000     1.257251   -6.3831468    25.443183  0.034758447  0.043117246            2 
   62000    1.2241269   -6.3570699    26.011682  0.034961937  0.043118019            2 
   63000    1.2085746   -6.4112965    26.545264  0.035112783  0.043134181            3 
   64000    1.2266618   -6.3482205     27.25907  0.035493581  0.043150895            2 
   65000    1.2468204   -6.4263145    27.637396  0.035432559  0.043169533            2 
   66000    1.2372121   -6.3524469    28.156666  0.035551346  0.043168894            2 
   67000    1.2303733   -6.3929878    28.661147  0.035648193  0.043188211            2 
   68000    1.2470634   -6.3801763    29.241606  0.035835301  0.043199114            3 
   69000    1.2166531   -6.3813628     29.86913  0.036073828  0.043223272            3 
   70000     1.236242   -6.3698502    30.537379  0.036354022  0.043253115            1 
   71000    1.2514136   -6.3270677    31.045286  0.036438129  0.043286687            2 
   72000    1.2551939   -6.3781285    31.685259  0.036672753  0.043333254            3 
   73000    1.2559724   -6.3469207    32.378652  0.036961931  0.043394738            3 
   74000    1.2568597   -6.3982533    32.733368  0.036861901  0.043455019            2 
   75000     1.221504   -6.3935271    33.418032  0.037131147  0.043504456            2 
   76000     1.225872   -6.4156841    34.054105  0.037340027  0.043567572            2 
   77000    1.2325247   -6.3495466    34.625093  0.037473044  0.043628103            2 
   78000    1.2508094   -6.3541409    34.806935  0.037186896  0.043671575            2 
   79000    1.2488732   -6.3835289    35.427365  0.037370638  0.043704889            3 
   80000    1.2318034   -6.3771039    35.937855  0.037435266  0.043733593            1 
   81000    1.2510622   -6.4047147    36.405777  0.037454503  0.043757919            2 
   82000     1.243458   -6.3479632    37.091731  0.037694849  0.043786634            3 
   83000    1.2380846   -6.3673236    37.737115  0.037888669  0.043818396            2 
   84000    1.2360355   -6.3811075    38.273158  0.037969402  0.043852427            3 
   85000    1.2388248   -6.3780235    38.559232  0.037803169  0.043873051            1 
   86000    1.2250942   -6.3354223    39.092777  0.037880598  0.043887109            2 
   87000    1.2447446   -6.3764227    39.544192  0.037877578   0.04389568            2 
   88000    1.2539742   -6.3220227    40.133326  0.038005043  0.043900493            4 
   89000    1.2410263    -6.400175    40.606877   0.03802142  0.043910325            3 
   90000    1.2426345   -6.3810838    41.167806  0.038118338  0.043913792            5 
   91000    1.2517624   -6.3906756    41.694968  0.038182205  0.043922826            2 
   92000    1.2177881   -6.3973457     42.10309  0.038136857  0.043924536            2 
   93000     1.226415    -6.347854    42.617204  0.038187458  0.043927803            3 
   94000    1.2204235   -6.4147715    42.758381  0.037906366  0.043914024            2 
   95000    1.2482824   -6.3697858    43.544176  0.038196646  0.043896063            3 
   96000    1.2378795   -6.3714192     44.11181  0.038291502  0.043880827            6 
   97000    1.2487188   -6.3929241    44.537319  0.038262301  0.043874579            2 
   98000    1.2071651   -6.3401371    45.225948  0.038457438  0.043867805            4 
   99000    1.2356203   -6.3802939    45.882267  0.038621437  0.043867516            4 
  100000    1.2311177   -6.4132876    46.638939  0.038865783  0.043874609            1 
  101000    1.2482636   -6.3488894    46.768473  0.038587848   0.04387974            1 
  102000    1.2235029   -6.3787255    47.204132  0.038565467   0.04387904            1 
  103000    1.2446086   -6.3915636    47.702383  0.038594161  0.043872728            2 
  104000    1.2310313   -6.3971186    48.037424  0.038491526  0.043857859            2 
  105000    1.2528518   -6.4398306    48.491326  0.038485179  0.043839213            2 
  106000    1.2459901   -6.3746395    49.201184  0.038680176  0.043816823            2 
  107000      1.22707   -6.4032237    49.420977  0.038489857  0.043798494            2 
  108000    1.2353817   -6.3880516    49.970143  0.038557209   0.04377829            2 
  109000    1.2344728    -6.397735    50.460682  0.038578503  0.043751735            2 
  110000    1.2270116   -6.3744114      51.1693  0.038764621  0.043725886            5 
  111000    1.2325187   -6.3995629    51.492413  0.038657968  0.043699747            2 
  112000    1.2460487   -6.3695939    52.083723   0.03875277  0.043677291            2 
  113000    1.2484225   -6.3927868    52.701541  0.038865443   0.04365511            1 
  114000    1.2488093   -6.3888965    52.958901  0.038712647  0.043635954            1 
  115000    1.2150164   -6.4034537    53.360219  0.038666825  0.043606201            4 
  116000    1.2153869   -6.3726698    54.084765  0.038853998  0.043581504            2 
  117000    1.2458764   -6.3686798    54.643879  0.038920141  0.043561424            3 
  118000    1.2184012   -6.3681905    54.971034  0.038821351  0.043538567            3 
  119000    1.2265243    -6.386655    55.241747  0.038684696  0.043509916            3 
  120000    1.2521912   -6.3844247    55.866626  0.038796268  0.043482518            2 
  121000    1.2281749   -6.3980491    56.561942  0.038954505  0.043463645            2 
  122000    1.2113099   -6.3747661    57.169245  0.039050031  0.043454302            2 
  123000    1.2238372   -6.4331472    57.635001  0.039048103  0.043439683            3 
  124000    1.2316374   -6.4076804    58.002419   0.03898012  0.043425854            2 
  125000    1.2158072   -6.3945646    58.867094  0.039244729  0.043411098            1 
  126000     1.223691   -6.3642997    59.475697  0.039335778  0.043402676            3 
  127000    1.2680401   -6.3878289    59.903703  0.039306892  0.043401737            1 
  128000    1.2459724   -6.3762723    60.592426  0.039448194  0.043400562            1 
  129000     1.220199   -6.3679392    61.234035   0.03955687  0.043399979            2 
  130000    1.2555593   -6.3681217    61.863002   0.03965577  0.043410899            1 
  131000    1.2368466   -6.3662803    62.225808  0.039583847  0.043418679            2 
  132000    1.2320685   -6.3786488    62.624772  0.039535841  0.043421131            3 
  133000    1.2194544   -6.3793436    63.342232  0.039688115  0.043423716            1 
  134000    1.2186484   -6.4117059    63.387115  0.039419847  0.043426161            5 
  135000    1.2139916   -6.4064804    64.225415  0.039645318  0.043427834            3 
  136000    1.2034254   -6.3905532    64.536916  0.039544679  0.043426508            2 
  137000    1.2303424   -6.3738246    65.132313  0.039618195  0.043422715            3 
  138000    1.2390953   -6.4014574    65.675223  0.039658951  0.043417138            4 
  139000    1.2306207   -6.3729419      65.9371  0.039530635   0.04340986            1 
  140000    1.2003087   -6.4246238    66.459559  0.039559261  0.043397074            1 
  141000    1.2301286   -6.3901119    67.095219  0.039654385   0.04338774            1 
  142000    1.2225933   -6.3425741     67.99008  0.039900282  0.043382848            2 
  143000    1.2308459   -6.3853263    68.326464  0.039817287   0.04337862            2 
  144000    1.2447313   -6.4135804    68.917648  0.039882898  0.043375969            3 
  145000    1.2115355   -6.3918899    69.198116  0.039769032  0.043374693            2 
  146000    1.2284801   -6.3803147    70.307686  0.040129957  0.043379906            2 
  147000    1.1923809   -6.4024514    70.884958  0.040184217  0.043388811            5 
  148000    1.2273091   -6.4162504    71.373049  0.040187527  0.043402407            3 
  149000    1.2281687   -6.4028854    71.969889  0.040251616   0.04341677            3 
  150000    1.2160238   -6.3545433    72.953671  0.040529817  0.043433101            2 
  151000    1.2271707   -6.4024362    73.312258  0.040459304  0.043453983            3 
  152000    1.2359027   -6.3643875     73.94079  0.040537714  0.043471991            2 
  153000     1.242419   -6.4180812    74.305964  0.040471658   0.04348614            2 
  154000    1.2329612   -6.3641882    74.745131  0.040446499  0.043498101            2 
  155000     1.232428   -6.3838512    75.062226  0.040356035  0.043511579            1 
  156000    1.2373102   -6.3631045    75.941722  0.040567159  0.043523147            1 
  157000    1.2173344   -6.3630868    76.467401  0.040587792   0.04353543            1 
  158000     1.241635   -6.4011902    76.715035  0.040461516  0.043547492            1 
  159000    1.2214024   -6.3811107    77.420744   0.04057691  0.043557136            2 
  160000    1.2044932   -6.3906303    78.295926  0.040779128  0.043570209            2 
  161000    1.2150257   -6.3956137    78.853416  0.040814397  0.043583993            3 
  162000    1.2269428   -6.3933505     79.03389  0.040655293  0.043595503            2 
  163000     1.244863   -6.3968518    79.057966  0.040418183  0.043602564            2 
  164000    1.2386461   -6.3525131    79.668035  0.040481725  0.043604011            9 
  165000     1.219677   -6.3955543    80.534608  0.040674044  0.043602614            2 
  166000    1.2163461    -6.375884    80.873934  0.040599364  0.043604878            2 
  167000    1.2083174   -6.3918086    81.130323  0.040484193  0.043604952            3 
  168000    1.2364087    -6.396984    81.515121  0.040434087  0.043603003            2 
  169000    1.2249749   -6.4414436    82.021275  0.040444416  0.043598469            3 
  170000    1.2362773   -6.4053342     82.07616  0.040233412  0.043593452            2 
  171000    1.2053082   -6.4081869    82.730259   0.04031689  0.043586859            1 
  172000    1.2311751   -6.4207246    83.329682  0.040372908  0.043582544            2 
  173000    1.2303566   -6.3822507    83.943887  0.040435398  0.043575163            5 
  174000    1.2206089   -6.4253192     84.40445  0.040423587  0.043568225            3 
  175000    1.2384162   -6.3863614    84.808407  0.040384956   0.04356033            2 
  176000    1.2271569   -6.3925445    85.208118  0.040344753  0.043550865            1 
  177000    1.2285586   -6.4015424    85.576402  0.040290208  0.043541645            2 
  178000    1.2295782   -6.4150683    86.103256  0.040310513  0.043532414            3 
  179000     1.235235   -6.3892852    86.694491  0.040360564  0.043523816            3 
  180000    1.2207915   -6.3779601    87.263208  0.040399633  0.043513486            4 
  181000    1.2033388   -6.4114297    87.812291  0.040429232  0.043501035            7 
  182000    1.2343661   -6.3954599    88.255565  0.040410057  0.043488601            1 
  183000    1.2130538   -6.3529655    88.790402  0.040432788  0.043476936            2 
  184000    1.2179383   -6.3829666    89.303641   0.04044549  0.043464466            2 
  185000    1.2256928   -6.3919459    89.554927  0.040340057  0.043450526            1 
  186000    1.2098533   -6.3943103    89.998539  0.040321926  0.043436583            2 
  187000    1.2466862   -6.4167271    90.784978  0.040456764  0.043426116            1 
  188000    1.2242573   -6.3602337    91.371884  0.040501722  0.043419732            3 
  189000    1.2107288   -6.4640162     91.36026  0.040282302   0.04340758            1 
  190000    1.2189494   -6.3880566    91.945719   0.04032707  0.043393219            1 
  191000    1.2127228   -6.4255064    92.783078  0.040481273  0.043380469            2 
  192000    1.1708391   -6.3997156    93.231541  0.040465079  0.043367815            4 
  193000    1.2398881   -6.3949401    93.932762  0.040558187  0.043356586            3 
  194000    1.1973173   -6.3912572    94.208832  0.040467711  0.043347669            2 
  195000    1.2091305   -6.3766565    94.847969   0.04053332  0.043339211            2 
  196000     1.224092   -6.4083337    95.200099  0.040476232  0.043332699            2 
  197000    1.2349575    -6.426725    95.537133  0.040413339  0.043324565            1 
  198000    1.2068467   -6.4293319    96.193148  0.040485332    0.0433135            2 
  199000    1.2207567   -6.3845841    96.999406  0.040619517  0.043304025            3 
  200000    1.2353251    -6.397121    97.377767   0.04057407  0.043296878            3 
  201000    1.2170181   -6.4505477    97.812754  0.040552551  0.043290497            3 
  202000    1.2039068   -6.4022316    98.642211  0.040693981  0.043283956            2 
  203000    1.2278833   -6.4015253    98.393901  0.040391585  0.043276238            4 
  204000    1.2245929   -6.4120144    99.277238  0.040554427  0.043267362            2 
  205000    1.2308742   -6.3821278    99.997082   0.04064922  0.043259462            2 
  206000    1.2369626    -6.428677     100.6037   0.04069729  0.043253048            2 
  207000    1.1940089   -6.4379269    101.06196  0.040685168  0.043247535            3 
  208000    1.2361377     -6.46508    101.23189  0.040557648   0.04324118            2 
  209000    1.2202464   -6.4271942    102.08565  0.040704009  0.043233853            4 
  210000    1.2450509   -6.3952108    102.68969  0.040749876  0.043228553            4 
  211000    1.2348578    -6.418719    102.75806  0.040583751  0.043220573            4 
  212000    1.2387377   -6.4031636    102.96634  0.040474189  0.043210534            2 
  213000    1.2401194   -6.4067757    103.91343  0.040654705  0.043201494            3 
  214000    1.2409593   -6.3927284    104.39041  0.040650472  0.043190988            1 
  215000    1.2200757   -6.4412187    104.45418  0.040486118  0.043179295            3 
  216000    1.2521847   -6.4086564     104.8248  0.040441668  0.043166796            3 
  217000    1.2206136   -6.3843648    105.23178  0.040411589  0.043150676            2 
  218000    1.2027099     -6.43662    105.33379  0.040265212  0.043132448            4 
  219000    1.1791906   -6.4460081    105.83276  0.040271218  0.043113275            2 
  220000    1.1929588   -6.4045966    106.79737  0.040453551  0.043098414            1 
  221000    1.2290149   -6.3972937    107.67338  0.040600821  0.043085939            1 
  222000    1.2237341   -6.4086047    107.64617   0.04040772  0.043072029            2 
  223000    1.2068782   -6.4381443     108.5458  0.040562706  0.043060363            2 
  224000    1.2302198   -6.4197542    108.97331  0.040540668  0.043050609            2 
  225000    1.1919413   -6.4182001    109.60745  0.040595352  0.043039737            2 
  226000    1.2285152   -6.4071572    110.45567  0.040728493  0.043031753            1 
  227000    1.2237997   -6.3949643    110.13492  0.040431321  0.043022516            3 
  228000    1.1982517   -6.4228397    111.25789  0.040664432  0.043012466            3 
  229000     1.211621   -6.3889488    111.94964  0.040738588  0.043002895            2 
  230000    1.2163639   -6.3899903    112.21087  0.040656111  0.042992228            2 
  231000    1.1831491   -6.4271832    112.23915  0.040490315  0.042981481            3 
  232000    1.2241589   -6.4326941     112.7152  0.040486782   0.04296936            1 
  233000    1.2321987   -6.4683127    113.67768  0.040657253  0.042958889            2 
  234000    1.2335883   -6.3704266    114.08679  0.040629199  0.042950847            2 
  235000    1.1931192   -6.3936831     114.7184  0.040680282   0.04294335            2 
  236000    1.2136767   -6.3802602     115.6579  0.040839655  0.042935704            2 
  237000    1.2025602   -6.4347359    115.63966  0.040660922  0.042928546            4 
  238000     1.183737   -6.4058487    116.18006  0.040679292  0.042919949            2 
  239000    1.2159152   -6.4509282    116.44769  0.040602402  0.042911767            2 
  240000    1.2270375    -6.408992    116.97623  0.040616745  0.042904293            4 
  241000    1.2090926   -6.4295584    117.34167  0.040574574  0.042896299            2 
  242000    1.2191198   -6.4560832    117.93712  0.040611956  0.042886957            2 
  243000    1.1831941   -6.4067268    118.58358  0.040666524  0.042877421            1 
  244000    1.2094931     -6.40853    118.81324  0.040578293  0.042866175            3 
  245000    1.2261366   -6.4366226    118.88193  0.040436031  0.042854983            3 
  246000    1.2277642   -6.4012167    120.24307  0.040732748  0.042845741            2 
  247000    1.2220862   -6.4117489    119.86464  0.040440162  0.042834776            1 
  248000    1.2299693   -6.3894225    121.11499  0.040697242  0.042825334            5 
  249000    1.2157884    -6.395545    122.27098  0.040920678  0.042819207            2 
  250000    1.2083015    -6.429449    122.25905  0.040753018  0.042813305            1 
  251000    1.1833712   -6.4528548    122.81735  0.040776011  0.042807537            2 
  252000    1.1984236   -6.4288101    123.06539  0.040696227  0.042801579            3 
  253000    1.2001541   -6.4510669    123.42863  0.040655015  0.042793861            3 
  254000      1.21626   -6.4362716    124.32283   0.04078833  0.042786894            2 
  255000     1.215035    -6.441239     124.8568  0.040802875  0.042781686            2 
  256000    1.1932252   -6.3717688    125.40843  0.040823056   0.04277544            1 
  257000    1.2089189      -6.4295    125.66766  0.040748268  0.042769874            1 
  258000    1.2149142   -6.4392757    126.50026  0.040859258   0.04276343            2 
  259000     1.195975   -6.4226146     127.0194  0.040868532  0.042758031            2 
  260000    1.2219611   -6.4308105    127.43265  0.040843796   0.04275211            1 
  261000    1.1903908   -6.4732307    127.25533  0.040630694  0.042746031            2 
  262000    1.1964639   -6.3912342     128.1094  0.040747263  0.042737481            1 
  263000    1.2111531   -6.4680392    128.13332  0.040599911  0.042729832            5 
  264000    1.2116892   -6.4764551    128.83673   0.04066816  0.042721736            2 
  265000    1.1960303   -6.4193034    129.95003   0.04086479  0.042716047            1 
  266000    1.1875213    -6.452062    130.19196  0.040786956   0.04271207            2 
  267000    1.1989106   -6.4359815    131.05403  0.040903256  0.042708647            2 
  268000    1.2208858   -6.3930068    131.88527  0.041009102  0.042707232            3 
  269000    1.2034277   -6.4331974    132.07878  0.040916597  0.042705498            3 
  270000    1.2083933   -6.4005329    132.84993  0.041003064  0.042702918            3 
  271000    1.2004028   -6.4541172    133.06203  0.040916982  0.042701133            1 
  272000    1.1948044   -6.4302762    133.85274  0.041008806  0.042698576            2 
  273000    1.2135358   -6.4131648    133.89754  0.040872264  0.042695121            2 
  274000    1.2085287   -6.4179319    134.33264  0.040855425  0.042690016            1 
  275000     1.227415    -6.474983     134.1696  0.040657456  0.042684372            3 
  276000    1.2204876   -6.4156811    135.53804  0.040923323  0.042677743            2 
  277000    1.2183698   -6.4183559    135.65558  0.040810944  0.042671217            2 
  278000    1.2155913   -6.4408489     136.0069  0.040769454  0.042663214            3 
  279000    1.2250224   -6.4622253    136.06841    0.0406417  0.042655283            3 
  280000     1.202899   -6.4260793    136.94702  0.040758041  0.042646115            5 
  281000    1.2063958   -6.4516593    137.44521  0.040760737  0.042637181            1 
  282000     1.206833   -6.4537051    137.75705  0.040708349  0.042629662            6 
  283000    1.2038123   -6.4623941    137.99805  0.040635469  0.042621046            4 
  284000    1.1744776   -6.4310828    138.54526  0.040652952  0.042612373            2 
  285000    1.2006601   -6.4357857    139.39114  0.040757642  0.042604553            2 
  286000    1.1755559   -6.4529406    139.89478  0.040761881  0.042596409            2 
  287000    1.2005353   -6.4190026    140.17037  0.040699876  0.042587767            2 
  288000    1.2092597   -6.4077423    140.22084  0.040573159  0.042578876            2 
  289000    1.2073683   -6.4249324    141.10686  0.040688252  0.042569521            2 
  290000    1.2128696   -6.4111524     141.4523  0.040647212  0.042559673            3 
  291000    1.2033444     -6.39771    142.23187  0.040730777  0.042550986            3 
  292000    1.1975901   -6.4617486    141.76882  0.040459137  0.042540531            2 
  293000    1.1883411   -6.4155303     142.8336   0.04062389  0.042530177            2 
  294000    1.2035251   -6.4286033    142.96031  0.040521631  0.042519743            2 
  295000    1.2130409   -6.4295985    143.45029  0.040522681  0.042508831            3 
  296000     1.195362   -6.4404979    144.86068  0.040782849  0.042499611            5 
  297000    1.1990782   -6.4219398     145.1641  0.040730669  0.042491113            1 
  298000    1.2147362   -6.4404901    145.51615  0.040692435  0.042483618            3 
  299000    1.2052861   -6.4660018    146.53667  0.040840766  0.042477744            6 
  300000    1.2255974   -6.4120091    147.62797  0.041007769  0.042473123            1 
  301000    1.2030384   -6.4319635    147.73188  0.040900299  0.042468568            3 
  302000    1.2116966   -6.4490309    148.26096  0.040910861  0.042464136            3 
  303000    1.2045581   -6.4556644    148.62479  0.040875904  0.042461997            2 
  304000    1.2242265   -6.4564264    149.10199  0.040872257  0.042458807            1 
  305000    1.1739381   -6.4663364    149.84138  0.040940269  0.042456011            2 
  306000    1.1807777   -6.4468977    150.82884  0.041075393  0.042454241            1 
  307000    1.1850192   -6.4076914    151.19086  0.041039865  0.042452227            4 
  308000    1.2344311   -6.4735466     150.4771  0.040713502   0.04244998            3 
  309000    1.2294631   -6.4368051    151.19721  0.040775947  0.042445898            4 
  310000    1.1902271   -6.5026189    151.23557  0.040654722  0.042440412            3 
  311000    1.2253593   -6.4110964    152.80672  0.040944994  0.042435763            2 
  312000    1.1863677   -6.4308001    153.54368  0.041010599  0.042432913            3 
  313000     1.216242   -6.4705095    154.04869  0.041014029  0.042430478            3 
  314000    1.1926333   -6.4368474    154.72252   0.04106224  0.042429019            6 
  315000    1.2168727   -6.4363896    154.73765  0.040935885   0.04242767            3 
  316000    1.2102986   -6.4321779    154.95458  0.040863549    0.0424257            3 
  317000    1.2055912   -6.4268349    155.32913  0.040833105  0.042421912            2 
  318000    1.2355086   -6.4206148    156.79503  0.041088845  0.042418361            3 
  319000    1.1933567   -6.4648821    157.22787   0.04107311  0.042415506            2 
  320000    1.2231605   -6.4364209    158.18095  0.041192956  0.042413511            3 
  321000    1.1910806   -6.4400426    157.92959  0.040999375  0.042411997            4 
  322000    1.2065105   -6.4392094    158.65541   0.04105989  0.042410963            2 
  323000    1.1836358   -6.4358495    159.12986  0.041055175  0.042410377            3 
  324000    1.2013351   -6.3840172    160.35532  0.041243653  0.042409403            4 
  325000    1.2150766   -6.4661054    160.39814  0.041127727  0.042408732            2 
  326000    1.2020324    -6.445088    160.50742  0.041029504  0.042408735            3 
  327000    1.2132179   -6.4658128     161.3804  0.041126503  0.042409131            1 
  328000    1.1932199   -6.4410506    162.11797  0.041188509   0.04240963            2 
  329000    1.2098141   -6.4586681    162.20858  0.041086265  0.042410322            3 
  330000    1.1822846   -6.4233117    163.04853   0.04117387  0.042411023            2 
  331000    1.1945376    -6.476326    163.60392  0.041189305  0.042410664            1 
  332000    1.1776567   -6.4200721    164.63006  0.041322805  0.042411865            3 
  333000    1.1922326   -6.4741103    164.39624    0.0411402  0.042413139            4 
  334000    1.1930279     -6.44204    165.71486  0.041346022  0.042415898            2 
  335000    1.1918558   -6.4147787    166.78028  0.041487633  0.042419323            2 
  336000    1.2149887   -6.4590738    166.97405  0.041412215  0.042423254            1 
  337000    1.1959792    -6.416707    167.98756   0.04153995  0.042428867            3 
  338000    1.2023663   -6.4641962    167.99059  0.041417799  0.042433464            3 
  339000    1.2089617   -6.4292085    168.55857  0.041435244  0.042437648            2 
  340000     1.218916   -6.4467202     168.8445  0.041383456  0.042441225            9 
  341000    1.1857021   -6.4382766    169.65917  0.041461184  0.042446337            2 
  342000    1.1797956   -6.4389961    170.81373   0.04162128  0.042451103            2 
  343000    1.1788963   -6.4656197    170.39203  0.041397481  0.042455669            1 
  344000    1.1821362   -6.4573896    170.96792  0.041416647  0.042461029            3 
  345000    1.1826896   -6.4641276    171.73422  0.041481697  0.042465768            1 
  346000    1.1918358   -6.4415554    172.65385  0.041583296  0.042470225            2 
  347000    1.2159741   -6.4014768    172.69507  0.041473359  0.042474676            1 
  348000    1.1868896   -6.4549792    172.91139  0.041405985  0.042479139            2 
  349000    1.1790321   -6.4801966    174.03188   0.04155489  0.042482561            1 
  350000    1.2003862   -6.4741176    173.96336  0.041419848  0.042485153            3 
  351000    1.1819994   -6.4893198    174.02735  0.041317034  0.042487123            2 
  352000    1.1839855   -6.4689355     175.0257   0.04143601  0.042488179            3 
  353000    1.1933391   -6.4341072    175.51015   0.04143299  0.042489649            1 
  354000    1.2019858   -6.4560733    176.14005   0.04146423   0.04249208            1 
  355000    1.1801968   -6.4314095    177.54218  0.041676567  0.042495018            2 
  356000    1.2018502   -6.4805069     176.3973  0.041291502  0.042497669            2 
  357000    1.1759138   -6.4447028    177.05361  0.041329041  0.042499419            2 
  358000    1.2002293   -6.4362471    177.89518  0.041409493  0.042500482            1 
  359000    1.2006789    -6.450385    177.93608   0.04130364  0.042500818            1 
  360000    1.2070976   -6.4694731    178.30287  0.041273814  0.042500483            2 
  361000    1.2252862   -6.4572513    178.95419  0.041309832  0.042499767            2 
  362000    1.2131223   -6.4493901    179.25448  0.041264843  0.042498842            1 
  363000    1.1784084   -6.4341894    179.91196  0.041302102  0.042498283            2 
  364000    1.1884177   -6.4963364    180.74424  0.041379176   0.04249818            2 
  365000     1.206161   -6.4958992    179.60424  0.041005535  0.042497848            3 
  366000    1.1843693   -6.4744143    181.30541   0.04128083  0.042496923            2 
  367000    1.2043853   -6.4492266    181.86572  0.041295578  0.042495683            3 
  368000    1.1854676   -6.4712241    182.02033  0.041218373  0.042494663            2 
  369000    1.1965828   -6.4282909    182.21937  0.041151619  0.042493611            1 
  370000    1.1953912   -6.4763387    182.61148  0.041128712  0.042491804            2 
  371000     1.179999   -6.4247259    183.44363  0.041204769  0.042489922            3 
  372000    1.1953258   -6.4549795    183.75052  0.041162751  0.042487867            2 
  373000    1.1952786   -6.4915751    182.97697  0.040879573  0.042483912            2 
  374000    1.1915152   -6.4525928    184.23281  0.041050091  0.042478956            2 
  375000    1.1896524   -6.4726765    184.26975  0.040948832  0.042473501            1 
  376000    1.1891733   -6.4899938    184.53862  0.040899516  0.042467819            2 
  377000    1.1964609   -6.4516551    185.30791  0.040961076  0.042461524            3 
  378000    1.1916234   -6.4488047     185.3068   0.04085247  0.042454018            2 
  379000    1.1810489   -6.5047572     185.6015  0.040809476  0.042446921            3 
  380000    1.1964289   -6.4698777    186.42843  0.040883428   0.04243983            2 
  381000    1.1780966   -6.4581173    187.26943  0.040960069  0.042433009            2 
  382000    1.1796355   -6.4967528    187.21363   0.04084067  0.042425583            1 
  383000    1.1898969   -6.4641868    188.09931  0.040926742   0.04241788            1 
  384000    1.2209028    -6.426047    188.85162  0.040983425    0.0424111            5 
  385000    1.1824215   -6.4505491    189.23234   0.04095938  0.042404791            2 
  386000    1.1890898   -6.4658961    190.23799  0.041070378  0.042398818            2 
  387000     1.190732    -6.427129    190.91014  0.041108988  0.042394446            3 
  388000    1.2008781   -6.4668296    191.16931    0.0410587  0.042390272            3 
  389000    1.1796021   -6.4560971    191.20826  0.040961496  0.042384129            3 
  390000    1.2076958   -6.4725192    192.31968  0.041093949   0.04237959            4 
  391000    1.2003383   -6.4798295     192.2812  0.040980647  0.042375457            1 
  392000     1.208598   -6.4897761    192.84996  0.040997016  0.042370278            2 
  393000    1.1696706   -6.4465045    193.65422  0.041063237   0.04236575            4 
  394000    1.2335794   -6.4494945    195.21347  0.041288805  0.042363411            2 
  395000    1.1959343   -6.4696804    194.95112  0.041128928  0.042360867            2 
  396000    1.1846319   -6.4711045    194.88725  0.041011626  0.042357347            4 
  397000    1.1771486   -6.4576221    195.55518  0.041048527   0.04235329            2 
  398000    1.1803701   -6.4338509    196.64445  0.041173461  0.042350048            3 
  399000    1.1848973   -6.4817665    196.89304  0.041122189  0.042346432            2 
  400000    1.1743081   -6.4369538    197.13919  0.041070664  0.042343378            2 
  401000    1.2194859    -6.461305    197.63079  0.041070405  0.042339945            2 
  402000    1.1818452   -6.4743557    197.90747  0.041025595  0.042335918            2 
  403000     1.197086    -6.502948    198.88319  0.041125556  0.042331661            2 
  404000    1.1618673   -6.4115385    199.78008  0.041208763  0.042328055            1 
  405000     1.183619     -6.48554    199.33123  0.041014656  0.042324236            2 
  406000    1.1868126   -6.4718841    200.28743    0.0411099  0.042320096            3 
  407000    1.1781804   -6.4905501    200.12809  0.040976268  0.042316904            1 
  408000    1.1753267   -6.4770505    201.17575  0.041089819  0.042313847            2 
  409000    1.1711025    -6.454865    202.49689  0.041258534  0.042310202            3 
  410000    1.1537034    -6.480787    202.58605  0.041176027  0.042306374            2 
  411000    1.1915417   -6.4391309    202.42651  0.041043494  0.042301753            6 
  412000    1.1962984   -6.4662897    202.70811   0.04100083  0.042296057            1 
  413000    1.1947731   -6.4159466    204.34266  0.041231368   0.04229056            2 
  414000    1.1649063   -6.4696063    203.03108   0.04086777  0.042284542            4 
  415000    1.1969494   -6.4766026    203.45002  0.040853417  0.042278012            4 
  416000    1.2044997   -6.4896455     204.1566  0.040896754  0.042271352            1 
  417000    1.1770688   -6.4329395    205.18284  0.041003764  0.042265528            2 
  418000    1.1591239   -6.4660364    205.67483  0.041003753  0.042258748            2 
  419000    1.1659271   -6.5074934    205.17826  0.040807132  0.042252766            2 
  420000    1.1745791   -6.4716047     206.4548  0.040963254  0.042246344            2 
  421000     1.184268    -6.444041     207.3801  0.041049109  0.042241257            2 
  422000    1.2095344   -6.4667914    207.34353  0.040944615  0.042236169            3 
  423000    1.1598233   -6.4556813    208.40086  0.041056119  0.042232221            2 
  424000     1.183011   -6.4669334    208.75955  0.041029786  0.042228653            2 
  425000    1.1826539   -6.4865859    209.10365  0.041000715  0.042223906            3 
  426000    1.2031951    -6.445931    209.99862  0.041079542  0.042219756            1 
  427000      1.19068   -6.4502394    210.51197  0.041083523  0.042217114            3 
  428000    1.2043888   -6.4502181    211.23008  0.041127352  0.042214196            3 
  429000    1.1615025   -6.4875904    212.01397  0.041183755  0.042211587            2 
  430000     1.182744   -6.4413471    212.48684  0.041179619  0.042209179            6 
  431000    1.1713009   -6.4772789    212.55944  0.041098112  0.042206946            2 
  432000    1.1759362   -6.4196404    214.50459    0.0413782  0.042205686            5 
  433000    1.2084658   -6.4398118    214.67682  0.041315785  0.042205221            3 
  434000    1.1729015    -6.482036    215.31554   0.04134323  0.042205921            4 
  435000    1.1759402   -6.4550125    215.92549  0.041365036  0.042205834            2 
  436000    1.1807929   -6.4930459    215.89207  0.041263774  0.042206421            3 
  437000     1.165522   -6.4781155    216.84208   0.04135051  0.042207378            6 
  438000    1.1777379   -6.4547806     217.6935  0.041418093  0.042208266            3 
  439000    1.1730183   -6.4783857    217.84142  0.041351826  0.042208897            2 
  440000    1.1629001   -6.4533118    218.12362  0.041311292  0.042210094            4 
  441000    1.1650921   -6.4542817    218.60754  0.041309058  0.042209965            2 
  442000    1.2101986   -6.4821483    218.63889  0.041221511  0.042208846            1 
  443000    1.2052305   -6.4671608     219.2194  0.041237659  0.042207078            1 
  444000     1.174348   -6.4648511    220.29369  0.041346414   0.04220533            1 
  445000    1.2059124   -6.4749937    220.58596  0.041308232  0.042204703            1 
  446000    1.2385669   -6.4630165    220.50669  0.041200801  0.042203027            3 
  447000    1.1889995   -6.5163763    220.49369  0.041106206   0.04220057            5 
  448000     1.203385    -6.472523    221.07702  0.041122958  0.042197524            2 
  449000    1.1631477    -6.489336    221.92353   0.04118848  0.042195119            4 
  450000    1.1845582   -6.4875961    221.50693  0.041019801  0.042192413            4 
  451000    1.1761602   -6.4835052    222.02349  0.041024297  0.042189102            3 
  452000    1.1962196   -6.4421353    223.49877  0.041205525  0.042185577            1 
  453000     1.168908   -6.4616389    223.10961  0.041042975  0.042182259            3 
  454000    1.1631881   -6.5106316    223.59656  0.041041953  0.042177926            2 
  455000    1.2014408    -6.494786    223.71128  0.040972761  0.042172404            2 
  456000    1.1847363   -6.4933292    223.77322  0.040894229  0.042166792            3 
  457000    1.1935961   -6.4577397    224.41324  0.040921451  0.042160966            2 
  458000    1.1938741   -6.5039548     224.2301   0.04079878  0.042155001            2 
  459000     1.185138   -6.4970659      224.958  0.040842048  0.042148785            4 
  460000    1.1608302    -6.535828     224.6957  0.040705742  0.042141813            2 
  461000    1.1677733   -6.4927714    225.55495  0.040772768  0.042134779            3 
  462000    1.2016858   -6.4687119    226.34646  0.040827283  0.042127853            1 
  463000    1.2089778   -6.4832415    226.94857  0.040847475   0.04212158            3 
  464000    1.1432743   -6.4660528    227.61953  0.040879944  0.042116326            3 
  465000     1.163598   -6.4700666    228.33309  0.040919909  0.042110647            1 
  466000    1.1874061   -6.5088431    228.65009  0.040888786  0.042105584            1 
  467000    1.1614412   -6.4689122    229.66045  0.040981522   0.04210045            2 
  468000    1.1620132   -6.5038673    229.65032   0.04089215  0.042095399            5 
  469000    1.1871451   -6.4932647    230.31841   0.04092367   0.04209044            5 
  470000    1.1777706   -6.4631436    231.99874  0.041134528  0.042085919            1 
  471000    1.1446389   -6.4811259     231.1457  0.040896267  0.042081362            4 
  472000    1.1576062   -6.4666989    232.14778  0.040986543   0.04207666            1 
  473000    1.1756827   -6.5284238    231.94108  0.040863475  0.042072267            2 
  474000    1.1607551   -6.4615622    233.52551  0.041055821  0.042068926            3 
  475000     1.217616   -6.4402323    234.27216  0.041100379  0.042065529            4 
  476000    1.1976298   -6.5029173      233.893  0.040947654  0.042062482            2 
  477000    1.1818405   -6.5189086    235.27202  0.041102728   0.04205989            2 
  478000    1.1869227     -6.50981    235.41325  0.041041361  0.042056996            4 
  479000    1.1788458   -6.4857661    236.58327  0.041159232  0.042054597            4 
  480000    1.1958871   -6.5087904    236.64885  0.041084869  0.042052402            3 
  481000    1.1759235   -6.4755724    237.72952   0.04118668  0.042049805            3 
  482000    1.1849234   -6.4511525    238.19351  0.041181451  0.042047677            2 
  483000    1.1776232   -6.4397456    238.75115    0.0411924  0.042045586            4 
  484000    1.1726566   -6.4831949    239.43172  0.041224469  0.042043156            3 
  485000    1.1866123    -6.493942    239.38389  0.041131253  0.042040976            2 
  486000    1.1852745   -6.4898724    240.59238  0.041253838  0.042039586            1 
  487000    1.1668531   -6.5100096    240.53363  0.041159074  0.042037719            2 
  488000    1.2048493   -6.4514729    241.12936  0.041176461   0.04203552            2 
  489000    1.1759128   -6.5105694    240.84331   0.04104351  0.042033239            5 
  490000    1.1522986   -6.4761907    242.06564  0.041167625  0.042030384            3 
  491000    1.1697899   -6.5158857    241.72774  0.041026433  0.042027406            6 
  492000    1.1838283   -6.4662467    242.78277  0.041121742  0.042023959            2 
  493000     1.158383   -6.5051027    242.20673  0.040940961  0.042021113            4 
  494000    1.1899637   -6.4576222    243.61158   0.04109507  0.042018371            3 
  495000    1.1576268    -6.480958    243.96317   0.04107124  0.042015529            4 
  496000    1.1602998   -6.5134744    245.12182  0.041183101  0.042013129            3 
  497000    1.1758679   -6.4781335    245.33869  0.041136601  0.042010055            3 
  498000    1.1912091   -6.5148331    245.45422  0.041073329  0.042006667            3 
  499000    1.1468505   -6.5204152    245.13277  0.040937336  0.042002898            2 
  500000    1.1381955   -6.4932383    246.07053  0.041011755   0.04199851            2 
  501000    1.1923359   -6.4723849    246.12127  0.040938334  0.041994366            3 
  502000    1.1638759   -6.4747993    246.06136  0.040846839  0.041989243            7 
  503000    1.1994955   -6.4737951    247.45614  0.040996709  0.041984286            1 
  504000     1.177332    -6.467878    247.84516  0.040979689  0.041979924            2 
  505000    1.1651803   -6.4781372    248.18498  0.040954618  0.041975991            2 
  506000    1.1540148   -6.4671861    249.23245  0.041046187  0.041972006            2 
  507000      1.14332   -6.5112855    248.82678   0.04089855  0.041967678            4 
  508000    1.1932393    -6.485873    249.18795  0.040877288  0.041962952            3 
  509000    1.1920645   -6.4991946    250.01662   0.04093265  0.041958637            2 
  510000    1.1778505   -6.5146628     249.5909  0.040782827  0.041953399            6 
  511000    1.1558707   -6.4760548    250.97419  0.040928603  0.041948008            1 
  512000    1.1663283   -6.4795524    250.56085  0.040781388   0.04194284            1 
  513000     1.149486   -6.4947252    251.25254  0.040814253  0.041937368            3 
  514000    1.1499286   -6.4868552    251.82814  0.040828168  0.041932661            3 
  515000    1.1474031   -6.5063338    253.30413  0.040987723  0.041927425            2 
  516000    1.1703779   -6.4922407    253.42178   0.04092729  0.041922463            2 
  517000    1.1585514   -6.4769989    253.60615  0.040877845  0.041916548            3 
  518000    1.1679472   -6.5055001    253.50412  0.040782516  0.041910271            4 
  519000    1.1671759   -6.4925763    254.00221  0.040783912  0.041903883            1 
  520000    1.1827845   -6.4754907     254.5744  0.040797179  0.041897736            4 
  521000    1.1639289   -6.4617773    255.50273  0.040867359  0.041891514            4 
  522000    1.1622347    -6.473561    255.31452  0.040759023   0.04188494            2 
  523000    1.1707072   -6.5271475    255.12108  0.040650268  0.041877567            2 
  524000    1.1636177   -6.4776728    256.41613  0.040778647  0.041870204            3 
  525000    1.1663076   -6.5081567    256.21891  0.040669668  0.041862967            4 
  526000    1.1650224   -6.5298278    255.49623  0.040477857   0.04185592            4 
  527000    1.1785821    -6.485188    256.49966  0.040559719  0.041848504            2 
  528000    1.1583626   -6.4919097     257.1058  0.040578567   0.04184101            2 
  529000    1.1445219   -6.5064016    256.97118  0.040480653  0.041833212            2 
  530000    1.1285222    -6.486965    257.84413  0.040541529  0.041825406            1 
  531000    1.1504924   -6.5009171    258.29285  0.040535601   0.04181712            1 
  532000    1.1772242   -6.5170367    257.95552  0.040406567  0.041808437            2 
  533000    1.1556047   -6.4561256    259.30831  0.040542263  0.041799087            2 
  534000    1.1371762   -6.5584181    258.60309  0.040356288  0.041789872            3 
  535000    1.1668171   -6.5356587    259.88988  0.040481289  0.041780312            2 
  536000    1.1746329   -6.5298963    260.02371  0.040426572  0.041771197            1 
  537000    1.1454314   -6.5028379    260.03516  0.040353067  0.041762526            2 
  538000    1.1862311   -6.4717558    261.07634  0.040439334  0.041753122            1 
  539000    1.1449378   -6.4474642    261.56763  0.040440264  0.041744118            1 
  540000     1.201593   -6.4982511    261.52737  0.040359162  0.041735048            2 
  541000    1.1543254   -6.5177985    261.76063  0.040320491  0.041725657            2 
  542000    1.1870023   -6.4953969    262.77128  0.040401489   0.04171638            4 
  543000    1.1885791   -6.4706102    262.71646  0.040318671  0.041707039            3 
  544000     1.197555   -6.5182917    262.87457  0.040268776  0.041698124            3 
  545000    1.1781857   -6.5003367    263.83366  0.040341538  0.041688811            2 
  546000     1.159797   -6.4929188    264.63533  0.040390007  0.041679782            5 
  547000     1.160679   -6.5020752    265.63182   0.04046798  0.041670783            2 
  548000    1.1544723   -6.5512254    265.64919  0.040396774  0.041661997            5 
  549000    1.1642558   -6.5378352    265.62717   0.04031985  0.041654261            2 
  550000    1.1429852   -6.5235655    266.97397  0.040450602  0.041646772            3 
  551000    1.1751439   -6.4659415    267.48322  0.040454208  0.041639084            3 
  552000    1.1585746   -6.4928842    267.28568    0.0403511   0.04163081            1 
  553000    1.1610825   -6.5212398    268.10023  0.040400878  0.041622763            2 
  554000     1.172245   -6.5166616    267.93931  0.040303747  0.041614127            1 
  555000    1.1549416   -6.4937104    268.27095  0.040280923   0.04160528            2 
  556000    1.1755519   -6.5075643    269.01385  0.040319821  0.041596289            2 
  557000    1.1382366    -6.489716    269.67226  0.040345939   0.04158675            2 
  558000     1.147186   -6.4926119    269.51736  0.040250502  0.041577999            3 
  559000     1.162817   -6.5331336    269.10358  0.040116812   0.04156879            3 
  560000    1.1755901   -6.5213686     270.2566  0.040216756  0.041559654            1 
  561000     1.169246    -6.536552    271.06968  0.040265847  0.041550562            3 
  562000    1.1474493   -6.5034661    271.68898  0.040286028  0.041541924            2 
  563000    1.1660591   -6.4914343    273.08904  0.040421705  0.041533643            2 
  564000    1.1644965   -6.5244974    273.51213  0.040412549  0.041525818            3 
  565000    1.1819472   -6.5185328    273.89272  0.040397157  0.041517635            3 
  566000    1.1568074   -6.4849297    275.30123   0.04053316  0.041510386            4 
  567000    1.1661763    -6.510359    273.79727  0.040240633  0.041502467            4 
  568000    1.1733655   -6.5171543    275.20855  0.040376841  0.041494327            1 
  569000    1.1812014   -6.4972993    275.54726  0.040355486   0.04148629            3 
  570000    1.1335989   -6.5256199    275.13826  0.040224891  0.041478272            3 
  571000    1.1530804   -6.4758469    276.37553  0.040335016  0.041469799            1 
  572000    1.1374644   -6.4817631    276.88112  0.040338159  0.041461752            2 
  573000    1.1604102   -6.5356284    276.60946  0.040228252   0.04145401            1 
  574000    1.1552747   -6.5208425    277.46408  0.040282241  0.041446192            2 
  575000     1.171564    -6.520796    278.05146  0.040297313   0.04143854            3 
  576000    1.1730575   -6.5399239    277.74878  0.040183562  0.041430401            4 
  577000    1.1500525   -6.5305716    278.31185  0.040195242  0.041422381            2 
  578000    1.1655766   -6.5443994     279.4352  0.040287658  0.041414515            3 
  579000    1.1590147   -6.4721144    280.54001  0.040377089  0.041407599            5 
  580000    1.1555844   -6.5354135    280.61302  0.040317963  0.041399824            2 
  581000    1.1269047   -6.5634587    280.00367  0.040161168  0.041391831            4 
  582000    1.1875848   -6.5134268    280.51636  0.040165573  0.041384044            3 
  583000    1.1363554   -6.5234813    281.90392  0.040295014  0.041376603            1 
  584000    1.1283303   -6.5329211    281.62089  0.040185629  0.041368739            2 
  585000    1.1581559   -6.5373795    283.48548  0.040382547   0.04136078            3 
  586000    1.1542863   -6.4963233    283.70096  0.040344278  0.041353208            3 
  587000    1.1845974   -6.5568491    283.38559  0.040230777  0.041345858            3 
  588000     1.132647   -6.5252674     283.6626  0.040201616  0.041337833            1 
  589000     1.164116   -6.5400945    284.33434  0.040228402  0.041329756            2 
  590000    1.1763634   -6.5303535    284.96243  0.040248931  0.041321748            2 
  591000    1.1714806   -6.5154388    285.97598  0.040323742  0.041314618            4 
  592000    1.1574406    -6.518891    285.70336  0.040217252  0.041307572            2 
  593000     1.167054   -6.5004908    286.83142  0.040307957  0.041300224            1 
  594000    1.1751756   -6.5101675    287.06307  0.040272596  0.041292644            2 
  595000     1.155967   -6.4843104    288.11793  0.040352651  0.041285218            2 
  596000    1.1452329   -6.4961075    287.10592  0.040143445  0.041278168            3 
  597000    1.1424409   -6.4769753    288.30605  0.040243725  0.041270978            2 
  598000    1.1868741   -6.5348836    288.69978  0.040231296   0.04126344            2 
  599000    1.1792401   -6.5438291    288.46344  0.040131252  0.041256542            4 
  600000    1.1565867   -6.5716772     288.6512  0.040090445  0.041249313            3 
  601000     1.173815   -6.5514552    289.41196  0.040129223  0.041241846            2 
  602000    1.1325844   -6.5291405    289.86506  0.040125286  0.041234781            8 
  603000     1.151384   -6.5204068    290.98281  0.040213212  0.041227694            1 
  604000    1.1429283   -6.5121794    291.56511  0.040226975  0.041220243            3 
  605000    1.1645185   -6.5549341    291.77617  0.040189555  0.041212367            5 
  606000    1.1466047   -6.5643628    291.59387  0.040098166  0.041204676            2 
  607000    1.1418629   -6.5067158    292.69559  0.040183359   0.04119656            9 
  608000     1.158705   -6.5318129    292.34823  0.040069659  0.041188686            4 
  609000    1.1496361   -6.5248733    292.60161  0.040038534  0.041180845            2 
  610000    1.1665503   -6.5120129    292.96425  0.040022438  0.041172547            3 
  611000    1.1597291   -6.5431104    292.50467  0.039894254  0.041164266            2 
  612000    1.1470313   -6.5181085    294.26663  0.040068985  0.041155376            4 
  613000    1.1448376   -6.4982068    294.10246  0.039981303  0.041147068            1 
  614000    1.1675808   -6.4990194    295.92629   0.04016372  0.041139093            2 
  615000    1.1476383    -6.540803    294.97771  0.039969879  0.041131356            2 
  616000       1.1806   -6.5239945    295.98752  0.040041602  0.041123325            6 
  617000    1.1277326   -6.5508748    296.55883  0.040053866  0.041115246            2 
  618000    1.1562455   -6.5130826    296.37237  0.039963912  0.041107235            3 
  619000     1.177481   -6.5224021    297.14175  0.040002928  0.041098957            2 
  620000    1.1516803   -6.5265782    297.80326   0.04002732  0.041090798            2 
  621000    1.1766443   -6.5278271    299.18943  0.040148876  0.041083234            3 
  622000    1.1318388   -6.5266104    298.50439   0.03999255  0.041075643            2 
  623000    1.1577959   -6.5026816    297.91838  0.039849971  0.041067763            1 
  624000    1.1636509    -6.543675    298.72385  0.039893677  0.041059692            2 
  625000    1.1610555   -6.5324532    300.91068  0.040121424  0.041052074            2 
  626000     1.143402   -6.5390005    299.39932  0.039856139  0.041043999            7 
  627000    1.1746788    -6.499817    301.42464  0.040061754  0.041036318            3 
  628000    1.1451732   -6.5326409    302.71515  0.040169208  0.041029094            1 
  629000    1.1249394   -6.5265504    301.54748  0.039950647  0.041021178            2 
  630000    1.1298975   -6.5366524    301.74422  0.039913257  0.041012763            4 
  631000    1.1567498   -6.5375565    302.79816  0.039989191  0.041004249            3 
  632000    1.1448218   -6.4932306    303.32153  0.039994928  0.040996385            2 
  633000    1.1728856   -6.5151853    303.88416  0.040005813  0.040988631            2 
  634000    1.1312429   -6.5708128    303.08858  0.039838142  0.040980657            3 
  635000    1.1327945   -6.5554818    303.50026  0.039829431  0.040973173            4 
  636000     1.175283   -6.5652308    304.31231  0.039873207  0.040965159            4 
  637000    1.1674931   -6.5306748    304.76091  0.039869297  0.040956692            2 
  638000    1.1225972   -6.5649407    304.95021  0.039831532  0.040948404            1 
  639000    1.1412468   -6.5426146    305.00831  0.039776775  0.040939606            4 
  640000    1.1399957   -6.5500768    306.00799   0.03984479  0.040930475            2 
  641000    1.1423671   -6.5769083    306.52648  0.039850037  0.040921143            2 
  642000    1.1313645   -6.5330893    306.69796  0.039810224  0.040912142            3 
  643000    1.1233429   -6.5772986    307.50214  0.039852533  0.040903394            3 
  644000    1.1417721    -6.529301    308.34486  0.039899697  0.040895069            2 
  645000     1.118781   -6.5417137    308.60589  0.039871563  0.040886935            1 
  646000    1.1241255   -6.5769202    308.01557   0.03973369  0.040878892            2 
  647000    1.1469252   -6.5455605     308.3761  0.039718714  0.040870156            2 
  648000     1.124143   -6.5324059    309.33095  0.039780215  0.040861916            2 
  649000    1.1336599   -6.5633408      310.522  0.039871855  0.040854069            2 
  650000    1.1631758   -6.5585563    310.50421  0.039808232  0.040845781            5 
  651000    1.1471446   -6.5620931     311.1916  0.039835074  0.040838282            2 
  652000    1.1275481   -6.5457635    311.39413  0.039799863  0.040830644            5 
  653000    1.1473676   -6.5550193    311.45124  0.039746202  0.040822045            2 
  654000    1.1479519   -6.5315663    311.59626  0.039703906  0.040813215            3 
  655000    1.1487318   -6.5772575    311.90527  0.039682605  0.040804822            2 
  656000    1.1766865   -6.5869837    313.10381  0.039774366  0.040796426            4 
  657000    1.1414762   -6.5708375    313.00542  0.039701347  0.040788084            8 
  658000    1.1232183   -6.5669883    313.35022  0.039684679  0.040780225            4 
  659000    1.1556968    -6.536096    315.19253  0.039857426  0.040772775           10 
  660000    1.1633527   -6.5477951    314.90554    0.0397608  0.040765339            4 
  661000    1.1374662   -6.5912495    315.86688  0.039821845  0.040757481            2 
  662000    1.1599155   -6.5452782    316.02964   0.03978218  0.040749412            2 
  663000     1.140102   -6.5420842    316.65203  0.039800407  0.040741651            2 
  664000    1.1447361   -6.5374215    318.40368  0.039960301  0.040734303            1 
  665000    1.1481514   -6.5506173     317.8293  0.039828233  0.040727429            3 
  666000    1.1428351   -6.5322276    318.00757  0.039790737  0.040720702            4 
  667000    1.1380963   -6.5145492    319.65503   0.03993691  0.040714156            3 
  668000    1.1546365   -6.5575791    318.19604  0.039695115   0.04070718            4 
  669000    1.1712766   -6.5574738    320.71793  0.039949917  0.040699942            3 
  670000    1.1466528   -6.5228514    321.07934  0.039935241  0.040693512            2 
  671000    1.1347204   -6.5594989    320.60736  0.039817108  0.040686681            5 
  672000    1.1676686   -6.5453286    320.17616  0.039704385  0.040679498            4 
  673000    1.1192483   -6.5435545    321.12113  0.039762398  0.040672646            4 
  674000    1.1385401   -6.5888295    321.85823  0.039794539  0.040665897            2 
  675000    1.1281784   -6.5508463    322.39756  0.039802168  0.040659303            2 
  676000    1.1367012   -6.5494506    323.80005  0.039916179  0.040652424            2 
  677000    1.1565543    -6.521943    324.24079  0.039911471  0.040645839            6 
  678000    1.1559772   -6.5414852    323.80763  0.039799364  0.040639796            2 
  679000    1.1419144    -6.548999    324.30856  0.039802228  0.040633357            3 
  680000    1.1500287   -6.5289222    326.12425  0.039966208   0.04062718            2 
  681000     1.097921   -6.5566173    324.92202  0.039760403  0.040621106            4 
  682000    1.1855472   -6.5220993    326.77284  0.039928255  0.040615009            4 
  683000    1.1555693   -6.5641115    326.24948   0.03980594  0.040608522            3 
  684000    1.1482347   -6.5483666    326.63605  0.039794841  0.040601805            3 
  685000    1.1348764   -6.5218834    327.98045  0.039900298  0.040595272            2 
  686000    1.1341484   -6.5386832    327.58593  0.039794209  0.040588843            2 
  687000    1.1730463   -6.5545199    329.39195  0.039955355  0.040583207            2 
  688000    1.1419609   -6.5581808    328.68113  0.039811183  0.040577425            3 
  689000    1.1660435   -6.5367125    330.14123  0.039929998   0.04057175            2 
  690000    1.1431858   -6.5799955    329.25761  0.039765412   0.04056551            3 
  691000     1.134327   -6.5685178    329.23306  0.039704904  0.040558911            2 
  692000    1.1272447   -6.5597587    329.62977    0.0396953  0.040552019            2 
  693000    1.1560828   -6.5642188    329.40574   0.03961108  0.040545191            8 
  694000    1.1361274   -6.5642592     330.9568   0.03974025  0.040538957            2 
  695000    1.1391033   -6.5819491    330.77172  0.039660877  0.040532193            4 
  696000    1.1441883    -6.574014    330.73176   0.03959911   0.04052516            2 
  697000    1.1191809   -6.5468042    331.90333  0.039682368  0.040518348            2 
  698000    1.1200611   -6.5331992     333.0634  0.039764016  0.040511493            2 
  699000    1.1403301   -6.5415461    332.61305  0.039653439  0.040504114            3 
  700000    1.1398516   -6.5578081    332.77797  0.039616425  0.040497214            3 
  701000    1.1275067   -6.5505588    332.25329  0.039497538  0.040489975            3 
  702000    1.1474265   -6.5566468    333.56924  0.039597488  0.040482868            1 
  703000    1.1282454   -6.6103485      333.742  0.039561641  0.040475563            2 
  704000    1.1326274   -6.5733134    332.86875  0.039402077  0.040468087            2 
  705000    1.1206594    -6.590072    333.99746  0.039479605  0.040460728            3 
  706000    1.1531504   -6.5630879    334.44671  0.039476713  0.040453382            2 
  707000    1.1456034   -6.5475594    335.93875  0.039596741  0.040445978            2 
  708000    1.1500542   -6.5275494    335.60756  0.039501831  0.040438782            2 
  709000    1.1215142   -6.5921466    336.73686   0.03957885  0.040431278            2 
  710000    1.1105739   -6.5761481    337.52893  0.039616072  0.040424044            4 
  711000    1.1446045   -6.5697391    337.53164  0.039560671    0.0404171            3 
  712000    1.1193053   -6.5528134    337.05651  0.039449498  0.040409819            1 
  713000    1.1298688   -6.5571611    339.04077  0.039626083  0.040402729            2 
  714000    1.1537475   -6.5305817    338.69313   0.03953001  0.040395424            2 
  715000    1.1200159   -6.5966235    339.00761  0.039511376  0.040388297            3 
  716000    1.1637875    -6.593126    338.18785  0.039360784  0.040380881            2 
  717000    1.1268915   -6.5601809    340.51073  0.039575863  0.040373764            8 
  718000    1.1250239   -6.5681724    339.90266  0.039450169  0.040366333            2 
  719000    1.1498053   -6.6132314     341.2414  0.039550464  0.040358834            4 
  720000    1.1522293   -6.5828883    340.97902  0.039465164  0.040351307            1 
  721000    1.1373734    -6.570241    341.74836  0.039499348  0.040343662            4 
  722000    1.1507688   -6.5342568    341.93027  0.039465636  0.040335932            3 
  723000     1.135641   -6.5755829    342.02225  0.039421652  0.040327984            3 
  724000    1.1456798   -6.5717232    342.13488  0.039380166  0.040320042            2 
  725000    1.1278766   -6.5544022    342.84747  0.039407755    0.0403122            2 
  726000    1.1303256   -6.5754323    342.20781  0.039280051  0.040304386            2 
  727000    1.1635351   -6.5402744    343.31605  0.039353055  0.040296588            3 
  728000    1.1316573   -6.6046629    343.75418   0.03934915  0.040288614            1 
  729000    1.1132967   -6.5939639     343.5991  0.039277446  0.040279954            2 
  730000    1.1182542   -6.5907448    343.84769   0.03925202  0.040271385            2 
  731000    1.1437227   -6.5820433    343.94187   0.03920906  0.040262718            3 
  732000    1.1599625   -6.5489058    346.30754  0.039424811  0.040254114            6 
  733000    1.1524062   -6.5700351    345.80182  0.039313531  0.040245759            2 
  734000    1.1576386   -6.5901981    344.86481  0.039153589  0.040237322            5 
  735000    1.1305125   -6.5473177    346.36974  0.039270945  0.040228318            2 
  736000    1.1498187   -6.6200433    344.97174    0.0390593   0.04021951            3 
  737000    1.1388334   -6.5715644    347.32469  0.039272353  0.040211006            3 
  738000    1.1384617   -6.5517935    346.44051  0.039119299  0.040203129            3 
  739000     1.136505   -6.5922428    348.23479  0.039268695  0.040194991            2 
  740000     1.118923   -6.5354339    349.72535  0.039383486  0.040186928            2 
  741000     1.118507   -6.5910894    349.25512  0.039277454  0.040179156            2 
  742000     1.114709   -6.5855096    348.89581  0.039184166  0.040171268            2 
  743000    1.1264266   -6.5589122    350.72809  0.039336932  0.040163519            2 
  744000    1.1337867   -6.5318409    351.17549  0.039334172   0.04015562            3 
  745000    1.1311483   -6.5712474    351.70704  0.039340832  0.040147825            3 
  746000    1.1156389   -6.5672356    352.27822  0.039351901  0.040140776            2 
  747000    1.1308829   -6.5530516    352.29373  0.039300952  0.040133117            2 
  748000    1.1240662   -6.5786001     352.1752  0.039235205  0.040125826            3 
  749000    1.1258363   -6.5476143    353.15631   0.03929198  0.040118814            4 
  750000    1.1167321   -6.6095562    355.39463  0.039488292  0.040111789            2 
  751000    1.1518758   -6.5585332    354.54441  0.039341368  0.040104628            3 
  752000    1.1250365   -6.5890116    354.39089   0.03927204  0.040097819            2 
  753000    1.1344885   -6.5607524    354.65553  0.039249173  0.040090934            2 
  754000    1.1263221   -6.5595181     355.8352  0.039327498  0.040084089            3 
  755000    1.1131071   -6.5557192    356.12215   0.03930708   0.04007718            2 
  756000    1.1061359   -6.6145933    356.28568  0.039273113  0.040069912            1 
  757000     1.139178   -6.5858272    356.95499  0.039294913  0.040062556            2 
  758000    1.1447678   -6.5485475    356.63058  0.039207408  0.040054941            6 
  759000    1.1236968   -6.5723253    357.39255   0.03923941  0.040047589            2 
  760000    1.1514908   -6.5861862    357.54108  0.039204066  0.040039779            3 
  761000    1.1148851    -6.570106    357.21032  0.039116329  0.040031971            2 
  762000    1.1298894   -6.5733221    358.43173  0.039198571  0.040024061            4 
  763000    1.1330891    -6.612715    357.38257  0.039032609  0.040016041            5 
  764000    1.1301688   -6.5546969    358.35125  0.039087178  0.040008227            6 
  765000    1.1336132   -6.5528537    359.60337   0.03917248  0.040000502            3 
  766000    1.1434567   -6.5887384    359.13019  0.039069864  0.039992679            2 
  767000    1.1247363    -6.592198    360.13328   0.03912791  0.039984533            3 
  768000    1.1259103    -6.550443    359.76885  0.039037419  0.039976538            3 
  769000    1.1296095   -6.5916629    360.47059    0.0390627  0.039968197            3 
  770000     1.153344   -6.5706952    361.18503  0.039089289  0.039960225            1 
  771000    1.1227004   -6.5918886    360.80199  0.038997189  0.039952453            2 
  772000    1.1138234   -6.5805798    362.37713  0.039116702  0.039944165            2 
  773000    1.1172265   -6.5773602    362.76038  0.039107415   0.03993599            5 
  774000    1.1286379   -6.5861107    361.85595  0.038959512  0.039927581            4 
  775000    1.1360648   -6.5822614    362.39847  0.038967578  0.039919224            3 
  776000    1.1261143   -6.5687463    363.48525  0.039034069  0.039911466            5 
  777000    1.1169985   -6.5936761    363.90582  0.039028939  0.039903728            2 
  778000    1.1131482   -6.5719715    365.23592  0.039121242  0.039895961            3 
  779000    1.1161738   -6.5906135    364.64555  0.039007868  0.039888035            4 
  780000    1.1111048   -6.5800154     365.3265  0.039030609  0.039879839            2 
  781000    1.1341857   -6.5664439     364.9643  0.038941987  0.039872204            2 
  782000    1.1103994   -6.5816957    365.75231  0.038976163  0.039864258            3 
  783000    1.1237494   -6.5250156    368.85099  0.039256172  0.039856793            2 
  784000      1.10776   -6.5874894    366.70601  0.038978105  0.039849248            7 
  785000    1.1264235   -6.5535995    368.37248  0.039105359  0.039841548            6 
  786000    1.1159954   -6.6039664    369.33173  0.039157308  0.039834304            4 
  787000    1.1084943   -6.5298561    369.04954  0.039077673  0.039827122            2 
  788000     1.123976   -6.6078411    369.35395  0.039060274  0.039819623            3 
  789000    1.1105672   -6.6164272    369.03824  0.038977423  0.039811753            5 
  790000    1.1214151   -6.5876969    369.55286  0.038982369  0.039804123            6 
  791000    1.1495074   -6.6139469     369.5549  0.038933302  0.039796379            1 
  792000    1.1064093   -6.4988612     370.5383  0.038987616   0.03978839            2 
  793000    1.1271463   -6.6178069    370.57322  0.038942121  0.039780297            1 
  794000    1.1405344   -6.5425071    370.22387  0.038856409  0.039772299            2 
  795000    1.1315631   -6.6107817    371.12797  0.038902303  0.039763964            5 
  796000    1.1245141   -6.5728788    371.80781  0.038924603  0.039755579            1 
  797000    1.1086585   -6.5756905     371.7592  0.038870682  0.039746983            3 
  798000    1.1046525   -6.5316599    370.97647  0.038740233  0.039738646            5 
  799000     1.144021   -6.6022176    370.88234  0.038681929   0.03972986            3 
  800000    1.1100338   -6.6195908    372.07945  0.038758276  0.039720754            3 
  801000    1.1101286    -6.562697    372.67667  0.038772021  0.039712208            4 
  802000    1.1330799   -6.6063899    374.03232  0.038864538  0.039703857            2 
  803000    1.1023332   -6.6113476    373.76794  0.038788702  0.039695726            4 
  804000    1.1020459   -6.5998128    374.80533  0.038847982  0.039687833            4 
  805000    1.1187272   -6.5747229    375.55736  0.038877574  0.039679415            2 
  806000    1.1362775   -6.6021064    375.31349  0.038804125  0.039671368            3 
  807000    1.1261026   -6.5332063     377.0217  0.038932434  0.039663179            5 
  808000    1.1099929   -6.6166731    376.49684  0.038830119  0.039654708            2 
  809000    1.1194079   -6.6044632    376.13451  0.038744799   0.03964634            2 
  810000    1.1106367   -6.5862336     377.4207   0.03882929  0.039637852            2 
  811000    1.0978505   -6.5652612     377.8286  0.038823325  0.039629668            4 
  812000    1.1322613   -6.5893597    378.09093  0.038802435   0.03962162            2 
  813000    1.1454707   -6.5925634    377.54863  0.038699121  0.039613433            3 
  814000    1.1246506   -6.5784407    377.85543  0.038682988  0.039605248            2 
  815000    1.1055277   -6.6149758    378.57854  0.038709462  0.039596703            3 
  816000    1.1309967   -6.5977879    378.48077  0.038652039  0.039588352            2 
  817000    1.1129356   -6.5893441    379.45629  0.038704232   0.03957978            2 
  818000    1.1244742   -6.6221394    378.91432  0.038601704  0.039571084            3 
  819000    1.1475744   -6.6071033    380.91445  0.038758084  0.039562555            2 
  820000    1.1355344   -6.6424967    380.69327  0.038688341  0.039554191            3 
  821000    1.1109349   -6.6083025    381.20544  0.038693203  0.039545627            1 
  822000    1.1372761   -6.6221738    380.93116  0.038618326  0.039537228            3 
  823000    1.1078524   -6.6488254    380.00986  0.038478114  0.039528057            5 
  824000    1.1226248   -6.5795667    382.71688  0.038705186  0.039519259            2 
  825000     1.114485   -6.5984382    383.45985  0.038733318  0.039510566            2 
  826000    1.1127786   -6.5789765    382.33873  0.038573319  0.039502085            2 
  827000    1.1291473   -6.6153092    382.62033  0.038555052  0.039493809            1 
  828000    1.1172407   -6.5736418     384.1571  0.038663154  0.039485066            3 
  829000     1.125391   -6.5964667    383.78646  0.038579258  0.039475952            4 
  830000    1.1146033   -6.5928061     383.2509  0.038479006   0.03946711            4 
  831000    1.1234804   -6.5853223    386.27572  0.038736033   0.03945841            2 
  832000    1.1181059   -6.5721981    385.43291  0.038605059  0.039450267            2 
  833000     1.106621   -6.5271244     385.8081  0.038596249  0.039441979            5 
  834000    1.1155916   -6.5918719    385.44327  0.038513516  0.039433494            3 
  835000    1.1188769   -6.6198775    386.60795  0.038583628  0.039425153            5 
  836000    1.0993416   -6.5959191    385.83835  0.038460761  0.039416485            3 
  837000     1.107295   -6.5773189    386.23237  0.038454039  0.039408113            2 
  838000    1.1279889   -6.6039873    387.33856  0.038518154  0.039399428            2 
  839000    1.1161862   -6.5984071    388.06366  0.038544265  0.039390465            3 
  840000    1.1163877   -6.5908787    387.79781  0.038472005  0.039381444            3 
  841000    1.1134413   -6.6300839    387.06491  0.038353638  0.039372559            4 
  842000    1.1135937   -6.6043719    389.35452  0.038534692  0.039363441            5 
  843000    1.1061301   -6.5820873    388.84508   0.03843862  0.039354754            4 
  844000     1.125382   -6.6100852    389.36604  0.038444514  0.039345641            9 
  845000    1.1304205   -6.6455052    389.28225  0.038390754  0.039336581            1 
  846000    1.1321634   -6.5667208    389.44784  0.038361686  0.039327182            3 
  847000    1.1077232   -6.6052414    389.81286  0.038352308  0.039318308            2 
  848000    1.1087798   -6.6477959     389.8989  0.038315537  0.039309158            1 
  849000    1.1028568      -6.5914    390.85297  0.038364053  0.039299913            2 
  850000     1.122521   -6.5911886    390.76773  0.038310562   0.03929065            2 
  851000    1.1155138     -6.62638    391.38414  0.038325905  0.039281434            3 
  852000     1.108957   -6.6497505    392.14638  0.038355476  0.039272153            1 
  853000    1.1234484   -6.6199467    392.42859  0.038338081  0.039262998            2 
  854000    1.1020888   -6.5801797     392.7736  0.038326854  0.039253781            3 
  855000    1.1318077   -6.6076276    393.42165   0.03834519  0.039244323            3 
  856000    1.1278088   -6.6160736    393.64259  0.038321903  0.039235537            3 
  857000    1.1139002   -6.6194021    394.08136  0.038319853  0.039226553            6 
  858000    1.1110664   -6.5848166    394.90705  0.038355385   0.03921778            3 
  859000    1.1134973   -6.5982185    394.02046  0.038224725  0.039208995            2 
  860000    1.1213901   -6.6191997    394.93508  0.038268903  0.039199945            3 
  861000    1.1231042   -6.6163484    395.00872  0.038231584  0.039190788            3 
  862000    1.1228141   -6.6004454    395.19111  0.038204864  0.039181533            3 
  863000    1.1099075   -6.6446034    395.34229  0.038175192  0.039172193            1 
  864000    1.1274479   -6.6282399    397.37326  0.038326896  0.039162901            4 
  865000    1.1168233   -6.6287894    397.22374  0.038268183  0.039153935            4 
  866000     1.114278    -6.606184    397.07678  0.038209852  0.039144776            1 
  867000    1.1017519   -6.6472074    396.53362  0.038113574  0.039135623            2 
  868000    1.1258396   -6.6227362    398.11449  0.038221437  0.039126212            2 
  869000    1.0993218   -6.5954585    398.86537   0.03824946  0.039117082            4 
  870000    1.1168708   -6.5914592    399.13391  0.038231217  0.039107801            2 
  871000    1.1343968   -6.6246865    399.40688  0.038213441  0.039098738            2 
  872000    1.0955318   -6.5576394    401.42099  0.038362098  0.039090021            2 
  873000    1.1008985    -6.604084    400.04965  0.038187252  0.039080829            2 
  874000     1.094606   -6.5557017    401.12239  0.038245842  0.039071615            3 
  875000    1.1284001   -6.6497161    399.81572  0.038077687  0.039062528            2 
  876000    1.1111277    -6.620695    399.93648  0.038045708  0.039053291            2 
  877000    1.1138581    -6.605083    401.88122  0.038187117  0.039044029            4 
  878000    1.0982216   -6.6223758    401.29761  0.038088232  0.039034379            2 
  879000     1.128601   -6.5710705     401.4632  0.038060599  0.039024613            2 
  880000    1.0912496   -6.5823555    402.46918  0.038112612  0.039015186            5 
  881000    1.1034592   -6.5827993     403.3112  0.038148997   0.03900551            2 
  882000    1.1047059   -6.5832472    403.04006  0.038080126  0.038995986            3 
  883000     1.113614   -6.6224998    402.54538  0.037990315  0.038986575            5 
  884000    1.1301001   -6.6154866    403.67866  0.038054172  0.038976982            4 
  885000    1.1049695    -6.599795    404.09065  0.038049967  0.038967416            5 
  886000    1.1154215   -6.6041004    404.51454   0.03804689  0.038957823            2 
  887000    1.0950185   -6.5866079    404.30567  0.037984374  0.038948401            2 
  888000    1.1251449   -6.6415289     405.7814  0.038080087   0.03893913            1 
  889000    1.1091852   -6.5967179    406.56788  0.038110975   0.03892979            2 
  890000      1.09908   -6.5963495    407.10253  0.038118214  0.038920884            3 
  891000    1.1064016   -6.5989176     406.2124  0.037992181  0.038912215            4 
  892000     1.108901   -6.5999128    407.49405  0.038069324  0.038903631            4 
  893000    1.1024785    -6.577426    408.57683  0.038127737  0.038894826            7 
  894000    1.1266841   -6.6110538    408.19009  0.038049039  0.038885669            3 
  895000    1.1084272   -6.6789326    407.12801  0.037907636  0.038876239            3 
  896000    1.1095924   -6.6275252    409.10693   0.03804938  0.038866976            7 
  897000    1.1070489   -6.5686126    408.02628  0.037906566  0.038857652            6 
  898000    1.1248952   -6.5642045    410.93346  0.038134137  0.038848723            2 
  899000    1.1191862   -6.6376967     408.9206  0.037905135  0.038839724            3 
  900000    1.1120855   -6.5961996    409.64299  0.037929907  0.038830258            2 
  901000    1.1230439    -6.616371    409.59881  0.037883722   0.03882067            1 
  902000    1.1152147   -6.6238895    410.01297  0.037879986  0.038811268            4 
  903000    1.1197422   -6.5854641    411.08188  0.037936682  0.038802145            5 
  904000    1.1032415   -6.6079845    410.82142  0.037870706  0.038793307            3 
  905000    1.1155493   -6.6179835    411.42615  0.037884544  0.038784267            3 
  906000    1.1330846   -6.6089313    412.48876  0.037940467  0.038775246            1 
  907000    1.1163282   -6.6139715    412.30401  0.037881662  0.038766569            5 
  908000    1.1040985   -6.6004468    413.79158  0.037976466   0.03875768            3 
  909000    1.1181714   -6.6480514     413.6958  0.037925908   0.03874876            1 
  910000    1.0921057   -6.5911191    413.81346  0.037895006  0.038740133            4 
  911000     1.091589   -6.6127353    415.33239  0.037992352  0.038731143            5 
  912000    1.1135039   -6.6273329    414.75797  0.037898206  0.038722179            2 
  913000    1.0737362   -6.6000056    416.31974  0.037999246  0.038713334            2 
  914000    1.0889549   -6.6271761    416.15323   0.03794249  0.038704562            6 
  915000    1.1095303   -6.6236645    417.61031  0.038033725  0.038695915            3 
  916000    1.0939892   -6.5955879    417.45909  0.037978447  0.038687259            5 
  917000    1.1015698   -6.6152336    416.82113  0.037879056  0.038678781            2 
  918000    1.1086848   -6.6462196    416.41023  0.037800493  0.038669862            3 
  919000    1.1091439   -6.6426553    417.52457  0.037860407  0.038661277            2 
  920000    1.1184121   -6.5915874    418.01713   0.03786387  0.038652632            3 
  921000    1.0866717   -6.6138195    418.84382  0.037897558   0.03864432            3 
  922000    1.1038768   -6.5888147    419.88605  0.037950655  0.038635989            2 
  923000    1.1074064   -6.6482976    418.66233  0.037799055  0.038627548            4 
  924000    1.1291245   -6.6460218    419.33358  0.037818685  0.038618944            2 
  925000     1.099967   -6.5805198    422.08133  0.038025345   0.03861044            3 
  926000    1.1052065   -6.5974773    422.03219  0.037979859  0.038602175            3 
  927000    1.1320576    -6.608524    421.26731  0.037870129  0.038594057            2 
  928000    1.1042762   -6.6334322    421.00042  0.037805353  0.038585778            3 
  929000    1.0932072   -6.6285765    421.95661  0.037850432  0.038577796            3 
  930000    1.1238358   -6.5915621    421.65084  0.037782333  0.038569748            3 
  931000     1.109222   -6.6318887    420.46506  0.037635612  0.038561412            2 
  932000    1.1016104   -6.6161347    423.01059  0.037822835  0.038552704            5 
  933000    1.0945737   -6.6172037    423.00466  0.037781767  0.038544331            4 
  934000    1.1034965   -6.6264778    423.72836  0.037805885  0.038535855            4 
  935000    1.1001681   -6.5854737    424.44397  0.037829231  0.038527648            2 
  936000    1.0817982   -6.6259912    423.91698  0.037741897  0.038519496            3 
  937000    1.1056306   -6.6164859    424.31624  0.037737126  0.038511295            7 
  938000    1.1137668   -6.6411979    425.60092  0.037811027  0.038502795            2 
  939000    1.1093421   -6.6418775     424.7749  0.037697453  0.038494387            2 
  940000    1.1003818   -6.6309556    426.34805  0.037796813  0.038485995            3 
  941000    1.0914762   -6.6509953    425.68795  0.037698189   0.03847759            9 
  942000    1.1186442   -6.5641676    428.04608  0.037866779  0.038469207            4 
  943000    1.1109935   -6.6459104    425.55962  0.037606895  0.038460807            3 
  944000    1.0906443    -6.639235    427.16132   0.03770845  0.038452403            2 
  945000    1.1091839   -6.6577254    427.40677  0.037690191   0.03844399            2 
  946000    1.1201498   -6.6164044    429.05983  0.037795968  0.038435782            5 
  947000    1.0826738   -6.6501567    429.25016  0.037772805  0.038427714            1 
  948000     1.117417   -6.6118988    430.81423  0.037870449  0.038419707            3 
  949000    1.1111771   -6.6321366    430.49832  0.037802803  0.038411456            2 
  950000    1.0954879   -6.6441708    430.38163  0.037752775  0.038403113            3 
  951000    1.0989703   -6.5865998    429.70433  0.037653727  0.038395057            4 
  952000    1.0748988   -6.6068958    430.26882  0.037663587  0.038386977            2 
  953000     1.088962    -6.639498    431.91297  0.037767836  0.038379173            5 
  954000     1.078108   -6.5977793    431.97823  0.037733948  0.038371527            2 
  955000    1.1024585   -6.6189343    432.20984  0.037714645  0.038363552            3 
  956000    1.0991941   -6.6525202     431.5793  0.037620232   0.03835555            3 
  957000    1.1009287   -6.5938733    432.49174  0.037660375  0.038347722            2 
  958000    1.1245859   -6.6364828    432.83764  0.037651151  0.038339795            3 
  959000    1.0818468   -6.6573254    432.69393  0.037599403  0.038331733            2 
  960000    1.0860146    -6.666257    433.06205  0.037592192  0.038323572            5 
  961000    1.1261689    -6.648815    434.33749  0.037663674  0.038315641            2 
  962000    1.0890384   -6.5871119    435.06884  0.037687876    0.0383082            4 
  963000    1.1190827   -6.6571569    435.95702  0.037725598  0.038300541            2 
  964000     1.106996   -6.6113957    435.13241  0.037615181  0.038292687            2 
  965000    1.0782058   -6.6266099    436.94009  0.037732305  0.038284963            4 
  966000    1.0868663   -6.6200802    437.27771   0.03772237  0.038277253           10 
  967000    1.1250458   -6.6475427    435.18861  0.037503327  0.038269578            4 
  968000    1.1013259   -6.6293909    438.45405    0.0377457  0.038261659            4 
  969000    1.0829314   -6.6441151    439.17966  0.037769149  0.038253994            5 
  970000    1.1137112   -6.6116123    437.98859  0.037627885  0.038246731            4 
  971000    1.0669222   -6.5812485    439.20227  0.037693295  0.038239109            2 
  972000    1.1028886   -6.6183886    439.26802  0.037660153  0.038230958            3 
  973000    1.0999961    -6.643284    439.55172  0.037645745  0.038223142            6 
  974000     1.099055    -6.635722    438.12141   0.03748472  0.038215203            5 
  975000    1.0837599   -6.6057824    439.63548  0.037575682  0.038207318            4 
  976000    1.0871791    -6.607981    440.18043  0.037583711  0.038199401            2 
  977000    1.0933114   -6.6483752    439.31636  0.037471542  0.038191194            3 
  978000    1.1010219   -6.6162379    440.95151  0.037572555  0.038183132            4 
  979000    1.0862399   -6.6517717    440.15691   0.03746654  0.038175182            2 
  980000    1.1011617   -6.6466963    442.46003  0.037624152  0.038166995            2 
  981000    1.0629022    -6.695649    442.46809  0.037586484  0.038159134            2 
  982000    1.0846468   -6.6316105    442.88799  0.037583841  0.038151079            4 
  983000    1.0907419   -6.6473883    443.61484  0.037607226  0.038143481            2 
  984000     1.105956   -6.6656535    443.45847  0.037555765  0.038135627            3 
  985000    1.1017295   -6.6206248    442.90173  0.037470535  0.038127565            3 
  986000    1.0855094   -6.6361159    445.20148    0.0376269  0.038119743            3 
  987000    1.1060533   -6.6380986    445.08809  0.037579204  0.038112103            4 
  988000    1.0836447   -6.6402294     445.1575  0.037547022  0.038104447            2 
  989000    1.1095911   -6.6048107     444.5732  0.037459825  0.038096565            2 
  990000    1.0848124   -6.6664615    444.85902  0.037446045  0.038088468            4 
  991000    1.1259577   -6.6639517    444.33268  0.037363999  0.038080539            2 
  992000     1.095264    -6.634851    446.15799   0.03747967  0.038072706            3 
  993000     1.076481   -6.6231807    446.61785  0.037480518  0.038064644            4 
  994000    1.1147274   -6.6255296    447.16128   0.03748837  0.038056599            5 
  995000    1.0875855   -6.6458216    448.13034  0.037531854  0.038048833            4 
  996000    1.0982349   -6.6338769    448.36924   0.03751416  0.038040856            3 
  997000    1.0816977   -6.6331036     449.5087  0.037571774  0.038033234            3 
  998000    1.0782801   -6.6401944    447.42279  0.037359953  0.038025643            3 
  999000    1.0977977   -6.6202618    448.91279  0.037446846  0.038018015            7 
 1000000    1.1131052   -6.6585116    450.24506  0.037520422  0.038010158            2 
 1001000     1.083183   -6.6581399    449.58543  0.037428024  0.038002612            3 
 1002000    1.1009951   -6.6437515    448.96441  0.037339022  0.037995151            2 
 1003000    1.0749148   -6.6669364    450.40947  0.037421857  0.037987582            3 
 1004000    1.0655178   -6.6275578     451.0611   0.03743867  0.037980098            3 
 1005000    1.1012154   -6.6617918    451.48042  0.037436188   0.03797254            2 
 1006000    1.0821771   -6.6331063    451.91047  0.037434598  0.037964984            5 
 1007000    1.1141389     -6.63461    453.13981  0.037499157  0.037957503            3 
 1008000    1.1096613   -6.6256999    451.47779  0.037324553  0.037949954            2 
 1009000    1.0785594   -6.6114084    453.69653  0.037470807   0.03794222            5 
 1010000    1.1091878   -6.6902782    452.75301  0.037355859  0.037934654            7 
 1011000    1.0894773   -6.6665206     453.3727  0.037369989  0.037927038            5 
 1012000    1.0940181   -6.6508433     454.1324  0.037395619  0.037919476            3 
 1013000    1.0963614   -6.6802422     454.7577  0.037410143  0.037912158            5 
 1014000    1.0795766   -6.6208887    456.20738  0.037492388  0.037904622            2 
 1015000    1.1039364   -6.6359181    455.18321  0.037371364  0.037897318            3 
 1016000    1.0739008   -6.6464493    456.45201  0.037438649  0.037890231            3 
 1017000    1.0783586   -6.6411367    457.95407  0.037524915  0.037883166            3 
 1018000    1.0990148   -6.6424358    456.95136  0.037405972  0.037876144            3 
 1019000    1.0673824   -6.6348294    456.33111   0.03731854  0.037869037            3 
 1020000    1.0776518   -6.6153002     457.5353  0.037380335   0.03786166            3 
 1021000    1.0693237   -6.6575886    457.16574   0.03731356  0.037854152            3 
 1022000    1.0765976   -6.6167626    457.36042  0.037292924  0.037846309            3 
 1023000    1.1037963   -6.6652834    457.58012  0.037274366  0.037838447            3 
 1024000    1.0856798   -6.6409977    458.76796  0.037334632  0.037830457            6 
 1025000    1.0986381   -6.6516933    456.65519  0.037126438  0.037822308            3 
 1026000    1.1048714   -6.6407726    458.14093  0.037210927   0.03781411            4 
 1027000    1.0666614   -6.7016283    456.85984  0.037070743  0.037805957            3 
 1028000     1.088686   -6.6502962    458.59861  0.037175633   0.03779768            2 
 1029000    1.0882538   -6.6573809    458.14701  0.037102932  0.037789229            4 
 1030000    1.0753402   -6.6619675    457.99765  0.037054826  0.037780729            3 
 1031000    1.1022401   -6.6795418    458.47716  0.037057643  0.037772182            2 
 1032000    1.1043703   -6.6434777     459.7169  0.037121843  0.037763606            3 
 1033000    1.0859309   -6.6942948    459.11073  0.037037006  0.037755267            2 
 1034000    1.0814712   -6.6501824     460.3683  0.037102538  0.037746526            4 
 1035000     1.074437   -6.6685339    460.75364  0.037097716  0.037738155            5 
 1036000    1.0555166   -6.6809708    461.32266  0.037107678  0.037729864            6 
 1037000    1.0893398   -6.6884858    460.60369  0.037014119  0.037721506            2 
 1038000    1.0840291   -6.6655695     461.4357  0.037045255  0.037712865            1 
 1039000     1.105482   -6.6329309    462.02123  0.037056563  0.037704334            4 
 1040000    1.0913518   -6.7100628    461.06098  0.036943988   0.03769578            2 
 1041000    1.0852154   -6.6589003    460.78776  0.036886628  0.037687226            3 
 1042000    1.0672347   -6.6249171    462.91578  0.037021415  0.037678558            3 
 1043000    1.0850216   -6.6719031    462.27159  0.036934451  0.037669674            2 
 1044000    1.0649037   -6.6623357    462.69814  0.036933121  0.037661012            3 
 1045000     1.081815   -6.6891935    463.51391  0.036962832   0.03765234            2 
 1046000    1.0875827   -6.6846153     463.7788  0.036948598  0.037643575            6 
 1047000    1.0964232   -6.6577029    464.48813  0.036969765  0.037634763            2 
 1048000    1.0815958   -6.6564748    463.63445  0.036866607  0.037625973            4 
 1049000    1.0973765   -6.6540198    464.52625  0.036902308  0.037617088            2 
 1050000      1.06579    -6.680743    465.27676  0.036926727  0.037607913            3 
 1051000    1.0799838   -6.6781905    464.09077  0.036797555  0.037598839            4 
 1052000    1.0802716   -6.6559504     463.4993  0.036715724  0.037589808            5 
 1053000     1.066127   -6.6977591    463.93263  0.036715149  0.037580663            2 
 1054000    1.0791866   -6.6417119    465.07781  0.036770858  0.037571504            3 
 1055000    1.0871201   -6.6247581    466.46293  0.036845413  0.037562402            4 
 1056000    1.0819251   -6.6925169    466.37324  0.036803443  0.037553209            8 
 1057000    1.0911814   -6.6737609       466.69  0.036793598  0.037544099            4 
 1058000    1.0762164   -6.6812361    467.40852  0.036815416  0.037534908            3 
 1059000    1.1055423   -6.6989413    466.76248  0.036729814   0.03752585            2 
 1060000    1.0628603   -6.6264963    469.73164  0.036928588  0.037517352            3 
 1061000    1.0744482   -6.6825399    468.93071  0.036830876  0.037508508            2 
 1062000    1.0899481   -6.6293898    470.27373  0.036901579  0.037499792            2 
 1063000     1.075754   -6.6595688    467.57442  0.036655254  0.037491236            2 
 1064000    1.0724679   -6.6811251    467.68643  0.036629576  0.037482412            4 
 1065000    1.1090654    -6.644243    470.29931  0.036799633  0.037473216            2 
 1066000    1.0932663   -6.7009932    469.10215  0.036671525   0.03746396            5 
 1067000    1.0823852   -6.6865813    469.65108  0.036680028  0.037454355            3 
 1068000    1.0940788   -6.6680573    470.08605  0.036679623  0.037444937            2 
 1069000    1.0638471   -6.6665886    469.71455  0.036616351  0.037435878            4 
 1070000    1.0726705   -6.6871586    470.57133  0.036648858  0.037426744            4 
 1071000     1.075398   -6.6619648    470.97263  0.036645863  0.037417449            3 
 1072000    1.0824319   -6.6508432    471.91239  0.036684732  0.037408263            7 
 1073000    1.0954113    -6.676309    473.22498  0.036752484  0.037399336            5 
 1074000    1.0656252   -6.6532921    470.60529  0.036514998  0.037390065            3 
 1075000    1.0964898   -6.6904151    469.07052  0.036362056  0.037380371            4 
 1076000    1.0722472   -6.6961071    471.56598  0.036521529  0.037370598            3 
 1077000    1.0859109   -6.6437526    472.06403  0.036526155  0.037360873            1 
 1078000    1.0641949   -6.6631006     472.3219  0.036512206  0.037351129            4 
 1079000     1.072182   -6.6561996    471.42701  0.036409253  0.037341407            2 
 1080000    1.0587449   -6.6846359    471.62213  0.036390596  0.037331456            4 
 1081000    1.0646138   -6.6632759    473.50411  0.036502013  0.037321504            7 
 1082000    1.0854476   -6.6529476    473.09606   0.03643685   0.03731169            7 
 1083000    1.0786107   -6.6912439    472.83306  0.036382969  0.037301675            3 
 1084000    1.0796815   -6.6586821    472.73721  0.036342037  0.037291964            2 
 1085000    1.0640482   -6.6765308    474.48533  0.036442806  0.037281816            5 
 1086000    1.0841557    -6.679702    474.18075  0.036385877  0.037271803            4 
 1087000    1.0630085   -6.7166268    473.21493   0.03627836  0.037261874            2 
 1088000     1.055128   -6.6493177    475.29115   0.03640404  0.037251867            1 
 1089000      1.08594   -6.7028777    475.48328  0.036385313  0.037241904            2 
 1090000    1.0582495    -6.715556    474.68471   0.03629088  0.037231914            7 
 1091000    1.0775783   -6.6643777    476.35589  0.036385265  0.037222212            2 
 1092000     1.091865   -6.6720865    476.38789  0.036354387  0.037212587            2 
 1093000    1.1001545   -6.6879667    475.98224  0.036290198  0.037202799            2 
 1094000    1.0833072   -6.6692651    477.02166  0.036336202  0.037192981            5 
 1095000    1.0867952   -6.6803342    478.10052  0.036385123  0.037183327            6 
 1096000    1.1007655   -6.6976479      478.431  0.036377053  0.037173599            5 
 1097000    1.1053156   -6.6736981     477.8631  0.036300752  0.037163836            4 
 1098000    1.0492524    -6.631185    479.57744  0.036397802  0.037154324            5 
 1099000    1.0701895   -6.6503654    479.90452  0.036389484  0.037144846            2 
 1100000    1.0680095   -6.6880353    478.88292  0.036279009  0.037135346            3 
 1101000    1.0616166    -6.685594    478.92818  0.036249484  0.037125677            3 
 1102000    1.0846471   -6.7138479    479.32861   0.03624687  0.037115921            5 
 1103000    1.0857363    -6.672018    481.92351  0.036410056  0.037106199            2 
 1104000    1.0802324   -6.6702663    481.50929   0.03634581  0.037096588            2 
 1105000     1.087881   -6.6641009    482.07228  0.036355376  0.037086874            9 
 1106000    1.0690513   -6.6603707     482.4816  0.036353346  0.037077284            5 
 1107000    1.0675348   -6.6948919    481.77098  0.036267011  0.037067837            2 
 1108000    1.0870794   -6.6883799    481.29519  0.036198495  0.037058196            2 
 1109000     1.084231   -6.6645997    484.03621  0.036371822  0.037048825            3 
 1110000    1.0764069   -6.6961624    483.49875  0.036298705  0.037039314            2 
 1111000    1.0749402   -6.6448517    483.48903  0.036265303  0.037029797            2 
 1112000    1.0717687   -6.6860864    483.68047  0.036247038  0.037020171            1 
 1113000    1.0787018   -6.6630517    483.51365   0.03620198  0.037010435            2 
 1114000    1.0849388   -6.6740946    483.93373  0.036200908   0.03700083            5 
 1115000    1.0885083   -6.6880972    485.00723  0.036248672  0.036991181            4 
 1116000     1.080579   -6.7054009    483.45192  0.036100054  0.036981248            2 
 1117000    1.0743208   -6.7026094    484.43821  0.036141317  0.036971411            3 
 1118000    1.0782762   -6.6887108     484.7886  0.036135107  0.036961461            1 
 1119000    1.0655608   -6.6739701    485.49772  0.036155624  0.036951961            3 
 1120000    1.0935044   -6.7213675    484.50162  0.036049227  0.036942211            3 
 1121000     1.072455   -6.7023189     484.6043  0.036024703  0.036932533            5 
 1122000    1.0824578   -6.6982997    485.66783  0.036071586  0.036922622            2 
 1123000    1.0661685   -6.7003991    485.90118  0.036056781  0.036912675            3 
 1124000    1.0816751   -6.6541014    488.42948   0.03621215  0.036902955            3 
 1125000    1.0541903   -6.6652383    487.98876  0.036147316  0.036893352            4 
 1126000    1.0732415   -6.7146868    486.85119  0.036031024  0.036883585            3 
 1127000    1.0659386   -6.6763245    486.42209  0.035967324  0.036873847            5 
 1128000    1.0745924   -6.6789082     488.5527  0.036092841  0.036864169            2 
 1129000    1.0449088   -6.6909451    488.45467  0.036053637  0.036854254            7 
 1130000     1.076697   -6.6926774    488.53749  0.036027839  0.036844606            7 
 1131000    1.0744339   -6.6831717    490.28876  0.036125019  0.036834854            3 
 1132000    1.0873563   -6.6827442    490.64483  0.036119319   0.03682529            5 
 1133000    1.0469189   -6.6876152    489.15422  0.035977803  0.036815795            3 
 1134000    1.0942439   -6.6518195    490.33941  0.036033172  0.036806388            3 
 1135000    1.0903345   -6.6736129    491.61504  0.036095084  0.036797033            3 
 1136000    1.0522094   -6.6885192    491.22522  0.036034714  0.036787752            3 
 1137000    1.0656443   -6.6673779    491.71339    0.0360388  0.036778503            2 
 1138000    1.0814009   -6.6869268    492.05163    0.0360319  0.036769319            3 
 1139000    1.0705633   -6.6981789    493.94031  0.036138448  0.036760088            2 
 1140000    1.0757512   -6.7184886     492.2174  0.035980804  0.036750742            4 
 1141000    1.0626186   -6.6805165    494.17228  0.036092045  0.036741718            3 
 1142000      1.05411   -6.6869708    494.14412  0.036058386  0.036732649            3 
 1143000    1.0912648   -6.7244231    493.07098  0.035948598  0.036723325            3 
 1144000     1.072144   -6.6794621    495.75657  0.036112804  0.036714331            3 
 1145000    1.0789339   -6.6830807     495.4799  0.036061128  0.036705298            2 
 1146000    1.0688006   -6.6968045    496.12276  0.036076408  0.036696284            2 
 1147000    1.0532697   -6.7060033    494.44481  0.035923046  0.036687295            3 
 1148000    1.0592144   -6.6788425    495.75275  0.035986698  0.036678461            4 
 1149000    1.0783871   -6.6993941    495.19075  0.035914618  0.036669417            4 
 1150000    1.0718406   -6.7024919    496.63958  0.035988375  0.036660362            1 
 1151000    1.0527394   -6.6893317     496.2017  0.035925406  0.036651239            3 
 1152000    1.0806725   -6.6739007    497.07918  0.035957695  0.036642168            6 
 1153000    1.0709214   -6.7320132    497.23939  0.035938088  0.036632901            3 
 1154000    1.0748315   -6.6761663    497.80139   0.03594753  0.036623573            3 
 1155000    1.0722574   -6.7078369    498.79882  0.035988371  0.036614466            3 
 1156000     1.089618   -6.7332366     498.8363  0.035959941   0.03660536            1 
 1157000    1.0673668   -6.6969571    499.79201  0.035997696  0.036596333            1 
 1158000     1.040864   -6.6806166    499.80683  0.035967676  0.036587579            2 
 1159000    1.0249493   -6.6911341     500.1187  0.035959066  0.036578804            4 
 1160000    1.0691843   -6.7100268    498.40797   0.03580517  0.036569806            4 
 1161000    1.0473705   -6.6690292    500.78155  0.035944699  0.036560819            2 
 1162000    1.0888064    -6.695244    501.44725  0.035961506  0.036551963            3 
 1163000    1.0579495   -6.7065198     502.1036  0.035977615   0.03654304            3 
 1164000    1.0785115   -6.7101769    502.31554   0.03596188  0.036534237            3 
 1165000    1.0548268   -6.6649344    502.44248  0.035940092  0.036525433            2 
 1166000    1.0506177   -6.6774224    501.74335  0.035859302  0.036516688            1 
 1167000    1.0767465   -6.6813845    501.87859  0.035838231  0.036507633            1 
 1168000    1.0974988   -6.7160619    501.33682  0.035768894  0.036498672            3 
 1169000    1.0465783   -6.6724182    503.31088  0.035879019  0.036489836            4 
 1170000    1.0705433    -6.695178     503.8151  0.035884266   0.03648118            3 
 1171000    1.0380152   -6.7096699    503.82203  0.035854115  0.036472234            4 
 1172000    1.0770458    -6.683133    504.24003  0.035853244  0.036463268            3 
 1173000    1.0378627   -6.7150422    502.63577  0.035708708  0.036454124            7 
 1174000    1.1032334   -6.6997992    504.62266  0.035819325  0.036444983            2 
 1175000    1.0782883   -6.7113631    504.22766  0.035760827  0.036435956            8 
 1176000    1.0760634   -6.7028886    503.47657  0.035677194  0.036426819            4 
 1177000    1.0641611   -6.7113452    503.90761  0.035677401  0.036417846            2 
 1178000    1.0717081   -6.6674511    506.74823  0.035848064  0.036408953            3 
 1179000    1.0698806   -6.7326853    505.54481  0.035732599  0.036399879            2 
 1180000    1.0820669   -6.6901049    505.66316  0.035710675  0.036390675            2 
 1181000    1.0838945   -6.7224767    505.01255   0.03563453  0.036381576            3 
 1182000    1.0732786   -6.6648253    507.40611  0.035773132  0.036372492            4 
 1183000    1.0468313   -6.7279397    507.00418   0.03571458  0.036363384            4 
 1184000    1.0636607   -6.7587262    505.38021  0.035570116  0.036354158            1 
 1185000    1.0478987   -6.7200275    506.19511  0.035597406  0.036344699            5 
 1186000    1.0606327    -6.689326    508.21126  0.035709054  0.036335401            2 
 1187000    1.0539509   -6.6942299    508.04982  0.035667637  0.036326158            3 
 1188000    1.0694629   -6.7056385    507.75407  0.035616868  0.036316701            3 
 1189000    1.0728613   -6.6982864    508.54581  0.035642403  0.036307312            1 
 1190000    1.0743622   -6.7137809    508.71696  0.035624437  0.036297855            5 
 1191000    1.0643938   -6.6878017    508.28426   0.03556425  0.036288313            6 
 1192000     1.050679   -6.6776477    509.53119  0.035621588  0.036279015            3 
 1193000    1.0808543   -6.7261766    508.47465  0.035517927  0.036269681            3 
 1194000    1.0558534   -6.7325604    511.28902  0.035684605  0.036260296            2 
 1195000    1.0402397   -6.6917919    511.47367   0.03566762  0.036251013            2 
 1196000    1.0444095   -6.6928632    510.83719  0.035593449  0.036241824            1 
 1197000    1.0538889   -6.7200706    510.53493  0.035542671  0.036232556            3 
 1198000    1.0563254   -6.7155261    510.58917  0.035516776  0.036223387            4 
 1199000    1.0724652   -6.7380183    511.66049  0.035561613  0.036214214            7 
 1200000    1.0750823   -6.7187549    511.88783  0.035547766  0.036204967            2 
 1201000    1.0708299   -6.7160467    511.30668  0.035477844  0.036195689            3 
 1202000      1.05605   -6.6883848    513.01407  0.035566699  0.036186458            2 
 1203000    1.0941169   -6.7063363    513.53911  0.035573505  0.036177371            3 
 1204000    1.0672834   -6.7463404    513.53822  0.035543897  0.036168046            3 
 1205000    1.0122692   -6.7279737    512.02936  0.035410053  0.036158697            4 
 1206000    1.0981928   -6.6933366    513.55237  0.035485929  0.036149585            5 
 1207000    1.0651113   -6.6639474    515.34759  0.035580474  0.036140592            3 
 1208000    1.0336579   -6.7327269     514.5436  0.035495557  0.036131485            2 
 1209000    1.0819613    -6.666064    516.44866  0.035597509  0.036122207            3 
 1210000    1.0368616   -6.7361574    514.32218  0.035421638  0.036112969            3 
 1211000    1.0519299   -6.7437796    514.35095  0.035394367  0.036103411            2 
 1212000    1.0448815   -6.7073996    514.33674  0.035364187  0.036093724            3 
 1213000    1.0413694   -6.6969774    515.05956  0.035384691  0.036084338            3 
 1214000    1.0788575   -6.7053791    514.26886  0.035301267  0.036074947            3 
 1215000    1.0573834   -6.6917475    515.81664   0.03537837  0.036065528            3 
 1216000    1.0456263   -6.7269819    514.33534  0.035247762  0.036055928            3 
 1217000    1.0610933   -6.6997727    514.91118  0.035258229   0.03604634            3 
 1218000    1.0575635   -6.6823447    517.41853   0.03540083  0.036037111            2 
 1219000    1.0398824   -6.7028056    518.28337  0.035430911   0.03602793            3 
 1220000    1.0650124   -6.6930984    518.38112  0.035408546  0.036018692            3 
 1221000    1.0636386    -6.685049    517.52528  0.035321135  0.036009367            3 
 1222000    1.0566748   -6.7160815    518.83699  0.035381682  0.036000107            2 
 1223000    1.0656416    -6.709873    518.49196  0.035329242   0.03599103            2 
 1224000    1.0442105   -6.6565096    519.70967  0.035383284  0.035982204            1 
 1225000     1.058626   -6.7053967    520.28677  0.035393658  0.035973222            2 
 1226000    1.0532076   -6.6895528    521.56918  0.035451956  0.035964284            3 
 1227000    1.0607879   -6.6849574    519.39522  0.035275415  0.035955235            3 
 1228000    1.0505352   -6.7157925    519.75923  0.035271392  0.035946334            3 
 1229000    1.0486081    -6.726834    521.65656  0.035371343  0.035937408            4 
 1230000    1.0474231   -6.7238617    522.08827  0.035371834  0.035928496            3 
 1231000    1.0733408   -6.7303586    521.69897  0.035316746  0.035919492            5 
 1232000    1.0607965   -6.7381669    521.96428  0.035306026  0.035910671            4 
 1233000    1.0535847   -6.7516682     523.8984  0.035408111  0.035901847            2 
 1234000    1.0748647   -6.7484812    523.07859  0.035324054   0.03589295            2 
 1235000    1.0493542   -6.7085091    523.47504  0.035322202  0.035883834            3 
 1236000    1.0722245    -6.691481    523.89087  0.035321661  0.035875019            6 
 1237000    1.0665866   -6.7509546    524.32962  0.035322663  0.035866251            2 
 1238000    1.0554249   -6.7350931    524.35412  0.035295781  0.035857263            2 
 1239000     1.037596    -6.767207    523.44291  0.035206007  0.035848292            3 
 1240000    1.0482024   -6.7511649    524.25049  0.035231888  0.035839222            6 
 1241000    1.0423635   -6.7095966    525.23008  0.035269277  0.035830433            3 
 1242000    1.0355571   -6.7778049    525.21191  0.035239661  0.035821452            4 
 1243000    1.0378746   -6.7108726    525.04901  0.035200389  0.035812399            4 
 1244000    1.0476613   -6.7125854    526.00378  0.035236052  0.035803609            8 
 1245000    1.0117859   -6.7221615    526.69942  0.035254312  0.035794778            7 
 1246000    1.0506691   -6.7108253    526.40001  0.035205993  0.035785734            2 
 1247000    1.0476355   -6.7055036    526.78904  0.035203758  0.035776891            4 
 1248000    1.0435726   -6.7291793    526.04268  0.035125713  0.035767868            2 
 1249000    1.0662651   -6.7270345    527.76299   0.03521237  0.035758748            3 
 1250000    1.0766589   -6.6884474    526.93478  0.035128985  0.035749755            4 
 1251000    1.0590325    -6.724894    527.36667  0.035129674  0.035740753            3 
 1252000    1.0665193   -6.7385834    528.13427  0.035152707  0.035731588            6 
 1253000    1.0503033   -6.7385779    526.76564  0.035033628   0.03572238            5 
 1254000    1.0431489   -6.7521178     528.1285  0.035096259  0.035713324            4 
 1255000    1.0626497   -6.7335544    529.05754  0.035129983  0.035704429            3 
 1256000    1.0361814   -6.7273973     528.7935  0.035084495  0.035695539            2 
 1257000    1.0560181   -6.7576937    528.55163  0.035040548  0.035686444            4 
 1258000    1.0434946   -6.7187075    529.55815  0.035079369  0.035677329            4 
 1259000     1.054571   -6.7433211    531.69416  0.035192888  0.035668454            4 
 1260000    1.0403326   -6.7450703    531.48659   0.03515123  0.035659467            2 
 1261000    1.0447479   -6.7220431     529.2693  0.034976824  0.035650218            2 
 1262000    1.0507846   -6.6935666    530.22313  0.035012092  0.035641139            2 
 1263000    1.0693403   -6.7120485    531.05279  0.035039113  0.035631894            5 
 1264000    1.0538586   -6.6988043    531.32373  0.035029254  0.035622524            2 
 1265000    1.0566669    -6.722691    531.10214  0.034986966  0.035613357            2 
 1266000    1.0554084   -6.7514727     530.7653  0.034937158  0.035604161            3 
 1267000    1.0578156   -6.7185516    531.94498  0.034987173  0.035594801            3 
 1268000    1.0445394   -6.7422809    531.40493  0.034924089  0.035585583            3 
 1269000    1.0535034   -6.7747263    531.76811  0.034920417  0.035576365            3 
 1270000    1.0449533   -6.7337428    532.58395  0.034946453  0.035567376            2 
 1271000    1.0502687    -6.727671    534.17668  0.035023386  0.035558564            3 
 1272000    1.0441929   -6.7308077     534.0538  0.034987801  0.035549611            2 
 1273000    1.0439636   -6.7424081    534.71274  0.035003452  0.035540819            1 
 1274000    1.0493759   -6.7429212    535.78704  0.035046248  0.035531895            4 
 1275000    1.0475057   -6.7436222    534.22842   0.03491689  0.035522872            3 
 1276000    1.0652404   -6.7300723    534.45486  0.034904314  0.035513896            7 
 1277000    1.0587198   -6.7611394    535.32452  0.034933733  0.035504883            7 
 1278000    1.0466009   -6.7274192    534.04606  0.034823034  0.035495863            3 
 1279000    1.0612705   -6.7461758    535.47013  0.034888593  0.035486983            5 
 1280000    1.0301008   -6.7601482    535.51346  0.034864157  0.035478114            6 
 1281000    1.0522294   -6.7437096    536.66162  0.034911633  0.035469171            2 
 1282000    1.0341019   -6.7150848    537.70501  0.034952224  0.035460367            5 
 1283000     1.051376   -6.7549343    535.10466  0.034756084  0.035451489            1 
 1284000    1.0255857   -6.7729549    536.18701  0.034799261  0.035442421            2 
 1285000    1.0333427   -6.7543084    538.77783  0.034940197  0.035433585            3 
 1286000    1.0356356   -6.7008779    538.09331  0.034868669  0.035424566            3 
 1287000    1.0514223    -6.760832    536.99883  0.034770709  0.035415671            2 
 1288000    1.0307771   -6.7074955    538.63011  0.034849256  0.035406633            2 
 1289000    1.0335744   -6.7545376    538.38645  0.034806468  0.035397674            6 
 1290000    1.0179833   -6.7080386    539.12737  0.034827349  0.035388755            6 
 1291000    1.0455683   -6.7349386    539.46157  0.034821945  0.035379748            3 
 1292000    1.0442865   -6.7759251    540.00768  0.034830217  0.035370798            7 
 1293000    1.0378296   -6.7331713    541.18234  0.034878986   0.03536183            5 
 1294000    1.0404694   -6.7448373    540.74725  0.034824012  0.035352946            2 
 1295000    1.0492208   -6.7373646    540.32171  0.034769737  0.035344221            5 
 1296000    1.0451872   -6.7448815    541.54304   0.03482144  0.035335415            3 
 1297000    1.0345446   -6.6985702    542.39301  0.034849204  0.035326772            4 
 1298000    1.0426668   -6.7419762    542.12784  0.034805331  0.035318208            4 
 1299000    1.0384501   -6.7288697    541.92769  0.034765698  0.035309759            5 
 1300000    1.0329174   -6.7307601    543.63118  0.034848153  0.035301102            2 
 1301000    1.0544964   -6.7301162    543.07899  0.034785997  0.035292495            4 
 1302000    1.0261051   -6.7904366    542.06787  0.034694564  0.035283798            3 
 1303000    1.0590963   -6.7688054    541.89018  0.034656574  0.035275027            3 
 1304000    1.0499591   -6.7143292    544.41781  0.034791527  0.035266379            6 
 1305000    1.0403821   -6.7492567    544.76587  0.034787093  0.035257688            4 
 1306000    1.0167825   -6.7274612    544.12456  0.034719536  0.035248803            4 
 1307000    1.0443819   -6.7102764    545.61278  0.034787859  0.035240139            2 
 1308000    1.0648418   -6.7164831    545.54447  0.034756911  0.035231603            3 
 1309000    1.0535006   -6.7365115    545.96476  0.034757115  0.035223096            3 
 1310000    1.0372719   -6.7493473    546.61933  0.034772222  0.035214626            3 
 1311000    1.0415769     -6.75885    546.94941   0.03476668  0.035206186            5 
 1312000    1.0340295    -6.777993    546.84865  0.034733781  0.035197736            2 
 1313000    1.0357773   -6.7624538    545.76687  0.034638669  0.035189336            2 
 1314000    1.0226274   -6.7516658    547.02344  0.034691999  0.035180915            3 
 1315000     1.037739   -6.7405026    548.41015  0.034753495  0.035172296            2 
 1316000     1.025872   -6.7596585    547.55149  0.034672713  0.035163591            2 
 1317000    1.0264432   -6.8032164    546.66508  0.034590299  0.035154969            4 
 1318000    1.0385329   -6.7312695    548.72414  0.034694243  0.035146574            2 
 1319000    1.0653673   -6.7412969    550.02739  0.034750277  0.035138264            3 
 1320000    1.0559139   -6.7364199    549.10303  0.034665595  0.035129931            2 
 1321000    1.0509879   -6.7465309    549.65245  0.034674013  0.035121576            4 
 1322000    1.0365011   -6.7080252    550.55527  0.034704695  0.035113399            3 
 1323000    1.0510064   -6.7785741    549.45736  0.034609307  0.035105005            2 
 1324000    1.0281255   -6.6800318     551.4477   0.03470844  0.035096673            2 
 1325000    1.0245678   -6.7467584    550.92405  0.034649311  0.035088367            3 
 1326000    1.0205385   -6.7507041    551.69972  0.034671928  0.035080108            8 
 1327000    1.0419796   -6.7312506    551.60145  0.034639629  0.035071593            2 
 1328000    1.0167182    -6.735188    552.37114  0.034661844  0.035063353            1 
 1329000    1.0101642   -6.7434103    554.77572  0.034786539  0.035055175            4 
 1330000    1.0473049    -6.754925     554.7847  0.034760946  0.035047013            4 
 1331000    1.0285095   -6.7431827    552.72849  0.034606091  0.035038739            3 
 1332000    1.0361588   -6.7381002    552.55191  0.034569064  0.035030487            1 
 1333000    1.0105087   -6.7274626    555.85846  0.034749841  0.035022358            4 
 1334000     1.028339   -6.7441351    554.87401  0.034662294   0.03501441            2 
 1335000    1.0581789   -6.7436619    555.43149  0.034671129  0.035006308            2 
 1336000     1.036104   -6.7437508    556.19379  0.034692727  0.034998243            2 
 1337000    1.0312348   -6.7737881    554.61715  0.034568509   0.03499012            4 
 1338000    1.0277503    -6.732444    557.12862  0.034699092  0.034982053            2 
 1339000    1.0472747   -6.7370446     555.8614  0.034594312  0.034974044            8 
 1340000    1.0426448   -6.7586653    556.35044  0.034598908  0.034965895            2 
 1341000    1.0227376   -6.7521907    556.52861  0.034584179   0.03495783            3 
 1342000    1.0377971   -6.7742479    555.91118  0.034520068  0.034949725            3 
 1343000    1.0237027   -6.7131856    558.93379  0.034681918  0.034941619            3 
 1344000    1.0163359   -6.7418299    557.21912  0.034549796  0.034933689            7 
 1345000    1.0369063   -6.8087468    555.71664  0.034431019  0.034925499            2 
 1346000     1.022709   -6.7250447    557.70216  0.034528366  0.034917278            2 
 1347000    1.0361144   -6.7860168    558.04308  0.034523823  0.034909093            3 
 1348000    1.0504945   -6.7518204     558.0778  0.034500359   0.03490073            2 
 1349000    1.0283207   -6.7464958    558.76601  0.034517297  0.034892503            3 
 1350000     1.028055   -6.7602015     557.6978   0.03442579  0.034884123            3 
 1351000    1.0435457   -6.7714897      557.681  0.034399272  0.034875849            1 
 1352000    1.0235397   -6.7233275    559.58222  0.034491014  0.034867573            4 
 1353000    1.0381173   -6.7697445    560.27306  0.034508072  0.034859322            3 
 1354000    1.0215906   -6.7718007    560.59806  0.034502589  0.034851046            3 
 1355000    1.0329419   -6.7743021    558.02302  0.034318759  0.034842717            1 
 1356000    1.0279433   -6.7501635    560.33384  0.034435462  0.034834479            4 
 1357000     1.022308    -6.783753    560.31609  0.034408996  0.034826167            3 
 1358000    1.0411883    -6.769682    559.88806  0.034357392  0.034817738            3 
 1359000    1.0409882   -6.7695008    561.81138  0.034450048  0.034809261            6 
 1360000    1.0195374   -6.7820635    560.32696   0.03433376  0.034800986            4 
 1361000    1.0336846   -6.7711012    562.67895  0.034452544  0.034792814            5 
 1362000    1.0193559   -6.7614484    560.03267  0.034265337  0.034784622            4 
 1363000    1.0351705   -6.7938179    561.77181  0.034346528  0.034776433            3 
 1364000     1.032937    -6.782082     565.3298  0.034538722  0.034768338            2 
 1365000    1.0370356   -6.8027348    562.32447  0.034329943  0.034760328            2 
 1366000    1.0171479   -6.7508423    562.73065   0.03432959   0.03475216            2 
 1367000    1.0402629   -6.7651708    562.38544  0.034283433  0.034743841            1 
 1368000     1.025731   -6.7435099    564.22051  0.034370158  0.034735612            5 
 1369000    1.0047371   -6.7451701    563.64929  0.034310281  0.034727353            3 
 1370000     1.032891   -6.7625409    564.65344  0.034346316  0.034719006            4 
 1371000    1.0389658   -6.7905482    564.77496  0.034328651   0.03471078            2 
 1372000    1.0250927   -6.7443056    565.12369  0.034324811  0.034702511            3 
 1373000    1.0343832   -6.7924613     564.4603  0.034259547    0.0346942            4 
 1374000    1.0078401   -6.7540542    565.34146  0.034288056  0.034685828            3 
 1375000    1.0284633   -6.7592276    564.50604  0.034212487  0.034677377            4 
 1376000    1.0191043   -6.7768519    564.66781   0.03419742  0.034668966            8 
 1377000    1.0334568   -6.7556177      565.351  0.034213931  0.034660426            7 
 1378000    1.0143495   -6.7539575    566.55714  0.034262043  0.034651971            2 
 1379000    1.0385135   -6.7443575    567.02956  0.034265746  0.034643477            5 
 1380000    1.0184688   -6.8196719    565.92635  0.034174297  0.034634861            4 
 1381000    1.0309786   -6.7665084    565.71793  0.034136974  0.034626293            3 
 1382000    1.0197394   -6.7455503    567.15548  0.034198956  0.034617724            2 
 1383000    1.0564145   -6.7534888     566.5237  0.034136159  0.034609228            5 
 1384000    1.0420038   -6.7543444    567.58632  0.034175477  0.034600659            8 
 1385000    1.0309848    -6.769473    565.62032   0.03403251  0.034591965            3 
 1386000    1.0219819   -6.7656815    566.68181  0.034071778  0.034583391            2 
 1387000    1.0470156   -6.7856805    568.40618  0.034150816  0.034574859            2 
 1388000    1.0212521   -6.7439092    568.17533  0.034112352  0.034566164            5 
 1389000    1.0362738   -6.7409442    567.42312  0.034042664  0.034557585            2 
 1390000    1.0222315   -6.7525293    569.61562  0.034149617  0.034548969            2 
 1391000    1.0110063   -6.7923687    568.09322  0.034033861  0.034540347            4 
 1392000     1.040015   -6.7523725    570.76962  0.034169637  0.034531633            4 
 1393000    1.0256226   -6.7451133    569.16911  0.034049361  0.034523107            2 
 1394000    1.0418645   -6.7773807    568.94955   0.03401181  0.034514425            3 
 1395000    1.0220962   -6.7581205    570.10532  0.034056471  0.034505637            3 
 1396000    1.0331436   -6.7998981     570.5672  0.034059647  0.034496857            5 
 1397000    1.0327997   -6.7764662    568.90505  0.033936116  0.034488059            4 
 1398000    1.0425179   -6.7980538    569.01275  0.033918261  0.034479326            2 
 1399000    1.0202629   -6.7773522    570.71091   0.03399517  0.034470518            7 
 1400000    1.0333989   -6.8096431    571.44124   0.03401436  0.034461705            3 
 1401000    1.0288665   -6.8003437     571.3197  0.033982851   0.03445296            4 
 1402000    1.0523923   -6.7606421    571.29602  0.033957205  0.034444153            4 
 1403000    1.0204721   -6.7491514    572.58729  0.034009699   0.03443541            9 
 1404000    1.0475162   -6.7599804    572.07975  0.033955351  0.034426692            5 
 1405000    1.0352218   -6.7928827    571.88738  0.033919774  0.034418021            2 
 1406000      1.04332   -6.7832224    571.41188  0.033867466   0.03440904            2 
 1407000    1.0316499   -6.7858012    569.58917   0.03373544  0.034400062            3 
 1408000    1.0241241   -6.7999192    570.52145  0.033766657    0.0343911            3 
 1409000    1.0196368   -6.7997955    571.19565  0.033782567   0.03438195            3 
 1410000    1.0298227   -6.7778806    571.54436  0.033779217  0.034372741            4 
 1411000    1.0195129   -6.7815367    571.82001  0.033771558  0.034363595            4 
 1412000    1.0152658   -6.7996788    571.72197  0.033741854  0.034354454            3 
 1413000    1.0018031   -6.8004458     573.0894   0.03379862  0.034345294            2 
 1414000    1.0189734   -6.7386942    573.33192   0.03378901  0.034336161            3 
 1415000    1.0135035   -6.7676913     573.7527  0.033789912  0.034327129            2 
 1416000    1.0328704   -6.7998045    574.29926  0.033798215  0.034318106            3 
 1417000    1.0272236   -6.7851146    574.80243  0.033803954  0.034309265            3 
 1418000    1.0433824   -6.7509911    576.30372  0.033868343  0.034300345            5 
 1419000    1.0185868   -6.7549977    576.87314  0.033877915  0.034291447            3 
 1420000    1.0216338   -6.8045355    574.00108  0.033685509  0.034282614            4 
 1421000    1.0472819   -6.7657853    575.88979  0.033772566  0.034273732            2 
 1422000    1.0143651   -6.7402516    576.07163  0.033759472   0.03426502            5 
 1423000    1.0170174   -6.7842769    576.71729  0.033773559  0.034256427            2 
 1424000    1.0337635   -6.7804391    575.64419  0.033687043  0.034247796            3 
 1425000    1.0230021   -6.7932177    577.12431  0.033749959    0.0342391            5 
 1426000    1.0070164   -6.7795692    577.82352  0.033767153  0.034230303            1 
 1427000    1.0062971   -6.7900229    577.34022  0.033715266  0.034221541            4 
 1428000    1.0348545   -6.8182025    578.22391  0.033743225  0.034212845            3 
 1429000    1.0030816   -6.7949979    579.45687  0.033791514  0.034204229            2 
 1430000    1.0320153   -6.7791992    577.65721  0.033663008  0.034195488            4 
 1431000    1.0373539   -6.7769362    578.37311  0.033681173  0.034186766            3 
 1432000    1.0045565   -6.7556842    580.28104  0.033768683  0.034178242            2 
 1433000    1.0355212   -6.7750143    579.50058  0.033699731  0.034169588            3 
 1434000    1.0321012   -6.8040579    579.28497  0.033663701  0.034160925            4 
 1435000    1.0272404   -6.7866934    578.23356  0.033579184  0.034152256            2 
 1436000    1.0354799   -6.8157747    579.45949  0.033626943  0.034143437            3 
 1437000    1.0198609   -6.8176325    581.26914  0.033708486  0.034134701            8 
 1438000    1.0392902   -6.7911057    580.37577  0.033633274  0.034125859            4 
 1439000    1.0185554   -6.7343556    582.01767  0.033704985  0.034117098            2 
 1440000    1.0220572   -6.7927797    580.62857  0.033601191  0.034108378            4 
 1441000    1.0123249   -6.8032795    582.71423  0.033698487  0.034099709            3 
 1442000    1.0116839   -6.7658778    582.77708   0.03367875  0.034090901            2 
 1443000    1.0216558    -6.757094    581.07731  0.033557248  0.034082113            3 
 1444000    1.0256289   -6.7965903    582.08871  0.033592377  0.034073447            3 
 1445000    1.0238867   -6.7440554    583.17299   0.03363166  0.034064775            3 
 1446000    1.0367388   -6.7546378    584.60754  0.033691076  0.034056008            2 
 1447000    1.0205425   -6.7830374    583.63668   0.03361188  0.034047417            7 
 1448000    1.0206193   -6.7964879    583.92778   0.03360542  0.034038816            3 
 1449000    1.0310754   -6.7860951    584.17827  0.033596634  0.034030156            1 
 1450000   0.99081069   -6.7633498    584.32284  0.033581773  0.034021527            3 
 1451000     1.026552   -6.7427281     586.0548  0.033658098  0.034013085            3 
 1452000    1.0127682     -6.75759    586.73648   0.03367404  0.034004546            1 
 1453000    1.0057911   -6.7873122    584.12655  0.033501179  0.033996021            2 
 1454000    1.0234253   -6.8139976    586.00489  0.033585792  0.033987409            2 
 1455000    1.0205946   -6.8018046    585.56992  0.033537796  0.033978678            8 
 1456000      1.01692    -6.727831    586.82666  0.033586691   0.03397017            2 
 1457000    1.0156446   -6.7735541    587.94581  0.033627648  0.033961763            3 
 1458000   0.98547665   -6.7753121    586.11779  0.033500102   0.03395334            2 
 1459000   0.99630355   -6.7973716    587.37535  0.033548969  0.033944824            2 
 1460000    1.0341237   -6.8158951    586.24255  0.033461333  0.033936262            2 
 1461000    1.0270969   -6.8114246    587.53509  0.033512155  0.033927809            3 
 1462000    1.0032639   -6.7922272    588.82754  0.033562901  0.033919288            3 
 1463000   0.97921249   -6.7664413    588.11718  0.033499497  0.033910738            5 
 1464000    1.0152111   -6.7899145     588.2394  0.033483572  0.033902201            4 
 1465000    1.0001269   -6.7838298    588.18869  0.033457832  0.033893619            2 
 1466000    1.0099538   -6.8041257     589.0999  0.033486806  0.033885149            5 
 1467000     1.021629   -6.7488959    591.62963  0.033607682  0.033876736           10 
 1468000    1.0160453   -6.8042753    591.81567  0.033595349  0.033868466            7 
 1469000     1.028621   -6.7726167    589.52244  0.033442389  0.033860126            2 
 1470000    1.0177517   -6.7978191    588.90019  0.033384365   0.03385165            2 
 1471000    1.0227231   -6.7719892    591.82617  0.033527428  0.033843045            2 
 1472000    1.0323799    -6.803889    591.51174  0.033486851  0.033834588            3 
 1473000    1.0002111   -6.8314318    590.82846  0.033425462  0.033826108            2 
 1474000    1.0131872   -6.7758083    591.48444  0.033439871  0.033817651            2 
 1475000   0.99851477   -6.7824738    591.64755  0.033426415  0.033809024            7 
 1476000    1.0235653    -6.791488    591.39185  0.033389332  0.033800523            4 
 1477000    1.0291934    -6.802184    591.68118   0.03338305  0.033792065            2 
 1478000   0.99890349    -6.749819    595.01412  0.033548383  0.033783786            3 
 1479000    1.0083871   -6.7731297    594.37406  0.033489636   0.03377562            3 
 1480000   0.99474281   -6.7986808    594.01373  0.033446719  0.033767314            4 
 1481000    1.0211381   -6.7733161    594.72772   0.03346431  0.033758937            2 
 1482000    1.0078114   -6.7867091    594.52598  0.033430386  0.033750515            3 
 1483000    1.0286049   -6.7889154    594.57731  0.033410728  0.033742021            3 
 1484000    1.0160802   -6.7879071    594.94269  0.033408731  0.033733693            3 
 1485000    1.0130757    -6.803469    594.55049  0.033364225  0.033725219            1 
 1486000    1.0054812   -6.7776592    594.98556  0.033366171  0.033716619            5 
 1487000    1.0129899    -6.773062    596.10793  0.033406631  0.033708206            2 
 1488000    1.0098733   -6.7954404    595.48552  0.033349324  0.033700033            3 
 1489000    1.0065699   -6.7990913    596.85032  0.033403309  0.033691635            2 
 1490000    1.0257436   -6.7845417    597.27646  0.033404723  0.033683341            4 
 1491000    1.0159675   -6.7839303    596.61282  0.033345228  0.033674943            2 
 1492000    1.0004117   -6.7985205    596.90413  0.033339149  0.033666568            2 
 1493000    1.0111148   -6.7805582    596.28872  0.033282469  0.033658143            3 
 1494000    1.0102452   -6.8060038    595.85576  0.033236042  0.033649864            6 
 1495000    1.0192543   -6.7861543    598.23576  0.033346475  0.033641466            3 
 1496000   0.99888309    -6.796398    597.59644  0.033288572  0.033633142            3 
 1497000    1.0391719   -6.7915073     598.4703   0.03331498  0.033624828            6 
 1498000    1.0075583    -6.756533    599.66117  0.033358988  0.033616601            3 
 1499000   0.99575217   -6.8263507    598.26795  0.033259281  0.033608312            2 
 1500000    1.0057977   -6.7932563    599.37271  0.033298484  0.033599972            7 
 1501000    1.0195647   -6.7928974    600.58988  0.033343875  0.033591772            3 
 1502000     1.004631   -6.8164518    598.73163  0.033218577  0.033583575            4 
 1503000    1.0304242   -6.7908967    599.44569  0.033236066  0.033575375            4 
 1504000    1.0250235   -6.8121055    600.65791  0.033281134  0.033567293            4 
 1505000    1.0143693    -6.812077    601.08477  0.033282656  0.033559175            3 
 1506000    1.0117453   -6.8149665    602.80604  0.033355801  0.033551128            4 
 1507000    1.0011004   -6.8256205     600.5393  0.033208322  0.033543032            3 
 1508000    1.0017834   -6.7867202    601.79649  0.033255774  0.033535015            2 
 1509000    1.0035227   -6.7677866    602.66816  0.033281873  0.033526979            3 
 1510000   0.97865598    -6.815968    603.03122  0.033279869  0.033518943            4 
 1511000    1.0163587   -6.8004447    603.20005  0.033267155   0.03351082            3 
 1512000    1.0180192   -6.7913986    604.53512  0.033318734  0.033502723            5 
 1513000    1.0204577   -6.7847181    603.18085  0.033222122  0.033494607            3 
 1514000    1.0138729   -6.8277914    605.12724  0.033307312  0.033486509            5 
 1515000    1.0159435   -6.8361395    602.50556   0.03314112   0.03347828            2 
 1516000    1.0018232   -6.7745223    604.40281  0.033223549  0.033470156            4 
 1517000    1.0190246     -6.77804    604.40033  0.033201512  0.033462179            1 
 1518000    1.0137519   -6.7794136    604.14601  0.033165679  0.033454144            3 
 1519000    1.0071948   -6.8025383     605.4846  0.033217281  0.033446135            2 
 1520000    1.0041696   -6.8200175    605.06807  0.033172592  0.033437999            6 
 1521000   0.99740292   -6.8513778    603.13212  0.033044714  0.033429705            2 
 1522000   0.97733312   -6.8022348    605.06029  0.033128575  0.033421463           10 
 1523000   0.99356179   -6.7939634    605.82966   0.03314892  0.033413278            2 
 1524000    1.0047042   -6.7832909    606.03867  0.033138597  0.033405059            2 
 1525000    1.0081577   -6.8225667     604.7309  0.033045404  0.033396822            2 
 1526000    1.0085802   -6.8138845    605.04363  0.033040827   0.03338854            3 
 1527000    1.0040961   -6.7990503    606.42145  0.033094382  0.033380158            3 
 1528000    1.0181234   -6.8037937    605.09618  0.033000446  0.033371864            3 
 1529000    1.0048131   -6.8125174    607.37162  0.033102879  0.033363679            2 
 1530000    1.0126479   -6.8100657    606.19536  0.033017177  0.033355457            3 
 1531000   0.98611607   -6.8129581    607.04334  0.033041767  0.033347184            4 
 1532000    1.0139953   -6.8047558    606.29805  0.032979659  0.033338882            3 
 1533000   0.99269492   -6.7726467    607.52423    0.0330248   0.03333059            3 
 1534000    1.0333097   -6.8351661     607.3098  0.032991623  0.033322303            5 
 1535000    1.0095213   -6.8227618    608.66607  0.033043761  0.033314088            4 
 1536000   0.99346939    -6.772042    609.93059  0.033090852  0.033305914            2 
 1537000    1.0029397   -6.8097085    609.33479   0.03303702  0.033297863            4 
 1538000    1.0145112   -6.7888696    608.93772  0.032994025  0.033289875            4 
 1539000    1.0026312   -6.8191298     609.4755  0.033001706  0.033281807            3 
 1540000    1.0086316   -6.8434408    608.96831  0.032952831  0.033273572            1 
 1541000    1.0037615   -6.8185448    608.33873    0.0328974  0.033265419            2 
 1542000    1.0040222   -6.7980393    609.60415  0.032944453  0.033257295            4 
 1543000     1.028844   -6.8310618    609.29223  0.032906255  0.033249218            4 
 1544000    1.0108877   -6.7958209     611.0857  0.032981741  0.033241163            3 
 1545000    1.0234666   -6.8281516    612.39056  0.033030775  0.033233065            2 
 1546000    1.0037852   -6.8254617    610.61117  0.032913495  0.033224825            4 
 1547000   0.99859797   -6.8530749    611.05116  0.032915921  0.033216546            3 
 1548000   0.99857783   -6.8180289    611.12184  0.032898463  0.033208268            6 
 1549000    1.0136031   -6.8149213    610.40426   0.03283862  0.033200066            3 
 1550000    1.0060183   -6.8175734    610.54684  0.032825099  0.033191775            3 
 1551000   0.99310159    -6.806746     609.9151  0.032769992  0.033183448            4 
 1552000    1.0202393   -6.7907236    611.10941  0.032813005  0.033175146            3 
 1553000    1.0044856   -6.8405566    611.48028  0.032811777   0.03316676            3 
 1554000    1.0020171    -6.844509    610.98508  0.032764108   0.03315822            6 
 1555000     1.005421   -6.7985548    613.23419  0.032863569  0.033149815            6 
 1556000   0.99940465   -6.8166654    610.94342  0.032719763  0.033141317            4 
 1557000   0.99085689   -6.7825742    612.19747  0.032765867  0.033132853            4 
 1558000    1.0065509   -6.8286896    613.54604  0.032816968  0.033124388            6 
 1559000    1.0028802    -6.837027    613.56174  0.032796757    0.0331159            2 
 1560000   0.98743031   -6.8306576    611.59837  0.032670853  0.033107386            1 
 1561000    1.0229385   -6.8188945    612.44691  0.032695223  0.033099058            2 
 1562000    1.0050074    -6.848154    614.17836  0.032766664  0.033090625            3 
 1563000      0.99343   -6.8277573    612.72646  0.032668291   0.03308228            4 
 1564000   0.99999999   -6.7930885    615.18261  0.032778272  0.033073906            2 
 1565000    1.0163123   -6.8052498    614.66904  0.032729981  0.033065489            3 
 1566000    1.0052542   -6.8180961    614.50798   0.03270051  0.033057092            3 
 1567000   0.99539118   -6.8370252    614.81841   0.03269615  0.033048784            2 
 1568000   0.98276813   -6.8552406    614.69158  0.032668557   0.03304041            9 
 1569000    1.0201468   -6.7775101     616.3307  0.032734794  0.033032233            2 
 1570000    1.0071559   -6.8050695    617.01092  0.032750049  0.033023949            4 
 1571000    1.0026608   -6.8151037    615.64283  0.032656632  0.033015672            4 
 1572000     1.024692   -6.8292298    616.33891  0.032672758   0.03300752            2 
 1573000    1.0217369   -6.8258273    619.47189  0.032817964  0.032999251            3 
 1574000   0.99665166   -6.8142566    619.02992  0.032773714  0.032990963            3 
 1575000   0.97163182   -6.7984219    617.33904  0.032663441  0.032982804            4 
 1576000    1.0249807    -6.825268    618.35287  0.032696324  0.032974771            2 
 1577000    1.0226007   -6.8025837    620.07476   0.03276658  0.032966719            2 
 1578000    1.0101187   -6.7938629    620.77898  0.032783005   0.03295868            5 
 1579000    1.0045229   -6.8199874    618.52092  0.032643071  0.032950627            3 
 1580000   0.99008586   -6.8253312    618.11346  0.032600921  0.032942661            4 
 1581000    1.0136022   -6.8376887    619.33074  0.032644462   0.03293453            5 
 1582000   0.99390567   -6.8213815    619.03109  0.032608043  0.032926439            2 
 1583000    1.0003116   -6.8323722    621.77331  0.032731802  0.032918378            5 
 1584000   0.99750444    -6.821024    620.82612  0.032661307  0.032910346           12 
 1585000    1.0067714   -6.8293836    621.67761  0.032685468  0.032902414            4 
 1586000    1.0095042   -6.8399564    622.92064  0.032730172  0.032894298            2 
 1587000    1.0006713   -6.8054007    621.95438   0.03265881   0.03288637            4 
 1588000   0.99580712   -6.8499698    620.06454  0.032539071   0.03287835            2 
 1589000    1.0166999   -6.8261572    622.32135  0.032636949  0.032870306            5 
 1590000   0.99632428   -6.8275521    624.64623  0.032738272  0.032862517            9 
 1591000    1.0074331   -6.8553542    623.25188  0.032644661  0.032854738            5 
 1592000   0.99782358   -6.8212682    624.15424   0.03267139  0.032846718            4 
 1593000    0.9997043   -6.8318077    623.85149  0.032635043  0.032838852            4 
 1594000    1.0128431   -6.8556847    623.29555  0.032585506  0.032830818            5 
 1595000    1.0039038   -6.8657751    622.48807  0.032522888  0.032822686            4 
 1596000   0.98364531   -6.8457405    625.94179  0.032682842  0.032814695            3 
 1597000   0.98058363   -6.8199257    624.99306  0.032612871   0.03280683            3 
 1598000    0.9982229   -6.8369079    625.81713  0.032635437  0.032798923            2 
 1599000    1.0095145   -6.8636307    625.38402  0.032592454  0.032791024            3 
 1600000     1.002369   -6.8146105    624.31261  0.032516282  0.032783084            3 
 1601000   0.99175924   -6.8332695    626.04538  0.032586164  0.032775115            4 
 1602000   0.99913003   -6.8256924    627.25975  0.032628992  0.032767147            2 
 1603000    0.9827683   -6.8583501    625.97789  0.032541999  0.032759196            2 
 1604000   0.99188908   -6.8269388    624.94089  0.032467835  0.032751093            4 
 1605000     1.010864   -6.8683629    625.41123  0.032472026   0.03274306           10 
 1606000    1.0177882   -6.8068188    626.19459  0.032492455  0.032735032            4 
 1607000    1.0014114   -6.8121378    626.65951  0.032496344  0.032727151            2 
 1608000   0.97278306   -6.8370687    626.51904  0.032468856  0.032719118            2 
 1609000   0.99082982   -6.8641637    628.60001  0.032556454  0.032711051            2 
 1610000    1.0015256   -6.8585636    626.97778  0.032452266  0.032702961            8 
 1611000    1.0065181   -6.8384474    627.44917  0.032456506  0.032694947            5 
 1612000   0.99953489   -6.8181098    628.00922  0.032465324  0.032687064            2 
 1613000   0.97588812   -6.8387041    628.82368  0.032487274  0.032679105            2 
 1614000    0.9595134   -6.8092162     627.5354   0.03240063  0.032671071            4 
 1615000   0.99473239    -6.846054    628.71324  0.032441344  0.032662928            2 
 1616000   0.99704577   -6.8284426    628.71877  0.032421554  0.032654711            5 
 1617000    1.0040947   -6.8159953    629.13739  0.032423077  0.032646743            2 
 1618000   0.98702764   -6.8363262    629.69456  0.032431735   0.03263874            8 
 1619000   0.97923442    -6.841709    628.11202  0.032330246  0.032630478            4 
 1620000   0.98269809   -6.8422854    630.86775  0.032452045  0.032622307            3 
 1621000   0.98449211   -6.8531182    627.80174  0.032274406    0.0326142            2 
 1622000   0.99758848   -6.8282041    630.18411  0.032376907  0.032605999            4 
 1623000     0.980611   -6.8285177    630.25324  0.032360507   0.03259798            5 
 1624000   0.99675263   -6.8428042    630.25286  0.032340561    0.0325898            5 
 1625000    1.0116069   -6.8484504    629.85377  0.032300194   0.03258151            3 
 1626000   0.99346411   -6.8408627    631.95912  0.032388229  0.032573371            4 
 1627000   0.98707211   -6.8268651    631.40002  0.032339686  0.032565205            2 
 1628000   0.99319376   -6.8360391    630.47076  0.032272254   0.03255695            2 
 1629000   0.99028221   -6.8511514     631.9987  0.032330607  0.032548756            2 
 1630000   0.98644185   -6.8424713     629.0878  0.032161953  0.032540576            3 
 1631000   0.96217419   -6.8084322    632.00955  0.032291516  0.032532429            5 
 1632000   0.99900111   -6.8392843    631.55364   0.03224845  0.032524363            3 
 1633000   0.98001929   -6.8590968    631.24858  0.032213134  0.032516231            3 
 1634000   0.98517191   -6.8622541    631.89463  0.032226368  0.032508142            1 
 1635000   0.99477709   -6.8217553     631.6043   0.03219186  0.032499951            7 
 1636000   0.99869134   -6.8121255    633.50619   0.03226906   0.03249188            4 
 1637000   0.98765786   -6.8031966    634.00296  0.032274636  0.032483883            2 
 1638000   0.99065042   -6.8631974    631.64358  0.032134899  0.032475792            2 
 1639000    1.0060973   -6.8537785    633.17798  0.032193308  0.032467597            6 
 1640000    1.0227992   -6.8505692    634.71293  0.032251673  0.032459434            2 
 1641000   0.99746103   -6.8013904    634.66422  0.032229546  0.032451355            3 
 1642000   0.98152696   -6.8612677    633.88148  0.032170193  0.032443233            4 
 1643000   0.98591364   -6.8274309    636.24341   0.03227041   0.03243515            7 
 1644000   0.97721458   -6.8697492    633.92322  0.032133172  0.032426985            3 
 1645000   0.99078717   -6.8363907    634.30884  0.032133173  0.032418828            3 
 1646000   0.98737033   -6.8531209    634.73099  0.032135024  0.032410625            4 
 1647000    1.0082844   -6.8687439    634.22387  0.032089854  0.032402389            7 
 1648000    1.0104296   -6.8587539    636.09655  0.032165076  0.032394122            2 
 1649000   0.97606322   -6.8831864    634.04049  0.032041666  0.032385751            4 
 1650000   0.96969203   -6.8406677    636.18211   0.03213041  0.032377487            3 
 1651000   0.97230452   -6.8259338    636.69179  0.032136674  0.032369338            1 
 1652000   0.99867835    -6.862578    635.82373  0.032073433  0.032361088            8 
 1653000   0.98649782   -6.8454099     635.5161  0.032038521  0.032352813            4 
 1654000   0.98094097   -6.8322605    636.02268  0.032044673  0.032344494            4 
 1655000   0.98752513    -6.843397    637.07489  0.032078292  0.032336297            8 
 1656000   0.99925115   -6.8691254    636.26994  0.032018415  0.032328118            4 
 1657000    1.0119109   -6.8330105    637.43908   0.03205789  0.032319996            3 
 1658000   0.98610322    -6.856202    638.43875  0.032088799  0.032311858            2 
 1659000    1.0174531   -6.8727708     635.4764  0.031920655   0.03230368            2 
 1660000   0.99045126   -6.8659088    636.60002  0.031957832   0.03229549            1 
 1661000   0.97327965   -6.8689268    637.46066  0.031981771   0.03228731            4 
 1662000   0.96686103   -6.8184046    638.40493  0.032009874  0.032279015            3 
 1663000   0.98511226   -6.8563818    639.70594   0.03205582  0.032270816            5 
 1664000   0.99601025   -6.8255317    639.03357  0.032002883  0.032262665            7 
 1665000    1.0086703    -6.830427    640.09858  0.032036966  0.032254546            3 
 1666000   0.97900422   -6.8123214    640.85746  0.032055695   0.03224637            3 
 1667000   0.97095328   -6.8505744    640.82407  0.032034797  0.032238418            4 
 1668000   0.98893874   -6.8480216    641.00558  0.032024659   0.03223032            2 
 1669000   0.98294557   -6.8389446    640.05751  0.031958134  0.032222348            1 
 1670000    1.0112312   -6.8481301    641.15803  0.031993914  0.032214309            6 
 1671000   0.97404704   -6.8596203    639.53801  0.031893976  0.032206304            5 
 1672000   0.99482119   -6.8470977    640.92745  0.031944151  0.032198263            2 
 1673000   0.97976421   -6.8449195    642.23304   0.03199009   0.03219033            6 
 1674000   0.98337703   -6.8740426    642.05316  0.031962025  0.032182264            3 
 1675000   0.98351512   -6.8692264    641.54657   0.03191774  0.032174307            3 
 1676000   0.99150385   -6.8511692    641.60812  0.031901756  0.032166338            2 
 1677000   0.98856623   -6.8812608    642.04005  0.031904196  0.032158295            8 
 1678000   0.99763234   -6.8534789    642.82182  0.031924008  0.032150315            2 
 1679000   0.97286653   -6.8771545    645.99983  0.032062727  0.032142421            2 
 1680000    0.9749517    -6.854221    642.11979   0.03185118  0.032134488            3 
 1681000   0.97066989   -6.8481069    643.63642  0.031907417  0.032126556            3 
 1682000   0.99541765    -6.860374      643.672   0.03189021  0.032118562            3 
 1683000   0.97214096   -6.8181489    645.98884  0.031985979  0.032110611            2 
 1684000   0.96480273   -6.8706349    644.11263   0.03187414  0.032102631            5 
 1685000   0.98589642    -6.854064    647.80055  0.032037614  0.032094683            1 
 1686000   0.99067026   -6.8442644    646.83403   0.03197084  0.032086848            7 
 1687000   0.99108917   -6.8755228    645.69472  0.031895609  0.032078871            2 
 1688000    0.9844334   -6.8566906    644.73619  0.031829393  0.032070901            4 
 1689000   0.99664421   -6.8650889    646.23733  0.031884613  0.032062935            1 
 1690000     0.978979   -6.8594553    647.78967  0.031942292  0.032055104            1 
 1691000   0.99102811   -6.8848983    647.23361  0.031895999  0.032047176            4 
 1692000   0.96397271   -6.8788738    645.46505  0.031790044  0.032039292            4 
 1693000   0.99058577   -6.8758388    646.07859  0.031801466  0.032031418            3 
 1694000    0.9641541   -6.8854599    645.43725  0.031751144  0.032023445            3 
 1695000   0.94410393   -6.8989768    647.43929   0.03183084  0.032015496            4 
 1696000    0.9916906   -6.8467531    647.26193  0.031803357  0.032007564            4 
 1697000   0.99252001   -6.8991476    647.68041  0.031805167   0.03199961            5 
 1698000   0.97684646   -6.8688644    648.57334  0.031830258  0.031991669            6 
 1699000   0.98673709   -6.8749677    648.79522  0.031822406  0.031983788            5 
 1700000   0.97233595   -6.9170835    646.01987  0.031667641  0.031975803            4 
 1701000    1.0168106   -6.9190729    648.31404  0.031761417  0.031967957            7 
 1702000   0.96089968   -6.8968594    649.64868  0.031808102  0.031960067            5 
 1703000   0.99465328   -6.8848148    648.42318  0.031729457  0.031952281            4 
 1704000    1.0077427   -6.8739161      649.969  0.031786434  0.031944537            3 
 1705000   0.99006456   -6.8548019    650.09749  0.031774071  0.031936706            4 
 1706000   0.98875652   -6.9061749    649.01273  0.031702459  0.031928938            2 
 1707000   0.99725132   -6.8954127    651.43657  0.031802215  0.031921001            9 
 1708000   0.97451663   -6.9010577    650.19323  0.031722933  0.031913116            4 
 1709000   0.97908789   -6.8610718    651.46558  0.031766412  0.031905315            3 
 1710000    1.0038589   -6.8965142      650.598  0.031705556  0.031897448            6 
 1711000    0.9591813   -6.8785076    650.13746  0.031664595   0.03188956            4 
 1712000   0.98460082   -6.8531102    652.07534  0.031740427  0.031881645            3 
 1713000   0.95376397   -6.8738034    650.40895  0.031640832  0.031873777            3 
 1714000   0.97195102   -6.9093232    650.34202  0.031619118  0.031865894            7 
 1715000   0.99207493   -6.8598724     652.9119  0.031725554  0.031858115            3 
 1716000   0.95856359   -6.8746197    651.96996  0.031661323  0.031850379            3 
 1717000   0.96600274   -6.8348676    653.10739  0.031698087   0.03184258            2 
 1718000   0.97287265   -6.9031081    653.29788  0.031688877   0.03183467            3 
 1719000   0.97933014   -6.8863802    652.81698  0.031647129  0.031826753            5 
 1720000    1.0112761   -6.8942692    654.34413   0.03170272  0.031819012            5 
 1721000    0.9914359    -6.880723     653.4479  0.031640902  0.031811245            3 
 1722000    1.0063221   -6.8649254     652.5111  0.031577192  0.031803483            4 
 1723000   0.98769869   -6.8678828    654.23253  0.031642123  0.031795775            7 
 1724000   0.96625106   -6.8632753    654.32825  0.031628396  0.031787869            9 
 1725000   0.98611117   -6.8781399     653.0046  0.031546116   0.03178004            4 
 1726000    0.9787599   -6.8769714    656.22849  0.031683492   0.03177228            5 
 1727000   0.96649632   -6.8930796    654.51127  0.031582285  0.031764514            8 
 1728000   0.97966794   -6.8649101     655.6228  0.031617612  0.031756744            4 
 1729000   0.96613078   -6.8678953    657.19406  0.031675056  0.031749042            6 
 1730000   0.96980106   -6.8952438    653.87723  0.031496976  0.031741191            6 
 1731000    1.0006073   -6.8789504    656.05021  0.031583392   0.03173343            3 
 1732000   0.97043733   -6.8864244    656.05391  0.031565334  0.031725703            4 
 1733000   0.97731248   -6.8653498    655.52942  0.031521899  0.031717889            4 
 1734000    0.9729959   -6.8923522    657.38991  0.031593133  0.031710152            7 
 1735000   0.97531036   -6.8657734    656.72682  0.031543075  0.031702341            7 
 1736000   0.99083416   -6.8624805    658.29214  0.031600045  0.031694569            5 
 1737000   0.96675259   -6.8727036    656.45675  0.031493799   0.03168671            8 
 1738000   0.97414518   -6.8872106    658.52549   0.03157487  0.031678963            4 
 1739000   0.95917436   -6.9035295    657.25395  0.031495781  0.031671152            5 
 1740000   0.95331545   -6.8705902    656.50053  0.031441596  0.031663321            2 
 1741000   0.96860395   -6.8561937    659.66787  0.031575142  0.031655524            3 
 1742000    1.0004369   -6.8619824    659.16906  0.031533155  0.031647775            5 
 1743000   0.96238937   -6.8860131    659.66178   0.03153862  0.031639933            3 
 1744000   0.97543548   -6.8816174    658.67217   0.03147325  0.031632003            4 
 1745000   0.98389359     -6.88933    658.41279  0.031442826  0.031624147            4 
 1746000    0.9630923   -6.8751247    661.20513  0.031558091  0.031616429            2 
 1747000    0.9826088    -6.896874    658.17275   0.03139538  0.031608762            5 
 1748000   0.99184093   -6.8834084    659.66666   0.03144864  0.031601017            2 
 1749000   0.97555905   -6.8465455    661.43357  0.031514845   0.03159332            5 
 1750000   0.98061816   -6.8509375    661.87014  0.031517626  0.031585677            5 
 1751000   0.97642348   -6.8800148     659.7672  0.031399543  0.031577974            4 
 1752000   0.98648379   -6.8781459      660.218  0.031403063   0.03157018            4 
 1753000   0.97929168   -6.8885676    661.98529  0.031469162  0.031562401            5 
 1754000   0.98243773   -6.8636947    660.11763  0.031362487  0.031554546            2 
 1755000   0.98035677    -6.862405    661.85569  0.031427146  0.031546683            4 
 1756000   0.95032192   -6.8860375     660.4165   0.03134095  0.031538738            3 
 1757000   0.96357457   -6.8810475    660.67959   0.03133559  0.031530861            5 
 1758000   0.96081995   -6.8833416    660.83235  0.031325007  0.031523018            6 
 1759000   0.97383483   -6.8366498    661.53836  0.031340646  0.031515222            3 
 1760000   0.98405456   -6.8781606    659.98752  0.031249409  0.031507192            3 
 1761000    0.9801693   -6.9240368    660.54669  0.031258125  0.031499186            3 
 1762000   0.97133533   -6.8761243    662.54209  0.031334756  0.031491104            9 
 1763000   0.99677438   -6.8670044    663.33722  0.031354567  0.031483046            3 
 1764000    0.9830526   -6.8808418    661.75791  0.031262184  0.031475054            3 
 1765000   0.95779369    -6.882735    661.35774  0.031225578  0.031466994            5 
 1766000   0.94378781   -6.8818621    662.17736  0.031246572  0.031458864            6 
 1767000   0.97315138   -6.8884493    661.98815  0.031219966  0.031450652            3 
 1768000   0.95409514    -6.860099    664.69598  0.031329939  0.031442495            3 
 1769000   0.98692624    -6.891133    661.44384  0.031159028  0.031434403            3 
 1770000   0.96977032   -6.8925182    661.61038  0.031149265  0.031426162            5 
 1771000   0.96064982    -6.868068    661.85585  0.031143226   0.03141812            3 
 1772000   0.96097679   -6.8754155    661.22857  0.031096152   0.03140995            2 
 1773000   0.97531968   -6.8856877    661.24233   0.03107926   0.03140181            4 
 1774000   0.94982609   -6.9019597    661.13437  0.031056669  0.031393635            5 
 1775000    0.9644887    -6.868194    664.18385   0.03118234  0.031385427            3 
 1776000   0.97102939   -6.8848308     664.2324  0.031167061  0.031377243            8 
 1777000   0.95663173   -6.8918196    663.89202   0.03113356   0.03136907            3 
 1778000   0.94713906   -6.8615045    664.01775  0.031121942  0.031360908            6 
 1779000   0.96374227    -6.922247    662.38127   0.03102779  0.031352676            5 
 1780000   0.96682007    -6.866002    665.86632  0.031173517  0.031344567            5 
 1781000   0.94788903   -6.9126324    664.84489   0.03110822  0.031336461            3 
 1782000   0.98852901   -6.9007942    664.72188  0.031085011  0.031328315            4 
 1783000   0.97311551   -6.8822269     665.5495  0.031106258  0.031320147            2 
 1784000   0.96599581   -6.9068699    666.79597  0.031147046  0.031311976            5 
 1785000   0.95668614   -6.9183839    665.57562  0.031072625   0.03130396            5 
 1786000   0.95383731   -6.8799781    666.58402  0.031102278   0.03129596            5 
 1787000   0.97978791    -6.912964    666.73885  0.031092093  0.031288085            3 
 1788000    0.9529951   -6.9205855    666.99634  0.031086705  0.031280056            5 
 1789000   0.96212231    -6.915792     668.2795  0.031129099  0.031271952            7 
 1790000   0.95544389   -6.8625587    667.87151  0.031092714  0.031264074            4 
 1791000   0.96620652   -6.8842734    667.50598  0.031058346  0.031256221            3 
 1792000   0.95442638   -6.9110769    667.33533  0.031033079  0.031248268            2 
 1793000   0.97148483   -6.9266607     666.3512  0.030970032  0.031240229            7 
 1794000   0.99069982   -6.9505975    669.12647  0.031081683  0.031232293            3 
 1795000   0.94202727   -6.9318118    669.51688  0.031082492   0.03122441            3 
 1796000   0.96578099   -6.9151793    668.95548  0.031039137  0.031216452            2 
 1797000   0.94760227   -6.9337416    668.94382  0.031021323  0.031208526            3 
 1798000   0.97331387   -6.8880645    670.75697  0.031088106  0.031200677            2 
 1799000   0.95903417   -6.9006173    670.19111  0.031044613  0.031192917            2 
 1800000    0.9681115   -6.8831725    671.18491  0.031073375  0.031185153            2 
 1801000   0.97294737   -6.9145879    671.03339  0.031049111   0.03117733            5 
 1802000   0.96421443   -6.9417613     669.2975  0.030951605  0.031169481            5 
 1803000   0.97639792   -6.9023651    670.98668  0.031012511  0.031161478            7 
 1804000   0.97751052   -6.9318804    671.18871  0.031004652  0.031153595            6 
 1805000   0.96162538    -6.931722    670.89066  0.030973715  0.031145665            2 
 1806000   0.95659431   -6.9245811    672.73906  0.031041854  0.031137805            2 
 1807000   0.96388008   -6.8970981    671.42993  0.030964302  0.031129949            7 
 1808000   0.95371085   -6.9280628     669.2071  0.030844723  0.031122037            5 
 1809000   0.96173914   -6.9118391    672.00326  0.030956479  0.031114049            4 
 1810000    0.9666771    -6.927674     668.5053  0.030778329  0.031106006            5 
 1811000   0.94571853   -6.9319571    672.44444  0.030942593  0.031097932            3 
 1812000   0.95827666   -6.8659848    674.32856  0.031012167  0.031090033            3 
 1813000   0.96612522   -6.9160085    673.57135  0.030960257  0.031082183            4 
 1814000   0.95546433   -6.9091709    672.60389  0.030898745  0.031074198            3 
 1815000   0.97287756   -6.9186998    669.78798  0.030752433  0.031066129            4 
 1816000   0.94020225   -6.9170294    671.37165   0.03080817  0.031058037            2 
 1817000   0.96278479   -6.9479036    672.70488  0.030852361  0.031049948            4 
 1818000   0.97604952   -6.9001841    673.06175  0.030851749  0.031041909            3 
 1819000   0.94768191   -6.9003846    673.54616   0.03085698  0.031033986            3 
 1820000   0.95432214   -6.9250223    672.36647   0.03078601  0.031025981            3 
 1821000   0.96103177   -6.9356053    673.95229  0.030841675  0.031017956            5 
 1822000   0.97023673   -6.8857019    673.43139  0.030800923  0.031009855            4 
 1823000   0.94887873   -6.8873349    673.18497  0.030772763   0.03100183            4 
 1824000   0.97085689    -6.908012    672.80752  0.030738648  0.030993768            7 
 1825000   0.96449928   -6.9075962    674.74805  0.030810413   0.03098567            3 
 1826000   0.97218682   -6.8949428    672.20942  0.030677685   0.03097757            8 
 1827000   0.94774913   -6.8751279     674.1158  0.030747847  0.030969389            5 
 1828000   0.96254155   -6.8910515    672.82477  0.030672172  0.030961149            4 
 1829000   0.94841767   -6.9003252    673.35486  0.030679554  0.030952861            2 
 1830000   0.95784201   -6.9641231    674.55457  0.030717421  0.030944624            3 
 1831000   0.96482751   -6.8965974    674.25339  0.030686937  0.030936541            5 
 1832000   0.97625738   -6.9019002    675.30506  0.030718025  0.030928275            6 
 1833000   0.94821972    -6.881465    675.69153  0.030718837  0.030920136            2 
 1834000   0.96888495   -6.9415663    675.07018  0.030673854  0.030911946            4 
 1835000   0.96023644   -6.9027722    673.94252  0.030605927  0.030903721            6 
 1836000   0.95991466   -6.9036091    676.23381  0.030693256  0.030895602            3 
 1837000   0.96950367   -6.9058271    675.69071   0.03065191  0.030887523            4 
 1838000   0.94374905   -6.8859351    675.74759  0.030637812  0.030879438            4 
 1839000    0.9815764   -6.9152031    675.80508  0.030623757  0.030871317            2 
 1840000   0.96282831   -6.9187715    676.21423  0.030625645   0.03086319            4 
 1841000   0.95782968   -6.9102144     675.4981  0.030576593  0.030855027            8 
 1842000   0.95591709   -6.8979583    674.49121  0.030514441  0.030846821            4 
 1843000    0.9346807    -6.917971    676.45083  0.030586491  0.030838642            4 
 1844000   0.96317037   -6.8917466     678.2982   0.03065339   0.03083042            3 
 1845000   0.97043325   -6.8942906    677.86116  0.030617035  0.030822307            8 
 1846000   0.97782515   -6.9142835    677.76365  0.030596048  0.030814191            5 
 1847000   0.95481018   -6.9011139    677.40341  0.030563229  0.030805929            4 
 1848000   0.94161341   -6.9192686    676.46419  0.030504337  0.030797715            2 
 1849000   0.94510561   -6.9321324    677.06059  0.030514719  0.030789432            4 
 1850000   0.93672686   -6.9380137    675.33909   0.03042068   0.03078105            2 
 1851000   0.94476806   -6.9432642    675.43468  0.030408548  0.030772714            5 
 1852000    0.9638605   -6.9350064    677.08396  0.030466341  0.030764343            2 
 1853000   0.95833312   -6.9120919    678.28349  0.030503845  0.030756087            2 
 1854000   0.94133971   -6.8844028    676.53339  0.030408728  0.030747711            3 
 1855000   0.97138948   -6.9247878    677.86646  0.030452222   0.03073943            4 
 1856000   0.94438198   -6.9047473    678.95745  0.030484799  0.030731204            6 
 1857000   0.95384697   -6.9032404    679.19689  0.030479128  0.030722924            8 
 1858000   0.95762125   -6.9357879    679.68509   0.03048462  0.030714595            3 
 1859000   0.96978621   -6.9016086    679.38905  0.030454951  0.030706337            6 
 1860000    0.9606257   -6.9049933    678.65815  0.030405831  0.030698163            4 
 1861000   0.97296542   -6.8726861    678.70313  0.030391507  0.030689871            5 
 1862000   0.95428655   -6.9141087    681.04068  0.030479801  0.030681729            3 
 1863000   0.94101392   -6.8788238    681.38115   0.03047867  0.030673608            2 
 1864000    0.9501021   -6.9412691    680.68969  0.030431406  0.030665528            3 
 1865000   0.94390423   -6.9402388    680.63961  0.030412851  0.030657322            2 
 1866000   0.95774405   -6.9200159    680.57457  0.030393648  0.030649124           13 
 1867000   0.95070685    -6.922607    682.21474  0.030450577  0.030640929            2 
 1868000    0.9378941   -6.9185788    682.67071  0.030454618  0.030632927            3 
 1869000   0.95342625   -6.9277553    682.85216  0.030446413  0.030624869            3 
 1870000   0.99312325   -6.9373159    681.95328  0.030390075  0.030616859            3 
 1871000   0.95217819   -6.9004703    682.40632   0.03039401  0.030608821            6 
 1872000   0.96602437   -6.9069025    684.45951  0.030469173  0.030600852            1 
 1873000   0.95291295   -6.9336447    684.84665   0.03047013  0.030592926            4 
 1874000   0.94465929   -6.9281136     685.1366  0.030466765  0.030584909            4 
 1875000   0.94881678    -6.910819    685.54361  0.030468605  0.030576963            4 
 1876000   0.93807075   -6.9211761    682.90861  0.030335315  0.030568945            2 
 1877000   0.97568058   -6.9162048    683.92224  0.030364156  0.030560902            3 
 1878000   0.95981632   -6.8779028    684.90936  0.030391789  0.030552948            4 
 1879000   0.94813474   -6.8994066    685.76617  0.030413614  0.030545077            2 
 1880000   0.95125409   -6.8906421    686.57038  0.030433084  0.030537195            2 
 1881000   0.94633057   -6.9003813    685.83491  0.030384322  0.030529253            7 
 1882000   0.96512306   -6.8873765    683.53449  0.030266317  0.030521131            8 
 1883000   0.94414282   -6.9269721    685.15146  0.030321803  0.030512987            4 
 1884000   0.96564557    -6.943879    683.03179  0.030211951  0.030504788            3 
 1885000   0.94666382   -6.9084413    684.95796  0.030281077   0.03049668            6 
 1886000   0.96286309   -6.9406447     686.0237  0.030312111  0.030488629            9 
 1887000    0.9557226   -6.9013228    686.18274  0.030303071  0.030480564            2 
 1888000   0.94786826   -6.9305369    685.95876  0.030277135  0.030472458            4 
 1889000   0.94154985   -6.9280923    685.14549  0.030225229  0.030464302            3 
 1890000    0.9541779   -6.9230181    686.95689  0.030289105  0.030456168            3 
 1891000   0.96306262   -6.9190228    688.41973  0.030337552  0.030448074            5 
 1892000   0.93692204   -6.9040974    687.08015  0.030262515  0.030440022            3 
 1893000   0.96046624   -6.9760173    685.45485   0.03017498  0.030431913            7 
 1894000    0.9148009    -6.937444    686.00463  0.030183238  0.030423809            7 
 1895000   0.95854073   -6.9409731    687.31901   0.03022511   0.03041573            3 
 1896000   0.93868561   -6.9631645    686.62932  0.030178856  0.030407602            2 
 1897000   0.93122768   -6.9456313    687.31611  0.030193117  0.030399421            2 
 1898000   0.94370822   -6.9432752    687.96342  0.030205629  0.030391238            4 
 1899000   0.94048827   -6.9203797    688.93272  0.030232259  0.030383171            3 
 1900000   0.94856568    -6.922684    689.33565   0.03023402  0.030375209            4 
 1901000    0.9667848   -6.9232143    686.65936  0.030100796   0.03036718            2 
 1902000   0.95941937   -6.9447178    688.29687  0.030156715  0.030359067            3 
 1903000   0.95591837   -6.9244523    689.81036  0.030207145  0.030351032            6 
 1904000    0.9430193   -6.9511584    688.24685  0.030122849  0.030343006            5 
 1905000   0.95868562   -6.9171636    690.00637  0.030184006  0.030334995            2 
 1906000   0.93985485    -6.922973    689.19124  0.030132531  0.030327007            3 
 1907000   0.93997582    -6.955834     688.2495  0.030075577  0.030319002            6 
 1908000   0.96965948   -6.9426077    690.43217  0.030155144  0.030310988            3 
 1909000   0.92120265   -6.9409075    689.93997  0.030117861  0.030302943            2 
 1910000   0.93912508   -6.9405294    689.82766  0.030097193  0.030294809            8 
 1911000   0.95809645   -6.9355379    687.51125  0.029980431    0.0302867            6 
 1912000   0.94093052    -6.945152    690.70634  0.030104007  0.030278597            3 
 1913000   0.95309165   -6.9059331    692.06341  0.030147387  0.030270599            6 
 1914000   0.93641293   -6.9294046    689.82586  0.030034216  0.030262588            7 
 1915000   0.95308202   -6.9459521    691.64246  0.030097583  0.030254657            3 
 1916000    0.9508703   -6.9053356     693.1425  0.030147116  0.030246772            2 
 1917000   0.92329015   -6.9293649    690.31078  0.030008293   0.03023887            3 
 1918000   0.93616435   -6.9542636    693.38468  0.030126203  0.030230892            3 
 1919000   0.94938365   -6.9360823    692.37408  0.030066618  0.030222963            3 
 1920000   0.93829102   -6.9547535    692.09853  0.030038999  0.030214978            2 
 1921000   0.93809585   -6.9426852    691.06759  0.029978639  0.030206997            3 
 1922000   0.93633757   -6.9339343    692.93916  0.030044188  0.030199051            3 
 1923000   0.94687558   -6.9253749    693.07005  0.030034237  0.030191038            6 
 1924000   0.95595072    -6.938977    692.53082  0.029995271  0.030183041            4 
 1925000   0.96241268   -6.9222624    691.13735  0.029919366  0.030175045            2 
 1926000   0.94641065   -6.9437126     693.0691  0.029987414  0.030167026            6 
 1927000   0.95839486   -6.9262262    693.12429  0.029974239  0.030159053            4 
 1928000   0.93197027   -6.9554499    693.21174  0.029962472  0.030150986            4 
 1929000   0.94054996   -6.9184129    693.40683  0.029955367     0.030143            4 
 1930000   0.95677205   -6.9353958    691.19479  0.029844334  0.030134885            3 
 1931000   0.94285978   -6.9482581    692.78253  0.029897399  0.030126836            5 
 1932000   0.94210086   -6.9577922    692.37453  0.029864326  0.030118755            7 
 1933000   0.93720239   -6.9648528    693.24308   0.02988632  0.030110652            7 
 1934000    0.9541013   -6.9388043    694.93753  0.029943878  0.030102619            5 
 1935000   0.96258394   -6.9531312    694.00774  0.029888361  0.030094483            3 
 1936000   0.92130166   -6.9333155    694.27622  0.029884479  0.030086358            3 
 1937000   0.96782455    -6.928658    695.24792  0.029910855  0.030078288            1 
 1938000   0.92326715   -6.9278783    693.63953  0.029826261  0.030070255            2 
 1939000   0.94948821   -6.9283279     695.4174  0.029887287  0.030062228            4 
 1940000   0.94850362   -6.9453826    694.89311   0.02984936  0.030054078            3 
 1941000   0.93327757   -6.9280781     695.4767  0.029859037  0.030045975            3 
 1942000   0.94658171   -6.9372463    695.92381  0.029862848  0.030037908            5 
 1943000   0.94050547   -6.9571909    695.18289  0.029815701  0.030029843            2 
 1944000   0.92482318   -6.9553086     697.1752  0.029885768  0.030021862            3 
 1945000    0.9343236   -6.9840375    693.86065  0.029728391  0.030013841            5 
 1946000    0.9569534   -6.9480507    694.71021  0.029749495  0.030005811            5 
 1947000   0.93141098   -6.9655288    696.53692    0.0298124  0.029997764            2 
 1948000   0.93316169   -6.9445081     697.4565  0.029836435  0.029989766            3 
 1949000   0.92876013   -6.9774278    696.46471   0.02977872  0.029981725            4 
 1950000   0.93145827   -6.9861213    696.77714  0.029776801  0.029973601            6 
 1951000   0.93486854   -6.9475365    696.04157   0.02973012  0.029965596            3 
 1952000   0.93212891    -6.914837    698.12489  0.029803829  0.029957531            4 
 1953000   0.94705919   -6.9701087    696.32659  0.029711836  0.029949478            3 
 1954000   0.93697793   -6.9506904    697.05479  0.029727686  0.029941415            4 
 1955000   0.96138836   -6.9550737    696.98476  0.029709495  0.029933405            3 
 1956000   0.93540036   -6.9700065    697.85248  0.029731275  0.029925337            7 
 1957000   0.91135409    -6.946273      696.228  0.029646909  0.029917259            3 
 1958000   0.92564791   -6.9283184    698.93993  0.029747188  0.029909165            3 
 1959000   0.94938612   -6.9384461    701.67619    0.0298484  0.029901186            7 
 1960000   0.94369382   -6.9466989    698.38146  0.029693089  0.029893208            2 
 1961000   0.92332188   -6.9309303    698.97988  0.029703378  0.029885243            4 
 1962000   0.93937493   -6.9431116    699.19463   0.02969736  0.029877209            4 
 1963000   0.91949434   -6.9416352    698.25593  0.029642381  0.029869153            7 
 1964000   0.94321577   -6.9366046     699.8053  0.029693029  0.029861098            3 
 1965000   0.94824517   -6.9905967    699.68312  0.029672736  0.029853004            5 
 1966000   0.92895548   -6.9502413     698.9028  0.029624568  0.029844951            6 
 1967000   0.92967292    -6.955841    699.80464  0.029647714  0.029836849            3 
 1968000   0.92863565   -6.9366107    703.34001  0.029782351  0.029828771            6 
 1969000   0.93349291   -6.9625248    700.46838  0.029645691  0.029820754            3 
 1970000   0.93338245   -6.9280761    702.51799  0.029717343  0.029812814            5 
 1971000   0.92765105   -6.9621382    700.54157  0.029618703  0.029804902            3 
 1972000   0.93291008   -6.9905132    698.41107  0.029513653  0.029796953            3 
 1973000   0.91161262   -6.9484621    700.93246  0.029605189  0.029789057            8 
 1974000   0.94172521   -6.9863766    701.39667  0.029609789  0.029781135            2 
 1975000   0.94868831   -6.9853698    701.95068  0.029618172   0.02977321            4 
 1976000   0.92667512   -6.9708944    702.66464  0.029633293  0.029765318            6 
 1977000   0.92298572   -6.9659787    701.91526  0.029586717  0.029757469            5 
 1978000   0.92251976   -6.9739642    703.06792   0.02962032  0.029749427            3 
 1979000   0.93573366   -6.9682659    702.26571  0.029571573   0.02974154           12 
 1980000   0.93590492   -6.9604256    702.48135  0.029565713  0.029733652            3 
 1981000   0.92100034   -6.9458721    705.26553  0.029667909  0.029725849            9 
 1982000   0.95743995    -6.943684     702.5968  0.029540733  0.029717951            3 
 1983000   0.94653217   -6.9171553    703.60902  0.029568374  0.029710111            3 
 1984000   0.94407067   -6.9427983     704.4732  0.029589768  0.029702314            5 
 1985000   0.91604056   -6.9645767    703.36112  0.029528175  0.029694553            3 
 1986000   0.94820756   -6.9503757    705.18702  0.029589922  0.029686627            5 
 1987000   0.89043383    -6.993726    705.24233   0.02957735  0.029678795            3 
 1988000   0.93772237   -6.9579633    705.22941   0.02956193  0.029670954            3 
 1989000   0.94036894   -6.9911041    704.31617  0.029508806  0.029663052            4 
 1990000   0.94273273   -6.9514499    707.70453  0.029635868  0.029655244            3 
 1991000   0.94649537   -6.9405808    705.99591  0.029549469  0.029647497            4 
 1992000   0.92985211   -6.9618147    707.18829  0.029584517  0.029639765            7 
 1993000   0.94140078   -6.9418944    705.77866  0.029510732  0.029632026            4 
 1994000   0.93381572   -6.9661106    707.03452  0.029548417  0.029624312            5 
 1995000   0.93127005   -6.9523602    706.39118  0.029506733   0.02961651            4 
 1996000   0.93815811   -6.9681094     706.0295   0.02947685  0.029608618            3 
 1997000   0.92275868   -6.9554726    705.69721  0.029448223  0.029600808            3 
 1998000   0.93967114   -6.9467052    707.95953  0.029527842  0.029592994           10 
 1999000   0.94566552   -6.9595809    709.04341  0.029558255  0.029585231            5 
 2000000   0.91344139   -6.9537789     707.0697  0.029461237  0.029577402            3 
 2001000   0.95289734   -6.9474611     707.9713  0.029484062   0.02956953            3 
 2002000   0.93122434    -6.962347    706.62296   0.02941321  0.029561662            4 
 2003000   0.93896434   -6.9674288    703.89189  0.029284901  0.029553767            5 
 2004000   0.90312991   -6.9557291      708.845  0.029476256  0.029545807            7 
 2005000   0.93034091   -7.0042409    705.91472  0.029339764  0.029537865            4 
 2006000   0.90964562    -6.940178    707.48624  0.029390422  0.029530004            5 
 2007000   0.91069672   -6.9492006    707.12099  0.029360612  0.029522154            4 
 2008000    0.9341784   -6.9758616    708.40166  0.029399139  0.029514311            4 
 2009000   0.92874014   -6.9701249    707.58912  0.029350801  0.029506459            4 
 2010000   0.92919293   -6.9645099    709.22074  0.029403845  0.029498627            2 
 2011000   0.93110193    -6.981382    709.83768  0.029414789  0.029490781            5 
 2012000   0.91185477   -6.9602394    710.47214  0.029426447  0.029483064            3 
 2013000   0.92330947   -6.9571938    711.20564  0.029442194  0.029475371            2 
 2014000   0.92575301   -6.9410505    712.84408  0.029495369  0.029467775            3 
 2015000   0.93440728   -6.9679843    710.35945  0.029377975  0.029460093            4 
 2016000   0.91310887   -6.9612623    710.20253  0.029356917  0.029452363            3 
 2017000   0.89949278   -6.9562477    710.91484  0.029371791  0.029444698            5 
 2018000   0.92049517   -6.9411598    710.77787   0.02935158  0.029437066            4 
 2019000   0.93179202   -6.9657731    712.65172  0.029414385   0.02942946            6 
 2020000   0.93816796   -6.9924135    710.94582  0.029329448  0.029421816            4 
 2021000   0.94223867    -6.983646    710.94338  0.029314835  0.029414096            6 
 2022000   0.94269267   -6.9801727    711.50198  0.029323359  0.029406259            6 
 2023000    0.9367716   -6.9695998    711.06802  0.029290988  0.029398493            3 
 2024000    0.9429882   -7.0069287    709.54582  0.029213843  0.029390679            2 
 2025000   0.92795139   -6.9813564    711.21878  0.029268262  0.029382894            5 
 2026000   0.93930638   -6.9705787     712.6168  0.029311319  0.029375121            3 
 2027000   0.92135592   -6.9993661    713.09997  0.029316723  0.029367395            2 
 2028000   0.92662284   -6.9927703    712.96424   0.02929669  0.029359681            5 
 2029000   0.92326551    -6.987579    710.69071  0.029188874  0.029351984            4 
 2030000   0.93537858    -6.985967    713.92417  0.029307232  0.029344398            3 
 2031000   0.91970416   -7.0073051    714.55775  0.029318798  0.029336804            5 
 2032000    0.9367961   -6.9926483     714.7372  0.029311729  0.029329235            4 
 2033000   0.92470454   -6.9926279    714.49369   0.02928733  0.029321706            4 
 2034000   0.93550004   -6.9625947    714.80258  0.029285586  0.029314157            7 
 2035000   0.94307647   -6.9972445     715.0075  0.029279586  0.029306635            5 
 2036000   0.94557304   -6.9634501    717.09081  0.029350475  0.029298992            3 
 2037000   0.92031981   -6.9796344    713.28019  0.029180175  0.029291408            9 
 2038000   0.91260306   -6.9631769    716.76932  0.029308526  0.029283771            3 
 2039000    0.9254215   -6.9903733    713.66758  0.029167385  0.029276138            5 
 2040000    0.9232668   -6.9777301    714.68244  0.029194544  0.029268429            6 
 2041000    0.9303363   -6.9445038    716.37707  0.029249431  0.029260687            2 
 2042000   0.93708893    -6.973609    716.27104   0.02923078  0.029252938            6 
 2043000   0.92831451   -6.9691631    716.37141  0.029220567  0.029245191            1 
 2044000   0.94463531   -6.9655577    716.75396  0.029221867  0.029237502            3 
 2045000    0.9266617   -6.9661657    716.53013  0.029198457  0.029229862            3 
 2046000   0.92894877   -7.0127428    716.52203  0.029183856  0.029222209            3 
 2047000   0.93347575    -6.984906    714.95206  0.029105686   0.02921455            5 
 2048000   0.91944776   -7.0015783    716.87683  0.029169793  0.029206862           12 
 2049000   0.93571466   -6.9678066    717.02637  0.029161638  0.029199195            2 
 2050000    0.9248939   -7.0022923    715.36863  0.029080026  0.029191477            6 
 2051000   0.93131668   -6.9721496    719.32458   0.02922658  0.029183787            3 
 2052000     0.927265   -6.9803518    718.08278  0.029161906  0.029176121            3 
 2053000   0.94048065    -6.976013    718.23238  0.029153774  0.029168548            5 
 2054000   0.92697348   -6.9738801    717.97885  0.029129294   0.02916084            5 
 2055000   0.89927439   -7.0122074     714.8843  0.028989631  0.029153073            8 
 2056000   0.93221515   -6.9948439    716.49526  0.029040826    0.0291453            5 
 2057000   0.91201781   -7.0157985    714.27608  0.028936804  0.029137534            2 
 2058000   0.93405929   -7.0018657    718.67934  0.029101042  0.029129811            2 
 2059000   0.91446321   -6.9580251    718.33842  0.029073111  0.029122143            3 
 2060000     0.939276   -6.9705339    718.07175   0.02904821  0.029114527           10 
 2061000   0.93635742   -6.9260906    717.87142  0.029026015   0.02910694            2 
 2062000   0.91613136   -6.9738753    719.99925  0.029097933  0.029099305            4 
 2063000    0.9350631   -7.0142049    718.15483  0.029009324  0.029091514            4 
 2064000   0.90405263    -6.962193    718.77578   0.02902034  0.029083803            5 
 2065000   0.93093818    -6.965142    719.66479  0.029042163  0.029076167            4 
 2066000   0.91235768   -6.9749135    719.08869  0.029004868  0.029068542            7 
 2067000   0.92173865   -6.9978509    719.68071  0.029014704  0.029060868            4 
 2068000   0.91006379   -6.9982717    716.10321  0.028856512  0.029053094            5 
 2069000   0.91316161   -6.9786524    719.97846  0.028998649  0.029045332            5 
 2070000   0.91700218   -6.9980668    720.40836  0.029001947  0.029037656            4 
 2071000   0.91972584   -6.9983138    719.45363  0.028949526  0.029030001            3 
 2072000   0.93166783   -6.9996712    717.99648   0.02887695  0.029022297            4 
 2073000   0.93135146   -6.9962176    719.46064  0.028921878  0.029014572            3 
 2074000   0.93322851   -6.9600775    719.81757  0.028922275  0.029006832            7 
 2075000   0.94197301   -6.9554358    721.48569  0.028975329  0.028999099            5 
 2076000   0.93027831   -6.9726236    720.98106  0.028941115  0.028991444            2 
 2077000   0.90913073   -7.0007437    718.70166  0.028835727  0.028983779            4 
 2078000   0.91685507   -6.9727343    720.69017  0.028901595  0.028976071            6 
 2079000   0.91905688   -6.9841313    720.76737  0.028890788  0.028968324            3 
 2080000      0.92413    -6.985087    718.52922  0.028787228  0.028960538            5 
 2081000   0.90947004   -6.9689133    720.70216   0.02886041  0.028952816            4 
 2082000   0.90877228   -6.9946271    720.39261  0.028834158  0.028945059            3 
 2083000   0.92313935   -6.9932345    721.54662  0.028866483  0.028937351            4 
 2084000   0.94409499   -6.9808648    722.96534  0.028909362  0.028929648            2 
 2085000   0.91983924   -6.9732059    721.40863  0.028833278  0.028921952            4 
 2086000   0.89468767   -7.0043104    721.02957  0.028804313  0.028914147            3 
 2087000   0.91997897   -6.9959046     723.8652  0.028903737  0.028906448            3 
 2088000   0.90442813   -6.9913593    722.26525   0.02882604  0.028898709            5 
 2089000   0.93416081   -7.0169977    721.27677  0.028772809  0.028890964            6 
 2090000    0.9233102   -7.0262088     722.3594  0.028802209  0.028883204            8 
 2091000    0.9206452   -7.0184721    723.13304  0.028819267  0.028875502            3 
 2092000   0.89934528   -6.9808861    724.42453  0.028856936  0.028867858            4 
 2093000   0.92219082    -6.981215     726.8594  0.028940094  0.028860234            2 
 2094000   0.91628275   -6.9950668    723.72498  0.028801535   0.02885259            2 
 2095000   0.90714745   -7.0164564    723.78906  0.028790336  0.028844908            2 
 2096000   0.91404339   -6.9833016    726.13203  0.028869753  0.028837268            2 
 2097000   0.91946119   -6.9766711     723.9415  0.028768936  0.028829609            6 
 2098000   0.92775638   -6.9689516    724.84276  0.028791021  0.028821969            1 
 2099000   0.91582331   -6.9726487    724.91068  0.028780002  0.028814365            4 
 2100000   0.92247735   -7.0226267    722.26311  0.028661235  0.028806715            4 
 2101000    0.8976751   -7.0116446    724.68241  0.028743551  0.028799043            4 
 2102000   0.92657064   -7.0037402    724.39809  0.028718605  0.028791367            4 
 2103000   0.91885316   -6.9958392    726.44853  0.028786199  0.028783685            5 
 2104000   0.90965164   -7.0018185     725.2566  0.028725309  0.028775961            3 
 2105000   0.90922584   -6.9955187    725.87758  0.028736246   0.02876825            5 
 2106000    0.9043319   -6.9783332    727.36976  0.028781646  0.028760622            6 
 2107000   0.92671467   -7.0217805    726.10067  0.028717793  0.028752994            3 
 2108000   0.91459682   -6.9929394    727.63892   0.02876498  0.028745382           10 
 2109000   0.90299191   -7.0047071    726.55847  0.028708648  0.028737761            3 
 2110000   0.90730159   -6.9854537    727.20171  0.028720447  0.028730154            4 
 2111000   0.89463468   -7.0145859    726.23792  0.028668795  0.028722528            4 
 2112000   0.91872128   -6.9866268     727.0071   0.02868557  0.028714911            7 
 2113000   0.91394003   -7.0183106    726.54561  0.028653795   0.02870732            3 
 2114000   0.89682927    -7.005426    726.98299  0.028657481  0.028699747            4 
 2115000   0.90358019   -7.0041435     726.8012  0.028636769  0.028692119            2 
 2116000   0.92300466   -6.9811638    728.37542  0.028685232  0.028684559            6 
 2117000   0.90114108   -6.9895422    729.62931   0.02872104  0.028677064            5 
 2118000   0.90583479   -7.0067064    727.80727  0.028635791   0.02866956            3 
 2119000   0.91140483   -7.0300282    727.40534  0.028606471  0.028661989            8 
 2120000   0.91948141   -7.0114559    727.91418  0.028612979  0.028654348            6 
 2121000   0.89998107    -7.021727    726.67218  0.028550691  0.028646696            7 
 2122000   0.91126105   -7.0105225    728.31673  0.028601819  0.028639056            4 
 2123000   0.90817897   -7.0378369    727.21549  0.028545121  0.028631371            4 
 2124000   0.92586888    -7.023223    729.17174  0.028608433  0.028623718            4 
 2125000   0.92051717   -7.0273078    729.34066  0.028601594  0.028616126            3 
 2126000   0.90299125    -7.010002    730.32839  0.028626857  0.028608479            6 
 2127000   0.92995035   -7.0064407    729.73044  0.028589972   0.02860089            5 
 2128000   0.90608454   -7.0085756    728.40661  0.028524695  0.028593327            5 
 2129000   0.89727422   -7.0315562    729.91807  0.028570458  0.028585706            5 
 2130000   0.92192538   -6.9874878    730.86994  0.028594286  0.028578208            4 
 2131000   0.90223628   -6.9666654    730.93094  0.028583253  0.028570727            6 
 2132000   0.90919311    -7.025802    729.24156  0.028503813  0.028563192            8 
 2133000   0.91509576   -7.0360144    729.56613  0.028503131  0.028555589            3 
 2134000   0.90472274   -7.0280742    729.77831   0.02849806  0.028547997           11 
 2135000   0.90647614   -7.0160781    729.34873  0.028467944  0.028540412            4 
 2136000   0.90981799   -7.0293017    731.01188  0.028519502  0.028532863            4 
 2137000   0.89885905   -6.9809381    732.50583  0.028564414  0.028525327            4 
 2138000   0.91870705   -6.9976851    731.95705  0.028529664  0.028517775            4 
 2139000   0.89184389   -6.9908693     730.0657  0.028442641  0.028510176            5 
 2140000    0.9198901   -7.0002299    729.57406  0.028410205   0.02850254            6 
 2141000   0.88160178    -7.013488    731.11633  0.028456965   0.02849487           10 
 2142000   0.91270384   -7.0112622    731.12059  0.028443845  0.028487319            5 
 2143000   0.89516595   -7.0325905    730.86768  0.028420737  0.028479708            5 
 2144000   0.90597584   -6.9825149    732.99855  0.028490304  0.028472108            3 
 2145000   0.88814959   -6.9961874    732.14878  0.028444009  0.028464525            4 
 2146000   0.92072691   -7.0330194    732.48103  0.028443656   0.02845694            6 
 2147000   0.89578309   -7.0100126    732.54048  0.028432715  0.028449249            8 
 2148000   0.90349328   -6.9997652    733.20349  0.028445201  0.028441542            4 
 2149000   0.91246499   -6.9962754    733.40215  0.028439668  0.028433869            4 
 2150000   0.89210241   -7.0004479    732.13413  0.028377292  0.028426202            2 
 2151000   0.93329013   -7.0353261    733.78035  0.028427876  0.028418464            2 
 2152000   0.91678656   -7.0285075    731.19805  0.028314671  0.028410745            9 
 2153000   0.90803408    -7.004855    733.47178  0.028389526  0.028403012            3 
 2154000   0.92147698   -7.0371864    732.21065  0.028327555  0.028395305            3 
 2155000   0.92081018   -7.0056931    734.24489  0.028393074  0.028387625            5 
 2156000   0.91741855   -7.0016587    732.20297  0.028300981  0.028379923            8 
 2157000   0.90161264   -7.0115609    732.85875  0.028313196   0.02837211            7 
 2158000   0.89520115   -6.9970025    732.70252  0.028294042  0.028364398            4 
 2159000   0.89087719   -7.0229447    734.72563  0.028359025  0.028356728            2 
 2160000   0.89816705   -6.9816753    734.72186  0.028345751  0.028349125            3 
 2161000   0.90504613   -7.0057234    735.66072  0.028368839  0.028341473            2 
 2162000   0.91729482    -7.024627    732.43696  0.028231459  0.028333797            5 
 2163000    0.8810614   -7.0411489    733.00111  0.028240141  0.028326088            4 
 2164000   0.90185154   -6.9998406    734.07127  0.028268302  0.028318388            6 
 2165000   0.88797335   -6.9862303    734.40008  0.028267902  0.028310739            3 
 2166000   0.90612648   -7.0371983    734.21166  0.028247602  0.028303021            6 
 2167000   0.89622968   -7.0626765    735.83864  0.028297133  0.028295284            5 
 2168000   0.90904779    -7.022004    734.95903   0.02825027  0.028287566            4 
 2169000   0.90549758   -7.0147619    734.59658   0.02822332  0.028279863            4 
 2170000   0.92215712   -7.0468116    735.07992  0.028228876  0.028272146            7 
 2171000   0.90870845   -7.0366814      734.492  0.028193306  0.028264388            5 
 2172000   0.91091304   -7.0269133    735.80144  0.028230565  0.028256651            5 
 2173000   0.92387164   -7.0171464    737.64596   0.02828831  0.028248937            4 
 2174000   0.91873177   -7.0349887    734.67347  0.028161357  0.028241252            7 
 2175000   0.92447885   -7.0333554    732.95685  0.028082638  0.028233509            2 
 2176000   0.87624673   -6.9919896    734.61171  0.028133108  0.028225801            5 
 2177000   0.89624229   -7.0152855     732.8331  0.028052101  0.028218131            4 
 2178000   0.92732207    -6.980318    736.74438  0.028188873   0.02821047            9 
 2179000   0.90017116   -7.0238069    736.16994  0.028153967  0.028202806            6 
 2180000   0.89047993    -7.031109    736.91967  0.028169712  0.028195078            5 
 2181000   0.89742806   -7.0093108    735.24323  0.028092741  0.028187402            5 
 2182000    0.9032043   -7.0243332    735.50524  0.028089873  0.028179737            6 
 2183000   0.90016803   -7.0543017    738.13569   0.02817742  0.028172103            3 
 2184000    0.9010911   -7.0159349    737.89677  0.028155402  0.028164482            4 
 2185000   0.89535141   -7.0218551    736.39132    0.0280851  0.028156848            3 
 2186000   0.92279389   -7.0403528    737.60781  0.028118626  0.028149258            4 
 2187000   0.89975706    -7.003133    738.63276  0.028144824  0.028141654            3 
 2188000   0.91552009   -7.0237387    739.31151  0.028157812  0.028134039            7 
 2189000   0.90714745   -7.0388931    739.09683  0.028136776  0.028126371            6 
 2190000   0.89924339   -7.0152005    737.30605  0.028055786  0.028118663            5 
 2191000   0.90662862   -6.9994799     739.3622  0.028121185  0.028111033            6 
 2192000   0.89356809   -7.0639808    738.74303  0.028084817  0.028103434            5 
 2193000   0.89810769   -7.0438474    739.07172  0.028084501  0.028095794            3 
 2194000   0.89021079   -7.0045489    738.67045  0.028056459  0.028088226           15 
 2195000   0.91988757   -7.0436998    740.48756  0.028112664  0.028080633           21 
 2196000   0.91089651   -7.0366906    739.79081  0.028073422  0.028072979            5 
 2197000   0.89566281   -7.0331563    739.44884  0.028047673  0.028065373            3 
 2198000   0.89378512   -7.0237296    739.85462  0.028050297  0.028057786            3 
 2199000   0.89042143   -7.0155846    738.42664  0.027983426  0.028050166            3 
 2200000   0.92493395   -7.0532343    736.86493   0.02791155  0.028042496            4 
 2201000   0.90137449   -7.0086271    738.93531  0.027977257   0.02803482            3 
 2202000   0.89137601   -7.0274903    737.57602   0.02791311  0.028027187            3 
 2203000   0.88186909   -7.0354791    738.10342  0.027920389  0.028019503            8 
 2204000   0.91483446   -7.0414249    739.45965  0.027959001  0.028011829            5 
 2205000   0.90924587    -7.026165    740.53984  0.027987144  0.028004158            3 
 2206000   0.91375422    -7.025526    742.58158  0.028051586  0.027996515            7 
 2207000   0.91258017   -7.0319362    739.43429  0.027920038   0.02798887            4 
 2208000   0.89684936   -7.0160799    739.48738  0.027909397  0.027981174            4 
 2209000   0.90378797   -6.9900062    741.52034  0.027973455   0.02797349            5 
 2210000   0.90447373   -7.0225723    742.20867  0.027986752  0.027965835            4 
 2211000   0.89133714    -7.036299    738.57213  0.027837032  0.027958148            7 
 2212000   0.91235479   -7.0429651    740.20536  0.027885977  0.027950492            4 
 2213000    0.8899771   -7.0439523    740.84919   0.02789762  0.027942774            4 
 2214000   0.92250837   -7.0578335    739.11997  0.027819933  0.027935083            5 
 2215000    0.9039992   -6.9782473    742.65846  0.027940499  0.027927457            3 
 2216000   0.90110581   -7.0326961    742.13957  0.027908377  0.027919854            8 
 2217000   0.88836266    -7.045774    740.75426  0.027843718  0.027912204            4 
 2218000    0.9178558   -7.0539511    741.90556   0.02787442  0.027904582            5 
 2219000   0.90270432   -7.0598685    741.07584  0.027830699  0.027896916            5 
 2220000   0.88040943   -7.0619936    740.52988  0.027797668  0.027889197            6 
 2221000   0.88743845   -7.0733238    740.62815   0.02778884    0.0278815            7 
 2222000   0.90496854   -7.0327353    741.61425  0.027813316  0.027873833            5 
 2223000   0.89506217   -7.0535373    740.67772  0.027765696  0.027866182            4 
 2224000   0.89078856   -7.0329786    743.32908  0.027852558  0.027858498            4 
 2225000   0.87367213   -7.0396341    743.53412   0.02784772  0.027850786            6 
 2226000    0.9017041   -7.0599045    741.10377  0.027744226  0.027843067            4 
 2227000   0.88333814   -7.0611137    741.92638   0.02776255  0.027835281            4 
 2228000   0.88575838   -7.0626702    741.50793  0.027734438   0.02782744            6 
 2229000   0.89244238   -7.0315888    744.19147  0.027822322  0.027819679            5 
 2230000   0.89652828   -7.0523563    740.49754  0.027671806  0.027811925            6 
 2231000   0.87954711   -7.0608989    742.34217  0.027728304  0.027804219            5 
 2232000   0.89372646    -7.061574    741.67352  0.027690917  0.027796443            2 
 2233000   0.88445918   -7.0774036    741.52797  0.027673084  0.027788651            5 
 2234000   0.88614091   -7.0640998     742.0059  0.027678525   0.02778087            8 
 2235000    0.8950535   -7.0667817    742.69132  0.027691697  0.027773188            7 
 2236000   0.88253658   -7.0620575    745.82767  0.027796201  0.027765569            4 
 2237000   0.90072925   -7.0265504    744.44649  0.027732323  0.027757969            7 
 2238000   0.88980792   -7.0470973    745.13839  0.027745695  0.027750352            9 
 2239000   0.87889835   -7.0350104     744.0504  0.027692809  0.027742729            2 
 2240000   0.87465102   -7.0761648     743.8418  0.027672686  0.027735212            5 
 2241000   0.90101968   -7.0470117    745.49431  0.027721788   0.02772763           12 
 2242000   0.86988644   -7.0433654    746.38638   0.02774258  0.027720137            5 
 2243000    0.8757274   -7.0411893    746.59932  0.027738123  0.027712642           10 
 2244000   0.89469693   -7.0651776    743.63248  0.027615585  0.027705063            9 
 2245000   0.90066561    -7.041802    747.72844  0.027755325  0.027697525            3 
 2246000   0.88890851   -7.0280284    746.59734     0.027701  0.027689989            3 
 2247000    0.8807383   -7.0462457    747.90305  0.027737096   0.02768246            4 
 2248000   0.87847238   -7.0391413    746.17018   0.02766052  0.027674942            3 
 2249000   0.90468502    -7.040602    747.48816  0.027697057  0.027667425            3 
 2250000   0.88770334   -7.0144498    748.07312  0.027706412  0.027659894            2 
 2251000   0.89237063   -7.0039788    750.41882  0.027780942  0.027652442            4 
 2252000   0.89167357   -7.0278993    749.33058  0.027728337  0.027644959            7 
 2253000   0.87742587   -7.0501507    746.62243  0.027615861  0.027637436            6 
 2254000   0.90208816   -7.0302531    747.63234  0.027640947  0.027629863            5 
 2255000   0.89584593   -7.0528417    748.89383  0.027675308  0.027622455            2 
 2256000   0.88313896   -7.0541393    748.61814  0.027652857  0.027614988            3 
 2257000   0.88335603   -7.0447667    748.36958  0.027631427  0.027607539            4 
 2258000   0.89534097    -7.053063      747.353  0.027581673  0.027600049            4 
 2259000   0.88319874   -7.0457496    747.70063  0.027582287   0.02759255            2 
 2260000   0.87512705   -7.0398439    750.62701  0.027677987  0.027585063            8 
 2261000   0.88628054   -7.0218796    750.99445  0.027679288  0.027577661            6 
 2262000    0.8773466   -7.0468083    748.43301  0.027572687  0.027570261            3 
 2263000   0.89326189   -7.0637144    751.53444   0.02767471  0.027562885            5 
 2264000   0.87944114   -7.0480615    750.98632  0.027642311  0.027555472            8 
 2265000   0.87517449    -7.035708    750.40945  0.027608883  0.027548118           14 
 2266000    0.8898117   -7.0331751      748.967  0.027543652  0.027540743            7 
 2267000   0.88200536   -7.0680831    750.76933  0.027597755  0.027533338            3 
 2268000   0.86824627   -7.0538955    751.29017  0.027604724  0.027525899            6 
 2269000   0.88920848    -7.080585     749.0675  0.027510926  0.027518486            7 
 2270000    0.8837443   -7.1067219    751.32195  0.027581569  0.027511073            7 
 2271000   0.87666424    -7.088242    750.91348  0.027554436  0.027503638            5 
 2272000    0.9072581   -7.0770396    751.82039  0.027575572  0.027496249            2 
 2273000   0.88254351    -7.042155    752.04384  0.027571632  0.027488848            4 
 2274000   0.89111887   -7.0366338    751.40661  0.027536155  0.027481543            2 
 2275000   0.88700156   -7.0722127    753.77257  0.027610717   0.02747423            3 
 2276000   0.88822942   -7.0184179    751.63627  0.027520367  0.027466959            3 
 2277000   0.90423818   -7.0633636    751.58074  0.027506249   0.02745965           13 
 2278000   0.90354518     -7.07808     751.0758  0.027475703  0.027452321            9 
 2279000   0.89151986   -7.0383465    752.61796  0.027520036   0.02744497            5 
 2280000   0.89592379   -7.0537313    753.28759  0.027532441  0.027437689            2 
 2281000   0.88070707   -7.0468081    753.51554  0.027528699  0.027430403            4 
 2282000   0.89070284   -7.0285478    753.90079  0.027530704   0.02742316            6 
 2283000   0.89798031   -7.0766836    754.85621  0.027553519  0.027415865            8 
 2284000   0.90154491   -7.0625234     754.0379  0.027511599  0.027408576            3 
 2285000   0.87240212   -7.0436066    754.42177  0.027513558  0.027401337            9 
 2286000   0.88157258    -7.056748    754.94776  0.027520697  0.027394051            4 
 2287000   0.89963253   -7.0651103    755.36478  0.027523859  0.027386766            6 
 2288000   0.86958574   -7.0513933    753.02478  0.027426602  0.027379498            4 
 2289000   0.87294415   -7.0459677    753.70737   0.02743947  0.027372226            3 
 2290000   0.88408097   -7.0243267    754.92677  0.027471862  0.027365002            3 
 2291000   0.90058875   -7.0656607    753.40495  0.027404516  0.027357681            4 
 2292000   0.86360855   -7.0289067    756.10819  0.027490845  0.027350385            4 
 2293000   0.88581449   -7.0780286    754.35943  0.027415301  0.027343018            4 
 2294000    0.8862412   -7.1016079    755.01896  0.027427309  0.027335666            9 
 2295000   0.88789575   -7.1078933    754.92122  0.027411809  0.027328341            5 
 2296000   0.88487678   -7.0745771    754.33359  0.027378542  0.027321016            4 
 2297000    0.8907155   -7.0469442    757.74456   0.02749037  0.027313732            3 
 2298000     0.888694   -7.0651598    756.06111   0.02741736  0.027306392            5 
 2299000   0.85997225   -7.0800096    758.51616  0.027494424  0.027299065            6 
 2300000   0.88434631   -7.0598418     755.5511   0.02737504  0.027291807            4 
 2301000   0.87992471   -7.0744969    755.09171  0.027346505  0.027284519            4 
 2302000   0.86886415   -7.0439404    755.99505  0.027367327   0.02727726            3 
 2303000   0.88751163    -7.072894    756.17126   0.02736182  0.027270048            5 
 2304000   0.88350656   -7.0562372    756.94159  0.027377806  0.027262826            2 
 2305000   0.86928609   -7.0839057    757.24014  0.027376722  0.027255559            2 
 2306000   0.88793285   -7.0744847    757.51005  0.027374604   0.02724824           14 
 2307000   0.90880093   -7.1029032    758.25363  0.027389598  0.027240945            5 
 2308000   0.89020373   -7.0805381    756.34828  0.027308936  0.027233634            8 
 2309000   0.85693157   -7.0933083    755.25496   0.02725765  0.027226333           11 
 2310000   0.88417462   -7.0871404    758.39232   0.02735903  0.027219009            7 
 2311000   0.88916218   -7.0596852    758.56402  0.027353383  0.027211747            2 
 2312000   0.87581602   -7.0439671    756.67527  0.027273474  0.027204518            5 
 2313000   0.88077968   -7.0818992    757.35115  0.027286034  0.027197198            7 
 2314000   0.88701933   -7.0550969    757.27803  0.027271609  0.027189952            8 
 2315000   0.87767658   -7.0725924    758.66628  0.027309801    0.0271827            5 
 2316000   0.88677642   -7.0275391    758.62429  0.027296499   0.02717543            4 
 2317000   0.89233144   -7.0795587    756.79688  0.027218993  0.027168175            4 
 2318000   0.86594234   -7.0707533    760.83886  0.027352562  0.027160921            6 
 2319000   0.88035771   -7.1109153    759.46984  0.027291571  0.027153719            4 
 2320000   0.88037886   -7.0669859    759.69339  0.027287837  0.027146453            2 
 2321000   0.88686893   -7.0816455    759.14871  0.027256524  0.027139225            8 
 2322000   0.87217734   -7.0566889    760.68456  0.027299905  0.027132017            3 
 2323000   0.88012443   -7.0637614    760.92987  0.027296953  0.027124873            5 
 2324000   0.88423095   -7.0741498    761.34516  0.027300099   0.02711764            3 
 2325000   0.88440687   -7.0922561    760.81967  0.027269522  0.027110503            2 
 2326000   0.87868772   -7.0689201    761.86988  0.027295424  0.027103376            5 
 2327000   0.89431847   -7.0840853    760.16947    0.0272228  0.027096213           14 
 2328000   0.87937028   -7.1156474    758.50614  0.027151566  0.027088987            5 
 2329000   0.87284111   -7.0771815    760.06212  0.027195582   0.02708175            2 
 2330000   0.86970525   -7.0804459    761.03434  0.027218682  0.027074507            2 
 2331000   0.86524735   -7.0597395    762.58788  0.027262544  0.027067311            6 
 2332000   0.89898987   -7.0729484    760.52619  0.027177179  0.027060118            6 
 2333000   0.87623219   -7.0475429     762.5763  0.027238759   0.02705293            4 
 2334000    0.8801434   -7.0742335    763.05269  0.027244098  0.027045806            2 
 2335000   0.87300627   -7.0604393    762.81119  0.027223811  0.027038703            4 
 2336000   0.87225953   -7.0744606    762.18303  0.027189749  0.027031573            5 
 2337000   0.90603284   -7.0803947     763.1298  0.027211874  0.027024387            3 
 2338000   0.85348653   -7.1105363    759.96643  0.027087483  0.027017161            7 
 2339000   0.87665071   -7.1037382    761.61857  0.027134765  0.027009895            3 
 2340000   0.89657421   -7.0707846    762.75367  0.027163592  0.027002646            3 
 2341000   0.89329259   -7.0759854     760.6058   0.02707553  0.026995399            4 
 2342000   0.88613621   -7.0565103    763.93961  0.027182593  0.026988124            6 
 2343000   0.88382501   -7.0680461    762.67178  0.027125899  0.026980923           24 
 2344000   0.89869886   -7.0916823    762.89307  0.027122194  0.026973751            6 
 2345000   0.88595007   -7.0713407    763.26146  0.027123719  0.026966574            4 
 2346000   0.88833319   -7.1006601    762.94063  0.027100761  0.026959352            4 
 2347000   0.87854421   -7.0834457    761.83628  0.027050003   0.02695214            9 
 2348000   0.86362803   -7.0633155    762.38003  0.027057781  0.026944882            4 
 2349000   0.86671848   -7.1020458    761.32832  0.027008951  0.026937605            8 
 2350000   0.87443727   -7.1163048    760.99597  0.026985673  0.026930306            9 
 2351000   0.88665839   -7.0712595    764.34791  0.027093007   0.02692299            7 
 2352000   0.87437871    -7.082021    760.00945  0.026927772  0.026915699            3 
 2353000    0.8683391    -7.106804    761.26046  0.026960634  0.026908403            3 
 2354000   0.86336884   -7.0943125    762.85405  0.027005595  0.026901128            4 
 2355000   0.86055189   -7.0934275    763.77177  0.027026602  0.026893815            5 
 2356000   0.86592768   -7.1191509    761.26324  0.026926402  0.026886517            7 
 2357000   0.90779947   -7.1019492    764.12549  0.027016175  0.026879248            6 
 2358000   0.86545533   -7.1001441     765.3149  0.027046752  0.026872063            6 
 2359000    0.8683162    -7.073463    764.39108  0.027002652  0.026864859            4 
 2360000   0.88094013   -7.1010824    764.87065  0.027008144  0.026857679            2 
 2361000   0.88568941   -7.1244398    762.61237  0.026916997  0.026850437            9 
 2362000   0.87759092   -7.0773577    764.76514  0.026981553  0.026843189           12 
 2363000   0.87102723   -7.1026424     761.5808  0.026857836  0.026835925            2 
 2364000   0.86453629   -7.0737771    766.24849  0.027011016  0.026828707            6 
 2365000   0.83974748   -7.0899197    765.38391   0.02696913  0.026821493            5 
 2366000   0.85580559   -7.0400914    767.08793  0.027017749  0.026814319            5 
 2367000   0.87184778   -7.0546413    765.23884  0.026941235  0.026807222            3 
 2368000   0.87862854   -7.0652835    767.32282  0.027003196   0.02680011            2 
 2369000   0.88944687   -7.0960525    766.44646   0.02696097  0.026792949            5 
 2370000   0.86090102   -7.0920261    767.20548  0.026976283  0.026785831            3 
 2371000   0.87791622   -7.0977625    767.49247  0.026974992  0.026778676            6 
 2372000   0.87484389   -7.0899751    765.30635  0.026886817  0.026771533            6 
 2373000   0.87654015   -7.0833573    768.26574  0.026979412  0.026764366            7 
 2374000   0.88123409   -7.0886956    767.00069  0.026923641   0.02675726            7 
 2375000   0.88483362   -7.0944885    767.72117  0.026937585  0.026750183            4 
 2376000   0.85594789   -7.0905942    766.62554  0.026887821  0.026743051            3 
 2377000   0.87702884   -7.0777028    768.52987  0.026943271  0.026735896            7 
 2378000   0.87583314   -7.0653696    766.56266  0.026863003  0.026728796            5 
 2379000   0.85351597   -7.1140725    766.44875  0.026847721  0.026721695           11 
 2380000   0.85311625   -7.0728052    768.10552  0.026894451  0.026714597            9 
 2381000   0.86714461    -7.104245    765.88676  0.026805501  0.026707511            5 
 2382000   0.88089729   -7.1112106    767.88368  0.026864108  0.026700449            7 
 2383000   0.85170511   -7.1199563    767.74288  0.026847912  0.026693304            5 
 2384000   0.87530099    -7.112367    767.61445  0.026832161  0.026686156            4 
 2385000   0.87158735   -7.0955252    766.21254  0.026771927  0.026679017            4 
 2386000   0.88373682   -7.1066227     768.3763  0.026836278  0.026671918            5 
 2387000    0.8527941    -7.071248    768.06257  0.026814082  0.026664807            3 
 2388000   0.87194315   -7.1120185    767.70366  0.026790329  0.026657723            5 
 2389000   0.89485418   -7.1001477    768.99567  0.026824183  0.026650629            6 
 2390000    0.8658503   -7.0952071    768.48665  0.026795211   0.02664352            4 
 2391000   0.86607617   -7.0710969    768.66789  0.026790321  0.026636495            5 
 2392000   0.86314698   -7.1061902    768.83607   0.02678498  0.026629459            3 
 2393000   0.88595141   -7.1024036    769.45357  0.026795291  0.026622369            2 
 2394000   0.86529074   -7.0823362    770.83279  0.026832108  0.026615338            6 
 2395000   0.87424336   -7.0866107    771.53748  0.026845424  0.026608233            4 
 2396000   0.87895417   -7.1115084    769.32765  0.026757361  0.026601128            7 
 2397000   0.85879237   -7.1064439    769.32955  0.026746264  0.026594009            3 
 2398000   0.86313259   -7.1071779     769.4188  0.026738212  0.026586931            5 
 2399000   0.86365224   -7.1004042    770.22904  0.026755212   0.02657988            8 
 2400000   0.85467207   -7.1100462     770.3601  0.026748615  0.026572821            5 
 2401000   0.87066618   -7.1076046    771.63485  0.026781718  0.026565765            4 
 2402000    0.8655777   -7.0853342    769.84908  0.026708614  0.026558695            5 
 2403000    0.8764157   -7.0865684    771.93882  0.026769969   0.02655166            3 
 2404000    0.8665259   -7.0835266    770.38345  0.026704917  0.026544599            6 
 2405000   0.85940938   -7.0916636    771.37244  0.026728082  0.026537535            4 
 2406000   0.88768466   -7.1180877     769.5239  0.026652948  0.026530503            9 
 2407000   0.86193068   -7.0971486    772.23669  0.026735795  0.026523444            5 
 2408000   0.86571699   -7.1031338    773.46497  0.026767199  0.026516363            5 
 2409000   0.88654075   -7.0916247    771.09704  0.026674175  0.026509263            4 
 2410000   0.87236622    -7.105979     771.0902   0.02666287  0.026502229           10 
 2411000   0.86658356   -7.1040016    771.67926  0.026672171  0.026495158            5 
 2412000   0.85337996   -7.0957425    773.67549  0.026730082  0.026488131            4 
 2413000   0.87156889   -7.0783941    776.71205  0.026823873   0.02648114            8 
 2414000    0.8450782   -7.1017532    773.38575  0.026697934  0.026474152            9 
 2415000   0.88362522   -7.0886229    773.83813  0.026702489   0.02646718            5 
 2416000    0.8734975   -7.0905836    773.41982  0.026677008  0.026460209            6 
 2417000   0.85784977   -7.1294488    771.93379  0.026614736  0.026453166            8 
 2418000   0.87388721   -7.1135676    772.07014  0.026608428  0.026446145            2 
 2419000   0.86279882   -7.1292195    772.00853  0.026595306  0.026439164            3 
 2420000   0.86122041   -7.1184935    772.40841  0.026598086  0.026432103            4 
 2421000    0.8770726    -7.083483    773.18673   0.02661389  0.026425068            4 
 2422000   0.85571988   -7.1180091    773.09523  0.026599753  0.026418062            6 
 2423000   0.87806824   -7.1266863    775.40681  0.026668277  0.026411073            4 
 2424000   0.84640552   -7.1132288    774.00515  0.026609088   0.02640406            5 
 2425000    0.8576553   -7.0800112    772.62839  0.026550804  0.026397018            4 
 2426000   0.86193376   -7.0999374    771.82954  0.026512419  0.026389992            6 
 2427000   0.86212057   -7.0968784    774.65214  0.026598412  0.026382973            5 
 2428000   0.86274197   -7.1154957    772.40814  0.026510439  0.026375928            4 
 2429000    0.8568637   -7.1056883    774.57981  0.026574029  0.026368894            6 
 2430000   0.87038868   -7.1142644    771.47575  0.026456645  0.026361884            4 
 2431000   0.86259523   -7.1137714    772.76028  0.026489794  0.026354867            9 
 2432000   0.86587622   -7.0963043    775.31707  0.026566512  0.026347836            4 
 2433000   0.87012343   -7.1256311    776.26962  0.026588218  0.026340802            9 
 2434000    0.8355729   -7.1458281     774.2947  0.026509679   0.02633375            4 
 2435000   0.83820026   -7.0906629    775.21068   0.02653014  0.026326758            5 
 2436000   0.86684131   -7.1204052    775.86635  0.026541679  0.026319773            3 
 2437000   0.85820152   -7.1107139    775.48354  0.026517697  0.026312808            5 
 2438000   0.87229507   -7.1134346    776.63161  0.026546063  0.026305847            3 
 2439000     0.870561   -7.1168394     777.5416   0.02656627  0.026298864            4 
 2440000   0.86576153   -7.1264241     775.2351  0.026476608  0.026291878            8 
 2441000   0.85472116   -7.1118053    776.78687  0.026518738  0.026284894            6 
 2442000    0.8656014   -7.1306964    778.42143  0.026563658  0.026277942            5 
 2443000   0.85620088   -7.1432228    775.34366  0.026447798  0.026270977            5 
 2444000   0.84945612   -7.1025176    778.37271  0.026540259   0.02626399            6 
 2445000   0.86178316   -7.1374378    777.89256  0.026513039  0.026257069            8 
 2446000   0.87856673   -7.1062632    777.37457  0.026484552  0.026250142            6 
 2447000   0.85951481   -7.1177552    776.77405  0.026453278   0.02624326            5 
 2448000   0.85346663   -7.0967565    777.03698  0.026451422  0.026236338            7 
 2449000   0.86176964   -7.1107772    777.11111  0.026443144  0.026229396            5 
 2450000   0.86436977   -7.1005293    775.57441  0.026380082  0.026222445            2 
 2451000    0.8592955   -7.1135597    778.14907  0.026456857  0.026215516            4 
 2452000   0.87052843   -7.0889903    780.26598  0.026518012   0.02620866            3 
 2453000   0.85648165   -7.0964347     778.5744  0.026449735  0.026201842            4 
 2454000   0.85621835     -7.10376    779.63483  0.026474967  0.026195014           10 
 2455000   0.83839409   -7.1097876    779.27951  0.026452122  0.026188189            9 
 2456000   0.84412149   -7.1277352    780.96831  0.026498653  0.026181341            4 
 2457000    0.8296833   -7.1347232    779.54641  0.026439642  0.026174493            5 
 2458000   0.86025269   -7.1346401    780.63914  0.026465932   0.02616763            4 
 2459000   0.85868004   -7.1654291    780.55518  0.026452324    0.0261607            4 
 2460000   0.84920644    -7.129898    779.91738  0.026419965  0.026153799            4 
 2461000   0.87301484   -7.1352463    779.22443  0.026385766  0.026146892            4 
 2462000   0.85954689   -7.1343605    778.77936  0.026359984  0.026139979            5 
 2463000   0.87112008   -7.1244353    780.68703  0.026413826   0.02613307            5 
 2464000   0.84993622    -7.107072    781.99696  0.026447408  0.026126294            3 
 2465000   0.86477511   -7.1195559    780.13896  0.026373866   0.02611948            6 
 2466000    0.8445898   -7.1226669    781.25189   0.02640078  0.026112575            5 
 2467000   0.86159652   -7.1225716     782.1629  0.026420852  0.026105737            4 
 2468000   0.84762047   -7.1125061    780.68433  0.026360222  0.026098906            5 
 2469000   0.84841404   -7.1175117    780.84523  0.026354976  0.026092036            5 
 2470000   0.84819167   -7.1028333    781.70343   0.02637326  0.026085223            5 
 2471000   0.84917021   -7.1349896    782.48299  0.026388877  0.026078417            6 
 2472000   0.86385499   -7.1030714    782.73287  0.026386626  0.026071628            3 
 2473000   0.86693099   -7.1446828    780.42752  0.026298272  0.026064834            5 
 2474000   0.83317029   -7.1455482    782.02016  0.026341288  0.026058014            5 
 2475000   0.83290232   -7.1353149    782.51115  0.026347177  0.026051143            3 
 2476000   0.84930805   -7.1191975     782.6292  0.026340509   0.02604436            5 
 2477000   0.87425682   -7.1535381    783.41794   0.02635641  0.026037567            9 
 2478000   0.86004446   -7.0908955    783.33949  0.026343136  0.026030776            3 
 2479000   0.85289885   -7.1327243    783.96671  0.026353594  0.026023949            3 
 2480000   0.86107726   -7.1395189    781.07354  0.026245751  0.026017098            3 
 2481000   0.85053316   -7.1356683    784.99655   0.02636694  0.026010265            3 
 2482000   0.84610953   -7.1357204    784.16355  0.026328349  0.026003487           13 
 2483000   0.86859261   -7.1236133    782.14563  0.026250021   0.02599669            5 
 2484000   0.84980712   -7.1032833     783.2763  0.026277385   0.02598989            2 
 2485000   0.86419506   -7.1308693    782.84947  0.026252497  0.025983088            4 
 2486000   0.86576625    -7.103303    784.06028  0.026282525  0.025976302            3 
 2487000   0.84246401    -7.125418    783.15568  0.026241646   0.02596946            3 
 2488000   0.86007293   -7.1507311    783.74282  0.026250764  0.025962619            8 
 2489000   0.86047385   -7.1203177    783.13965  0.026220023  0.025955758            6 
 2490000   0.84072338    -7.102433    783.34008  0.026216201  0.025948921           17 
 2491000   0.84984033   -7.1607877    782.51066  0.026177929  0.025941965            6 
 2492000   0.85269777   -7.1184246    784.91666  0.026247882   0.02593503            4 
 2493000   0.84468983   -7.1364428    784.17428  0.026212538  0.025928153            8 
 2494000   0.84015269   -7.1377363    782.71722  0.026153342  0.025921232            3 
 2495000   0.85022748   -7.0657051    784.65944   0.02620773  0.025914416            2 
 2496000   0.85525317   -7.1279488    784.21048  0.026182241  0.025907605            3 
 2497000   0.85850499   -7.1315356    784.01148  0.026165114  0.025900715           10 
 2498000   0.88188841    -7.118841    784.05477  0.026156084  0.025893861            3 
 2499000   0.85295355   -7.1823747    782.14819  0.026082039  0.025886948            9 
 2500000   0.85895342    -7.157874    783.03018  0.026101006  0.025880106            7 
 2501000   0.84709175   -7.1247321     783.3195   0.02610021  0.025873248            8 
 2502000   0.84669684   -7.1222336    785.93652  0.026176943  0.025866412            4 
 2503000   0.87324022   -7.1619455    784.54162  0.026120043  0.025859599            4 
 2504000   0.84352987   -7.1620612    782.90581  0.026055172  0.025852773            6 
 2505000   0.87980519   -7.1612369    784.55532  0.026099645  0.025845899            5 
 2506000   0.86429504   -7.1243049    786.58825  0.026156832  0.025839045            3 
 2507000   0.84788457   -7.1429509    785.01103  0.026093971  0.025832203            3 
 2508000   0.86590532   -7.1360953    785.49185  0.026099543  0.025825365           11 
 2509000   0.83917576   -7.1344465    785.01939  0.026073449    0.0258185            6 
 2510000    0.8522084   -7.1435456    783.15016  0.026001001  0.025811612            6 
 2511000   0.83546859   -7.1296973    786.18044  0.026091213  0.025804738            3 
 2512000   0.84560321   -7.1725704    785.77961  0.026067529  0.025797884            6 
 2513000   0.85590985   -7.1159012    785.54125  0.026049252  0.025791015            7 
 2514000   0.84150041   -7.1190374     787.7196  0.026111098  0.025784197            3 
 2515000   0.83286858   -7.1360567    786.01824  0.026044342  0.025777386            6 
 2516000   0.83333945   -7.1245046    786.23037  0.026041016  0.025770564            3 
 2517000   0.83393733   -7.1363097    788.72801  0.026113363   0.02576378            3 
 2518000   0.84479781   -7.1598712    786.79872  0.026039142  0.025757025            3 
 2519000   0.86562933   -7.1316691    785.10205  0.025972676  0.025750253            6 
 2520000   0.82284417   -7.1176612    786.36136  0.026004013  0.025743409            5 
 2521000   0.84177985   -7.1240111    786.95049  0.026013172  0.025736573            8 
 2522000   0.83593184   -7.1483235    785.40094  0.025951657  0.025729751            8 
 2523000   0.84207132   -7.1764012    784.84524  0.025923016  0.025722917            2 
 2524000   0.84338853   -7.1811447    785.81307    0.0259447  0.025716057           12 
 2525000   0.84504341   -7.1232867     786.0972  0.025943802  0.025709206            5 
 2526000   0.85391646    -7.171267    786.19015  0.025936598  0.025702328            5 
 2527000   0.83789158   -7.1412378    787.55911  0.025971478  0.025695456            5 
 2528000   0.84244978    -7.154493    786.30466  0.025919853  0.025688588            7 
 2529000    0.8563853    -7.132464    788.88826  0.025994736  0.025681771            4 
 2530000    0.8290493   -7.1271514    786.02401  0.025890119  0.025674909            5 
 2531000    0.8424415   -7.1465529    786.40546  0.025892449   0.02566801            5 
 2532000   0.85660569   -7.1097329     786.9147  0.025898983  0.025661155           10 
 2533000   0.83561141   -7.1101194    788.35558  0.025936162  0.025654314            5 
 2534000   0.83287184   -7.1346925    788.42322  0.025928151  0.025647495            4 
 2535000   0.85224511   -7.1299241    784.98824  0.025805005  0.025640519            4 
 2536000   0.84125509   -7.1744548     787.3942  0.025873889   0.02563356            6 
 2537000   0.86316334   -7.1566621     787.1709  0.025856356  0.025626615            5 
 2538000   0.82937789   -7.1474471    788.42557  0.025887364  0.025619694            8 
 2539000   0.84877333   -7.1452513    788.01809  0.025863794  0.025612777            4 
 2540000    0.8412043   -7.1572775    788.74555  0.025877479  0.025605933            4 
 2541000   0.86199731   -7.1853645    787.47506  0.025825628  0.025599015            7 
 2542000    0.8418231   -7.1533682      786.992  0.025799633  0.025592141            6 
 2543000   0.85291123   -7.1443792    788.79616  0.025848609  0.025585303            5 
 2544000   0.83893341   -7.1275197    789.42713  0.025859117  0.025578456            3 
 2545000   0.84784155    -7.133549    791.43495  0.025914701  0.025571633            3 
 2546000   0.84514537   -7.1395907    789.86457  0.025853122  0.025564806            5 
 2547000    0.8526286   -7.1615683    788.49411  0.025798132  0.025557992            6 
 2548000   0.81658739   -7.1570898    790.25557  0.025845616  0.025551155            5 
 2549000   0.83889562   -7.1707032    789.08913  0.025797343  0.025544363            5 
 2550000   0.86288358   -7.1674879    789.69319  0.025806967  0.025537584            3 
 2551000   0.83399009   -7.1613207    788.73943  0.025765694   0.02553078            5 
 2552000   0.82826794   -7.1310214    789.28877  0.025773536  0.025523975            5 
 2553000   0.84869368    -7.159143    793.02084   0.02588526  0.025517199            6 
 2554000   0.84295527   -7.1282736     790.5408  0.025794205  0.025510436            4 
 2555000   0.86045895    -7.163581    789.83466  0.025761078  0.025503656            6 
 2556000   0.85792533   -7.1541166    792.04618  0.025823102  0.025496844            5 
 2557000    0.8518669   -7.1300505    793.10082  0.025847374  0.025490075            3 
 2558000   0.84274336   -7.1198919    790.73346  0.025760147  0.025483295            7 
 2559000   0.84260146   -7.1581498    790.58886  0.025745371  0.025476512            4 
 2560000   0.84948887    -7.143769    791.57105  0.025767287  0.025469768            5 
 2561000   0.82523043   -7.1207694    792.06852  0.025773413  0.025462992            5 
 2562000    0.8365689   -7.1729599    791.75651  0.025753204   0.02545625            7 
 2563000   0.84850746   -7.1099083    793.69101  0.025806055  0.025449519            5 
 2564000   0.84728361   -7.1501122    792.71991  0.025764428  0.025442776            3 
 2565000    0.8465517   -7.1477794    792.03246  0.025732049  0.025436029            5 
 2566000   0.84076262   -7.1273069     793.2457  0.025761422  0.025429279            3 
 2567000   0.84125477   -7.1545102    791.70151  0.025701257  0.025422516            6 
 2568000   0.82904277   -7.1802597     790.0837  0.025638749  0.025415764            7 
 2569000   0.85194369    -7.150467    791.18205  0.025664398  0.025408955            3 
 2570000   0.84069968   -7.1321813    791.15755  0.025653617  0.025402172            5 
 2571000   0.84476741   -7.1755927    792.09685  0.025674084  0.025395369            5 
 2572000   0.82946902   -7.1479341    792.76298  0.025685685  0.025388628           10 
 2573000   0.83367089   -7.1365501    793.02003  0.025684028  0.025381897            4 
 2574000   0.85355493    -7.153077    793.32239  0.025683838  0.025375126            4 
 2575000   0.84213819   -7.1607192    790.90512  0.025595635  0.025368321            6 
 2576000   0.86223203   -7.1368249    793.45052  0.025668042  0.025361554            6 
 2577000   0.83232702   -7.1452815     793.2029  0.025650074  0.025354771            5 
 2578000   0.84071652   -7.1456301    792.90269  0.025630421  0.025347985            3 
 2579000   0.82909205   -7.1204782    795.88825  0.025716953  0.025341205            4 
 2580000   0.84146037    -7.118831    794.58362  0.025664846  0.025334463            9 
 2581000   0.83061766   -7.1484477    794.62455  0.025656223   0.02532769            9 
 2582000   0.84104038   -7.1820292    791.73165  0.025552919  0.025320841            8 
 2583000   0.84304057   -7.1823469    795.44053  0.025662683  0.025314012            6 
 2584000   0.82352334   -7.1525847    793.82317  0.025600592  0.025307192            7 
 2585000   0.82191346   -7.1471616    793.64113   0.02558482    0.0253004            3 
 2586000   0.84233014   -7.1399159    794.12073  0.025590382   0.02529362           11 
 2587000   0.82493389   -7.1529553    792.31752  0.025522404  0.025286809            9 
 2588000   0.83739476   -7.1454584      794.509  0.025583108  0.025279998            3 
 2589000   0.83463785   -7.1755186    793.36681  0.025536462  0.025273176            7 
 2590000   0.82902737   -7.1721122    793.64506  0.025535555  0.025266354            6 
 2591000    0.8510357   -7.1961577    795.76404  0.025593852  0.025259498            5 
 2592000   0.83366074   -7.2079285    792.97794  0.025494404  0.025252647            5 
 2593000   0.85041582   -7.1567733    794.99643  0.025549442  0.025245855            5 
 2594000    0.8233032   -7.1725868    796.07184   0.02557414   0.02523909            5 
 2595000    0.8345537   -7.1622719    795.71309  0.025552765  0.025232253            6 
 2596000   0.83057205   -7.1613754    794.34957  0.025499152  0.025225493            5 
 2597000   0.83586283   -7.1458517    795.01434  0.025510664  0.025218686            5 
 2598000   0.82370164   -7.1776055    793.94735   0.02546662  0.025211861            9 
 2599000    0.8396042   -7.1440748     796.2654  0.025531147  0.025205123            6 
 2600000   0.81858429   -7.1614985    795.43895  0.025494838  0.025198357            5 
 2601000    0.8317652   -7.1579505    795.53855  0.025488227    0.0251916            5 
 2602000   0.83433546   -7.1985119    793.84595  0.025424223  0.025184799            6 
 2603000   0.84451807   -7.1652779     795.3321  0.025462034  0.025177995            5 
 2604000    0.8327502   -7.1537513    794.48671  0.025425202  0.025171176            2 
 2605000   0.82865456   -7.1424488    795.15127  0.025436701  0.025164415            3 
 2606000   0.82350985   -7.1686167    795.30079  0.025431721  0.025157556            4 
 2607000   0.83847075    -7.165357    795.30956  0.025422247  0.025150729            3 
 2608000   0.86593265   -7.1522187    794.84507  0.025397657  0.025143918            4 
 2609000   0.84025848   -7.1859323    794.11982  0.025364757  0.025137078            5 
 2610000    0.8260045   -7.1344665    795.44856  0.025397464  0.025130242            6 
 2611000   0.82384456   -7.1575657    795.58457  0.025392077  0.025123402            4 
 2612000   0.85828731   -7.1723198    796.35566  0.025406957  0.025116589            4 
 2613000   0.81247985   -7.1691097    792.80118  0.025283875  0.025109713            5 
 2614000   0.82604152   -7.1600661    795.35528  0.025355626   0.02510279            5 
 2615000   0.81679079   -7.1625838    794.46065   0.02531742  0.025095903            5 
 2616000   0.83350282   -7.1431786    796.55412   0.02537443  0.025089043            4 
 2617000   0.84466354   -7.1492001     795.7959   0.02534059  0.025082209            3 
 2618000   0.83929639   -7.1647802    796.55423  0.025355049  0.025075382            9 
 2619000    0.8233797   -7.1737044    796.75519  0.025351762  0.025068526           10 
 2620000    0.8296792   -7.1629306    795.32646  0.025296643  0.025061642            4 
 2621000   0.83425324   -7.1838819    796.91259  0.025337422  0.025054789            5 
 2622000   0.82566628   -7.1635881    795.96873   0.02529776  0.025047976            2 
 2623000   0.84068539   -7.1242978    797.91749  0.025350028  0.025041158            5 
 2624000   0.84740556   -7.1800822    797.56909  0.025329303   0.02503433            3 
 2625000   0.83216388   -7.1737326    800.01466  0.025397291   0.02502754            4 
 2626000   0.82345003   -7.1420825    798.61553  0.025343219  0.025020761            7 
 2627000   0.85860856   -7.1645871    797.54607  0.025299647  0.025013954            7 
 2628000   0.81665286   -7.1682124    797.87351  0.025300403  0.025007122            4 
 2629000   0.82671969   -7.1579029    797.56115  0.025280878  0.025000287            4 
 2630000   0.82004244   -7.2034482    794.54921  0.025175831  0.024993425            3 
 2631000   0.80810924   -7.1818029    797.74007  0.025267328  0.024986537            8 
 2632000   0.83772645   -7.1744392    798.19784  0.025272221  0.024979673            5 
 2633000   0.82223088   -7.1925036    796.36955  0.025204758  0.024972845            6 
 2634000   0.82458373   -7.2012162    797.55617  0.025232731  0.024965947            6 
 2635000   0.82555483    -7.187482     796.7029   0.02519617  0.024959102            4 
 2636000   0.84249207   -7.1808509      796.968  0.025194992  0.024952227            6 
 2637000   0.82331138   -7.1894407    797.41969  0.025199712  0.024945429           14 
 2638000   0.82781456   -7.1711567    798.08605   0.02521121  0.024938601            3 
 2639000   0.81459463   -7.1958273    797.87631  0.025195033  0.024931749           10 
 2640000   0.84465064   -7.1759949    797.84444  0.025184484   0.02492487            4 
 2641000   0.84841181   -7.1741479    796.95549  0.025146898  0.024918029            7 
 2642000   0.82092834   -7.1820518    797.44811  0.025152918   0.02491114            6 
 2643000   0.83982424   -7.1645581    800.47193  0.025238742   0.02490429            5 
 2644000   0.84809887   -7.1358678    799.03426  0.025183884  0.024897446            4 
 2645000   0.81269272   -7.1877579    798.47806  0.025156839  0.024890585            4 
 2646000   0.82772514   -7.2041984    797.51467   0.02511699  0.024883709            7 
 2647000   0.81663263   -7.1778978    798.12539  0.025126728  0.024876816            5 
 2648000   0.80902081   -7.1710309    797.88283  0.025109606  0.024869964            5 
 2649000   0.81331501    -7.182204    796.68802   0.02506254  0.024863095           18 
 2650000   0.83116731   -7.1672117    798.22922  0.025101548  0.024856222            5 
 2651000   0.83062376   -7.1574239    798.61047  0.025104064  0.024849362            4 
 2652000   0.83365298   -7.1819223    800.17324  0.025143704  0.024842556            6 
 2653000   0.83296532   -7.1843507    797.02936  0.025035474  0.024835719            9 
 2654000   0.82273227   -7.1359676    801.00999   0.02515103  0.024828898            3 
 2655000   0.82112986   -7.1659308    799.92953  0.025107644  0.024822111            6 
 2656000   0.82981218   -7.1690452    800.31519  0.025110291  0.024815305            5 
 2657000     0.847594   -7.1713384    799.64827  0.025079923  0.024808476            8 
 2658000   0.82530448   -7.1820843    798.87384  0.025046208  0.024801679            5 
 2659000   0.83178967   -7.1679244    801.76702  0.025127461  0.024794875            4 
 2660000   0.81938682   -7.2114704    798.25387  0.025007953  0.024788087            4 
 2661000   0.83267563   -7.2005331    800.20958  0.025059801  0.024781244            4 
 2662000   0.83617404   -7.1744047    800.05643  0.025045593  0.024774387            4 
 2663000   0.82395771   -7.2154083    800.11318  0.025037964  0.024767618            6 
 2664000   0.82992228   -7.1973906    800.15035  0.025029728  0.024760803            8 
 2665000   0.80944332   -7.1645319    801.25757  0.025054959  0.024753963            4 
 2666000   0.83415572   -7.1972389    799.46687  0.024989587  0.024747149            5 
 2667000   0.81893309   -7.1799453    802.34384  0.025070111  0.024740361           10 
 2668000   0.82872645   -7.1750143    803.18842  0.025087095  0.024733583            5 
 2669000   0.80748259   -7.2182312    799.83433  0.024972972  0.024726798            4 
 2670000   0.81813498   -7.1897071     801.3065  0.025009566  0.024719981            6 
 2671000   0.82774944   -7.1898727    801.16493  0.024995786  0.024713202            8 
 2672000   0.81653157   -7.1644794     801.4691  0.024995918  0.024706478            9 
 2673000   0.83978448   -7.2205162    800.92584   0.02496963  0.024699726            6 
 2674000   0.82534623   -7.1617692    800.66477  0.024952156  0.024693003            5 
 2675000   0.84667832   -7.2049666    802.01377  0.024984853  0.024686242           12 
 2676000   0.83464406   -7.1914964    800.23626  0.024920162  0.024679465            4 
 2677000   0.84214273   -7.2078138    801.12086  0.024938391   0.02467267           11 
 2678000   0.81949292   -7.2063921    800.92124  0.024922866   0.02466586            4 
 2679000   0.80996557   -7.1641037    803.42281  0.024991378  0.024659118            2 
 2680000   0.82754893   -7.1971398    802.97736  0.024968202  0.024652352            8 
 2681000   0.82557643   -7.1880084    802.92842  0.024957367  0.024645557           10 
 2682000   0.82574848    -7.206962    803.66381  0.024970911  0.024638784            5 
 2683000   0.81971493   -7.1893205    800.86738  0.024874748  0.024632007           13 
 2684000   0.81664298   -7.1986391    802.86523   0.02492751   0.02462527            8 
 2685000    0.8194924   -7.1910601    803.09067  0.024925223  0.024618525            7 
 2686000   0.83067719   -7.1752716     803.4369  0.024926685  0.024611796            4 
 2687000   0.82781955   -7.1720073    804.39428    0.0249471  0.024605072            4 
 2688000   0.82775908   -7.2081826    803.73167  0.024917276  0.024598348            7 
 2689000   0.82392681   -7.1886776    803.72133   0.02490769    0.0245916           10 
 2690000    0.8160726   -7.2088362    801.52373  0.024830351  0.024584887            6 
 2691000   0.81576459   -7.1923315    804.23062  0.024904949   0.02457812            3 
 2692000   0.82026289   -7.2192967    803.93425  0.024886523   0.02457139            5 
 2693000   0.82007571   -7.2328296    801.55526  0.024803666  0.024564599            6 
 2694000   0.85611029   -7.2071958    803.03592   0.02484026  0.024557811            4 
 2695000   0.82756106   -7.1697099     804.2263  0.024867851  0.024551054            6 
 2696000   0.82158164   -7.2075278    803.02789  0.024821584  0.024544314            3 
 2697000   0.81313001   -7.2033944    803.95017  0.024840878  0.024537605            6 
 2698000   0.82354423   -7.1940371    803.21512  0.024808967  0.024530889            7 
 2699000   0.82785259   -7.1601153    803.36753  0.024804481  0.024524157           10 
 2700000    0.8022483   -7.1939592    804.14457  0.024819277  0.024517404            4 
 2701000   0.84115158   -7.1813744    803.55463  0.024791887  0.024510649            7 
 2702000    0.8210748   -7.2056133    804.25083  0.024804183   0.02450389            4 
 2703000   0.81584574   -7.1989885    805.29281  0.024827131  0.024497138            4 
 2704000   0.83040118   -7.1870665    806.37087  0.024851173  0.024490389            5 
 2705000     0.829646   -7.2182169    804.39719  0.024781183  0.024483634            3 
 2706000   0.82068504   -7.1928586    805.36952  0.024801968  0.024476886            2 
 2707000   0.82779632    -7.217564    806.58515  0.024830229  0.024470218            8 
 2708000   0.79865239   -7.1757003    804.37107  0.024752926  0.024463502           10 
 2709000   0.84101218   -7.2135507    803.84273  0.024727536  0.024456786           13 
 2710000   0.81269629   -7.2038827    805.19793  0.024760084  0.024450061            5 
 2711000   0.83382027   -7.1902486    805.98264  0.024775072  0.024443362            4 
 2712000   0.83263069   -7.1638237    804.66263  0.024725376  0.024436663            8 
 2713000    0.8220585   -7.2223888    804.24913  0.024703561  0.024429931            8 
 2714000   0.80582775   -7.2110335    804.23417  0.024693999  0.024423173            5 
 2715000   0.82428974   -7.1953102    807.01531  0.024770267  0.024416428            5 
 2716000   0.81468233   -7.2408995    804.38186  0.024680347  0.024409664            5 
 2717000   0.81359473   -7.2138317    804.15932  0.024664437  0.024402925            5 
 2718000   0.80550418   -7.2356102    804.13512  0.024654621  0.024396198            6 
 2719000   0.82239691   -7.2115406    805.68989  0.024693205  0.024389468            5 
 2720000   0.82243447   -7.2130942    805.94968  0.024692086  0.024382771            5 
 2721000   0.80526423   -7.2016344     805.5435  0.024670571  0.024376048            7 
 2722000   0.82194646   -7.2132459    807.35528  0.024716975  0.024369345            5 
 2723000   0.81380647   -7.2004857    806.67709  0.024687143   0.02436265            7 
 2724000   0.81500407   -7.1919504    806.78933  0.024681514  0.024356006           14 
 2725000   0.82410355   -7.2086009    808.24508  0.024716975  0.024349305            7 
 2726000   0.82395359   -7.2217305    807.97424  0.024699628  0.024342599            5 
 2727000   0.81400028   -7.2064553    807.43773  0.024674176   0.02433589            3 
 2728000   0.81748703   -7.1800799    806.90759  0.024648937  0.024329185            7 
 2729000   0.81328388   -7.1873203    806.88066  0.024639082  0.024322535            4 
 2730000   0.80743069    -7.233451    806.74372  0.024625877  0.024315845            7 
 2731000   0.82019028   -7.2476841      804.456  0.024547052  0.024309106            5 
 2732000   0.81486609   -7.2048457    809.18742  0.024682388  0.024302378           10 
 2733000   0.81392868   -7.2085874    806.89604   0.02460349  0.024295707            7 
 2734000   0.81701118   -7.1818128    810.49241  0.024704109   0.02428909            6 
 2735000   0.80042147     -7.18288    808.27735  0.024627585  0.024282493            7 
 2736000   0.80735673   -7.1887799    806.35544  0.024560046  0.024275892           12 
 2737000   0.82928574   -7.2206848    807.75335  0.024593635  0.024269266            6 
 2738000   0.81189444   -7.2260264    807.56097  0.024578797  0.024262632            3 
 2739000   0.81729061   -7.1845096    809.36767  0.024624792   0.02425601            4 
 2740000   0.82867936   -7.1960656    807.72669  0.024565897  0.024249378            7 
 2741000   0.81596013   -7.2146044    808.10901  0.024568558  0.024242724            5 
 2742000   0.82661566   -7.2436088    809.04398  0.024588013  0.024236004            9 
 2743000   0.80777167   -7.2345109    806.76163   0.02450971  0.024229288            4 
 2744000   0.82034776   -7.2310544     808.5296   0.02455447  0.024222599            9 
 2745000   0.82386328   -7.2112878    807.94608  0.024527811  0.024215934            3 
 2746000   0.79421331   -7.2081254    808.81317  0.024545192  0.024209315            5 
 2747000   0.84825656   -7.2294347    809.55168   0.02455866  0.024202688            4 
 2748000   0.79760673   -7.2183912    810.02868  0.024564188  0.024196083            7 
 2749000   0.81276822   -7.2337443    807.58537  0.024481186  0.024189429            3 
 2750000   0.80447398   -7.2224067    808.94749   0.02451356  0.024182807            5 
 2751000   0.80701907   -7.2451249    809.25332  0.024513914   0.02417618            6 
 2752000   0.81178409   -7.2417253    810.33084  0.024537634  0.024169558            4 
 2753000   0.82541211   -7.2456348     809.5741  0.024505815  0.024162924            6 
 2754000   0.79875179   -7.2204114    810.58491  0.024527503  0.024156273            8 
 2755000   0.79896666   -7.1946707    812.56902  0.024578615  0.024149649            7 
 2756000   0.82177387   -7.2033863    809.76038  0.024484772  0.024143042            5 
 2757000   0.82044953   -7.2342422    807.85308  0.024418241  0.024136403           10 
 2758000   0.81431093   -7.2144327    812.35295  0.024545351  0.024129779            5 
 2759000    0.8016305   -7.1944345    809.39999  0.024447263  0.024123173            4 
 2760000   0.81351665   -7.2184288    812.04748  0.024518342  0.024116577           10 
 2761000   0.82779655   -7.1737185    811.43639  0.024491017  0.024110018            3 
 2762000   0.80683285   -7.2077537    809.09913  0.024411632  0.024103439            4 
 2763000   0.83374356   -7.1958576     812.3787   0.02450171  0.024096858            4 
 2764000    0.8169448   -7.2118627    811.05248  0.024452861  0.024090281            5 
 2765000   0.81376194   -7.2378369    809.94514  0.024410643  0.024083644            6 
 2766000   0.80773883    -7.222841    812.03702  0.024464841  0.024077041            2 
 2767000   0.79977939   -7.2313788    810.03565  0.024395725  0.024070422            5 
 2768000   0.79863027   -7.2367925    811.05635  0.024417641  0.024063776            4 
 2769000   0.80309078    -7.248992     810.4174  0.024389593  0.024057088            4 
 2770000   0.81406554   -7.2400928    808.71132  0.024329462  0.024050382            5 
 2771000   0.80973656   -7.2253501    809.09461  0.024332209  0.024043735            7 
 2772000   0.82057751   -7.2174797     810.0334  0.024351653  0.024037092            3 
 2773000   0.79632174   -7.2330138    810.50124  0.024356931  0.024030497            5 
 2774000   0.80807653   -7.2212767     810.5317  0.024349066  0.024023897            7 
 2775000    0.7966186   -7.2570371    810.17224  0.024329497  0.024017256            5 
 2776000   0.80983612   -7.2358187    811.58487  0.024363139  0.024010612            2 
 2777000   0.81196965   -7.2485528    811.71725  0.024358338  0.024003967            4 
 2778000    0.8082957   -7.2375362    811.82543  0.024352815  0.023997339            4 
 2779000   0.81867321   -7.2426011    811.04007  0.024320501  0.023990701            4 
 2780000   0.80158761   -7.2232839    810.42041  0.024293178   0.02398411            5 
 2781000   0.80155149   -7.2359523     810.4304  0.024284742  0.023977508            7 
 2782000   0.79369748   -7.2050864    812.33949  0.024333198  0.023970908            7 
 2783000   0.81156038   -7.1921449    812.26459  0.024322212  0.023964332            3 
 2784000   0.82175469   -7.2431243    811.99054  0.024305272  0.023957709            3 
 2785000   0.82494119   -7.2261916    811.47021  0.024280976  0.023951088           10 
 2786000    0.7872123    -7.218666    813.24068  0.024325218  0.023944495            5 
 2787000   0.79629752   -7.2153596    811.88723   0.02427602  0.023937894            5 
 2788000   0.82178762   -7.2246666    813.60421  0.024318634  0.023931307            3 
 2789000   0.78227128   -7.2325221    809.15755  0.024177051  0.023924696            6 
 2790000   0.79245206   -7.2274055    812.35264  0.024263818  0.023918033            4 
 2791000    0.8151703   -7.2495058    812.24014  0.024251766  0.023911388            9 
 2792000   0.78604351   -7.2227257    813.28288  0.024274203  0.023904766            2 
 2793000   0.78831189   -7.2230822    812.08155  0.024229668  0.023898089            6 
 2794000   0.81978071   -7.2387806    811.84512  0.024213944  0.023891402            7 
 2795000    0.7912576   -7.1955067    813.12179  0.024243345  0.023884718            9 
 2796000   0.80150353   -7.2175003    811.22032  0.024178002  0.023878071            7 
 2797000   0.81195473   -7.2278452    811.03721  0.024163902  0.023871394           16 
 2798000   0.82060329   -7.2130487    812.62921  0.024202681  0.023864753            6 
 2799000   0.80506849   -7.2460087    810.87162  0.024141706  0.023858104            7 
 2800000   0.80712048   -7.2342057    813.56848  0.024213348  0.023851413            4 
 2801000   0.78838044   -7.2309418    812.63267  0.024176861  0.023844766            4 
 2802000   0.80669803   -7.2197424    812.54558  0.024165643  0.023838121            6 
 2803000   0.81573752   -7.2408143    811.29015  0.024119698  0.023831443            5 
 2804000   0.79079015   -7.2249322    813.47679  0.024176082  0.023824766            6 
 2805000   0.80662537   -7.2239387      812.543  0.024139721   0.02381812           13 
 2806000   0.80084733   -7.2272586    812.54543   0.02413119  0.023811484            4 
 2807000   0.78796942   -7.2555635    814.38179  0.024177111  0.023804796            7 
 2808000   0.80752746   -7.2507766    812.24547  0.024105101  0.023798154            5 
 2809000   0.80059054   -7.2108885    813.19018  0.024124545  0.023791541            7 
 2810000   0.80871228   -7.2049947    814.65613  0.024159435  0.023784919           10 
 2811000   0.80983694   -7.2238358    814.57771  0.024148515  0.023778331            3 
 2812000   0.79177247   -7.2155127    814.52139  0.024138258  0.023771742            5 
 2813000   0.80895557   -7.2647305    813.18387  0.024090054  0.023765156            4 
 2814000   0.80374806   -7.2600951    813.64171  0.024095052  0.023758514            4 
 2815000   0.77805365   -7.2508553    815.36093  0.024137387  0.023751907            8 
 2816000   0.80378949   -7.2395556    815.80853  0.024142061  0.023745316            5 
 2817000   0.79562849   -7.2394196    814.06191  0.024081822  0.023738723            4 
 2818000   0.79920299   -7.2650754    812.61648  0.024030532  0.023732141            4 
 2819000   0.78858014   -7.2363729    816.01135  0.024122364  0.023725568            6 
 2820000   0.80236145   -7.2470196    813.74968  0.024046976  0.023718952            8 
 2821000   0.81064358   -7.2552175    814.71933  0.024067096  0.023712341            4 
 2822000    0.7972779    -7.230088    814.81696  0.024061451  0.023705718           14 
 2823000    0.8031415   -7.2368541    814.55213  0.024045109  0.023699117            6 
 2824000   0.82140483   -7.2147098    814.40006  0.024032108  0.023692508            5 
 2825000   0.78681112   -7.2254296    813.97379  0.024011026  0.023685937            4 
 2826000   0.78599625   -7.2375157    815.50294  0.024047621  0.023679351            6 
 2827000   0.81778179   -7.2410577    815.02824  0.024025122  0.023672765            6 
 2828000   0.81107489   -7.2470104    814.10101  0.023989304  0.023666137            3 
 2829000   0.80344991   -7.2296739    816.28172  0.024045061  0.023659501           14 
 2830000   0.79413434   -7.2649434    815.74447  0.024020744  0.023652908           18 
 2831000   0.80576944   -7.2591293    814.23013  0.023967683  0.023646301            8 
 2832000    0.8063916   -7.2673079    813.78002  0.023945975  0.023639658            9 
 2833000   0.79435727   -7.2526842    813.25753  0.023922153   0.02363303            4 
 2834000   0.78192423   -7.2811416    814.65703  0.023954865  0.023626389            4 
 2835000   0.80226735   -7.2573829    816.00958  0.023986172  0.023619782            4 
 2836000   0.79303565   -7.2420418    814.04728  0.023920054  0.023613178            4 
 2837000   0.78869429   -7.2537154    815.56901  0.023956321  0.023606572            4 
 2838000   0.81102971   -7.2341133    814.64174  0.023920653  0.023600011            4 
 2839000   0.80536445   -7.2321655      815.801  0.023946255   0.02359348            3 
 2840000   0.79657793   -7.2548436    816.81722  0.023967641  0.023586914            7 
 2841000   0.80977303   -7.2415616    816.47588  0.023949193  0.023580329            6 
 2842000   0.79459301   -7.2507527    815.23487  0.023904377  0.023573721            8 
 2843000   0.79328144   -7.2584069    815.66528  0.023908585  0.023567152           12 
 2844000   0.79112955   -7.2433989    815.92062   0.02390766  0.023560539            2 
 2845000   0.81035467   -7.2502995    815.49368  0.023886751  0.023553902            6 
 2846000   0.79391192   -7.2452602    814.83642  0.023859113  0.023547315            3 
 2847000   0.79378564   -7.2530656    816.11097  0.023888039  0.023540708            3 
 2848000   0.79506716     -7.22616    815.56521  0.023863683  0.023534114            6 
 2849000   0.79644419   -7.2420107     814.8505  0.023834401  0.023527515            3 
 2850000   0.79707742   -7.2368969    813.88408   0.02379778  0.023520905            9 
 2851000   0.78259779   -7.2344414    814.47956  0.023806838  0.023514333            8 
 2852000   0.78375966   -7.2579147     815.5295   0.02382917  0.023507732            5 
 2853000    0.7922751   -7.2371013    816.29902  0.023843294   0.02350114            5 
 2854000   0.79702289   -7.2595411    816.87274  0.023851692  0.023494539            3 
 2855000    0.7951634     -7.27141    815.48726  0.023802897  0.023487941            3 
 2856000   0.78139513   -7.2799258    815.03302  0.023781309  0.023481277           14 
 2857000   0.79359487   -7.2964412    816.12182  0.023804743  0.023474591           11 
 2858000   0.80532676   -7.2858866    815.24057  0.023770719  0.023467905            6 
 2859000   0.78032977   -7.2749761     816.7535  0.023806503  0.023461222            9 
 2860000   0.77514875   -7.2905772    815.08291  0.023749502  0.023454532            9 
 2861000   0.80460735   -7.2638111     814.1039  0.023712685  0.023447835            8 
 2862000   0.79230211   -7.2597508    816.07544  0.023761805  0.023441189            7 
 2863000   0.79871513   -7.2635821    813.89004  0.023689895  0.023434545            5 
 2864000   0.79790217   -7.2677665    815.73951  0.023735437  0.023427833            5 
 2865000   0.80416034     -7.28972    813.32978  0.023657062  0.023421134           10 
 2866000   0.78500308   -7.2947516    815.89642  0.023723436  0.023414446           15 
 2867000   0.79495215   -7.2873785     812.6902  0.023621968  0.023407734           15 
 2868000   0.78648147   -7.2789449    813.92456  0.023649598  0.023401033            5 
 2869000   0.79104944   -7.2796581    815.89841  0.023698687  0.023394313            4 
 2870000   0.78209377   -7.2416712    817.34755  0.023732507  0.023387657            6 
 2871000   0.77609904   -7.2695098    818.07452  0.023745342  0.023381043            7 
 2872000   0.77266763   -7.2770337    815.21514  0.023654107  0.023374397           10 
 2873000   0.78813761   -7.2496392    816.35675  0.023678987   0.02336773            3 
 2874000   0.79826756   -7.2746596    817.03783  0.023690496  0.023361062            6 
 2875000   0.80098045   -7.2678288    817.19347  0.023686767  0.023354417            8 
 2876000   0.80413013   -7.2794427    815.94706  0.023642416  0.023347746            4 
 2877000   0.80673191   -7.2736214    816.70514  0.023656156  0.023341083            6 
 2878000   0.79657913   -7.2881976    816.40098   0.02363913   0.02333443            5 
 2879000   0.79184251   -7.2576407    817.87374  0.023673548  0.023327745            3 
 2880000   0.79688457   -7.2794865    818.39829  0.023680506  0.023321086            6 
 2881000   0.77442228   -7.2727201     818.8005  0.023683921  0.023314432            8 
 2882000   0.78673349   -7.2780762    817.39833  0.023635159  0.023307777            5 
 2883000   0.79137912   -7.2836427    816.72848  0.023607599  0.023301126            4 
 2884000   0.79495314   -7.2768796    816.86133  0.023603252  0.023294451            6 
 2885000    0.7986733   -7.2770697    816.31088   0.02357917  0.023287793           11 
 2886000   0.78710349   -7.2614799    818.17432  0.023624807  0.023281139            5 
 2887000   0.79678283   -7.2554032    815.42625  0.023537301  0.023274455            5 
 2888000   0.78257699   -7.2880486    817.97113  0.023602583  0.023267776           11 
 2889000   0.79018132   -7.2636687    817.25966  0.023573891  0.023261105            7 
 2890000   0.78502173   -7.2674199    818.30185  0.023595786  0.023254448            5 
 2891000   0.77317814   -7.2777278    815.55867  0.023508551  0.023247801            5 
 2892000   0.79017721   -7.2839391    817.07406  0.023544089  0.023241127            5 
 2893000   0.79070728    -7.258244    817.82133  0.023557476  0.023234463            5 
 2894000   0.79288307   -7.2537701    815.90863  0.023494259  0.023227782            5 
 2895000   0.79347487   -7.2624753    817.55259  0.023533465  0.023221101            4 
 2896000    0.7995748   -7.2504819    817.08236  0.023511808  0.023214455            9 
 2897000   0.78256474   -7.2762604    819.97379  0.023586866  0.023207823            9 
 2898000   0.79035845   -7.2453772    816.74925  0.023486003  0.023201197            4 
 2899000    0.7905222   -7.2431313    816.57002   0.02347275  0.023194523            6 
 2900000    0.8021817   -7.2704755    818.33001   0.02351523  0.023187834           10 
 2901000   0.79156267   -7.2727206    817.46913  0.023482395  0.023181159            4 
 2902000   0.79261487   -7.2253541    818.96455  0.023517245  0.023174496            4 
 2903000   0.78018944   -7.2663162    817.94138  0.023479773  0.023167844            7 
 2904000   0.80345396    -7.275354    818.67454  0.023492727  0.023161216            7 
 2905000   0.79537724   -7.2688073    817.80391  0.023459665  0.023154582            8 
 2906000    0.7722358   -7.2831392    817.11484  0.023431832  0.023147911           11 
 2907000   0.79285518   -7.2511891    819.99673  0.023506385  0.023141233            3 
 2908000   0.78412349   -7.2298386    818.15616  0.023445557   0.02313458            6 
 2909000   0.77810634   -7.2777067    816.83596  0.023399678  0.023127927           14 
 2910000   0.79051942   -7.2869291    817.18773   0.02340171  0.023121268            7 
 2911000   0.78149125   -7.2601851    817.32776   0.02339768  0.023114587            5 
 2912000   0.78030942   -7.2767726    817.40189  0.023391766  0.023107913            6 
 2913000   0.80284391   -7.3008169    818.39693  0.023412202  0.023101236           11 
 2914000   0.77980986   -7.2617581    819.03002  0.023422272   0.02309458            7 
 2915000   0.81294766    -7.287356    819.28087  0.023421409  0.023087902            9 
 2916000   0.77066523   -7.2907088    817.50347  0.023362582  0.023081248            6 
 2917000   0.77981606   -7.2857774    818.45032  0.023381623  0.023074592            9 
 2918000   0.78562321   -7.2863694     820.7506  0.023439302  0.023067922            8 
 2919000   0.78589646    -7.265535     820.2339  0.023416521  0.023061259            7 
 2920000   0.78502022   -7.2611252     818.3842  0.023355713    0.0230546            6 
 2921000   0.79844336   -7.3051458    818.56354  0.023352834  0.023047927            6 
 2922000   0.80734369   -7.2728881    818.74113  0.023349907  0.023041248            3 
 2923000   0.77527881   -7.2859968    818.71729  0.023341239  0.023034592            7 
 2924000   0.79456771   -7.2887097    819.53843  0.023356658   0.02302795            3 
 2925000   0.80377584   -7.2862965    820.16008  0.023366384    0.0230213            5 
 2926000   0.76991264   -7.2754841    820.09407  0.023356518  0.023014666            8 
 2927000   0.78415918   -7.2852315    820.45324  0.023358764  0.023008053           11 
 2928000   0.78808412   -7.2721917    821.44198  0.023378927  0.023001463            7 
 2929000   0.79620476   -7.2793052    819.24042  0.023308308  0.022994846            6 
 2930000   0.78459692   -7.2627614    820.73328  0.023342812  0.022988223            7 
 2931000    0.7782181   -7.3056524    819.00321  0.023285659  0.022981562            8 
 2932000   0.77606136   -7.3019883    818.76962  0.023271078  0.022974922            7 
 2933000   0.76878763   -7.2665112    820.20215  0.023303846  0.022968291            5 
 2934000   0.77921133   -7.3028545    820.95602  0.023317315  0.022961673            7 
 2935000   0.79018996   -7.2824088    821.31067   0.02331944  0.022955096            6 
 2936000   0.80421504   -7.2940982     818.9255  0.023243798  0.022948473            4 
 2937000    0.7626142   -7.2906513    822.27924  0.023331042  0.022941842            9 
 2938000   0.78104255   -7.2965448    818.81902  0.023224955  0.022935228           14 
 2939000   0.77610357   -7.3080073    818.27643  0.023201668  0.022928598            4 
 2940000   0.78156452    -7.284593    819.50725  0.023228664  0.022921997            7 
 2941000   0.78686365   -7.2742526    820.41117  0.023246378  0.022915387           17 
 2942000   0.77807574   -7.2499414    821.32124  0.023264255  0.022908808            6 
 2943000   0.77318582   -7.2610374    821.82105  0.023270502   0.02290225            4 
 2944000   0.78070033   -7.2819783    822.77675   0.02328965  0.022895691            7 
 2945000   0.78717958   -7.2603866    822.17639  0.023264753  0.022889111            5 
 2946000    0.7693697   -7.2951054    820.61959  0.023212819  0.022882502            8 
 2947000   0.77602238   -7.2720728    821.89365   0.02324097  0.022875948            5 
 2948000   0.77620359   -7.2788957    821.06495   0.02320966  0.022869404            9 
 2949000   0.78056039   -7.2680542    822.22515  0.023234575  0.022862853            5 
 2950000   0.76002441   -7.2945107     822.0962  0.023223056  0.022856266            7 
 2951000   0.76500179   -7.2851076     820.9009  0.023181433  0.022849675            8 
 2952000   0.75910366   -7.2775164    822.61238  0.023221894  0.022843045            4 
 2953000   0.77707582   -7.2803166    820.58792    0.0231569  0.022836439            4 
 2954000   0.78863565   -7.3034429    821.17621  0.023165657   0.02282984            4 
 2955000   0.77665531   -7.2805664    822.52487  0.023195851  0.022823254           14 
 2956000   0.76447044   -7.3041371    819.80091  0.023111212  0.022816645            3 
 2957000   0.77731896   -7.2979458    821.30455  0.023145771  0.022810055            7 
 2958000   0.78092571   -7.2754089    822.09487  0.023160212  0.022803453            6 
 2959000   0.75892199   -7.2631088    821.26492  0.023129011  0.022796842            3 
 2960000   0.78365506   -7.3000336    821.26253   0.02312113  0.022790257            5 
 2961000   0.77571621   -7.2713465    820.29962  0.023086222  0.022783637            5 
 2962000    0.7738201    -7.319487    821.04557  0.023099414  0.022776992            5 
 2963000   0.77980791   -7.2915896    821.29751  0.023098704  0.022770338           11 
 2964000   0.76727792   -7.2846989    820.33403  0.023063822  0.022763715            8 
 2965000   0.79604252   -7.2785285    820.86312  0.023070914  0.022757098            4 
 2966000   0.78779973   -7.2995972    822.71437  0.023115149  0.022750476           10 
 2967000   0.77057457   -7.3066132    821.03505  0.023060191  0.022743828            8 
 2968000   0.78845359   -7.2712097    822.25308  0.023086621  0.022737202            8 
 2969000   0.78376981   -7.3180905    819.98036  0.023015055  0.022730577            6 
 2970000   0.79595366   -7.3101106    820.85331  0.023031799  0.022723916           10 
 2971000   0.77775203   -7.2667138    820.15842  0.023004556  0.022717254           10 
 2972000   0.75429274   -7.2952288    820.07271  0.022994412  0.022710605            8 
 2973000    0.7658125   -7.3018121    820.68249   0.02300377  0.022703937            5 
 2974000   0.77118818   -7.3249365    820.82133  0.022999925    0.0226973            8 
 2975000   0.79509667   -7.2927704    821.50682  0.023011395   0.02269065            4 
 2976000   0.77429152   -7.3041199    820.47003  0.022974631  0.022684026            6 
 2977000   0.77169034   -7.2863526    822.63587  0.023027541  0.022677378            4 
 2978000   0.76056769   -7.2935914    822.27755  0.023009781  0.022670746            5 
 2979000   0.78099216   -7.3241264     822.1927  0.022999684  0.022664109            9 
 2980000   0.77209337   -7.3029384    822.62709  0.023004113  0.022657419            7 
 2981000   0.77326265   -7.2843969    822.85691  0.023002821  0.022650758           11 
 2982000   0.79057771   -7.3251144    820.88587  0.022940025  0.022644068           11 
 2983000   0.77886676   -7.3088391    821.00398  0.022935635  0.022637375           14 
 2984000   0.78707267   -7.2979819    820.62509  0.022917367  0.022630706           11 
 2985000   0.78075764   -7.3027306    822.32117   0.02295704  0.022624046            6 
 2986000   0.76811484   -7.3262576    822.41955  0.022952097  0.022617391            9 
 2987000   0.76546114   -7.3049527      822.746  0.022953521   0.02261075            7 
 2988000   0.76697422   -7.2872385    822.18067  0.022930072  0.022604148            6 
 2989000   0.76945108   -7.2989907    822.65623  0.022935659  0.022597575            7 
 2990000   0.77090508   -7.2831484    823.61292  0.022954652   0.02259098            5 
 2991000   0.78156546   -7.3032121    820.15097  0.022850523  0.022584345            7 
 2992000   0.77126547   -7.2840906    822.27388  0.022902013  0.022577714            8 
 2993000   0.79102271   -7.3163412     822.0397  0.022887841   0.02257109            6 
 2994000    0.7645123   -7.3013953    822.08614  0.022881489  0.022564494            5 
 2995000   0.77166625   -7.2804392    823.85298   0.02292301  0.022557887           10 
 2996000   0.79444897   -7.2775816     824.1843  0.022924574  0.022551288           11 
 2997000    0.7662278   -7.2869243    821.49675  0.022842196  0.022544731            4 
 2998000   0.77488883   -7.3113067    820.56164  0.022808585  0.022538124           15 
 2999000   0.78245708   -7.2952917    823.71972  0.022888733  0.022531522           10 
 3000000    0.7511546   -7.3190533    823.13907  0.022864974  0.022524931            4 
 3001000    0.7724858   -7.2877495    822.96655  0.022852564   0.02251833            9 
 3002000    0.7654614   -7.3012547    823.97355  0.022872906  0.022511732            3 
 3003000   0.75916328   -7.3112739     822.3378  0.022819897  0.022505137            5 
 3004000   0.75045958   -7.3194302    823.23762  0.022837262  0.022498527            3 
 3005000   0.77630472   -7.3215256    824.57518  0.022866755  0.022491938            3 
 3006000   0.78259978   -7.3153885    823.20414  0.022821139  0.022485374           11 
 3007000   0.77742447   -7.2881619    825.27114  0.022870833   0.02247881           10 
 3008000     0.754909   -7.3158607    823.20857  0.022806088  0.022472235            3 
 3009000   0.76427454   -7.3025482     822.8234  0.022787842  0.022465629            6 
 3010000   0.76652015   -7.3339319    823.11324  0.022788296  0.022459047            6 
 3011000   0.77179708    -7.336357    822.52424  0.022764426  0.022452456            7 
 3012000    0.7743216   -7.3279823    824.73446  0.022818019  0.022445885           10 
 3013000   0.75631642   -7.3250422    821.55586  0.022722532  0.022439272            6 
 3014000   0.76381236   -7.2916311    822.78329   0.02274893  0.022432673           12 
 3015000   0.77713375   -7.3373604    822.79914  0.022741823  0.022426059           11 
 3016000   0.78843859   -7.3189822    822.68552  0.022731143  0.022419474            8 
 3017000   0.76581136   -7.3019696    822.59575  0.022721129  0.022412905            8 
 3018000   0.77129636   -7.3035496    825.89486  0.022804696  0.022406367            5 
 3019000    0.7765317   -7.3044456    824.18112  0.022749838   0.02239983           17 
 3020000   0.77282963   -7.3108596    824.54271  0.022752282  0.022393275           12 
 3021000   0.77485917   -7.3017619    821.83542  0.022670071  0.022386694            7 
 3022000   0.77837514   -7.3105445    823.74711  0.022715285  0.022380127           14 
 3023000    0.7924265   -7.3384646    823.84399  0.022710442  0.022373546           11 
 3024000   0.76167753    -7.313691    822.89759  0.022676851   0.02236696            6 
 3025000    0.7731344   -7.3006931     825.7135  0.022746928  0.022360393            8 
 3026000   0.76893814   -7.3205048      825.691  0.022738791  0.022353797            7 
 3027000   0.74599613   -7.3116286    823.76368   0.02267822  0.022347221            6 
 3028000   0.75945063   -7.3013053    823.77718  0.022671102  0.022340675            5 
 3029000   0.75967165   -7.3330384    823.82932  0.022665052  0.022334068           13 
 3030000   0.75030109   -7.3149093    823.84568  0.022658022  0.022327477           10 
 3031000    0.7799799   -7.3217562     824.3681   0.02266491  0.022320893            5 
 3032000   0.76431956   -7.3092743     824.2743  0.022654857   0.02231429            9 
 3033000   0.76658429   -7.3074404    822.42174  0.022596487    0.0223077            8 
 3034000   0.75350686   -7.3334838    824.95403  0.022658592  0.022301125            6 
 3035000   0.75532712   -7.3113672    824.40832  0.022636143  0.022294547            9 
 3036000   0.75869193   -7.2996368    823.45974   0.02260265  0.022287992            3 
 3037000   0.78242351   -7.3143168    825.36783  0.022647564  0.022281432            6 
 3038000   0.76881781   -7.2867943    825.24595  0.022636766  0.022274854            8 
 3039000   0.75687669   -7.3123586    825.82029  0.022645067  0.022268272           10 
 3040000   0.74779889   -7.3148391    823.60664  0.022576936   0.02226169            5 
 3041000   0.75699056   -7.3322782    824.30385  0.022588618  0.022255088            5 
 3042000   0.77620083   -7.3241662    824.55758  0.022588143  0.022248472            4 
 3043000   0.77068248   -7.3569223    824.44146   0.02257754  0.022241861            5 
 3044000   0.76268441   -7.2876588    823.80332  0.022552653  0.022235265            6 
 3045000   0.74962731   -7.3198835    825.54443  0.022592896  0.022228705            9 
 3046000   0.75553393   -7.3160257    825.23014   0.02257688  0.022222135            6 
 3047000   0.76550492   -7.3205477    826.74295  0.022610845  0.022215583            6 
 3048000    0.7562406   -7.3256257    824.74556  0.022548818  0.022208988            3 
 3049000   0.74780742   -7.3184105    826.51112  0.022589677  0.022202396           15 
 3050000   0.77166408   -7.3415984    825.45962  0.022553542  0.022195806            7 
 3051000   0.78613621   -7.3231929    824.75178  0.022526816  0.022189212            9 
 3052000   0.76636248    -7.340716    823.62177   0.02248858  0.022182628            7 
 3053000   0.76158727   -7.3167956    827.10709  0.022576348  0.022176047            9 
 3054000   0.74558123   -7.2953584    825.97774   0.02253814   0.02216948            5 
 3055000   0.78435768   -7.3079338    824.82964  0.022499445  0.022162923           12 
 3056000   0.76452797   -7.3292328    824.95486  0.022495497  0.022156356            9 
 3057000   0.75651254   -7.3591448    823.53692  0.022449485  0.022149746            6 
 3058000   0.75044955   -7.3424243    826.19773  0.022514654  0.022143155            4 
 3059000   0.77015221   -7.3287171    825.15721  0.022478948  0.022136569            8 
 3060000   0.76497389   -7.3201378    824.45505   0.02245248  0.022129977            6 
 3061000   0.76015362   -7.3311353    826.22837  0.022493422  0.022123434            7 
 3062000   0.75968431   -7.3257222    825.80346  0.022474512  0.022116886            3 
 3063000   0.76208815   -7.3086672    823.77372  0.022411952  0.022110327            9 
 3064000   0.77085255   -7.3512416    823.71313   0.02240299  0.022103738            8 
 3065000   0.76468457   -7.3405853    825.33252   0.02243971  0.022097184            6 
 3066000   0.77734529   -7.3287911    826.18121  0.022455458  0.022090598            7 
 3067000   0.76222819   -7.3343788    825.75779  0.022436632  0.022084011            7 
 3068000   0.74454151   -7.3201425    826.58208  0.022451708   0.02207742            7 
 3069000   0.75122082   -7.3438329    825.13905  0.022405209   0.02207085           12 
 3070000   0.75540816   -7.3251213    825.04223  0.022395283  0.022064286            4 
 3071000   0.77157627   -7.3317965     824.9466  0.022385396  0.022057703            5 
 3072000   0.77966592   -7.3177773    824.43385  0.022364199  0.022051131            7 
 3073000   0.75146806   -7.3302116    824.90241  0.022369628  0.022044558            7 
 3074000   0.76362969   -7.3527803    824.37665  0.022348098  0.022037983            5 
 3075000   0.76801537   -7.3229679    826.00646  0.022384999  0.022031421            8 
 3076000   0.77083788   -7.3184451    826.11443  0.022380647  0.022024858            4 
 3077000   0.76406358   -7.3225705    827.65039  0.022414971  0.022018318            5 
 3078000   0.77432921   -7.3185238    826.92425  0.022388029  0.022011782            8 
 3079000   0.74541215   -7.3535806    826.28862  0.022363555  0.022005206            7 
 3080000   0.75320262   -7.3239112    827.04717  0.022376817  0.021998659            7 
 3081000   0.78299284   -7.3287051    825.64037  0.022331504  0.021992144            7 
 3082000   0.76323999    -7.323622     827.9456  0.022386589  0.021985613            6 
 3083000   0.76417798   -7.3337076    823.79721  0.022267197  0.021979102            8 
 3084000   0.75561809   -7.3501972    826.73878  0.022339461  0.021972583            7 
 3085000   0.74596499   -7.3447987    827.31154  0.022347692  0.021966056            5 
 3086000   0.76276131   -7.3706862    825.48408  0.022291102  0.021959515            4 
 3087000   0.75972779   -7.3247903    826.07116  0.022299729  0.021952974            3 
 3088000   0.77687665     -7.34547    827.33996  0.022326747   0.02194644           11 
 3089000   0.76014815   -7.3294923    827.39818   0.02232109  0.021939907            5 
 3090000   0.76617375     -7.35945    825.69521   0.02226794  0.021933362            7 
 3091000   0.74044526   -7.3171696    827.18641  0.022300939  0.021926829            7 
 3092000    0.7477652    -7.326947    828.62163  0.022332407  0.021920303           14 
 3093000   0.76628412   -7.3328899    827.96093  0.022307386  0.021913794           10 
 3094000   0.74063832   -7.3325705    827.69787  0.022293091  0.021907278            7 
 3095000   0.76363494   -7.3363185    825.50881  0.022226947  0.021900754           16 
 3096000   0.76326372   -7.3439075     827.7777  0.022280838  0.021894225           11 
 3097000   0.75579425   -7.3458266     826.8331  0.022248227  0.021887707           11 
 3098000   0.75448289   -7.3463499    827.29982    0.0222536    0.0218812            6 
 3099000   0.75363894   -7.3457663    825.36311   0.02219434  0.021874663           13 
 3100000   0.74189666   -7.3712765    827.79823  0.022252641  0.021868106            6 
 3101000    0.7669638    -7.346541    826.53124  0.022211417  0.021861558            4 
 3102000   0.76149637   -7.3539832    826.62651  0.022206816  0.021855031            6 
 3103000   0.74181381   -7.3536995    827.54077  0.022224212  0.021848464           11 
 3104000   0.75197287    -7.335387    828.63882  0.022246532  0.021841918            6 
 3105000   0.75727317   -7.3672473    826.48371  0.022181527  0.021835373            8 
 3106000   0.73534927    -7.355879    826.44482  0.022173342  0.021828826           12 
 3107000   0.76989022   -7.3579843    826.41355  0.022165367  0.021822281            5 
 3108000   0.76936964   -7.3477256    825.29406  0.022128219  0.021815747           10 
 3109000   0.74587121   -7.3297746     826.5155  0.022153841  0.021809232            9 
 3110000   0.76289639   -7.3381638    826.32576  0.022141633  0.021802711           22 
 3111000   0.74609138   -7.3347506    825.83208  0.022121292  0.021796187            4 
 3112000   0.76004927   -7.3498797    826.78489  0.022139698   0.02178966           13 
 3113000   0.76162318    -7.352252    826.74922  0.022131631  0.021783115            4 
 3114000   0.76739467   -7.3228083    828.93793  0.022183096  0.021776617           10 
 3115000   0.75512808   -7.3137573    826.71427  0.022116487  0.021770103            5 
 3116000   0.75118741   -7.3255719    827.43581  0.022128686  0.021763582            5 
 3117000   0.76676953   -7.3409074    827.17024  0.022114486  0.021757057            7 
 3118000   0.73374067   -7.3159847    828.32464  0.022138247  0.021750544            3 
 3119000   0.74635399   -7.3515418    827.77604  0.022116491  0.021744022           10 
 3120000   0.74420508   -7.3653937    827.96078  0.022114337   0.02173748            6 
 3121000   0.75370319   -7.3591039    828.26761  0.022115444  0.021730957            7 
 3122000   0.75991216   -7.3427963     827.8013  0.022095913  0.021724435            4 
 3123000   0.74535179   -7.3345106    827.76069  0.022087755  0.021717928            7 
 3124000   0.76418746   -7.3545784    827.98867  0.022086766  0.021711411            4 
 3125000   0.73444474   -7.3568897    826.75487  0.022046797  0.021704907           17 
 3126000   0.75279849   -7.3454403    827.59786  0.022062216  0.021698396            6 
 3127000    0.7522748   -7.3474889     828.3417  0.022074984  0.021691873            4 
 3128000   0.75431875   -7.3270463    828.78985  0.022079866  0.021685346            5 
 3129000   0.73773575   -7.3469364    827.83994  0.022047511  0.021678844            9 
 3130000   0.75763732   -7.3381227    830.06475    0.0220997  0.021672369           12 
 3131000   0.75328689    -7.332467    827.51269  0.022024718  0.021665887            7 
 3132000   0.77077336   -7.3464248    828.74555  0.022050488   0.02165939            7 
 3133000   0.75328844   -7.3295574    827.40313  0.022007744    0.0216529            9 
 3134000   0.76843744   -7.3634128    828.05605  0.022018083  0.021646409            7 
 3135000   0.74958834   -7.3608105    828.82718  0.022031557  0.021639928           11 
 3136000   0.75264667   -7.3521228    828.06745  0.022004343  0.021633449           13 
 3137000   0.74990459   -7.3669912    828.21081  0.022001137  0.021626957           10 
 3138000   0.75125888   -7.3436699    827.96512  0.021987601  0.021620484            5 
 3139000   0.75501628    -7.378896    827.66304  0.021972577  0.021614019           17 
 3140000   0.74318708   -7.3536702    828.79985   0.02199575  0.021607543           15 
 3141000   0.75143065   -7.3374536     828.2035  0.021972925  0.021601047            6 
 3142000   0.73228328    -7.375044     827.8788   0.02195732   0.02159457            5 
 3143000   0.74565158   -7.3307836    831.82823  0.022055049  0.021588074            6 
 3144000   0.75074876   -7.3820833     829.2369   0.02197935  0.021581582           13 
 3145000   0.74728797   -7.3591055    828.37433  0.021949505  0.021575099           13 
 3146000   0.74158662   -7.3533938    830.60496  0.022001615  0.021568638           10 
 3147000   0.75401832   -7.3546164     828.4778  0.021938296  0.021562198           11 
 3148000   0.75432043   -7.3535494    830.00118  0.021971653  0.021555745            4 
 3149000    0.7454391    -7.360452    829.10087  0.021940851  0.021549321            5 
 3150000     0.734514   -7.3360453    830.91128   0.02198178  0.021542878            4 
 3151000    0.7300019   -7.3337042    831.17462  0.021981768  0.021536436           11 
 3152000   0.75838092   -7.3495483    829.47228  0.021929787  0.021529994            9 
 3153000   0.77352428   -7.3297845     830.4627  0.021949009  0.021523588            8 
 3154000   0.74105954   -7.3114424    830.77952  0.021950421  0.021517172            5 
 3155000   0.76388255   -7.3770338     829.1919  0.021901529   0.02151075            6 
 3156000   0.73384709   -7.3550775    830.23439  0.021922116  0.021504299           15 
 3157000   0.74993136   -7.3682056    829.70431   0.02190118  0.021497852           14 
 3158000   0.74671337   -7.3664222    829.66223  0.021893135  0.021491405           12 
 3159000   0.73178643   -7.3371377    829.45855  0.021880831  0.021484974            7 
 3160000   0.73445311    -7.345148    831.39193  0.021924893  0.021478549            6 
 3161000    0.7434676     -7.35858    829.99745  0.021881194  0.021472114            8 
 3162000   0.73619745   -7.3570699    828.90619  0.021845514  0.021465692            9 
 3163000    0.7231407   -7.3439613    832.63567  0.021936865  0.021459304            5 
 3164000   0.74820113   -7.3567175    829.60869  0.021850208  0.021452935            8 
 3165000   0.74426988    -7.367748      829.279  0.021834624  0.021446542           10 
 3166000   0.74273622   -7.3505133    829.45381  0.021832328   0.02144013            7 
 3167000    0.7251577   -7.3794424    830.48301  0.021852516  0.021433716            6 
 3168000   0.73260416   -7.3438118    833.55933   0.02192654    0.0214273            3 
 3169000   0.74872314   -7.3456404    831.17208  0.021856844  0.021420918           11 
 3170000   0.74152794   -7.3522688    832.30029  0.021879608  0.021414555            4 
 3171000   0.74301823   -7.3308801    831.29582  0.021846311  0.021408208            6 
 3172000   0.75265493   -7.3537538    832.06481  0.021859626  0.021401861            6 
 3173000   0.74056342    -7.357508    831.74089   0.02184423  0.021395524            7 
 3174000   0.75406115    -7.341381    833.18251  0.021875197  0.021389182            6 
 3175000   0.73798831   -7.3413383    831.74745  0.021830642  0.021382836           11 
 3176000   0.74954225   -7.3668829    831.62549  0.021820568  0.021376497            8 
 3177000   0.74306553   -7.3688352    831.85853  0.021819812  0.021370117            7 
 3178000   0.73766979   -7.3764946    831.71815  0.021809265  0.021363744           19 
 3179000   0.74105445   -7.3604319    832.70378  0.021828242  0.021357339           17 
 3180000   0.74543342    -7.379709    830.63206  0.021767087  0.021350953           24 
 3181000    0.7381478   -7.3622953    830.63776  0.021760394  0.021344565           11 
 3182000   0.75631756   -7.3774883    830.60293  0.021752643  0.021338163            6 
 3183000   0.73627144   -7.3542595    831.42252  0.021767267  0.021331761            4 
 3184000   0.73600562   -7.3887596    829.13999  0.021700691  0.021325364            4 
 3185000   0.75751736   -7.3670946    830.67495  0.021734038  0.021318967            5 
 3186000   0.75144493   -7.3604626    830.20151  0.021714833  0.021312592            8 
 3187000   0.73814735   -7.3755174    831.55744  0.021743475  0.021306219            7 
 3188000   0.75011237   -7.3724265    831.86011  0.021744566  0.021299845            3 
 3189000   0.74319391     -7.36067    831.46127  0.021727325  0.021293476            8 
 3190000   0.75217883   -7.3806262    830.76817  0.021702408  0.021287061            9 
 3191000   0.73959078   -7.3807302    830.49527   0.02168848  0.021280653           10 
 3192000   0.74084066   -7.3593684    831.53099  0.021708725  0.021274278           13 
 3193000   0.73811144   -7.3460578    832.24396  0.021720533  0.021267901            7 
 3194000   0.75223684   -7.3673233    832.80193  0.021728291  0.021261536           10 
 3195000   0.72582842   -7.3691228    832.34693  0.021709623  0.021255174           10 
 3196000   0.75836394   -7.3808419    831.64721  0.021684585  0.021248777           17 
 3197000   0.73610651   -7.3697089     831.2387  0.021667154   0.02124239            6 
 3198000   0.75727637   -7.3858778    830.50422   0.02164124  0.021235994            9 
 3199000   0.74211297   -7.3793294    831.01385   0.02164775  0.021229617            6 
 3200000   0.74954189   -7.3717189    831.64401  0.021657396  0.021223221           11 
 3201000   0.72318763   -7.3665469    831.73635  0.021653034  0.021216865            4 
 3202000   0.73573788   -7.3784182    832.91874  0.021677044   0.02121051            5 
 3203000   0.74833677   -7.3619382    833.85464  0.021694626  0.021204174            9 
 3204000   0.76068613   -7.3879227    830.43205  0.021598836  0.021197826            7 
 3205000   0.71987493   -7.3722496    831.68314  0.021624627  0.021191478            6 
 3206000   0.73885183   -7.3672936    832.94059  0.021650566  0.021185131            4 
 3207000   0.74245024   -7.4009557    831.28843  0.021600884  0.021178792            8 
 3208000   0.73169296   -7.3265525    833.82843  0.021660132  0.021172476           13 
 3209000   0.74461656    -7.376707    832.77769  0.021626096   0.02116616            5 
 3210000   0.73517733   -7.3826316    830.43016  0.021558415  0.021159811            6 
 3211000   0.74954163   -7.3739688    832.42138  0.021603379  0.021153451            4 
 3212000   0.73559139   -7.3839514    833.59781  0.021627174   0.02114709            4 
 3213000   0.73304631   -7.3714615    832.87222  0.021601624   0.02114074            7 
 3214000   0.73060456   -7.3679641    833.30064  0.021606011   0.02113438            6 
 3215000   0.74167494   -7.3728547    832.25666  0.021572231   0.02112804            5 
 3216000   0.74119849   -7.3586316    832.33375  0.021567521  0.021121704            7 
 3217000   0.73471658   -7.3919306    831.65885  0.021543334  0.021115395            7 
 3218000   0.72735214   -7.3899122    831.59377  0.021534954  0.021109055            4 
 3219000   0.74589896   -7.3924549    831.67326  0.021530322  0.021102728            8 
 3220000   0.74434072   -7.4207514    830.82622  0.021501714  0.021096393           10 
 3221000   0.74958305   -7.4099991     831.6984  0.021517603  0.021090049            7 
 3222000   0.72525587   -7.4121074    830.44989  0.021478634  0.021083678           12 
 3223000   0.75136465   -7.3893826     830.7437  0.021479566  0.021077311            5 
 3224000    0.7455712   -7.3879511     833.0672  0.021532961  0.021070955            6 
 3225000    0.7446336   -7.3977404    831.94009   0.02149716  0.021064611            4 
 3226000   0.74178337   -7.3706901    832.83325  0.021513568  0.021058282            5 
 3227000    0.7472577   -7.3777282     834.5177    0.0215504  0.021051968            9 
 3228000   0.73265282   -7.4104763    832.60942  0.021494461  0.021045657            8 
 3229000   0.72769622   -7.3806608    831.10276   0.02144892  0.021039332            5 
 3230000    0.7260022   -7.4024934    832.34017  0.021474205  0.021032989           13 
 3231000    0.7446258   -7.4119135    832.54062  0.021472728   0.02102667            7 
 3232000   0.73141912   -7.3753124    833.25614  0.021484533  0.021020362            9 
 3233000    0.7312498   -7.3854444    833.23131  0.021477248   0.02101405            6 
 3234000   0.74525761   -7.3893759    831.60298  0.021428648  0.021007728            9 
 3235000   0.73830453   -7.3551556    832.40283  0.021442628  0.021001422            7 
 3236000   0.73113338   -7.3814321    832.37464  0.021435276  0.020995148            8 
 3237000   0.72708789   -7.4012666    832.11971  0.021422091  0.020988838            7 
 3238000   0.73366505   -7.3587019    835.07411   0.02149151   0.02098255            6 
 3239000   0.72836758   -7.3825636    834.27875  0.021464412   0.02097623           14 
 3240000   0.72605915   -7.4302638    833.23386  0.021430912  0.020969896            7 
 3241000   0.72824591   -7.4198897    832.89467  0.021415578  0.020963573            7 
 3242000   0.74871469   -7.3803829    833.31162   0.02141969  0.020957255            6 
 3243000   0.73105685   -7.4114624    832.75276  0.021398724  0.020950957           12 
 3244000   0.73500558   -7.3848964    833.76444  0.021418117  0.020944643           10 
 3245000   0.72667591   -7.3994821    833.39972   0.02140215  0.020938345            9 
 3246000   0.72778766   -7.3770353    834.49572  0.021423694  0.020932048            8 
 3247000   0.73362742    -7.394747    830.80995  0.021322502   0.02092575           11 
 3248000   0.71470815   -7.3992704    833.38424  0.021381985  0.020919451           22 
 3249000   0.73492672   -7.4206791    833.99004  0.021390942  0.020913148           18 
 3250000   0.73841813    -7.378356    834.35311   0.02139367   0.02090683           28 
 3251000   0.73213301   -7.3964513    834.82005  0.021399058  0.020900528            6 
 3252000   0.73434965   -7.3797245    835.56199   0.02141149  0.020894257           22 
 3253000   0.74611286   -7.3872923     833.2371   0.02134535  0.020887964           20 
 3254000    0.7452098   -7.4217304    832.41218  0.021317665  0.020881666            9 
 3255000   0.72690331   -7.3758399    833.57805  0.021340964  0.020875383           12 
 3256000   0.72796478   -7.3753041    834.78724  0.021365357   0.02086912           11 
 3257000   0.74093975   -7.4064114     832.0605  0.021289031  0.020862848            7 
 3258000   0.72836217   -7.4116469    834.95489   0.02135653  0.020856579           10 
 3259000    0.7334293   -7.3937901    832.96094  0.021298991  0.020850305           11 
 3260000   0.74222744   -7.3947905    835.14278  0.021348231  0.020844022            9 
 3261000   0.72897056    -7.384964    835.22956  0.021343902  0.020837745            8 
 3262000   0.74102184    -7.386308    834.38569    0.0213158  0.020831486            9 
 3263000   0.74014262   -7.3894648    834.24298  0.021305623  0.020825248            6 
 3264000   0.71734828   -7.3779138    834.73748  0.021311721  0.020818991            9 
 3265000   0.73259907   -7.3832696    835.19025   0.02131675  0.020812768           11 
 3266000   0.72374706   -7.4015455    835.30512  0.021313154  0.020806566           10 
 3267000   0.73182275   -7.3696523    835.28349  0.021306078  0.020800348           15 
 3268000   0.74105403   -7.3916554    834.82998  0.021287994  0.020794121            6 
 3269000   0.71367186   -7.3980696    834.10987  0.021263125  0.020787887           13 
 3270000   0.73245622   -7.3946272    837.21963  0.021335872  0.020781647           12 
 3271000   0.73057754   -7.4190892    834.61886  0.021263091  0.020775409           10 
 3272000   0.72731852   -7.4149327    835.20843  0.021271608  0.020769148           14 
 3273000   0.71916193   -7.4000999     834.7497  0.021253429  0.020762912            7 
 3274000   0.73386894   -7.4196604    833.77344  0.021222089  0.020756663            7 
 3275000   0.72838597   -7.4120007    836.22555  0.021278004  0.020750407            8 
 3276000   0.72768137   -7.4365493    834.17387  0.021219319  0.020744155           11 
 3277000   0.69837166   -7.3978823    836.44779  0.021270669  0.020737923           12 
 3278000   0.71244072   -7.4257833    835.84878  0.021248952  0.020731704           11 
 3279000   0.73902033   -7.3905531    836.53326  0.021259867  0.020725496            8 
 3280000   0.71423813   -7.3990724    835.06267  0.021216023  0.020719299            8 
 3281000   0.72724621   -7.3943246    835.28149  0.021215114    0.0207131            5 
 3282000   0.72725714   -7.3943434    837.04409  0.021253405  0.020706886            5 
 3283000   0.73255972   -7.3911358    833.25226  0.021150682  0.020700675            6 
 3284000   0.73446007   -7.4018003    836.02805  0.021214679  0.020694464           12 
 3285000   0.72795086   -7.4102398    834.58033  0.021171495  0.020688249            7 
 3286000   0.71874278   -7.3696225    835.11017  0.021178489  0.020682037           14 
 3287000   0.71944492   -7.3898342    835.04879  0.021170489  0.020675845            7 
 3288000   0.72235972   -7.4197371    836.97929  0.021212979  0.020669659           13 
 3289000   0.72968305   -7.4069742    835.10105   0.02115894  0.020663447            7 
 3290000   0.73355966   -7.3956283    833.91924  0.021122575  0.020657226            7 
 3291000   0.72118278   -7.4113439    836.78747  0.021188784  0.020651017           13 
 3292000   0.71537456   -7.3744175    836.76973  0.021181899  0.020644804           10 
 3293000   0.71237701    -7.433614    835.50151  0.021143372  0.020638588           12 
 3294000   0.72650743   -7.4156549    835.01539  0.021124656  0.020632351            6 
 3295000   0.73158929   -7.4155453    834.57712   0.02110716   0.02062612            6 
 3296000   0.72931323   -7.4349543    835.13126  0.021114767  0.020619888           32 
 3297000   0.72230756   -7.4201303    836.68156  0.021147547  0.020613668            9 
 3298000   0.71138501   -7.4295686    835.50989   0.02111153  0.020607463            6 
 3299000   0.72063573   -7.3960049    834.54662  0.021080798  0.020601283            7 
 3300000   0.70480754   -7.4042521     835.8373  0.021107002  0.020595096           13 
 3301000   0.70520614   -7.4171548    837.01653  0.021130378    0.0205889            7 
 3302000   0.73264942   -7.3945405    836.07806  0.021100294  0.020582725            7 
 3303000   0.73293857   -7.4127648    836.13198  0.021095267  0.020576546           12 
 3304000   0.71751791   -7.4079916     836.8487  0.021106959  0.020570377            7 
 3305000   0.71291007   -7.3975334    835.05873   0.02105544  0.020564185            9 
 3306000   0.72867626   -7.3877532    835.84491  0.021068888  0.020558006            4 
 3307000    0.7225881   -7.4128977    834.46447  0.021027731  0.020551799            4 
 3308000   0.71093766   -7.4304084     834.1969  0.021014634   0.02054558            5 
 3309000   0.71853128   -7.4271349     835.3307  0.021036836  0.020539358           14 
 3310000   0.72163705   -7.4197971    835.43018  0.021032985  0.020533135            7 
 3311000   0.71098697   -7.4189392    837.01045  0.021066406  0.020526908           10 
 3312000   0.72329576   -7.4207985    835.45244  0.021020844  0.020520702           11 
 3313000     0.717096   -7.4302943    835.90287  0.021025829  0.020514503            6 
 3314000   0.71718881   -7.3820045    834.44438   0.02098281  0.020508281           13 
 3315000   0.73617695    -7.446625    835.15143  0.020994254  0.020502061            4 
 3316000   0.72773435   -7.3885583    837.46498  0.021046064  0.020495862           10 
 3317000   0.72614578   -7.3984406    836.56866  0.021017201  0.020489673            9 
 3318000   0.72122766   -7.4006734    835.15303  0.020975312   0.02048349            6 
 3319000   0.72111407   -7.4048533    836.16016  0.020994279  0.020477289           19 
 3320000   0.73683534    -7.462021     838.6413  0.021050234  0.020471081            7 
 3321000   0.71947001   -7.4349281    834.65939  0.020943977  0.020464872            6 
 3322000   0.72814424   -7.4187205    835.45532  0.020957639  0.020458675            5 
 3323000   0.72062276   -7.4214235     835.6485  0.020956177  0.020452485           10 
 3324000   0.74734248   -7.4221882    833.09323  0.020885811  0.020446292            6 
 3325000   0.72295733   -7.3915582    837.04831  0.020978654  0.020440111            2 
 3326000   0.72883194   -7.3858461    836.62039  0.020961625  0.020433935           11 
 3327000   0.72339476   -7.3965966    835.14378  0.020918339  0.020427753            5 
 3328000   0.71313493   -7.3944949    838.48369  0.020995685  0.020421587            4 
 3329000   0.70083574   -7.3977163    837.16971  0.020956486  0.020415419            6 
 3330000    0.7267277   -7.4217058     835.4098  0.020906151  0.020409252            8 
 3331000   0.72904287   -7.4049168    837.35584   0.02094856  0.020403068            7 
 3332000   0.71980746   -7.4276649    835.41335  0.020893691  0.020396897           19 
 3333000   0.70845239   -7.4423471    835.56135  0.020891123  0.020390691           10 
 3334000   0.70661698   -7.4216903    838.19776  0.020950754  0.020384503            9 
 3335000   0.73035739   -7.4273795    836.48792  0.020901747  0.020378306           10 
 3336000   0.73127578     -7.39749    836.48672  0.020895452  0.020372128            8 
 3337000   0.71600523   -7.4331085    837.80363  0.020922076  0.020365945            7 
 3338000   0.72823442   -7.4161488    836.14014   0.02087428  0.020359757           11 
 3339000   0.70463591   -7.4404312    836.58751  0.020879193   0.02035358            6 
 3340000   0.71534728   -7.4248225    835.73831  0.020851754  0.020347383            7 
 3341000   0.72408811   -7.4060549    837.35206  0.020885764   0.02034119           10 
 3342000    0.7220104   -7.4293357    836.44469  0.020856889  0.020334998           13 
 3343000   0.70685965   -7.4202399     836.3127   0.02084736  0.020328788            9 
 3344000   0.71479854   -7.4373651    834.96813  0.020807619  0.020322605            9 
 3345000    0.7130491   -7.4526805     834.4931  0.020789564  0.020316405           18 
 3346000    0.7158746   -7.4514131    834.72839  0.020789211  0.020310192           11 
 3347000   0.72351861   -7.4399639    835.09409  0.020792105  0.020303994           11 
 3348000   0.71627284   -7.4579024    835.11727  0.020786471    0.0202978            8 
 3349000   0.71944168   -7.4333248    838.72597   0.02087006  0.020291639           15 
 3350000   0.70862182   -7.4266826    836.06078  0.020797532  0.020285483           15 
 3351000   0.70698121   -7.4275053    836.42206   0.02080031  0.020279319           13 
 3352000    0.7169171   -7.4093742    837.55696  0.020822319  0.020273143           16 
 3353000   0.71251899   -7.4505089    836.00538  0.020777547   0.02026697            9 
 3354000   0.71626695   -7.4074941    836.32294  0.020779242  0.020260804           18 
 3355000   0.70694872   -7.4185749    836.49932   0.02077743  0.020254656            8 
 3356000   0.70922914   -7.4162274    838.61873  0.020823866  0.020248512            5 
 3357000   0.71734001   -7.3895438    837.32547  0.020785559   0.02024238            6 
 3358000   0.71357601   -7.4349655    836.25676  0.020752848  0.020236256            8 
 3359000   0.71824017   -7.4137448    836.97289  0.020764436  0.020230114            7 
 3360000   0.71858907   -7.4216482    835.40315  0.020719324  0.020223962           10 
 3361000   0.72702642   -7.4371281    838.44851  0.020788667  0.020217795            3 
 3362000   0.69331372   -7.4177706     836.3076  0.020729417  0.020211641            9 
 3363000   0.73019876   -7.4193793    835.51252  0.020703551  0.020205489            6 
 3364000   0.72199926   -7.4327088    836.31634  0.020717309  0.020199335            8 
 3365000   0.71036623   -7.4747229    836.38102  0.020712754  0.020193156           11 
 3366000   0.72293342   -7.4354086     836.4402  0.020708066  0.020186985           17 
 3367000   0.70917848   -7.4575156     836.0645  0.020692617  0.020180823           12 
 3368000   0.70294581   -7.4542043    837.93673  0.020732797  0.020174681            5 
 3369000   0.68649927   -7.4505036     835.4218  0.020664436  0.020168533            6 
 3370000   0.71874026   -7.4298035    837.97703  0.020721489   0.02016239            6 
 3371000   0.70193395   -7.4686822    836.73961  0.020684753  0.020156247           10 
 3372000   0.70413176   -7.4352512    838.20152  0.020714747  0.020150087           11 
 3373000   0.70959916   -7.4286172     837.8748  0.020700534  0.020143965            6 
 3374000    0.7322382   -7.4352391    837.60601   0.02068776  0.020137837            6 
 3375000   0.69274037   -7.4268583    838.64413  0.020707262  0.020131701            7 
 3376000   0.70480898   -7.4395059    837.38353  0.020670012  0.020125553            4 
 3377000   0.68994358   -7.4297063    836.39501  0.020639498  0.020119428           13 
 3378000   0.72541952   -7.4488455    838.02812  0.020673676  0.020113284           13 
 3379000   0.71316089   -7.4137711    837.42973    0.0206528  0.020107147            7 
 3380000   0.71008569   -7.4585799    837.03698  0.020637006  0.020101001           17 
 3381000   0.70883524   -7.4485039    836.71893  0.020623063  0.020094836           12 
 3382000    0.7144422   -7.4356202    837.18066  0.020628343  0.020088705            6 
 3383000   0.71050737    -7.432482    835.21746  0.020573886  0.020082583            8 
 3384000   0.71828142   -7.4264585    837.48961  0.020623759   0.02007649            6 
 3385000    0.7189627   -7.4525346    837.96222  0.020629301  0.020070381           11 
 3386000   0.71489301   -7.4249842    838.78051  0.020643348  0.020064273            8 
 3387000    0.7078392   -7.4275044    837.30634  0.020600983  0.020058167           14 
 3388000   0.71906971   -7.4282001    839.10264  0.020639085  0.020052082            6 
 3389000   0.72556206   -7.4386617     837.0315  0.020582067  0.020045973            4 
 3390000   0.71880141   -7.4751506    837.67272  0.020591758  0.020039866           14 
 3391000   0.69551562   -7.4248843    837.41641  0.020579387  0.020033761            8 
 3392000   0.70668066   -7.4152682    838.17371  0.020591925  0.020027665           11 
 3393000   0.72347621   -7.4207836    838.13062  0.020584798  0.020021567            3 
 3394000    0.7069199   -7.4276856     839.2878  0.020607145  0.020015485            3 
 3395000   0.71385894   -7.4453024    837.72284  0.020562662  0.020009392            7 
 3396000   0.72490356   -7.4243112    838.21766  0.020568749  0.020003309            6 
 3397000   0.70820166   -7.4373011    838.14957  0.020561024   0.01999722            6 
 3398000   0.70943478   -7.4601423    837.56954  0.020540748   0.01999112            4 
 3399000   0.71740068   -7.4336913    838.86032  0.020566351  0.019985046            7 
 3400000   0.70916469   -7.4272241     837.8463  0.020535449  0.019978959            6 
 3401000   0.71357359   -7.4313436    837.16859  0.020512805  0.019972861            8 
 3402000   0.73855474   -7.4570382    837.65622   0.02051872  0.019966781            4 
 3403000   0.70806868   -7.4275849    837.87917   0.02051815  0.019960682            5 
 3404000   0.71906405   -7.4381309    838.29529  0.020522309  0.019954574            7 
 3405000   0.71158737   -7.4660347    838.33173  0.020517174  0.019948466            9 
 3406000   0.70276145   -7.4471263    838.15373  0.020506795  0.019942347           10 
 3407000    0.7018891   -7.4390585    838.16992  0.020501172  0.019936228            5 
 3408000   0.70324426   -7.4623148    836.46108  0.020453371   0.01993012            6 
 3409000   0.70102061   -7.4385391     838.0439  0.020486064   0.01992401            4 
 3410000   0.70108668   -7.4449745    837.99589  0.020478883  0.019917899           10 
 3411000   0.71917923   -7.4564277    838.68014  0.020489596  0.019911817           15 
 3412000   0.71743204   -7.4564762    839.09886  0.020493817  0.019905733            7 
 3413000   0.69267504   -7.4577693    838.97912  0.020484889  0.019899662            8 
 3414000   0.70944334   -7.4549181    838.31117  0.020462585  0.019893569            4 
 3415000   0.69453545   -7.4700939    836.84959  0.020420927   0.01988745            8 
 3416000   0.71944149   -7.4467251    839.21682  0.020472698  0.019881336            7 
 3417000   0.69829313   -7.4787897     836.6203  0.020403383  0.019875236            5 
 3418000   0.68779475   -7.4533702    837.46724  0.020418062  0.019869151            5 
 3419000   0.71770899   -7.4782636    837.83843  0.020421137  0.019863049            5 
 3420000    0.7066976   -7.4586039    839.29917   0.02045076  0.019856964            8 
 3421000   0.69290048   -7.4324903    838.38945  0.020422621  0.019850884            9 
 3422000    0.6906038   -7.4584457    838.61419  0.020422126  0.019844812            6 
 3423000   0.71412738   -7.4872226    837.78772  0.020396039  0.019838722            9 
 3424000   0.70011756   -7.4503021    839.40135  0.020429355  0.019832653           10 
 3425000   0.69450973   -7.4486624    839.29326  0.020420761  0.019826613            4 
 3426000   0.72367325   -7.4556292    839.55324  0.020421124  0.019820568            6 
 3427000   0.69846106   -7.4575782    839.41059  0.020411696  0.019814536            7 
 3428000   0.70992466   -7.4532211     838.6304  0.020386775  0.019808503            8 
 3429000   0.71329945   -7.4750427    838.81996  0.020385437  0.019802455           14 
 3430000    0.6874833    -7.464494    839.11813  0.020386738  0.019796406           11 
 3431000   0.70494841   -7.4556608    839.30852   0.02038542   0.01979037            7 
 3432000   0.71763288   -7.4590271    837.53966   0.02033653  0.019784342            7 
 3433000   0.69959321   -7.4613185    838.90997   0.02036387  0.019778304           13 
 3434000   0.70357253   -7.4695582    839.02059  0.020360624  0.019772288           28 
 3435000   0.71215502   -7.4625305    838.50192  0.020342114  0.019766272            6 
 3436000   0.70881559   -7.4497071    839.50265  0.020360464  0.019760256           18 
 3437000   0.70812593   -7.4274418    839.40636  0.020352206  0.019754257            9 
 3438000   0.69691252   -7.4426096    839.71444  0.020353753  0.019748257           11 
 3439000   0.71164585   -7.4516204    839.64574   0.02034617  0.019742252            5 
 3440000   0.71066576   -7.4536017    839.33746  0.020332787  0.019736239           12 
 3441000   0.69690309   -7.4735815    838.53326  0.020307402  0.019730228            4 
 3442000   0.71287041   -7.4590909     838.7208  0.020306043  0.019724233           15 
 3443000   0.70604957   -7.4388877    838.33621  0.020290837  0.019718221           15 
 3444000   0.70745089   -7.4591068    839.49002  0.020312863  0.019712254           11 
 3445000   0.68498882   -7.4659806    839.81034  0.020314716   0.01970627           12 
 3446000   0.68476712   -7.4468302    840.42806  0.020323758  0.019700291           15 
 3447000   0.71229901   -7.4572144    841.31041  0.020339194    0.0196943            9 
 3448000   0.70028783   -7.4900793    838.96127   0.02027652  0.019688279            6 
 3449000   0.68429533    -7.462716    839.85985  0.020292352  0.019682261            8 
 3450000   0.69693385   -7.4416401    839.97671  0.020289293  0.019676246            6 
 3451000   0.70373386   -7.4585112    838.45414  0.020246647  0.019670244            7 
 3452000   0.70227113   -7.4544479    838.99384   0.02025381  0.019664257            9 
 3453000   0.69147811   -7.4660917    839.80872  0.020267611  0.019658264            4 
 3454000   0.69677291   -7.4554301    838.95681  0.020241189  0.019652256           10 
 3455000   0.70755091   -7.4729932    837.67893  0.020204509   0.01964628            8 
 3456000   0.69897322   -7.4536015    840.96095  0.020277801  0.019640291            8 
 3457000   0.69904252   -7.4713368    839.89557  0.020246253  0.019634311            5 
 3458000   0.71064041   -7.4727977    839.79351  0.020237939  0.019628319           12 
 3459000   0.69235497   -7.4676207     839.4463  0.020223723  0.019622331           10 
 3460000   0.70989229   -7.4836446    839.93421  0.020229629  0.019616346           12 
 3461000   0.71155585   -7.4757625    839.88548  0.020222611  0.019610366            4 
 3462000    0.6869602   -7.4535635    841.78289  0.020262442  0.019604398            8 
 3463000   0.69167343   -7.4898939    841.08328  0.020239755   0.01959843           13 
 3464000   0.69714371   -7.4577066    841.54369  0.020244989  0.019592459            7 
 3465000   0.68880389   -7.4415703    838.80641  0.020173314  0.019586528            5 
 3466000   0.71140135   -7.4512428    840.77836  0.020214906  0.019580586           16 
 3467000    0.6840667   -7.4799075    841.88336  0.020235635  0.019574643            6 
 3468000   0.70018511   -7.4924165    838.93707  0.020159003  0.019568683           15 
 3469000   0.69786441   -7.4611926    838.74042  0.020148468  0.019562721           12 
 3470000   0.69115217   -7.4855806    840.02525  0.020173517  0.019556749            7 
 3471000   0.69646292   -7.4960485    838.87723  0.020140143  0.019550776           14 
 3472000   0.70050989    -7.479805    840.56043  0.020174741  0.019544812           11 
 3473000   0.69482591   -7.4944394    840.34677  0.020163806  0.019538839            8 
 3474000   0.70810089   -7.4900162    840.06432  0.020151226  0.019532861           12 
 3475000   0.67811543   -7.4915788    840.41065  0.020153733  0.019526877           16 
 3476000   0.68933255   -7.4723076    840.70608  0.020155017  0.019520891           11 
 3477000   0.69526286   -7.4850384    838.35867   0.02009296  0.019514893           12 
 3478000   0.70011027   -7.5170752    838.99021  0.020102315  0.019508892            6 
 3479000   0.69719849   -7.4794426    839.21031  0.020101809  0.019502916            9 
 3480000   0.70238276   -7.5118977    838.37139  0.020075943  0.019496919            5 
 3481000   0.70533697   -7.4856781    839.16511  0.020089177  0.019490935            6 
 3482000   0.69818456   -7.4999571    839.46021   0.02009047  0.019484966            4 
 3483000   0.70327079   -7.4879131    839.83824  0.020093747  0.019479027            5 
 3484000   0.69124304   -7.4729901     840.9193  0.020113837  0.019473079            7 
 3485000   0.69595718   -7.4756021    841.24596  0.020115877  0.019467131           11 
 3486000   0.70231751   -7.5211191    838.67516  0.020048651  0.019461188           12 
 3487000   0.68666476   -7.4903446    839.17164  0.020054766  0.019455224            9 
 3488000    0.6824677   -7.4660941    842.91855  0.020138536   0.01944928            7 
 3489000   0.69123419   -7.4585542    841.08048  0.020088862  0.019443351            4 
 3490000   0.68914359   -7.4913033    841.42115   0.02009124  0.019437414           12 
 3491000   0.69122176   -7.4735824    840.91658  0.020073441  0.019431486            9 
 3492000   0.67719589   -7.4853782    840.06416   0.02004735  0.019425545           18 
 3493000   0.69421467   -7.5049794    839.04163  0.020017216  0.019419614           15 
 3494000   0.69447666   -7.4819162    840.01674  0.020034744  0.019413672           13 
 3495000   0.68636262   -7.4943374    839.57883   0.02001857  0.019407737            6 
 3496000    0.6937381   -7.4650456    841.34212  0.020054875  0.019401817            6 
 3497000   0.69887147    -7.453443    842.16421  0.020068731    0.0193959            9 
 3498000   0.68328364   -7.4802447    841.02741  0.020035911  0.019389998            7 
 3499000   0.68344107   -7.4578625    840.69277  0.020022215    0.0193841            5 
 3500000   0.67927954   -7.4932343    841.77459  0.020042252    0.0193782            9 
 3501000   0.68955159   -7.4909629    841.04883  0.020019252  0.019372281            9 
 3502000   0.70096651   -7.4619282    841.54917  0.020025442  0.019366371           12 
 3503000   0.69029938   -7.4842012    840.97069  0.020005964  0.019360477           30 
 3504000   0.68148236   -7.4547744    841.06836  0.020002577   0.01935455            6 
 3505000    0.6901501   -7.4680013    840.18765  0.019975931  0.019348631           20 
 3506000   0.69779294   -7.4792101    841.52169  0.020001942  0.019342698           25 
 3507000   0.68886267   -7.4842158    840.58988  0.019974097  0.019336756           11 
 3508000   0.71948955   -7.4746971    841.44675  0.019988758  0.019330828           13 
 3509000   0.68727198   -7.4991243    841.42572  0.019982562    0.0193249            7 
 3510000   0.68619502   -7.4742996    840.97241  0.019966107  0.019318973            8 
 3511000   0.68016636   -7.4942059    841.31705    0.0199686  0.019313044           10 
 3512000   0.68920736    -7.470229    839.49974  0.019919793  0.019307129           14 
 3513000   0.69645333   -7.4935485    841.40946  0.019959424  0.019301217            5 
 3514000   0.69229913   -7.5023622     840.8713  0.019940981  0.019295308            8 
 3515000   0.68962373   -7.4658993    841.20733  0.019943275  0.019289408           10 
 3516000   0.69859488   -7.4739667    841.68642  0.019948958  0.019283513            8 
 3517000   0.69205677   -7.4686812    840.97835  0.019926508  0.019277624            7 
 3518000   0.69342239   -7.4613292    840.45843  0.019908528  0.019271707           18 
 3519000    0.6902737   -7.4928345     840.4564  0.019902823  0.019265803            9 
 3520000   0.70204776   -7.5118958    840.03929  0.019887294  0.019259881            5 
 3521000   0.68705983   -7.4893483    841.65283  0.019919834   0.01925396           10 
 3522000    0.6896261   -7.4992028    842.12011  0.019925235  0.019248052            7 
 3523000   0.68930374   -7.4715897    839.97936  0.019868941   0.01924214            8 
 3524000   0.67863304   -7.4637608    842.37624  0.019919983  0.019236248            9 
 3525000   0.68974921   -7.4926043    839.46119  0.019845418  0.019230337           10 
 3526000   0.67928579   -7.4824871    842.38316  0.019908848  0.019224424           11 
 3527000   0.69576618   -7.4843429    840.87537  0.019867578   0.01921853           13 
 3528000   0.69708781   -7.4964484    841.24744  0.019870735  0.019212626           11 
 3529000   0.69579202   -7.4942245    839.51573  0.019824212  0.019206746           10 
 3530000   0.67089434   -7.4832572    841.13211  0.019856754  0.019200865           13 
 3531000   0.68124049   -7.4934223     841.4464  0.019858548  0.019194961           10 
 3532000   0.67675993   -7.4824372    841.75697  0.019860253  0.019189072            7 
 3533000   0.69276711   -7.4799794    839.54862  0.019802543  0.019183189            9 
 3534000   0.70071236   -7.4902231    840.82587  0.019827058  0.019177304            6 
 3535000   0.67797475   -7.5091363    841.08877  0.019827647  0.019171412            4 
 3536000   0.68869606   -7.4805419    841.35925  0.019828414  0.019165519            5 
 3537000   0.68155777   -7.4925709    843.16573  0.019865369  0.019159647            5 
 3538000    0.6832053   -7.4718351    842.16337  0.019836145  0.019153771            9 
 3539000   0.68606934   -7.4777047    840.55818  0.019792742  0.019147914           11 
 3540000   0.69733642   -7.4646816    843.09345  0.019846833  0.019142058            9 
 3541000   0.69479773   -7.4785568    841.50598  0.019803868  0.019136213           13 
 3542000   0.68196137   -7.4592986    840.37052  0.019771563  0.019130373           18 
 3543000   0.68433307    -7.475551    843.13807  0.019831077  0.019124543           10 
 3544000   0.69637765   -7.4483642    842.12635  0.019801692  0.019118722           10 
 3545000   0.68446079   -7.4922325    843.18994  0.019821108  0.019112905           17 
 3546000   0.67627347   -7.4651864    843.20804  0.019815944  0.019107063            6 
 3547000    0.6872044   -7.4757957    842.01162  0.019782248  0.019101232            9 
 3548000   0.69793735   -7.4885835    840.21289  0.019734425  0.019095414           20 
 3549000    0.6944169   -7.4638702    843.36244  0.019802819  0.019089606            8 
 3550000   0.67560479   -7.4861639    843.68691  0.019804857  0.019083788            5 
 3551000   0.68762207    -7.476823    842.76547  0.019777656  0.019077957            6 
 3552000   0.69606127   -7.5135661    842.27724  0.019760634  0.019072121            7 
 3553000   0.69103925   -7.5131987     843.1018  0.019774411  0.019066283            6 
 3554000    0.6974102   -7.4867368    842.23915   0.01974862   0.01906044            5 
 3555000   0.68495134   -7.5277631    840.50729  0.019702468  0.019054582           18 
 3556000   0.67368047   -7.4853045    841.56467  0.019721707  0.019048721           12 
 3557000   0.68225701   -7.4936785    841.48123  0.019714207  0.019042892            8 
 3558000   0.67908646   -7.4871362    841.19646  0.019701997  0.019037055            9 
 3559000   0.68050892   -7.4736942    842.95798  0.019737707  0.019031247           11 
 3560000   0.68291652   -7.5015213    843.06466   0.01973466  0.019025432           19 
 3561000   0.69094791   -7.4998649    842.47445  0.019715306  0.019019625           17 
 3562000   0.68120953   -7.5024476    841.77822  0.019693483  0.019013802            5 
 3563000   0.66575153   -7.4825769    843.37396  0.019725277  0.019007994            8 
 3564000    0.6830623   -7.5029842    841.91932  0.019685731   0.01900218            7 
 3565000    0.6804382   -7.5103831    842.47541  0.019693207  0.018996364           10 
 3566000   0.67201422   -7.5083543    842.79661  0.019695191  0.018990537           17 
 3567000   0.68401257   -7.5121616    841.08224  0.019649618  0.018984719            5 
 3568000   0.68350955   -7.5016467    842.18385   0.01966984    0.0189789            5 
 3569000    0.6834161   -7.5165869    842.97367   0.01968277  0.018973065            7 
 3570000   0.68916235   -7.5163876    841.62848  0.019645856  0.018967241            8 
 3571000   0.67776471   -7.5054598    841.28196  0.019632268  0.018961406            6 
 3572000   0.66995757   -7.5024033    842.36435  0.019652024   0.01895558           11 
 3573000     0.685724    -7.494775    842.45064  0.019648536   0.01894977           14 
 3574000   0.67931511   -7.4976443    843.49827  0.019667466  0.018943964            6 
 3575000   0.70217978   -7.5046611    841.33569  0.019611555  0.018938156            4 
 3576000   0.68127755   -7.4873409    841.04155  0.019599216   0.01893236            7 
 3577000   0.67637338   -7.5248307    843.17579  0.019643458   0.01892656            9 
 3578000   0.68162923    -7.524363    842.37102  0.019619224  0.018920742            4 
 3579000   0.67948432   -7.5006968     841.3739  0.019590526  0.018914912           11 
 3580000   0.69200142   -7.5139895    842.66186  0.019615034  0.018909086            5 
 3581000   0.67760765   -7.5150387    841.67832  0.019586668  0.018903271           16 
 3582000   0.67997255   -7.5247075     843.3462  0.019620003  0.018897446            5 
 3583000   0.68715147   -7.4956982     842.3946  0.019592395  0.018891642            7 
 3584000   0.67429679   -7.4831847    841.87246  0.019574787  0.018885854           18 
 3585000   0.67320995    -7.490721    840.27636  0.019532226  0.018880083           13 
 3586000   0.68654305   -7.5052901    844.34684  0.019621371  0.018874303            8 
 3587000   0.67931193   -7.5317807    843.51158  0.019596496  0.018868513            5 
 3588000   0.67859107   -7.4992118    842.16089  0.019559664  0.018862725            6 
 3589000   0.67529323   -7.4973562    842.95568  0.019572668   0.01885694            5 
 3590000   0.66174505   -7.5261031    841.60852  0.019535945  0.018851151            4 
 3591000   0.67943097   -7.4989872    841.15809  0.019520052  0.018845348            8 
 3592000    0.6736996   -7.4850714    841.95333  0.019533067  0.018839535           15 
 3593000   0.68140708   -7.5014504    842.65372  0.019543875  0.018833736            7 
 3594000    0.6797956   -7.5096685    842.12687  0.019526221  0.018827949            9 
 3595000   0.67923615   -7.5238134    843.60666  0.019555092  0.018822164           11 
 3596000   0.67518314   -7.5340808    842.63274  0.019527084  0.018816358            4 
 3597000   0.67243868   -7.5426909    841.75408  0.019501299  0.018810555            7 
 3598000   0.67134535   -7.5159921    841.24579  0.019484107  0.018804745            7 
 3599000   0.67110846    -7.542667    842.41822   0.01950584   0.01879893           18 
 3600000    0.6717118   -7.5290269    840.22288  0.019449604  0.018793124            9 
 3601000   0.66625375    -7.496683    842.80195  0.019503887  0.018787331            9 
 3602000   0.67507671   -7.5174634    842.74394   0.01949713  0.018781535           13 
 3603000   0.67587533   -7.4911689    842.20593  0.019479275  0.018775749           25 
 3604000   0.67627091   -7.5153927    843.51928  0.019504238  0.018769956           29 
 3605000   0.68150434   -7.5263436     840.5638  0.019430508  0.018764161           22 
 3606000   0.67468212   -7.5120439    841.95648  0.019457304  0.018758365           15 
 3607000   0.67819651   -7.5263832     840.8463  0.019426262  0.018752562           10 
 3608000   0.68227586   -7.5390838    840.82606   0.01942041  0.018746765            9 
 3609000   0.65287321   -7.4982044    842.14847  0.019445564  0.018740975            9 
 3610000   0.67165169   -7.5211243    841.77089  0.019431461  0.018735173            8 
 3611000   0.66178439   -7.5233528    841.01035  0.019408528  0.018729367            6 
 3612000   0.68463509   -7.5099236    841.06714  0.019404465  0.018723568           10 
 3613000   0.67342228   -7.5411512    841.10515  0.019399971  0.018717766           11 
 3614000    0.6659522   -7.5222817    841.15286  0.019395703  0.018711974            6 
 3615000   0.66250249   -7.5201892    840.07589  0.019365512  0.018706172            9 
 3616000   0.66848053   -7.5155587    841.26049  0.019387456  0.018700358           17 
 3617000   0.66887313   -7.5011007    838.74579  0.019324159   0.01869457           13 
 3618000   0.66781692   -7.5175438    842.26347   0.01939984  0.018688774            5 
 3619000   0.68487503    -7.502795    841.57298   0.01937858  0.018682992           23 
 3620000   0.67348808   -7.5379847    842.66766  0.019398427  0.018677196            5 
 3621000   0.66519641   -7.5435055    840.42815   0.01934153  0.018671404           16 
 3622000   0.67023631   -7.5324139    839.73423  0.019320224    0.0186656           15 
 3623000   0.66394439   -7.5367075    841.04791  0.019345108  0.018659798           11 
 3624000   0.66714222   -7.5357136    842.16533  0.019365465  0.018653982           17 
 3625000   0.67766227   -7.5171649    842.44923  0.019366649  0.018648193           11 
 3626000   0.67487562   -7.5265796    841.84223  0.019347358  0.018642416           19 
 3627000   0.68780517   -7.5105471    843.09238  0.019370747  0.018636627            8 
 3628000   0.66522134   -7.5078154    841.50248  0.019328888  0.018630846           10 
 3629000   0.67198392   -7.5261338    841.06069  0.019313417  0.018625052           18 
 3630000   0.64936044     -7.52096    842.52482  0.019341708  0.018619257            7 
 3631000   0.67197267   -7.5321888     841.0492  0.019302515  0.018613475            7 
 3632000   0.68671466    -7.523332    842.68547  0.019334744  0.018607692           14 
 3633000   0.68162015   -7.5286871    840.76148  0.019285289  0.018601922           13 
 3634000   0.66351007   -7.5233842    840.42749  0.019272324  0.018596131            7 
 3635000   0.66565124   -7.5201672    840.87545  0.019277291  0.018590354           15 
 3636000   0.68120631   -7.5458772    842.40758  0.019307104  0.018584572           13 
 3637000   0.66072035   -7.5318827    840.83062  0.019265663  0.018578792            9 
 3638000   0.66619707   -7.5291837    840.27891   0.01924773  0.018573015           12 
 3639000   0.67883728    -7.543655    840.81433  0.019254702  0.018567242           11 
 3640000   0.67932096   -7.5419403    841.35895  0.019261881  0.018561472           16 
 3641000   0.67316943   -7.5370952     841.0213  0.019248862  0.018555715           22 
 3642000   0.67507712   -7.5258956    840.15886  0.019223844  0.018549937           18 
 3643000   0.68571063   -7.5418368    843.11217  0.019286123  0.018544169            9 
 3644000   0.67831837   -7.5500369    843.04927  0.019279392  0.018538412           17 
 3645000   0.66796771   -7.5475996    841.33257  0.019234855  0.018532648           26 
 3646000   0.65859703   -7.5394885    840.28248  0.019205579  0.018526898           13 
 3647000    0.6539353   -7.5159021     843.2349  0.019267775  0.018521133           13 
 3648000   0.67790889   -7.5259462    842.65531  0.019249253  0.018515377           22 
 3649000   0.67047259     -7.53545     842.7489  0.019246115   0.01850963           16 
 3650000   0.67303329   -7.5329979    842.42959  0.019233552  0.018503877           20 
 3651000   0.68473804   -7.5624495    842.30239  0.019225381  0.018498134           19 
 3652000   0.66695288   -7.5151107    842.04808  0.019214314  0.018492397           17 
 3653000   0.67444897    -7.534516    841.41022  0.019194503  0.018486653           11 
 3654000   0.66960215   -7.5617421    841.30482  0.019186846   0.01848089            9 
 3655000   0.67023132   -7.5514991    841.98474  0.019197098  0.018475132            6 
 3656000   0.66400325   -7.5349628    842.24524  0.019197785  0.018469376           10 
 3657000   0.66227555   -7.5448827    844.10044  0.019234811  0.018463605           21 
 3658000   0.66547848   -7.5444223    841.50301   0.01917038  0.018457843           17 
 3659000    0.6654375   -7.5547358    840.89234  0.019151233  0.018452089           50 
 3660000   0.65862366   -7.5539631    840.13919  0.019128852  0.018446311           32 
 3661000   0.68017064   -7.5415664    840.99084  0.019143013  0.018440538           22 
 3662000   0.65642295   -7.5407147    841.11775  0.019140673  0.018434786           27 
 3663000   0.66665301   -7.5519846     840.7759  0.019127671  0.018429028           11 
 3664000   0.67247092   -7.5506532    839.47567  0.019092878  0.018423265           21 
 3665000   0.67480187   -7.5574484    840.68048  0.019115063  0.018417502           11 
 3666000    0.6643591    -7.533914     840.9113  0.019115096  0.018411737           22 
 3667000   0.67139375   -7.5620937     841.5258  0.019123848  0.018405975            8 
 3668000   0.67234538   -7.5379229    841.77329  0.019124257   0.01840021           16 
 3669000   0.67084219   -7.5536925    841.80831   0.01911984  0.018394457           14 
 3670000   0.66471887   -7.5396603    841.24291  0.019101792  0.018388705           11 
 3671000   0.66072367   -7.5503163    840.69609  0.019084175  0.018382933           16 
 3672000   0.66473557    -7.563628    839.96382   0.01906236  0.018377179            8 
 3673000   0.67195536   -7.5486231    839.68393   0.01905082  0.018371418           11 
 3674000   0.65715944   -7.5166227    842.38276  0.019106849  0.018365656            7 
 3675000      0.65541   -7.5328913    841.41453  0.019079694  0.018359893           13 
 3676000   0.66719399    -7.555347    843.05121  0.019111607  0.018354143           11 
 3677000   0.65975024   -7.5523953    841.46708  0.019070508  0.018348399           10 
 3678000   0.67550039   -7.5585398    842.11884   0.01908009  0.018342657           15 
 3679000   0.66888273   -7.5410708     839.7946  0.019022257  0.018336903           14 
 3680000   0.65912105   -7.5438824    841.39125  0.019053244  0.018331148            9 
 3681000   0.66491256   -7.5537489    840.08794  0.019018562  0.018325411            5 
 3682000   0.64384926   -7.5576782    839.84019   0.01900779  0.018319656           14 
 3683000   0.67196025    -7.550584    840.08907   0.01900826  0.018313901           17 
 3684000   0.65814856   -7.5450122    840.55035  0.019013535  0.018308155            6 
 3685000   0.67479522   -7.5249682    840.93302  0.019017029  0.018302407           19 
 3686000   0.66866977   -7.5297732    841.51541  0.019025036  0.018296684            6 
 3687000   0.65530538   -7.5605783    840.03612  0.018986442  0.018290961            4 
 3688000   0.65806019   -7.5358972    841.06055  0.019004441  0.018285253            4 
 3689000   0.68367855   -7.5192363     843.1558  0.019046621  0.018279546            8 
 3690000   0.66377981   -7.5470943    841.73488  0.019009369  0.018273837            6 
 3691000    0.6667674   -7.5433506    843.50459  0.019044175  0.018268117           11 
 3692000   0.64806694   -7.5477091    840.64932  0.018974569  0.018262395           14 
 3693000   0.67690431   -7.5464485    842.92979  0.019020891  0.018256674            6 
 3694000   0.66120859   -7.5378614    843.17366  0.019021243  0.018250961            8 
 3695000   0.65172791   -7.5337221    841.10297  0.018969395  0.018245247           11 
 3696000   0.68125126   -7.5294184    841.60743  0.018975637  0.018239546            6 
 3697000   0.65727292    -7.539527    842.66817  0.018994414   0.01823384            8 
 3698000    0.6541587   -7.5559739    841.74257  0.018968419  0.018228121            8 
 3699000   0.65928531   -7.5486318    840.77795   0.01894156  0.018222399            7 
 3700000   0.65320958   -7.5399295    841.66286  0.018956371  0.018216682            6 
 3701000   0.64954089   -7.5449494    840.74849  0.018930661  0.018210969            8 
 3702000   0.65340432   -7.5502586    839.70776   0.01890212  0.018205262           11 
 3703000   0.65519088   -7.5482303    840.24458  0.018909096  0.018199542           11 
 3704000   0.67300537   -7.5449537    841.08349  0.018922865  0.018193835           11 
 3705000   0.65436244   -7.5555324    840.38708  0.018902094   0.01818814           10 
 3706000   0.67528393   -7.5450174    842.02105  0.018933735  0.018182435            8 
 3707000   0.66024891   -7.5306406    841.23673  0.018910996  0.018176763            8 
 3708000   0.67339302   -7.5580577    841.86444  0.018920003  0.018171082            5 
 3709000   0.66362713    -7.565349    841.88862  0.018915445  0.018165419           15 
 3710000   0.64353332    -7.544709    841.34511  0.018898138  0.018159749            9 
 3711000   0.65510666   -7.5567671    841.61284  0.018899058  0.018154081           15 
 3712000   0.66601954   -7.5528645    841.28936  0.018886704  0.018148407           16 
 3713000   0.65503314   -7.5496569    843.28765  0.018926467  0.018142724           31 
 3714000   0.65683472   -7.5396022    839.94327  0.018846331  0.018137041           16 
 3715000   0.66237779   -7.5368818    840.90729  0.018862882  0.018131373            9 
 3716000   0.66871707    -7.537769    841.23242  0.018865097  0.018125706            9 
 3717000   0.67767028   -7.5554434    842.19814  0.018881673  0.018120034           18 
 3718000   0.66875102   -7.5612933     841.3827  0.018858318  0.018114359           35 
 3719000   0.64215777   -7.5506571    840.81663  0.018840563  0.018108679           43 
 3720000   0.66427739   -7.5577133    843.29053  0.018890917  0.018102999           25 
 3721000   0.65704462   -7.5333693    843.20626  0.018883953  0.018097333            5 
 3722000   0.66511907   -7.5487719    842.93422  0.018872788  0.018091675           21 
 3723000   0.65613429   -7.5374635    842.41207  0.018856032  0.018086026           28 
 3724000   0.66669681   -7.5496431     842.5847  0.018854831  0.018080382           20 
 3725000   0.65947835   -7.5737722    841.17003  0.018818122  0.018074738           11 
 3726000   0.66402613   -7.5546012    842.14989  0.018834986  0.018069093           23 
 3727000    0.6588406   -7.5886524    843.58001  0.018861909  0.018063454           14 
 3728000   0.65376809   -7.5675997    842.72934  0.018837834  0.018057815           18 
 3729000   0.65413499   -7.5541183    841.36413  0.018802273  0.018052173           18 
 3730000    0.6473289   -7.5792426    842.87449  0.018830976  0.018046543            7 
 3731000   0.65119184   -7.5581027    843.17173  0.018832568  0.018040895            9 
 3732000   0.65407079   -7.5529345    842.52273   0.01881303   0.01803525           14 
 3733000   0.65281862   -7.5657897    842.62121  0.018810189  0.018029609           11 
 3734000   0.66898361   -7.5848987    843.87873  0.018833216   0.01802397            6 
 3735000   0.64685274   -7.5834895    842.16175  0.018789865  0.018018332            6 
 3736000   0.63849081   -7.5888074    841.51998  0.018770521  0.018012691           14 
 3737000   0.64836956   -7.5585959    842.14189  0.018779366  0.018007073            4 
 3738000   0.65835415   -7.5742736    843.57751  0.018806347  0.018001461            9 
 3739000   0.64949203   -7.5766109    843.07881  0.018790203  0.017995861            8 
 3740000    0.6484254   -7.5537516    841.47109  0.018749356  0.017990251           14 
 3741000   0.65096998   -7.5723362    844.65886  0.018815354  0.017984639           12 
 3742000   0.65048094   -7.5582363    843.36353  0.018781479  0.017979042            7 
 3743000   0.65903789   -7.5566134    843.26998  0.018774378  0.017973441            4 
 3744000   0.64227102   -7.5622019    843.75991  0.018780269  0.017967836           17 
 3745000   0.65718706   -7.5458355    843.05431  0.018759553   0.01796225           10 
 3746000   0.64439149   -7.5511723    842.51276  0.018742498  0.017956663            9 
 3747000   0.66410329   -7.5736724    843.73729  0.018764729  0.017951072           10 
 3748000    0.6728678   -7.5587359    843.32792  0.018750621  0.017945469           20 
 3749000   0.65984823   -7.5772442    841.12945  0.018696751  0.017939863           12 
 3750000   0.66188213   -7.5802648    842.79352  0.018728745  0.017934257           11 
 3751000   0.64067263   -7.5890953    842.75774  0.018722957  0.017928656           10 
 3752000   0.65445246   -7.5608607    842.54806   0.01871331  0.017923055           13 
 3753000   0.64636634   -7.5628608    841.40828  0.018683015  0.017917457            6 
 3754000    0.6595718   -7.5550269     841.8707  0.018688304  0.017911856           12 
 3755000   0.65997332   -7.5595515    844.24524  0.018736024   0.01790627           11 
 3756000   0.66104713   -7.5550762    841.42503  0.018668465  0.017900665           14 
 3757000   0.64185018   -7.5592081    841.50536  0.018665277  0.017895063            9 
 3758000   0.64696033   -7.5633499    843.03737  0.018694283  0.017889476           12 
 3759000   0.65718072   -7.5425815     840.0811  0.018623772  0.017883887            9 
 3760000   0.65619515   -7.5655104    842.76334  0.018678266  0.017878285           10 
 3761000   0.64589881   -7.5740039    842.29112  0.018662836    0.0178727            7 
 3762000   0.63685024   -7.5547161    844.02684  0.018696324  0.017867114           14 
 3763000    0.6464011    -7.535098    842.42493   0.01865588  0.017861531           10 
 3764000   0.64611164   -7.5380444    842.85363  0.018660415  0.017855954           14 
 3765000   0.65246846   -7.5490449    842.33118  0.018643895  0.017850375           23 
 3766000   0.63342462   -7.5503484    844.42491  0.018685274  0.017844775            9 
 3767000   0.65725858   -7.5724797    841.48835  0.018615352  0.017839189           11 
 3768000   0.65545864   -7.5757432     843.2603    0.0186496  0.017833597           15 
 3769000   0.66398116   -7.5821924    841.10676  0.018597036  0.017827996           15 
 3770000   0.65061279   -7.5782835     842.4118  0.018620951  0.017822396           11 
 3771000   0.65755007     -7.59446    842.19054  0.018611123  0.017816796           11 
 3772000   0.65879304   -7.5853604    841.51362  0.018591234  0.017811206           10 
 3773000   0.63210973   -7.5816636    842.71452  0.018612831   0.01780561           17 
 3774000   0.64932432   -7.5774273    841.14182  0.018573172  0.017800015           32 
 3775000   0.65797703   -7.5746198    842.98278  0.018608891  0.017794419           30 
 3776000    0.6485932   -7.5737082    840.20222  0.018542599  0.017788833           27 
 3777000   0.65609662   -7.5766595    842.30797  0.018584149  0.017783242            9 
 3778000   0.64392368   -7.5963023    842.83616  0.018590881  0.017777647           20 
 3779000    0.6446076   -7.5930819    842.98288  0.018589196  0.017772055            9 
 3780000   0.63865438   -7.6057692    840.39258  0.018527173  0.017766454           13 
 3781000   0.65206318   -7.5871661    840.61326  0.018527137  0.017760859           13 
 3782000   0.65588804    -7.592902    841.71492  0.018546512  0.017755263           10 
 3783000   0.63915862    -7.592525    842.18118  0.018551881  0.017749665           23 
 3784000   0.63763818   -7.6046192    841.18302  0.018524996  0.017744079           15 
 3785000   0.64552446   -7.5989288    840.86467  0.018513093  0.017738483           13 
 3786000   0.65031751   -7.6193426    841.60491  0.018524496  0.017732891           10 
 3787000   0.63962058   -7.5961698      841.871   0.01852546  0.017727305           13 
 3788000   0.64616131   -7.5840854    841.95543  0.018522427  0.017721738           10 
 3789000   0.64369643   -7.5879213    843.44273  0.018550249  0.017716164            8 
 3790000   0.61892745   -7.5852618    840.32308  0.018476761  0.017710595           17 
 3791000   0.63670565   -7.5768677    841.48107  0.018497342  0.017705031            8 
 3792000   0.65920874   -7.6050777    842.71811  0.018519649  0.017699477           17 
 3793000   0.64888077   -7.5933627     841.2313  0.018482101   0.01769391           17 
 3794000   0.63724004   -7.5832551    841.09592  0.018474256  0.017688356           10 
 3795000   0.64582321   -7.5857026    842.50488  0.018500327  0.017682806            6 
 3796000   0.65723935   -7.6014307    841.48835  0.018473137   0.01767724           10 
 3797000   0.65099369   -7.5980094    841.64458  0.018471701  0.017671675           11 
 3798000   0.65736627   -7.5915158      841.045  0.018453682  0.017666105            9 
 3799000   0.64640049   -7.5912913    841.71507  0.018463523  0.017660537           19 
 3800000    0.6430288   -7.5819557    841.44954  0.018452841  0.017654973           18 
 3801000   0.63239881   -7.5997981    843.13951  0.018485037  0.017649428           17 
 3802000   0.63605313   -7.5771571    842.34283  0.018462713  0.017643878            8 
 3803000   0.64029093   -7.6127893     841.2607  0.018434146  0.017638321           23 
 3804000    0.6407199   -7.6028319    842.92946  0.018465858  0.017632766           18 
 3805000   0.64779602   -7.5760853    842.33183  0.018447916  0.017627207           17 
 3806000   0.63876335   -7.6118978    843.00333  0.018457771  0.017621658            6 
 3807000   0.63744634   -7.5877722    843.11753  0.018455423  0.017616123            8 
 3808000   0.63927628   -7.5711675    842.64795    0.0184403  0.017610595            6 
 3809000   0.64338603     -7.57792    842.71229  0.018436866  0.017605075           11 
 3810000   0.62357343   -7.6126243    841.35254  0.018402287  0.017599549           13 
 3811000   0.63971368    -7.619958    842.82311  0.018429614  0.017594023           21 
 3812000   0.64536452   -7.6069983    842.31906  0.018413761  0.017588493           10 
 3813000   0.62853399    -7.587909    841.12868  0.018382916   0.01758297           12 
 3814000   0.64653064   -7.5700695    843.95527  0.018439855  0.017577453           12 
 3815000   0.63902566   -7.6042089    843.01641  0.018414513  0.017571937            8 
 3816000   0.64144257   -7.5779627    843.15315  0.018412674  0.017566426           11 
 3817000   0.63889037   -7.5878154    844.38149  0.018434667  0.017560925            8 
 3818000   0.63671669   -7.5658373    843.99916  0.018421494  0.017555421            7 
 3819000    0.6558426    -7.572799    842.71864  0.018388728  0.017549922            4 
 3820000   0.63489341   -7.6141319    842.96047   0.01838919  0.017544423            7 
 3821000   0.64746996   -7.5824061    842.74141    0.0183796  0.017538918            8 
 3822000   0.63769483   -7.5965166    842.84457   0.01837704  0.017533418           12 
 3823000   0.62773944   -7.6056188    843.08379  0.018377448  0.017527908            9 
 3824000   0.64142519   -7.5874246    843.39907  0.018379512  0.017522401            7 
 3825000   0.63644648   -7.6026734     844.1267   0.01839056  0.017516894           10 
 3826000   0.64110248   -7.6166202    842.97297  0.018360624  0.017511396           12 
 3827000   0.65879798   -7.5903964    843.23676   0.01836157  0.017505896           10 
 3828000    0.6427095   -7.5957486    842.61511  0.018343241  0.017500394            8 
 3829000   0.64059285    -7.617354    843.70736  0.018362222  0.017494884           18 
 3830000   0.63196418   -7.5981719    841.41107  0.018307464  0.017489365           10 
 3831000   0.65119223   -7.5965433     840.8162  0.018289746  0.017483847           18 
 3832000   0.65171208   -7.6090213    842.48996  0.018321372  0.017478331           25 
 3833000   0.64522961   -7.5910568    842.95628   0.01832673  0.017472816           18 
 3834000   0.64576679   -7.5907829    842.58725  0.018313929  0.017467312           12 
 3835000    0.6317053   -7.6213655    841.56566  0.018286955  0.017461809           10 
 3836000   0.62834099   -7.6103771    842.28885  0.018297898  0.017456314           13 
 3837000   0.64728772   -7.5847014    843.05844  0.018309844  0.017450827           22 
 3838000   0.64265167    -7.601963    843.76235  0.018320357  0.017445342           15 
 3839000   0.64395011   -7.6203254    842.10052  0.018279511   0.01743985           12 
 3840000   0.64062435   -7.6288392     842.1816   0.01827651  0.017434337           11 
 3841000   0.63580112   -7.6082959    841.85153  0.018264591  0.017428845           20 
 3842000   0.63220816    -7.612964    841.44338  0.018250984  0.017423351           10 
 3843000   0.64190263   -7.6022881    842.12614   0.01826104  0.017417852           16 
 3844000   0.63911562   -7.5906463    842.30794  0.018260231  0.017412349           14 
 3845000   0.63473516   -7.6172987    840.94127  0.018225862  0.017406842           15 
 3846000   0.63488973   -7.6370499    842.49477  0.018254783  0.017401348            9 
 3847000   0.65261727   -7.6337454    840.72868  0.018211781  0.017395859           14 
 3848000   0.62601861   -7.6145758    842.28764   0.01824081   0.01739036           24 
 3849000   0.63020344   -7.6188727    840.36989   0.01819455  0.017384856           16 
 3850000    0.6329808   -7.6330655    841.13567    0.0182064  0.017379362           14 
 3851000   0.64477833   -7.6062835    841.26272  0.018204421  0.017373869           11 
 3852000   0.63640096   -7.6274635    843.39259  0.018245773  0.017368373           13 
 3853000   0.62312638   -7.6064543    840.82467  0.018185498  0.017362885            7 
 3854000   0.63633607   -7.6347597    843.98789  0.018249176  0.017357378            9 
 3855000   0.63856354   -7.6278693    840.30012  0.018164724  0.017351872           20 
 3856000   0.63493034   -7.6239858    842.11478   0.01819923  0.017346375           20 
 3857000   0.63796969   -7.6245499    841.91822  0.018190265  0.017340892           25 
 3858000   0.62937579   -7.5890469    841.35122  0.018173303  0.017335423            7 
 3859000   0.62188355   -7.6239103    840.82846  0.018157305  0.017329957           13 
 3860000   0.62588998   -7.6169979    839.74772  0.018129269  0.017324481           11 
 3861000   0.62383616   -7.5905432    842.20761  0.018177666  0.017319017           11 
 3862000   0.62173352   -7.6370428    841.30454  0.018153473  0.017313549            6 
 3863000    0.6360535   -7.6324365    841.33567  0.018149445  0.017308076           12 
 3864000   0.63683773    -7.629978    842.69804   0.01817413  0.017302612           10 
 3865000   0.62700094   -7.6322834    842.42264  0.018163489  0.017297146           17 
 3866000   0.63707453   -7.6318227    843.04817  0.018172275  0.017291669           25 
 3867000   0.64805776   -7.6272131    840.64505  0.018115789    0.0172862            7 
 3868000   0.64285849   -7.6403601    842.89238  0.018159522   0.01728073            6 
 3869000   0.63310052   -7.6324604    840.93221  0.018112609  0.017275261           25 
 3870000   0.62567501   -7.6010037    841.25295  0.018114835  0.017269796            9 
 3871000   0.62637833    -7.627493    841.24674  0.018110022  0.017264332           13 
 3872000   0.63223506   -7.6367394    841.57357  0.018112379  0.017258873           19 
 3873000   0.62723773   -7.6235114    840.04861   0.01807489  0.017253406           15 
 3874000   0.63378709   -7.6236852    841.07711  0.018092349   0.01724795           14 
 3875000   0.63288879   -7.6169689    842.11699  0.018110043  0.017242515           11 
 3876000   0.64765915   -7.6224364    842.33152  0.018109983  0.017237075           21 
 3877000    0.6355714   -7.6197971    841.47557  0.018086914  0.017231649           17 
 3878000   0.62557478   -7.6270171    842.82151  0.018111172   0.01722621           15 
 3879000   0.63040036   -7.6112173     839.9025  0.018043794  0.017220786           15 
 3880000   0.63631288   -7.6087097    842.32463  0.018091165  0.017215366           18 
 3881000   0.62554508   -7.5894142     843.0445   0.01810196  0.017209955           11 
 3882000   0.63555733   -7.5831454    841.48013  0.018063716  0.017204544           12 
 3883000   0.63160155   -7.6318748    843.91248  0.018111264  0.017199136           12 
 3884000   0.62626632   -7.6304667    841.81741  0.018061651  0.017193719           18 
 3885000   0.62799204    -7.621496     840.9032  0.018037392  0.017188291           11 
 3886000    0.6146947   -7.6196975    842.15939  0.018059688  0.017182875           10 
 3887000   0.61527709   -7.6028103    843.40669  0.018081783  0.017177451           11 
 3888000   0.62246563   -7.6125386    842.88784  0.018066012  0.017172049           22 
 3889000   0.62115137   -7.6237759    843.40811  0.018072515  0.017166657            9 
 3890000   0.62088778   -7.6433658    841.73361  0.018031997  0.017161263            9 
 3891000   0.62672204   -7.6163069     842.5013  0.018043804   0.01715588            7 
 3892000   0.62136801   -7.6179286    842.81492  0.018045883  0.017150484           15 
 3893000   0.63367412   -7.6226726    843.08817  0.018047097  0.017145081           11 
 3894000   0.62308035   -7.5988167    841.69768  0.018012705  0.017139676           12 
 3895000   0.63776781   -7.6218975    841.27554  0.017999049  0.017134278           10 
 3896000   0.63018439   -7.6216443    842.13828  0.018012882  0.017128885           14 
 3897000   0.61770258   -7.6123299    843.41135  0.018035483  0.017123483           15 
 3898000   0.62460455   -7.6093228    843.71585  0.018037366  0.017118098           20 
 3899000     0.631049   -7.6210015    844.90649  0.018058188  0.017112698           21 
 3900000   0.62204603   -7.6164478    843.46106  0.018022672  0.017107302           14 
 3901000   0.61981779    -7.640969    843.08663  0.018010054  0.017101907           23 
 3902000     0.629659   -7.6035985    841.53019  0.017972198  0.017096512           22 
 3903000   0.62780913    -7.618011    842.13049   0.01798041  0.017091119           20 
 3904000   0.61752242   -7.6507248    842.04134  0.017973902  0.017085728           14 
 3905000   0.63219712   -7.6450965    843.35191  0.017997267   0.01708033           13 
 3906000   0.62411785    -7.654736    842.69488  0.017978641  0.017074933           20 
 3907000   0.63059578   -7.6089489    842.35463  0.017966782  0.017069543           21 
 3908000   0.63867536   -7.6281422    843.04236   0.01797685  0.017064153           16 
 3909000   0.62744726   -7.6384758    842.37358  0.017957994  0.017058763           15 
 3910000   0.64168997    -7.632167    842.14243  0.017948475  0.017053388           21 
 3911000   0.63467635   -7.6333353    842.07596  0.017942469  0.017048003           16 
 3912000   0.61612683   -7.6397273    840.52793  0.017904907  0.017042627           22 
 3913000   0.63141848   -7.6240731    841.67752  0.017924813   0.01703725           19 
 3914000    0.6274472   -7.6333713    842.26755  0.017932796  0.017031881           28 
 3915000   0.62551696   -7.6459142    841.32083  0.017908064  0.017026511           17 
 3916000   0.64035023   -7.6395812    843.47517  0.017949335  0.017021131           17 
 3917000   0.62035147   -7.6309718    841.99931  0.017913354  0.017015758           43 
 3918000   0.62370499   -7.6505905     844.5793  0.017963657  0.017010392           17 
 3919000   0.61356664   -7.6202304    844.33327  0.017953842  0.017005028           24 
 3920000   0.61659106   -7.6337746    843.41134  0.017929663  0.016999676           14 
 3921000   0.63085941   -7.6354792    843.16941  0.017919948   0.01699431           44 
 3922000   0.63131173   -7.6247022    841.86585  0.017887682  0.016988955           18 
 3923000   0.62733084   -7.6392297    841.68802  0.017879344  0.016983605           12 
 3924000   0.62461134   -7.6349453    844.29597  0.017930173  0.016978247           23 
 3925000   0.63177503   -7.6234042    843.33644  0.017905232  0.016972902           19 
 3926000   0.61324162   -7.6384269    841.39306  0.017859421  0.016967544           32 
 3927000   0.62283315   -7.6607304     842.6652  0.017881869   0.01696219           25 
 3928000   0.60971459   -7.6375924    843.74301  0.017900183  0.016956835           18 
 3929000    0.6172713   -7.6382479    844.38986  0.017909346  0.016951481           12 
 3930000   0.63440161   -7.6231981    841.75341  0.017848885  0.016946126           15 
 3931000   0.62920036   -7.6508135    841.57834  0.017840633  0.016940779           17 
 3932000   0.62573928   -7.6439121    841.74305  0.017839587  0.016935428           15 
 3933000   0.59938503   -7.6271091    841.57901  0.017831575  0.016930092           19 
 3934000   0.63543364   -7.6523589     841.2514  0.017820102  0.016924751           21 
 3935000   0.62410417   -7.6458267    843.50444  0.017863287  0.016919412           11 
 3936000   0.62700769   -7.6544986    843.35929  0.017855676   0.01691408           19 
 3937000   0.61097958   -7.6348766     841.8523  0.017819243  0.016908746           10 
 3938000    0.6099096   -7.6432507    842.19345  0.017821937  0.016903407           12 
 3939000   0.63057326   -7.6481253    842.50907   0.01782409  0.016898075           14 
 3940000   0.61617379   -7.6510549    841.84699  0.017805562  0.016892739           17 
 3941000   0.62895675   -7.6583021    841.71113  0.017798172   0.01688741           19 
 3942000   0.61513383   -7.6256642    843.54181  0.017832357  0.016882089           15 
 3943000   0.62580841   -7.6378997    842.52007   0.01780624  0.016876753           12 
 3944000   0.62683593   -7.6397594     841.9635  0.017789966  0.016871427           17 
 3945000   0.62561399   -7.6442653    843.33619  0.017814453  0.016866092           13 
 3946000   0.61617335   -7.6542552    841.43191  0.017769723  0.016860757           16 
 3947000   0.60839531   -7.6548199    841.29205  0.017762268  0.016855425           22 
 3948000   0.62288097   -7.6495474    842.63683  0.017786154  0.016850106           20 
 3949000   0.60877064   -7.6391744    843.92786  0.017808894  0.016844777            9 
 3950000    0.6217179   -7.6452596    843.65665  0.017798663  0.016839458           19 
 3951000   0.62287348   -7.6391994    843.44445  0.017789683  0.016834147           16 
 3952000   0.62998347   -7.6162696    840.94752   0.01773253  0.016828829           17 
 3953000   0.60847791    -7.663446    841.35494  0.017736633  0.016823512            7 
 3954000    0.5979438   -7.6688222    841.30983  0.017731197  0.016818195           14 
 3955000   0.61959122   -7.6465051    842.59717  0.017753838   0.01681288           13 
 3956000   0.62343702   -7.6482022    843.01924  0.017758242  0.016807567            6 
 3957000   0.59900864   -7.6315172    843.38296  0.017761414   0.01680226           17 
 3958000    0.6181475   -7.6535959    842.10274  0.017729972  0.016796952           15 
 3959000    0.6183877   -7.6446467    842.86137  0.017741462  0.016791636           14 
 3960000   0.61920345   -7.6567618    842.30105  0.017725191  0.016786333            9 
 3961000   0.63324645   -7.6620511    841.38252  0.017701391  0.016781034            8 
 3962000   0.62864383   -7.6261308    843.17061  0.017734532  0.016775736           11 
 3963000   0.61423374    -7.637832    842.68272  0.017719798  0.016770443           13 
 3964000   0.61520636   -7.6491604    843.20684  0.017726346  0.016765158            9 
 3965000    0.6217443   -7.6310068    843.60607  0.017730266  0.016759877            7 
 3966000   0.61126738    -7.640591     841.4127  0.017679709  0.016754601           12 
 3967000   0.62897187   -7.6647667    842.27186    0.0176933  0.016749317            9 
 3968000    0.6019754   -7.6523714    840.83535  0.017658673  0.016744034           15 
 3969000   0.61923528   -7.6324985    843.30091   0.01770599  0.016738752            9 
 3970000   0.61937385   -7.6404064     842.5684  0.017686155   0.01673347           10 
 3971000   0.60142016   -7.6335883    843.37205  0.017698566  0.016728191            7 
 3972000   0.61120906   -7.6541962    842.69945  0.017679999  0.016722907           12 
 3973000    0.6408976   -7.6691692    842.06634  0.017662269  0.016717622           13 
 3974000   0.62501428   -7.6701117    841.48848  0.017645707  0.016712343           11 
 3975000   0.62466859   -7.6445797    841.55835  0.017642733  0.016707065           10 
 3976000   0.61392315   -7.6406683    842.56727  0.017659442  0.016701784            8 
 3977000   0.61497738   -7.6339677    842.95698  0.017663167  0.016696511           16 
 3978000   0.61188959   -7.6440016    842.08734  0.017640509  0.016691247           14 
 3979000   0.60690933   -7.6517334    842.13672   0.01763711  0.016685984           11 
 3980000   0.61764888   -7.6223781    841.05115  0.017609949  0.016680731           16 
 3981000   0.62040162   -7.6461888    842.67142  0.017639442  0.016675484            9 
 3982000   0.62326136   -7.6427564    841.65165  0.017613671  0.016670234            7 
 3983000   0.61059426   -7.6494656    843.04682  0.017638439  0.016664987           13 
 3984000   0.60481707   -7.6437135    842.06138  0.017613399  0.016659734           12 
 3985000   0.62284121   -7.6667177    842.24198  0.017612756   0.01665448           15 
 3986000   0.61680881   -7.6564019    843.06664  0.017625578  0.016649224           13 
 3987000   0.61454782   -7.6527047    844.00202  0.017640708  0.016643973           13 
 3988000   0.62925269   -7.6468148    842.68427  0.017608748  0.016638722           19 
 3989000    0.6094969   -7.6472791     841.7354  0.017584511  0.016633475           13 
 3990000   0.61001963   -7.6390971     843.1007  0.017608619  0.016628225           15 
 3991000   0.60219034   -7.6687905    844.08114  0.017624679  0.016622976           16 
 3992000   0.62227096   -7.6768271    842.75231  0.017592525  0.016617738            8 
 3993000   0.61748925   -7.6629576    842.58382  0.017584603  0.016612488           23 
 3994000   0.59206888   -7.6724599    843.22391  0.017593555  0.016607247           12 
 3995000   0.61107121   -7.6633935    843.24225  0.017589534  0.016602014           12 
 3996000   0.61815878    -7.663383    843.20633  0.017584383  0.016596779           11 
 3997000   0.61004876    -7.661871    842.29544  0.017560992  0.016591553           14 
 3998000   0.62759004   -7.6494151    842.49458  0.017560751  0.016586322           14 
 3999000    0.6132687     -7.66112    842.90101  0.017564829  0.016581088            8 
 4000000   0.61143335   -7.6654918    842.85385  0.017559455  0.016575862           10 
 4001000   0.62308515   -7.6239992    841.92333  0.017535685  0.016570647            5 
 4002000   0.61570285   -7.6479628    843.04714  0.017554705  0.016565423           10 
 4003000   0.61915409   -7.6436164    843.02977  0.017549958  0.016560207            9 
 4004000   0.60193157   -7.6687218    842.78756  0.017540534  0.016554998            8 
 4005000   0.61627048   -7.6613818    842.29013  0.017525804  0.016549793           10 
 4006000   0.60858375   -7.6563723    842.69857  0.017529925  0.016544593           13 
 4007000     0.610953   -7.6507247    843.46919  0.017541577  0.016539393            8 
 4008000   0.60828231   -7.6447093    843.59094  0.017539732  0.016534191           14 
 4009000   0.62612643   -7.6444357    843.24402  0.017528145  0.016528996           14 
 4010000   0.61639786   -7.6472943    842.55753  0.017509508  0.016523807           15 
 4011000   0.61401988   -7.6567804     841.8063  0.017489535  0.016518616           12 
 4012000   0.60629768   -7.6458827    844.60923  0.017543396  0.016513421            9 
 4013000   0.61700689   -7.6661597    844.32886  0.017533202  0.016508222            5 
 4014000   0.59748728   -7.6601038    841.75177  0.017475332  0.016503023           10 
 4015000   0.61270784   -7.6549433    843.10846  0.017499138  0.016497829           14 
 4016000   0.59923692   -7.6813394    844.22012  0.017517848  0.016492638            9 
 4017000   0.58688681   -7.6671152    842.05239  0.017468517  0.016487438           10 
 4018000   0.60909942   -7.6661323    843.10688   0.01748604  0.016482241            9 
 4019000   0.61167027   -7.6702438    842.72102  0.017473688  0.016477051           12 
 4020000   0.59375286   -7.6811648    843.23584  0.017480013  0.016471853            9 
 4021000   0.61307618   -7.6574036    842.39157  0.017458169   0.01646666           17 
 4022000   0.61626674   -7.6562927    841.11794  0.017427439  0.016461471           12 
 4023000   0.61615034   -7.6621185    841.72506  0.017435684  0.016456284           12 
 4024000   0.61767928   -7.6818232    842.29577   0.01744317  0.016451089           15 
 4025000   0.61360176    -7.673279    842.89483  0.017451239  0.016445905           10 
 4026000   0.61148852   -7.6437732    843.98786  0.017469528  0.016440736           12 
 4027000   0.59762882   -7.6670856    844.88883  0.017483835  0.016435571           18 
 4028000   0.60865208   -7.6544687     841.5578   0.01741058  0.016430396           12 
 4029000   0.60921542   -7.6511538    842.99116  0.017435906  0.016425219            8 
 4030000   0.59937667   -7.6420378     843.0718  0.017433246  0.016420038           23 
 4031000   0.61892889   -7.6533259      843.865   0.01744532  0.016414864           21 
 4032000   0.62469047   -7.6791744    842.64889  0.017415858    0.0164097           16 
 4033000   0.60843715   -7.6626681    841.37501  0.017385218  0.016404524           21 
 4034000   0.60624044   -7.6503452    842.78906  0.017410119  0.016399346           16 
 4035000    0.5952856   -7.6692815    844.07415  0.017432345  0.016394168           11 
 4036000   0.60484251   -7.6638815    842.09032  0.017387065  0.016388992           16 
 4037000   0.60319824   -7.6742071    840.91902  0.017358579  0.016383806           10 
 4038000   0.60506505   -7.6525244    842.15861  0.017379862  0.016378625            8 
 4039000   0.59946898   -7.6636426    842.55379  0.017383713  0.016373466           15 
 4040000   0.60843384   -7.6600304    841.84837  0.017364859  0.016368291           20 
 4041000   0.59766952   -7.6657839    844.01191  0.017405178  0.016363119           14 
 4042000   0.59491297   -7.6554898    841.95985  0.017358565  0.016357946           24 
 4043000   0.61200489   -7.6904104    841.60159  0.017346887  0.016352768           27 
 4044000   0.60188377    -7.675151    842.16231  0.017354152  0.016347595           23 
 4045000   0.60639406   -7.6775751    842.51236  0.017357074  0.016342423           15 
 4046000    0.6059356   -7.6772986    843.92882  0.017381958  0.016337248           22 
 4047000    0.5941717   -7.6842617    842.65147  0.017351361  0.016332069           12 
 4048000   0.59865763   -7.6705989    842.06597  0.017335021  0.016326892           37 
 4049000   0.61088016   -7.6563229    841.99545  0.017329288  0.016321724           42 
 4050000   0.60207424   -7.6996117    841.61828  0.017317249  0.016316555           30 
 4051000   0.61343479   -7.6618814    842.17588  0.017324444  0.016311388           27 
 4052000    0.6020335   -7.6691312    841.35843  0.017303357  0.016306226           16 
 4053000   0.59897866   -7.6814756     841.8336  0.017308858  0.016301061           18 
 4054000   0.61260432   -7.6820207    842.42083  0.017316659  0.016295894           11 
 4055000   0.60200605    -7.664484    841.35024  0.017290387  0.016290727           10 
 4056000   0.60413866   -7.6784067    843.14841  0.017323069  0.016285566           17 
 4057000   0.60472024   -7.6934943    841.90059  0.017293168  0.016280405           13 
 4058000   0.59925392   -7.6921573    842.16181  0.017294271  0.016275239           25 
 4059000   0.59832502    -7.656131    843.22397  0.017311817  0.016270086           16 
 4060000   0.62325884   -7.6775991    841.63583  0.017274955  0.016264932           26 
 4061000   0.61132996   -7.6778886     842.4156  0.017286703  0.016259775           18 
 4062000   0.60802173   -7.6780599    841.23007  0.017258126  0.016254621           24 
 4063000   0.59622066   -7.6732748    842.88722  0.017287866  0.016249465           21 
 4064000    0.6059396   -7.6741093    842.01779  0.017265785   0.01624432           14 
 4065000   0.60489565   -7.6522402    839.99888  0.017220149  0.016239175           18 
 4066000   0.60206818   -7.6993458    841.25285  0.017241614  0.016234026           39 
 4067000    0.5994575   -7.6865193    842.19118  0.017256602  0.016228884           26 
 4068000   0.59321591   -7.6943909    842.31474  0.017254891  0.016223757           11 
 4069000   0.60296355   -7.6856768    842.51532  0.017254758  0.016218625           18 
 4070000   0.59383071   -7.6742107     841.2519   0.01722465  0.016213485           15 
 4071000   0.59824989   -7.6980154    841.97314  0.017235183   0.01620835           21 
 4072000   0.59355747      -7.6826    841.41052  0.017219436  0.016203211           17 
 4073000   0.60284549   -7.6825346    841.44412  0.017215896  0.016198082           16 
 4074000   0.59382785   -7.6816495    841.41451  0.017211064  0.016192955           24 
 4075000   0.60274574   -7.7002847     841.2908  0.017204311  0.016187813           12 
 4076000   0.60636584      -7.6975    841.85047  0.017211532  0.016182672           27 
 4077000   0.59523543   -7.7068482     842.2098  0.017214655  0.016177535           28 
 4078000   0.60954808   -7.7013256    840.80639  0.017181755  0.016172398           33 
 4079000   0.59585537   -7.6933476    841.67608  0.017195311  0.016167256           24 
 4080000   0.59029837   -7.6913976    840.78139  0.017172822  0.016162113           25 
 4081000   0.58088185   -7.6986591    842.03624  0.017194238  0.016156975           27 
 4082000   0.59644136   -7.7004621    840.76243  0.017164022  0.016151838           27 
 4083000   0.59958725   -7.7007966    841.72991  0.017179564  0.016146701           31 
 4084000   0.60869366   -7.6952513    842.08998  0.017182704  0.016141566           24 
 4085000    0.6017887   -7.7191078    840.12024  0.017138316   0.01613643           19 
 4086000   0.59802407   -7.7042639    840.14766  0.017134681  0.016131296           32 
 4087000   0.59182675   -7.7054371    840.42446  0.017136132  0.016126172           28 
 4088000   0.60595125   -7.6953502    841.37577  0.017151333   0.01612105           36 
 4089000   0.58510974   -7.7064168    841.64063  0.017152536  0.016115931           24 
 4090000   0.58787681   -7.7116993    842.69258  0.017169775   0.01611081           27 
 4091000   0.59595412   -7.7055654    840.79128  0.017126849  0.016105692           38 
 4092000   0.60456849   -7.6971675    840.16628  0.017109936  0.016100574           29 
 4093000   0.59278076   -7.6848634    841.59489  0.017134842  0.016095462           21 
 4094000    0.5949692   -7.7159584     841.3412  0.017125493  0.016090364           23 
 4095000   0.59175397   -7.6936842     842.7657  0.017150299  0.016085262           17 
 4096000   0.58768316   -7.7160695    842.78593  0.017146524  0.016080164           17 
 4097000   0.59703582    -7.687486    842.15605  0.017129527  0.016075072           15 
 4098000   0.60444223   -7.7072248    842.22502  0.017126749  0.016069985           10 
 4099000   0.59829457   -7.7087164     841.2747  0.017103251  0.016064899           16 
 4100000   0.60704544   -7.6780555    841.21452  0.017097856  0.016059804           20 
 4101000   0.59308548   -7.6978261    841.10627  0.017091487  0.016054714           23 
 4102000   0.59297621   -7.6995923    841.27451  0.017090738  0.016049616           26 
 4103000   0.58966284   -7.7093159    841.25758  0.017086229  0.016044517           37 
 4104000   0.59228423   -7.6928595     840.8304  0.017073392  0.016039426           17 
 4105000   0.60236364   -7.7167711    843.59804  0.017125417  0.016034333           19 
 4106000   0.60180619    -7.699581    840.57335  0.017059859  0.016029243           18 
 4107000   0.59439853     -7.71513    840.87326   0.01706179  0.016024157           21 
 4108000   0.59510706   -7.6929817    842.56317  0.017091918   0.01601907           13 
 4109000   0.59847899   -7.6983471    841.22752   0.01706067  0.016013985           32 
 4110000   0.59461346   -7.7033221    840.34422  0.017038609  0.016008899           12 
 4111000   0.59863258   -7.7160044    840.49682  0.017037558   0.01600382           19 
 4112000   0.59395426   -7.7015979    842.20856  0.017068105  0.015998746           36 
 4113000   0.59478829   -7.6998823    842.37959   0.01706742  0.015993675           25 
 4114000   0.58192454   -7.6966863    841.72763  0.017050065  0.015988606           13 
 4115000   0.59639786   -7.6894708     841.4745  0.017040796  0.015983543           26 
 4116000   0.59774866   -7.6961189    842.70322  0.017061533  0.015978487           23 
 4117000   0.59580976   -7.7044617    841.46493  0.017032324  0.015973431           14 
 4118000   0.58704857   -7.7007901    842.44552  0.017048031  0.015968378           24 
 4119000   0.59257362   -7.7294123    842.26204   0.01704018  0.015963331           42 
 4120000   0.59025582   -7.6961483    841.68201  0.017024313  0.015958284           30 
 4121000   0.60019603   -7.7222723    840.64946  0.016999302  0.015953235           41 
 4122000   0.61284554   -7.7134497    840.67983  0.016995791  0.015948188           41 
 4123000   0.60311803   -7.6996962    841.32893  0.017004789  0.015943147           38 
 4124000   0.60476746   -7.7137046    840.63494  0.016986642  0.015938109           29 
 4125000   0.59956294   -7.7237107    842.24587  0.017015068  0.015933069           41 
 4126000    0.5879208   -7.7092631    841.42821   0.01699443  0.015928032           22 
 4127000   0.58646035    -7.692709    841.51046  0.016991973  0.015922995           27 
 4128000   0.59400802    -7.714039    841.95625  0.016996856  0.015917948           21 
 4129000   0.59030106   -7.7216367    843.34131  0.017020693  0.015912907           38 
 4130000   0.59405617   -7.7197408    842.56649  0.017000938  0.015907872           30 
 4131000   0.58695992   -7.7008953    842.56046  0.016996701  0.015902829           25 
 4132000   0.58225658   -7.6921742    840.06844  0.016942329  0.015897781           33 
 4133000   0.59486341   -7.7025686    841.33843  0.016963836  0.015892749            9 
 4134000   0.58731435   -7.7294991    841.62743  0.016965559  0.015887716           15 
 4135000   0.59029471   -7.7265136    842.42707  0.016977571  0.015882689           11 
 4136000   0.60000067    -7.697832    841.51448  0.016955079  0.015877657           28 
 4137000   0.59013371   -7.7100616     841.0309   0.01694124  0.015872633           10 
 4138000   0.58632637   -7.7239195     841.1842  0.016940233  0.015867609           10 
 4139000   0.58199567    -7.714035    841.01599  0.016932753  0.015862572           14 
 4140000   0.59336981   -7.7067715    842.12963   0.01695108  0.015857554           19 
 4141000   0.58259464   -7.6901345    840.95215   0.01692329  0.015852528            9 
 4142000   0.57128028   -7.7227787    842.80531  0.016956489   0.01584751           15 
 4143000   0.57360062   -7.6972319    841.42447  0.016924621  0.015842498            8 
 4144000   0.58874315   -7.7227041    841.59249  0.016923916  0.015837491           12 
 4145000   0.59464266     -7.71771    844.08421  0.016969928  0.015832485           13 
 4146000   0.58025821   -7.6944353    841.04759    0.0169048  0.015827477           15 
 4147000   0.58417937   -7.7062718    841.53927  0.016910603  0.015822476           15 
 4148000   0.58160261   -7.6993716     842.3475  0.016922764  0.015817478           12 
 4149000   0.59353652   -7.7067789    841.61884   0.01690405  0.015812476            7 
 4150000   0.58214226   -7.7246413    843.93632  0.016946512  0.015807477           35 
 4151000   0.59293023   -7.7170061    841.87228  0.016900993  0.015802476           13 
 4152000   0.58502793   -7.7199741    839.81288  0.016855589  0.015797473           13 
 4153000   0.59137143   -7.7046631    840.91993  0.016873745  0.015792471           17 
 4154000   0.58382554   -7.7270084    841.68569  0.016885044  0.015787472            9 
 4155000   0.57716611   -7.7226936    841.84728  0.016884221  0.015782484            8 
 4156000   0.58817846   -7.7067289    842.38251  0.016890891  0.015777494            7 
 4157000   0.57294666   -7.7189365    842.61799  0.016891548  0.015772512            8 
 4158000   0.59363913   -7.7251164    843.29655  0.016901085  0.015767528           22 
 4159000   0.58427212   -7.7209938    842.19519  0.016874954  0.015762545           15 
 4160000   0.58414396   -7.7002057    841.30878  0.016853141  0.015757565            7 
 4161000   0.58095273   -7.7215858    841.71387  0.016857203  0.015752586           10 
 4162000   0.59038645    -7.708902    841.20647  0.016842994  0.015747607           13 
 4163000    0.5800289   -7.7057719    842.20656  0.016858967  0.015742633           11 
 4164000   0.58780362   -7.7438559    840.24897  0.016815741   0.01573766           10 
 4165000   0.58104396    -7.718277    842.49049  0.016856552   0.01573268           11 
 4166000   0.56755966   -7.7239799    842.01726   0.01684304  0.015727706           14 
 4167000    0.5924658   -7.7226061    842.35875  0.016845827  0.015722733           14 
 4168000   0.58696369   -7.7151236    841.76195  0.016829854  0.015717762           10 
 4169000    0.5949934   -7.7342514    842.36421  0.016837855  0.015712788           16 
 4170000   0.60717216   -7.7166123    839.61843  0.016778945  0.015707811           30 
 4171000   0.58695858   -7.7348192    842.24083  0.016827316  0.015702846           24 
 4172000   0.60758263    -7.716179    840.65988  0.016791704  0.015697882           18 
 4173000   0.60308247   -7.7194049    841.28609  0.016800186  0.015692918           18 
 4174000   0.59841928   -7.7433483    843.14953  0.016833364  0.015687958           14 
 4175000   0.58425188   -7.7243097    840.98708  0.016786169  0.015682989           20 
 4176000   0.58659562   -7.7168225    842.57897  0.016813916  0.015678026           16 
 4177000     0.586262   -7.7249161    842.15798  0.016801492  0.015673071           13 
 4178000   0.58920836    -7.724586    841.66933  0.016787724  0.015668114           17 
 4179000   0.59818271   -7.7137621    842.79167  0.016806087  0.015663167           11 
 4180000   0.57889518   -7.7080749    842.39957   0.01679425  0.015658226           33 
 4181000   0.58568443   -7.7031034    843.13544    0.0168049  0.015653288           14 
 4182000    0.5764898   -7.7320239    842.61773  0.016790565  0.015648344           24 
 4183000   0.58213679   -7.7244513    842.12732  0.016776781  0.015643404            9 
 4184000   0.58429359    -7.707511    842.42145   0.01677863  0.015638473           18 
 4185000   0.57073352   -7.7298741    842.00969  0.016766422  0.015633534           20 
 4186000   0.59206672   -7.7247401    840.93491   0.01674102   0.01562859           24 
 4187000    0.5817057   -7.7267949    841.73729  0.016752991  0.015623647           24 
 4188000   0.57664184   -7.7088182    842.23597  0.016758914   0.01561871           26 
 4189000   0.57037187   -7.7034209     841.1269   0.01673285  0.015613777           23 
 4190000   0.57389494   -7.7230924    841.28972  0.016732095  0.015608842           29 
 4191000   0.56938312   -7.7460454    841.89665   0.01674017  0.015603905           37 
 4192000   0.57150776   -7.7279392    842.63033  0.016750762  0.015598971           14 
 4193000   0.58388685   -7.7429011    841.87825   0.01673182  0.015594042           10 
 4194000   0.57944325   -7.7104267    841.81526  0.016726579  0.015589111            8 
 4195000   0.57619347   -7.7263726    841.52462  0.016716818   0.01558418           15 
 4196000   0.57996395   -7.7243384    842.33868  0.016729001  0.015579254           28 
 4197000     0.589585   -7.7176353    841.95036  0.016717305  0.015574327           29 
 4198000   0.58171806   -7.7402495     841.5923  0.016706215  0.015569398           25 
 4199000   0.56707478   -7.7159759    842.37685  0.016717807  0.015564477           12 
 4200000   0.58570543   -7.7250983    840.92346  0.016684989  0.015559553           13 
 4201000   0.58525218   -7.7327766    842.14126  0.016705175  0.015554642           30 
 4202000   0.58383075   -7.7261518    842.15186  0.016701409  0.015549731           14 
 4203000   0.57045962   -7.7350979    840.53499  0.016665378  0.015544816           20 
 4204000   0.58180251   -7.7185521    841.62062  0.016682933    0.0155399           22 
 4205000   0.58366808   -7.7268056    841.69158  0.016680372  0.015534998           26 
 4206000   0.57606868   -7.7386602    842.63528  0.016695104  0.015530096           20 
 4207000   0.58451824   -7.7200277    842.66838  0.016691791  0.015525197           19 
 4208000   0.58749079   -7.7317956    839.84458  0.016631903  0.015520294           35 
 4209000   0.57666757   -7.7377017    840.13978  0.016633796  0.015515393           28 
 4210000   0.57402702   -7.7365598    841.41942  0.016655175  0.015510492           14 
 4211000   0.57782362   -7.7054035    842.15533  0.016665783  0.015505594           12 
 4212000   0.56266252   -7.7143248    841.14104  0.016641758  0.015500696           10 
 4213000   0.58372059   -7.7394093    840.22724  0.016619733  0.015495798           15 
 4214000   0.57651785   -7.7221755    842.09317  0.016652689  0.015490907           26 
 4215000   0.57068516    -7.730879    840.99616  0.016627049  0.015486009           18 
 4216000   0.58571773   -7.7194227    841.91047  0.016641178   0.01548111           29 
 4217000   0.57055023   -7.7376467    842.65019  0.016651849  0.015476207           25 
 4218000   0.57423654   -7.7299219    841.02784   0.01661585  0.015471314           16 
 4219000   0.57851921   -7.7070231    842.41047  0.016639221  0.015466426           24 
 4220000   0.57608642    -7.737284    841.11292  0.016609655  0.015461531           19 
 4221000   0.58526164    -7.732439    841.29196  0.016609254  0.015456645           30 
 4222000   0.57699109   -7.7366556    841.61461  0.016611689  0.015451757           22 
 4223000   0.57941049   -7.7374018    841.14349  0.016598459  0.015446863           27 
 4224000   0.57357624   -7.7493681    842.03435  0.016612104  0.015441974           28 
 4225000   0.58356834   -7.7502195    841.81912  0.016603927  0.015437082           21 
 4226000   0.58161271   -7.7404151    841.71563  0.016597958  0.015432193           24 
 4227000   0.58102493   -7.7307363    843.93467  0.016637778  0.015427309           21 
 4228000   0.56967754   -7.7461014    841.09813  0.016577935  0.015422428           30 
 4229000   0.56931939   -7.7646178    841.50764  0.016582085  0.015417543           29 
 4230000   0.56104897   -7.7494741    841.44953   0.01657702  0.015412659           31 
 4231000   0.59366822   -7.7411335    841.46207  0.016573349  0.015407781           34 
 4232000   0.57372845    -7.724554    840.54302  0.016551336  0.015402918           34 
 4233000   0.57883919   -7.7210495    842.96016  0.016595011  0.015398052           28 
 4234000   0.56894391   -7.7169853    841.28263  0.016558074  0.015393193           30 
 4235000   0.57622711   -7.7182352    840.31861  0.016535195  0.015388329           38 
 4236000   0.57586802   -7.7338527    842.40312  0.016572299  0.015383471           31 
 4237000   0.58663961   -7.7247457    840.71446  0.016535175  0.015378609           31 
 4238000    0.5791649   -7.7431278    841.95335  0.016555635  0.015373751           27 
 4239000   0.57521245   -7.7439272     841.1414  0.016535767  0.015368892           35 
 4240000   0.57625731   -7.7339492    841.01843   0.01652945   0.01536404           28 
 4241000    0.5771767   -7.7500996    840.89176  0.016523064  0.015359194           45 
 4242000   0.57999657   -7.7413348     841.1538  0.016524316  0.015354337           33 
 4243000   0.57508456   -7.7355544    840.49732  0.016507528   0.01534948           45 
 4244000   0.56051296   -7.7482896    839.84074  0.016490747  0.015344628           31 
 4245000   0.57559906   -7.7422875    841.32935  0.016516085  0.015339773           26 
 4246000    0.5746211   -7.7318234    842.40548  0.016533315  0.015334923           33 
 4247000   0.58096637   -7.7441416    840.97051  0.016501266  0.015330068           33 
 4248000   0.56529022   -7.7392682    840.84013  0.016494824  0.015325218           27 
 4249000   0.56837822   -7.7540987    839.75763  0.016469711  0.015320361           24 
 4250000    0.5702505   -7.7399662    840.20496  0.016474607  0.015315506           31 
 4251000   0.56816519   -7.7592479    841.48393  0.016495804  0.015310658           34 
 4252000    0.5772473   -7.7393341    840.73033  0.016477154  0.015305819           33 
 4253000   0.57598246   -7.7558241    842.36646  0.016505339  0.015300975           39 
 4254000   0.57830231   -7.7527988    841.86145  0.016491566  0.015296133           21 
 4255000   0.56944088   -7.7566473    841.25816  0.016475875  0.015291275           31 
 4256000   0.57491613   -7.7526382    840.88021  0.016464603  0.015286429           27 
 4257000   0.57681253   -7.7453875    839.96658  0.016442851  0.015281588           30 
 4258000   0.56961016   -7.7440375    841.12084  0.016461579  0.015276759           46 
 4259000   0.57059918   -7.7443813    840.61328  0.016447783  0.015271926           31 
 4260000   0.56562156   -7.7611909    842.15191   0.01647402  0.015267098           37 
 4261000   0.56251904   -7.7471226    840.10207  0.016430065  0.015262262           42 
 4262000   0.56535683   -7.7610537    841.24097  0.016448478  0.015257425           37 
 4263000   0.56972523   -7.7464059     842.5733  0.016470664  0.015252594           48 
 4264000   0.57165467   -7.7373234    840.51001  0.016426478  0.015247757           43 
 4265000   0.57289128   -7.7518658    841.08142  0.016433791  0.015242927           41 
 4266000    0.5672941   -7.7571036    841.09481    0.0164302  0.015238093           44 
 4267000   0.57349296   -7.7668552    840.11787   0.01640727  0.015233265           37 
 4268000   0.56210173   -7.7523586    840.24173  0.016405844  0.015228433           41 
 4269000   0.56626982   -7.7721051    840.98177  0.016416447  0.015223603           27 
 4270000   0.57519059   -7.7582217    840.00269  0.016393495  0.015218781           40 
 4271000   0.56416271   -7.7747316    842.26647  0.016433826  0.015213957           40 
 4272000   0.56574283   -7.7625612    841.23062  0.016409773  0.015209133           36 
 4273000   0.57028626   -7.7676751    841.20677  0.016405468  0.015204315           33 
 4274000   0.54076706   -7.7678657     840.2497  0.016382969  0.015199489           21 
 4275000   0.56815288   -7.7479528    840.49627  0.016383943  0.015194673           41 
 4276000   0.56231867   -7.7687528     839.7769  0.016366092  0.015189855           30 
 4277000   0.56384637   -7.7693704    839.26374  0.016352267  0.015185039           28 
 4278000   0.55296042   -7.7545214    839.60285   0.01635505  0.015180217           21 
 4279000   0.56669744   -7.7542248    840.04462  0.016359831  0.015175404           23 
 4280000   0.57545893   -7.7792666     839.9926  0.016354996  0.015170585           34 
 4281000   0.55764561   -7.7493678     838.5451  0.016322999  0.015165771           30 
 4282000   0.57177828    -7.754432     839.5477  0.016338699  0.015160952           28 
 4283000   0.55596816   -7.7634901     840.5961  0.016355283  0.015156136           28 
 4284000   0.55477163   -7.7627557    841.43147  0.016367715   0.01515132           38 
 4285000   0.55314116     -7.79178      840.698   0.01634963  0.015146506           31 
 4286000   0.57644281   -7.7830434    840.01175  0.016332473  0.015141693           27 
 4287000   0.56841883    -7.756021    839.36361  0.016316064  0.015136888           30 
 4288000   0.56622038   -7.7737974    839.55619  0.016316002  0.015132071           25 
 4289000   0.56613999   -7.7661815    840.86058  0.016337541  0.015127256           31 
 4290000   0.55347066   -7.7619568    840.52236  0.016327163  0.015122452           28 
 4291000   0.56411113   -7.7787475    840.74868  0.016327753  0.015117644           34 
 4292000   0.55970803   -7.7632569    840.27164  0.016314687  0.015112836           20 
 4293000   0.55586932   -7.7765183     840.0909  0.016307378  0.015108032           27 
 4294000   0.55945498    -7.779196    839.40825  0.016290332  0.015103227           24 
 4295000   0.55670102   -7.7702472    840.74159   0.01631241  0.015098427           19 
 4296000   0.56059845   -7.7691547    840.17561  0.016297634  0.015093629           25 
 4297000   0.56418339   -7.7698691    840.62405  0.016302538  0.015088836           24 
 4298000   0.57211345    -7.760551    840.05299  0.016287672  0.015084042           31 
 4299000   0.58796607   -7.7817118    841.87023   0.01631911  0.015079251           26 
 4300000   0.55776159   -7.7699475    839.85102  0.016276183  0.015074462           28 
 4301000   0.55796635   -7.7773303    839.93327  0.016273992  0.015069673           22 
 4302000   0.57427364   -7.7516904    839.39767  0.016259834   0.01506489           24 
 4303000    0.5683153   -7.7657357     840.9366  0.016285859  0.015060105           26 
 4304000   0.56253832   -7.7623042    840.81712  0.016279761  0.015055327           27 
 4305000    0.5639946   -7.7442596     839.0674   0.01624211  0.015050544           24 
 4306000   0.56601907   -7.7474402     840.9096   0.01627399  0.015045768           23 
 4307000   0.54081656   -7.7453874    840.20456   0.01625657  0.015040994           40 
 4308000   0.56103449   -7.7620226    841.73237   0.01628235  0.015036212           19 
 4309000   0.55789868    -7.782319    838.82197  0.016222286  0.015031429           36 
 4310000   0.57467355   -7.7857994    840.53167  0.016251579  0.015026645           30 
 4311000   0.56007657   -7.7851536    840.94458  0.016255791   0.01502187           19 
 4312000   0.57264705   -7.7687599    841.14284  0.016255853  0.015017095           24 
 4313000   0.56393464   -7.7784311    840.54281   0.01624049  0.015012326           44 
 4314000   0.56264386   -7.7666196    840.65142  0.016238824  0.015007555           50 
 4315000   0.55057143   -7.7716249    840.65255  0.016235082  0.015002788           38 
 4316000   0.55715504   -7.7693608    839.19878  0.016203251  0.014998016           35 
 4317000   0.55201878   -7.7911429     840.3669  0.016222047  0.014993247           34 
 4318000   0.57103602   -7.7899082    840.44066  0.016219713  0.014988475           47 
 4319000   0.55881977    -7.766107    840.24215  0.016212128  0.014983702           32 
 4320000   0.55731205   -7.7899994    841.30248  0.016228829  0.014978938           45 
 4321000   0.56467218   -7.7876035    839.29578  0.016186372  0.014974175           35 
 4322000    0.5502051   -7.7810385    839.17182  0.016180237  0.014969415           24 
 4323000   0.54545551   -7.7766812    839.71641  0.016186992  0.014964654           50 
 4324000   0.55630621   -7.7705948    841.91817  0.016225682  0.014959898           48 
 4325000   0.55337905   -7.7781778    840.20216  0.016188866  0.014955142           28 
 4326000   0.55636467    -7.783876    840.90451  0.016198654  0.014950387           42 
 4327000   0.55578457   -7.8031614    840.04938  0.016178441  0.014945629           51 
 4328000   0.55266737   -7.7769308    840.26096  0.016178777  0.014940879           48 
 4329000   0.53724806   -7.7916282    839.31994  0.016156925   0.01493613           67 
 4330000   0.56560291   -7.7833065     838.9878  0.016146801  0.014931383           29 
 4331000    0.5433533   -7.7627916    841.09066  0.016183535  0.014926635           41 
 4332000   0.55369116   -7.7792878       840.85  0.016175169  0.014921894           35 
 4333000   0.55564366   -7.7701175    838.21365  0.016120733  0.014917146           31 
 4334000   0.55533566   -7.7782634    839.52231  0.016142176  0.014912398           32 
 4335000     0.565982   -7.7868833    839.15688  0.016131428  0.014907658           57 
 4336000   0.56148546   -7.7907236    840.22642  0.016148263  0.014902914           65 
 4337000    0.5576122   -7.7780869    839.31695  0.016127065   0.01489817           27 
 4338000   0.56299671   -7.7843772    839.32039  0.016123413  0.014893435           54 
 4339000   0.55117901   -7.7965773    838.99167  0.016113384  0.014888695           42 
 4340000   0.55997953   -7.7771207    839.27107  0.016115036  0.014883957           20 
 4341000   0.56117376    -7.776342    839.55526  0.016116779  0.014879227           41 
 4342000   0.55218108   -7.7906619    840.25179  0.016126435  0.014874498           39 
 4343000   0.55784706   -7.8122455    839.25903  0.016103673  0.014869769           61 
 4344000   0.57127608   -7.7799299    839.22336  0.016099282  0.014865043           42 
 4345000   0.55516943   -7.7988128    840.09149  0.016112226  0.014860319           62 
 4346000    0.5626091   -7.7831263    840.49927  0.016116338  0.014855595           60 
 4347000   0.55056064   -7.7725826    839.45364  0.016092586  0.014850872           34 
 4348000   0.56728586   -7.7945272    839.05263  0.016081199  0.014846151           81 
 4349000   0.56623964   -7.7991695    838.49773  0.016066868  0.014841431           34 
 4350000   0.55290415   -7.7718945    839.14379  0.016075552  0.014836716           37 
 4351000   0.55006599   -7.7793563    838.87132  0.016066638  0.014832003           49 
 4352000   0.55588798   -7.7768931    839.10039  0.016067333   0.01482729           44 
 4353000   0.54996453   -7.7751986    841.99997  0.016119151   0.01482258          108 
 4354000   0.55279532   -7.7982666    839.67675  0.016070984  0.014817873           60 
 4355000    0.5435115   -7.7796949    840.80819  0.016088944  0.014813165           37 
 4356000   0.54755254   -7.7966772    838.74295   0.01604574  0.014808461           20 
 4357000   0.55522792   -7.7994173    838.54074   0.01603819  0.014803755           27 
 4358000   0.55027227   -7.7893612    838.05816  0.016025282  0.014799051           40 
 4359000   0.56035134   -7.7874839    841.30876  0.016083749  0.014794348           30 
 4360000   0.54939289   -7.7928855    840.26736  0.016060156  0.014789658           62 
 4361000    0.5507683   -7.7817181    839.35608   0.01603906  0.014784963           29 
 4362000   0.53878794   -7.7954918    840.89884  0.016064856  0.014780262           35 
 4363000   0.55099058   -7.8026379    838.32281  0.016011972  0.014775565           54 
 4364000   0.55335332   -7.7786439    838.88204  0.016018982  0.014770875           35 
 4365000   0.54718526   -7.7945894    839.71669  0.016031247  0.014766177           30 
 4366000   0.55336944   -7.7774018    839.80815   0.01602932  0.014761484           49 
 4367000   0.54870181   -7.7860304    840.94405  0.016047326  0.014756798           33 
 4368000   0.55281871    -7.782001    840.80025  0.016040908  0.014752111           38 
 4369000   0.54784654   -7.7816296     839.5006  0.016012448  0.014747425           51 
 4370000   0.56241447   -7.7976154     840.7859  0.016033293  0.014742742           33 
 4371000   0.54880611   -7.7877565    841.09319  0.016035484  0.014738065           79 
 4372000   0.54312018   -7.8034108    837.79887  0.015969024  0.014733388           61 
 4373000    0.5406606   -7.7942004    840.74282  0.016021473  0.014728705           54 
 4374000   0.54408248   -7.7953196    839.64155  0.015996829   0.01472403           26 
 4375000   0.55562774   -7.8053384    839.24803  0.015985677  0.014719351           37 
 4376000   0.54517565    -7.785758    840.01803  0.015996687  0.014714672           51 
 4377000   0.53203881   -7.7922978    839.88202  0.015990443  0.014709998           36 
 4378000   0.56726858   -7.7895284    840.15484  0.015991983  0.014705332           71 
 4379000   0.54467606   -7.7892488    838.24952  0.015952073  0.014700666           54 
 4380000   0.55379545   -7.7859484    839.17455   0.01596603  0.014695994           23 
 4381000    0.5575312   -7.7970199    840.07614  0.015979536  0.014691331           56 
 4382000   0.54943638   -7.8022567    839.96851  0.015973842  0.014686664           24 
 4383000   0.55068252   -7.7855727    838.48551  0.015942002  0.014682002           40 
 4384000   0.55055694    -7.801767    837.89247  0.015927092  0.014677342           33 
 4385000   0.54948358   -7.7924234    839.26764  0.015949594  0.014672679           52 
 4386000   0.54106657   -7.7970061    838.78628  0.015936812  0.014668014           50 
 4387000    0.5580629   -7.7837409    839.68229  0.015950199  0.014663359           33 
 4388000   0.55672333     -7.77612     840.3351  0.015958962  0.014658701           44 
 4389000   0.54574857   -7.7845311    839.22975  0.015934339  0.014654042           49 
 4390000   0.53923378   -7.8018344    839.54159  0.015936629  0.014649384           80 
 4391000   0.54383855   -7.8014642    838.58205  0.015914789  0.014644726           51 
 4392000   0.55689314   -7.8075198    839.01447   0.01591937  0.014640075           56 
 4393000   0.54371478   -7.7831651    838.23726  0.015901003  0.014635418           39 
 4394000   0.55595177   -7.7890007    837.74629  0.015888073  0.014630766           48 
 4395000   0.53626907     -7.80043    838.85455  0.015905471  0.014626112           36 
 4396000   0.53977427   -7.7833744    838.20992  0.015889633  0.014621461           71 
 4397000   0.55304153     -7.77732    838.70651  0.015895431  0.014616809           46 
 4398000    0.5443681   -7.7943173    840.18616  0.015919853  0.014612165           66 
 4399000   0.54606469   -7.7887854    839.17192  0.015897021  0.014607519           39 
 4400000   0.53820495   -7.7993223     839.9159  0.015907498  0.014602876           35 
 4401000   0.55058455   -7.7955281    840.87827  0.015922106  0.014598236           43 
 4402000   0.54743902   -7.7963092    839.08375  0.015884517  0.014593594           63 
 4403000   0.54063883   -7.8000923    839.69823   0.01589254  0.014588957           54 
 4404000   0.54523057   -7.7820121    837.89065  0.015854728  0.014584326           66 
 4405000   0.53934551   -7.7966181    837.54605  0.015844609  0.014579691           60 
 4406000   0.55004827   -7.7872345    839.07705   0.01586997  0.014575055           67 
 4407000   0.53454315   -7.7953913    839.35118  0.015871553   0.01457043           48 
 4408000   0.54958598   -7.8030605    838.34943  0.015849014    0.0145658           50 
 4409000   0.57003146   -7.7918329    839.15545  0.015860653   0.01456118           40 
 4410000   0.54855328   -7.8116426    838.42117  0.015843182  0.014556549           45 
 4411000   0.54075131   -7.7859638    838.06984  0.015832953  0.014551924           56 
 4412000   0.53164324   -7.7992331    838.61124   0.01583959  0.014547308           44 
 4413000   0.55230397   -7.8045034    840.05987  0.015863356   0.01454269           56 
 4414000   0.54661695   -7.7872205    838.77386  0.015835483  0.014538073           53 
 4415000   0.54305314   -7.8142727    839.72461  0.015849842  0.014533456           51 
 4416000   0.54392137   -7.8052176    839.74612  0.015846658  0.014528842           50 
 4417000   0.53261427   -7.8155616    839.61854  0.015840664  0.014524218           32 
 4418000   0.54657442   -7.8188163    839.82352  0.015840945  0.014519606           44 
 4419000   0.54197919   -7.7916497    838.77326  0.015817554  0.014514994           58 
 4420000   0.55306093   -7.8255835    838.62637  0.015811206  0.014510391           29 
 4421000    0.5428681   -7.7926437    839.04107  0.015815447  0.014505783           54 
 4422000   0.54714768   -7.7924812    838.96151  0.015810371  0.014501181           35 
 4423000   0.54996857   -7.7785054    839.28181  0.015812831   0.01449658           32 
 4424000   0.55503348   -7.7906098    838.25196  0.015789858  0.014491982           72 
 4425000   0.55154994   -7.8067816    838.48949  0.015790763  0.014487382           41 
 4426000   0.53910162   -7.7994154    839.53806  0.015806937  0.014482776           46 
 4427000   0.53781719   -7.8066276    838.48695  0.015783581  0.014478179           39 
 4428000   0.53757083   -7.8103539    837.73473   0.01576586  0.014473582           35 
 4429000   0.54309965    -7.793084    837.17339  0.015751738  0.014468983           55 
 4430000   0.54054522   -7.7954356    837.79005  0.015759783  0.014464383           46 
 4431000   0.54514714    -7.817803    837.61477   0.01575293  0.014459788           40 
 4432000   0.54007088   -7.7954131    839.28984  0.015780871  0.014455194           42 
 4433000   0.54916495   -7.7912204     839.2634  0.015776814  0.014450606           49 
 4434000   0.54177382    -7.816743    840.25333  0.015791861  0.014446018           39 
 4435000   0.53394343   -7.7942274     839.0518  0.015765723  0.014441431           30 
 4436000   0.53984163    -7.808856    838.61613  0.015753985  0.014436843           36 
 4437000   0.53235251   -7.8043197    837.56224  0.015730641  0.014432256           26 
 4438000   0.55500722    -7.818384    838.43597  0.015743502  0.014427675           52 
 4439000   0.54089829    -7.801428    837.97105  0.015731228  0.014423096           33 
 4440000   0.55055163   -7.7829003    839.66993  0.015759571  0.014418518           27 
 4441000    0.5533993   -7.8084206    839.15067  0.015746278  0.014413941           45 
 4442000   0.53122366   -7.8178996     837.6705  0.015714965  0.014409363           34 
 4443000   0.54865955   -7.8151322    838.38711  0.015724869   0.01440478           52 
 4444000   0.53564208   -7.8029704    838.16141  0.015717098  0.014400202           41 
 4445000   0.54462744   -7.8237759    839.35364  0.015735914  0.014395626           20 
 4446000   0.54007117   -7.8254757    837.29189   0.01569373  0.014391048           33 
 4447000   0.54295145   -7.8133894    839.47876  0.015731181  0.014386476           65 
 4448000   0.54610164   -7.8302417    837.91737  0.015698392    0.0143819           37 
 4449000   0.54506487   -7.8154721    840.23578  0.015738289  0.014377332           50 
 4450000    0.5418423   -7.8193697    838.86777  0.015709134  0.014372764           34 
 4451000   0.54119799   -7.8330331     839.5747   0.01571884  0.014368196           37 
 4452000   0.52783908   -7.8188765    839.30852  0.015710327  0.014363629           48 
 4453000   0.54711439   -7.8244946    837.77821  0.015678161  0.014359072           47 
 4454000   0.54673057   -7.8167293    837.60682  0.015671434  0.014354506           55 
 4455000   0.53954217   -7.8062608    837.03045  0.015657135  0.014349944           48 
 4456000      0.54454   -7.8213248    838.19457  0.015675392  0.014345377           34 
 4457000   0.54128654    -7.857759     840.5326   0.01571559  0.014340811           35 
 4458000   0.53491534   -7.8246175    837.97516  0.015664258  0.014336247           68 
 4459000   0.54669552   -7.8462796    837.35603  0.015649174  0.014331688           24 
 4460000   0.54622059   -7.8115418     837.8665  0.015655204  0.014327128           30 
 4461000   0.52567957   -7.8160466    838.23308  0.015658542  0.014322571           43 
 4462000   0.53542484   -7.8266275    837.68769  0.015644847  0.014318016           29 
 4463000   0.53120603   -7.8409807    837.60887   0.01563987  0.014313463           35 
 4464000    0.5307941   -7.8202782    837.33076  0.015631175  0.014308909           44 
 4465000   0.52821501    -7.822859    837.49005  0.015630647  0.014304358           40 
 4466000   0.53409188   -7.8365643     838.3711  0.015643587   0.01429981           43 
 4467000   0.54974656   -7.8317537    836.43936  0.015604047  0.014295258           31 
 4468000   0.54053778   -7.8175398    838.02845  0.015630193  0.014290715           52 
 4469000   0.53839482   -7.8010218    838.47954  0.015635107  0.014286175           37 
 4470000   0.53196442   -7.8200129    837.33987  0.015610363  0.014281632           38 
 4471000   0.53807202   -7.8150888     839.2533  0.015642535  0.014277096           27 
 4472000   0.53678345   -7.8226714    838.43158  0.015623725  0.014272567           29 
 4473000   0.52919718    -7.815888    837.93344  0.015610952  0.014268033           37 
 4474000   0.52976608   -7.8465213    838.76801  0.015623007  0.014263505           40 
 4475000    0.5410519   -7.8051995    839.09876  0.015625675  0.014258976           40 
 4476000   0.54199268   -7.8138082    837.57453  0.015593806  0.014254447           42 
 4477000   0.53344766   -7.8269331    836.66595  0.015573411   0.01424992           49 
 4478000   0.54783213   -7.8141092    838.48451  0.015603776  0.014245397           55 
 4479000    0.5402596   -7.8216835    837.40263  0.015580164  0.014240872           46 
 4480000   0.54394196    -7.825173    838.16818  0.015590926  0.014236357           35 
 4481000   0.54549532   -7.8139563    839.85617  0.015618838   0.01423184           47 
 4482000    0.5299906   -7.8146459    839.14622  0.015602154  0.014227324           57 
 4483000   0.52349284   -7.8365249    837.85553  0.015574681  0.014222809           27 
 4484000   0.52811481   -7.8107522    837.58203  0.015566124  0.014218293           50 
 4485000   0.53760065   -7.8320938    837.26286  0.015556723  0.014213775           35 
 4486000   0.52438899   -7.8169552    838.38623  0.015574124  0.014209264           57 
 4487000   0.54143186   -7.8225555    838.00692  0.015563608  0.014204755           40 
 4488000    0.5363789   -7.8177609    839.41845   0.01558635   0.01420025           55 
 4489000   0.53415472   -7.8130849    838.75747  0.015570607  0.014195743           55 
 4490000   0.53305878   -7.8163764    836.75997  0.015530066  0.014191241           73 
 4491000   0.53429563   -7.8236965    838.90487  0.015566408   0.01418674           35 
 4492000   0.53303866   -7.8129191    838.13314  0.015548626  0.014182237           33 
 4493000   0.54105512   -7.8213017    838.96924  0.015560673  0.014177736           40 
 4494000   0.53336825   -7.8279381     837.1881  0.015524182  0.014173237           40 
 4495000   0.53466409   -7.8202939    838.20981   0.01553967  0.014168737           41 
 4496000   0.53689358   -7.8241515     838.3448  0.015538716  0.014164242           44 
 4497000   0.53748227   -7.8287476    837.57841  0.015521059   0.01415975           44 
 4498000   0.53220033   -7.8239256      837.777  0.015521287  0.014155259           49 
 4499000   0.53574559   -7.8273961    837.61685  0.015514871  0.014150767           47 
 4500000   0.53247169   -7.8175413    837.83044  0.015515379  0.014146275           41 
 4501000   0.52307866   -7.8231481    837.10789  0.015498554  0.014141785           55 
 4502000   0.53544686   -7.8286323    837.35873  0.015499754  0.014137294           55 
 4503000   0.54439221   -7.8240345    837.73841  0.015503339  0.014132807           47 
 4504000   0.53398341   -7.8306623    837.07358  0.015487596  0.014128323           55 
 4505000   0.53871686    -7.829679    838.11816   0.01550348  0.014123839           52 
 4506000   0.53319731   -7.8247379    837.71334  0.015492553  0.014119359           45 
 4507000   0.53591669    -7.830175    836.86478  0.015473426  0.014114875           50 
 4508000   0.53869166   -7.8463622    838.47364  0.015499735  0.014110393           59 
 4509000   0.52027177   -7.8319961     837.7462  0.015482853  0.014105909           51 
 4510000   0.52784185   -7.8375116    838.23927  0.015488531  0.014101436           53 
 4511000   0.53503065   -7.8301721     836.9819  0.015461869  0.014096964           52 
 4512000   0.52433188   -7.8406777    836.49654  0.015449478  0.014092492           67 
 4513000   0.52919548   -7.8289611    838.22441   0.01547796  0.014088022           55 
 4514000   0.53005202   -7.8167807    836.67296   0.01544589   0.01408355           48 
 4515000   0.53422295    -7.826512    838.04235  0.015467744  0.014079081           62 
 4516000   0.52632401   -7.8400412    838.91069  0.015480342  0.014074616           37 
 4517000    0.5214441   -7.8427213    837.84862  0.015457321  0.014070154           47 
 4518000   0.53274715   -7.8353573    837.48378   0.01544717   0.01406569           49 
 4519000   0.52626422   -7.8549173    837.67714  0.015447318  0.014061224           43 
 4520000   0.53419893   -7.8328039    838.58135  0.015460571  0.014056759           32 
 4521000   0.53001782   -7.8431073    837.45306  0.015436354  0.014052296           46 
 4522000   0.53692107   -7.8363335    838.20483  0.015446794  0.014047841           56 
 4523000   0.52299604   -7.8473503    835.88461   0.01540063  0.014043381           58 
 4524000   0.52540845   -7.8342987    837.50382  0.015427052  0.014038923           65 
 4525000   0.52803797   -7.8235432       837.36  0.015420994  0.014034466           44 
 4526000   0.51985895   -7.8468567    838.19467  0.015432955  0.014030017           40 
 4527000   0.51352979   -7.8393519    837.23801  0.015411936  0.014025568           56 
 4528000   0.52034395   -7.8196345    836.21264  0.015389661  0.014021118           61 
 4529000   0.53085477   -7.8406941    836.58395  0.015393095  0.014016662           56 
 4530000   0.52560425   -7.8395339    837.28461  0.015402587  0.014012218           49 
 4531000    0.5244904    -7.835423    837.88265  0.015410186  0.014007771           38 
 4532000   0.53500019      -7.8401     837.3136  0.015396323  0.014003331           47 
 4533000    0.5204984   -7.8224989    836.86006  0.015384588  0.013998885           51 
 4534000   0.52215672   -7.8742273    837.63475  0.015395434  0.013994442           55 
 4535000   0.51959158   -7.8509719    837.25474  0.015385056  0.013990007           45 
 4536000    0.5364423   -7.8504271    837.14402   0.01537963  0.013985566           51 
 4537000   0.53625392   -7.8431397    836.72543  0.015368552  0.013981127           41 
 4538000   0.52467222   -7.8484197    836.51416  0.015361286  0.013976684           34 
 4539000   0.52207081   -7.8360597    837.12652  0.015369144  0.013972241           50 
 4540000   0.52683425   -7.8423072    836.94654  0.015362455  0.013967806           61 
 4541000   0.52272101   -7.8460614    837.44931  0.015368298  0.013963368           46 
 4542000   0.52340754   -7.8490809    836.21038  0.015342184  0.013958934           37 
 4543000   0.52345707    -7.851313    838.34616  0.015377984  0.013954503           51 
 4544000   0.51959299   -7.8527769    837.26598   0.01535479  0.013950074           58 
 4545000   0.52011225   -7.8385528    836.97632  0.015346101  0.013945643           47 
 4546000   0.53107719   -7.8536247     838.4068  0.015368947  0.013941216           44 
 4547000   0.52780243   -7.8400181    837.45642  0.015348149  0.013936792           46 
 4548000   0.52511313   -7.8442205    836.48776  0.015327026  0.013932369           58 
 4549000   0.52749721   -7.8578496    837.90613   0.01534964  0.013927945           32 
 4550000   0.51185682   -7.8477916    836.99663  0.015329609  0.013923524           56 
 4551000   0.52934062   -7.8386493    838.50756  0.015353907  0.013919109           46 
 4552000   0.53507897   -7.8601938    835.88237  0.015302475  0.013914694           51 
 4553000   0.53013776   -7.8510334    836.69272  0.015313945  0.013910278           45 
 4554000   0.52418966   -7.8452406    837.06777  0.015317446  0.013905863           44 
 4555000   0.53078393   -7.8453372    836.40236  0.015301909  0.013901447           49 
 4556000   0.52165239   -7.8502347    837.92744  0.015326446  0.013897038           41 
 4557000   0.51560877   -7.8618617     837.9318  0.015323162  0.013892624           39 
 4558000   0.52845997   -7.8651959    835.79542  0.015280741  0.013888215           53 
 4559000   0.52552641   -7.8579259    837.12205  0.015301639  0.013883808           46 
 4560000   0.52395104    -7.839479    836.53142  0.015287489  0.013879402           36 
 4561000   0.52555232   -7.8507043    838.57031   0.01532139  0.013874995           47 
 4562000   0.51799367   -7.8558823    837.86225  0.015305097  0.013870589           32 
 4563000    0.5090503   -7.8523598    837.64158  0.015297713  0.013866189           48 
 4564000   0.53265984   -7.8513661    836.95301  0.015281789  0.013861788           38 
 4565000   0.52154622   -7.8566468    837.18638  0.015282701  0.013857389           41 
 4566000   0.51544169   -7.8530513    837.17759  0.015279194  0.013852987           59 
 4567000   0.51147327   -7.8407351    836.75537  0.015268144  0.013848593           42 
 4568000   0.52739353   -7.8582131    836.72653  0.015264276    0.0138442           38 
 4569000   0.52611406   -7.8497276    836.15988    0.0152506  0.013839809           36 
 4570000    0.5083506   -7.8511907    838.14629  0.015283484  0.013835419           34 
 4571000   0.52750394   -7.8675591    836.76474  0.015254954  0.013831029           42 
 4572000   0.50818182   -7.8539644    835.93905  0.015236568  0.013826635           55 
 4573000   0.52887065   -7.8646427    837.36742  0.015259265  0.013822254           37 
 4574000   0.53448339    -7.858087    837.33332  0.015255308  0.013817875           26 
 4575000   0.51538137   -7.8442348    836.97883  0.015245516  0.013813499           50 
 4576000   0.51802246   -7.8658487    836.56348  0.015234621  0.013809113           36 
 4577000   0.52511781   -7.8502728     835.5033  0.015211989  0.013804732           29 
 4578000   0.52526973   -7.8796916     836.7263  0.015230929  0.013800348           42 
 4579000   0.51901811    -7.838713    835.17219  0.015199319  0.013795969           55 
 4580000    0.5264234   -7.8719472    836.51117  0.015220363  0.013791593           27 
 4581000   0.52163434   -7.8613445    837.02869  0.015226455  0.013787216           45 
 4582000   0.50981174   -7.8471853    836.31037  0.015210068  0.013782835           34 
 4583000    0.5192536   -7.8705108    837.33058    0.0152253  0.013778464           36 
 4584000   0.52338501   -7.8728341    836.76797  0.015211751  0.013774092           39 
 4585000   0.52076217   -7.8635755    835.35176  0.015182693  0.013769719           47 
 4586000   0.50519285   -7.8458354    836.53179  0.015200825  0.013765345           37 
 4587000   0.50858479   -7.8681897    836.66435  0.015199919   0.01376098           25 
 4588000   0.52268505    -7.875859     837.3798  0.015209601  0.013756617           41 
 4589000   0.52519737   -7.8512357    837.09312  0.015201081   0.01375225           35 
 4590000   0.52475688   -7.8709262    836.82248  0.015192856  0.013747892           45 
 4591000   0.50282924   -7.8417283     835.9765  0.015174191  0.013743528           28 
 4592000   0.52398347   -7.8450226    836.59921  0.015182187  0.013739173           49 
 4593000   0.50225353   -7.8469639    838.37698  0.015211136  0.013734817           55 
 4594000   0.52220938   -7.8663575    836.51828  0.015174109  0.013730461           42 
 4595000   0.51780514   -7.8429556    835.60525  0.015154248  0.013726109           30 
 4596000   0.51409802   -7.8569046    836.76106  0.015171908  0.013721752           35 
 4597000   0.52313741   -7.8755499    836.40355  0.015162127    0.0137174           64 
 4598000   0.51015716   -7.8585816    836.39451  0.015158665  0.013713051           36 
 4599000    0.5161126   -7.8649745    835.80403   0.01514467  0.013708704           41 
 4600000   0.51162124   -7.8564578    837.83418  0.015178155  0.013704357           52 
 4601000    0.5193794   -7.8749423     838.5372   0.01518759  0.013700012           43 
 4602000   0.51418608    -7.860399    836.25896  0.015143035  0.013695669           38 
 4603000   0.51683892   -7.8744415    836.77433  0.015149075  0.013691328           32 
 4604000     0.516697   -7.8719704    836.68408  0.015144151  0.013686986           25 
 4605000   0.51426415   -7.8581087     836.8954  0.015144687  0.013682651           45 
 4606000    0.5127255   -7.8515399    834.92996  0.015105839  0.013678319           33 
 4607000   0.50921284   -7.8544772    835.96255  0.015121239   0.01367399           39 
 4608000   0.49946844   -7.8672649    836.89923  0.015134896  0.013669657           40 
 4609000   0.52456246   -7.8556154    836.88641  0.015131381  0.013665327           44 
 4610000   0.50465356   -7.8651175    836.57056  0.015122389  0.013660996           42 
 4611000   0.50786786   -7.8893144     835.9218  0.015107384  0.013656662           50 
 4612000   0.51166598   -7.8707815    835.59046  0.015098122  0.013652332           51 
 4613000   0.51473911   -7.8696585    836.89916  0.015118491  0.013648008           40 
 4614000   0.50822359   -7.8628435    837.57185  0.015127363  0.013643685           57 
 4615000   0.50763191   -7.8694693    835.98989   0.01509552  0.013639362           36 
 4616000   0.51631234    -7.868613    836.57399  0.015102794  0.013635043           53 
 4617000   0.49959285   -7.8701898    836.05061  0.015090077  0.013630721           47 
 4618000   0.52074029   -7.8666989    835.77891  0.015081906  0.013626405           38 
 4619000   0.51693655   -7.8640725    836.74219   0.01509602  0.013622088           30 
 4620000   0.51240973   -7.8624867    836.07418  0.015080703  0.013617778           43 
 4621000   0.52431877   -7.8556408    837.53082  0.015103708  0.013613465           48 
 4622000    0.5162167   -7.8756877    836.90493  0.015089156  0.013609155           68 
 4623000   0.51388405   -7.8730414    836.66395  0.015081548  0.013604843           37 
 4624000   0.50954491   -7.8648534    835.09579  0.015050025  0.013600531           30 
 4625000   0.50284368   -7.8685308    836.92067  0.015079652  0.013596225           40 
 4626000   0.51369402   -7.8575778     836.9842  0.015077536  0.013591916           47 
 4627000   0.50904421   -7.8745421    835.84826  0.015053819  0.013587611           51 
 4628000   0.50082876   -7.8535243    836.22411  0.015057334   0.01358331           55 
 4629000   0.50797144   -7.8614199     837.2146  0.015071912  0.013579011           69 
 4630000   0.50864995    -7.852192    835.06656  0.015029996  0.013574708           59 
 4631000   0.50493862   -7.8761539    836.06783  0.015044768   0.01357041           48 
 4632000   0.52344182    -7.855375    836.81192  0.015054906  0.013566113           49 
 4633000   0.51346632   -7.8568624    836.24893  0.015041531  0.013561818           37 
 4634000   0.51269725   -7.8759286    836.04671  0.015034648  0.013557525           32 
 4635000   0.51262163   -7.8708001     836.1718  0.015033653  0.013553228           33 
 4636000   0.51423797   -7.8759533    836.14886  0.015029998  0.013548934           58 
 4637000   0.50494583   -7.8791013    836.48801  0.015032852  0.013544644           54 
 4638000   0.50964796   -7.8791617    835.20075  0.015006482  0.013540353           49 
 4639000   0.50321894   -7.8755604    835.03896  0.015000341  0.013536064           47 
 4640000   0.51541091   -7.8655068    836.55452  0.015024327  0.013531777           43 
 4641000   0.50798461   -7.8671032    835.00725  0.014993307  0.013527492           36 
 4642000   0.51766319   -7.8742236    836.39154  0.015014928  0.013523211           51 
 4643000   0.50807304   -7.8748151    834.22474  0.014972804  0.013518927           51 
 4644000   0.51189832   -7.8687137    835.92103  0.015000018  0.013514646           37 
 4645000    0.5137378   -7.8750786    835.63153  0.014991595  0.013510367           36 
 4646000   0.50717608   -7.8751597    836.34015  0.015001079  0.013506086           54 
 4647000   0.51398639     -7.87395    837.08639  0.015011233  0.013501811           63 
 4648000   0.50657931   -7.8956829    836.92902  0.015005182  0.013497535           37 
 4649000   0.50343151   -7.8972286    834.97076  0.014966852   0.01349326           53 
 4650000   0.51453793   -7.8677575    836.64704  0.014993675  0.013488981           53 
 4651000   0.49915281   -7.8670868    835.81119  0.014975475  0.013484709           34 
 4652000   0.50380333   -7.8853601    836.06254  0.014976758  0.013480439           46 
 4653000   0.50841994   -7.8799628     836.0127  0.014972647  0.013476168           48 
 4654000   0.49655866   -7.8758704    835.37939   0.01495809  0.013471899           51 
 4655000   0.50781178   -7.8696656    835.32698  0.014953938   0.01346763           36 
 4656000   0.51121769   -7.8737541    835.69088  0.014957239  0.013463365           41 
 4657000   0.50779605   -7.8801639    835.99599  0.014959487  0.013459104           48 
 4658000   0.50805442   -7.8732961    834.95534  0.014937658  0.013454841           29 
 4659000   0.51167403   -7.8701993    835.32392  0.014941045  0.013450582           53 
 4660000   0.49975666   -7.8814899    835.60263  0.014942822  0.013446331           55 
 4661000   0.50532418   -7.8650525    834.33552  0.014916962  0.013442074           47 
 4662000   0.51041607   -7.8743541    836.70384  0.014956096  0.013437821           53 
 4663000   0.51154006   -7.8886412    835.77618   0.01493631  0.013433568           48 
 4664000   0.50487041   -7.8834455    835.22683  0.014923292  0.013429313           45 
 4665000   0.51418344   -7.8760533    835.38024  0.014922834  0.013425059           53 
 4666000    0.5097342   -7.8833459    836.27064  0.014935538  0.013420813           52 
 4667000   0.51301371   -7.8733257    835.21338  0.014913459  0.013416561           43 
 4668000   0.51041792   -7.8822547    835.03706  0.014907117  0.013412315           26 
 4669000   0.49735648   -7.8856749    835.62232   0.01491437  0.013408071           39 
 4670000   0.50352048   -7.8779653    835.84033  0.014915067  0.013403825           31 
 4671000   0.50846041   -7.8716121    835.96351  0.014914071  0.013399582           45 
 4672000   0.50546995   -7.9103172    837.53815  0.014938965  0.013395341           44 
 4673000   0.51250164   -7.8893299    836.09703  0.014910069  0.013391102           43 
 4674000   0.50331722   -7.8843552    834.95234   0.01488647  0.013386861           48 
 4675000    0.5099614   -7.8697992    834.12006   0.01486845  0.013382623           64 
 4676000   0.50554027   -7.8988539    834.94911  0.014880046  0.013378386           53 
 4677000   0.51125084   -7.9025221    835.50192  0.014886714  0.013374147           30 
 4678000   0.49508068    -7.898996    834.47811  0.014865293   0.01336991           37 
 4679000   0.49675477   -7.8881117    835.52631  0.014880785  0.013365677           28 
 4680000    0.5036492   -7.8846224    836.14944  0.014888701  0.013361445           52 
 4681000   0.50779578   -7.8858731    836.65864  0.014894585  0.013357219           47 
 4682000   0.51309382   -7.8855201    835.74595  0.014875159  0.013352993           37 
 4683000   0.50031794   -7.8837251    835.37911  0.014865455   0.01334877           48 
 4684000   0.50619126   -7.8988768    835.48697    0.0148642  0.013344541           45 
 4685000   0.50303952   -7.8804105    834.75752  0.014848053  0.013340314           34 
 4686000   0.50963872   -7.8922047    834.86904  0.014846867  0.013336093           39 
 4687000   0.50575084   -7.8935286    834.51002  0.014837316  0.013331873           39 
 4688000   0.50214179   -7.8899422    835.18279   0.01484611  0.013327653           37 
 4689000   0.50137778   -7.8893376    835.18996  0.014843072  0.013323434           44 
 4690000   0.50506842   -7.9004787    835.91906  0.014852862  0.013319219           40 
 4691000   0.50327203   -7.8885894    835.28676  0.014838463  0.013315003           45 
 4692000   0.49653018   -7.8934219    835.61872  0.014841196  0.013310792           38 
 4693000   0.50037792   -7.9075867    835.66064  0.014838778  0.013306579           34 
 4694000    0.5107805   -7.8695519    833.69354  0.014800695  0.013302369           37 
 4695000   0.49250083   -7.8968476    835.90186  0.014836739   0.01329816           43 
 4696000   0.49494215    -7.873207    835.38453  0.014824399  0.013293951           38 
 4697000   0.50458091   -7.8958216    833.93487  0.014795523  0.013289744           51 
 4698000   0.50437472   -7.8902308    834.61118   0.01480437  0.013285539           43 
 4699000   0.50329066   -7.9004445    833.44554  0.014780548   0.01328133           50 
 4700000   0.49372291    -7.879482    835.79876  0.014819127  0.013277125           52 
 4701000   0.49327516   -7.8801288    834.70728  0.014796626  0.013272922           43 
 4702000    0.5095736   -7.8797668    836.02661  0.014816862  0.013268723           30 
 4703000    0.4940999   -7.8870758    835.44979   0.01480349  0.013264526           39 
 4704000   0.49919948   -7.8784542    835.89027  0.014808147  0.013260332           46 
 4705000   0.49161383    -7.907383    834.56018  0.014781441   0.01325614           45 
 4706000   0.50676619   -7.9017772    836.11038  0.014805751  0.013251945           44 
 4707000   0.49859065   -7.8830411     833.5381  0.014757066  0.013247755           38 
 4708000   0.50558111   -7.8897972    835.20631  0.014783459  0.013243566           40 
 4709000   0.49590207   -7.8759126     836.5526  0.014804145  0.013239385           40 
 4710000   0.49752683   -7.8903012    834.86968  0.014771226  0.013235201           37 
 4711000   0.49102053   -7.8927359    834.28596  0.014757765  0.013231015           41 
 4712000   0.50167006   -7.8940062    835.42804  0.014774831  0.013226834           48 
 4713000   0.50282814   -7.8929368    834.94004  0.014763067  0.013222653           45 
 4714000    0.5058397   -7.8931966    834.94887  0.014760092  0.013218468           36 
 4715000   0.50089076    -7.892084    834.32578  0.014745949  0.013214283           45 
 4716000   0.48590871   -7.8883208    833.65173  0.014730911  0.013210106           35 
 4717000   0.49494079   -7.9064616    834.54098  0.014743498  0.013205928           27 
 4718000   0.49235879   -7.8989249    833.89999  0.014729052   0.01320175           47 
 4719000   0.49397264   -7.9181878    834.08324  0.014729166  0.013197572           40 
 4720000    0.5038179   -7.8879534    834.64131  0.014735899  0.013193398           36 
 4721000   0.50060831   -7.8985408    834.24964  0.014725864  0.013189224           48 
 4722000   0.49851375   -7.9088183    835.01657   0.01473628  0.013185054           40 
 4723000   0.48472143   -7.8753629    834.83975   0.01473004  0.013180886           39 
 4724000   0.49249426   -7.8976293    835.77973  0.014743504   0.01317672           49 
 4725000   0.49370375   -7.8762402    833.72605  0.014704163   0.01317255           41 
 4726000   0.50141952   -7.8926992    835.63917  0.014734786  0.013168386           37 
 4727000   0.49892104    -7.913924    834.45177  0.014710736  0.013164223           32 
 4728000   0.49499507   -7.9006757    834.15349  0.014702367  0.013160058           50 
 4729000    0.5016631   -7.8973235    834.38834  0.014703396  0.013155892           55 
 4730000   0.49793586   -7.8957862    835.13819  0.014713499  0.013151736           35 
 4731000   0.48742363   -7.8943917    834.00943  0.014690506  0.013147582           41 
 4732000   0.49485087   -7.8972098    833.73523  0.014682573  0.013143428           43 
 4733000   0.48863953   -7.8831614     834.7184  0.014696782  0.013139272           41 
 4734000    0.5011789    -7.877564    834.85426  0.014696068  0.013135118           37 
 4735000   0.48616206   -7.9050441    833.95734  0.014677179  0.013130967           40 
 4736000   0.48748608   -7.9078096    833.99697  0.014674778  0.013126811           61 
 4737000   0.50002708   -7.9043758    835.44679  0.014697185  0.013122657           45 
 4738000   0.48820374   -7.8961806    834.59814  0.014679157  0.013118505           56 
 4739000   0.48378304   -7.9079574    834.16026  0.014668359  0.013114354           51 
 4740000   0.48027383    -7.903942    835.22408  0.014683968  0.013110209           50 
 4741000   0.49239154   -7.9113249     834.7917   0.01467327  0.013106065           30 
 4742000   0.49479777   -7.8930122    834.17106  0.014659269  0.013101916           37 
 4743000   0.47700174   -7.8921839    833.91975  0.014651763  0.013097775           45 
 4744000   0.48293693   -7.9037925    834.32324  0.014655762  0.013093635           39 
 4745000   0.50015483   -7.9037791    833.75029  0.014642611  0.013089495           47 
 4746000   0.49385044   -7.9166242    835.64216  0.014672745  0.013085361           50 
 4747000     0.499714   -7.8943919    834.75539  0.014654087  0.013081228           39 
 4748000   0.49851159    -7.899065    835.31525  0.014660827  0.013077095           34 
 4749000   0.48253023   -7.9132676    834.54943  0.014644301  0.013072964           40 
 4750000   0.49690954   -7.9085989    835.34649  0.014655202  0.013068831           42 
 4751000   0.49536545   -7.9162524     834.9577  0.014645297  0.013064699           38 
 4752000   0.49732109   -7.9102803     834.5381  0.014634857  0.013060573           38 
 4753000    0.4791687   -7.9051684    833.94751  0.014621424  0.013056448           44 
 4754000   0.49014769    -7.909278     834.0417  0.014619999  0.013052323           39 
 4755000    0.4848805   -7.9273637    832.99844  0.014598641  0.013048198           44 
 4756000   0.49649993    -7.898642    833.86683  0.014610787  0.013044076           41 
 4757000   0.49449626   -7.9061591    833.80101  0.014606562  0.013039955           55 
 4758000   0.49009698   -7.9300654    834.36275  0.014613331  0.013035833           40 
 4759000   0.48859167   -7.9110645    833.81367  0.014600646  0.013031715           47 
 4760000   0.48799505   -7.9214975    834.39712  0.014607793  0.013027596           37 
 4761000   0.48515758   -7.9049985     834.0016  0.014597802  0.013023484           45 
 4762000   0.48475728   -7.8826236    833.98938  0.014594522  0.013019367           45 
 4763000   0.48572635   -7.9250199    833.91996  0.014590244  0.013015254           31 
 4764000   0.49135526   -7.9148178     833.6171  0.014581883   0.01301114           38 
 4765000     0.490385   -7.9038422    834.43861   0.01459319  0.013007032           36 
 4766000   0.49394344   -7.9234119    833.38127  0.014571641  0.013002922           36 
 4767000   0.50047526   -7.9005129    835.53629  0.014606256  0.012998812           38 
 4768000     0.492694   -7.9156361     835.1259   0.01459602  0.012994709           44 
 4769000   0.50580949   -7.9087042    834.11593  0.014575312  0.012990604           33 
 4770000   0.48481062   -7.9033934    833.64125  0.014563963  0.012986503           36 
 4771000   0.48694045   -7.9168134    832.90634  0.014548074    0.0129824           56 
 4772000    0.4794504   -7.9291468     836.1798   0.01460219    0.0129783           40 
 4773000   0.48512505   -7.9188363      834.171  0.014564058  0.012974197           47 
 4774000   0.48907662   -7.9269486    832.80967  0.014537245  0.012970097           51 
 4775000   0.49301596   -7.9173177    835.16449  0.014575296  0.012965997           49 
 4776000   0.48340624   -7.9040251    833.85454  0.014549388  0.012961905           37 
 4777000   0.49517343   -7.9139559    833.66287  0.014542999   0.01295781           37 
 4778000    0.4793769   -7.9240274     834.2774  0.014550673  0.012953721           50 
 4779000   0.47961344   -7.9048496    833.49474  0.014533981  0.012949631           51 
 4780000   0.47847098   -7.9122336    833.69835   0.01453449  0.012945543           36 
 4781000   0.49810768   -7.9124402    834.95461  0.014553347  0.012941457           42 
 4782000   0.49356681   -7.9055046    833.10101  0.014518002  0.012937373           57 
 4783000   0.48904767   -7.9268456    833.90402  0.014528957   0.01293329           42 
 4784000   0.48920629    -7.924008    833.66116   0.01452169  0.012929207           44 
 4785000   0.48194623   -7.9190081    835.15279  0.014544632  0.012925127           30 
 4786000   0.48391773   -7.9172491    833.75905  0.014517326  0.012921046           45 
 4787000   0.48469734   -7.9202932      834.775  0.014531979  0.012916967           51 
 4788000   0.49604203   -7.9177081    832.92796  0.014496797  0.012912891           51 
 4789000    0.4865543   -7.9233761    833.45739  0.014502982  0.012908816           36 
 4790000   0.47239112   -7.9196493    833.19747  0.014495433   0.01290474           50 
 4791000    0.4828743    -7.923223    834.01395  0.014506609  0.012900665           44 
 4792000    0.4927271   -7.9151895    833.98304  0.014503044  0.012896594           41 
 4793000   0.49405182   -7.9259492    835.10223  0.014519477  0.012892523           47 
 4794000   0.48441377   -7.9192972    834.21432  0.014501014  0.012888457           43 
 4795000   0.48773539   -7.9283096    833.29651  0.014482039   0.01288439           42 
 4796000   0.48082322   -7.9074832    833.47479  0.014482117  0.012880326           52 
 4797000   0.47751676   -7.9074547    834.11659  0.014490247   0.01287626           48 
 4798000   0.49565071   -7.9126508    832.00824  0.014450609  0.012872199           36 
 4799000   0.47375988   -7.9003239    835.17222  0.014502539  0.012868141           42 
 4800000    0.4832774   -7.9305739    832.14302  0.014446927  0.012864084           58 
 4801000   0.48271658   -7.9311165    832.63531  0.014452463  0.012860026           50 
 4802000   0.48107692   -7.9148963    834.39699  0.014480025   0.01285597           49 
 4803000   0.47539225   -7.9212919    833.24336  0.014456995  0.012851916           44 
 4804000   0.48909698   -7.9052849    832.96816  0.014449212  0.012847863           66 
 4805000   0.47028916   -7.9292071    833.74209  0.014459627  0.012843815           41 
 4806000   0.49531165   -7.9327879    834.13959  0.014463511  0.012839764           34 
 4807000   0.49279496   -7.9208976    835.37412  0.014481903  0.012835721           52 
 4808000   0.46961771   -7.9277845    834.09184  0.014456667  0.012831676           40 
 4809000   0.47363901    -7.923047    834.17079  0.014455029  0.012827631           40 
 4810000    0.4829536   -7.9266554     832.8413   0.01442899  0.012823586           44 
 4811000   0.48586719   -7.9166011    833.14801  0.014431303  0.012819543           41 
 4812000   0.48061997   -7.9324146    832.93079  0.014424543  0.012815501           46 
 4813000   0.48423638   -7.9201161    833.47944  0.014431045  0.012811462           40 
 4814000   0.48245028   -7.9257452    832.34845  0.014408469  0.012807421           42 
 4815000   0.48705155   -7.9181227    833.74171   0.01442959  0.012803382           42 
 4816000   0.47476462   -7.9171227    834.30816  0.014436395  0.012799345           51 
 4817000   0.48960752   -7.9259239    832.21484  0.014397184  0.012795308           46 
 4818000   0.47732455   -7.9143444    834.01815  0.014425387  0.012791271           62 
 4819000   0.48049857   -7.9247535    833.03973  0.014405474  0.012787238           59 
 4820000   0.47867283   -7.9096271    833.67368  0.014413445  0.012783211           47 
 4821000   0.48263476   -7.9363285    833.74522  0.014411692  0.012779184           52 
 4822000    0.4851648   -7.9317225    834.50483  0.014421831  0.012775157           43 
 4823000   0.48098192   -7.9332283    832.95945  0.014392139  0.012771136           38 
 4824000   0.48370714   -7.9234734    832.63233  0.014383505  0.012767109           40 
 4825000   0.48241252    -7.940789    833.59071  0.014397076   0.01276309           43 
 4826000   0.49042244   -7.9299987    832.26607   0.01437122  0.012759072           39 
 4827000   0.47939547     -7.93308     833.3519  0.014386988  0.012755051           53 
 4828000   0.48761537    -7.911099     833.2294  0.014381894  0.012751032           46 
 4829000   0.47725125    -7.936626    833.85833  0.014389769  0.012747018           49 
 4830000     0.481748   -7.9236587    833.79294  0.014385661  0.012743002           47 
 4831000    0.4701337   -7.9224982    833.82028  0.014383155   0.01273899           48 
 4832000   0.46852888   -7.9292232      834.241  0.014387434  0.012734979           55 
 4833000   0.47819864   -7.9363622    832.93166  0.014361881  0.012730969           44 
 4834000   0.47149777   -7.9289118    833.20152  0.014363562   0.01272696           48 
 4835000   0.47142844   -7.9302762    833.69699  0.014369131  0.012722956           51 
 4836000   0.46815471   -7.9294462    833.94482   0.01437043  0.012718953           49 
 4837000   0.46405445    -7.913318    833.08659  0.014352674   0.01271495           56 
 4838000    0.4762016    -7.922277    832.87868  0.014346126  0.012710945           35 
 4839000   0.47973736   -7.9117323    833.69003  0.014357134  0.012706943           42 
 4840000   0.47599086   -7.9270373    832.07856  0.014326422  0.012702941           50 
 4841000   0.47573556    -7.911046     834.5173  0.014365443   0.01269894           46 
 4842000   0.48066002   -7.9200968    833.99226   0.01435344  0.012694944           56 
 4843000   0.47847218   -7.9290266    833.34062  0.014339263   0.01269095           50 
 4844000   0.48473604    -7.910953    833.81368  0.014344441  0.012686955           37 
 4845000   0.48373891   -7.9214789    833.86479   0.01434236  0.012682961           38 
 4846000   0.46664614   -7.9337344    832.44037  0.014314905  0.012678964           52 
 4847000   0.47983458   -7.9048451    833.56652  0.014331313  0.012674972           56 
 4848000   0.47288576   -7.9253027     833.3194   0.01432411  0.012670982           45 
 4849000   0.48461539   -7.9162412    833.20611  0.014319209  0.012666994           49 
 4850000   0.48356805   -7.9358366    833.37011  0.014319074  0.012663011           54 
 4851000   0.47111332    -7.936823    833.07128  0.014310989  0.012659027           43 
 4852000   0.47652715   -7.9401685    833.14515  0.014309308  0.012655043           40 
 4853000   0.48220911   -7.9113409    832.83261  0.014300993  0.012651063           50 
 4854000   0.48038213   -7.9123882    833.61924  0.014311551  0.012647085           58 
 4855000   0.47887671   -7.9339647    833.54193  0.014307277  0.012643107           44 
 4856000   0.48648599   -7.9234891     832.8456  0.014292381   0.01263913           48 
 4857000   0.48779348   -7.9442348    832.23998  0.014279047  0.012635152           47 
 4858000   0.47904763   -7.9464715    831.13492  0.014257152   0.01263118           43 
 4859000   0.46540319   -7.9250239    831.54827  0.014261307  0.012627203           41 
 4860000   0.48047867   -7.9544718    833.04116   0.01428397  0.012623229           40 
 4861000   0.48025189   -7.9397603    832.86164  0.014277954   0.01261926           42 
 4862000   0.46515017   -7.9432929    833.10927  0.014279262  0.012615288           53 
 4863000   0.46862814   -7.9346451    833.45629  0.014282272  0.012611321           42 
 4864000   0.47446039   -7.9330313    833.75445  0.014284444  0.012607353           43 
 4865000   0.48033548   -7.9305808    832.77522  0.014264735  0.012603386           52 
 4866000   0.46889625   -7.9244181    831.94001    0.0142475  0.012599424           49 
 4867000   0.47180544    -7.929161    832.80566  0.014259394  0.012595463           49 
 4868000   0.46336991   -7.9251099    832.95014  0.014258938  0.012591503           55 
 4869000   0.47678714     -7.91774    833.22989  0.014260798  0.012587544           53 
 4870000   0.47589859   -7.9402483      832.464  0.014244764  0.012583587           47 
 4871000   0.47406912   -7.9428629    833.32609  0.014256588  0.012579631           41 
 4872000   0.46778448   -7.9241205    831.60041  0.014224145  0.012575675           58 
 4873000   0.45924316   -7.9205043    832.68127   0.01423971  0.012571726           37 
 4874000   0.47467811   -7.9338203    833.21169  0.014245857  0.012567775           48 
 4875000    0.4655269   -7.9322684    831.52183  0.014214048  0.012563825           46 
 4876000   0.46961797    -7.922625    832.86287  0.014234052  0.012559877           50 
 4877000   0.47450919    -7.946033    834.07244  0.014251802  0.012555929           61 
 4878000   0.46963025   -7.9384257    833.41397  0.014237631  0.012551983           42 
 4879000   0.47826468   -7.9442381     833.2492  0.014231899  0.012548041           53 
 4880000   0.47665045   -7.9237625    832.76988  0.014220797  0.012544098           44 
 4881000   0.48482705     -7.93978    832.59697  0.014214931  0.012540157           45 
 4882000   0.46609547   -7.9208331    831.96619  0.014201253  0.012536218           48 
 4883000   0.47445529   -7.9417346    832.99533  0.014215908   0.01253228           47 
 4884000   0.47708481   -7.9323207    832.82742  0.014210132  0.012528344           44 
 4885000   0.47632232   -7.9292504    832.45182  0.014200816  0.012524411           58 
 4886000   0.46552062   -7.9353325    833.90551  0.014222703  0.012520476           52 
 4887000   0.47759927   -7.9273073    832.51678  0.014196112  0.012516545           53 
 4888000   0.47070808   -7.9348468    832.52672  0.014193377  0.012512617           45 
 4889000   0.46907312   -7.9252639    831.66755  0.014175829  0.012508689           47 
 4890000   0.47999081   -7.9528581    833.23295  0.014199607  0.012504763           39 
 4891000   0.45663251   -7.9268013     833.4276   0.01420002  0.012500838           50 
 4892000   0.46684207   -7.9417313    831.88052  0.014170764   0.01249692           40 
 4893000   0.47033656   -7.9422033    832.69472  0.014181734  0.012492997           50 
 4894000   0.46956283   -7.9430563    833.03065  0.014184557  0.012489077           56 
 4895000   0.47263793   -7.9499232    833.21662  0.014184825  0.012485162           51 
 4896000    0.4517394   -7.9500856    832.24806  0.014165442  0.012481242           42 
 4897000   0.47696066   -7.9412716    834.22034  0.014196112  0.012477329           50 
 4898000   0.46832812   -7.9351279    832.48659  0.014163716  0.012473416           37 
 4899000   0.46151441   -7.9458908    832.65331  0.014163661  0.012469504           33 
 4900000   0.46174229   -7.9433578    832.90283  0.014165014  0.012465591           24 
 4901000   0.46586467   -7.9216714    832.92589  0.014162516  0.012461683           44 
 4902000    0.4642061   -7.9385295    833.00772  0.014161018  0.012457779           43 
 4903000   0.46418629   -7.9567289    832.73953  0.014153571  0.012453875           57 
 4904000   0.47082043   -7.9493851    833.15584   0.01415776  0.012449969           44 
 4905000   0.46220636   -7.9454317    833.16695  0.014155062  0.012446066           52 
 4906000   0.45409365   -7.9391463    831.81658  0.014129239  0.012442164           57 
 4907000   0.46599704   -7.9387626    833.02302  0.014146848  0.012438263           58 
 4908000   0.46264189   -7.9383828    833.70201  0.014155495  0.012434364           47 
 4909000   0.46618346   -7.9638939    832.87905  0.014138641  0.012430465           44 
 4910000   0.45087765   -7.9397766    832.45979  0.014128645  0.012426568           44 
 4911000      0.45976   -7.9427988    832.84673  0.014132334  0.012422677           48 
 4912000   0.47368547   -7.9397274    832.85175  0.014129542  0.012418783           53 
 4913000   0.46855329   -7.9358794    833.39362  0.014135858  0.012414893           35 
 4914000   0.46435812   -7.9561135    832.42543  0.014116562  0.012411004           50 
 4915000   0.46311626   -7.9381231    831.93656  0.014105401  0.012407116           45 
 4916000   0.46342081   -7.9528163    832.45691  0.014111352  0.012403231           53 
 4917000    0.4628409   -7.9385251    832.61045  0.014111085  0.012399345           36 
 4918000   0.45310326   -7.9310424    833.23006  0.014118714  0.012395464           54 
 4919000   0.46970147   -7.9303986    830.57887   0.01407093  0.012391576           45 
 4920000   0.46031549   -7.9577852    832.91936  0.014107713  0.012387692           44 
 4921000   0.47203174   -7.9341357    832.88152  0.014104205  0.012383812           49 
 4922000   0.47430972   -7.9428482    833.19424  0.014106634  0.012379936           62 
 4923000   0.46706317   -7.9600767    833.13299  0.014102732  0.012376061           48 
 4924000   0.46091394   -7.9469532    833.37662  0.014103991  0.012372187           54 
 4925000   0.47210785   -7.9593764     833.0003   0.01409476  0.012368315           48 
 4926000   0.46665847   -7.9505901    832.74317  0.014087548  0.012364442           46 
 4927000   0.47298874   -7.9418877    832.10244  0.014073852  0.012360573           52 
 4928000   0.45915761   -7.9430445    832.21683  0.014072931  0.012356704           45 
 4929000   0.46762338   -7.9420846    832.08538  0.014067853  0.012352838           40 
 4930000   0.46399197   -7.9488494    832.72319  0.014075781   0.01234897           43 
 4931000   0.46950529   -7.9619277    833.19903  0.014080968  0.012345104           40 
 4932000   0.45835822   -7.9493869    833.26487  0.014079225  0.012341236           60 
 4933000   0.46080181   -7.9409868      833.203  0.014075326  0.012337374           39 
 4934000   0.46288437   -7.9401875    831.72226  0.014047464   0.01233351           52 
 4935000   0.45671107   -7.9671189    833.02411  0.014066601  0.012329647           50 
 4936000   0.45989827   -7.9431773    831.71148   0.01404159  0.012325787           50 
 4937000   0.46863018   -7.9509741    834.00458  0.014077452  0.012321929           41 
 4938000   0.45161831   -7.9365695    831.56747  0.014033473  0.012318074           52 
 4939000   0.46201419   -7.9487532    831.39663  0.014027749  0.012314221           43 
 4940000   0.45930812   -7.9482393    832.05535  0.014036021  0.012310371           35 
 4941000   0.45898174   -7.9569932    833.58208   0.01405893  0.012306522           42 
 4942000   0.45382312   -7.9447983    831.18736  0.014015705  0.012302671           53 
 4943000   0.46314432   -7.9556977    833.91898  0.014058921  0.012298822           35 
 4944000   0.45842219   -7.9487095    831.58428  0.014016725  0.012294975           44 
 4945000   0.45785971   -7.9390091    832.68391  0.014032422  0.012291131           41 
 4946000   0.45181432   -7.9614392    831.55899  0.014010631   0.01228729           45 
 4947000   0.45210467   -7.9641854    832.72979  0.014027522  0.012283449           53 
 4948000   0.46264041   -7.9564184    832.51142  0.014021009  0.012279611           53 
 4949000   0.46419626   -7.9331397    831.81148   0.01400639  0.012275774           43 
 4950000   0.46285573     -7.94433    833.20183  0.014026967  0.012271937           35 
 4951000   0.46905087   -7.9559415    832.47917   0.01401197  0.012268104           41 
 4952000   0.46896219   -7.9495624    832.71598  0.014013126  0.012264271           39 
 4953000   0.46219325   -7.9438586    832.04415  0.013998993  0.012260439           53 
 4954000   0.45219628   -7.9433838    832.45843  0.014003136  0.012256609           46 
 4955000   0.45714197   -7.9312757    832.06422   0.01399368  0.012252779           53 
 4956000   0.46289667   -7.9519076    832.16106  0.013992485  0.012248952           52 
 4957000   0.46425601   -7.9530746    831.88386  0.013985002  0.012245127           44 
 4958000   0.46954465   -7.9524278    831.26324   0.01397175  0.012241299           47 
 4959000   0.46536643   -7.9478747    832.30268    0.0139864  0.012237477           45 
 4960000   0.45747908   -7.9490362    831.69634  0.013973393  0.012233652           55 
 4961000   0.45603995   -7.9501525    831.48065  0.013966953  0.012229832           41 
 4962000   0.45443116   -7.9486442    832.22041  0.013976562  0.012226012           54 
 4963000   0.45379313   -7.9493201    833.08232  0.013988218  0.012222195           49 
 4964000   0.45542671   -7.9641556    831.91762  0.013965848  0.012218376           54 
 4965000    0.4640582    -7.950768    832.90744  0.013979648  0.012214561           56 
 4966000   0.45097484   -7.9594045    831.74158  0.013957269  0.012210745           43 
 4967000   0.45741085   -7.9471654    831.72605  0.013954199  0.012206931           58 
 4968000    0.4618309   -7.9798943    832.97759  0.013972383  0.012203119           34 
 4969000    0.4633459   -7.9531051    831.40229  0.013943152  0.012199308           44 
 4970000   0.45280412    -7.945629    831.93305  0.013949246  0.012195501           36 
 4971000   0.46214035   -7.9485127    831.94267  0.013946601  0.012191693           39 
 4972000   0.46651579   -7.9551486     831.4394  0.013935361  0.012187887           38 
 4973000    0.4571444   -7.9488037    832.64952  0.013952837  0.012184087           55 
 4974000   0.45365669   -7.9541997    832.61254  0.013949413  0.012180283           49 
 4975000   0.44921155   -7.9542094    832.47469    0.0139443  0.012176483           57 
 4976000   0.46478538   -7.9571013    831.99549  0.013933472  0.012172684           42 
 4977000   0.44908489   -7.9471868      832.976   0.01394709  0.012168888           38 
 4978000   0.45529229   -7.9624244    832.63948  0.013938655  0.012165091           43 
 4979000   0.45266602   -7.9602501    831.55832   0.01391776  0.012161295           57 
 4980000   0.45730729   -7.9645619    830.95952  0.013904945    0.0121575           50 
 4981000   0.45349141   -7.9509116     832.4118   0.01392645  0.012153706           50 
 4982000   0.44566902   -7.9704207    832.41273  0.013923671  0.012149915           48 
 4983000   0.44330063   -7.9490381    832.34222  0.013919697  0.012146124           33 
 4984000   0.46122195   -7.9586841     830.5396  0.013886764  0.012142337           39 
 4985000   0.44486089   -7.9591753     832.4553  0.013916003   0.01213855           42 
 4986000   0.46069942   -7.9548114    833.46501  0.013930088  0.012134763           27 
 4987000     0.447546   -7.9554903    831.53774   0.01389509  0.012130978           41 
 4988000   0.46062375   -7.9488939    832.27393  0.013904603  0.012127197           53 
 4989000   0.46069066   -7.9607627    832.30149  0.013902277  0.012123417           38 
 4990000   0.45726437   -7.9602656     831.3244  0.013883173  0.012119637           47 
 4991000   0.44749601   -7.9804753    832.21563  0.013895272  0.012115861           39 
 4992000   0.45743562   -7.9631148    831.85125  0.013886406  0.012112089           53 
 4993000   0.45213265   -7.9593313    831.68032  0.013880772  0.012108318           52 
 4994000   0.45418839   -7.9633179    833.08964  0.013901509  0.012104544           61 
 4995000   0.45351443   -7.9571574    831.38513  0.013870289  0.012100774           49 
 4996000   0.45344946   -7.9545108     833.0393  0.013895104  0.012097006           40 
 4997000   0.45347456   -7.9675045    831.14201  0.013860683  0.012093238           41 
 4998000   0.44471399    -7.963671     831.6661  0.013866648   0.01208947           47 
 4999000   0.45588577    -7.944923    832.47194  0.013877308  0.012085708           45 
 5000000   0.44870266   -7.9680332    830.75326  0.013845888  0.012081942           47 
 5001000   0.46262559   -7.9549646    832.80566  0.013877319  0.012078179           49 
 5002000   0.43188966   -7.9492155    831.73671  0.013856736  0.012074418           43 
 5003000   0.44319434   -7.9603928    830.74773  0.013837493   0.01207066           45 
 5004000   0.44890223   -7.9670311    833.09708  0.013873852  0.012066902           55 
 5005000   0.45351083   -7.9451511    831.88837  0.013850955  0.012063145           48 
 5006000   0.44072853   -7.9774469    832.02856  0.013850522   0.01205939           41 
 5007000   0.45133692   -7.9504525    831.04455  0.013831379  0.012055634           40 
 5008000   0.45127536   -7.9581118    831.83217  0.013841723   0.01205188           29 
 5009000   0.45518228   -7.9667193    831.87575  0.013839684  0.012048126           51 
 5010000    0.4421431   -7.9681185    832.00291  0.013839037  0.012044376           55 
 5011000   0.45332186    -7.949938     831.9972   0.01383618  0.012040629           46 
 5012000   0.45574368   -7.9608239    830.96929  0.013816329  0.012036884           44 
Loop time of 11262.5 on 48 procs for 5000000 steps with 4000 atoms

Performance: 76714.532 tau/day, 443.950 timesteps/s
99.4% CPU use with 48 MPI tasks x no OpenMP threads

MPI task timing breakdown:
Section |  min time  |  avg time  |  max time  |%varavg| %total
---------------------------------------------------------------
Pair    | 700.19     | 733.64     | 780.46     |  81.3 |  6.51
Neigh   | 69.548     | 71.59      | 74.806     |  16.8 |  0.64
Comm    | 648.25     | 687.79     | 725.86     |  84.7 |  6.11
Output  | 13.591     | 13.595     | 13.679     |   0.3 |  0.12
Modify  | 9583       | 9637.3     | 9677.1     |  17.8 | 85.57
Other   |            | 118.7      |            |       |  1.05

Nlocal:        83.3333 ave          94 max          76 min
Histogram: 1 5 10 10 8 5 4 4 0 1
Nghost:        1860.35 ave        1880 max        1835 min
Histogram: 1 1 2 7 10 3 10 7 5 2
Neighs:        11580.0 ave       12868 max       10360 min
Histogram: 4 1 5 8 8 6 7 3 4 2
FullNghs:      23159.8 ave       26324 max       20984 min
Histogram: 2 4 6 12 11 7 3 1 1 1

Total # of neighbors = 1111668
Ave neighs/atom = 277.91700
Neighbor list builds = 269128
Dangerous builds = 0

#clear
#
#next RN
#
#jump SELF
Total wall time: 3:07:45
