
units lj                  # Use reduced LJ style units
atom_style atomic         # Uncharged point particles
atom_modify map hash      # Needed for indexing of clusters etc
                          # Used to be able to find where atoms are in relation to each other.

lattice fcc 1.0 spacing 1 1 1
Lattice spacing in x,y,z = 1.5874011 1.5874011 1.5874011
region box block 0 10 0 10 0 10 units lattice
create_box 2 box
Created orthogonal box = (0.0000000 0.0000000 0.0000000) to (15.874011 15.874011 15.874011)
  3 by 4 by 4 MPI processor grid
create_atoms 1 box
Created 4000 atoms
  using lattice units in orthogonal box = (0.0000000 0.0000000 0.0000000) to (15.874011 15.874011 15.874011)
  create_atoms CPU = 0.042 seconds
set type 1 type/fraction 2 0.3 78393
Setting atom values ...
  1229 settings made for type/fraction
mass 1 1.0
mass 2 1.0
pair_style lj/cut  3.5
pair_modify tail  yes
pair_coeff 1  1  1.0  1.0   # Intearaction between 1 and 1 set with epsilon = 1 and sigma = 1
pair_coeff 1  2  1.5  0.8
pair_coeff 2  2  0.5  0.88

write_data data.0
System init for write_data ...
Neighbor list info ...
  update every 1 steps, delay 10 steps, check yes
  max neighbors/atom: 2000, page size: 100000
  master list distance cutoff = 3.8
  ghost atom cutoff = 3.8
  binsize = 1.9, bins = 9 9 9
  1 neighbor lists, perpetual/occasional/extra = 1 0 0
  (1) pair lj/cut, perpetual
      attributes: half, newton on
      pair build: half/bin/atomonly/newton
      stencil: half/bin/3d
      bin: standard
WARNING: Not all mixed pair coeffs generated from mixing. Use write_data with 'pair ij' option to store all pair coeffs. (../write_data.cpp:312)


#############################
#   M E L T   S Y S T E M   #
#############################

velocity all create 2.4 5833274 mom yes dist gaussian # Assign velocities
                                                    # Temperature 2.4, random number seed, zero linear momentum
                                                                                # Gaussian distribution

timestep 0.002   # simulation timestep
thermo 1000       # output thermodynamic data every 1000 steps bf 100

# Define a fix  in this case with index 1 applied to all
# particles in the simulation. This fix is for simulations
# in the anisotropic NPT ensemble. Note that we use the MTK
# correction.
fix 1 all npt temp 2.4 2.4 0.1 iso 5.68 5.68 0.5 mtk yes tchain 5 pchain 5 # Use NPT ensemble
                                                                         # Set temperature and pressure and damping
                                                                         # Numbers of thermostats in chain and in barostat
run 10000          # run for 10000 steps
Per MPI rank memory allocation (min/avg/max) = 3.642 | 3.644 | 3.648 Mbytes
Step Temp E_pair E_mol TotEng Press Volume 
       0          2.4   -6.4318281            0   -2.8327281   -3.9834666         4000 
    1000    2.3591009   -5.0453164            0   -1.5075498    5.3901341      4150.61 
    2000     2.365037   -4.9632734            0   -1.4166047    5.8283671    4141.6818 
    3000    2.4517468   -4.9948551            0   -1.3181542     5.930284    4129.7059 
    4000    2.3585627   -4.9356576            0   -1.3986981     5.631574    4171.9175 
    5000    2.3924571   -4.9341825            0   -1.3463941    5.5567708    4196.1462 
    6000    2.3998787   -4.9434272            0   -1.3445091    5.8006532    4159.9816 
    7000    2.3459788   -5.0025335            0   -1.4844451     5.890449    4125.5888 
    8000    2.4130245   -4.9805597            0   -1.3619278    5.7953598    4144.5678 
    9000    2.4278254   -5.0137634            0   -1.3729357    5.5772838    4146.6013 
   10000    2.4195002   -5.0176297            0   -1.3892867    5.8340747     4126.115 
Loop time of 2.41165 on 48 procs for 10000 steps with 4000 atoms

Performance: 716521.564 tau/day, 4146.537 timesteps/s
99.6% CPU use with 48 MPI tasks x no OpenMP threads

MPI task timing breakdown:
Section |  min time  |  avg time  |  max time  |%varavg| %total
---------------------------------------------------------------
Pair    | 1.0335     | 1.1067     | 1.1951     |   3.2 | 45.89
Neigh   | 0.20256    | 0.21081    | 0.22706    |   1.0 |  8.74
Comm    | 0.71944    | 0.82172    | 0.89463    |   4.1 | 34.07
Output  | 0.00024261 | 0.00024902 | 0.00040185 |   0.0 |  0.01
Modify  | 0.23537    | 0.25742    | 0.2792     |   2.6 | 10.67
Other   |            | 0.01477    |            |       |  0.61

Nlocal:        83.3333 ave          91 max          72 min
Histogram: 1 2 2 2 5 12 10 9 1 4
Nghost:        1610.48 ave        1638 max        1582 min
Histogram: 3 1 6 4 7 13 5 1 5 3
Neighs:        9244.25 ave       10350 max        7832 min
Histogram: 2 3 4 1 4 10 9 7 5 3

Total # of neighbors = 443724
Ave neighs/atom = 110.93100
Neighbor list builds = 908
Dangerous builds = 201

# Equilibrate just above the melting temperature to avoid step fn in T

fix 1 all npt temp 1.25 1.25 0.1 iso 5.68 5.68 0.5 mtk yes tchain 5 pchain 5
run 2000
Per MPI rank memory allocation (min/avg/max) = 3.643 | 3.645 | 3.649 Mbytes
Step Temp E_pair E_mol TotEng Press Volume 
   10000    2.4195002   -5.0176297            0   -1.3892867    5.8340747     4126.115 
   11000    1.2515595   -6.8315639            0   -4.9546939    5.6527285    3344.5416 
   12000    1.2297339   -6.8847925            0   -5.0406528    5.3492346    3349.1194 
Loop time of 0.565527 on 48 procs for 2000 steps with 4000 atoms

Performance: 611111.899 tau/day, 3536.527 timesteps/s
99.7% CPU use with 48 MPI tasks x no OpenMP threads

MPI task timing breakdown:
Section |  min time  |  avg time  |  max time  |%varavg| %total
---------------------------------------------------------------
Pair    | 0.24459    | 0.27132    | 0.29638    |   2.1 | 47.98
Neigh   | 0.035009   | 0.038892   | 0.041698   |   0.6 |  6.88
Comm    | 0.17704    | 0.20604    | 0.23836    |   2.7 | 36.43
Output  | 5.1208e-05 | 5.2219e-05 | 6.6464e-05 |   0.0 |  0.01
Modify  | 0.041202   | 0.044458   | 0.047265   |   0.9 |  7.86
Other   |            | 0.004758   |            |       |  0.84

Nlocal:        83.3333 ave          94 max          71 min
Histogram: 1 0 2 5 6 20 9 3 1 1
Nghost:        1848.10 ave        1865 max        1825 min
Histogram: 2 2 2 3 6 8 7 8 5 5
Neighs:        11402.2 ave       13496 max        8835 min
Histogram: 1 1 1 3 10 14 12 3 2 1

Total # of neighbors = 547306
Ave neighs/atom = 136.82650
Neighbor list builds = 141
Dangerous builds = 9

#############################
# L I N E A R  Q U E N C H  #
#############################

# Define solid atoms. This closely follows ten Wolde  Ruiz-Montero and Frenkel  Faraday Discuss  1996  104  93-110
# Compute components of the per-atom q6 vector
compute q6 all orientorder/atom degrees 1 6 components 6 nnn NULL cutoff 1.3 # compute the Q6 parameter.
                                                                             # Use all neighbours within 1.3 unit cell.

# get number of connections
compute coord_number all coord/atom orientorder q6 0.5

# An atom is solid if it has 8 or more connections (of a possible 14)
variable is_solid atom c_coord_number>=8
group solid dynamic all var is_solid    # Must be dynamic to update
dynamic group solid defined

# do clustering
compute cluster solid cluster/atom 1.3 # Create a cluster where all atoms within are solid and max 1.3 units from another member

# define chunks one chunk per cluster
compute clus_chunks solid chunk/atom c_cluster nchunk every compress yes  # Says which atoms are in which chunk

# count the size of each chunk
compute size_chunks solid property/chunk clus_chunks count


# Find the maximum entry in the vector of chunk sizes
variable max_n equal max(c_size_chunks)


# Thermo style which includes this variable
# thermo_style custom step temp pe vol v_max_n

thermo ${N}  # Print the thermo information every 100 steps
thermo 1000  

# Reset the npt fix at a lower temperature (below freezing)
fix 1  all npt temp  ${temp} ${temp}  0.1  iso  5.68  5.68  0.5  mtk yes tchain  5  pchain  5
fix 1  all npt temp  0.45 ${temp}  0.1  iso  5.68  5.68  0.5  mtk yes tchain  5  pchain  5
fix 1  all npt temp  0.45 0.45  0.1  iso  5.68  5.68  0.5  mtk yes tchain  5  pchain  5

dump dmp2 all dcd ${N} traj.dcd
dump dmp2 all dcd 1000 traj.dcd


compute msd all msd com yes
variable twopoint equal c_msd[4]/6/(step*dt+1.0e-6)
fix 9 all vector 10 c_msd[4]
variable fit equal slope(f_9)/6/(10*dt)
thermo_style custom step temp pe c_msd[4] v_twopoint v_fit v_max_n

fix 1 all npt temp 1.25 ${temp} 0.1 iso 5.68 5.68 0.5 mtk yes tchain 5 pchain 5
fix 1 all npt temp 1.25 0.45 0.1 iso 5.68 5.68 0.5 mtk yes tchain 5 pchain 5
run 500000 # 5000000  # Run for this many steps
Neighbor list info ...
  update every 1 steps, delay 10 steps, check yes
  max neighbors/atom: 2000, page size: 100000
  master list distance cutoff = 3.8
  ghost atom cutoff = 3.8
  binsize = 1.9, bins = 8 8 8
  4 neighbor lists, perpetual/occasional/extra = 1 3 0
  (1) pair lj/cut, perpetual
      attributes: half, newton on
      pair build: half/bin/atomonly/newton
      stencil: half/bin/3d
      bin: standard
  (2) compute orientorder/atom, occasional
      attributes: full, newton on
      pair build: full/bin/atomonly
      stencil: full/bin/3d
      bin: standard
  (3) compute coord/atom, occasional
      attributes: full, newton on
      pair build: full/bin/atomonly
      stencil: full/bin/3d
      bin: standard
  (4) compute cluster/atom, occasional
      attributes: full, newton on
      pair build: full/bin/atomonly
      stencil: full/bin/3d
      bin: standard
Per MPI rank memory allocation (min/avg/max) = 9.807 | 9.814 | 9.818 Mbytes
Step Temp PotEng c_msd[4] v_twopoint v_fit v_max_n 
   12000    1.2297339   -6.8847925 1.8346933e-30 1.2740925e-32 8.3333333e+20            1 
   13000    1.2405137    -6.912875   0.49811132 0.0031930212  0.041099207            2 
   14000    1.2320224   -6.8853365    0.9601585  0.005715229  0.039057573            1 
   15000    1.2434705   -6.9026132    1.4050426 0.0078057919   0.03837524            1 
   16000    1.2623813   -6.9136483    1.8644539 0.0097106971  0.038086173            2 
   17000    1.2625602   -6.8930966    2.3562374  0.011550183  0.038136536            1 
   18000     1.234402   -6.9530281     2.818782  0.013049916  0.038719719            2 
   19000    1.2400949   -6.8566651    3.2733844  0.014356949   0.03863427            1 
   20000    1.2430567   -6.9248794    3.7340045  0.015558352  0.038693206            1 
   21000    1.2371267   -6.9034061    4.2124113  0.016715917   0.03872973            2 
   22000    1.2417013   -6.9127477    4.7015499  0.017808901  0.038812722            1 
   23000    1.2408527   -6.9168181    5.1977183  0.018832312  0.039055202            2 
   24000    1.2503145   -6.9325614    5.6304186  0.019550064  0.039102476            2 
   25000     1.226152   -6.9592535    6.0440478  0.020146826  0.039019656            1 
   26000    1.2251521   -6.9029595    6.5358135   0.02094812  0.038892094            1 
   27000    1.1946394   -6.9493772    6.9408079  0.021422246  0.038764319            2 
   28000    1.2300681   -6.9576971    7.4106472  0.022055497  0.038710375            1 
   29000    1.1912229   -6.9351718    7.9068508  0.022720835  0.038672351            2 
   30000    1.2058546   -6.9021379    8.3872807  0.023298002  0.038680903            1 
   31000    1.2307157   -6.8946555    8.6883535  0.023355789  0.038619425            3 
   32000    1.2426177   -6.9278198    9.0521766  0.023573376  0.038372639            1 
   33000    1.2137026   -6.9464795    9.4397086  0.023837648  0.038097737            2 
   34000    1.2189377   -6.9853076    9.9308749  0.024340379  0.037907933            1 
   35000    1.2330559   -6.9738524    10.403501  0.024770241  0.037728386            1 
   36000    1.2066617   -6.9501687    10.726523  0.024829913  0.037534823            2 
   37000    1.2379685   -6.9680963    11.105518  0.025012428   0.03735559            2 
   38000    1.2009851   -6.9546346    11.672326  0.025597206  0.037236367            2 
   39000    1.2347389   -7.0008736    12.035577  0.025717044  0.037168751            1 
   40000    1.1631035   -6.9725963    12.414139  0.025862789  0.037057953            3 
   41000    1.2226522   -6.9704669    12.773711  0.025962826  0.036914751            4 
   42000    1.2015589    -6.961258      13.3127  0.026414088  0.036802583            1 
   43000    1.2147625   -7.0087864    13.719611  0.026588394  0.036714652            2 
   44000    1.1951096    -7.012825    14.079308  0.026665357  0.036619998            2 
   45000    1.2014219   -7.0377533      14.6202  0.027074445  0.036574945            2 
   46000    1.2037504   -6.9766872    15.031164  0.027230369  0.036523185            2 
   47000    1.1957446   -7.0210768     15.55258  0.027575496  0.036477824            2 
   48000     1.177505   -6.9781892     15.93822   0.02767052  0.036464924            1 
   49000    1.1945499   -7.0262697    16.239163  0.027617624  0.036411028            3 
   50000    1.1814858   -6.9711494    16.699305  0.027832174  0.036361561            1 
   51000    1.1864541   -7.0098214    17.060839  0.027877188  0.036304591            1 
   52000    1.1969637   -7.0002861    17.545881  0.028118398  0.036242119            2 
   53000    1.1722829   -6.9744922     17.93452   0.02819893  0.036192548            3 
   54000    1.1893653   -7.0383553    18.339151  0.028301158  0.036137606            1 
   55000    1.1739899   -7.0131597    18.776516  0.028449266  0.036098201            1 
   56000    1.1861587    -7.022998    19.056705  0.028358191  0.036044071            1 
   57000    1.2134957   -7.0616155    19.418451  0.028389548  0.035981584            1 
   58000    1.1636687   -7.0383313    19.939302  0.028648423  0.035929979            2 
   59000    1.1626828   -7.0757271    20.288376  0.028655899  0.035877576            1 
   60000    1.1707459   -7.0627954    20.573635  0.028574493  0.035810932            1 
   61000    1.1610097   -7.0230384     21.05212  0.028759726  0.035740507            1 
   62000    1.1707993   -7.0371559    21.521142  0.028926265  0.035681264            1 
   63000    1.1574677   -7.0609698    21.892251  0.028958004  0.035634094            1 
   64000    1.1422107   -7.1007944    22.390102  0.029153778  0.035581986            2 
   65000    1.1482139   -7.0099606    22.955246  0.029429802  0.035558444            2 
   66000    1.1622573   -7.0997088     23.25235  0.029359027   0.03553383            2 
   67000     1.155906    -7.096682    23.514333  0.029246682  0.035487194            2 
   68000    1.1535285   -7.1052753    23.961183  0.029364194  0.035439821            2 
   69000    1.1715401   -7.0700299    24.410907  0.029481771  0.035399216            2 
   70000     1.168357   -7.0573512     24.64368  0.029337714  0.035350522            1 
   71000    1.1683632    -7.068614    24.895651  0.029220247  0.035286147            1 
   72000    1.1394795   -7.1185475    25.227425  0.029198409  0.035205684            1 
   73000     1.171039   -7.0469194    25.616187  0.029242222  0.035125116            2 
   74000    1.1578154   -7.1316929    25.873101  0.029136375  0.035033105            1 
   75000      1.14118   -7.1064881    26.368912  0.029298791  0.034951348            2 
   76000    1.1714763   -7.0834994    26.811799  0.029398902   0.03488263            1 
   77000    1.1453504   -7.1050103    27.210563  0.029448662  0.034817494            2 
   78000    1.1262824   -7.0588333    27.575782  0.029461306  0.034751975            1 
   79000    1.1491911   -7.1415959    27.694457  0.029213562  0.034674955            1 
   80000    1.1444418   -7.1038491    27.925783  0.029089357  0.034587034            2 
   81000    1.1340054   -7.1216041    28.447811  0.029267295  0.034497456            2 
   82000    1.1314894   -7.1250526    28.793057  0.029261237  0.034415844            1 
   83000     1.158494   -7.1155078    29.103576  0.029220458  0.034333346            2 
   84000    1.1782103   -7.1100668    29.521045  0.029286751  0.034250455            2 
   85000    1.1320545   -7.1420526    29.793696  0.029209505  0.034165976            1 
   86000    1.1421627   -7.1215144     30.13872  0.029204186  0.034079053            1 
   87000    1.1452754   -7.1201852    30.481238  0.029196588  0.033995545            1 
   88000    1.1221091   -7.1347117    30.966243  0.029324094  0.033921921            2 
   89000    1.1285599   -7.0929575    31.397192   0.02939812  0.033849357            3 
   90000    1.1342632   -7.1619593    31.561665  0.029223764  0.033775315            4 
   91000    1.1252972   -7.1132761      32.0336  0.029334798  0.033701642            2 
   92000    1.1209998     -7.16523    32.351824  0.029304188  0.033632234            2 
   93000    1.1207045    -7.143053    32.630266  0.029238589  0.033560678            1 
   94000    1.1248144   -7.1490168    32.970085  0.029228799  0.033489754            2 
   95000    1.1195603   -7.1425673    33.277297  0.029190612  0.033419725            2 
   96000    1.1318649   -7.1610529    33.512076  0.029090344  0.033346821            2 
   97000    1.0983667      -7.1805    33.896771  0.029120937  0.033268547            1 
   98000    1.1105646   -7.2223015    34.026589  0.028934174   0.03318245            2 
   99000    1.1042906   -7.1951367    34.424177   0.02897658  0.033099332            2 
  100000    1.0927105   -7.2024606    34.651042  0.028875868  0.033013862            1 
  101000    1.1102018   -7.1994911    34.838847  0.028744923  0.032922165            1 
  102000    1.0900947    -7.174844    35.141146  0.028710086   0.03282438            2 
  103000    1.1065853   -7.2181125    35.411499   0.02865008  0.032726691            4 
  104000    1.0946905   -7.1734881    35.701679  0.028607115  0.032633396            2 
  105000    1.0967985   -7.1788659    35.872239  0.028470031   0.03254322            1 
  106000    1.0992127   -7.2470714    36.326965  0.028558935  0.032451362            2 
  107000    1.0769524   -7.2150011    36.516775  0.028439856  0.032357132            1 
  108000    1.0896892   -7.1838678    36.949567  0.028510468  0.032266558            2 
  109000    1.0949203   -7.2136435    37.204519  0.028443821  0.032177389            1 
  110000    1.0904491   -7.2302032    37.293085  0.028252337  0.032084556            1 
  111000    1.1017592   -7.2262637    37.627898  0.028249173  0.031986542            3 
  112000    1.0769325   -7.2625851    37.771954  0.028104132  0.031889464            2 
  113000    1.0875458   -7.2020045    38.182756  0.028158374  0.031791464            1 
  114000    1.0852522   -7.2097984      38.6728   0.02826959  0.031697049            2 
  115000    1.0818287   -7.2409765    38.872093  0.028168183  0.031606818            3 
  116000    1.0973866   -7.2088399    39.191776  0.028155011  0.031517913            6 
  117000    1.0939031    -7.273408    39.376067  0.028045632  0.031433789            2 
  118000    1.0724021   -7.2364055    39.890027  0.028170923  0.031352797            2 
  119000    1.0831867   -7.2089855    40.069422  0.028059819  0.031273761            2 
  120000    1.0841814   -7.2429681    40.452518  0.028092026  0.031193372            3 
  121000    1.0864081   -7.2526693    40.594853  0.027957888  0.031111569            3 
  122000    1.0680763   -7.2729538    41.006569  0.028009951  0.031033077            1 
  123000    1.0772424   -7.2614994    41.383878  0.028037858  0.030959286            1 
  124000    1.0572661   -7.2866268    41.478871  0.027875585   0.03088384            1 
  125000    1.0623168   -7.2467197    41.900281   0.02793352  0.030805392            2 
  126000    1.0659194   -7.2568865    42.046586  0.027808588  0.030724981            2 
  127000    1.0606988   -7.2987331    42.061675  0.027599524  0.030639788            2 
  128000    1.0537844   -7.2975289    42.554074  0.027704475   0.03055597            1 
  129000    1.0619639   -7.3077241    42.652379  0.027553216  0.030472977            2 
  130000    1.0444294   -7.3037127    42.912471  0.027507994  0.030390013            3 
  131000    1.0581853   -7.2835698    43.170502  0.027462151  0.030305282            1 
  132000     1.039995   -7.2933206    43.276234  0.027320855   0.03021904            6 
  133000    1.0782225   -7.2732722    43.688091  0.027373491  0.030135818            1 
  134000    1.0819292   -7.2916673    43.954618  0.027334961  0.030056089            1 
  135000    1.0662706    -7.294544    44.213592  0.027292341  0.029974517            2 
  136000     1.044639   -7.3430694    44.289891  0.027138414   0.02989006            1 
  137000    1.0345924   -7.3189739    44.615843  0.027138591  0.029808511            2 
  138000    1.0275898   -7.2985356    44.867385  0.027093832  0.029726948            2 
  139000    1.0399157   -7.3271972    45.320438  0.027170526  0.029644883            1 
  140000    1.0529169   -7.3204286    45.366114  0.027003639  0.029564413            2 
  141000      1.03036   -7.3093582    45.765318   0.02704806  0.029486735            2 
  142000    1.0401418   -7.3036397    45.892792   0.02693239  0.029408368            3 
  143000    1.0363565   -7.3766858    46.266079  0.026961585  0.029333873            4 
  144000    1.0579728   -7.3483461    46.601058  0.026968205  0.029260046            1 
  145000    1.0413951   -7.3299037    46.717369  0.026849062  0.029188282            3 
  146000    1.0211128   -7.3568506    46.878256  0.026756995  0.029110191            5 
  147000    1.0439825   -7.3652632    47.122355  0.026713353  0.029031253            1 
  148000    1.0272143   -7.3788273    47.110024  0.026525914  0.028950962            2 
  149000    1.0179039   -7.3550853    47.380561  0.026499195  0.028869609            2 
  150000    1.0685791   -7.3388747    47.722464   0.02651248  0.028789565            2 
  151000    1.0176647   -7.3531227    47.909079  0.026439889  0.028712213            2 
  152000    1.0197698   -7.3626016    48.045617  0.026340799  0.028633356            1 
  153000    1.0469264   -7.3798097    48.345327  0.026331877  0.028553833            2 
  154000    1.0247084   -7.3775951    48.379171  0.026179205  0.028474774            4 
  155000    1.0122569   -7.3417285    48.484032  0.026066684  0.028393465            2 
  156000    1.0142551    -7.374303    48.794786  0.026065591   0.02831096            1 
  157000    1.0005866   -7.3647333    49.279774  0.026156993  0.028231334            2 
  158000    1.0257898    -7.376227    49.528568  0.026122662  0.028156932            2 
  159000     1.012148   -7.4087774    49.697022  0.026046657  0.028081483            1 
  160000   0.97767284   -7.3961542    49.872197  0.025975102  0.028007937            2 
  161000    1.0070948   -7.3970909    50.066436  0.025914304  0.027931755            2 
  162000    0.9898117   -7.3954243    50.358488  0.025904572  0.027855687            2 
  163000    1.0298555   -7.4017352    50.654066  0.025896761  0.027780916            1 
  164000   0.99334354   -7.3975942    50.842457  0.025834582  0.027707123            2 
  165000    1.0125193   -7.3739679    51.201853  0.025859522  0.027634545            1 
  166000    0.9968819   -7.4021625    51.568527  0.025887815  0.027564467            3 
  167000    1.0208536   -7.4156168    51.567562  0.025732316  0.027496719            1 
  168000   0.99872094   -7.4321993    51.854744  0.025721599  0.027428806            2 
  169000   0.99724332   -7.4104961    51.845459  0.025564822  0.027359318            1 
  170000   0.97728383   -7.4332547    52.112213  0.025545202  0.027286566            1 
  171000    1.0178054   -7.3770796    52.334435  0.025504111  0.027215956            3 
  172000   0.99160361     -7.44317    52.454008  0.025413763  0.027144793            1 
  173000    0.9871271   -7.4595889    52.525241  0.025301176  0.027072177            2 
  174000    1.0036018   -7.4293946    52.581721  0.025182816   0.02699787            1 
  175000   0.97997383    -7.437804    52.861793  0.025172282  0.026922935            3 
  176000   0.97439149   -7.4613552    53.135511  0.025158859  0.026850008            4 
  177000    1.0016332   -7.4706812    53.336361  0.025111281  0.026776382            2 
  178000   0.99938875   -7.4348216    53.868034  0.025219117  0.026706439            3 
  179000   0.97104325    -7.401112    53.866576  0.025077549   0.02663758            2 
  180000   0.98916199   -7.4568562    53.826073  0.024919478  0.026566042            4 
  181000   0.96093332   -7.4904654      54.1071  0.024911188  0.026495711            2 
  182000    1.0077344   -7.4194437    54.411042  0.024913481  0.026425842            4 
  183000   0.98393254   -7.4174031    54.626909  0.024875642  0.026355889            3 
  184000   0.96001177   -7.4694292     54.71878  0.024782056  0.026286809            1 
  185000   0.95055248   -7.4655992    54.981939  0.024766639  0.026218237            2 
  186000   0.95552001   -7.4801421    55.091692  0.024682658  0.026148084            2 
  187000   0.96216126   -7.5140207    55.149987  0.024576643  0.026077618            1 
  188000   0.97555641   -7.4802498    55.427399  0.024568883  0.026008377            2 
  189000   0.97363499   -7.4911004    55.611953  0.024520261   0.02593793            2 
  190000    0.9706843   -7.5048804    55.550598  0.024364297  0.025868621            1 
  191000   0.95930642   -7.5164797    55.708267  0.024305526  0.025796742            3 
  192000    0.9632654   -7.4714602    56.125967  0.024360229  0.025727105            2 
  193000   0.97416976   -7.5109277    56.207198  0.024269084  0.025658547            1 
  194000   0.96819253   -7.4343787    56.725965  0.024366824   0.02559192            1 
  195000   0.96593071   -7.4970113    56.822915  0.024283297  0.025525897            1 
  196000   0.96602709   -7.5321328    56.742662  0.024125281  0.025458088            5 
  197000    0.9662247   -7.5181943    57.130091  0.024166705   0.02539173            5 
  198000   0.95764453   -7.5169864    57.064513  0.024017051  0.025323824            2 
  199000    0.9400521   -7.5391242     57.15607  0.023934703   0.02525632            2 
  200000   0.94956603   -7.5571234    57.309875  0.023879115   0.02518635            3 
  201000   0.95176618   -7.5343658    57.502547  0.023840193  0.025116876            1 
  202000   0.93558923   -7.5384935    57.481496  0.023713488  0.025047694            1 
  203000   0.92424385   -7.5636034    57.791617  0.023723981  0.024978234            2 
  204000   0.93881797   -7.5932945    57.767186  0.023597707  0.024909531            3 
  205000   0.92884232   -7.5649715     58.01237  0.023582264  0.024840883            2 
  206000   0.92538288   -7.5631483    58.198939   0.02354326  0.024772481            2 
  207000   0.94226624   -7.5903452     58.22298  0.023439203  0.024702781            3 
  208000     0.946925   -7.5701987    58.394935  0.023395407  0.024632609            2 
  209000    0.9423804   -7.6013782    58.576837  0.023355995  0.024564613            1 
  210000   0.93356553   -7.5515037    58.608941  0.023257516  0.024494758            3 
  211000   0.91901662   -7.5790251    58.948815  0.023281522  0.024425476            3 
  212000   0.91916074   -7.5875913    59.004199  0.023193475  0.024357331            2 
  213000   0.93946088   -7.6064654    59.183527  0.023154745  0.024288728            1 
  214000   0.94592598   -7.6185758    59.308557  0.023095233  0.024220257            1 
  215000      0.90999   -7.5872267    59.318121   0.02299152  0.024152477            5 
  216000   0.92271235   -7.6115561    59.697385  0.023031398  0.024083425            2 
  217000    0.9079887   -7.6227721    59.551964  0.022869418  0.024015949            4 
  218000   0.94168726   -7.5900235    60.054146  0.022956478   0.02394948           10 
  219000   0.92058809   -7.6030068    60.150491  0.022888315   0.02388456            3 
  220000   0.92540913   -7.5683702    60.427611  0.022889247  0.023819408            4 
  221000   0.89689348   -7.6094572    60.519548  0.022820342  0.023754068            2 
  222000   0.90422994   -7.6130054    60.511384  0.022714483  0.023688758            5 
  223000    0.9169161   -7.6230223    60.618553  0.022652673  0.023623488            1 
  224000   0.92496653   -7.6538383    60.678918  0.022574002  0.023559083            2 
  225000   0.90284676   -7.6340769    61.000767  0.022592877  0.023495619            3 
  226000   0.90849798   -7.6420775    61.073652  0.022519783  0.023431587            2 
  227000   0.91358863   -7.6210593    61.296451  0.022502368  0.023367634            1 
  228000   0.92227231   -7.6367485    61.235242  0.022381302  0.023302922            3 
  229000    0.9208739   -7.6724298    61.484002  0.022374091  0.023239291            2 
  230000   0.91574464   -7.6585856     61.65191  0.022337649  0.023176712            4 
  231000   0.90335443   -7.6667443     61.97709  0.022358258  0.023114993            2 
  232000   0.89423343   -7.6276901    62.220437  0.022349295  0.023054364            2 
  233000   0.87349784   -7.6601567    62.283016  0.022275757  0.022993944            1 
  234000    0.8987864   -7.6537342    62.130655  0.022126301  0.022933214            1 
  235000   0.89706996   -7.6863241    62.235223  0.022069228  0.022871613            3 
  236000   0.87060455   -7.6807047    62.656997  0.022124646  0.022810121            2 
  237000   0.87241301   -7.6964363    62.564555  0.021998789  0.022749054            1 
  238000   0.87492232   -7.7235608     62.50817  0.021886614  0.022687621            1 
  239000   0.89410823   -7.7394673    62.894751   0.02192983  0.022626314            2 
  240000   0.87470075   -7.6941364    62.884993  0.021835067  0.022565353            5 
  241000   0.87497921   -7.7118902    62.955913  0.021768988  0.022504275            2 
  242000   0.89215185   -7.6882338    62.954443  0.021678527  0.022442615            3 
  243000   0.88547422   -7.7080626    62.957391  0.021590326  0.022380126            2 
  244000   0.87828704   -7.7053773    63.239303  0.021598123   0.02231733            2 
  245000   0.87725156   -7.7467483    63.177419  0.021488918  0.022254777            4 
  246000   0.88360715   -7.7104584    63.578041  0.021537277  0.022192992            1 
  247000   0.86911698   -7.7235963    63.604476     0.021459  0.022131198            1 
  248000   0.87531008   -7.7451974    63.699288  0.021404331  0.022069617            2 
  249000   0.88137257   -7.7535118    63.763193  0.021339757  0.022008167            3 
  250000   0.85975445     -7.76331    63.699806  0.021233269  0.021946679            3 
  251000   0.86793427   -7.7458074    63.881537   0.02120901  0.021885096            2 
  252000   0.88640942   -7.7666892    63.938768  0.021143772  0.021824128            3 
  253000   0.84692448   -7.7697041    64.165956  0.021135032  0.021762544            3 
  254000   0.86775371   -7.7482961    64.102213   0.02103091  0.021701373            2 
  255000   0.87260729   -7.7573378    64.260274   0.02100009  0.021640664            2 
  256000   0.86290685   -7.7560617    64.527585  0.021005073  0.021580078            2 
  257000   0.83851558    -7.773164    64.488387  0.020910631  0.021519367            2 
  258000    0.8678943   -7.7636983     64.63914  0.020878275  0.021459146            2 
  259000   0.86223838   -7.7282882    64.882913  0.020876098  0.021398689            1 
  260000   0.84426883   -7.7632488    64.774323  0.020761001  0.021338586            2 
  261000   0.84607977   -7.7917571    64.964395  0.020742144  0.021278736            5 
  262000   0.84501168   -7.7639249    65.213938  0.020742347  0.021219641            3 
  263000   0.85328956   -7.7890196    65.055134   0.02061316  0.021161098            2 
  264000   0.84942977    -7.801435    65.361168  0.020631682  0.021102259            5 
  265000   0.86302248   -7.8049839    65.291994  0.020532074   0.02104304            2 
  266000    0.8447541   -7.8292967    65.418903  0.020494644  0.020983641            2 
  267000   0.86141825      -7.8083       65.456  0.020429463  0.020924508            2 
  268000   0.83586452   -7.7984283     65.61156  0.020401604  0.020865101            2 
  269000   0.85357429   -7.8363931    65.438113   0.02027203  0.020805897            2 
  270000   0.84326168   -7.8136297    65.782804  0.020303334  0.020746937            4 
  271000    0.8425094   -7.7985253    65.936729  0.020275747  0.020688446            3 
  272000   0.82837998    -7.843649    66.022663  0.020227532  0.020630258            2 
  273000   0.82631269   -7.8204582    65.857782  0.020103108  0.020571897            2 
  274000   0.82196306    -7.858188    65.907635  0.020044901  0.020513144            3 
  275000   0.82263771   -7.8406204    66.098046  0.020029711  0.020454815            5 
  276000   0.81858178   -7.8352334    66.264867  0.020007508  0.020396619            2 
  277000    0.8276682   -7.8780232    66.122737   0.01989252  0.020338999            1 
  278000   0.81118882   -7.8419944    66.367253   0.01989426  0.020281059            1 
  279000    0.8095783   -7.8772033    66.389252  0.019829526  0.020223161            2 
  280000   0.82422222   -7.8653614    66.476579  0.019784696  0.020165491            4 
  281000   0.82209869   -7.8808668    66.497819  0.019720587  0.020107966            5 
  282000   0.80326647   -7.8618671    66.569539   0.01967185  0.020050441            3 
  283000    0.8056573   -7.8566881    66.705029  0.019642235  0.019993443            2 
  284000   0.81912471   -7.8868872     66.68665  0.019567679    0.0199358            2 
  285000   0.82623846   -7.8743513    66.745891  0.019516342  0.019877833            4 
  286000   0.80963102   -7.8749305    66.792522  0.019461691  0.019820021            3 
  287000   0.79136838    -7.866214    66.845345  0.019409217  0.019761737            2 
  288000   0.82983134   -7.8892012    66.850205  0.019343231  0.019703683            2 
  289000   0.80914267   -7.8647385    66.998137  0.019318955  0.019645737            3 
  290000   0.80874364   -7.8680998     66.93417  0.019233957  0.019588008            3 
  291000   0.82174425   -7.8801099    66.782885  0.019124537  0.019529614            1 
  292000    0.7872941   -7.8778087     66.69938  0.019035211  0.019470537            3 
  293000   0.82259106   -7.9254141    66.719536  0.018975977  0.019411323            3 
  294000   0.79755951   -7.9191969    66.788329  0.018930932  0.019351956            3 
  295000   0.79620748   -7.9229982    66.929801  0.018906723  0.019292516            4 
  296000   0.80012966   -7.8902327    67.079446  0.018884979   0.01923323            2 
  297000   0.79348928   -7.9179234    67.007944  0.018801331  0.019174357            2 
  298000   0.78986653   -7.9055087    67.247027  0.018805097  0.019115806            1 
  299000   0.78894159    -7.920412    67.038664  0.018684132  0.019057412            2 
  300000   0.78258801   -7.9545226    67.087053  0.018635292  0.018998512            2 
  301000   0.78809482   -7.9411772    67.243815  0.018616782  0.018940251            2 
  302000   0.77915068   -7.9724333    67.347432  0.018583728  0.018882545            3 
  303000   0.78354984   -7.9539458    67.516747  0.018568962  0.018825335            2 
  304000   0.77147268   -7.9606631    67.577375    0.0185245  0.018768093            1 
  305000    0.7926502    -7.942761    67.616555  0.018474469   0.01871104            1 
  306000   0.77315887   -7.9670978    67.592068  0.018407426  0.018654179            3 
  307000   0.76996339   -7.9330016    67.678008  0.018370795   0.01859744            2 
  308000   0.76553869   -7.9306134    67.649324  0.018303388  0.018541045            1 
  309000    0.7536554   -7.9710156    67.783393  0.018280311  0.018484313            2 
  310000   0.78303984   -7.9734123     67.44212  0.018129602  0.018427539            1 
  311000   0.77607976   -7.9486358    67.693558  0.018138681   0.01837066            3 
  312000   0.76025729   -8.0033561    67.776049  0.018102577  0.018314225            2 
  313000   0.75023093   -8.0275196    67.752456   0.01803846  0.018257346            2 
  314000   0.78278137   -7.9915449    67.792099  0.017991534  0.018200746            3 
  315000     0.752959   -7.9792064    67.852016  0.017950269  0.018144466            3 
  316000   0.77321097   -7.9981893    67.886122  0.017902458   0.01808834            2 
  317000   0.76562574   -7.9961351    67.953847  0.017863787  0.018032321            2 
  318000   0.75930241    -8.006393    67.637746  0.017724776  0.017976043            1 
  319000   0.76779265    -7.993753    67.998995  0.017763583  0.017919516            3 
  320000   0.74609932   -7.9963632    67.855969  0.017670825  0.017862775            3 
  321000   0.74732818   -8.0023609     67.91415   0.01763088  0.017805929            1 
  322000     0.755479   -8.0337816    68.105251  0.017625583  0.017749799            1 
  323000   0.75600968   -7.9871443    67.937313  0.017527687  0.017694074            3 
  324000   0.73086218   -8.0316779    67.886975  0.017460642     0.017638            2 
  325000   0.75387821   -8.0275669    67.844103  0.017395924  0.017581794            6 
  326000    0.7447168   -8.0647256    68.009988  0.017384966   0.01752582            2 
  327000    0.7488833   -8.0585462    68.073107  0.017347887  0.017470068            5 
  328000   0.74914702   -8.0711421    68.214952  0.017331034  0.017414362            1 
  329000   0.73861896    -8.034946    68.153813  0.017262871  0.017359165            3 
  330000   0.74428298   -8.0483858    68.194125  0.017220739  0.017303696            1 
  331000   0.73661858   -8.0223339    68.107416  0.017146882  0.017248364            5 
  332000   0.75952456   -8.0750499    68.173064  0.017111713  0.017193591            2 
  333000   0.72823284   -8.0510488     68.32809  0.017099121  0.017139253            3 
  334000    0.7304881   -8.0559251    68.196814  0.017015173  0.017084955            3 
  335000   0.73212954   -8.0602382    68.165982  0.016956712  0.017030333            2 
  336000   0.73032212   -8.0508005     68.35544  0.016953234  0.016975791            4 
  337000   0.73465201   -8.0916917    68.313246  0.016892494  0.016921584            2 
  338000   0.73833325   -8.0631795    68.348731  0.016851265   0.01686772            1 
  339000   0.72386718   -8.0565506    68.429931  0.016821517  0.016813851            4 
  340000   0.73612843   -8.0538508    68.473708  0.016782772  0.016760418            2 
  341000     0.730435   -8.0756614    68.372123   0.01670873  0.016706922            2 
  342000   0.72284552   -8.0921625    68.449721  0.016678782  0.016653635            1 
  343000   0.72927426    -8.103184    68.552754  0.016655188  0.016600469            3 
  344000   0.70788748   -8.1125383    68.434769   0.01657819  0.016547258            2 
  345000     0.737714   -8.1054607    68.324686  0.016503547  0.016493915            5 
  346000   0.72911413    -8.105677    68.303889   0.01645084  0.016440571            2 
  347000   0.70920625   -8.1434654    68.421547  0.016431688  0.016387369            3 
  348000   0.71437608   -8.1154926    68.331781  0.016362974  0.016334441            3 
  349000   0.70194569   -8.1298239     68.47573  0.016350461   0.01628158            1 
  350000   0.70946293   -8.1355982    68.389972  0.016283327  0.016228705            3 
  351000    0.7077473     -8.14783    68.531137   0.01627045  0.016176059            3 
  352000   0.71323155   -8.1410806    68.419161  0.016197718   0.01612328            4 
  353000   0.71011819   -8.1509893    68.484697  0.016167303  0.016070799            2 
  354000   0.70911182   -8.1436866     68.56239  0.016139922  0.016018416            3 
  355000   0.70403934   -8.1522215    68.545479  0.016090488   0.01596645            3 
  356000   0.69490133   -8.1466548    68.550815  0.016046539  0.015914634            2 
  357000   0.69563044   -8.1527864    68.680993  0.016031978  0.015862969            3 
  358000    0.6904088   -8.1522199    68.608279   0.01597027  0.015811529            2 
  359000   0.68459282   -8.1592003     68.51235  0.015903517  0.015759855            3 
  360000   0.68032284   -8.1860762    68.546344  0.015867209  0.015708587            2 
  361000    0.6968428    -8.170848    68.447289   0.01580039  0.015657269            1 
  362000     0.687349   -8.1694947    68.617746  0.015795982  0.015606128            1 
  363000   0.69987115   -8.1578794    68.606612  0.015749911  0.015554922            1 
  364000   0.70084314   -8.2062544    68.461829  0.015673496  0.015503847            4 
  365000   0.70034464   -8.1887058     68.62988  0.015668922  0.015453013            3 
  366000   0.68513165   -8.2061097    68.582625  0.015615352  0.015402294            2 
  367000    0.6772704   -8.2081933    68.508219  0.015555908  0.015351737            1 
  368000   0.68342606   -8.1949359    68.506886  0.015513335  0.015301045            1 
  369000   0.68425738   -8.2238283    68.468205  0.015462558  0.015250397            2 
  370000   0.66424719   -8.2229954    68.602091  0.015450921  0.015199896            3 
  371000   0.67718849   -8.2159753    68.485277  0.015383036  0.015149482            2 
  372000   0.68582052   -8.2193694    68.556774    0.0153577  0.015099321            1 
  373000   0.65943059    -8.211429    68.574228  0.015320426  0.015049143            2 
  374000   0.68307766   -8.2405758    68.391774  0.015238809  0.014999206            3 
  375000   0.68083245   -8.2207647    68.523432  0.015227429  0.014949238            2 
  376000   0.66919463   -8.2193075    68.348098  0.015148071  0.014899505            3 
  377000   0.66220083   -8.2421512    68.442652  0.015128791  0.014849894            5 
  378000   0.66504508   -8.2266198    68.503095  0.015102093  0.014800488            3 
  379000    0.6681616   -8.2230979    68.550875  0.015072752  0.014751321            6 
  380000   0.67137235   -8.2651335    68.442983  0.015009426  0.014702296            2 
  381000   0.66803887   -8.2363453     68.38104  0.014956483  0.014653457            2 
  382000   0.65390479   -8.2718294    68.370413  0.014915012  0.014604673            2 
  383000   0.65826926   -8.2789579     68.51043  0.014906534  0.014555964            3 
  384000   0.66765018   -8.2772055    68.550245  0.014876355  0.014507476            2 
  385000   0.65622796   -8.2774404     68.51944  0.014831048  0.014459102            6 
  386000   0.66583891   -8.2550318    68.306671  0.014746691  0.014410747            2 
  387000   0.65287528    -8.274452    68.393517  0.014727286  0.014362514            2 
  388000    0.6521549   -8.2604001    68.524152  0.014717387  0.014314582            3 
  389000    0.6546501   -8.2745993    68.441805  0.014661912  0.014266989            3 
  390000    0.6535378   -8.2806366    68.373589  0.014609741  0.014219517            1 
  391000    0.6414839   -8.2972349    68.548593  0.014609675    0.0141723            2 
  392000   0.62531348   -8.2812571    68.531144  0.014568696  0.014125168            3 
  393000   0.63919182   -8.2923296    68.484025  0.014521634  0.014078141            3 
  394000    0.6383804   -8.2903707    68.539048  0.014496415  0.014031151            3 
  395000   0.62920841   -8.3121005    68.461327  0.014443318  0.013984344            3 
  396000   0.63522574   -8.2892139     68.48015  0.014410806  0.013937729            6 
  397000   0.62815278   -8.3089621     68.51027  0.014380829   0.01389133            3 
  398000   0.64224379   -8.3167517    68.500258    0.0143426  0.013845133            3 
  399000   0.62572337   -8.3085562    68.463083  0.014298889   0.01379885            3 
  400000   0.62649915   -8.2919994    68.543868  0.014279972  0.013752784            5 
  401000   0.63370967   -8.2987676    68.504473  0.014236175  0.013706715            3 
  402000   0.62046188   -8.3454828    68.464115  0.014192395   0.01366084            3 
  403000   0.62041104   -8.3352242     68.49113  0.014162765  0.013615159            3 
  404000   0.61302368   -8.3436413    68.327475  0.014093951  0.013569517            3 
  405000   0.62601785   -8.3180377    68.423984  0.014079009  0.013524189            2 
  406000   0.61874236   -8.3409104    68.424378  0.014044412  0.013479006            4 
  407000    0.6184482   -8.3382271    68.346542  0.013993968  0.013433937            2 
  408000   0.61373145   -8.3310193    68.489566  0.013988882  0.013389118            3 
  409000   0.62115873   -8.3522572    68.339763  0.013924157  0.013344331            3 
  410000   0.61879467   -8.3648406    68.381523  0.013898683  0.013299793            2 
  411000   0.60509334   -8.3472771    68.422022  0.013873078  0.013255313            2 
  412000   0.61430239   -8.3736008    68.388575  0.013832641  0.013210942            4 
  413000   0.60719584   -8.3736657    68.250724  0.013771333  0.013166621            3 
  414000   0.60144561    -8.395121    68.410328  0.013770195  0.013122491            2 
  415000   0.61086963   -8.3836524    68.274353  0.013709709   0.01307834            2 
  416000   0.60009156   -8.3896579    68.185964  0.013659047  0.013034328            2 
  417000   0.59971135   -8.3747089     68.25785  0.013640657  0.012990427            3 
  418000   0.60045638   -8.3797723    68.366802  0.013629745  0.012946838            2 
  419000   0.60161603   -8.3855996    68.277071   0.01357937  0.012903483            1 
  420000   0.59566571   -8.3949333    68.302468  0.013552077  0.012860223            3 
  421000   0.59982724   -8.3854705    68.259675  0.013511416  0.012817238            2 
  422000   0.58562995   -8.3829852    68.308865  0.013489112  0.012774353            2 
  423000     0.585998   -8.4089553    68.277607  0.013451065  0.012731631            4 
  424000   0.58987602   -8.4005582    68.230518  0.013410086  0.012688981            3 
  425000   0.59018749   -8.4162143    68.248104  0.013381981  0.012646539            2 
  426000   0.57745619   -8.3980853    68.290907  0.013358941   0.01260427            3 
  427000   0.57986241   -8.4111556    68.270864  0.013323744  0.012562141            5 
  428000    0.5868228   -8.4236488    68.244567  0.013287494   0.01252039            3 
  429000   0.57852124   -8.4129109    68.352289  0.013277445  0.012478737            2 
  430000   0.58562888   -8.4209966     68.26898  0.013230423  0.012437276            1 
  431000   0.56936843   -8.4385895    68.371414  0.013219531  0.012395933            4 
  432000   0.57550949   -8.4298562    68.163765  0.013148874  0.012354691            2 
  433000    0.5647805   -8.4380092    68.215323   0.01312843  0.012313611            2 
  434000   0.56564521   -8.4298388    68.293679  0.013113226  0.012272693            2 
  435000   0.58123364   -8.4161478    68.266786  0.013077928  0.012231982            4 
  436000   0.56158537   -8.4435667    68.369897  0.013067641  0.012191324            3 
  437000   0.57452807   -8.4351062     68.22147  0.013009434  0.012150761            3 
  438000   0.56564079   -8.4646207    68.298786  0.012994442  0.012110347            3 
  439000   0.56208781    -8.445602    68.165293  0.012939501  0.012069958            4 
  440000   0.55844476   -8.4618672    68.213673  0.012919256  0.012029765            6 
  441000    0.5656832   -8.4680398     68.22347  0.012891812  0.011989761            5 
  442000   0.55527522   -8.4395903    68.138279  0.012846583  0.011949849            5 
  443000   0.56010153    -8.454149    68.128847   0.01281581  0.011910222            6 
  444000   0.56495934   -8.4832586    68.173053  0.012795243  0.011870601            2 
  445000   0.56323393   -8.4654701    67.998657  0.012733831  0.011831222            5 
  446000   0.54778028   -8.4771373    68.197258  0.012742388  0.011791913            6 
  447000   0.55031414   -8.4678902    68.144904  0.012704121  0.011752848            4 
  448000    0.5616684   -8.4649632    68.008033  0.012650304  0.011713923            5 
  449000   0.55956223   -8.4838277    68.121706  0.012643227  0.011675103            3 
  450000   0.55427369   -8.4745021    68.156206   0.01262152  0.011636476            2 
  451000   0.54077777   -8.4944157    68.251049  0.012611059  0.011598059            4 
  452000   0.54713872   -8.4919994    68.060709  0.012548066  0.011559786            2 
  453000   0.54923042   -8.4894797    68.165044  0.012539559  0.011521685            6 
  454000    0.5428117   -8.4779722    68.108565  0.012501572  0.011483705            2 
  455000   0.54069962   -8.4916135    68.153468   0.01248232  0.011445862            4 
  456000   0.54738879   -8.4994452    68.112142  0.012447394  0.011408119            4 
  457000   0.54151285   -8.5002917    68.201549   0.01243646  0.011370637            5 
  458000     0.518853   -8.5140122    68.032683  0.012378581  0.011333248            2 
  459000    0.5293476   -8.5083718    68.099133  0.012363677  0.011295908            6 
  460000   0.54471276   -8.5076387    67.994131  0.012317777  0.011258633            3 
  461000   0.53221501   -8.5091287     67.99979  0.012292081  0.011221486            6 
  462000   0.52538046   -8.5238412    68.000588  0.012265618  0.011184542            5 
  463000   0.52454189   -8.5064679    68.076105  0.012252719  0.011147757            7 
  464000   0.52350848   -8.5269839    68.048926  0.012221431  0.011111209            7 
  465000   0.52156605   -8.5319678    68.037418  0.012193086  0.011074787            6 
  466000   0.52296814   -8.5258983    68.007088  0.012161496  0.011038475            8 
  467000   0.52623068   -8.5184653    68.039603  0.012141257  0.011002319            5 
  468000   0.51819496    -8.530982    68.052085  0.012117536  0.010966307            5 
  469000   0.51463194   -8.5393229    67.876852  0.012060564  0.010930414            4 
  470000   0.51762252   -8.5209635    67.956131  0.012048959  0.010894688            5 
  471000   0.51446425   -8.5320489     68.06609  0.012042833  0.010859112            5 
  472000   0.51569549   -8.5272525    68.106075  0.012024378  0.010823622            7 
  473000   0.49316306   -8.5425876    68.079691  0.011994308  0.010788257            4 
  474000   0.50956887   -8.5454985    67.985069  0.011952368     0.010753            5 
  475000   0.51500464   -8.5622772    68.006197  0.011930912  0.010717921            7 
  476000   0.51071793   -8.5665699    67.922057  0.011891116  0.010682988            5 
  477000   0.52110743   -8.5392104    68.011845  0.011881874  0.010648182            4 
  478000   0.50192422   -8.5593687    67.979424  0.011851364  0.010613477            5 
  479000   0.50911938   -8.5635728    67.938559  0.011819513  0.010578879            3 
  480000   0.50033986   -8.5736908    67.963825  0.011799275  0.010544451            4 
  481000   0.49108511   -8.5640672    67.980476  0.011777629  0.010510128            3 
  482000   0.49735381   -8.5891502    67.898109  0.011738954  0.010475932            3 
  483000   0.49973068   -8.5698405    67.844743  0.011705442  0.010441915            5 
  484000   0.49244617   -8.5822405    67.881548  0.011687594  0.010407969            2 
  485000   0.48251174   -8.5769211    67.868602  0.011661272   0.01037413            2 
  486000   0.49361644   -8.5888636    67.954885  0.011652072  0.010340468            3 
  487000   0.48096044   -8.5925938    67.831195  0.011606981  0.010306939            3 
  488000   0.48808161    -8.588641    67.774143  0.011573453  0.010273615            3 
  489000   0.47615104   -8.5869209    67.845431  0.011561934  0.010240368            4 
  490000   0.47769906   -8.5690608    67.767134  0.011525023  0.010207235            3 
  491000   0.48389173     -8.59895    67.816004  0.011509844   0.01017429            4 
  492000   0.49168041   -8.5972721    67.837925  0.011490163  0.010141457            2 
  493000   0.48384424   -8.6011668    67.725542   0.01144786  0.010108768            3 
  494000   0.47647734   -8.5941862    67.784622  0.011434653  0.010076211            2 
  495000   0.48008576   -8.6089713    67.703618  0.011397915  0.010043786            2 
  496000   0.46269189   -8.6183594    67.836285  0.011397225  0.010011503            3 
  497000   0.48306433   -8.6059767    67.816789  0.011371024   0.00997935            2 
  498000   0.46555374   -8.6225452    67.795376  0.011344608 0.0099472746            3 
  499000   0.46805105   -8.6049007    67.786675   0.01132042 0.0099153459            4 
  500000   0.47890765   -8.6099258    67.736689  0.011289448 0.0098834692            4 
  501000   0.47492446   -8.6375203    67.826749  0.011281894 0.0098517148            2 
  502000   0.46258794   -8.6229828    67.765048  0.011249178 0.0098201152            1 
  503000   0.46062821   -8.6238508    67.708566  0.011217456 0.0097886632            2 
  504000   0.47623307    -8.628798    67.677537  0.011190069 0.0097572928            2 
  505000   0.46825162   -8.6438699    67.639336  0.011161607 0.0097260539            3 
  506000   0.46863538   -8.6261556    67.716426  0.011152244 0.0096949191            4 
  507000   0.46157706   -8.6388208    67.683101   0.01112477 0.0096638928            4 
  508000   0.45161864   -8.6272726    67.749517  0.011113766 0.0096329931            3 
  509000   0.45775666   -8.6446553    67.637999  0.011073674 0.0096021974            2 
  510000   0.44457253   -8.6521776    67.623268  0.011049554  0.009571552            4 
  511000   0.44881157   -8.6335668     67.69321  0.011039336 0.0095410375            2 
  512000   0.45374979   -8.6530682    67.593995  0.011001627 0.0095106778            2 
Loop time of 1200.14 on 48 procs for 500000 steps with 4000 atoms

Performance: 71991.402 tau/day, 416.617 timesteps/s
99.4% CPU use with 48 MPI tasks x no OpenMP threads

MPI task timing breakdown:
Section |  min time  |  avg time  |  max time  |%varavg| %total
---------------------------------------------------------------
Pair    | 74.99      | 79.016     | 83.745     |  27.0 |  6.58
Neigh   | 7.8312     | 8.1668     | 8.5282     |   6.0 |  0.68
Comm    | 73.216     | 78.894     | 84.391     |  33.6 |  6.57
Output  | 0.8304     | 0.83094    | 0.83986    |   0.1 |  0.07
Modify  | 1016.8     | 1022.3     | 1026.2     |   7.6 | 85.18
Other   |            | 10.95      |            |       |  0.91

Nlocal:        83.3333 ave          90 max          75 min
Histogram: 1 2 3 1 12 6 11 5 4 3
Nghost:        2056.81 ave        2075 max        2038 min
Histogram: 1 3 9 4 8 6 6 2 6 3
Neighs:        13367.6 ave       14921 max       12006 min
Histogram: 2 4 6 8 6 7 8 4 0 3
FullNghs:      26736.5 ave       29079 max       23708 min
Histogram: 1 2 3 3 10 9 7 5 4 4

Total # of neighbors = 1283350
Ave neighs/atom = 320.83750
Neighbor list builds = 26789
Dangerous builds = 0

#clear
#
#next RN
#
#jump SELF
Total wall time: 0:20:03
