
units lj                  # Use reduced LJ style units
atom_style atomic         # Uncharged point particles
atom_modify map hash      # Needed for indexing of clusters etc
                          # Used to be able to find where atoms are in relation to each other.

lattice fcc 1.0 spacing 1 1 1
Lattice spacing in x,y,z = 1.5874011 1.5874011 1.5874011
region box block 0 10 0 10 0 10 units lattice
create_box 2 box
Created orthogonal box = (0.0000000 0.0000000 0.0000000) to (15.874011 15.874011 15.874011)
  3 by 4 by 4 MPI processor grid
create_atoms 1 box
Created 4000 atoms
  using lattice units in orthogonal box = (0.0000000 0.0000000 0.0000000) to (15.874011 15.874011 15.874011)
  create_atoms CPU = 0.031 seconds
set type 1 type/fraction 2 0.1 78393
Setting atom values ...
  435 settings made for type/fraction
mass 1 1.0
mass 2 1.0
pair_style lj/cut  3.5
pair_modify tail  yes
pair_coeff 1  1  1.0  1.0   # Intearaction between 1 and 1 set with epsilon = 1 and sigma = 1
pair_coeff 1  2  1.5  0.8
pair_coeff 2  2  0.5  0.88

write_data data.0
System init for write_data ...
Neighbor list info ...
  update every 1 steps, delay 10 steps, check yes
  max neighbors/atom: 2000, page size: 100000
  master list distance cutoff = 3.8
  ghost atom cutoff = 3.8
  binsize = 1.9, bins = 9 9 9
  1 neighbor lists, perpetual/occasional/extra = 1 0 0
  (1) pair lj/cut, perpetual
      attributes: half, newton on
      pair build: half/bin/atomonly/newton
      stencil: half/bin/3d
      bin: standard
WARNING: Not all mixed pair coeffs generated from mixing. Use write_data with 'pair ij' option to store all pair coeffs. (../write_data.cpp:312)


#############################
#   M E L T   S Y S T E M   #
#############################

velocity all create 2.4 5300450 mom yes dist gaussian # Assign velocities
                                                    # Temperature 2.4, random number seed, zero linear momentum
                                                                                # Gaussian distribution

timestep 0.002   # simulation timestep
thermo 1000       # output thermodynamic data every 1000 steps bf 100

# Define a fix  in this case with index 1 applied to all
# particles in the simulation. This fix is for simulations
# in the anisotropic NPT ensemble. Note that we use the MTK
# correction.
fix 1 all npt temp 2.4 2.4 0.1 iso 5.68 5.68 0.5 mtk yes tchain 5 pchain 5 # Use NPT ensemble
                                                                         # Set temperature and pressure and damping
                                                                         # Numbers of thermostats in chain and in barostat
run 10000          # run for 10000 steps
Per MPI rank memory allocation (min/avg/max) = 3.642 | 3.644 | 3.648 Mbytes
Step Temp E_pair E_mol TotEng Press Volume 
       0          2.4   -7.6732445            0   -4.0741445   -3.0506691         4000 
    1000    2.3778723   -4.5864025            0   -1.0204857    5.8028236    4829.1861 
    2000    2.4076197   -4.6257828            0   -1.0152561    5.6304714    4833.0604 
    3000    2.3730424   -4.6409796            0   -1.0823059    5.6155024    4818.6259 
    4000    2.3888069   -4.6016051            0   -1.0192906    5.6293922    4833.4656 
    5000    2.3716382   -4.5735802            0   -1.0170122     5.800845    4833.4099 
    6000    2.3928892    -4.635048            0   -1.0466115    5.6708897    4819.8426 
    7000    2.3624928   -4.6329067            0   -1.0900535    5.5324935    4835.7611 
    8000    2.4216421   -4.6441459            0   -1.0125907    5.3824824    4848.8404 
    9000     2.368055   -4.5850176            0    -1.033823    6.0444422    4797.3187 
   10000    2.4346457   -4.5825722            0  -0.93151671    6.1156775    4789.9999 
Loop time of 2.17728 on 48 procs for 10000 steps with 4000 atoms

Performance: 793651.488 tau/day, 4592.891 timesteps/s
99.6% CPU use with 48 MPI tasks x no OpenMP threads

MPI task timing breakdown:
Section |  min time  |  avg time  |  max time  |%varavg| %total
---------------------------------------------------------------
Pair    | 0.88532    | 0.96642    | 1.0735     |   3.5 | 44.39
Neigh   | 0.1895     | 0.19905    | 0.21391    |   1.1 |  9.14
Comm    | 0.6145     | 0.75819    | 0.84229    |   4.7 | 34.82
Output  | 0.00024774 | 0.00025401 | 0.00032169 |   0.0 |  0.01
Modify  | 0.20906    | 0.23893    | 0.26871    |   3.3 | 10.97
Other   |            | 0.01444    |            |       |  0.66

Nlocal:        83.3333 ave          92 max          73 min
Histogram: 2 2 1 5 12 8 6 5 3 4
Nghost:        1458.94 ave        1485 max        1434 min
Histogram: 3 1 3 6 15 6 6 5 2 1
Neighs:        7961.21 ave        9116 max        6389 min
Histogram: 1 2 0 5 7 13 9 4 2 5

Total # of neighbors = 382138
Ave neighs/atom = 95.534500
Neighbor list builds = 907
Dangerous builds = 208

# Equilibrate just above the melting temperature to avoid step fn in T

fix 1 all npt temp 1.25 1.25 0.1 iso 5.68 5.68 0.5 mtk yes tchain 5 pchain 5
run 2000
Per MPI rank memory allocation (min/avg/max) = 3.642 | 3.644 | 3.648 Mbytes
Step Temp E_pair E_mol TotEng Press Volume 
   10000    2.4346457   -4.5825722            0  -0.93151671    6.1156775    4789.9999 
   11000     1.239562   -6.1812933            0   -4.3224151    5.9402001    3969.7928 
   12000    1.2543269   -6.2479725            0   -4.3669524    5.6430166     3960.929 
Loop time of 0.474518 on 48 procs for 2000 steps with 4000 atoms

Performance: 728317.562 tau/day, 4214.801 timesteps/s
99.6% CPU use with 48 MPI tasks x no OpenMP threads

MPI task timing breakdown:
Section |  min time  |  avg time  |  max time  |%varavg| %total
---------------------------------------------------------------
Pair    | 0.20452    | 0.22683    | 0.24173    |   1.9 | 47.80
Neigh   | 0.031422   | 0.033624   | 0.037303   |   0.6 |  7.09
Comm    | 0.14092    | 0.16119    | 0.18488    |   2.5 | 33.97
Output  | 4.99e-05   | 5.1866e-05 | 6.5873e-05 |   0.0 |  0.01
Modify  | 0.043199   | 0.048297   | 0.056104   |   1.5 | 10.18
Other   |            | 0.004524   |            |       |  0.95

Nlocal:        83.3333 ave          90 max          75 min
Histogram: 2 1 3 2 9 7 13 3 6 2
Nghost:        1658.00 ave        1676 max        1635 min
Histogram: 1 3 3 6 6 7 8 5 5 4
Neighs:        9632.98 ave       10284 max        8560 min
Histogram: 2 1 2 3 6 9 6 5 6 8

Total # of neighbors = 462383
Ave neighs/atom = 115.59575
Neighbor list builds = 143
Dangerous builds = 9

#############################
# L I N E A R  Q U E N C H  #
#############################

# Define solid atoms. This closely follows ten Wolde  Ruiz-Montero and Frenkel  Faraday Discuss  1996  104  93-110
# Compute components of the per-atom q6 vector
compute q6 all orientorder/atom degrees 1 6 components 6 nnn NULL cutoff 1.3 # compute the Q6 parameter.
                                                                             # Use all neighbours within 1.3 unit cell.

# get number of connections
compute coord_number all coord/atom orientorder q6 0.5

# An atom is solid if it has 8 or more connections (of a possible 14)
variable is_solid atom c_coord_number>=8
group solid dynamic all var is_solid    # Must be dynamic to update
dynamic group solid defined

# do clustering
compute cluster solid cluster/atom 1.3 # Create a cluster where all atoms within are solid and max 1.3 units from another member

# define chunks one chunk per cluster
compute clus_chunks solid chunk/atom c_cluster nchunk every compress yes  # Says which atoms are in which chunk

# count the size of each chunk
compute size_chunks solid property/chunk clus_chunks count


# Find the maximum entry in the vector of chunk sizes
variable max_n equal max(c_size_chunks)


# Thermo style which includes this variable
# thermo_style custom step temp pe vol v_max_n

thermo ${N}  # Print the thermo information every 100 steps
thermo 1000  

# Reset the npt fix at a lower temperature (below freezing)
fix 1  all npt temp  ${temp} ${temp}  0.1  iso  5.68  5.68  0.5  mtk yes tchain  5  pchain  5
fix 1  all npt temp  0.45 ${temp}  0.1  iso  5.68  5.68  0.5  mtk yes tchain  5  pchain  5
fix 1  all npt temp  0.45 0.45  0.1  iso  5.68  5.68  0.5  mtk yes tchain  5  pchain  5

dump dmp2 all dcd ${N} traj.dcd
dump dmp2 all dcd 1000 traj.dcd


compute msd all msd com yes
variable twopoint equal c_msd[4]/6/(step*dt+1.0e-6)
fix 9 all vector 10 c_msd[4]
variable fit equal slope(f_9)/6/(10*dt)
thermo_style custom step temp pe c_msd[4] v_twopoint v_fit v_max_n

fix 1 all npt temp 1.25 ${temp} 0.1 iso 5.68 5.68 0.5 mtk yes tchain 5 pchain 5
fix 1 all npt temp 1.25 0.45 0.1 iso 5.68 5.68 0.5 mtk yes tchain 5 pchain 5
run 2000000 # 5000000  # Run for this many steps
Neighbor list info ...
  update every 1 steps, delay 10 steps, check yes
  max neighbors/atom: 2000, page size: 100000
  master list distance cutoff = 3.8
  ghost atom cutoff = 3.8
  binsize = 1.9, bins = 9 9 9
  4 neighbor lists, perpetual/occasional/extra = 1 3 0
  (1) pair lj/cut, perpetual
      attributes: half, newton on
      pair build: half/bin/atomonly/newton
      stencil: half/bin/3d
      bin: standard
  (2) compute orientorder/atom, occasional
      attributes: full, newton on
      pair build: full/bin/atomonly
      stencil: full/bin/3d
      bin: standard
  (3) compute coord/atom, occasional
      attributes: full, newton on
      pair build: full/bin/atomonly
      stencil: full/bin/3d
      bin: standard
  (4) compute cluster/atom, occasional
      attributes: full, newton on
      pair build: full/bin/atomonly
      stencil: full/bin/3d
      bin: standard
Per MPI rank memory allocation (min/avg/max) = 9.752 | 9.757 | 9.764 Mbytes
Step Temp PotEng c_msd[4] v_twopoint v_fit v_max_n 
   12000    1.2543269   -6.2479725 3.887901e-30 2.6999311e-32 8.3333333e+20            7 
   13000    1.2659242   -6.2301964   0.55824534 0.0035784956  0.045339592            4 
   14000    1.2616982   -6.2656397    1.0919457 0.0064996767  0.045293756            2 
   15000    1.2694054   -6.2164057    1.6251265 0.0090284804  0.044674597            5 
   16000    1.2216393   -6.2321386    2.1317189  0.011102702  0.044461727            3 
   17000    1.2660114   -6.2112745    2.6978693  0.013224849  0.044359627            2 
   18000    1.2242511   -6.1979949      3.27272  0.015151481  0.044914947            2 
   19000    1.2588525   -6.2012528    3.9240905  0.017210923  0.045689414            2 
   20000    1.2561594   -6.2492138    4.4952671  0.018730279  0.046478138            3 
   21000    1.2343328   -6.2444684    4.9983239  0.019834618  0.046666792            1 
   22000    1.2381382   -6.1853915    5.5668487  0.021086548  0.046747842            3 
   23000    1.2540072   -6.2195242    6.1728233  0.022365301   0.04673286            4 
   24000    1.2524496   -6.2227807    6.7295379  0.023366451  0.046963134            4 
   25000    1.2223706   -6.2365493    7.1897536  0.023965845  0.046851551            2 
   26000    1.2358742   -6.2398613    7.8174896  0.025056056  0.046793458            2 
   27000     1.205023   -6.2331142    8.4232047  0.025997545  0.046822303            1 
   28000    1.2368582    -6.229758    9.0118774  0.026821063  0.046878888            2 
   29000    1.2325492   -6.1986224    9.5322971  0.027391658   0.04686653            2 
   30000    1.2399558   -6.2159664    10.037382  0.027881615  0.046834912            2 
   31000    1.2659344   -6.2446202    10.562945  0.028395012  0.046778635            2 
   32000    1.2350291   -6.2384931    11.185179   0.02912807  0.046784734            2 
   33000    1.2271017   -6.2393521    11.674884   0.02948203  0.046764227            2 
   34000    1.2205506   -6.2515603    12.173855   0.02983788  0.046670665            2 
   35000    1.2225471   -6.2775744    12.702009  0.030242879  0.046562699            4 
   36000      1.20796   -6.1932991    13.250983  0.030673571  0.046429941            1 
   37000     1.244281    -6.236853    13.887609  0.031278398  0.046337351            2 
   38000    1.2480027   -6.2027809     14.40754  0.031595481  0.046286711            2 
   39000    1.2534254   -6.2649532    14.907128  0.031852838  0.046272261            1 
   40000    1.2211961   -6.2321676    15.597063   0.03249388  0.046269219            3 
   41000    1.2393003   -6.3002548    16.062666  0.032647695  0.046271156            3 
   42000    1.2440693   -6.2535642    16.834616  0.033402015  0.046299826            2 
   43000    1.2399904   -6.2503953     17.37137  0.033665446  0.046402515            3 
   44000    1.2447291   -6.2103694    17.907828  0.033916341  0.046435072            5 
   45000    1.2353848   -6.2650691    18.381196  0.034039252  0.046485943            2 
   46000    1.2741862   -6.2518866    18.838085  0.034126965  0.046459462            1 
   47000     1.227033   -6.2301598    19.344864  0.034299403  0.046416743            3 
   48000    1.2244726   -6.2175383    19.775547  0.034332546  0.046332863            4 
   49000    1.2334142   -6.2299682    20.419369  0.034726817  0.046247832            2 
   50000    1.2212447   -6.2620124    20.902554   0.03483759  0.046186557            2 
   51000    1.2027848   -6.2248828    21.378738  0.034932578  0.046111997            4 
   52000    1.2173491   -6.3020414    21.956415  0.035186563  0.046043467            3 
   53000    1.2308556   -6.2685796    22.574246  0.035494098  0.046002706            2 
   54000    1.2441249   -6.2495299    23.166152  0.035750234  0.045986579            1 
   55000    1.2334247   -6.2817662    23.509927  0.035621101  0.045945574            2 
   56000    1.2424699   -6.2450668    23.995431  0.035707486    0.0458809            1 
   57000    1.2314542    -6.253695    24.623985  0.035999977  0.045824831            2 
   58000     1.247491   -6.2392659    25.165686  0.036157594  0.045774368            3 
   59000     1.242293   -6.2779495    25.710269  0.036313939  0.045728853            2 
   60000    1.2490385   -6.2262276    26.180359   0.03636161  0.045676669            2 
   61000     1.241842   -6.2757745    26.698869  0.036473865  0.045631736            2 
   62000    1.2432933    -6.249396    27.253448  0.036630978  0.045583535            1 
   63000    1.2792814   -6.2780081    27.891943  0.036894105   0.04553829            1 
   64000    1.2078651   -6.2432654    28.445919  0.037038957   0.04552136            2 
   65000    1.2223822   -6.2393435    28.947218  0.037111817  0.045499672            2 
   66000    1.2359925   -6.2306153    29.285373  0.036976481  0.045468806            1 
   67000    1.2106547   -6.2329703    29.894259  0.037181914   0.04540812            4 
   68000    1.2372097   -6.2208877    30.551266  0.037440277  0.045369993            1 
   69000    1.2537029   -6.2489821    31.199561  0.037680629  0.045344417            3 
   70000    1.2413219   -6.2364615    31.563415  0.037575494  0.045326377            2 
   71000     1.219618   -6.2437248    32.181011  0.037771139  0.045298453            3 
   72000    1.2369338   -6.2585917    32.599825  0.037731279  0.045272802            1 
   73000    1.2566542   -6.2614288    33.204402  0.037904569  0.045251401            1 
   74000    1.2385256   -6.2666881    33.700643  0.037951174  0.045237061            4 
   75000    1.2442843   -6.2615217    34.433573  0.038259526  0.045220906            2 
   76000    1.2532694   -6.2627764     34.94892  0.038321184  0.045227086            3 
   77000    1.2214627   -6.2894658    35.426265  0.038340114  0.045234226            7 
   78000     1.216796   -6.2691188    36.112935  0.038582195   0.04523713            3 
   79000    1.2210242   -6.2789852     36.89777  0.038921698  0.045254698            2 
   80000    1.2231813   -6.2691385    37.420884  0.038980087  0.045276873            3 
   81000    1.2419774    -6.232012    38.028968  0.039124453  0.045306208            2 
   82000    1.2170332    -6.240724    38.361095  0.038984853  0.045329232            4 
   83000    1.2381025   -6.2999901    38.929963  0.039086308  0.045345911            2 
   84000    1.1993555   -6.2940535    39.293718  0.038981863  0.045349983            3 
   85000    1.2197442   -6.3214912    39.835596  0.039054506  0.045350887            2 
   86000    1.2046969   -6.2713307    40.444944  0.039190837  0.045341874            1 
   87000     1.214495   -6.2809477    40.736708  0.039019835  0.045326522            3 
   88000    1.1824383   -6.2414195    41.571715  0.039367155  0.045309666            2 
   89000    1.2041565   -6.2673348    41.714797  0.039058799  0.045297999            1 
   90000    1.2409733   -6.2606486    42.184419  0.039059647   0.04526831            2 
   91000    1.2207087   -6.2253174    42.793086  0.039187807  0.045236004            2 
   92000    1.2344199   -6.2566104    43.425902  0.039335056  0.045210009            3 
   93000    1.2243592   -6.2658842    43.904101  0.039340592  0.045190938            4 
   94000    1.2316909   -6.2560425    44.574032  0.039515986  0.045173273            4 
   95000    1.2365776   -6.2376482    45.215209  0.039662464  0.045170329            4 
   96000    1.2009992   -6.2705906    45.864851  0.039813238  0.045171004            2 
   97000    1.2251658   -6.2888578    46.398726  0.039861448  0.045170473            2 
   98000    1.2367965   -6.2952095    46.971026  0.039941348  0.045167904            3 
   99000    1.2043652   -6.2824322    47.293376  0.039809239  0.045171821            4 
  100000     1.247482   -6.2900205    47.861917  0.039884931  0.045162985            2 
  101000    1.2152226   -6.3050144    48.260824  0.039819162  0.045156605            3 
  102000    1.1977212   -6.3069105    48.630599  0.039730881  0.045134917            5 
  103000    1.1962197   -6.2566351    49.127635  0.039747277  0.045111031            7 
  104000    1.2104343   -6.2866393    49.357927  0.039549621  0.045084231            4 
  105000    1.2068638   -6.2860942    49.658487  0.039411498  0.045042649            1 
  106000    1.2166468   -6.2982947    50.212745  0.039475428  0.044995508            2 
  107000    1.2274429   -6.3107755    50.754391  0.039528342  0.044943028            2 
  108000    1.1976153   -6.2864196    50.963173  0.039323436  0.044893558            2 
  109000    1.1928171   -6.2946849     51.82618  0.039622462  0.044847813            3 
  110000      1.18057   -6.2579402    52.319911  0.039636296  0.044810663            7 
  111000    1.2203916   -6.3000757    52.860409  0.039684991  0.044775044            3 
  112000    1.1977846   -6.3103899    53.607613  0.039886617  0.044747142            2 
  113000    1.1953569   -6.3270746    53.970471  0.039801232  0.044719757            3 
  114000    1.1943971   -6.3234919    54.209585  0.039626889  0.044685298            2 
  115000    1.2012274   -6.3040286    54.585495  0.039554706  0.044643051            2 
  116000    1.2302382   -6.3153965    55.038073  0.039538845  0.044596864            5 
  117000    1.2053486    -6.334741    55.404042  0.039461568  0.044548655            4 
  118000    1.2031071    -6.313681    56.130347  0.039640075  0.044505204            5 
  119000    1.2083105    -6.317614    56.426795  0.039514562  0.044461526            2 
  120000    1.2001043   -6.2922181    56.869642  0.039492807  0.044409939            1 
  121000    1.2135937   -6.2898786    57.416779  0.039543236  0.044355635            2 
  122000    1.2020418   -6.2953371    57.354567  0.039176617  0.044293874            4 
  123000    1.1773155   -6.2890031     58.29717  0.039496727  0.044234263            3 
  124000    1.2192838   -6.3091999    58.571907   0.03936284  0.044183033            1 
  125000    1.1872332    -6.330872    59.088135   0.03939209  0.044131732            3 
  126000    1.2080186   -6.2712158    59.856887  0.039587888  0.044083604            4 
  127000    1.2133971   -6.3145405    60.344196  0.039595929  0.044038796            1 
  128000    1.1848208   -6.2850712    60.962542  0.039689155  0.044003204            2 
  129000    1.2141828   -6.3010824     61.20368  0.039537261  0.043965095            3 
  130000    1.2133795   -6.2878332    61.931008  0.039699364  0.043925367            2 
  131000    1.1855277   -6.3380295    62.272615  0.039613623  0.043888163            2 
  132000     1.207927   -6.3216829    63.196669  0.039896887  0.043855625            4 
  133000    1.1967818   -6.3054413    63.705367  0.039915643  0.043834622            3 
  134000    1.2249118   -6.3069423    64.504317  0.040114625  0.043814678            6 
  135000    1.1931013   -6.3453708    64.599267   0.03987609  0.043790983            2 
  136000    1.1872887   -6.2766998    65.058579  0.039864325  0.043765933            5 
  137000    1.1723389   -6.3112641    65.484122  0.039832191  0.043738918            3 
  138000      1.15945   -6.3076263     65.88175  0.039783665  0.043704417            3 
  139000    1.2062088   -6.2951822    66.217399   0.03969868  0.043670299            3 
  140000    1.2173305   -6.2855593    66.919267  0.039832897  0.043638635            4 
  141000    1.2173901   -6.3189182    67.157797  0.039691369  0.043606825            3 
  142000     1.204356   -6.3074984    67.853291  0.039820006  0.043572195            2 
  143000    1.1820726   -6.3431344    68.109356  0.039690767  0.043538998            3 
  144000    1.1935643   -6.3094725    68.648951  0.039727402     0.043504            2 
  145000    1.1957402   -6.2823129    69.471068  0.039925901   0.04347381            7 
  146000    1.1986369   -6.2798709    69.861938  0.039875535  0.043445281            2 
  147000    1.2011866   -6.2998401    70.318143  0.039862893  0.043415996            1 
  148000    1.2044551   -6.3521677    70.568947  0.039734768  0.043385665            1 
  149000    1.2026798   -6.2754458    71.168779  0.039803567  0.043359023            2 
  150000    1.1983872   -6.3335287    72.012385   0.04000688  0.043333198            4 
  151000    1.2052931   -6.3483165    72.405585  0.039958932   0.04331108            4 
  152000    1.1751439   -6.3390469    72.819392  0.039922912  0.043285464            2 
  153000    1.2016933   -6.3133992    73.116794  0.039823962  0.043260313            2 
  154000    1.2155356   -6.3363579    73.204411  0.039612777  0.043228806            2 
  155000    1.1754404    -6.330116    73.647034  0.039595179  0.043190572            3 
  156000     1.189237   -6.3593388    74.029697  0.039545778  0.043151438            2 
  157000    1.2085442   -6.3413305    74.526122   0.03955739  0.043112984            2 
  158000    1.1808043   -6.3074455    75.291711  0.039710818  0.043078017            3 
  159000    1.1686582   -6.3698214    75.474049  0.039556629  0.043043316            5 
  160000     1.182226    -6.313911    76.310894  0.039745257  0.043010457            5 
  161000    1.1992913   -6.3813883    76.587851  0.039641745  0.042978488            2 
  162000    1.1705461   -6.3386943    77.119686   0.03967062   0.04294716            2 
  163000    1.1896125   -6.3538994    77.667231  0.039707173  0.042915785            2 
  164000    1.1846387   -6.3395004    77.938979   0.03960314  0.042885537            3 
  165000    1.1715949   -6.2544578    78.761189  0.039778378  0.042850302            3 
  166000    1.2135039    -6.338716    79.280335  0.039799365  0.042817809            2 
  167000    1.1775822   -6.3649402    79.309167  0.039575432  0.042787561            1 
  168000    1.1826307   -6.3551835    79.941114   0.03965333   0.04275376            2 
  169000    1.1931755   -6.3334015    80.099055  0.039496575  0.042719259            4 
  170000    1.1821728   -6.3186098    80.659773  0.039539104  0.042686392            2 
  171000    1.1762593     -6.32636    81.019121  0.039483002  0.042653336            2 
  172000    1.1891103   -6.2963737    81.641433  0.039554958  0.042621055            2 
  173000    1.1584817   -6.3414226    82.127962  0.039560675  0.042590149            2 
  174000    1.1780118   -6.3201633    82.571606  0.039545788  0.042557623            2 
  175000    1.1693887   -6.3370251    82.930522  0.039490725  0.042521785            4 
  176000    1.2240785   -6.3397757    83.453428  0.039513933   0.04248563            2 
  177000    1.2102396   -6.3341357    83.582276  0.039351354  0.042455038            2 
  178000    1.1575568   -6.3406582    84.302557  0.039467489  0.042421966            2 
  179000    1.1619391   -6.3157588    85.184109  0.039657406  0.042388384            3 
  180000    1.1924779   -6.3381777    85.394439  0.039534463  0.042358074            2 
  181000    1.1889344   -6.3549903     86.02921  0.039608292  0.042328887            3 
  182000     1.209721   -6.3865264    86.248205  0.039490936  0.042299462            3 
  183000    1.1775956    -6.319977    86.559247  0.039416779  0.042270829            3 
  184000     1.174188   -6.3552324    87.003631  0.039403818  0.042242174            3 
  185000    1.1970437    -6.349335    87.803663    0.0395512  0.042215961            5 
  186000    1.1627604   -6.3827272    88.285374  0.039554379  0.042189122            4 
  187000     1.164693   -6.3763107    88.966158  0.039646238   0.04216711            4 
  188000    1.2089642   -6.3371749    89.683704  0.039753415  0.042143273            4 
  189000    1.1881917   -6.3439375    90.096981    0.0397253  0.042124435            2 
  190000    1.1739085   -6.3449326     90.54577  0.039713057  0.042104901            2 
  191000    1.1825383    -6.330359     91.48732  0.039915934  0.042089272            3 
  192000     1.191398   -6.3707105    91.408927  0.039674014  0.042073216            4 
  193000    1.1704513   -6.3695716    92.192765  0.039806893   0.04205842            4 
  194000     1.190847   -6.3666594    92.819731  0.039871018  0.042045575            2 
  195000    1.1617136   -6.3287898    93.143979  0.039805119  0.042031994            2 
  196000     1.152934   -6.3233416    93.952618  0.039945841  0.042017155            1 
  197000    1.1584025   -6.3199766    94.285185   0.03988375  0.042003375            2 
  198000    1.1814194   -6.3441978    94.759348   0.03988188  0.041989492            2 
  199000    1.1454509   -6.3681378    95.456981   0.03997361  0.041977383            1 
  200000    1.1749686   -6.3368579    96.281573  0.040117322  0.041968723            4 
  201000    1.1598137   -6.3743155    96.638355  0.040065653  0.041961131            2 
  202000    1.1583022   -6.3695752    97.363599  0.040166501  0.041955205            4 
  203000     1.191573   -6.3819456      97.7263  0.040117529  0.041950108            5 
  204000    1.1778744   -6.2960416    97.993463  0.040030009  0.041946884            2 
  205000    1.1906952   -6.3204769    99.001538  0.040244528  0.041940796            2 
  206000    1.1807176    -6.360638    98.870835  0.039996293  0.041932292            3 
  207000    1.1692096   -6.3823443    99.126953  0.039906181  0.041920373            1 
  208000    1.1771941    -6.342633    99.273138  0.039772892  0.041907579            5 
  209000    1.1740305   -6.3649219    100.14154  0.039928845  0.041894706            3 
  210000    1.1821503   -6.3662513    100.23769  0.039776861  0.041880651            2 
  211000    1.1742031   -6.3791092    101.33541  0.040021883  0.041867364            2 
  212000     1.170824   -6.3936868     101.0906  0.039736873  0.041854851            2 
  213000    1.1802375   -6.3349109    101.81906  0.039835314    0.0418415            7 
  214000     1.164688   -6.3787841    102.15898  0.039781533  0.041827241            2 
  215000     1.174141   -6.3648442    102.71049  0.039810268  0.041813231            5 
  216000    1.1823693   -6.3506531    103.20485  0.039816686  0.041798268            4 
  217000    1.1997351   -6.3335227     103.5215  0.039754802  0.041784102            2 
  218000    1.1469428   -6.3272389    104.16794  0.039819548  0.041768802            3 
  219000    1.1660864    -6.368783    104.29045  0.039684343    0.0417526            2 
  220000    1.1702452   -6.3789289    105.09903   0.03981024  0.041735968            6 
  221000    1.1549519   -6.3546865     105.4576  0.039765309  0.041719597            3 
  222000    1.1649334   -6.4075126     105.6506  0.039658634  0.041701571            3 
  223000    1.1785306     -6.39395    105.89791  0.039573208  0.041681414            3 
  224000    1.1682198   -6.3686816    106.13136  0.039483393  0.041659515            5 
  225000    1.1609567   -6.4074312    106.77102  0.039544824  0.041637267            2 
  226000    1.1467851   -6.3626018    107.13516  0.039504115  0.041615943            4 
  227000    1.1796906    -6.353658    107.36998  0.039416292  0.041592922            3 
  228000    1.1561889    -6.384608    107.54101  0.039305923  0.041568607            2 
  229000    1.1510045   -6.3922979    107.62747  0.039165745  0.041541887            2 
  230000    1.1446426   -6.3812509    107.99481  0.039128552  0.041512991            2 
  231000    1.1566719   -6.3588074     108.5833  0.039171465  0.041483548            3 
  232000    1.1679951   -6.4265758    109.19845  0.039223583  0.041454746            5 
  233000    1.1606153   -6.3762927    109.69943  0.039234417  0.041426546            6 
  234000    1.1668575    -6.392968    109.68108  0.039060213   0.04139898            4 
  235000    1.1557875   -6.3441161    110.77444  0.039281715  0.041371204            3 
  236000    1.1485761   -6.3901434    110.75348  0.039107868  0.041345146            4 
  237000    1.1494886   -6.3734508    111.36768  0.039158819  0.041319984            3 
  238000    1.1738796    -6.378128    111.59869   0.03907517   0.04129173            3 
  239000    1.1848091   -6.3455628    112.16555  0.039109328  0.041264631            3 
  240000    1.1706773   -6.3984491    112.34748  0.039009542  0.041236394            5 
  241000     1.152916   -6.3920591    112.84769  0.039020641  0.041208004            3 
  242000     1.145362   -6.4006591    113.29851  0.039014637  0.041179439            3 
  243000    1.1605216   -6.4153437    114.14574  0.039144629  0.041153327            6 
  244000    1.1458916   -6.3984242    114.26865   0.03902618  0.041126788            2 
  245000    1.1300419   -6.3922303    114.69348  0.039011387   0.04110022            4 
  246000    1.1548137   -6.3943396    114.83039  0.038899183  0.041071558            3 
  247000    1.1500629    -6.385235    115.48219  0.038961604  0.041043216            2 
  248000    1.1573177   -6.3978577     116.1687  0.039035183  0.041017085            2 
  249000    1.1178598   -6.4049531    116.13305  0.038866483  0.040991083           14 
  250000    1.1638773   -6.4236333     116.9117  0.038970567  0.040965823            2 
  251000    1.1784069   -6.3813524    117.37006  0.038967484   0.04094002            1 
  252000    1.1361324   -6.4337154    117.11004  0.038726865  0.040912948            2 
  253000    1.1658841   -6.4208348    117.59675  0.038734106  0.040884136            3 
  254000     1.144878   -6.3883149    118.01689  0.038719453  0.040856112            3 
  255000    1.1377077   -6.3990029    118.42167  0.038699891   0.04082612            3 
  256000    1.1564367   -6.3635787    119.67736  0.038957475  0.040798954            2 
  257000     1.148036    -6.394024    119.77313  0.038836941  0.040773601            2 
  258000    1.1523855   -6.3712228    120.80911  0.039021032  0.040749917            2 
  259000    1.1557474   -6.4071861    120.89006  0.038896416  0.040727064            3 
  260000    1.1627283   -6.3819264    120.89452  0.038748245  0.040702454            2 
  261000    1.1690798   -6.4385484    121.37104  0.038751929  0.040676706            2 
  262000    1.1491359   -6.3892973    122.17472  0.038859643  0.040652455            3 
  263000    1.1590978   -6.3880522    122.92743   0.03895039  0.040630033            2 
  264000     1.141094    -6.440246    122.99665  0.038824701   0.04060867            2 
  265000    1.1445071   -6.4096643    123.13387  0.038721342  0.040586879            2 
  266000    1.1593438   -6.4050784    123.76836  0.038774548  0.040565262            3 
  267000    1.1411211    -6.370113    124.46159  0.038845688  0.040543443            3 
  268000     1.106547   -6.4016511     124.7135  0.038779074  0.040521027            4 
  269000    1.1435352   -6.4235341    124.99053  0.038720735  0.040496939            2 
  270000    1.1468954    -6.413754    125.56568  0.038754838  0.040472705            2 
  271000    1.1485286   -6.3931887    125.85947  0.038702173  0.040448492            2 
  272000    1.1339495   -6.4664894    126.05565   0.03861999   0.04042374            5 
  273000     1.167743    -6.382854     126.9112  0.038739683  0.040398243            4 
  274000    1.1291707   -6.4320701    126.63862  0.038515396  0.040374001            2 
  275000    1.1316013   -6.4114025    127.06505  0.038504561  0.040347003            5 
  276000    1.1561163   -6.3996241     127.6007  0.038526783   0.04032015            2 
  277000    1.1623379    -6.425346    127.59557  0.038386152  0.040292641            3 
  278000    1.1446669   -6.3832213    128.37159  0.038480692  0.040264258            2 
  279000      1.15031   -6.4046212    128.33858  0.038332908  0.040236397            4 
  280000    1.1438417   -6.4091662    128.94743  0.038377212  0.040206869            2 
  281000    1.1474346   -6.4084073    129.56458  0.038423661  0.040179459            2 
  282000    1.1253046   -6.4095999    129.83317  0.038366775  0.040152057            2 
  283000     1.144869   -6.4000782    130.27381  0.038360957  0.040124872            4 
  284000    1.1442844   -6.4118655    130.95223   0.03842495  0.040097538            3 
  285000    1.1481707   -6.3658056    131.34541  0.038405089  0.040070027            2 
  286000    1.1304198   -6.4068187     131.2224  0.038234965  0.040042144            2 
  287000    1.1271327    -6.406141    131.54614  0.038195744  0.040014018            5 
  288000    1.1234368   -6.4378555    131.52551  0.038057148  0.039985309            6 
  289000    1.1170266   -6.4365573    131.97456  0.038054948  0.039954844            2 
  290000    1.1556967   -6.4585804    131.97463  0.037923745  0.039925433            2 
  291000     1.136987   -6.4480597    133.07642   0.03810894  0.039895937            2 
  292000    1.1490465   -6.4306034    133.32542  0.038049493   0.03986811            2 
  293000    1.1161392   -6.4319816    133.92807  0.038091033  0.039841444            3 
  294000    1.1241086   -6.4245846    134.42283  0.038101709  0.039814637            4 
  295000    1.1356587   -6.3902764    134.84704  0.038092383  0.039786949            4 
  296000      1.14021   -6.4454476     134.3944  0.037836263  0.039758306            3 
  297000    1.1280764   -6.4213853     135.3677  0.037981959   0.03972628            3 
  298000    1.1093368   -6.4207879    135.63872   0.03793029  0.039695935            2 
  299000    1.1503482   -6.4294523    135.83624  0.037858484  0.039666944            3 
  300000    1.1302401   -6.4055956    136.54367  0.037928796  0.039638773            1 
  301000    1.1403473   -6.4338778    136.95985   0.03791801  0.039610531            2 
  302000    1.1211071   -6.4123485    136.87335  0.037768584  0.039581495            2 
  303000    1.1221327   -6.4339714    137.32896  0.037769241  0.039553214            3 
  304000    1.1071787   -6.4498144    137.83001  0.037782348  0.039524426            2 
  305000    1.1235551   -6.4565747    138.20855  0.037761898  0.039496744            5 
  306000    1.1351876   -6.4155615    138.56516   0.03773561  0.039469746            4 
  307000    1.1350128    -6.385028    139.20389  0.037786073  0.039443647            2 
  308000    1.1394478   -6.3894193    139.53704  0.037753529  0.039416865            2 
  309000    1.1380294   -6.4318098    140.02151  0.037762005  0.039388986            3 
  310000    1.1367354   -6.4118981    140.46189  0.037758572  0.039362314            9 
  311000    1.1349882   -6.4523898    140.98743  0.037777981  0.039335408            3 
  312000    1.1258228   -6.4710801     141.5362  0.037803472  0.039308441            2 
  313000     1.132183   -6.4067636     141.7388  0.037736636  0.039280802            4 
  314000    1.1269953   -6.4108686    141.95651  0.037674233  0.039253728            3 
  315000    1.1382523    -6.450713    142.34294  0.037656862  0.039225703            4 
  316000    1.1347005    -6.444455    142.65613  0.037620288  0.039198634            6 
  317000    1.1048027   -6.4869768    142.54908  0.037473471  0.039170779            3 
  318000    1.1255382   -6.4461588    143.03043  0.037481768  0.039143359            3 
  319000     1.128103   -6.4096506    143.43789  0.037470714  0.039115216            3 
  320000    1.1131139   -6.4180625    143.91927  0.037478977  0.039086593            2 
  321000    1.1292532   -6.4274243    144.08062  0.037404107  0.039058413            2 
  322000    1.1136279   -6.4291304    144.69211  0.037446198  0.039029685            6 
  323000    1.1500854   -6.4524019    144.87942  0.037378591  0.039001246           10 
  324000    1.1324333   -6.4496955    145.30711  0.037373229  0.038973552            5 
  325000    1.1292189   -6.4294261    145.68226  0.037354427  0.038946587            7 
  326000    1.1152031   -6.4224931    146.70944  0.037502413  0.038920913            2 
  327000    1.1344834   -6.4568302    147.38805  0.037560666  0.038896107            3 
  328000    1.1019824   -6.4652124    147.38695  0.037445872  0.038870595            2 
  329000    1.1339967   -6.4032205    148.18249  0.037533559   0.03884534            3 
  330000    1.1252761   -6.4504054    148.15814  0.037413672  0.038821292            4 
  331000      1.13601   -6.4419865    148.55554  0.037400689  0.038796516            3 
  332000    1.1202726   -6.5016521     148.3833  0.037244804  0.038770907            4 
  333000    1.1114187   -6.4231682    149.21706  0.037341608  0.038743684            3 
  334000    1.1015822   -6.4577901    149.70584  0.037351755  0.038718215            4 
  335000    1.0995609   -6.4461335    150.14134  0.037348592  0.038693175            3 
  336000    1.0830476    -6.475986     150.3924  0.037299703  0.038667147            2 
  337000    1.1487534    -6.410523    150.47581  0.037209647  0.038640693            4 
  338000      1.12935   -6.4425299    150.86424  0.037195325  0.038613735            2 
  339000    1.1275473    -6.428627    151.04303  0.037129554  0.038586367            7 
  340000     1.106033   -6.4696682    151.75625  0.037195159  0.038560331            4 
  341000    1.1385303     -6.41204    152.36125  0.037233931  0.038535684            4 
  342000    1.1192553   -6.4341617    152.99121   0.03727856   0.03851053            3 
  343000    1.1202797   -6.4586798    152.97518  0.037165981  0.038485042            2 
  344000    1.1196664   -6.4332824    153.05099  0.037076306  0.038458719            6 
  345000    1.1195629   -6.4566817    153.88756  0.037170909  0.038433392            5 
  346000    1.0958644   -6.4279178    154.41948  0.037191589   0.03840815            2 
  347000    1.1238253   -6.4756834    154.37235  0.037073091  0.038383855            3 
  348000    1.1071064   -6.4707101    154.90343  0.037093733  0.038360104            3 
  349000    1.1287528   -6.4768764    154.98808  0.037007661  0.038334845            3 
  350000    1.1371087   -6.4354869    155.72878   0.03707828  0.038310587            3 
  351000    1.1326346   -6.4968242    155.69117  0.036963716  0.038285323            4 
  352000    1.1361124   -6.4665123     156.0861  0.036952201  0.038260073            4 
  353000    1.1040725   -6.4830195    156.36345  0.036912997  0.038235216            2 
  354000    1.1031981   -6.4690441     156.7782  0.036906357  0.038210164            2 
  355000    1.1134006   -6.4902409    156.84265  0.036817524  0.038183822            6 
  356000    1.1192437   -6.5041484    157.56328   0.03688279  0.038158031            2 
  357000    1.1193567   -6.4753911    158.06514  0.036896624  0.038132485            4 
  358000    1.1144024   -6.4954899    158.72527  0.036947223  0.038107768            2 
  359000    1.1189712   -6.4605888    158.89051  0.036882662  0.038083534            6 
  360000    1.1099311   -6.4790318    159.26984  0.036868018  0.038059338            1 
  361000    1.1049805   -6.4388101    159.41935  0.036800403  0.038034847            2 
  362000    1.0998186   -6.4897175    160.08775  0.036852613  0.038010316            6 
  363000    1.1134185   -6.4645145    160.46247  0.036837113  0.037988011            3 
  364000    1.0899757   -6.4530572    160.90164  0.036836456  0.037964241            2 
  365000    1.1225517   -6.4705936    160.73896  0.036698392  0.037940578            4 
  366000    1.1082545   -6.5015008     161.5274  0.036777641  0.037916261            2 
  367000     1.100092   -6.4769836    162.18162   0.03682598  0.037892048            4 
  368000    1.0945142   -6.4798619    162.66471  0.036835306  0.037868266            6 
  369000    1.1024173   -6.4922451    162.53589  0.036706389  0.037844674            5 
  370000    1.0847018   -6.4911973    163.06894  0.036727238  0.037821499            2 
  371000    1.1127922   -6.4711922    163.06454  0.036627254  0.037797357            8 
  372000    1.1176147    -6.482899     163.6897  0.036668839  0.037773789            5 
  373000    1.1138335   -6.4988874    163.64437  0.036560403  0.037749333            4 
  374000    1.1107784   -6.5098879    164.38144  0.036626881  0.037725174            3 
  375000    1.1024874   -6.5013958        164.8  0.036622223  0.037701505            4 
  376000    1.0871392   -6.4846353    165.32604  0.036641409  0.037678962            5 
  377000    1.1105091   -6.4485178    165.81471  0.036652235  0.037656639            5 
  378000    1.1203603   -6.4838397    166.24017  0.036649068  0.037634424            5 
  379000    1.1104539   -6.4998083     166.3877  0.036584806  0.037612378            3 
  380000    1.0967727   -6.4702763     167.4449  0.036720372  0.037589597            2 
  381000    1.1217283   -6.4872688    166.88124  0.036500708  0.037568427            4 
  382000    1.0948161   -6.5010263    167.65185  0.036573266  0.037547339            3 
  383000    1.1043234   -6.4851283    168.16776  0.036590026  0.037526669            5 
  384000     1.100681   -6.4740689    168.68745   0.03660752  0.037506442            3 
  385000     1.102827    -6.516593    168.68171  0.036511192  0.037486676            2 
  386000    1.0909309   -6.5278498    169.19852  0.036528178  0.037465875            2 
  387000    1.0786702   -6.4644054    170.46501  0.036706506  0.037445941            3 
  388000    1.0885261   -6.4605685    170.55321  0.036630845  0.037426101            5 
  389000    1.1037733   -6.4567507    170.57473  0.036541287  0.037406349            4 
  390000    1.0905816   -6.5309517    170.66178  0.036466192  0.037385489            2 
  391000     1.088094   -6.4826202    171.49108  0.036549677  0.037364799            7 
  392000    1.0907866   -6.4694782     171.9388  0.036551616  0.037344938            1 
  393000    1.0907777   -6.5390979    171.56439  0.036379217  0.037324405            3 
  394000    1.1094201   -6.4613408    172.48822   0.03648228  0.037303908            4 
  395000    1.0985194   -6.5129304    172.04133   0.03629564    0.0372833            3 
  396000     1.110602   -6.5015565    173.05343  0.036416967  0.037262936            2 
  397000    1.0947422   -6.4874271    173.37293  0.036392302  0.037242895            5 
  398000    1.0696539   -6.4853908    173.91342  0.036414034  0.037223332            3 
  399000    1.0934985   -6.5269743    174.31897   0.03640747  0.037203054            2 
  400000    1.0917789   -6.5330011    174.17555  0.036286573   0.03718285            4 
  401000    1.1131088   -6.4961043    175.06226  0.036380353  0.037162914            4 
  402000    1.0628888   -6.5196355    175.19262  0.036316879  0.037143339            2 
  403000    1.0968463   -6.5163686    175.35139  0.036259592    0.0371236            4 
  404000    1.0860066    -6.517677    175.65664  0.036232805  0.037102583            9 
  405000    1.1124208   -6.5099389    176.48042  0.036312844  0.037081974            4 
  406000    1.0924756   -6.5039996    176.35744  0.036198161    0.0370609            4 
  407000    1.0957146    -6.497534    176.36956  0.036111704  0.037038195            4 
  408000    1.0853783   -6.4893011    176.76026  0.036102995  0.037016159            4 
  409000    1.1099794   -6.5284798    176.73172  0.036008908  0.036993809            4 
  410000    1.0971114   -6.5090668    177.07692  0.035991245  0.036970661            5 
  411000    1.0945351   -6.5300587    177.16895  0.035922335  0.036946764            6 
  412000    1.0847039   -6.5032112    177.23923  0.035849359  0.036922298            2 
  413000     1.093969   -6.4840176    177.65415  0.035846276  0.036897812            4 
  414000    1.1056763   -6.4963898     177.7863  0.035786291  0.036872247            7 
  415000    1.0903503   -6.4947948    178.15253  0.035773601  0.036846582            2 
  416000    1.1091202   -6.4998214     178.4871  0.035754628  0.036821074            2 
  417000    1.0805832   -6.5352724    178.52185   0.03567583  0.036795656            5 
  418000    1.0823338   -6.4876984     179.0814  0.035702034  0.036770567            2 
  419000    1.0893034   -6.5179513    179.15849  0.035632158    0.0367458            4 
  420000    1.1025622   -6.4933508    179.92918  0.035700234  0.036721268            3 
  421000    1.0705737   -6.4962505    180.14944  0.035659035  0.036697428            4 
  422000    1.0757258   -6.5379608    180.54182  0.035652018  0.036673581            5 
  423000    1.0845452   -6.5403614     180.9673  0.035651557  0.036649955            6 
  424000    1.0892902   -6.4998873    181.75266  0.035721829  0.036626813            6 
  425000    1.0726034    -6.569211    181.81471  0.035649943  0.036603547            7 
  426000    1.0862358   -6.4962888     182.5632  0.035712677  0.036579744            5 
  427000    1.0624258   -6.5076941    182.33786  0.035585062  0.036556055            2 
  428000    1.0868542   -6.5145866    182.89149  0.035609714  0.036532112            5 
  429000    1.0814748   -6.5291583    183.50845  0.035646552  0.036509185            2 
  430000    1.0769819    -6.532107    183.71798  0.035604259  0.036486185            7 
  431000    1.1058527   -6.5427254    183.72857  0.035523699  0.036463374            5 
  432000    1.0820094   -6.5121893    184.64393  0.035618041   0.03644126            4 
  433000    1.1018978   -6.5049876    184.99157  0.035602689  0.036419361            4 
  434000    1.1024466   -6.5149361    185.03509   0.03552901  0.036398087            3 
  435000    1.0909939   -6.5219152    184.93583   0.03542832  0.036376975            5 
  436000    1.0793278   -6.5097453    186.86755  0.035716275  0.036356276            2 
  437000    1.1251772   -6.5467963    186.67319   0.03559748  0.036335665            3 
  438000    1.0777835   -6.5027961    187.59512  0.035691613  0.036315731            5 
  439000    1.0462528   -6.5367033     187.5167  0.035595426  0.036295558            4 
  440000    1.0721117   -6.5228622    187.75869  0.035560358  0.036275778            2 
  441000    1.0956437   -6.5234909    188.70342  0.035658242  0.036255768            5 
  442000    1.0654505   -6.5416677    188.58697  0.035555613  0.036235415            3 
  443000    1.0721028   -6.5412595    189.05397    0.0355632  0.036215376            6 
  444000    1.0918631   -6.5181848    188.93744  0.035461231  0.036196145            4 
  445000    1.0931994   -6.5450598    189.70587  0.035525444  0.036176695            7 
  446000    1.0575484   -6.4876264    190.71577  0.035634486  0.036157853            1 
  447000    1.0689527   -6.5431211    191.24539  0.035653504  0.036139164            2 
  448000    1.0741733   -6.5569372    190.12582  0.035365666  0.036119445            6 
  449000    1.0929498   -6.5594549    191.03019   0.03545475   0.03609909            3 
  450000    1.0771613   -6.5759278    191.41411  0.035447057  0.036079538            4 
  451000     1.075313   -6.5356585    192.06182  0.035488141  0.036059596            3 
  452000     1.073197   -6.5189442    192.07621  0.035412281  0.036039531            3 
  453000    1.0533527   -6.5736528    192.40903  0.035395333  0.036019404            2 
  454000    1.0768256   -6.5065589    193.34471  0.035489118  0.035999866            7 
  455000    1.0778107   -6.5454016    193.08317  0.035363218  0.035980606            2 
  456000    1.0589923   -6.5606996    193.64049  0.035387517  0.035961307            4 
  457000    1.0748024   -6.5171888     193.5511  0.035293782   0.03594222            2 
  458000    1.0847386   -6.5308401    194.13675  0.035323281  0.035923282            5 
  459000    1.0605049    -6.540819    194.41318   0.03529651  0.035903866            4 
  460000    1.0733977   -6.5612067    194.82446  0.035294286  0.035884926            7 
  461000    1.0828328   -6.5493499    195.06756   0.03526167  0.035865963            4 
  462000    1.0812067   -6.5373764    196.38261  0.035422549  0.035847759            4 
  463000    1.0606193   -6.5836293    195.75146  0.035232444  0.035829106            2 
  464000    1.0634026     -6.53874    196.07438  0.035214507  0.035811133            4 
  465000    1.0673519   -6.5443582    197.02719  0.035309532  0.035793057            4 
  466000    1.0763252   -6.5403742    197.63945  0.035343249  0.035775478            3 
  467000    1.0557966   -6.5966184    197.03622  0.035159925  0.035757585            6 
  468000    1.0497443    -6.543557     197.9838  0.035253525  0.035739794            6 
  469000    1.0780885   -6.5531092    198.91475  0.035343772  0.035722122            4 
  470000    1.0650372   -6.5566069    198.51483  0.035197666  0.035704803            2 
  471000    1.0648707   -6.5302836    199.68383  0.035329766  0.035687491            4 
  472000    1.0689144   -6.5296735    200.17759  0.035342089  0.035671436            3 
  473000    1.0616471   -6.5454453    200.85095  0.035386003  0.035655492            4 
  474000     1.074396   -6.6038391    200.76204  0.035295718  0.035639648            4 
  475000    1.0536146   -6.5473452    200.94866  0.035254151  0.035623594            2 
  476000    1.0628669   -6.5318395    202.07963  0.035378086  0.035608114            6 
  477000    1.0684338   -6.5559748    201.63316  0.035225918  0.035591849            3 
  478000    1.0596731   -6.5829395    202.13815  0.035240263   0.03557601            6 
  479000    1.0817972   -6.5391282    202.96566  0.035310658   0.03556016            4 
  480000     1.080326   -6.5689017    202.25559  0.035113818  0.035544429            3 
  481000    1.0686248   -6.5726341    203.27272  0.035217035   0.03552803            3 
  482000    1.0487363    -6.551129    203.96479  0.035263622  0.035511766            4 
  483000    1.0694179   -6.5544491    203.45206  0.035102149  0.035495117            3 
  484000      1.06726   -6.5331255     203.2867  0.035001153  0.035477458            6 
  485000    1.0650907   -6.5604396    203.85568  0.035026749  0.035459746            7 
  486000    1.0624185   -6.5410225    203.90871  0.034963771  0.035441327            4 
  487000    1.0762055   -6.5637021    203.84698  0.034881413  0.035422582            4 
  488000    1.0708987   -6.5741845     204.9721  0.035002067  0.035404206            2 
  489000    1.0824059   -6.5903479    204.14322  0.034789233  0.035385655            6 
  490000    1.0444028   -6.5789226    205.02638  0.034868432  0.035366916            7 
  491000    1.0562691   -6.5620465    205.18862  0.034824953  0.035347778            7 
  492000    1.0613105   -6.5519502    205.38011  0.034786604  0.035328026            6 
  493000    1.0410225   -6.5609428    205.07535  0.034664528  0.035308069            2 
  494000    1.0503981   -6.5700529    205.95207  0.034742251  0.035288671           18 
  495000     1.044027   -6.5622048    206.03596  0.034686188  0.035269046            2 
  496000    1.0559026   -6.6036336    206.21438  0.034646234  0.035249864            4 
  497000    1.0514196   -6.5540143    207.43109  0.034780531  0.035230977            2 
  498000    1.0495375   -6.5826704    207.24968  0.034680334  0.035212808            3 
  499000    1.0472168   -6.6136761    207.87513  0.034715285  0.035194205            3 
  500000    1.0441645   -6.5806774    208.31676   0.03471946  0.035175323            5 
  501000    1.0633815   -6.5674984    208.56203  0.034690956  0.035156443            2 
  502000    1.0733104   -6.5661874    208.13277  0.034550592  0.035137575            2 
  503000     1.056337   -6.5861173    208.61513  0.034561817  0.035118565            4 
  504000     1.048201   -6.5790252    209.38599    0.0346207  0.035099903            2 
  505000    1.0515962   -6.5948454    209.22674  0.034525865  0.035080764            1 
  506000    1.0551475   -6.6055028    209.39316  0.034485039  0.035061264            4 
  507000     1.045607    -6.607189    209.49639   0.03443399  0.035042051            2 
  508000     1.061793   -6.5896379    210.50105  0.034531012   0.03502316            3 
  509000    1.0376616    -6.600444    210.24013  0.034420453  0.035004362            4 
  510000    1.0759296   -6.5903686    211.18098  0.034506697  0.034985313           10 
  511000    1.0482254    -6.555836    211.12047  0.034429301  0.034966324            8 
  512000    1.0393184   -6.5857195    211.75879  0.034465949  0.034947465            5 
  513000    1.0422749   -6.5762258    212.18056  0.034467278  0.034928558            3 
  514000    1.0568301   -6.5895146    212.60203  0.034468553  0.034910125            3 
  515000    1.0396287   -6.5560184    213.18987  0.034496743  0.034891577            2 
  516000    1.0449984   -6.5895476    212.76235  0.034360845  0.034872883            5 
  517000    1.0508732   -6.6007147    212.92457  0.034320529  0.034853809            2 
  518000    1.0572653   -6.5882403    213.32491   0.03431868   0.03483543            8 
  519000    1.0619611   -6.6135563    214.19152  0.034391703   0.03481692            3 
  520000     1.039702   -6.5932004    214.41998  0.034362177  0.034798703            4 
  521000    1.0337942   -6.6452108    214.72095  0.034344362  0.034780758            3 
  522000    1.0556107   -6.6117617    214.71454  0.034277544  0.034762467            4 
  523000      1.04566   -6.5924609    215.01319  0.034259591  0.034744034            6 
  524000    1.0495301   -6.6355511    214.56614  0.034123114  0.034725224            5 
  525000    1.0583073   -6.5659261    215.03357  0.034132313  0.034706258            4 
  526000    1.0601851   -6.5670726    215.65468  0.034165824  0.034686272            3 
  527000    1.0194894   -6.5602673    217.06766  0.034324424  0.034666873            3 
  528000    1.0462946    -6.580969    216.06553  0.034101251   0.03464746            3 
  529000    1.0591033   -6.6370219    216.09361  0.034041212  0.034628174            2 
  530000    1.0669389   -6.5979303    216.95195  0.034111941  0.034608845            2 
  531000    1.0388108   -6.5769835    216.89407  0.034038617  0.034589364            5 
  532000    1.0491723   -6.6129442    217.34755  0.034045669  0.034570524            2 
  533000    1.0460904    -6.610669    217.45166   0.03399807  0.034551253            2 
  534000    1.0223605   -6.6359523    217.88538  0.034002088   0.03453139            3 
  535000    1.0178964   -6.6213104     217.8453   0.03393229  0.034511312            4 
  536000    1.0466486   -6.5944818    218.88038  0.034029909  0.034491677            3 
  537000    1.0617951   -6.5841867    220.24858  0.034178861  0.034472697            4 
  538000    1.0454005   -6.6000118    219.40916   0.03398531  0.034454282            4 
  539000    1.0250488   -6.5748467    220.23233  0.034049525  0.034435537            4 
  540000    1.0384597   -6.6190674    219.61059  0.033890523  0.034416686            8 
  541000    1.0203692   -6.5751176    220.04202  0.033894334  0.034397567            3 
  542000     1.026917   -6.5650268    221.86751   0.03411247  0.034378771            4 
  543000    1.0623438   -6.5818018    221.70209  0.034024261  0.034360679            2 
  544000     1.056345   -6.5809622    222.12787  0.034026941  0.034342891            2 
  545000    1.0332718   -6.6236378    221.81949  0.033917353  0.034324718            5 
  546000    1.0260739   -6.6320074     221.5393   0.03381247  0.034306271            3 
  547000     1.031726   -6.5901433    222.86407  0.033952479  0.034287595            6 
  548000    1.0441417   -6.6083491    223.26291  0.033951172  0.034269732            4 
  549000    1.0325771   -6.5698553    223.60306  0.033940962  0.034251679            6 
  550000    1.0504831   -6.6168079    223.83674  0.033914658  0.034234027            3 
  551000     1.008967   -6.6251183     223.5592  0.033811131   0.03421579            3 
  552000    1.0358681   -6.6061441    224.18484   0.03384433  0.034197341            5 
  553000    1.0266519   -6.5928424     223.7013  0.033710263  0.034179081            3 
  554000    1.0298741   -6.6318404    224.75402  0.033807765  0.034160738            6 
  555000    1.0495643   -6.6197947    224.80198  0.033754051  0.034142564           11 
  556000    1.0410356   -6.6428998    225.54792  0.033805144  0.034124207            3 
  557000    1.0490248   -6.6030805     224.8637  0.033642085  0.034105809            5 
  558000     1.013235   -6.5839821    225.30843  0.033648213  0.034087113            6 
  559000     1.008456   -6.6405844    224.69873  0.033497127   0.03406765            3 
  560000    1.0245088   -6.6125403    225.15391  0.033505047  0.034047676            2 
  561000    1.0210108   -6.5946409    225.10746  0.033438422  0.034027667            5 
  562000    1.0218201    -6.630813    225.59638   0.03345142  0.034007577            5 
  563000    1.0412578   -6.6263633    225.55005  0.033385146  0.033987794            5 
  564000    1.0147959   -6.6295628      226.776  0.033507092  0.033967935            2 
  565000    1.0444657   -6.5953028    226.58881  0.033420179  0.033948231            2 
  566000     1.035979   -6.6160865    226.72939  0.033381831  0.033928777            4 
  567000    1.0227751   -6.6091427    227.43208  0.033426231  0.033909141            3 
  568000    1.0502407   -6.6559599    227.53791   0.03338291  0.033889357            4 
  569000    1.0637615   -6.5628413    228.18922  0.033419627  0.033869501            4 
  570000    1.0457202   -6.6429079     228.2023  0.033362909  0.033850201            2 
  571000    1.0017534   -6.5940461    227.92756  0.033264384  0.033830462            7 
  572000    1.0393165   -6.6639493    228.64076  0.033310133  0.033810961            5 
  573000    1.0207447   -6.6108486    230.03202  0.033454337  0.033791508            6 
  574000    1.0228737   -6.6088718    229.41131  0.033305939  0.033772753            2 
  575000    1.0352002   -6.6204755    230.43541  0.033396436  0.033753591            5 
  576000    1.0096103   -6.6388002    230.24594  0.033311044  0.033734327            4 
  577000    1.0399896   -6.6088535    230.48215  0.033287428  0.033715147            5 
  578000    1.0244598   -6.6370586    231.11714  0.033321387  0.033695578            3 
  579000    1.0465097    -6.610304    231.04167  0.033252975  0.033676095            3 
  580000    1.0290465   -6.6431061    231.65629   0.03328395  0.033656828            6 
  581000    1.0302701   -6.6070831    231.30818  0.033176733  0.033638152            3 
  582000    1.0258867   -6.6011247    231.79455  0.033189368  0.033619135            2 
  583000    1.0043534   -6.6297894    231.92345  0.033150865  0.033600016            2 
  584000    1.0297338   -6.6532564    231.96878  0.033100568  0.033580745            3 
  585000    1.0017552   -6.6397299    232.04666   0.03305508  0.033561708            4 
  586000    0.9912332    -6.635615    233.07705  0.033145201  0.033542768            6 
  587000     1.007258   -6.6374234    233.26873  0.033115946  0.033523881            3 
  588000     1.044925   -6.6405408    233.42034  0.033081114  0.033504698            6 
  589000    1.0217761   -6.6559035    233.67321  0.033060726  0.033485327            5 
  590000    1.0290272   -6.6483538     234.5829  0.033133178  0.033466207            3 
  591000    1.0408238   -6.6381996    234.72161  0.033096673  0.033447474            7 
  592000    1.0342586   -6.6400357    234.66127  0.033032273   0.03342845            5 
  593000    1.0407403    -6.610262    235.37977  0.033077539  0.033409624            2 
  594000    1.0231779   -6.6556038    234.76376  0.032935432  0.033390794            4 
  595000    1.0317026   -6.6460022     235.6488  0.033004033  0.033371928            5 
  596000    1.0029938   -6.6494464    235.33216  0.032904384  0.033352694            3 
  597000    1.0055719   -6.6454765    236.05849  0.032950655  0.033333531            2 
  598000    1.0141468    -6.621182    235.72187  0.032848643  0.033314364            4 
  599000    1.0148617   -6.6698851    236.79315  0.032942842  0.033295135            4 
  600000    1.0400126   -6.6892003    236.08117  0.032789051  0.033275931            4 
  601000    1.0173895   -6.6344061    236.97139   0.03285793  0.033257227            3 
  602000   0.98668527   -6.6092076    237.22792   0.03283886  0.033238385            3 
  603000    1.0251244    -6.662743    237.64533  0.032842085  0.033219664            3 
  604000    1.0058393   -6.6448776    238.03146  0.032840985  0.033201093            6 
  605000    1.0238614    -6.646269    238.51671  0.032853541  0.033182473            5 
  606000    1.0122519   -6.6652882    238.34638  0.032775905  0.033163661            3 
  607000    1.0197827   -6.6740143    238.45171  0.032736369   0.03314479            4 
  608000    1.0199229   -6.6858571    238.12184  0.032637314  0.033125438            5 
  609000    1.0123845   -6.6534085     238.2747  0.032604639  0.033106121            5 
  610000    1.0165311   -6.6803433    239.04923  0.032656999  0.033086805            3 
  611000    1.0188839   -6.6866778    238.78014  0.032566849  0.033066958            4 
  612000    1.0109202    -6.649018     239.4944  0.032610894  0.033047252            4 
  613000    1.0084182   -6.6496096     240.2562  0.032661256  0.033027885            3 
  614000    1.0126789   -6.6914177    240.22552  0.032603898  0.033008535            2 
  615000    1.0024158   -6.6475864     240.4997  0.032588035  0.032988924            3 
  616000    1.0056291   -6.6229163    241.14165  0.032621976  0.032970225            4 
  617000   0.98770154   -6.6545364     241.4456  0.032610157    0.0329515            3 
  618000   0.99660084   -6.6431793    241.42804  0.032555022  0.032932467            2 
  619000   0.99876069   -6.7070018    240.98476  0.032442752  0.032913818            6 
  620000    1.0076026   -6.6747025    242.29014  0.032565879  0.032895368            5 
  621000   0.97416303   -6.6470655     242.9985  0.032608495  0.032876895            5 
  622000    1.0223489   -6.7205927    242.41177  0.032477462   0.03285846            4 
  623000   0.98071515   -6.6659241    243.07174  0.032513609  0.032839864            3 
  624000    1.0236529   -6.6933594    242.76796  0.032420935  0.032821442            4 
  625000   0.96750971    -6.686634    243.14119  0.032418825  0.032802995            7 
  626000    1.0159163   -6.6606487    244.35122  0.032528118  0.032784438            3 
  627000    1.0010972    -6.671224    243.87034  0.032412326  0.032765695            5 
  628000   0.99667104   -6.6750673    244.80808  0.032485149  0.032747049            4 
  629000    1.0199406   -6.6520576    245.00077  0.032459032   0.03272853            6 
  630000   0.99569671   -6.6458151    245.45384  0.032467439   0.03271029            4 
  631000   0.99052685   -6.7029442    245.54037  0.032427412  0.032692005            5 
  632000    1.0055564   -6.7066216    244.94936  0.032298175  0.032673518            2 
  633000    1.0085891   -6.6966574    245.31888  0.032295797  0.032654959            7 
  634000    1.0001801   -6.7150623    245.66677  0.032290585  0.032636193            4 
  635000   0.98140673   -6.7097453    245.16714  0.032174166  0.032617587            4 
  636000   0.99435442   -6.6865453    246.31225  0.032273617  0.032598868            3 
  637000     1.004717   -6.7090092    245.96573   0.03217762  0.032579993            3 
  638000   0.99928964   -6.6758319    246.32072  0.032173552  0.032560825            4 
  639000   0.97953876   -6.6859485    246.87103   0.03219497  0.032541997            8 
  640000    1.0157283   -6.6731619    246.69479  0.032121718  0.032522684            3 
  641000    1.0169899   -6.6590914    247.13272  0.032128538  0.032503383            2 
  642000    1.0037199   -6.7052215    246.65813  0.032016891  0.032483577            6 
  643000   0.98883038   -6.6621349    247.57103  0.032085411  0.032464064            4 
  644000   0.99741427   -6.6629065    247.78075  0.032062726  0.032444464            3 
  645000   0.97416126   -6.6894161    248.48016  0.032103379  0.032424388            6 
  646000    1.0048235   -6.7015972    247.56951  0.031936211  0.032404441            5 
  647000    1.0186773   -6.6706951     247.7039  0.031904161  0.032384229            5 
  648000    0.9914434   -6.6989633    248.07724  0.031902937  0.032363921            3 
  649000   0.99107832   -6.6785798    248.55081  0.031914588  0.032343575            4 
  650000    1.0101111   -6.6951672    248.26774  0.031829198  0.032323231            3 
  651000   0.98467558   -6.7362413    249.00865  0.031875147  0.032303157            2 
  652000    1.0024444   -6.6812373    248.12668  0.031713532  0.032282551            6 
  653000   0.98588824   -6.6923619    247.92439  0.031639151   0.03226205            3 
  654000   0.99030342   -6.6799774    249.05322   0.03173461   0.03224115            3 
  655000   0.98435967   -6.7318715    247.71764  0.031516239  0.032220196            2 
  656000   0.98165171    -6.699502    248.85192  0.031612287  0.032199336            6 
  657000   0.97562764   -6.7294125    249.77116  0.031680766  0.032178874            3 
  658000    1.0011602    -6.714079    249.95237  0.031655569  0.032158481            9 
  659000    1.0018588    -6.690533    249.68025  0.031573122  0.032137992            4 
  660000   0.98862965   -6.6806973    250.66402  0.031649498   0.03211752            3 
  661000   0.98155378   -6.6852223    250.73044   0.03160999  0.032097013            3 
  662000   0.99133905   -6.6870025    250.82127  0.031573675  0.032076603            3 
  663000    1.0003982   -6.6948471    251.37272  0.031595364  0.032056498            6 
  664000    0.9820755   -6.7495653    252.07143   0.03163547  0.032036166            3 
  665000   0.98042268   -6.6885058    250.79217  0.031427591  0.032015865            7 
  666000   0.98378765   -6.7039967    252.22556  0.031559755  0.031995661            2 
  667000   0.96983985   -6.6531479     252.6895  0.031570402  0.031975659            2 
  668000    1.0153444   -6.6731959    252.96743  0.031557813  0.031955957            5 
  669000   0.98657573   -6.7173551    253.23003  0.031543352  0.031936254            4 
  670000   0.99181483   -6.7288409    252.95993  0.031462678  0.031916413            6 
  671000   0.97498665   -6.6839308    253.94196  0.031537749  0.031896854            2 
  672000   0.97685793   -6.7018626    253.44911  0.031429701    0.0318775           13 
  673000   0.98856822   -6.7256691    254.43304  0.031504834  0.031858181            9 
  674000    1.0074269   -6.7256303    254.62482  0.031481803  0.031838943            5 
  675000   0.96803131   -6.6788143    255.07518  0.031490763  0.031819852            4 
  676000   0.98280524   -6.7174277    255.66801   0.03151726  0.031800827            2 
  677000    1.0000772   -6.7001687    255.67377  0.031471415   0.03178185            5 
  678000    1.0006018    -6.729148     255.1537  0.031361075  0.031762951            5 
  679000   0.98452747   -6.6818036    256.73472  0.031508925  0.031744263            4 
  680000   0.98653652   -6.7122417    256.80805  0.031471575  0.031725604            9 
  681000   0.97781663   -6.7283436    256.23451  0.031355177  0.031706766            9 
  682000   0.99679661   -6.7216692    256.17688   0.03130216  0.031688036            4 
  683000   0.97845194   -6.7167103    256.92995  0.031348213  0.031669147            5 
  684000   0.98473038   -6.7219423    257.48484  0.031369985  0.031650619            5 
  685000   0.99281682   -6.7051691    257.87227  0.031371323  0.031632175            7 
  686000   0.96428635   -6.7168689    257.74245  0.031309821  0.031613755            8 
  687000   0.99082387   -6.7109432    257.93197  0.031287236  0.031595197            5 
  688000   0.98259203   -6.7160179    259.37808  0.031416919  0.031576789            4 
  689000   0.95877741   -6.6976315    259.26728  0.031357919  0.031558561            4 
  690000   0.96314941   -6.7195649    259.18611  0.031302671  0.031540107            3 
  691000   0.97280604   -6.7036475    258.98046  0.031232568  0.031521554            6 
  692000   0.97465169   -6.7459208     259.3103  0.031227155   0.03150254            2 
  693000   0.97016134   -6.6996769    259.24645  0.031174417  0.031483347            5 
  694000   0.95022403   -6.7204385    259.49982  0.031159921  0.031463884            3 
  695000   0.96722113   -6.6946667    259.37757  0.031100428  0.031444676            3 
  696000    0.9655518   -6.6942015    259.51091  0.031071708   0.03142515            4 
  697000   0.98624184   -6.7056612    259.96877  0.031081871  0.031405887            5 
  698000   0.95750251   -6.7210983    259.97619  0.031038227  0.031386547            4 
  699000   0.97217357   -6.7400918    259.98899   0.03099535  0.031367084            6 
  700000   0.99048146   -6.7193573    260.73405  0.031039767  0.031347612            7 
  701000   0.98016037   -6.7352824    261.07051  0.031035486  0.031328184            6 
  702000   0.96372336   -6.7273988    260.94448  0.030976316  0.031308797            5 
  703000   0.98482747   -6.7170902    262.34381  0.031098128  0.031289659            5 
  704000   0.98694664   -6.7537097    261.50382  0.030954525  0.031270485            2 
  705000   0.99028003   -6.7627355    261.50862  0.030911185  0.031251366            2 
  706000   0.95204491    -6.751769    261.69209  0.030889057  0.031232164            2 
  707000   0.97298967   -6.7253657    262.62869  0.030955763  0.031213025            3 
  708000   0.94266133   -6.7353391    263.15808   0.03097435  0.031193773            3 
  709000   0.97195569   -6.7233033    262.15162  0.030812368  0.031174673            4 
  710000   0.96957605   -6.7235493    262.49521  0.030809296  0.031155392            7 
  711000   0.95529906   -6.7536568    263.00933  0.030826223  0.031135724            3 
  712000    0.9706377   -6.7121422    263.55522  0.030846819  0.031116125            6 
  713000   0.94843639   -6.7706589     263.4906  0.030796002  0.031096702            3 
  714000   0.95902741   -6.7323196    262.25831  0.030609046  0.031076988            4 
  715000     0.979633    -6.744188    263.04037  0.030657386  0.031056943            6 
  716000   0.94471796   -6.6963759    263.55618  0.030674602  0.031036937            4 
  717000    0.9724997   -6.6988798    263.97555  0.030680561   0.03101699            2 
  718000   0.97028102   -6.7178537    263.68523  0.030604135  0.030996957            5 
  719000   0.95685648    -6.794393    262.87811  0.030468024  0.030976585            7 
  720000   0.95468676   -6.7376687    263.15968  0.030458296  0.030956063            6 
  721000   0.95219405   -6.7469974    264.25722  0.030542906  0.030935736            5 
  722000   0.97903119   -6.7241557    264.79902  0.030563137  0.030915914            5 
  723000   0.94698024   -6.6967783    265.21523  0.030568837  0.030896646            2 
  724000   0.95836123   -6.7392618    265.64104  0.030575626  0.030877247            3 
  725000    0.9603973   -6.7297123    265.62306  0.030531386  0.030857635            3 
  726000   0.95543653   -6.7689197    265.84216  0.030514481  0.030837962           11 
  727000   0.97997024   -6.7827158    265.22393  0.030401643  0.030818322           14 
  728000   0.96939677   -6.7539932    265.91244  0.030438695  0.030798715            7 
  729000   0.96936178   -6.7574036     266.8867   0.03050831  0.030779589            2 
  730000   0.96429844   -6.7311872    267.40806  0.030526034  0.030760777            4 
  731000   0.97217021   -6.7607962    267.09475  0.030448557  0.030741796            7 
  732000   0.95563336   -6.7297504     268.1823  0.030530772  0.030722949            6 
  733000   0.97697469   -6.7347131    267.59067  0.030421858  0.030704048            8 
  734000   0.95827589   -6.7579993    268.10096  0.030438347  0.030685212            4 
  735000   0.96590676   -6.7495474    268.25699  0.030414625  0.030666476            4 
  736000   0.94323151   -6.7793694    267.91948  0.030335086   0.03064746            7 
  737000    0.9476057   -6.7621471    268.37171   0.03034506    0.0306285            5 
  738000   0.97436423   -6.7686745    268.97246  0.030371778  0.030609397            5 
  739000   0.95909437    -6.749141    268.69435  0.030299318  0.030590205            5 
  740000   0.96192017   -6.7611425    268.97457  0.030289929  0.030571225            5 
  741000   0.94401036   -6.7691404    268.60573  0.030207572   0.03055217            6 
  742000   0.95698774   -6.7557678    269.55706  0.030273704  0.030533003            3 
  743000    0.9548319   -6.7607449    269.21151  0.030194203  0.030514039            2 
  744000   0.95247608   -6.7356683    270.39015  0.030285635   0.03049525            3 
  745000    0.9518071   -6.7721044    270.84857  0.030296261  0.030476893            6 
  746000   0.95739795   -6.7580766    271.30452  0.030306581  0.030458618            8 
  747000   0.94990364   -6.7701155    271.73083  0.030313569  0.030440547            3 
  748000   0.95211856   -6.7607076    272.22426  0.030328015  0.030422199            2 
  749000   0.96105012   -6.7905295    270.55826  0.030102165  0.030403755            4 
  750000   0.94524566   -6.7447617    271.78938   0.03019882  0.030385203            2 
  751000   0.94581437   -6.7256003    272.92269  0.030284364  0.030366725            2 
  752000   0.94799885   -6.7629887    272.15873  0.030159434  0.030348463            6 
  753000   0.92490388   -6.7618956    272.74723   0.03018451  0.030330119            2 
  754000   0.94909106   -6.8097175    271.96174  0.030057663  0.030311451            7 
  755000   0.95793146   -6.7605248     272.9659  0.030128687  0.030293121            4 
  756000   0.95112783   -6.7499598    273.57474  0.030155945  0.030275144            3 
  757000   0.94289559   -6.7680088     273.5334  0.030111559  0.030256783            8 
  758000   0.96544805   -6.7835391    273.09555  0.030023697  0.030238405            6 
  759000   0.95161871   -6.7403721    273.62027  0.030041751  0.030220122            4 
  760000   0.93972519   -6.7984961    272.72199  0.029903726  0.030201556            7 
  761000   0.93823314   -6.7727722    273.33641  0.029931714  0.030182802            3 
  762000   0.98567678   -6.7498082    274.10361  0.029976335  0.030164078            4 
  763000   0.94908794   -6.7696118    273.91968  0.029916959  0.030145288            4 
  764000   0.94061701   -6.7573606    274.32901  0.029922448  0.030126592            5 
  765000   0.95494633   -6.7901085    274.46774  0.029898447  0.030108071            4 
  766000   0.93816396   -6.7716541    275.22185  0.029941455  0.030089715            5 
  767000   0.93602549   -6.7757823    274.49224  0.029823146  0.030071445            5 
  768000   0.93436464   -6.7847162    275.84877  0.029931507  0.030053003            6 
  769000   0.94767227   -6.7687093     275.5161  0.029856535  0.030034503            4 
  770000   0.94934702   -6.7844987    275.58045  0.029824724  0.030016028            3 
  771000   0.93043088   -6.7959774    276.04077  0.029835794  0.029997525            3 
  772000   0.95203677   -6.7986047    275.75514  0.029766314  0.029978985            7 
  773000   0.95616967   -6.8029353    276.26462  0.029782731  0.029960348            2 
  774000   0.92819833   -6.8176831    276.08134   0.02972452  0.029941637            4 
  775000   0.94995633   -6.7976984    276.92053  0.029776401  0.029922976            4 
  776000   0.93859882   -6.7595802    276.01575  0.029640866  0.029904347            5 
  777000   0.92898546   -6.7857908    276.77605  0.029684261  0.029885666            9 
  778000   0.93029948   -6.7740129    277.25934  0.029697873  0.029867039            5 
  779000   0.93902304   -6.7801111    276.78399  0.029608899  0.029848698            3 
  780000   0.95484524   -6.7727876    277.05654  0.029600057   0.02983006            8 
  781000   0.94794263   -6.8091289    278.00692  0.029663564  0.029811717           10 
  782000   0.96042287   -6.7992415     277.5137  0.029573072   0.02979319            4 
  783000   0.95121571   -6.8178812    278.10372  0.029598097  0.029774659            3 
  784000   0.94415795   -6.7897402    279.21069  0.029678007  0.029756358           10 
  785000   0.94624708   -6.7938215    278.22599  0.029535667  0.029737919            5 
  786000   0.93934865   -6.8016033    278.21183  0.029496589  0.029719048            5 
  787000   0.94151535   -6.8333564    277.91298  0.029427466  0.029700403            9 
  788000   0.94683513   -6.7822928    279.46524  0.029554276  0.029682122           12 
  789000   0.93038029   -6.7819867    279.41362  0.029511367  0.029663916            3 
  790000   0.93033851   -6.7714547    280.00544  0.029536438  0.029645774            6 
  791000   0.93394358   -6.7972585    280.36043  0.029536497  0.029627669            4 
  792000     0.953306   -6.7922944    280.28184  0.029490934  0.029609714           12 
  793000   0.92767577   -6.7968414    280.50268  0.029476953  0.029591613            8 
  794000   0.93812326   -6.8126176    281.26396  0.029519727  0.029573597            4 
  795000   0.94260103   -6.8132753    281.49356  0.029506662  0.029555946            3 
  796000   0.94133715   -6.8340277    280.45994  0.029361384  0.029538233            4 
  797000   0.94143907    -6.787687    281.39528  0.029422342  0.029520377            4 
  798000   0.92425179   -6.8213132    281.89904  0.029438078  0.029502766            6 
  799000   0.93472131   -6.8277095    282.05006  0.029416986  0.029485134            5 
  800000   0.93035069   -6.8117748    281.67421  0.029341063   0.02946743            4 
  801000   0.94770239   -6.8282184    281.95839  0.029333998  0.029449582            4 
  802000   0.94058344   -6.7959348    282.41439  0.029344804  0.029431642            6 
  803000   0.93013197   -6.7942635    282.25841  0.029292072  0.029413357            4 
  804000   0.93580336   -6.8141524    282.33241  0.029263309  0.029394977            2 
  805000   0.93350812   -6.7951266    281.96424  0.029188844  0.029376709            6 
  806000   0.94082012   -6.8421725    282.14212  0.029171021  0.029358112            4 
  807000   0.94680434   -6.8449544    283.25579  0.029249875  0.029339714            8 
  808000    0.9389795   -6.8057473    282.35248  0.029120512  0.029321598            8 
  809000   0.93577263   -6.8381014    282.20454  0.029069276  0.029303275            7 
  810000   0.93960917   -6.8406078    282.74703    0.0290892  0.029284937            4 
  811000   0.90941792   -6.8315096    282.92931  0.029072062  0.029266498            4 
  812000   0.93576105   -6.7885947    283.35932   0.02908039   0.02924812            4 
  813000   0.94801019   -6.7997818    283.30403  0.029038954  0.029229783            4 
  814000   0.91876929   -6.8318295    283.54323  0.029027767  0.029211307            4 
  815000    0.9483681   -6.7963993     283.8333   0.02902181  0.029192884            4 
  816000   0.91618717   -6.8293665    284.31963   0.02903591  0.029174586            4 
  817000   0.93275235   -6.8282837    283.24371  0.028890627  0.029156163            7 
  818000   0.91332729   -6.8064526     284.3512  0.028968134  0.029138012           11 
  819000   0.92134991   -6.8598851    284.66901  0.028965101  0.029119839            9 
  820000   0.91992469   -6.8579467    285.25947  0.028989783  0.029101667           12 
  821000   0.92663337   -6.8345635    285.43993  0.028972791  0.029083631            4 
  822000   0.93126266   -6.8078756    285.47838  0.028941442  0.029065446            3 
  823000   0.93352529   -6.8055255    285.96451  0.028955499   0.02904745            6 
  824000   0.90505873   -6.8342303    286.35658   0.02896001  0.029029059            3 
  825000   0.93631527   -6.8341747    285.87182  0.028875942  0.029010833            4 
  826000   0.91073955   -6.8464473    285.69389  0.028823031  0.028992456            8 
  827000   0.90326532    -6.810395    285.10774  0.028729115  0.028973976            6 
  828000   0.89476619   -6.8482875    286.21282  0.028805638   0.02895558            6 
  829000   0.92116662   -6.8266131    286.70564  0.028820431  0.028937289            2 
  830000   0.90990079     -6.86996    285.57497  0.028672186  0.028918941            3 
  831000    0.9166818   -6.8486213    287.43426  0.028824134  0.028900541            3 
  832000   0.92235131   -6.8270231    287.11607   0.02875762  0.028882482            6 
  833000   0.93368221   -6.8184345    287.71573  0.028783086  0.028864941            5 
  834000   0.92992611   -6.8269767    287.81319  0.028758312  0.028847253            2 
  835000   0.91261631   -6.8204572    288.45297  0.028787721  0.028829351            4 
  836000   0.90972738   -6.8081561    288.94022  0.028801856  0.028811591            3 
  837000   0.91649188   -6.8497749    288.20922  0.028694665  0.028793958            7 
  838000    0.9091809   -6.8260489    289.36678  0.028775535  0.028776041            8 
  839000    0.9297692   -6.8302793    288.81685  0.028686616  0.028758391            3 
  840000   0.91390792   -6.8768214    288.85596  0.028656345   0.02874071           13 
  841000   0.89217395   -6.8476609      289.325  0.028668747  0.028722832            8 
  842000   0.91243683   -6.8530642    290.04168   0.02870563  0.028704922            4 
  843000   0.90397062   -6.8176605     288.9117  0.028559876  0.028686951            5 
  844000    0.9118246   -6.8409233    290.49237  0.028682106  0.028669186            5 
  845000   0.89960052   -6.8282952    289.75088  0.028575038  0.028651389            5 
  846000   0.90321111   -6.8381485     290.4546  0.028610579  0.028633771            6 
  847000    0.9106125   -6.8371114    290.91177   0.02862178   0.02861614            3 
  848000   0.93405376   -6.8690141     291.6758   0.02866311  0.028598658            5 
  849000     0.908524   -6.8558022    290.02957  0.028467763  0.028581009            7 
  850000   0.90903105   -6.8757052    290.82747  0.028512497  0.028563232            5 
  851000   0.92707346   -6.8454911    290.55049   0.02845187  0.028545681            9 
  852000   0.90923058   -6.8367307    290.82848  0.028445665  0.028528251            5 
  853000   0.92093317   -6.8616398    291.84202  0.028511334  0.028510716            9 
  854000   0.92592962   -6.8447841    291.39515  0.028434343  0.028493154           10 
  855000   0.90884304   -6.8176046    292.75047  0.028533184  0.028475812            4 
  856000   0.94197185    -6.834941    292.09732  0.028436266  0.028458581            3 
  857000   0.92925899   -6.8770341    292.33414  0.028426112  0.028441259            2 
  858000    0.9365816   -6.8579414    292.74613  0.028432996  0.028423978            6 
  859000   0.90123009   -6.8626564    293.51669   0.02847465  0.028406696            4 
  860000   0.91863141   -6.8450663    293.10193  0.028401349  0.028389398            9 
  861000   0.91805768   -6.8620944    293.99354  0.028454659  0.028372258            8 
  862000   0.92456193   -6.8627631    293.76197  0.028399262  0.028354958            5 
  863000   0.91155531   -6.8719694    292.60847   0.02825497   0.02833758            5 
  864000   0.88895974   -6.8216744    294.21352  0.028377076   0.02832038            7 
  865000   0.89822405   -6.8721983    294.39737  0.028361982   0.02830321            3 
  866000   0.89595336   -6.8730184    294.75075  0.028363236   0.02828594            5 
  867000   0.90617401   -6.8668773    294.47699  0.028304209  0.028268987            4 
  868000    0.9017551   -6.8270677    294.80506  0.028303097  0.028251836            8 
  869000   0.92879352   -6.8740315    294.77299  0.028267452  0.028234604            4 
  870000   0.91124505    -6.860971    295.01642  0.028258278    0.0282175            4 
  871000   0.89625152   -6.8790961    295.83981  0.028304612  0.028200276            4 
  872000   0.90768202   -6.8831345    294.18173  0.028113697  0.028183042            7 
  873000   0.89657098   -6.8604463    294.90948  0.028150962  0.028165845            5 
  874000   0.90099439   -6.8742892    296.11169   0.02823338  0.028148711            7 
  875000   0.88892917    -6.874138    295.97295    0.0281879  0.028131841            5 
  876000   0.88657024   -6.8931565    296.35053  0.028191641  0.028114909            4 
  877000   0.89389909   -6.8445537    296.92602  0.028214179  0.028098188            2 
  878000   0.91430756   -6.8586636    296.84977  0.028174807  0.028081485            4 
  879000   0.91051851   -6.8891472    296.52403  0.028111872  0.028064652            4 
  880000   0.89711337    -6.866338    297.16789  0.028140899  0.028047808            5 
  881000   0.91190103   -6.8799387     297.7256   0.02816171  0.028031319            6 
  882000   0.87746112   -6.8741162     297.4476  0.028103514  0.028014768            6 
  883000   0.92359754   -6.9034485    297.44982  0.028071897  0.027997915            5 
  884000   0.89187963   -6.8621707    297.92105  0.028084564  0.027981113            6 
  885000    0.9042849   -6.8581927    297.47108  0.028010459  0.027964486            4 
  886000   0.90730365   -6.8807249    298.45233  0.028071138  0.027947972            4 
  887000   0.88698619   -6.8883392    297.93896  0.027991259  0.027931388            3 
  888000   0.90493035   -6.8544432    297.92223  0.027958168  0.027914705            5 
  889000   0.90193214   -6.8798786    298.89713  0.028018104  0.027898048            4 
  890000   0.90085756   -6.9154528     298.0734  0.027909494  0.027881208           10 
  891000   0.87354645    -6.873095     299.4006  0.028002301  0.027864463            4 
  892000   0.91132348   -6.8764007    299.19674  0.027951863  0.027847652            3 
  893000   0.91371494   -6.8926389    298.90222  0.027893078  0.027830637           13 
  894000   0.89636758   -6.8835115    299.31945  0.027900769  0.027814014            9 
  895000   0.89726795   -6.8946828    298.70892  0.027812749  0.027797088            8 
  896000   0.91151109   -6.9042804    299.09595  0.027817704  0.027780179            7 
  897000   0.89855221   -6.8935898    299.72925  0.027845526  0.027763176            6 
  898000   0.90308854   -6.8814173    299.59612  0.027802164  0.027746211            5 
  899000   0.90387904   -6.8718131    300.22397  0.027829438   0.02772934            5 
  900000   0.87902997   -6.8876082    299.50526  0.027731968  0.027712459            4 
  901000   0.90331491   -6.8794545    299.78319  0.027726895  0.027695612            7 
  902000   0.90697074   -6.8768137    300.89689  0.027799048  0.027678979            3 
  903000   0.90239402   -6.8476164    301.54087  0.027827692  0.027662482            3 
  904000   0.88570852    -6.901865    300.72554   0.02772175  0.027645878            6 
  905000   0.87357524   -6.9112715    300.83838  0.027701508  0.027629199            4 
  906000   0.90130593   -6.9214937    300.63569  0.027652289  0.027612588            5 
  907000   0.88422408   -6.8828007     301.0847  0.027663055  0.027595674            5 
  908000   0.89672991   -6.9007481    301.24557  0.027647354  0.027578768           12 
  909000    0.8835214   -6.8793076    301.09986  0.027603581  0.027561912            3 
  910000   0.90400988   -6.9109117    301.29146  0.027590793  0.027545125            4 
  911000   0.87847536      -6.9018    301.56296  0.027585342  0.027528317            6 
  912000   0.88028993   -6.9207103    301.99699  0.027594755  0.027511339            5 
  913000   0.91122661   -6.9017465    302.08997  0.027573016  0.027494355            4 
  914000    0.8887371   -6.8765197    302.73742   0.02760188  0.027477362            5 
  915000   0.89522646   -6.9009445    302.34928  0.027536364  0.027460398            9 
  916000   0.87591295   -6.8873345    301.50491  0.027429486  0.027443253            4 
  917000   0.86138405   -6.8978314    301.54462  0.027403182  0.027425868            9 
  918000   0.87858053   -6.9241182    301.81986  0.027398317  0.027408472           10 
  919000   0.86292333   -6.8979235    302.70191  0.027448487  0.027391253            5 
  920000    0.8968717   -6.8895017     301.9955  0.027354665  0.027374269            5 
  921000     0.901857   -6.9182672    302.99482  0.027415383  0.027357033           10 
  922000   0.86515376   -6.9094832    302.68503  0.027357649  0.027339714           10 
  923000   0.89781861   -6.8920297    303.11619  0.027366937    0.0273225            5 
  924000   0.88810856   -6.9229508    304.27317  0.027441664  0.027305482            3 
  925000   0.88258889   -6.9052842     303.4466  0.027337531  0.027288404            4 
  926000   0.89028842   -6.8616428    304.58203   0.02741019  0.027271432            4 
  927000   0.87777799    -6.911151    303.94728   0.02732356  0.027254563            9 
  928000   0.88795984   -6.8888569    304.11225   0.02730893  0.027237855            5 
  929000   0.88365128   -6.8926697    304.85744  0.027346379  0.027221269           10 
  930000   0.86744133   -6.9155404    304.33852  0.027270477  0.027204549            8 
  931000   0.87063171    -6.880862    306.01143  0.027390927  0.027188019            4 
  932000   0.88991988   -6.9002388    305.42599   0.02730919  0.027171551            7 
  933000   0.89394408   -6.9134606    305.16206  0.027256347   0.02715497            8 
  934000   0.88465119   -6.8883167    304.63614  0.027180241  0.027138224            8 
  935000   0.87988801   -6.9141057    305.24868  0.027205765  0.027121376            2 
  936000   0.87733202   -6.9145832    305.44257  0.027193961   0.02710478            5 
  937000   0.88019836   -6.9282061    306.17342  0.027229938  0.027088114            4 
  938000   0.88602197   -6.9264079    306.17143  0.027200732  0.027071386           13 
  939000   0.88625133   -6.9324152    305.70024  0.027129947  0.027054581            8 
  940000   0.89714879   -6.9142607    306.25492  0.027150258   0.02703786            9 
  941000   0.87985492   -6.9348824    307.41777  0.027224386  0.027021023            9 
  942000   0.86323356   -6.9529312    306.36478  0.027102333  0.027004232            6 
  943000   0.87781064   -6.9436083    305.21151  0.026971678  0.026987091            5 
  944000   0.89043893   -6.9265059    306.84127  0.027086976  0.026969983            8 
  945000   0.85235933   -6.9643661    306.40458  0.027019804   0.02695298           11 
  946000   0.88265628   -6.8692712    306.99966  0.027043662  0.026936047            4 
  947000   0.87939889   -6.9129318    307.10304  0.027024203   0.02691914           11 
  948000   0.88411897   -6.9359235    307.22936  0.027006801   0.02690242           12 
  949000   0.87804164   -6.9245204    307.36085  0.026989888   0.02688568            6 
  950000   0.86251971   -6.9162391    306.97152  0.026927327  0.026868938            8 
  951000   0.87223131    -6.892175    307.82806  0.026974068  0.026852135            3 
  952000   0.86090877   -6.9297176    307.57452   0.02692354  0.026835364            5 
  953000   0.87308935   -6.8991824    308.30567  0.026959222  0.026818779            5 
  954000   0.86636627   -6.9095922    308.61635  0.026958102  0.026802254            4 
  955000   0.85997943   -6.9485807    308.17302  0.026891189  0.026785785            5 
  956000   0.88552516   -6.9194145    307.56402  0.026809974  0.026769215            8 
  957000   0.87244303   -6.9330736    308.65418  0.026876888  0.026752475            9 
  958000   0.86642281   -6.8882594      309.242  0.026899965  0.026735965            5 
  959000   0.88021729   -6.9415498    308.25128  0.026785825   0.02671919            5 
  960000   0.84945097   -6.9591644    308.77543  0.026803423   0.02670242           10 
  961000   0.87999576   -6.9627992    308.56593  0.026757365  0.026685498            6 
  962000   0.87543548   -6.9209562    308.66238  0.026737906  0.026668773            3 
  963000   0.88352715    -6.965594    308.58037  0.026703044   0.02665198            3 
  964000   0.85591148   -6.9423338    308.90238   0.02670318  0.026635033            7 
  965000   0.88028027   -6.9459784    309.24645   0.02670522   0.02661817            6 
  966000   0.88883907   -6.9289234    309.59505  0.026707648  0.026601241            6 
  967000   0.86131153   -6.9551282    308.86267  0.026616914   0.02658441            5 
  968000   0.86065215   -6.9685282    309.56719  0.026650068  0.026567506            2 
  969000   0.85564745   -6.9571356    308.79525  0.026556179  0.026550621            5 
  970000   0.85773489    -6.943331    309.28126  0.026570555  0.026533758           10 
  971000   0.87748343   -6.9531636     309.8166  0.026589135  0.026516968            5 
  972000   0.87788707   -6.9630968    310.16271  0.026591453  0.026500133            6 
  973000   0.86880695   -6.9435881    309.81256  0.026534135  0.026483284           10 
  974000   0.85486639   -6.9632265     309.9353  0.026517394  0.026466268           13 
  975000   0.86397471   -6.9854254    310.15456  0.026508937  0.026449212            6 
  976000    0.8546163   -6.9378933    310.24157  0.026489205  0.026432214            4 
  977000   0.85198534   -6.9127071    310.96882  0.026524123  0.026415359            4 
  978000   0.85242599   -6.9359115    311.43813  0.026536991  0.026398484           13 
  979000   0.86935013   -6.9183868    310.15812  0.026400929  0.026381706            6 
  980000    0.8731541   -6.9943515    310.55283  0.026407554  0.026364908            5 
  981000   0.85966126   -6.9664486     310.8531  0.026406142   0.02634796            6 
  982000   0.83890616   -6.9343826    311.69194  0.026450436  0.026331028            5 
  983000   0.84648672   -6.9756137    311.22513  0.026383955  0.026314054            8 
  984000   0.88030684    -6.975413     311.6646   0.02639436  0.026296969            5 
  985000   0.85227184    -6.965156    310.89215  0.026302212  0.026279939           11 
  986000   0.87615503   -6.9526829    311.30861  0.026310735  0.026262842           10 
  987000   0.85613298   -6.9554303     311.2688  0.026280716  0.026245753            3 
  988000   0.87226082   -6.9662167    311.53165  0.026276286    0.0262287            4 
  989000   0.86315896   -6.9592986    312.36071  0.026319574  0.026211636            6 
  990000   0.86566289    -6.942945    311.67816  0.026235536  0.026194469            5 
  991000   0.85592166   -6.9883512    311.26694  0.026174482  0.026177235            5 
  992000   0.85185722   -6.9805742    312.59047   0.02625928  0.026160114            7 
  993000   0.84531108   -6.9794541    311.92138  0.026176685  0.026142844            5 
  994000     0.839982   -6.9388003     311.6905  0.026130994  0.026125501            7 
  995000   0.86826511   -6.9335862    312.40244  0.026164358  0.026108455           14 
  996000   0.86926971   -6.9669294    312.58246  0.026153151  0.026091545           13 
  997000   0.86556624   -6.9650067    313.43158  0.026197892  0.026074441            5 
  998000   0.85250596   -6.9464095    312.76271  0.026115791  0.026057467            9 
  999000   0.84901151    -6.951739    313.21474  0.026127356  0.026040495            7 
 1000000   0.86037231   -6.9627924    313.26645  0.026105537  0.026023432            3 
 1001000   0.85214001   -6.9794924    313.45377  0.026095052   0.02600646            4 
 1002000   0.84073475   -6.9707053    312.80424   0.02601499  0.025989339            7 
 1003000   0.85180523   -6.9727586    312.65872  0.025976962  0.025972129            5 
 1004000   0.85946943   -6.9944594    313.35362  0.026008767  0.025955046            3 
 1005000   0.82391416   -6.9886918    313.28394   0.02597711  0.025937958            6 
 1006000   0.85854304    -6.980494    312.76441  0.025908252  0.025920832            8 
 1007000   0.86571311   -6.9757273    313.22406  0.025920561  0.025903661            6 
 1008000   0.84233123   -6.9758239    314.24265  0.025979055  0.025886765            7 
 1009000   0.85236678   -7.0142827    314.04318  0.025936834  0.025869792            5 
 1010000   0.83538855   -7.0012859    314.25066  0.025928272  0.025852801            7 
 1011000   0.83827818   -6.9787512    314.58993  0.025930591   0.02583586            5 
 1012000   0.83897294   -6.9740005    315.10769  0.025947603  0.025818839            9 
 1013000    0.8293726   -7.0071684    314.77475  0.025894599  0.025801882            5 
 1014000   0.83141145   -6.9768073      315.104  0.025896121  0.025784811            7 
 1015000   0.86428375   -6.9946972    314.49862  0.025820905  0.025767754            7 
 1016000   0.82834319   -6.9943332    314.24554  0.025774733  0.025750516            8 
 1017000   0.85334068   -6.9956156    314.10554  0.025737917  0.025733299           16 
 1018000    0.8376619   -6.9580446    313.89961  0.025695777   0.02571612            7 
 1019000   0.84507675   -6.9744956    315.03177  0.025763148  0.025698904           15 
 1020000   0.84552107   -6.9796691    314.01366   0.02565471   0.02568167            6 
 1021000    0.8380724   -6.9977839    315.09504  0.025717845   0.02566427            4 
 1022000   0.84960852   -6.9809669    314.08077  0.025609978  0.025646793            6 
 1023000   0.85170189    -6.984009    314.95234  0.025655942  0.025629474            8 
 1024000   0.83734388   -6.9865258    315.02179  0.025636539  0.025612255            9 
 1025000   0.85131281   -6.9929935     315.9092  0.025683675  0.025595091            7 
 1026000   0.85776975   -7.0054138    315.36753  0.025614647  0.025577934            8 
 1027000   0.84261017   -6.9731986    315.94747  0.025636764  0.025560764            8 
 1028000   0.82461069   -6.9867389    316.33413  0.025643169  0.025543578            8 
 1029000   0.83930944   -7.0151511    315.51538  0.025551942   0.02552634            6 
 1030000   0.84165427    -7.013261    315.75212  0.025546288  0.025509178           12 
 1031000   0.82873039   -7.0036504    315.78044  0.025523799  0.025492058           10 
 1032000   0.84672703   -7.0154901    316.08863  0.025523953  0.025474839            7 
 1033000    0.8519474   -7.0029863    316.45998  0.025529202  0.025457844            4 
 1034000   0.82599134   -7.0032766    316.68376  0.025522547  0.025440808           12 
 1035000   0.86100637   -7.0021636     316.2453  0.025462585  0.025423777           10 
 1036000   0.84575993   -6.9789268    316.68513  0.025473385  0.025406696            6 
 1037000   0.84535745   -7.0096557    317.06308  0.025479194  0.025389694            3 
 1038000   0.83953402   -6.9673712    317.24577  0.025469313  0.025372768            4 
 1039000   0.84216867   -7.0255966    317.00605  0.025425574  0.025355893            5 
 1040000   0.83106049   -7.0236519    316.13019  0.025330944   0.02533884            6 
 1041000   0.82523035   -7.0174891    317.26108  0.025397141  0.025321727            4 
 1042000   0.82430194   -7.0039683    316.91946  0.025345446  0.025304611            4 
 1043000   0.84412493    -7.016796    316.61982  0.025297205  0.025287277           16 
 1044000   0.86186982   -7.0508331    316.29893   0.02524736  0.025269933           12 
 1045000   0.82436303   -6.9889257    317.19127   0.02529436  0.025252507           20 
 1046000   0.85036372   -7.0254974    317.60319  0.025302995  0.025235191            7 
 1047000   0.83148458   -7.0361968    317.15456   0.02524312  0.025217923           10 
 1048000   0.84505718    -7.036978    316.60634   0.02517544  0.025200657            4 
 1049000    0.8522657   -7.0008889    317.66635  0.025235649  0.025183391           11 
 1050000     0.848859   -6.9917958    317.81876  0.025223711  0.025166291           11 
 1051000   0.83380516   -7.0310936    317.31928  0.025160107  0.025149082            9 
 1052000   0.83942167   -7.0224401    317.63757  0.025161405  0.025131778            8 
 1053000   0.84952096   -7.0194446     317.7357  0.025145275  0.025114508            7 
 1054000   0.82694432   -7.0259732    317.85525  0.025130871  0.025097234           10 
 1055000   0.83062178   -7.0371452     318.2504  0.025138262  0.025080075           11 
 1056000   0.82815858   -7.0245963    318.19681  0.025110228     0.025063            6 
 1057000   0.83389145   -7.0001747     318.0162  0.025072233  0.025046062            6 
 1058000   0.82985522   -7.0380851    318.51314  0.025087676  0.025028996           12 
 1059000   0.83278543   -7.0037054    318.86747  0.025091869  0.025011851            5 
 1060000   0.83314043   -7.0406916    318.37075  0.025029147  0.024994715           10 
 1061000   0.84081067    -7.017382    318.36109  0.025004798  0.024977497            7 
 1062000   0.81779259   -7.0213731    319.43079   0.02506519  0.024960277            5 
 1063000    0.8417296   -7.0580241    319.27354  0.025029283  0.024943197            9 
 1064000   0.82574599   -7.0094142     319.8641  0.025052013   0.02492607            8 
 1065000    0.8277333   -7.0024675     319.8736  0.025029233   0.02490903            6 
 1066000   0.80731409   -7.0282216    318.96348  0.024934606  0.024892043            3 
 1067000   0.82732896   -7.0060322    320.42046  0.025025028  0.024874978            6 
 1068000   0.83085949   -7.0148557    318.68943  0.024866528  0.024857881           10 
 1069000   0.82616255   -7.0295173     319.7452  0.024925569  0.024840818            4 
 1070000   0.80959413   -7.0344411    319.46066  0.024880114  0.024823746            7 
 1071000    0.8291442    -7.012298    319.19755  0.024836411  0.024806696            5 
 1072000   0.82435231   -7.0276713    319.52444  0.024838654  0.024789676            5 
 1073000   0.82622232   -7.0376688    319.75273  0.024833235  0.024772727            7 
 1074000   0.82717441   -7.0218105    320.75031  0.024887516  0.024755821            5 
 1075000   0.82520422   -7.0149238    320.82758  0.024870355  0.024739016            7 
 1076000    0.8229851   -7.0484437    320.93526  0.024855581  0.024722202            3 
 1077000   0.81999734   -7.0141527    321.32691  0.024862807  0.024705444            4 
 1078000   0.81694534   -7.0292331    320.36033  0.024765023  0.024688612            6 
 1079000   0.82607157   -7.0220058    321.11164  0.024800096  0.024671698            3 
 1080000   0.81597465   -7.0346229    320.52267  0.024731688  0.024654933           14 
 1081000   0.83947471     -7.06946    320.74345  0.024725829  0.024638047            9 
 1082000   0.81281207   -7.0545907    320.83854    0.0247103  0.024621137            8 
 1083000    0.8242879   -7.0385894    321.22282  0.024717053  0.024604295            9 
 1084000   0.83415485   -7.0472902    321.12068  0.024686399  0.024587579            5 
 1085000   0.79994924   -7.0357438    321.26106  0.024674428  0.024570741            5 
 1086000   0.80959346   -7.0526535    321.76012  0.024690003  0.024553899            5 
 1087000   0.80730249   -7.0478584     321.4361  0.024642448  0.024536989            6 
 1088000   0.83885418   -7.0301453    321.57259  0.024630253  0.024520085           14 
 1089000    0.8214818   -7.0349134    321.79482  0.024624642  0.024503133            8 
 1090000   0.79695481   -7.0168827    321.20816  0.024557199  0.024486093           17 
 1091000    0.8261314   -7.0440484    320.88281  0.024509839  0.024469015           23 
 1092000   0.81217452   -7.0232245    322.07624  0.024578468  0.024452018           23 
 1093000   0.84585501   -7.0616357    321.00481  0.024474292  0.024434941           17 
 1094000   0.81553862   -7.0547067    321.79108  0.024511813   0.02441776           13 
 1095000   0.84053789   -7.0435783    320.86918  0.024419268  0.024400625           10 
 1096000   0.81742883   -7.0060012    321.75008  0.024463966  0.024383561           10 
 1097000   0.82565748   -7.0542898    322.30255  0.024483633  0.024366531            7 
 1098000   0.81317685   -7.0496763    321.97871  0.024436757  0.024349525           11 
 1099000   0.80910006   -7.0532211    321.74111  0.024396505  0.024332532           24 
 1100000   0.82698711     -7.02362    321.23359  0.024335878   0.02431558            8 
 1101000   0.80694266   -7.0624499    321.98742  0.024370831  0.024298567           17 
 1102000   0.80398342   -7.0277159    322.08964  0.024356446  0.024281583            9 
 1103000   0.79674696   -7.0616912    322.00714  0.024328131  0.024264587           14 
 1104000   0.82414665    -7.056807     320.8158  0.024216168  0.024247481            6 
 1105000   0.79920027   -7.0572695     321.8465  0.024271983  0.024230342           22 
 1106000   0.80306683    -7.053618    321.66649  0.024236474  0.024213188            9 
 1107000   0.81302165   -7.0752179    321.46019  0.024199051  0.024196015           16 
 1108000   0.81762623   -7.0709232    322.41427  0.024248967  0.024178935            8 
 1109000   0.81018941    -7.062323    322.48073  0.024232096   0.02416179            9 
 1110000   0.81131355   -7.0608921    323.19965  0.024264238  0.024144817            6 
 1111000   0.80718787   -7.0867644    322.16055  0.024164458  0.024127646            5 
 1112000   0.79498654   -7.0486206     322.6595  0.024180119  0.024110521           18 
 1113000   0.81367112   -7.0612741    321.95803  0.024105872  0.024093361           40 
 1114000   0.81473419   -7.0638979    322.83502  0.024149837   0.02407623            6 
 1115000   0.80176041   -7.0556586    323.04021  0.024143513  0.024059101           10 
 1116000   0.80385969   -7.0710184    324.57594  0.024236555  0.024042179            7 
 1117000   0.80256641   -7.0527289    322.36385  0.024049824  0.024025163            9 
 1118000   0.79465215   -7.0673591    323.50619  0.024113461  0.024008088           15 
 1119000   0.80750359   -7.0409866    323.34563  0.024079954  0.023991048           13 
 1120000   0.80833033   -7.0716052    322.68674   0.02400943  0.023973898           12 
 1121000   0.79371603   -7.0693372    323.47679  0.024046743  0.023956773           12 
 1122000   0.81210724   -7.1040847    323.52002  0.024028522   0.02393971           13 
 1123000    0.8113768   -7.0583144    323.94742  0.024038841  0.023922683            9 
 1124000   0.80440111   -7.1007091    322.35991  0.023899756   0.02390559            6 
 1125000   0.81650811   -7.0761304    323.88205  0.023991263  0.023888478           17 
 1126000   0.80247616   -7.0802029    323.39637  0.023934012  0.023871487            7 
 1127000   0.79882746   -7.0342238    324.46941  0.023992119  0.023854522            5 
 1128000   0.80320421   -7.0541441    323.10283   0.02386989  0.023837691           19 
 1129000   0.80170927   -7.0562847     324.3837  0.023943291  0.023820765            9 
 1130000   0.81030273   -7.0937955    323.67756  0.023870026  0.023803877            7 
 1131000   0.78620684   -7.0811549    323.60265  0.023843402  0.023786895            8 
 1132000   0.80359801   -7.0737403     324.0261  0.023853511  0.023769948           12 
 1133000   0.79434041   -7.0706601    324.65343  0.023878599  0.023752924            5 
 1134000   0.80178206   -7.0651754    324.17325  0.023822255  0.023735941            7 
 1135000   0.79354336   -7.0667549    324.42621  0.023819839  0.023719025           13 
 1136000   0.80147343   -7.0668982    324.71078  0.023819747  0.023702096            9 
 1137000   0.80025616   -7.0519799    324.32754  0.023770708  0.023685224           10 
 1138000   0.79119562   -7.0736199    324.94311  0.023794897  0.023668316            7 
 1139000   0.79515075   -7.1062712    324.48859  0.023740752  0.023651346            4 
 1140000   0.81195992   -7.0667172    325.16479  0.023769356  0.023634431            4 
 1141000   0.79271733   -7.0903618    324.43629  0.023695317  0.023617509            5 
 1142000   0.79870179    -7.106502    324.27245  0.023662613  0.023600412           10 
 1143000   0.79902562   -7.1016191    325.01521  0.023696063  0.023583392            9 
 1144000   0.78604454   -7.0916478    324.79493  0.023659305  0.023566363            8 
 1145000   0.78386557   -7.0827282    324.71605  0.023632901  0.023549412           11 
 1146000    0.7962834   -7.0699674    324.77015  0.023616212  0.023532507            8 
 1147000   0.80139101   -7.0878657    324.73223  0.023592867   0.02351555           13 
 1148000   0.79981903   -7.0839211    324.86376  0.023581864  0.023498623           17 
 1149000   0.79418337   -7.0946185    324.62272  0.023543859  0.023481735            4 
 1150000   0.79889907   -7.1166006    324.76806  0.023533918  0.023464818            4 
 1151000   0.80361362    -7.103163    325.81091  0.023588974  0.023447976            9 
 1152000   0.80225723   -7.0792585    325.76475  0.023565159  0.023431163           10 
 1153000   0.79351748   -7.0842563    325.89098  0.023553843  0.023414256            6 
 1154000   0.79143592   -7.1187965    325.66127  0.023516845  0.023397299            6 
 1155000   0.79184337   -7.1035486    325.65712  0.023496184  0.023380332            5 
 1156000   0.78749121   -7.1021994    325.51665  0.023465733    0.0233633            5 
 1157000   0.79040926   -7.1244487    325.04968  0.023411818  0.023346228            7 
 1158000   0.79409735   -7.1066671    325.25965  0.023406711  0.023329179           10 
 1159000   0.79915892   -7.0700759     325.5256  0.023405637   0.02331218            6 
 1160000   0.80798545   -7.1153683    326.05738  0.023423662  0.023295353            5 
 1161000   0.78613091   -7.1057185    326.23939  0.023416551  0.023278647            9 
 1162000   0.78816527    -7.084441     326.6723  0.023427445  0.023261936            5 
 1163000   0.80474316   -7.1250032    326.35416  0.023384506  0.023245172            9 
 1164000    0.7889282   -7.1095984    326.27586   0.02335881  0.023228343           11 
 1165000   0.79424876   -7.0901328    326.12176  0.023327737  0.023211571            7 
 1166000   0.80730468   -7.1075328    325.92227  0.023293473  0.023194858            9 
 1167000   0.78667251   -7.1081639    326.49668   0.02331453  0.023178085           11 
 1168000   0.76568294   -7.1044297    326.57439  0.023300113  0.023161376            8 
 1169000   0.78101978   -7.0875417    327.64226  0.023356306  0.023144808            8 
 1170000   0.78250767   -7.0889855    327.46365  0.023323622  0.023128358            8 
 1171000   0.80588379   -7.0887204    327.57613  0.023311708  0.023111923            5 
 1172000   0.77729999   -7.0935968    327.17391  0.023263219  0.023095468           11 
 1173000   0.81500054   -7.1276863    327.67359  0.023278885  0.023078932            5 
 1174000   0.78983999   -7.0915479    328.11274  0.023290228  0.023062423            4 
 1175000   0.77084185   -7.1097591    328.40418  0.023291076  0.023045994           19 
 1176000   0.78584034   -7.1183653    328.28335  0.023262709  0.023029669           12 
 1177000   0.80275591   -7.0858877    328.73947  0.023275238  0.023013284            8 
 1178000   0.79794882   -7.1274519    327.31518  0.023154724   0.02299684            6 
 1179000   0.77401021   -7.0990819    327.85928  0.023173543  0.022980414           12 
 1180000   0.77224355   -7.1378863    328.37044  0.023190003  0.022963977            9 
 1181000   0.78097196   -7.1238333    327.77794  0.023128559   0.02294745           23 
 1182000    0.7862764    -7.147362    327.58045  0.023095068  0.022930981           12 
 1183000   0.79089743   -7.1058212    329.31128   0.02319747  0.022914644            7 
 1184000   0.77330942     -7.10666    329.04819   0.02315936  0.022898419            7 
 1185000   0.78715957   -7.1307734    328.71379  0.023116301  0.022882179           12 
 1186000    0.7961179   -7.1317606    328.61345  0.023089759  0.022865913           15 
 1187000   0.79120729   -7.1364542    329.21099  0.023112257  0.022849661            7 
 1188000   0.76119842   -7.1456464    328.60434  0.023050248  0.022833348            8 
 1189000   0.78852707   -7.1262126    328.89884  0.023051503  0.022817046            9 
 1190000   0.78107021   -7.1156657    329.14516  0.023049381  0.022800812            8 
 1191000   0.76462685   -7.1324505    329.00247  0.023020044  0.022784625            6 
 1192000   0.76679671   -7.1366007    328.98812  0.022999729  0.022768421            7 
 1193000   0.79018633   -7.1296577    328.81937  0.022968663  0.022752328           12 
 1194000   0.78050646   -7.1202919    329.16787  0.022973748  0.022736178            4 
 1195000   0.76829878   -7.1281224    329.27447  0.022961958  0.022720022            5 
 1196000   0.76622448   -7.1501513    330.24997  0.023010728  0.022703902            9 
 1197000   0.79989272   -7.1428938    329.66668  0.022950896  0.022687687           11 
 1198000   0.77712726   -7.1372459    329.53595  0.022922645   0.02267158            7 
 1199000   0.78082521   -7.1474878    329.40265  0.022894262   0.02265549           11 
 1200000   0.76359423   -7.1510844    329.75736  0.022899817  0.022639419            9 
 1201000   0.76350575   -7.1448327    329.06893  0.022832982  0.022623332            6 
 1202000   0.78576369   -7.1552145    329.09117  0.022815528  0.022607139            9 
 1203000   0.79688221   -7.1450177    329.72372   0.02284038  0.022590965            7 
 1204000   0.78447222   -7.1568586    330.41403  0.022869188  0.022574774           13 
 1205000   0.75793536   -7.1399733    329.33854  0.022775832  0.022558663            9 
 1206000   0.76766076   -7.1223177    330.95555  0.022868681  0.022542622           16 
 1207000   0.76273387   -7.1622838    330.14397  0.022793701  0.022526529           12 
 1208000   0.77294409   -7.1335015    329.60793  0.022737854  0.022510426           43 
 1209000   0.74970382    -7.134467    330.77496  0.022799487  0.022494361            4 
 1210000   0.76426005   -7.1317302    330.78379  0.022781253  0.022478354            5 
 1211000   0.77446564   -7.1532215    330.10439  0.022715689   0.02246237            5 
 1212000    0.7655661   -7.1549262    330.72958  0.022739933  0.022446406            4 
 1213000   0.78741466    -7.132787    330.38356  0.022697414  0.022430383            7 
 1214000   0.77710851   -7.1532658    331.14114  0.022730721  0.022414421            9 
 1215000   0.76598337   -7.1804097    330.44304  0.022664132  0.022398345           15 
 1216000    0.7756348     -7.16103    330.53111  0.022651529  0.022382247           13 
 1217000   0.75991472   -7.1561826    329.88787  0.022588871  0.022366106            9 
 1218000   0.79508969   -7.1679733    330.74564  0.022629012  0.022349987           12 
 1219000   0.77465449   -7.1868621     330.0813  0.022565033  0.022333864            8 
 1220000   0.76753597    -7.167875    330.06819  0.022545641  0.022317812            8 
 1221000   0.76452589   -7.1603244    330.44727  0.022553049  0.022301754            8 
 1222000   0.76608674   -7.1622274    330.34051  0.022527313   0.02228562           12 
 1223000   0.77873068   -7.1560226    330.40983  0.022513616  0.022269452           13 
 1224000   0.76423362   -7.1842855    331.45798  0.022566583  0.022253351           13 
 1225000   0.76432417   -7.1449235    330.45662  0.022480042  0.022237318           10 
 1226000   0.76301867   -7.1567296    331.56799  0.022537248  0.022221321           11 
 1227000   0.76228982    -7.171436    330.45079  0.022443004  0.022205272           13 
 1228000   0.76462091   -7.1320479    330.69271  0.022441145  0.022189266            5 
 1229000   0.74907243   -7.1589169     330.4339  0.022405336  0.022173186            8 
 1230000   0.75700547   -7.1655547    331.08029  0.022430914  0.022157181           10 
 1231000   0.75814949   -7.1793824    331.02884  0.022409209  0.022141085           11 
 1232000   0.75640653   -7.1756522    330.93016  0.022384345  0.022125039           11 
 1233000   0.77023384   -7.1720993    331.36133  0.022395332   0.02210902           11 
 1234000    0.7577743   -7.1760633    331.84244  0.022409673   0.02209303            7 
 1235000   0.76394474   -7.1599537    331.37092  0.022359711  0.022077029            8 
 1236000   0.77162001   -7.1736995    330.95799   0.02231378  0.022060969           12 
 1237000    0.7656396   -7.1497771    331.41081  0.022326247  0.022044904            4 
 1238000   0.76249353   -7.1761338    331.33396   0.02230304  0.022028778           22 
 1239000   0.75933641   -7.1506836    331.98583  0.022328883  0.022012658           20 
 1240000   0.76360761    -7.166095    331.26198   0.02226223  0.021996503           13 
 1241000   0.74101752   -7.1712887    331.04479  0.022229706  0.021980398            9 
 1242000   0.75875813   -7.1782957    331.48631  0.022241432   0.02196433           14 
 1243000   0.75341718   -7.1882556    331.41697   0.02221889  0.021948342            4 
 1244000   0.74831401   -7.1579835    331.48161  0.022205359   0.02193234            8 
 1245000   0.75662828   -7.1463379    331.64829  0.022198681  0.021916383            6 
 1246000   0.74688312   -7.1792697    332.14942   0.02221438  0.021900419            7 
 1247000   0.77246857   -7.1548103    332.34975  0.022209954  0.021884561           12 
 1248000   0.74612004   -7.1667988    331.93047  0.022164161   0.02186873           15 
 1249000   0.76545932   -7.1808592    331.75055  0.022134411  0.021852823           11 
 1250000   0.74560555   -7.1901915    331.46909  0.022097939  0.021836858            8 
 1251000   0.75052344    -7.175754    331.35492   0.02207267  0.021820896            5 
 1252000   0.75953766   -7.1734147    331.87759  0.022089829   0.02180493           11 
 1253000    0.7443277   -7.1503964    332.16204  0.022091117  0.021788952           12 
 1254000   0.75890359   -7.2149995    331.35424  0.022019819  0.021773002           19 
 1255000   0.75007019    -7.192344    332.54309  0.022081215  0.021757044           10 
 1256000   0.74385609   -7.1797026    332.12491  0.022035888  0.021741012           10 
 1257000   0.76412801   -7.1945621    332.59041  0.022049219  0.021725103           36 
 1258000   0.75598491   -7.1945856    333.28907  0.022077973  0.021709288           14 
 1259000   0.74588148   -7.1962178    333.03156  0.022043391  0.021693467           31 
 1260000   0.76771784    -7.203141    332.60854  0.021997919   0.02167755           16 
 1261000   0.75310106   -7.2058564    333.05293  0.022009842  0.021661701            9 
 1262000   0.75724756   -7.1995947    332.51417  0.021956826  0.021645904           10 
 1263000   0.74676958    -7.201665    333.06935  0.021976072  0.021630066           19 
 1264000    0.7431291   -7.1854901    333.39653  0.021980257  0.021614255           13 
 1265000   0.74228847   -7.2160097    333.05627  0.021940466  0.021598502           14 
 1266000   0.75410987   -7.1837897    332.47243  0.021884704  0.021582712           11 
 1267000    0.7463192   -7.1760698    333.09143  0.021908145  0.021566881            8 
 1268000   0.76048812    -7.164773    332.37723  0.021843929   0.02155106           10 
 1269000   0.74872694   -7.1966008    332.55426  0.021838341  0.021535309            7 
 1270000   0.75518403    -7.190382    332.06251  0.021788879  0.021519605           12 
 1271000   0.74069358   -7.1692661    332.98462  0.021832194  0.021503882           10 
 1272000    0.7627301   -7.1837286    332.39202  0.021776207  0.021488116            8 
 1273000   0.73509727    -7.172441    332.87294  0.021790582  0.021472382            6 
 1274000   0.72724977     -7.18059    333.37854   0.02180655  0.021456654           17 
 1275000   0.72637605   -7.1876298    333.09244  0.021770747   0.02144094           10 
 1276000   0.73573138   -7.1888678    332.79573  0.021734308  0.021425244            8 
 1277000   0.74210592   -7.2157873    332.48428  0.021696964  0.021409496           12 
 1278000   0.74871565   -7.2147926    333.12717  0.021721907  0.021393786            9 
 1279000   0.75306782   -7.1986057    333.01795  0.021697808  0.021378156           11 
 1280000   0.74677783   -7.2074596    333.36155  0.021703226  0.021362532            6 
 1281000   0.74530334   -7.2156676    333.05062  0.021666056  0.021346844            6 
 1282000   0.73394658    -7.195801    332.84867  0.021636029  0.021331101           27 
 1283000   0.73889819    -7.191352    333.72757  0.021676252  0.021315364            9 
 1284000   0.75033599   -7.2227963    333.07514  0.021617027  0.021299687           14 
 1285000   0.75036055   -7.2117781    332.94307  0.021591638  0.021284005           11 
 1286000   0.74716361   -7.2180065    333.43553   0.02160676  0.021268387            8 
 1287000   0.73736451   -7.1801366    333.61463  0.021601569  0.021252741            8 
 1288000   0.74645667   -7.1782195    334.33061  0.021631121    0.0212373            9 
 1289000   0.72905442   -7.2045801     334.5863   0.02163087   0.02122193            7 
 1290000   0.73975793   -7.2089312    334.64735  0.021618046  0.021206448            3 
 1291000   0.72924446   -7.2105141    333.59996  0.021533692  0.021190923            9 
 1292000    0.7348486   -7.2572107    333.96303  0.021540443  0.021175353           16 
 1293000    0.7354443   -7.2347936    334.29298  0.021545049  0.021159828           13 
 1294000   0.74568606   -7.2347916    334.04574  0.021512477  0.021144319            6 
 1295000   0.74657698   -7.2183601    334.05977  0.021496768  0.021128821            4 
 1296000   0.72660672   -7.2021607    334.44825   0.02150516  0.021113368            5 
 1297000   0.73591439   -7.2005508    334.65244  0.021501699  0.021097926            8 
 1298000   0.73757482    -7.204498    334.65154  0.021485076  0.021082472            9 
 1299000   0.72745239   -7.1928721    335.07363  0.021495614  0.021067035           13 
 1300000   0.73971833   -7.2246524    334.36551  0.021433687  0.021051639            8 
 1301000   0.73696935   -7.2193163    334.86091  0.021448943  0.021036272           15 
 1302000   0.72748039   -7.2281769    334.97776  0.021439949  0.021020864           16 
 1303000   0.71221062   -7.2395149    334.52151  0.021394315  0.021005493            6 
 1304000   0.73043085   -7.1804352    335.57662  0.021445336  0.020990181            8 
 1305000   0.72245927   -7.2223601    334.75385  0.021376363  0.020974834            8 
 1306000   0.72786849   -7.2036609    334.97572  0.021374153  0.020959508           10 
 1307000   0.74440857    -7.218898    335.97181  0.021421309  0.020944271            6 
 1308000   0.73394964   -7.2283467    335.04223  0.021345708  0.020929034           12 
 1309000   0.71122986   -7.2416516    335.13381  0.021335231  0.020913777           15 
 1310000   0.73481654   -7.2404273     335.0997  0.021316775  0.020898481            8 
 1311000   0.72921567   -7.2371041    334.34791  0.021252727  0.020883184            8 
 1312000   0.73388461   -7.2432421    334.97215  0.021276178  0.020867851            7 
 1313000   0.71910257    -7.233322    335.50737  0.021293943  0.020852517           13 
 1314000   0.72687199   -7.2380306    335.26334  0.021262262  0.020837236           15 
 1315000    0.7454054   -7.2332103    335.71381  0.021274639  0.020821994            9 
 1316000   0.71459172   -7.2603216    334.66862  0.021192289  0.020806757           10 
 1317000   0.71386039   -7.2223093     335.5122  0.021229575  0.020791527            8 
 1318000   0.73400561   -7.2303326    335.33065  0.021201989  0.020776284            5 
 1319000   0.72520396    -7.233151    335.58665  0.021202088  0.020761077            6 
 1320000    0.7356961   -7.2384995    335.37816  0.021172864   0.02074578           11 
 1321000   0.73280617   -7.2424671    335.33806  0.021154306  0.020730471            7 
 1322000   0.72816317   -7.2140153    334.64843  0.021094833  0.020715178           11 
 1323000   0.73411156   -7.2627188    335.37118  0.021124413  0.020699918           13 
 1324000   0.72525035   -7.2461395    335.89776  0.021141601  0.020684689           17 
 1325000   0.72816126   -7.2374876    335.18104  0.021080568  0.020669427            8 
 1326000   0.73005121   -7.2654873    335.59844  0.021090903  0.020654169           33 
 1327000   0.72583197   -7.2639359    335.42259  0.021063966   0.02063889           28 
 1328000   0.71191137   -7.2327182    335.70928  0.021066095  0.020623655           16 
 1329000   0.72053497   -7.2413895    334.85601   0.02099674  0.020608434           28 
 1330000   0.70685014   -7.2406746    335.92346  0.021047836   0.02059322           16 
 1331000   0.73792782   -7.2541958    335.67743  0.021016619  0.020578002           30 
 1332000   0.70473155   -7.2583081    335.35556  0.020980703  0.020562849           10 
 1333000    0.7226904   -7.2657868    335.80246  0.020992902  0.020547625           11 
 1334000   0.71599135   -7.2698344    335.99546  0.020989221   0.02053243           15 
 1335000    0.7174073   -7.2625227    335.47901  0.020941261  0.020517263           11 
 1336000   0.72844309   -7.2696111    336.88021  0.021012987  0.020502122           15 
 1337000   0.70809953   -7.2906821    335.76571  0.020927805  0.020486953            9 
 1338000   0.70901901   -7.2579785    335.85921  0.020917988  0.020471798            8 
 1339000   0.71354916   -7.2516541    335.94427  0.020907659  0.020456717            7 
 1340000   0.69742331   -7.2767965    336.09468   0.02090141  0.020441637            6 
 1341000   0.73442681   -7.2680108    335.44853  0.020845671  0.020426534           24 
 1342000   0.72145535    -7.252184    336.62329  0.020903086  0.020411476           17 
 1343000   0.70738874   -7.2566675    336.79102  0.020897929  0.020396404            7 
 1344000    0.7241972   -7.2600365    335.92337  0.020828582  0.020381301           11 
 1345000   0.70834969   -7.2608761     335.9316  0.020813606  0.020366161           21 
 1346000   0.73753103    -7.248959     335.4202  0.020766481  0.020350979            7 
 1347000   0.70209874     -7.27299    335.80786  0.020775047  0.020335895            9 
 1348000    0.7069531   -7.2427958    336.44703  0.020799149  0.020320863           16 
 1349000   0.72239359   -7.2517714    336.05814  0.020759707  0.020305822           18 
 1350000   0.71512445   -7.2602854    336.22024  0.020754336  0.020290789           19 
 1351000   0.71740939   -7.2778701    336.02695  0.020727051  0.020275796            9 
 1352000   0.73468803   -7.2651939    335.92778  0.020705608  0.020260736           14 
 1353000    0.7161693   -7.2655792    336.16671   0.02070502   0.02024568            6 
 1354000    0.7098739   -7.2586857     336.5852  0.020715485  0.020230701            7 
 1355000   0.69935359   -7.2774957     336.8145  0.020714299  0.020215732            6 
 1356000   0.71671589   -7.2959805     335.8983  0.020642718  0.020200748           33 
 1357000   0.69592201   -7.2735955    337.19068  0.020706871  0.020185712            8 
 1358000   0.70416968   -7.2645091    336.52633  0.020650855   0.02017072           21 
 1359000   0.71386394   -7.2640746    335.90246  0.020597404  0.020155698           11 
 1360000    0.7030445   -7.2794704    335.58659  0.020562904  0.020140657           14 
 1361000   0.72218922   -7.2783495    336.52211  0.020605077  0.020125677           12 
 1362000   0.72139125   -7.2701289    336.57175  0.020592985  0.020110685           21 
 1363000   0.70957168    -7.253733    337.12136   0.02061148  0.020095732           13 
 1364000   0.70128242   -7.2798655    336.67523  0.020569112   0.02008078           15 
 1365000   0.69787958    -7.277116     336.8129  0.020562448  0.020065803           22 
 1366000   0.69070829   -7.2684802    336.91492  0.020553619  0.020050884           19 
 1367000   0.72214264   -7.2702274    337.18474  0.020555032  0.020036008           16 
 1368000   0.69288185   -7.2757056    336.86578  0.020520576  0.020021117            6 
 1369000   0.70844196   -7.2645478     335.9147  0.020447693  0.020006153            5 
 1370000   0.70306039   -7.2819145    337.29104  0.020516486   0.01999121            8 
 1371000   0.70864701   -7.2861036    336.53955  0.020455844  0.019976265           12 
 1372000   0.71710221   -7.3034818    336.99935  0.020468863   0.01996132           10 
 1373000   0.70590659   -7.2990685    336.63113  0.020431605  0.019946334           14 
 1374000   0.68605711    -7.289981    336.75655  0.020424342  0.019931358           19 
 1375000   0.71028066   -7.2959696    337.03836  0.020426567  0.019916401           19 
 1376000   0.69679236   -7.3376958    336.30581  0.020367358  0.019901421           31 
 1377000   0.70296082    -7.296282    336.58387  0.020369394  0.019886469           31 
 1378000   0.69517702   -7.2924527    336.43112  0.020345375  0.019871541           25 
 1379000   0.69674646   -7.2898799    336.26751  0.020320734  0.019856613           24 
 1380000   0.69397094   -7.3023605    335.90051  0.020283847  0.019841699            8 
 1381000    0.6976708   -7.3128544    336.62724  0.020313012  0.019826791           11 
 1382000   0.69525068   -7.3101893    337.05366  0.020324027  0.019811875           25 
 1383000   0.68635117   -7.3015981    337.42881  0.020331936  0.019796988           40 
 1384000   0.71258468   -7.3269403    337.01624  0.020292403  0.019782151           25 
 1385000   0.70993958   -7.3042773    337.56025  0.020310484  0.019767358           15 
 1386000   0.70943931   -7.3018155    337.66741  0.020302273   0.01975264           14 
 1387000   0.70018371   -7.2867885    337.85861  0.020299123  0.019737938           20 
 1388000   0.69124094   -7.2919209    338.08681  0.020298199   0.01972325           24 
 1389000   0.70720052    -7.319751    337.82948  0.020268147  0.019708618           22 
 1390000   0.72003763   -7.3221849     337.5468  0.020236619  0.019694007           29 
 1391000   0.69102649   -7.3099663    337.78865  0.020236559  0.019679355           36 
 1392000   0.69620188   -7.3243394    337.70123  0.020216788  0.019664694           20 
 1393000   0.71645352   -7.2991404    338.26039  0.020235726  0.019650053           24 
 1394000   0.68714077   -7.3202906    337.76807  0.020191778  0.019635428           29 
 1395000   0.70375421   -7.3178521     337.3695  0.020153494  0.019620795           27 
 1396000   0.71061161   -7.3198149    337.65967   0.02015638  0.019606146           21 
 1397000   0.68618221   -7.3388645    337.47727  0.020131071    0.0195915           65 
 1398000    0.7011667    -7.298732    337.47154  0.020116329  0.019576883           27 
 1399000   0.70845899   -7.2869243    338.25616  0.020148687  0.019562345           14 
 1400000   0.69191603   -7.3066708     337.5692  0.020093405  0.019547783           11 
 1401000    0.6759231   -7.3133584    337.95902   0.02010225  0.019533205           17 
 1402000   0.68243571   -7.3192057    337.99551   0.02009008  0.019518617           18 
 1403000   0.69676296   -7.2953118    338.03992  0.020078399   0.01950404            7 
 1404000   0.69076374   -7.3052929    337.56512  0.020035917  0.019489495           10 
 1405000   0.69707851   -7.3359053    337.49025  0.020017215  0.019474941            8 
 1406000   0.68746344   -7.2948969     337.9574  0.020030666  0.019460417           11 
 1407000   0.67601426    -7.307795    337.95247  0.020016138  0.019445891           12 
 1408000   0.68624568   -7.3102502    338.17841  0.020015294  0.019431416            7 
 1409000   0.69960724   -7.3033383    338.19164  0.020001871  0.019416936            7 
 1410000   0.68481714   -7.3116332    338.15732  0.019985657  0.019402515           14 
 1411000   0.67659107   -7.2926021    339.01687  0.020022258  0.019388111            9 
 1412000   0.69110448   -7.3071413    337.76165  0.019933997  0.019373728           13 
 1413000    0.6749424   -7.2914902    339.34414  0.020013219  0.019359344           11 
 1414000   0.67556397   -7.3296495    337.77209  0.019906417  0.019344948           19 
 1415000   0.68545388   -7.3006704    338.87862  0.019957516   0.01933056           15 
 1416000    0.6802068   -7.3057358    337.70728  0.019874487  0.019316136           21 
 1417000   0.70363225   -7.3178069    338.20434  0.019889693  0.019301703           19 
 1418000   0.68234332   -7.3066447     338.5215  0.019894305  0.019287293           32 
 1419000   0.68296382   -7.3535836    338.57322  0.019883323  0.019272871           27 
 1420000   0.69311896   -7.3118056    338.44596  0.019861852  0.019258464           17 
 1421000   0.68716182   -7.3303112    338.23329  0.019835403  0.019244073           20 
 1422000   0.68099698   -7.3477035    338.17956  0.019818305  0.019229655           19 
 1423000   0.70503629   -7.3168846    337.93693  0.019790169  0.019215251           14 
 1424000   0.68491709   -7.3380391    337.70547  0.019762726  0.019200838           35 
 1425000   0.69739782   -7.3086473    338.67703  0.019805674  0.019186479           14 
 1426000   0.68404568   -7.3386134    338.54121  0.019783848  0.019172112           16 
 1427000   0.68080615   -7.3412285    338.14627  0.019746921  0.019157706           17 
 1428000   0.69213157   -7.3259414      338.127  0.019731968  0.019143397            9 
 1429000    0.6758396   -7.3470358    338.70673  0.019751967   0.01912907           32 
 1430000   0.67534375   -7.3148736    338.59386  0.019731577  0.019114761           21 
 1431000     0.678939   -7.3389565    338.77857  0.019728545  0.019100456           29 
 1432000     0.685383     -7.29954    339.41712  0.019751927  0.019086197           19 
 1433000   0.68680841    -7.314742     338.8433  0.019704774  0.019071976           23 
 1434000   0.67542112    -7.330652    338.60794  0.019677356  0.019057761           18 
 1435000   0.67872647   -7.3294347    338.67992  0.019667823  0.019043473           20 
 1436000   0.67585487   -7.3390589    338.50378  0.019643906  0.019029208           27 
 1437000     0.670286   -7.3510616    339.26194  0.019674202  0.019014968           26 
 1438000   0.67934898   -7.3156332    339.49738  0.019674165    0.0190007           33 
 1439000   0.66897205   -7.3575543    338.79326  0.019619716  0.018986424           20 
 1440000   0.67612894   -7.3643479    338.71492  0.019601558  0.018972115           17 
 1441000    0.6809047   -7.3276526    338.19673  0.019557988  0.018957851           19 
 1442000   0.68540096   -7.3279227     338.5191  0.019563055  0.018943566           19 
 1443000   0.68428243   -7.3421461    339.01905   0.01957837  0.018929304           19 
 1444000   0.67166437   -7.3451529    339.37994  0.019585638  0.018915104           34 
 1445000   0.68064547   -7.3404178    338.87189  0.019542785  0.018900899           24 
 1446000   0.67128801   -7.3434815    338.42934  0.019503766  0.018886734            9 
 1447000   0.67130571   -7.3622867    338.28752   0.01948212    0.0188725           11 
 1448000   0.66550516   -7.3666344    338.21458  0.019464467  0.018858251           16 
 1449000   0.68807135   -7.3515401    338.94301  0.019492927  0.018844027           10 
 1450000   0.67252371   -7.3636164    338.25792   0.01944011  0.018829798           29 
 1451000    0.6693695   -7.3710585    338.51329  0.019441379  0.018815589           11 
 1452000   0.66233052   -7.3797268    339.14099  0.019464015  0.018801405           22 
 1453000    0.6681937   -7.3632701    338.65648  0.019422831  0.018787225           22 
 1454000   0.66342083   -7.3546299    338.06481  0.019375562  0.018773034           31 
 1455000   0.67183169   -7.3636506    338.17144  0.019368353  0.018758821           26 
 1456000   0.68260666   -7.3239401     339.2581  0.019417245  0.018744658           45 
 1457000   0.67528636   -7.3544415    338.48676  0.019359801  0.018730498           19 
 1458000   0.65854398   -7.3543371    337.70622   0.01930191   0.01871627           32 
 1459000   0.67716943   -7.3523433    338.54409  0.019336537  0.018702039           32 
 1460000   0.67439147   -7.3663116    338.29873  0.019309288  0.018687787           48 
 1461000   0.67187897   -7.3663014    338.12866  0.019286371  0.018673574           40 
 1462000   0.66887353   -7.3635833    338.96565  0.019320887  0.018659396           29 
 1463000   0.67492269   -7.3759252    338.73359  0.019294463  0.018645234           17 
 1464000   0.67334929   -7.3758976    338.11091   0.01924584  0.018631071           15 
 1465000   0.70075402   -7.3718407    338.02279   0.01922769  0.018616882           25 
 1466000   0.65345206   -7.3751519    338.27053  0.019228657  0.018602697           30 
 1467000   0.67529825   -7.3761374    337.89173  0.019194031  0.018588541           36 
 1468000   0.66907951   -7.3714005    338.56922  0.019219415  0.018574408           23 
 1469000    0.6642974   -7.3920414    338.83904  0.019221638    0.0185603           49 
 1470000   0.66503409   -7.3702849    338.30483  0.019178278  0.018546247           15 
 1471000   0.64996149   -7.3710524    338.36599  0.019168705  0.018532175           15 
 1472000   0.66215653   -7.3708819    338.89184  0.019185453  0.018518121           16 
 1473000   0.65871454   -7.3701898    338.32207  0.019140194  0.018504052           13 
 1474000   0.66168669   -7.3683205    338.82394  0.019155583  0.018489935           19 
 1475000   0.67055618   -7.3802848    338.93155  0.019148675   0.01847583           15 
 1476000   0.66694026   -7.3762116    338.80036  0.019128295  0.018461744           17 
 1477000    0.6675135   -7.3645495     338.4016  0.019092846   0.01844766           25 
 1478000   0.67245719   -7.3726648    338.87004   0.01910634  0.018433581           22 
 1479000    0.6524868   -7.4047538    338.36315  0.019064861  0.018419535           17 
 1480000    0.6669192   -7.3819559    338.03732  0.019033633  0.018405508           22 
 1481000   0.65453058   -7.3854084    338.50065  0.019046852    0.0183915           27 
 1482000   0.66036916   -7.4277029    338.70895  0.019045713  0.018377447           16 
 1483000    0.6675208   -7.3730466     338.8944   0.01904329  0.018363393           62 
 1484000   0.66292368   -7.3870523    338.60177  0.019014026  0.018349376           33 
 1485000   0.65563193   -7.3937637    338.43593  0.018991915  0.018335376           37 
 1486000   0.67330361   -7.3950619     338.1429  0.018962702  0.018321353           32 
 1487000   0.66304068   -7.3810307    338.78273  0.018985806  0.018307354           33 
 1488000   0.65915157   -7.3543305    338.48649  0.018956457  0.018293312           23 
 1489000   0.66757285    -7.409351     339.1236  0.018979382  0.018279326           41 
 1490000    0.6665147    -7.394463    339.07619  0.018963993  0.018265307           50 
 1491000   0.65716599   -7.3878137    338.89925  0.018941385  0.018251311           26 
 1492000   0.66835562   -7.3921218    338.67655  0.018916251  0.018237333           20 
 1493000   0.65270891   -7.4049017    338.65218  0.018902221  0.018223378           37 
 1494000   0.65273186   -7.4023016    338.51506   0.01888192  0.018209387           30 
 1495000   0.64624572   -7.3963542    338.15981  0.018849488  0.018195369           28 
 1496000   0.68100243   -7.4044851    338.78924   0.01887195  0.018181371           65 
 1497000   0.65394189   -7.3903752    338.49648  0.018843046  0.018167399           28 
 1498000   0.64104357   -7.3991844      338.556  0.018833778  0.018153405           35 
 1499000   0.63815938   -7.3769064    338.26098  0.018804813  0.018139462           20 
 1500000   0.64845718   -7.4066251    339.16387  0.018842437  0.018125517           31 
 1501000   0.65061533   -7.3940366    338.66828  0.018802369   0.01811156           27 
 1502000   0.65674196   -7.3946692    338.63496  0.018788003  0.018097642           24 
 1503000    0.6564641   -7.4144376    338.36666  0.018760627  0.018083714           26 
 1504000   0.66396821   -7.4033249    338.46188  0.018753428   0.01806978           25 
 1505000   0.66350465   -7.3894974    338.73966  0.018756349  0.018055878           26 
 1506000   0.63751081   -7.4010487     337.9472  0.018700044  0.018041971           23 
 1507000   0.66341633   -7.3933912    338.91894   0.01874137  0.018028077           16 
 1508000   0.64893245   -7.4206819    338.53426  0.018707685  0.018014196           30 
 1509000   0.65254988   -7.4066485    338.55136  0.018696232  0.018000366           17 
 1510000   0.65252058   -7.4206144    338.09215  0.018658507  0.017986528           60 
 1511000    0.6670492   -7.3909467    338.32446  0.018658971  0.017972723           27 
 1512000   0.63915009   -7.4178043    338.57557   0.01866047  0.017958895           55 
 1513000   0.65407314    -7.437214    338.03399  0.018618307  0.017945096           17 
 1514000   0.66395521   -7.4431042    338.68845  0.018642033  0.017931273           28 
 1515000    0.6561556   -7.4219579    338.01084  0.018592455  0.017917489           30 
 1516000   0.64744344   -7.4238779    338.59545  0.018612327  0.017903711           26 
 1517000    0.6462173   -7.4241357    338.45432  0.018592305  0.017889924           38 
 1518000   0.65920296   -7.3928788     338.9461  0.018607054   0.01787619           21 
 1519000   0.64994879   -7.4211495    339.03803  0.018599848  0.017862494           26 
 1520000    0.6611181   -7.4254426    338.73693  0.018571104  0.017848763           19 
 1521000   0.63909998    -7.424757    339.28661   0.01858901  0.017835077           28 
 1522000   0.64815365   -7.4043282    338.34005   0.01852497  0.017821348           30 
 1523000   0.63691419   -7.4333923    338.73257  0.018534284  0.017807619           29 
 1524000   0.64147783   -7.4311709    338.25827  0.018496187  0.017793898           43 
 1525000   0.65207589   -7.4080933    338.95515  0.018522139  0.017780199           19 
 1526000   0.62881558   -7.4158961    338.99666  0.018512269  0.017766509           30 
 1527000   0.64329678   -7.4200623    338.64258  0.018480822  0.017752825           33 
 1528000   0.63051828   -7.4364884    338.30027  0.018450058  0.017739141           28 
 1529000   0.63184534   -7.4308264    338.92085  0.018471815  0.017725465           30 
 1530000   0.64709895   -7.4537543    337.86127   0.01840203   0.01771178           47 
 1531000   0.64436261   -7.4349861      338.656  0.018433268  0.017698083           35 
 1532000   0.64023235   -7.4609135    338.18419  0.018395571  0.017684354           40 
 1533000   0.63725454   -7.4306312    338.92357  0.018423764  0.017670631           43 
 1534000   0.63951616   -7.4604317    338.71316  0.018400324  0.017656935           38 
 1535000   0.64379118   -7.4633421    338.07803  0.018353856  0.017643254           37 
 1536000   0.63155006   -7.4290057    339.17608   0.01840148  0.017629605           45 
 1537000   0.62576468   -7.4277409    337.87514  0.018318973  0.017615941           31 
 1538000   0.62731806   -7.4469457    339.08943  0.018372856  0.017602309           34 
 1539000   0.62962856   -7.4298136    338.30191  0.018318275   0.01758873           47 
 1540000    0.6352324   -7.4235059     338.8424  0.018335628  0.017575151           60 
 1541000   0.63482165   -7.4506714     338.3225  0.018295614  0.017561553           37 
 1542000   0.64257233   -7.4195553      338.899  0.018314905  0.017547945           35 
 1543000   0.63525588   -7.4556169    338.58104  0.018285863  0.017534332           66 
 1544000   0.62412299   -7.4506956     338.4843  0.018268798  0.017520723           26 
 1545000   0.64082796   -7.4494493    337.89335    0.0182251  0.017507152           40 
 1546000   0.64057621   -7.4493871    338.57346  0.018249971  0.017493558           42 
 1547000   0.62820196   -7.4499261    338.33886  0.018225536  0.017479982           43 
 1548000   0.63979541   -7.4416622    338.88612  0.018243223  0.017466434           57 
 1549000   0.62856318   -7.4271426     339.3294  0.018255293  0.017452917           69 
 1550000   0.64027858   -7.4403347    338.81273  0.018215738  0.017439425           80 
 1551000   0.63443884   -7.4478397    338.61857  0.018193562  0.017425923           68 
 1552000   0.62760715   -7.4063028    339.33424  0.018220266  0.017412484           45 
 1553000    0.6301014   -7.4274764    339.10022  0.018195976  0.017399048           49 
 1554000    0.6401315   -7.4277859    338.57234   0.01815596  0.017385583           56 
 1555000   0.63845315   -7.4479161    339.43395  0.018190458   0.01737215           55 
 1556000   0.63582263   -7.4579015    338.64711  0.018136627  0.017358689           78 
 1557000   0.63539917   -7.4380811    338.65228  0.018125256  0.017345241           58 
 1558000   0.62812229   -7.4285895    338.60799  0.018111253  0.017331845           65 
 1559000   0.62915974   -7.4409337    338.46662  0.018092079  0.017318447           61 
 1560000   0.64988936   -7.4610205    338.61182  0.018088238   0.01730508           63 
 1561000   0.62268293   -7.4521782    339.17065  0.018106484    0.0172917           92 
 1562000   0.63162313   -7.4583283    338.87178  0.018078947  0.017278338           74 
 1563000    0.6310202   -7.4609045    338.62728  0.018054344   0.01726495          102 
 1564000   0.64754791   -7.4505301    338.47562   0.01803472  0.017251577           93 
 1565000   0.62340186   -7.4500952    338.19036  0.018008007  0.017238231           95 
 1566000   0.63224056   -7.4475842    338.80111  0.018029008  0.017224861           87 
 1567000   0.63095103   -7.4700281    339.00771  0.018028489  0.017211511           81 
 1568000   0.63388988   -7.4415105    338.75972  0.018003812  0.017198152           43 
 1569000   0.61383343    -7.453128    338.56738  0.017982121  0.017184843           54 
 1570000   0.62199905   -7.4734108    339.12183  0.018000097  0.017171531           53 
 1571000   0.64995008   -7.4648556    338.83293  0.017973315  0.017158171           46 
 1572000   0.61119651   -7.4890918    338.99578  0.017970514  0.017144824           32 
 1573000   0.64472472   -7.4544121     338.9985  0.017959234  0.017131485           45 
 1574000   0.61739832   -7.4809486    339.24967  0.017961122  0.017118188           45 
 1575000   0.63654996   -7.4729883    338.44156  0.017906961  0.017104878           39 
 1576000   0.62915304   -7.4561243    338.92229  0.017921018  0.017091579           50 
 1577000   0.61313926   -7.4481014    338.63006  0.017894212  0.017078289           39 
 1578000   0.61479208   -7.4547092    338.69386  0.017886241  0.017065035           67 
 1579000   0.63377619   -7.4604562    338.81781  0.017881455  0.017051725           63 
 1580000   0.62234355   -7.4657601    338.37198  0.017846624  0.017038408           46 
 1581000   0.61586006   -7.4751839    338.80973  0.017858409  0.017025119           61 
 1582000   0.61626927    -7.480461    338.45415   0.01782839  0.017011853           41 
 1583000   0.60920023   -7.4787226    338.58139  0.017823826  0.016998593           74 
 1584000     0.607059   -7.4791154    338.46543  0.017806473  0.016985323           72 
 1585000   0.62070133    -7.471626    338.49066  0.017796565  0.016972066           44 
 1586000    0.6237323   -7.4646216     338.9895  0.017811554  0.016958812           44 
 1587000   0.62742612   -7.4867343    338.22166  0.017760011  0.016945582           76 
 1588000   0.62245165    -7.471788    338.46357  0.017761522  0.016932332           67 
 1589000   0.63197209    -7.493069    338.42279  0.017748206  0.016919118           70 
 1590000   0.62831899   -7.5021139    338.09943  0.017720096  0.016905873           62 
 1591000   0.63062507   -7.4728169     338.1926  0.017713838  0.016892648           44 
 1592000   0.61159784   -7.4779593    338.43001  0.017715139  0.016879426           54 
 1593000   0.61562201   -7.4818579    338.31327  0.017697911  0.016866226           50 
 1594000    0.6177579   -7.4699877    337.82335  0.017661196   0.01685304           49 
 1595000    0.6186369   -7.4823454    338.47921  0.017684389  0.016839849           45 
 1596000   0.62369497   -7.4693433    338.42437  0.017670445  0.016826686           35 
 1597000   0.61589862   -7.4790214    338.21364  0.017648384  0.016813511           58 
 1598000    0.6341623   -7.4825385    338.05859  0.017629255  0.016800334           48 
 1599000   0.61400458   -7.4936443    338.52861  0.017642725  0.016787146           34 
 1600000   0.61157006   -7.4782955     337.8869  0.017598276  0.016773974           38 
 1601000   0.60053781   -7.4994191    337.39251  0.017561551    0.0167608           49 
 1602000   0.61601554   -7.4853266    338.27669  0.017596582  0.016747667           43 
 1603000   0.62056236   -7.4972859    337.65965  0.017553527  0.016734538           73 
 1604000    0.6033455    -7.496705    338.30944  0.017576343  0.016721425          111 
 1605000   0.61139011   -7.4961013    338.49267  0.017574905  0.016708325           55 
 1606000   0.61150323   -7.4850973    337.86637  0.017531464  0.016695231           35 
 1607000   0.62832818   -7.4833008    338.25694  0.017540808  0.016682156           56 
 1608000   0.60497285   -7.4993607    338.31861  0.017533096  0.016669119           32 
 1609000   0.60099825   -7.5044053    338.32039  0.017522291  0.016656049           54 
 1610000    0.6138776   -7.4963231    338.33045  0.017511928  0.016642984           56 
 1611000   0.62702317   -7.5077677    337.76911  0.017472021  0.016629925           95 
 1612000   0.60897077   -7.4895265    337.98492  0.017472339  0.016616876           36 
 1613000   0.62490486   -7.4930162      337.715  0.017447561   0.01660383           45 
 1614000   0.60378992   -7.4775821    337.33114  0.017416932   0.01659081           87 
 1615000   0.61179831   -7.4826775    338.39057  0.017460814  0.016577807           39 
 1616000   0.60735239   -7.4904537    338.55253   0.01745836  0.016564819           31 
 1617000   0.60338581   -7.4888319    338.04319  0.017421315  0.016551842           59 
 1618000   0.61216637   -7.5116455     338.1943   0.01741833  0.016538867           31 
 1619000   0.61871381   -7.4623375     338.1139  0.017403433    0.0165259           54 
 1620000    0.6003441   -7.4947805    338.22023   0.01739816  0.016512945           34 
 1621000   0.60127103     -7.49869    337.52468   0.01735167  0.016499982           34 
 1622000   0.61838632   -7.4793135    337.69515   0.01734973  0.016487025           35 
 1623000   0.60788437     -7.49345    338.56488  0.017383697  0.016474077           18 
 1624000   0.60238273   -7.4767587     337.9462  0.017341246  0.016461137           20 
 1625000   0.61072257   -7.4888095    338.20797  0.017343998  0.016448233           14 
 1626000   0.60131017    -7.506899    338.08654  0.017327109  0.016435333           15 
 1627000   0.60178934   -7.5053864    338.03776   0.01731396  0.016422426           16 
 1628000   0.59756871   -7.5052476    338.49312  0.017326634  0.016409561           19 
 1629000   0.59903236   -7.5154424    338.41178  0.017311836  0.016396669           53 
 1630000    0.6007894   -7.5074838    337.75383  0.017267578  0.016383793           49 
 1631000    0.6177291   -7.4978959    338.42387  0.017291226  0.016370953           50 
 1632000   0.61027852   -7.4960926    337.80269  0.017248912  0.016358107           43 
 1633000   0.59937909   -7.5169451    337.33554   0.01721451  0.016345249           61 
 1634000   0.60773787    -7.512158    338.00786  0.017238263  0.016332391           41 
 1635000   0.60208335   -7.5053938    338.38623  0.017247005  0.016319566           36 
 1636000   0.57415961   -7.5168078    338.57031  0.017245839  0.016306723           71 
 1637000   0.59782367   -7.5199073    338.31674  0.017222395  0.016293892           47 
 1638000   0.60483317   -7.4998967    337.67053  0.017179005  0.016281071           36 
 1639000   0.60888513    -7.512552    337.12194  0.017140632  0.016268251           38 
 1640000   0.59061187   -7.5365224    338.03659  0.017176656  0.016255445           48 
 1641000   0.58392581   -7.5044404    338.25581  0.017177321  0.016242665           36 
 1642000    0.6116346   -7.5238491    337.97255  0.017152484  0.016229868           43 
 1643000   0.59907943   -7.5224874    338.31062  0.017159191  0.016217085           42 
 1644000   0.59235028   -7.5026405    337.87976  0.017126914  0.016204308           36 
 1645000   0.60556383   -7.5291251    337.88018  0.017116524  0.016191575           37 
 1646000   0.59162286    -7.515905    337.62858  0.017093387  0.016178839           44 
 1647000    0.5940499   -7.5225637    338.43128  0.017123623  0.016166126           39 
 1648000   0.59394217   -7.5288532    337.61595  0.017072004  0.016153423           43 
 1649000   0.58801996   -7.5051253    338.24098  0.017093237  0.016140708           53 
 1650000   0.59201955   -7.5398861    337.69141  0.017055122  0.016128011           46 
 1651000   0.59715805   -7.5267083     338.1374  0.017067303  0.016115296           49 
 1652000   0.58512528   -7.5260827    337.82696  0.017041311  0.016102592           45 
 1653000   0.59988048   -7.5323423    337.84843  0.017032085  0.016089899           49 
 1654000   0.59420587   -7.5312493    337.50853  0.017004662  0.016077203           41 
 1655000   0.61072434   -7.5330612    338.09074  0.017023703  0.016064544           46 
 1656000    0.5858009   -7.5289973    337.53434  0.016985424  0.016051885           61 
 1657000   0.59329185   -7.5410482    338.16661  0.017006971  0.016039214           53 
 1658000   0.58401485   -7.5545814    337.31376  0.016953848  0.016026549           70 
 1659000   0.60779496   -7.5491944    337.17485  0.016936651  0.016013877           31 
 1660000   0.59826248   -7.5220938    337.75697  0.016955671  0.016001215           54 
 1661000   0.58964157   -7.5313965    337.46388  0.016930759  0.015988595           45 
 1662000   0.59373516   -7.5342329    337.49505  0.016922134  0.015975958           42 
 1663000    0.5784277   -7.5494976    338.26868  0.016950726   0.01596334           41 
 1664000   0.58325159   -7.5507226    337.72931  0.016913527  0.015950724           41 
 1665000   0.60069843   -7.5440712     337.9786  0.016915846  0.015938121           70 
 1666000   0.59819667   -7.5569668    337.66576  0.016890044   0.01592554           53 
 1667000   0.59979024   -7.5438013    337.04689  0.016848975  0.015912962           44 
 1668000   0.58767799    -7.545646    338.01599   0.01688729  0.015900407           71 
 1669000     0.588076   -7.5464378    337.71513  0.016862149  0.015887872           53 
 1670000   0.58866762   -7.5435046    337.99178  0.016865857  0.015875327           47 
 1671000   0.59012892    -7.565213    337.50039  0.016831258  0.015862795           56 
 1672000    0.5858311   -7.5680833    337.65426   0.01682886   0.01585028           44 
 1673000   0.58498858    -7.523569    338.03009  0.016837522  0.015837777           58 
 1674000    0.5793371   -7.5377549    337.34759  0.016793488  0.015825273           49 
 1675000   0.57836304   -7.5490482    337.64169  0.016798094  0.015812762           57 
 1676000   0.57995452   -7.5360785    337.69662  0.016790803  0.015800263           60 
 1677000   0.59849766   -7.5452833    337.35958  0.016764042  0.015787784           75 
 1678000   0.58465345   -7.5490561    337.50198  0.016761123  0.015775312           54 
 1679000   0.59115525   -7.5443707    337.51746  0.016751909  0.015762845           55 
 1680000   0.58262003   -7.5459833    337.67573  0.016749788   0.01575041           49 
 1681000   0.58360695   -7.5452633    337.58912   0.01673553  0.015737995           50 
 1682000   0.58000391   -7.5590243    337.71693  0.016731913  0.015725571           40 
 1683000   0.58993762   -7.5543719    337.67813   0.01672005   0.01571316           62 
 1684000   0.59083935   -7.5623873     337.3987  0.016696294  0.015700756           66 
 1685000   0.58013972   -7.5681691    337.40762  0.016686826  0.015688358           91 
 1686000   0.56886779   -7.5622525    337.59006  0.016685946  0.015675973           40 
 1687000    0.5855001   -7.5693755    336.96551  0.016645204  0.015663578           50 
 1688000   0.58826345   -7.5780667    336.74577  0.016624495  0.015651182           68 
 1689000   0.57764485   -7.5680574    336.89206   0.01662187  0.015638814           34 
 1690000   0.58169977   -7.5742676    337.68237  0.016651004  0.015626452           27 
 1691000   0.58589083   -7.5765884    337.30043  0.016622336  0.015614126           67 
 1692000   0.58175236   -7.5682678    337.53433  0.016624031  0.015601797           48 
 1693000   0.58595138    -7.568519    337.09677  0.016592674   0.01558948           39 
 1694000   0.57439079    -7.580305     337.6613  0.016610651   0.01557717           51 
 1695000   0.56571222   -7.5553747    338.19675  0.016627176  0.015564877           41 
 1696000   0.57268977   -7.5805177    337.90937  0.016603251  0.015552568           34 
 1697000   0.56388748   -7.5753041    337.26487  0.016561818  0.015540267           42 
 1698000   0.57130708   -7.5700984    337.67991  0.016572434  0.015527997           41 
 1699000    0.5834439   -7.5806435    337.49093   0.01655341  0.015515731           33 
 1700000   0.57811474   -7.5600136    337.46694  0.016542497  0.015503485           59 
 1701000   0.57612683   -7.5691072    337.58861  0.016538733  0.015491228           44 
 1702000   0.57304431   -7.5749496    337.32686    0.0165162   0.01547899           47 
 1703000   0.56200441   -7.5987683    337.44443  0.016512254  0.015466763           39 
 1704000   0.56558824   -7.5800839     337.6158  0.016510945  0.015454551           72 
 1705000   0.57811818   -7.5756087    337.33352  0.016487464  0.015442346           37 
 1706000     0.567816   -7.5884684    337.28299  0.016475332  0.015430131           44 
 1707000   0.57829846   -7.5665421    336.85024  0.016444554  0.015417934           60 
 1708000   0.57505812   -7.5678295     337.3312  0.016458392  0.015405721           46 
 1709000   0.56752836   -7.5789476    337.57186  0.016460497  0.015393536           54 
 1710000   0.57560537   -7.5699392     337.5136  0.016448031  0.015381376           42 
 1711000   0.58172726   -7.5847682    337.06593  0.016416615  0.015369194           63 
 1712000   0.56937003   -7.5750226    336.72579  0.016390469  0.015357041           80 
 1713000   0.57369088   -7.5877321    337.48655  0.016417909  0.015344887           56 
 1714000   0.57786069   -7.5992554    337.29386  0.016398963  0.015332734           68 
 1715000   0.56747032    -7.568972    337.36135   0.01639268  0.015320617           40 
 1716000   0.57141958   -7.5884865    337.58021  0.016393755  0.015308514           55 
 1717000   0.55957366   -7.6130232     337.1484   0.01636325    0.0152964           58 
 1718000   0.55746045   -7.6027343     337.5912  0.016375204  0.015284299           51 
 1719000   0.56444038   -7.5870329    337.15158  0.016344366  0.015272182           72 
 1720000   0.57551536   -7.5910168    337.40143  0.016346968  0.015260099           46 
 1721000    0.5727826   -7.5942114    336.60157   0.01629874  0.015248029           34 
 1722000   0.57665802   -7.5795964     337.0861  0.016312722  0.015235961           30 
 1723000   0.55357674   -7.5979562    336.99452  0.016298826  0.015223919           51 
 1724000   0.57466039   -7.5902088    337.83873  0.016330178  0.015211873           54 
 1725000   0.55825155   -7.5926928     336.7021  0.016265802   0.01519983           54 
 1726000   0.56161614   -7.5766506    337.05714   0.01627352  0.015187781           59 
 1727000   0.56335731   -7.6191404    337.59932  0.016290259  0.015175747           53 
 1728000   0.56053374   -7.5842556    337.02574  0.016253171  0.015163717           37 
 1729000   0.57840081   -7.6102649    337.41804  0.016262678  0.015151712           32 
 1730000   0.56600606   -7.5837904    336.88737  0.016227715  0.015139695           47 
 1731000   0.57394773    -7.617454    337.11042  0.016229079  0.015127691           46 
 1732000   0.56604534   -7.6029976    336.75657  0.016202684  0.015115694           28 
 1733000   0.57025436   -7.5881276      336.764  0.016193691  0.015103714           45 
 1734000   0.55628007    -7.621204    337.02267  0.016196784  0.015091744           36 
 1735000   0.56714832   -7.6014277    337.27818  0.016199721  0.015079787           48 
 1736000   0.55091381   -7.5917613    337.40739  0.016196591   0.01506783           43 
 1737000   0.55512166   -7.5921954    337.11079  0.016173038  0.015055915           50 
 1738000   0.56015918   -7.5771928    336.99138  0.016158006  0.015044015           26 
 1739000   0.56543086   -7.5898124    336.68791  0.016134173  0.015032119           42 
 1740000   0.55704207   -7.5911661     336.9899  0.016139363  0.015020216           40 
 1741000   0.55272866   -7.6211892    336.96056  0.016128688  0.015008332           35 
 1742000   0.54812763   -7.6261865    337.19496  0.016130643  0.014996458           41 
 1743000   0.56600604   -7.6032399     337.0516  0.016114534  0.014984629           33 
 1744000    0.5516951   -7.5915137    337.23503  0.016114059  0.014972801           36 
 1745000   0.56656153   -7.6020525    336.69474  0.016079023  0.014960984           33 
 1746000   0.56226556    -7.614337    336.91084  0.016080128  0.014949165           29 
 1747000   0.54367969   -7.6219199    336.52478  0.016052508  0.014937359           38 
 1748000   0.56776477   -7.6196521    337.01363   0.01606663  0.014925574           36 
 1749000   0.54293173   -7.5905464    337.35536  0.016073726  0.014913769           34 
 1750000    0.5559491   -7.6029865    336.52487  0.016024994  0.014901986           45 
 1751000   0.55942861   -7.5930358    337.11097  0.016043735  0.014890228           42 
 1752000   0.55875242   -7.6145392     336.9891  0.016028781  0.014878483           41 
 1753000   0.55943674   -7.5983343    337.46318  0.016042174  0.014866747           34 
 1754000   0.54365181   -7.6050695    337.02602  0.016012259  0.014855039           31 
 1755000   0.53786341   -7.6125218    337.01979  0.016002839  0.014843324           27 
 1756000   0.55461792   -7.6181948    336.89018  0.015987575  0.014831613           51 
 1757000   0.55176403   -7.6129919    336.72389  0.015970589  0.014819911           40 
 1758000   0.55688026    -7.612525    336.82414  0.015966256  0.014808211           37 
 1759000   0.56173812   -7.5986016    336.59298  0.015946228  0.014796524           36 
 1760000   0.55113143   -7.6151095     337.0526   0.01595893  0.014784853           36 
 1761000    0.5542542   -7.6070899    337.56173   0.01597396  0.014773199           37 
 1762000   0.54601058    -7.630144    336.76808  0.015927359  0.014761529           42 
 1763000   0.54619044   -7.6188876    337.40082  0.015948233  0.014749872           45 
 1764000   0.56791325   -7.6172194    336.90547  0.015915791   0.01473822           97 
 1765000   0.53238003   -7.6220087    336.76343  0.015900067  0.014726589           41 
 1766000    0.5496342   -7.6217602    336.80029  0.015892803  0.014714955           35 
 1767000   0.54454723    -7.617613    336.69112   0.01587866   0.01470334           66 
 1768000   0.54142149    -7.596388    336.85263  0.015877292  0.014691729           44 
 1769000   0.54238261   -7.6335517    336.65059  0.015858799  0.014680103           40 
 1770000   0.54623684   -7.6280822    336.90747  0.015861934  0.014668502           45 
 1771000   0.54841529   -7.6260446    336.28798  0.015823827  0.014656892           43 
 1772000   0.54279273   -7.6225239     337.3738  0.015865961  0.014645306           49 
 1773000   0.53375433   -7.6391237    336.78858  0.015829506  0.014633734           44 
 1774000   0.55116388   -7.6407704    336.90476  0.015826041  0.014622174           31 
 1775000   0.54745259   -7.6303644    336.84785  0.015814453  0.014610636           39 
 1776000   0.54512697   -7.6347723    336.93614  0.015809691  0.014599071           41 
 1777000   0.55732803   -7.6457388    336.24928  0.015768584  0.014587534           66 
 1778000   0.54782832    -7.620003    336.81333  0.015786152  0.014576012           75 
 1779000   0.54126911   -7.6277056     336.8573  0.015779337   0.01456449           58 
 1780000   0.53330655   -7.6326805    336.70483  0.015763335  0.014552993           39 
 1781000   0.54453143    -7.619511    336.52772  0.015746197  0.014541504           33 
 1782000   0.53852494   -7.6323978    336.36638  0.015729816  0.014530017           35 
 1783000   0.55042626   -7.6351908    336.29429  0.015717624  0.014518535           45 
 1784000   0.54591883   -7.6496766    336.92155  0.015738114  0.014507054           50 
 1785000   0.52630814   -7.6346806    336.48076  0.015708719  0.014495582           44 
 1786000   0.53403387   -7.6368248    336.67334  0.015708909  0.014484134           59 
 1787000   0.53304648   -7.6329723    336.54224  0.015694005  0.014472679           56 
 1788000   0.54307381   -7.6202389    336.73733   0.01569432  0.014461255           51 
 1789000    0.5412321   -7.6329716    336.05205  0.015653626  0.014449831           39 
 1790000   0.54468729     -7.65068     336.4591  0.015663831  0.014438419           40 
 1791000   0.53187915   -7.6295562    336.57605  0.015660527  0.014427026           59 
 1792000   0.53310125   -7.6545845     336.7479   0.01565978  0.014415642           63 
 1793000   0.52861285   -7.6399674    336.70592  0.015649095  0.014404261           56 
 1794000   0.53405061    -7.653668    336.13025  0.015613631  0.014392881           42 
 1795000   0.52883688   -7.6508832    336.00978   0.01559934  0.014381511           49 
 1796000   0.53048066   -7.6436864    336.16335   0.01559778  0.014370159           49 
 1797000   0.52611581   -7.6334692    336.03406  0.015583104  0.014358827           48 
 1798000   0.54585036   -7.6455421    336.26394  0.015585092  0.014347501           48 
 1799000   0.55074259   -7.6456263    336.48958  0.015586881  0.014336188           56 
 1800000   0.52722387   -7.6526126    336.92942  0.015598584  0.014324889           56 
 1801000   0.52879785   -7.6426242    336.76286  0.015582216  0.014313596           53 
 1802000   0.52744563   -7.6532631     335.9531  0.015536122  0.014302314           50 
 1803000    0.5425168   -7.6561533    336.64533    0.0155595  0.014291028           36 
 1804000   0.52432612   -7.6531419    337.24267  0.015578468  0.014279749           41 
 1805000   0.52889791   -7.6329283    336.24788   0.01552391  0.014268492           35 
 1806000   0.53027943   -7.6516608    336.95929   0.01554814  0.014257251           67 
 1807000   0.53377748   -7.6629604    336.50217  0.015518455  0.014246018           49 
 1808000    0.5355429   -7.6542015    336.20661  0.015496248  0.014234791           52 
 1809000   0.53109317   -7.6376116    335.93617  0.015475224   0.01422358           43 
 1810000   0.53502881   -7.6555136    336.07491  0.015473062  0.014212363           74 
 1811000   0.53059617   -7.6567525    336.49032  0.015483634  0.014201161           47 
 1812000    0.5478508   -7.6573969    336.55336  0.015477988  0.014189979           85 
 1813000   0.52364026   -7.6654506    335.71155  0.015430757  0.014178784           65 
 1814000   0.52058941   -7.6423972    336.10164  0.015440171  0.014167605           29 
 1815000   0.52542187    -7.660276    335.81472   0.01541849  0.014156438           37 
 1816000   0.52203303   -7.6605908    336.68087  0.015449746  0.014145276           36 
 1817000   0.52491804   -7.6576947    336.01107  0.015410524  0.014134121           65 
 1818000   0.52531182   -7.6565772    336.16336  0.015409028  0.014122966           44 
 1819000   0.53704893   -7.6591773    336.74935  0.015427403  0.014111828           39 
 1820000   0.53146826   -7.6501466     336.0785   0.01538821  0.014100705           50 
 1821000   0.52148158   -7.6589534    335.87064  0.015370247  0.014089597           41 
 1822000   0.52557224   -7.6536186     336.3872  0.015385437  0.014078481           29 
 1823000   0.52513257   -7.6426041    336.22358  0.015369518  0.014067391           42 
 1824000   0.52807657   -7.6502565    335.95801  0.015348959  0.014056319           67 
 1825000   0.52066466   -7.6420379    335.48926  0.015319144  0.014045272           37 
 1826000   0.51433091   -7.6739151    336.24393  0.015345196  0.014034217           34 
 1827000   0.52353079   -7.6648153    336.29703  0.015339219   0.01402317           34 
 1828000   0.53065745   -7.6412923    336.60282  0.015344768  0.014012139           31 
 1829000   0.51706993   -7.6607329    336.36412  0.015325502   0.01400112           46 
 1830000   0.51947916   -7.6619089    336.52938  0.015324653  0.013990102           30 
 1831000   0.51960163    -7.674379    336.35278  0.015308246    0.0139791           33 
 1832000   0.52372842   -7.6725897    336.55694  0.015309177  0.013968097           38 
 1833000    0.5278742    -7.655499    335.87827  0.015269971  0.013957106           41 
 1834000   0.52085012   -7.6715609    335.74945  0.015255791  0.013946126           43 
 1835000    0.5262375   -7.6677068     336.1409  0.015265254  0.013935143           82 
 1836000   0.52927586   -7.6813985    336.12807  0.015256358  0.013924179          110 
 1837000   0.53169696   -7.6708693    336.26548  0.015254286  0.013913241           85 
 1838000   0.50752747   -7.6709723    336.25157  0.015245356  0.013902289           36 
 1839000   0.49938297   -7.6753541    336.65369  0.015255288   0.01389135           46 
 1840000   0.52948921   -7.6604525    335.81256  0.015208902  0.013880414           48 
 1841000   0.53466817   -7.6598731    336.07908  0.015212705  0.013869491           34 
 1842000   0.51277456   -7.6661103    335.91534  0.015197038  0.013858585           36 
 1843000   0.52798686   -7.6604639    335.68802  0.015178514  0.013847667           41 
 1844000   0.51903921   -7.6676716    335.29031   0.01515231  0.013836757           37 
 1845000   0.51819101   -7.6615365    336.03245  0.015177617  0.013825855           39 
 1846000   0.52015671   -7.6748887    336.18618  0.015176335  0.013814963          104 
 1847000   0.52016963   -7.6916019     335.6282  0.015142943  0.013804094          106 
 1848000   0.50651638   -7.6631159    335.81412  0.015143133  0.013793227           32 
 1849000   0.53143553   -7.6692882     335.6389  0.015127046  0.013782372          123 
 1850000   0.51925017   -7.6765693     335.9177  0.015131428   0.01377154           60 
 1851000   0.52164376   -7.6566622    336.42429   0.01514606  0.013760706           62 
 1852000   0.50482831    -7.676013    335.70846  0.015105672  0.013749887           54 
 1853000   0.50648758   -7.6897594    335.90504  0.015106361  0.013739069           73 
 1854000   0.50687921   -7.6829294    335.44062  0.015077338  0.013728259           30 
 1855000    0.5089877   -7.6673762     335.8905   0.01508942  0.013717467           88 
 1856000   0.50317608   -7.6803943    335.88179  0.015080899  0.013706687           77 
 1857000   0.50608536   -7.6761135    335.97523  0.015076971  0.013695918           63 
 1858000   0.51517261   -7.6835889    336.10809  0.015074816  0.013685163           48 
 1859000   0.51555881   -7.6756857    335.83221   0.01505434  0.013674419          106 
 1860000   0.50702719   -7.6972901    336.04553  0.015055803  0.013663688          125 
 1861000   0.50563263   -7.6805996    336.04517  0.015047697  0.013652953          112 
 1862000   0.52280549   -7.6995768    335.71485  0.015024832  0.013642235          124 
 1863000   0.51978341   -7.6829332    336.03553  0.015031111  0.013631523          110 
 1864000   0.50362157   -7.6846383    336.73747  0.015054429  0.013620824          126 
 1865000    0.5152754   -7.6863748    335.57132   0.01499425  0.013610128          128 
 1866000   0.50203687   -7.6946401    335.60489  0.014987714  0.013599433           85 
 1867000   0.49664374   -7.6899783    336.00545  0.014997565   0.01358875          167 
 1868000    0.5025936   -7.6867975    335.23721  0.014955264   0.01357808           56 
 1869000   0.51022693   -7.6977238     335.9632  0.014979632  0.013567416          111 
 1870000   0.51033274   -7.6944267    335.94539  0.014970829  0.013556765          126 
 1871000   0.50668015   -7.6800169    335.28434  0.014933384  0.013546108          148 
 1872000    0.5163389    -7.689609    335.70975  0.014944344   0.01353547           99 
 1873000   0.50425422   -7.6907154    335.71138  0.014936438  0.013524843           84 
 1874000   0.50254764   -7.6959648    334.87467  0.014891261  0.013514213          119 
 1875000   0.51016507   -7.7010814    335.45032  0.014908903  0.013503592           94 
 1876000    0.5045522   -7.6997715    335.93812  0.014922625  0.013492985           84 
 1877000   0.50619019   -7.7043384    335.70665  0.014904397  0.013482388           80 
 1878000   0.50244977   -7.7127749    335.72623   0.01489733  0.013471797          132 
 1879000   0.50578151   -7.6975672    335.79595  0.014892494  0.013461215           74 
 1880000   0.49232602   -7.7059728    335.39327  0.014866723  0.013450649           79 
 1881000   0.50736537   -7.7166392    335.45645  0.014861618  0.013440086           97 
 1882000   0.49680162   -7.6906709    335.84193   0.01487079  0.013429538           89 
 1883000   0.49186849   -7.6975231    335.48475  0.014847086  0.013418992           93 
 1884000   0.50485501   -7.6990823    335.89074  0.014857163  0.013408459           77 
 1885000   0.50274122    -7.707816    335.78402  0.014844563  0.013397953          102 
 1886000    0.5063661   -7.7140517    335.79267  0.014837074  0.013387436          121 
 1887000   0.51325695   -7.7119556    335.89735  0.014833835  0.013376939           82 
 1888000   0.49550767   -7.7036502    335.26501  0.014798067  0.013366437           63 
 1889000   0.49834987    -7.696392    335.75075  0.014811662  0.013355947          108 
 1890000   0.49587845    -7.688019    335.91588  0.014811106  0.013345483          108 
 1891000   0.49223933   -7.7167215    335.44631   0.01478258  0.013335025           75 
 1892000   0.49358994   -7.6974464    335.67283  0.014784744  0.013324575          128 
 1893000   0.49849077   -7.6924286    335.80874  0.014782917  0.013314122           85 
 1894000   0.50064311   -7.7085035    335.12666  0.014745101   0.01330368          106 
 1895000   0.49664954   -7.7031524    335.52554  0.014754861  0.013293249           72 
 1896000   0.48834657    -7.704196    335.43612  0.014743149  0.013282822          172 
 1897000   0.48358236   -7.7096314    334.98204   0.01471543  0.013272408          111 
 1898000   0.50616183    -7.704734    334.86805  0.014702672  0.013262006           74 
 1899000   0.49396143   -7.7266736    334.84567  0.014693947  0.013251605           91 
 1900000   0.49832636   -7.7291645    334.80283  0.014684335  0.013241208          114 
 1901000   0.49748606   -7.7084936     335.4522  0.014705076   0.01323083          134 
 1902000   0.49309205   -7.7099201    335.02393  0.014678581   0.01322045          123 
 1903000   0.49024128   -7.7169472    335.33599  0.014684533  0.013210093          141 
 1904000   0.47727266   -7.7091763    335.31022  0.014675692  0.013199736           92 
 1905000   0.48676496   -7.7081023    335.57154   0.01467942  0.013189383          124 
 1906000   0.49579729   -7.7128134    335.10761  0.014651434  0.013179034           92 
 1907000   0.49532979   -7.7080187     335.0086  0.014639425  0.013168695          112 
 1908000   0.49725417   -7.7083805    335.16891  0.014638754  0.013158374          172 
 1909000    0.4846398   -7.7215528     335.1762  0.014631404  0.013148065          106 
 1910000   0.48525867   -7.7038196    335.34923  0.014631293  0.013137761           67 
 1911000   0.48921396   -7.7145575     335.3811  0.014625026  0.013127459          101 
 1912000   0.48654324   -7.7155998    335.67124  0.014630023  0.013117187          133 
 1913000   0.50001573   -7.7054976    335.33107  0.014607557  0.013106922           55 
 1914000   0.48077958   -7.7225655    335.17502  0.014593131  0.013096661          113 
 1915000   0.48788413   -7.6977926    334.83018  0.014570504  0.013086407          100 
 1916000   0.49929303   -7.7202367    335.42487  0.014588764  0.013076157          113 
 1917000    0.4876162   -7.7240062     334.4075  0.014536928  0.013065907          100 
 1918000   0.48207711   -7.7356448    335.14562  0.014561419   0.01305567           99 
 1919000   0.49263273   -7.7267418    334.47515  0.014524716  0.013045439          156 
 1920000   0.48599306   -7.7365152    334.93335  0.014537038  0.013035223          170 
 1921000    0.4887462   -7.7226962     335.3182  0.014546165  0.013025006          125 
 1922000   0.47975137   -7.7193694    334.59127  0.014507079  0.013014805          123 
 1923000   0.48892125   -7.7240021    334.77877   0.01450766  0.013004618          185 
 1924000   0.48169234   -7.7215433    334.97944  0.014508812  0.012994429          194 
 1925000   0.48204172   -7.7287377    334.97297  0.014500994  0.012984253           82 
 1926000   0.47291455   -7.7209852     334.4209  0.014469579  0.012974086          140 
 1927000   0.49016433   -7.7337281     334.8521  0.014480717  0.012963914           89 
 1928000     0.484472   -7.7257999    335.38904  0.014496414  0.012953755           42 
 1929000   0.47898311   -7.7185862    334.90517  0.014467996  0.012943617           96 
 1930000   0.48652037    -7.722848      334.722  0.014452591  0.012933476           38 
 1931000   0.48125933   -7.7309068    334.85425  0.014450813  0.012923345           97 
 1932000   0.48110167   -7.7103209    335.07598  0.014452898  0.012913225          105 
 1933000   0.47568385   -7.7311064    335.20411  0.014450945  0.012903118           91 
 1934000   0.49055748   -7.7340127     334.8737  0.014429236  0.012893006          148 
 1935000   0.50014683   -7.7301705    335.03908  0.014428901  0.012882922           99 
 1936000   0.47674783   -7.7458062    334.73243  0.014408249  0.012872841          123 
 1937000   0.48558312   -7.7345242    334.90482  0.014408226  0.012862765           98 
 1938000   0.49161307   -7.7237637    335.01018  0.014405322  0.012852704           60 
 1939000   0.47551133    -7.727645     334.6685  0.014383209  0.012842654           56 
 1940000   0.47400729   -7.7146816    334.51779  0.014369321  0.012832609           89 
 1941000   0.48007198   -7.7308216    334.89968  0.014378313  0.012822574           49 
 1942000   0.47674701   -7.7511529    334.87845  0.014369999  0.012812547           96 
 1943000   0.48428592   -7.7379453    334.95964  0.014366085  0.012802526           43 
 1944000   0.46095023   -7.7494542    334.52557  0.014340088  0.012792516          111 
 1945000   0.47274178   -7.7432511    334.91092  0.014349225   0.01278252           99 
 1946000   0.46626704   -7.7277935     334.7101  0.014333252  0.012772523          163 
 1947000   0.46885523   -7.7306906    335.09544  0.014342383   0.01276254           57 
 1948000   0.46779569   -7.7512719    334.48288  0.014308816  0.012752564           96 
 1949000   0.45904924   -7.7543681    334.88372  0.014318613  0.012742602           61 
 1950000   0.47015082   -7.7352904    334.70393  0.014303587  0.012732641          104 
 1951000   0.47177672   -7.7398608    334.54457  0.014289449  0.012722705          113 
 1952000    0.4771789   -7.7357372    334.99511  0.014301362  0.012712772          115 
 1953000   0.47600687   -7.7336402    334.86339  0.014288419  0.012702846          110 
 1954000   0.47023662   -7.7381971    334.37553  0.014260301  0.012692941          156 
 1955000   0.46055275   -7.7215606     334.6098  0.014262992  0.012683038           99 
 1956000    0.4749542   -7.7497699    334.29307  0.014242206  0.012673142           74 
 1957000   0.47496076   -7.7239851    334.06653  0.014225282  0.012663243           58 
 1958000   0.47134422    -7.732069    334.14207  0.014221232  0.012653372           59 
 1959000   0.47228474   -7.7518008    334.64665  0.014235437  0.012643496           66 
 1960000   0.46670126   -7.7489901    333.87572  0.014195396  0.012633629           94 
 1961000    0.4640665   -7.7411249    334.13929  0.014199358  0.012623775           56 
 1962000   0.47156399   -7.7458253    334.85652  0.014222584   0.01261393           84 
 1963000     0.467385   -7.7620933    334.40114  0.014196007  0.012604093           64 
 1964000   0.46309171   -7.7503338    334.83052  0.014206998  0.012594254           44 
 1965000     0.463713    -7.753195    334.62196  0.014190923  0.012584443           59 
 1966000    0.4621881   -7.7400089     334.4483  0.014176344  0.012574625           77 
 1967000   0.46830953   -7.7374027    334.70015  0.014179806  0.012564821           60 
 1968000    0.4694194   -7.7653059    333.90565  0.014138959  0.012555024           51 
 1969000   0.46030116   -7.7528281     334.8732  0.014172727  0.012545238           68 
 1970000   0.47327904   -7.7308508    334.26121  0.014139645  0.012535463           66 
 1971000   0.46897211    -7.748859    334.09016  0.014125239  0.012525693           47 
 1972000   0.45348345    -7.751957    334.77772  0.014147131   0.01251593          105 
 1973000   0.47093032   -7.7515549    334.14439  0.014113211  0.012506173           56 
 1974000   0.46162596   -7.7615825    334.73681  0.014131071  0.012496434           95 
 1975000   0.48074923   -7.7715251     334.4884  0.014113435  0.012486696           68 
 1976000   0.46514622   -7.7486347    334.36817  0.014101222  0.012476974           95 
 1977000   0.46531046   -7.7359358    334.22174  0.014087917   0.01246726           63 
 1978000   0.47240142     -7.76303     334.1497  0.014077759  0.012457551           62 
 1979000    0.4663777   -7.7515359     333.7093  0.014052101  0.012447853           60 
 1980000   0.46324487   -7.7615193     334.4911  0.014077908  0.012438164           96 
 1981000   0.46312103   -7.7528212     334.2107  0.014059006  0.012428482           58 
 1982000   0.46833036   -7.7670113    334.67786  0.014071555  0.012418812           60 
 1983000   0.47328861   -7.7630087    334.08551  0.014039566  0.012409144          169 
 1984000   0.45859945   -7.7552373    334.39444  0.014045466  0.012399487           58 
 1985000   0.45688083   -7.7587176    334.33457  0.014035876  0.012389835          168 
 1986000   0.45424903   -7.7498719    333.80052    0.0140064    0.0123802          118 
 1987000   0.46824492   -7.7782575    334.42847  0.014025687   0.01237057           82 
 1988000   0.45902529   -7.7467113    334.01649  0.014001362  0.012360944           86 
 1989000   0.45953252   -7.7617581    334.41771  0.014011132  0.012351327          105 
 1990000   0.44855076   -7.7560317    333.75937  0.013976523  0.012341718           91 
 1991000   0.44477241   -7.7633506    334.04964  0.013981653  0.012332122           83 
 1992000   0.45364181   -7.7534383    334.21668  0.013981621   0.01232253          118 
 1993000   0.45776433   -7.7610393    334.12544  0.013970791  0.012312955           82 
 1994000   0.45123339   -7.7621957    334.15088  0.013964848  0.012303381          140 
 1995000   0.44803527   -7.7644095    333.25391   0.01392038  0.012293822          217 
 1996000   0.45474333    -7.767117    333.72145  0.013932926  0.012284277          131 
 1997000   0.46352645   -7.7598396    334.54329  0.013960244  0.012274739          153 
 1998000   0.45347836   -7.7596808    334.01834  0.013931362  0.012265214          135 
 1999000   0.45598752   -7.7714011    334.32827  0.013937313  0.012255692          211 
 2000000   0.46816405   -7.7613359    333.78979  0.013907908  0.012246175          172 
 2001000   0.45886702   -7.7550788     333.5144  0.013889489   0.01223666          132 
 2002000   0.46045115   -7.7649871    333.92137  0.013899491  0.012227168           91 
 2003000   0.44108447   -7.7612488    333.56825   0.01387786  0.012217684          153 
 2004000   0.45742859   -7.7650677    334.00653   0.01388916  0.012208198          128 
 2005000   0.45050151   -7.7653432    334.00628  0.013882223  0.012198728          184 
 2006000   0.45483083    -7.771671     333.7046   0.01386277  0.012189265           91 
 2007000   0.45946038    -7.769261     333.7852  0.013859209  0.012179814          130 
 2008000   0.44610461   -7.7712002    334.04368  0.013863035  0.012170363          177 
 2009000   0.45423789   -7.7730506    333.69315  0.013841594  0.012160927          116 
 2010000   0.45163348   -7.7854072    333.86075  0.013841656  0.012151508          203 
 2011000   0.44924006   -7.7774529    334.15025   0.01384677   0.01214208          182 
 2012000   0.44155036   -7.7837813     334.0843  0.013837156  0.012132678          128 
Loop time of 4336.62 on 48 procs for 2000000 steps with 4000 atoms

Performance: 79693.397 tau/day, 461.189 timesteps/s
99.4% CPU use with 48 MPI tasks x no OpenMP threads

MPI task timing breakdown:
Section |  min time  |  avg time  |  max time  |%varavg| %total
---------------------------------------------------------------
Pair    | 277.76     | 290.34     | 307.19     |  39.4 |  6.69
Neigh   | 27.501     | 27.995     | 29.308     |   6.2 |  0.65
Comm    | 242.81     | 257.59     | 274.56     |  47.1 |  5.94
Output  | 4.1747     | 4.1766     | 4.2084     |   0.2 |  0.10
Modify  | 3691.3     | 3709.4     | 3726.1     |  14.0 | 85.54
Other   |            | 47.13      |            |       |  1.09

Nlocal:        83.3333 ave          94 max          76 min
Histogram: 3 4 9 10 8 4 6 1 2 1
Nghost:        1812.15 ave        1831 max        1790 min
Histogram: 3 3 1 6 6 10 6 6 3 4
Neighs:        11184.3 ave       12997 max        9993 min
Histogram: 3 7 8 8 7 7 4 2 1 1
FullNghs:      22363.8 ave       25232 max       19590 min
Histogram: 2 3 4 6 12 6 10 2 1 2

Total # of neighbors = 1073463
Ave neighs/atom = 268.36575
Neighbor list builds = 107786
Dangerous builds = 0

#clear
#
#next RN
#
#jump SELF
Total wall time: 1:12:19
