
units lj                  # Use reduced LJ style units
atom_style atomic         # Uncharged point particles
atom_modify map hash      # Needed for indexing of clusters etc
                          # Used to be able to find where atoms are in relation to each other.

lattice fcc 1.0 spacing 1 1 1
Lattice spacing in x,y,z = 1.5874011 1.5874011 1.5874011
region box block 0 10 0 10 0 10 units lattice
create_box 2 box
Created orthogonal box = (0.0000000 0.0000000 0.0000000) to (15.874011 15.874011 15.874011)
  3 by 4 by 4 MPI processor grid
create_atoms 1 box
Created 4000 atoms
  using lattice units in orthogonal box = (0.0000000 0.0000000 0.0000000) to (15.874011 15.874011 15.874011)
  create_atoms CPU = 0.026 seconds
set type 1 type/fraction 2 0.51 78393
Setting atom values ...
  2042 settings made for type/fraction
mass 1 1.0
mass 2 1.0
pair_style lj/cut  3.5
pair_modify tail  yes
pair_coeff 1  1  1.0  1.0   # Intearaction between 1 and 1 set with epsilon = 1 and sigma = 1
pair_coeff 1  2  1.5  0.8
pair_coeff 2  2  0.5  0.88

write_data data.0
System init for write_data ...
Neighbor list info ...
  update every 1 steps, delay 10 steps, check yes
  max neighbors/atom: 2000, page size: 100000
  master list distance cutoff = 3.8
  ghost atom cutoff = 3.8
  binsize = 1.9, bins = 9 9 9
  1 neighbor lists, perpetual/occasional/extra = 1 0 0
  (1) pair lj/cut, perpetual
      attributes: half, newton on
      pair build: half/bin/atomonly/newton
      stencil: half/bin/3d
      bin: standard
WARNING: Not all mixed pair coeffs generated from mixing. Use write_data with 'pair ij' option to store all pair coeffs. (../write_data.cpp:312)


#############################
#   M E L T   S Y S T E M   #
#############################

velocity all create 2.4 8172548 mom yes dist gaussian # Assign velocities
                                                    # Temperature 2.4, random number seed, zero linear momentum
                                                                                # Gaussian distribution

timestep 0.002   # simulation timestep
thermo 1000       # output thermodynamic data every 1000 steps bf 100

# Define a fix  in this case with index 1 applied to all
# particles in the simulation. This fix is for simulations
# in the anisotropic NPT ensemble. Note that we use the MTK
# correction.
fix 1 all npt temp 2.4 2.4 0.1 iso 5.68 5.68 0.5 mtk yes tchain 5 pchain 5 # Use NPT ensemble
                                                                         # Set temperature and pressure and damping
                                                                         # Numbers of thermostats in chain and in barostat
run 10000          # run for 10000 steps
Per MPI rank memory allocation (min/avg/max) = 3.642 | 3.644 | 3.648 Mbytes
Step Temp E_pair E_mol TotEng Press Volume 
       0          2.4   -5.2404118            0   -1.6413118   -4.2035775         4000 
    1000    2.4011965   -4.7431686            0   -1.1422743    5.7567888    3729.0319 
    2000     2.368066   -4.8878585            0   -1.3366476    5.4893726    3689.8044 
    3000    2.4463304   -4.8090192            0    -1.140441    6.0267428    3681.3149 
    4000    2.4017419   -4.8244876            0   -1.2227754     5.708284    3709.4584 
    5000    2.3879282   -4.9047673            0   -1.3237705     5.416451    3688.7052 
    6000    2.4682463    -4.874092            0   -1.1726481    5.9309312    3667.9514 
    7000    2.3443432   -4.8558551            0   -1.3402195    5.7649761    3679.8384 
    8000     2.438568   -4.9545538            0   -1.2976162      5.54295    3661.2382 
    9000    2.4010244   -4.8805953            0   -1.2799591    5.7321569    3675.1425 
   10000    2.3264427   -4.8640069            0   -1.3752153    5.4939461    3686.1859 
Loop time of 2.79956 on 48 procs for 10000 steps with 4000 atoms

Performance: 617238.811 tau/day, 3571.984 timesteps/s
99.5% CPU use with 48 MPI tasks x no OpenMP threads

MPI task timing breakdown:
Section |  min time  |  avg time  |  max time  |%varavg| %total
---------------------------------------------------------------
Pair    | 1.1629     | 1.2582     | 1.3256     |   2.7 | 44.94
Neigh   | 0.21966    | 0.22531    | 0.23366    |   0.7 |  8.05
Comm    | 0.82685    | 0.89719    | 0.98022    |   3.4 | 32.05
Output  | 0.00024746 | 0.00025436 | 0.00033809 |   0.0 |  0.01
Modify  | 0.33337    | 0.40318    | 0.43996    |   4.3 | 14.40
Other   |            | 0.01545    |            |       |  0.55

Nlocal:        83.3333 ave          92 max          74 min
Histogram: 1 3 2 9 4 11 8 7 2 1
Nghost:        1734.67 ave        1772 max        1691 min
Histogram: 2 1 7 6 6 7 4 6 7 2
Neighs:        10347.3 ave       11794 max        8649 min
Histogram: 1 4 1 2 12 8 11 5 3 1

Total # of neighbors = 496669
Ave neighs/atom = 124.16725
Neighbor list builds = 915
Dangerous builds = 269

# Equilibrate just above the melting temperature to avoid step fn in T

fix 1 all npt temp 1.25 1.25 0.1 iso 5.68 5.68 0.5 mtk yes tchain 5 pchain 5
run 2000
Per MPI rank memory allocation (min/avg/max) = 3.644 | 3.646 | 3.649 Mbytes
Step Temp E_pair E_mol TotEng Press Volume 
   10000    2.3264427   -4.8640069            0   -1.3752153    5.4939461    3686.1859 
   11000    1.2571512   -6.9690818            0   -5.0838264    5.5936089     2870.156 
   12000    1.2560198   -7.0808104            0   -5.1972517    5.4799689    2844.7843 
Loop time of 0.646561 on 48 procs for 2000 steps with 4000 atoms

Performance: 534520.264 tau/day, 3093.289 timesteps/s
99.6% CPU use with 48 MPI tasks x no OpenMP threads

MPI task timing breakdown:
Section |  min time  |  avg time  |  max time  |%varavg| %total
---------------------------------------------------------------
Pair    | 0.29105    | 0.31942    | 0.33929    |   2.1 | 49.40
Neigh   | 0.040628   | 0.043508   | 0.046187   |   0.6 |  6.73
Comm    | 0.21061    | 0.23341    | 0.26597    |   2.8 | 36.10
Output  | 6.606e-05  | 6.7248e-05 | 8.419e-05  |   0.0 |  0.01
Modify  | 0.041487   | 0.045246   | 0.048629   |   1.0 |  7.00
Other   |            | 0.004911   |            |       |  0.76

Nlocal:        83.3333 ave          91 max          71 min
Histogram: 1 0 0 6 2 7 13 14 0 5
Nghost:        2069.33 ave        2092 max        2050 min
Histogram: 5 2 6 5 11 7 3 3 2 4
Neighs:        13416.9 ave       15411 max       10758 min
Histogram: 1 0 3 4 8 10 10 6 5 1

Total # of neighbors = 644013
Ave neighs/atom = 161.00325
Neighbor list builds = 143
Dangerous builds = 10

#############################
# L I N E A R  Q U E N C H  #
#############################

# Define solid atoms. This closely follows ten Wolde  Ruiz-Montero and Frenkel  Faraday Discuss  1996  104  93-110
# Compute components of the per-atom q6 vector
compute q6 all orientorder/atom degrees 1 6 components 6 nnn NULL cutoff 1.3 # compute the Q6 parameter.
                                                                             # Use all neighbours within 1.3 unit cell.

# get number of connections
compute coord_number all coord/atom orientorder q6 0.5

# An atom is solid if it has 8 or more connections (of a possible 14)
variable is_solid atom c_coord_number>=8
group solid dynamic all var is_solid    # Must be dynamic to update
dynamic group solid defined

# do clustering
compute cluster solid cluster/atom 1.3 # Create a cluster where all atoms within are solid and max 1.3 units from another member

# define chunks one chunk per cluster
compute clus_chunks solid chunk/atom c_cluster nchunk every compress yes  # Says which atoms are in which chunk

# count the size of each chunk
compute size_chunks solid property/chunk clus_chunks count


# Find the maximum entry in the vector of chunk sizes
variable max_n equal max(c_size_chunks)


# Thermo style which includes this variable
# thermo_style custom step temp pe vol v_max_n

thermo ${N}  # Print the thermo information every 100 steps
thermo 1000  

# Reset the npt fix at a lower temperature (below freezing)
fix 1  all npt temp  ${temp} ${temp}  0.1  iso  5.68  5.68  0.5  mtk yes tchain  5  pchain  5
fix 1  all npt temp  0.45 ${temp}  0.1  iso  5.68  5.68  0.5  mtk yes tchain  5  pchain  5
fix 1  all npt temp  0.45 0.45  0.1  iso  5.68  5.68  0.5  mtk yes tchain  5  pchain  5

dump dmp2 all dcd ${N} traj.dcd
dump dmp2 all dcd 1000 traj.dcd


compute msd all msd com yes
variable twopoint equal c_msd[4]/6/(step*dt+1.0e-6)
fix 9 all vector 10 c_msd[4]
variable fit equal slope(f_9)/6/(10*dt)
thermo_style custom step temp pe c_msd[4] v_twopoint v_fit v_max_n

fix 1 all npt temp 1.25 ${temp} 0.1 iso 5.68 5.68 0.5 mtk yes tchain 5 pchain 5
fix 1 all npt temp 1.25 0.45 0.1 iso 5.68 5.68 0.5 mtk yes tchain 5 pchain 5
run 500000 # 5000000  # Run for this many steps
Neighbor list info ...
  update every 1 steps, delay 10 steps, check yes
  max neighbors/atom: 2000, page size: 100000
  master list distance cutoff = 3.8
  ghost atom cutoff = 3.8
  binsize = 1.9, bins = 8 8 8
  4 neighbor lists, perpetual/occasional/extra = 1 3 0
  (1) pair lj/cut, perpetual
      attributes: half, newton on
      pair build: half/bin/atomonly/newton
      stencil: half/bin/3d
      bin: standard
  (2) compute orientorder/atom, occasional
      attributes: full, newton on
      pair build: full/bin/atomonly
      stencil: full/bin/3d
      bin: standard
  (3) compute coord/atom, occasional
      attributes: full, newton on
      pair build: full/bin/atomonly
      stencil: full/bin/3d
      bin: standard
  (4) compute cluster/atom, occasional
      attributes: full, newton on
      pair build: full/bin/atomonly
      stencil: full/bin/3d
      bin: standard
Per MPI rank memory allocation (min/avg/max) = 9.840 | 9.845 | 9.849 Mbytes
Step Temp PotEng c_msd[4] v_twopoint v_fit v_max_n 
   12000    1.2560198   -7.0808104 4.1131208e-30 2.8563337e-32 8.3333333e+20            1 
   13000    1.2774006   -7.0633664   0.47468343 0.0030428424  0.039253747            1 
   14000    1.2507946   -7.0670674   0.88407489 0.0052623504  0.035995747            1 
   15000    1.2626855   -7.1022882    1.3224763 0.0073470901  0.035127998            1 
   16000    1.2610804   -7.1005806    1.7447671 0.0090873285  0.035639953            1 
   17000    1.2427044   -7.1007436     2.196523  0.010767269  0.035707693            1 
   18000    1.2669993   -7.0850145     2.581867  0.011953088  0.035513813            2 
   19000    1.2732549   -7.1104207    2.9729718   0.01303935   0.03518481            1 
   20000    1.2347944   -7.0825813    3.3553788  0.013980745  0.034823894            2 
   21000    1.1939938   -7.0799874    3.7244037  0.014779379  0.034345894            2 
   22000    1.2288788   -7.1075826    4.1954115   0.01589171  0.034275928            2 
   23000    1.2235334   -7.1317158    4.5956856  0.016651035  0.034203054            2 
   24000     1.247115   -7.1531874    5.0466447  0.017523072  0.034267178            2 
   25000    1.2111679   -7.1135568    5.3665206  0.017888402  0.034227694            5 
   26000    1.2064501   -7.1394876    5.7468721  0.018419462  0.034022115            4 
   27000    1.1988195   -7.1096031    6.1824902   0.01908176  0.033924287            1 
   28000    1.2179717   -7.1452546    6.5005876  0.019346987  0.033870218            1 
   29000    1.2307902   -7.1314196     6.948714  0.019967569  0.033697249            6 
   30000    1.2302508   -7.2071158    7.2570542  0.020158484  0.033556429            1 
   31000     1.224336   -7.1197644    7.7103051  0.020726626  0.033414644            2 
   32000    1.2095861   -7.1591718    8.0274574  0.020904837  0.033307917            3 
   33000    1.1977842   -7.1958345    8.3153202  0.020998283  0.033136571            3 
   34000    1.2327918   -7.1788759    8.6875009  0.021292894  0.032980948            3 
   35000    1.2330131   -7.1703339    9.1302879   0.02173878  0.032825625            2 
   36000    1.2359707   -7.1595682    9.4364005  0.021843519  0.032675188            2 
   37000    1.1934819   -7.1836985    9.7557268  0.021972357  0.032506758            2 
   38000    1.1793011   -7.1538479    10.216849   0.02240537  0.032382908            2 
   39000    1.2166603   -7.2288826    10.481813  0.022397037  0.032283138            3 
   40000    1.1974106   -7.2105446    10.832061  0.022566794  0.032150169            4 
   41000    1.2105657   -7.1811683    11.129555  0.022621047  0.032012683            1 
   42000    1.1804851   -7.2431695    11.403391  0.022625775  0.031837307            2 
   43000    1.2003449   -7.1305881    11.817766  0.022902647  0.031661931            1 
   44000    1.2141302   -7.2164055    12.103529  0.022923351  0.031502337            2 
   45000    1.1916247   -7.2001676     12.43347  0.023024945  0.031330026            2 
   46000    1.1885555   -7.2055925    12.732021  0.023065255  0.031181359            1 
   47000    1.1921456   -7.2007206    13.124914  0.023271125  0.031045024            2 
   48000    1.1755676   -7.2302905    13.384362  0.023236739   0.03091845            3 
   49000    1.2018924   -7.2421273    13.691156  0.023284279  0.030785553            2 
   50000    1.1671291   -7.3116984    13.947808  0.023246346  0.030628941            5 
   51000     1.208591   -7.2248107    14.258643  0.023298436  0.030480366            2 
   52000    1.1738909    -7.253583    14.491853  0.023224123  0.030315314            2 
   53000    1.2071798   -7.2311672    14.870656  0.023381535  0.030144763            2 
   54000    1.1742774   -7.2877311    15.241362   0.02352062  0.030009281            2 
   55000     1.225648   -7.2629265    15.567692  0.023587411  0.029883252            3 
   56000    1.2188005   -7.2258182    15.942551  0.023724034  0.029763076            4 
   57000      1.15838   -7.2560593    16.360627  0.023919045  0.029675576            2 
   58000    1.2012125   -7.2701792    16.639091  0.023906739  0.029597194            4 
   59000    1.1748949   -7.3411056    16.891044  0.023857407  0.029520852            2 
   60000    1.1713281   -7.2675861    17.329356   0.02406855  0.029450828            1 
   61000    1.1605629   -7.2440246    17.634468  0.024090804  0.029381193            3 
   62000    1.1754497    -7.259093    18.075054  0.024294427  0.029318349            2 
   63000    1.1609365   -7.3152712    18.475058  0.024437908  0.029287769            3 
   64000    1.1555807   -7.3386247    18.801518  0.024481143  0.029264152            2 
   65000    1.1688858   -7.3296117    19.141337  0.024540175  0.029246254            3 
   66000    1.1548429   -7.2857192    19.505897  0.024628658  0.029210699            5 
   67000    1.1588621   -7.3551007    19.667605  0.024462195  0.029170174            2 
   68000    1.1426731   -7.3097499    20.191398   0.02474436  0.029136023            2 
   69000    1.1773095   -7.3074754    20.518389  0.024780663  0.029112243            4 
   70000    1.1416162   -7.2903369    20.763101  0.024717977  0.029082254            4 
   71000    1.1342905   -7.3541587    21.195686  0.024877565  0.029054828            3 
   72000    1.1505783   -7.3875528    21.407634  0.024777354  0.029033542            5 
   73000    1.1182596   -7.3391561    21.728261  0.024803951  0.029001716            3 
   74000    1.1465941   -7.3137586    22.144094  0.024937043  0.028973959            5 
   75000     1.142919   -7.3369029    22.400585  0.024889538  0.028948957            2 
   76000    1.1439764   -7.3583745    22.816935  0.025018568  0.028924241            2 
   77000    1.1370467   -7.3627612    23.072865  0.024970633  0.028898172            2 
   78000    1.1440669   -7.3835239    23.287636  0.024879953  0.028864365            1 
   79000    1.1511582    -7.319592    23.545067  0.024836569   0.02881588            2 
   80000    1.1632301   -7.3316102    23.799673  0.024791326  0.028759754            2 
   81000    1.1367414   -7.3855339    24.045816  0.024738494  0.028708228            5 
   82000    1.1610258   -7.3610986    24.193421   0.02458681  0.028649596            2 
   83000    1.1172325   -7.3350038    24.741298   0.02484066  0.028589197            1 
   84000    1.1389887   -7.3576322    24.930167  0.024732309  0.028537393            2 
   85000    1.1360166   -7.3842537    25.086738  0.024594841  0.028478182            6 
   86000    1.1146551   -7.3685381    25.549157  0.024756935  0.028425091            3 
   87000    1.1481805   -7.3784372    25.848704  0.024759295  0.028373813            9 
   88000    1.1183433   -7.4051444    26.134043  0.024748147  0.028323834            2 
   89000    1.1285191   -7.4099897     26.49293  0.024806114  0.028271221            1 
   90000    1.1135605   -7.4301087    26.717388  0.024738322  0.028225207            2 
   91000     1.137976    -7.370764    27.141016   0.02485441  0.028173354            3 
   92000    1.1208544   -7.4012856    27.410443  0.024828299  0.028128592            4 
   93000    1.1292043   -7.3984033    27.778956  0.024891538  0.028087983            3 
   94000    1.1388775   -7.3852665    27.838467  0.024679492  0.028034567            3 
   95000    1.1315751   -7.5204863    27.935301   0.02450465  0.027969769            2 
   96000    1.1341173   -7.4269512    28.346578  0.024606404  0.027902143            2 
   97000    1.1007662   -7.4426791    28.553241  0.024530275  0.027834154            2 
   98000    1.1007466   -7.4512008    28.843211   0.02452654   0.02776545            3 
   99000    1.1220685   -7.4399395    29.194919  0.024574847  0.027703722            5 
  100000    1.1273566   -7.4337301     29.26217  0.024385142     0.027638            6 
  101000     1.112725   -7.4460638    29.430638  0.024282705   0.02756238            3 
  102000    1.1092776    -7.463577     29.50804  0.024107875  0.027486406            2 
  103000    1.1250126   -7.4790258    29.893191  0.024185429  0.027406445            2 
  104000     1.107841   -7.4664319       30.029  0.024061698   0.02732875            2 
  105000    1.0874334   -7.4663304    30.300414  0.024047947  0.027246744            4 
  106000    1.0940791   -7.4456218    30.713369   0.02414573  0.027172515            3 
  107000    1.0903953   -7.4672446    30.886431  0.024054853  0.027099294            1 
  108000    1.1196854   -7.4665171    30.927852  0.023864083  0.027019564            3 
  109000    1.0786704   -7.4805638    31.216038  0.023865473  0.026935506            3 
  110000     1.096774   -7.4791582    31.484713  0.023852055  0.026853371            5 
  111000    1.0833311   -7.4947321    31.632738  0.023748302  0.026770863            2 
  112000    1.1046945   -7.5115014    31.933686  0.023760183  0.026692569            2 
  113000    1.0763529   -7.4968509    32.069673  0.023650201  0.026608604            1 
  114000     1.072061   -7.4750506    32.408813  0.023690653  0.026528241            2 
  115000    1.1118173   -7.5487952    32.456617  0.023519288  0.026447883            2 
  116000    1.0830297   -7.5096747    32.460102  0.023319038  0.026359161            3 
  117000    1.0981114   -7.4816625    32.894114  0.023428856  0.026267247            1 
  118000    1.0853812   -7.5133298    32.922091  0.023250064  0.026174852            3 
  119000    1.0808584   -7.5411922    33.083802  0.023167928  0.026082456            2 
  120000    1.0938869    -7.557173    33.363322  0.023168974  0.025988962            3 
  121000    1.0726687   -7.5745687    33.671679  0.023189862  0.025896749            2 
  122000    1.0568309   -7.5098996    33.890554  0.023149286  0.025811149            3 
  123000    1.0395075    -7.574789    34.135865   0.02312728  0.025728914            1 
  124000     1.052056   -7.5673987    34.328471  0.023070209  0.025643731            2 
  125000    1.0690968   -7.5450133    34.504082  0.023002721  0.025557777            4 
  126000    1.0701126   -7.5671079    34.689698  0.022942922  0.025473538            4 
  127000    1.0657104   -7.5373697    34.859151  0.022873458  0.025388289            1 
  128000     1.090926   -7.5756471    35.012845  0.022794821  0.025302519            2 
  129000    1.0649762   -7.5325814       35.205  0.022742248  0.025216825            6 
  130000    1.0637187   -7.5726062    35.280855  0.022615932  0.025126491            3 
  131000    1.0521512   -7.5727672    35.224771  0.022407615  0.025031586            2 
  132000    1.0702503   -7.5571791    35.419048   0.02236051  0.024933554            1 
  133000    1.0673565   -7.5572865    35.716091  0.022378503  0.024837955            2 
  134000    1.0534665   -7.5847651    35.927063  0.022342701  0.024745843            2 
  135000    1.0695107   -7.5904578    36.149013  0.022314205   0.02465391            3 
  136000     1.073213   -7.6314848    36.333962  0.022263457  0.024565015            4 
  137000    1.0304917   -7.5948634    36.484501  0.022192519  0.024477207            3 
  138000    1.0719606   -7.6049841    36.628057  0.022118392  0.024389143            2 
  139000    1.0572097   -7.6596507    36.905764  0.022125758  0.024304673            4 
  140000     1.048756    -7.622074    37.141818  0.022108225  0.024220434            2 
  141000    1.0461512   -7.6196817     37.23268   0.02200513  0.024138217            2 
  142000    1.0586268   -7.6119835     37.42782  0.021964683  0.024055318            2 
  143000    1.0707655   -7.6297157    37.524118  0.021867202  0.023973076            2 
  144000     1.040782   -7.6493348    37.782885  0.021865096  0.023888513            3 
  145000    1.0514214   -7.5875067    38.208651  0.021958995  0.023810059            6 
  146000    1.0323863   -7.6094253    38.365381  0.021898048    0.0237334            8 
  147000    1.0387927   -7.6235196    38.544711  0.021850743  0.023657066            4 
  148000    1.0253736   -7.6655714    38.606853  0.021738093  0.023582406            1 
  149000    1.0202889   -7.6486598    38.682965  0.021634768  0.023504145            4 
  150000     1.049481   -7.6366016    38.926567  0.021625871  0.023425848            3 
  151000    1.0217443   -7.6434916    39.105301  0.021581292  0.023347078            5 
  152000    1.0283525   -7.6972194    39.255711  0.021521771  0.023271358            3 
  153000    1.0224222   -7.7005015    39.271815  0.021389878  0.023194133            5 
  154000    1.0292693   -7.6594292    39.468147  0.021357222  0.023116421            3 
  155000    1.0202725   -7.6873759    39.596626  0.021288509  0.023037499            1 
  156000    1.0025917   -7.6857097    39.655206  0.021183336  0.022958843           11 
  157000    0.9979172   -7.6942976    39.925261  0.021191752  0.022879962            4 
  158000    1.0143905   -7.6687411    40.085818  0.021142309  0.022801734            9 
  159000    1.0151823   -7.7209482    40.081237  0.021006937  0.022720901            2 
  160000     1.013056   -7.7139917    40.337737  0.021009238  0.022640825            4 
  161000    1.0207304   -7.6999085    40.449282  0.020936481  0.022561474            2 
  162000    1.0096981    -7.706809    40.472854  0.020819369  0.022482122            3 
  163000    1.0319568   -7.7464033    40.621643  0.020767711  0.022403226            2 
  164000    1.0163365   -7.7320743    40.830224  0.020747065  0.022325214            6 
  165000   0.99571841   -7.7103775    41.084155  0.020749573  0.022249321            3 
  166000    1.0044457   -7.7474258      41.1515  0.020658384  0.022172354            4 
  167000    1.0126493   -7.7143369    41.544731  0.020730903  0.022100656            3 
  168000   0.99470819   -7.7491277    41.716707  0.020692811  0.022031581            3 
  169000    1.0022725   -7.7280611    42.050337   0.02073488  0.021963908            3 
  170000     1.000522   -7.7171342    42.060948  0.020618112  0.021895423            4 
  171000   0.99201647   -7.7650462    42.177008  0.020554098  0.021826357            5 
  172000   0.98692215   -7.7657537    42.292099  0.020490358  0.021755441            4 
  173000   0.99978618   -7.7758031     42.33028  0.020390308  0.021685594            2 
  174000   0.96614803   -7.7401688    42.593977  0.020399414  0.021613732            3 
  175000   0.99597984   -7.7864261    42.545929  0.020259966  0.021542498            4 
  176000   0.97005611   -7.8059635    42.340228  0.020047456  0.021469182            5 
  177000   0.99082744   -7.7647772    42.688385   0.02009811  0.021394981            4 
  178000    1.0057565   -7.7808506    42.741711  0.020010164  0.021322081            4 
  179000   0.97186467   -7.8080586     43.02263  0.020029157  0.021250486            2 
  180000   0.97050455   -7.7882749    43.020081  0.019916704  0.021178989            2 
  181000   0.97498381   -7.8044097     43.31354  0.019941777  0.021108146            7 
  182000   0.98523814   -7.8398374    43.572492  0.019950775  0.021038699            4 
  183000    0.9659336   -7.8451871    43.650995  0.019877502   0.02097144            6 
  184000   0.95077766   -7.8173898    43.805163  0.019839295  0.020904182            6 
  185000   0.97609726   -7.8006699    43.855059  0.019754531  0.020836792            3 
  186000   0.97547843   -7.8433551    44.033551  0.019728293  0.020769781            2 
  187000   0.95802804   -7.8487009    44.163303  0.019680616  0.020703434            2 
  188000    0.9588612   -7.8786517     44.07276  0.019535798  0.020636499            3 
  189000   0.98321413    -7.830528    44.328772  0.019545314  0.020568476            4 
  190000   0.95648137   -7.8514442    44.421484  0.019483107  0.020501059            2 
  191000   0.98029695   -7.8814913    44.409786  0.019375998  0.020431878            3 
  192000   0.93898036   -7.8389713    44.573741  0.019346242  0.020362549            3 
  193000   0.96445726   -7.8783298    44.599371  0.019257069  0.020293342            6 
  194000   0.93509276   -7.8565267    44.769656  0.019230952   0.02022586            5 
  195000   0.96744267    -7.874374    44.831494  0.019158758  0.020158207            8 
  196000   0.95709785   -7.9144074    44.966775  0.019118527  0.020090364            4 
  197000   0.93692888   -7.8589234     45.24307  0.019138354  0.020023966            7 
  198000   0.97074302   -7.8272714    45.230348  0.019036342  0.019956817            3 
  199000   0.96618072   -7.8750189    45.376572  0.019001915  0.019891582            3 
  200000     0.931454   -7.8601929     45.60571  0.019002379  0.019827331           12 
  201000   0.92249954   -7.8627223    45.639258  0.018921749  0.019763589            9 
  202000   0.95146156   -7.8772557    45.558218  0.018794644  0.019697849            7 
  203000   0.95645075   -7.8756874    45.837866  0.018816858  0.019632556            4 
  204000   0.94096005   -7.9081901    45.900169  0.018750069  0.019567514            4 
  205000   0.90935502    -7.909301    46.073615  0.018729112  0.019503797            3 
  206000   0.93525243    -7.932363    46.057224  0.018631563  0.019439901            2 
  207000   0.94551975   -7.9261822    46.284261  0.018632955  0.019375802            2 
  208000   0.93625284   -7.9245842     46.26152  0.018534263  0.019311821            3 
  209000   0.92425743   -7.9274378    46.441563   0.01851737  0.019247638            9 
  210000   0.94751535    -7.948936    46.380516  0.018404967  0.019183613            6 
  211000   0.95486912   -7.9591327    46.578805  0.018396052   0.01912001            7 
  212000   0.94442089   -7.9502488     46.72016  0.018364843  0.019058241            6 
  213000   0.92329227   -7.9636335    46.820159  0.018317746  0.018996474            6 
  214000   0.91692227   -7.9464121    47.068842  0.018328988   0.01893476            8 
  215000   0.92326661   -7.9921491    47.071265  0.018244676  0.018873895            4 
  216000   0.91095935   -7.9585006    47.345161   0.01826588  0.018813651           11 
  217000   0.91700475   -7.9748978    47.456206   0.01822435  0.018755257            7 
  218000   0.90727788   -7.9837247    47.532412  0.018169882  0.018696333           14 
  219000   0.92540148   -8.0377828    47.569351  0.018100971  0.018637399            8 
  220000   0.92495343   -7.9981374    47.564058  0.018016689  0.018577686            9 
  221000   0.91668096   -7.9957993    47.835293  0.018037441  0.018519439            4 
  222000   0.91674563   -8.0150552    47.679238  0.017897612  0.018461002            4 
  223000   0.91895268   -8.0043115    47.764693  0.017849287  0.018400503            2 
  224000   0.92334595   -8.0172493    47.959925  0.017842234  0.018340307            7 
  225000   0.90599825   -8.0246369    47.785783  0.017698438  0.018279344            3 
  226000   0.91184796    -8.010667    47.943998  0.017678465  0.018218338            5 
  227000   0.91904347   -8.0217887    47.962713  0.017607457  0.018157967            6 
  228000   0.91360819    -8.016531    48.168174  0.017605327  0.018097917            3 
  229000   0.89924704   -8.0492215    48.028856  0.017477749  0.018037553            7 
  230000   0.90298798   -8.0382225    48.180008  0.017456525  0.017976364            5 
  231000   0.91705931   -8.0801801    48.148716  0.017369667  0.017916432            7 
  232000   0.88279229   -8.0540694    48.321921  0.017357012  0.017855498            4 
  233000    0.9069038   -8.0577372    48.512053   0.01735052  0.017795066           10 
  234000   0.91661215   -8.0057066    48.417749  0.017242788    0.0177356            3 
  235000    0.8887848   -8.0503514    48.699206  0.017269222  0.017677081            5 
  236000    0.8839615     -8.05724    48.820568  0.017238901    0.0176196            3 
  237000   0.90238071   -8.0475563    48.883344  0.017188236  0.017562207            3 
  238000    0.8873096   -8.0834607    48.829657  0.017097219  0.017504979            9 
  239000   0.86821842   -8.0797924    48.936116  0.017062802  0.017447378            7 
  240000   0.86679643   -8.0615476    48.887509  0.016974829  0.017389771           12 
  241000   0.89214683   -8.0644861     49.29019  0.017043634  0.017332285            7 
  242000   0.87302137   -8.1096414    49.312737   0.01698097  0.017275966            5 
  243000   0.87354839   -8.0929935    49.272958  0.016897448  0.017218945            6 
  244000   0.87918576   -8.1280117    49.214557   0.01680825  0.017162697            4 
  245000   0.87050448   -8.0914714    49.575142  0.016862293  0.017107598            2 
  246000   0.89276502   -8.0861149    49.705421   0.01683788  0.017053058            5 
  247000   0.87799151   -8.1111709     49.75283  0.016785705  0.016998025            9 
  248000   0.85754213   -8.0997273     49.63678  0.016679026  0.016943189           12 
  249000   0.86829979   -8.1626898     49.63541  0.016611583  0.016887419            7 
  250000   0.87665392   -8.1118863    49.942661  0.016647554  0.016832268            6 
  251000   0.87025307   -8.1004879     49.88803  0.016563091  0.016778093            7 
  252000   0.85417093    -8.130606    49.813621  0.016472758  0.016723139            5 
  253000   0.86342006   -8.0911139    50.009215  0.016472073  0.016668057            4 
  254000   0.86581521   -8.1356324    50.022498  0.016411581  0.016613578            6 
  255000   0.85651516   -8.1401762    50.128034   0.01638171  0.016559057            6 
  256000   0.86169566   -8.1729949    49.917547  0.016249201   0.01650438            8 
  257000    0.8571246   -8.1603109    50.045039  0.016227315  0.016449513            5 
  258000   0.84293564    -8.177585     50.13292  0.016192804  0.016394934            7 
  259000   0.85833953   -8.1863764    50.045133  0.016102037  0.016339522            4 
  260000   0.85250601   -8.2062125    50.285241  0.016117065  0.016284423            6 
  261000   0.85313087   -8.1922267    50.244968  0.016042455   0.01622942            9 
  262000   0.84730598    -8.202213    50.311179  0.016002283  0.016174517            3 
  263000   0.82768343   -8.1957247      50.2101  0.015909411  0.016119401            6 
  264000   0.85221932   -8.2455245    50.210674  0.015849329  0.016064416           11 
  265000   0.83653114   -8.1838848    50.194686  0.015784492  0.016009309           18 
  266000    0.8499462   -8.2036193    50.348017  0.015773188  0.015954083           16 
  267000   0.82207278   -8.2219455    50.363905  0.015719072  0.015899213           29 
  268000   0.84067909   -8.2089893    50.488538  0.015699172  0.015844566           15 
  269000   0.84974246   -8.2084875    50.521619  0.015651059  0.015790485           33 
  270000   0.81745851   -8.2218954    50.555084  0.015603421  0.015736157           27 
  271000   0.85103653    -8.228566    50.583268   0.01555451  0.015682353           30 
  272000   0.84317652    -8.258233    50.619672  0.015508478   0.01562817           46 
  273000   0.82955319   -8.2456756    50.590522  0.015442772  0.015574409           69 
  274000    0.8317037   -8.2351581    50.777686  0.015443335  0.015520711           65 
  275000    0.8389725    -8.270642    50.643454  0.015346501  0.015467153           78 
  276000   0.82697667   -8.2677452    50.671639  0.015299408   0.01541312           89 
  277000   0.83963762    -8.285091    50.691504  0.015250152  0.015359177           71 
  278000   0.82392308   -8.2933949    50.793591  0.015225897  0.015305124           60 
  279000   0.83461155   -8.2848443    50.791786  0.015170784  0.015251417           76 
  280000   0.81598406   -8.2838454    50.784372  0.015114396  0.015197597           64 
  281000   0.82270197   -8.3126054    50.801982  0.015065831  0.015144255          107 
  282000   0.82701423     -8.28389    50.842193  0.015024289  0.015091126           85 
  283000    0.8153849   -8.2900937    50.937184  0.014999171  0.015038235          119 
  284000   0.82747363   -8.3185976    50.965772  0.014954745  0.014985126          146 
  285000   0.81600599   -8.3151243    50.970548  0.014903669  0.014932748          142 
  286000   0.82099715   -8.3313006    51.053268  0.014875661  0.014880433          141 
  287000   0.81537473   -8.3306481    51.114118  0.014841498  0.014827876          156 
  288000   0.81304542   -8.3407626       51.126  0.014793403  0.014775949          164 
  289000   0.82371115   -8.3529009    51.200904  0.014763813  0.014724394          147 
  290000    0.8003593   -8.3546169    51.294115  0.014739688   0.01467257          201 
  291000   0.79614753    -8.369285    51.160948  0.014650901  0.014620627          202 
  292000   0.81505583   -8.3658624    51.145106  0.014596206  0.014568938          170 
  293000   0.80136067    -8.387339    51.088152  0.014530191  0.014517377          224 
  294000   0.77820192   -8.3539524    51.147745   0.01449766  0.014465749          220 
  295000   0.79918193   -8.3549708     51.19494  0.014461848  0.014414454          206 
  296000    0.7899731   -8.3926895    51.162504  0.014403858  0.014363362          237 
  297000   0.78686461   -8.3750268     51.24825  0.014379419  0.014312406          222 
  298000    0.7987324   -8.3776254    51.067393  0.014280591  0.014261128          298 
  299000   0.81708562   -8.3876607     51.22947  0.014278002  0.014209807          265 
  300000   0.78820841   -8.4171594    51.065187  0.014184774  0.014158528          339 
  301000   0.78926719    -8.406582    51.167438  0.014165957  0.014107039          325 
  302000   0.78078125   -8.4570637    51.201822  0.014128538   0.01405572          348 
  303000   0.77389348   -8.4399849    51.117916  0.014058833  0.014004689          386 
  304000   0.77625073   -8.4513502     51.33016  0.014070767  0.013954073          431 
  305000     0.784184   -8.4282363    51.317077  0.014021059  0.013903413          432 
  306000   0.77211528   -8.4315748    51.150972  0.013930003  0.013852529          477 
  307000   0.76471832   -8.4358612    51.155933  0.013885975    0.0138013          459 
  308000   0.77551626   -8.4659137    50.968938  0.013790297  0.013750228          494 
  309000   0.76779624   -8.4960701    51.229323  0.013815891  0.013698998          457 
  310000   0.77596184   -8.4631817    51.144729  0.013748583   0.01364804          459 
  311000   0.75842933    -8.503027    51.078747  0.013686695  0.013597074          530 
  312000   0.77110843   -8.4867715     51.30738  0.013703894  0.013546495          512 
  313000    0.7604029   -8.5072971     51.08296  0.013600362  0.013495692          536 
  314000   0.75529186    -8.513396    51.078387  0.013555835  0.013444674          562 
  315000   0.74745295    -8.504629    51.093086  0.013516689  0.013394039          528 
  316000   0.75328761   -8.5214309    51.131719  0.013484103  0.013343601          526 
  317000   0.76365043   -8.5088173    51.096301  0.013432256  0.013293499          531 
  318000   0.75657299    -8.522095    51.019235  0.013369821  0.013243276          519 
  319000   0.75167197   -8.5441804    51.095786  0.013347906  0.013193642          588 
  320000   0.77400795    -8.548116    51.035771  0.013290565  0.013143835          546 
  321000   0.73499681   -8.5354724    51.092331  0.013263845  0.013094255          523 
  322000   0.76695288   -8.5143115    51.128409   0.01323199  0.013044892          585 
  323000   0.74396377   -8.5266657    51.232755  0.013217945  0.012995801          556 
  324000   0.75814959   -8.5325213    51.194882  0.013167408  0.012946827          576 
  325000   0.73887553    -8.573645    51.285018  0.013150005  0.012898092          566 
  326000    0.7513893   -8.5828978    51.236745  0.013097327  0.012849244          576 
  327000   0.75153386   -8.5827002    51.156858  0.013036916   0.01280092          648 
  328000   0.73847765   -8.6126541    51.128408  0.012989941  0.012752547          648 
  329000   0.73934375   -8.6160118    51.123919  0.012949321  0.012704033          605 
  330000   0.72228758   -8.6194696    51.115414  0.012907933  0.012655753          581 
  331000   0.74537304   -8.6081255    51.072661  0.012858172  0.012607371          594 
  332000   0.75833564   -8.6147023    50.979883  0.012796155  0.012559245          608 
  333000   0.74554721   -8.6104407    51.037403  0.012772123  0.012511172          608 
  334000   0.74630932   -8.5958535     51.15796  0.012763962  0.012463321          639 
  335000    0.7413816   -8.6162861     50.97951   0.01268147  0.012415607          610 
  336000   0.72824488   -8.6089476    51.073033  0.012666923  0.012368012          622 
  337000   0.73651841   -8.6121095    51.019792   0.01261617  0.012320602          703 
  338000   0.74140749   -8.6320321    51.140564   0.01260862  0.012273727          687 
  339000   0.72968816   -8.6192465    51.148024  0.012573261   0.01222689          694 
  340000   0.73307714   -8.5925465    51.048698  0.012511936  0.012180336          762 
  341000   0.73016412   -8.6389008    51.141024  0.012497806  0.012133878          721 
  342000   0.72737062   -8.6295076    51.110033  0.012453712  0.012087615          697 
  343000   0.72568854   -8.6362516    50.982527  0.012386425  0.012041221          708 
  344000   0.72512987   -8.6461195    51.025748  0.012360889  0.011995155          820 
  345000   0.70913023   -8.6691148    51.023557  0.012324531  0.011948959          792 
  346000   0.71271131   -8.6659702    51.041854  0.012293317  0.011902813          890 
  347000   0.70898206   -8.6802046    50.910207  0.012226274  0.011856821          874 
  348000   0.72897089   -8.7059114    50.878457  0.012183539  0.011811095          877 
  349000   0.70249658   -8.6776107    50.932766  0.012161597  0.011765288          832 
  350000   0.70818845   -8.6960405    50.844119  0.012105743  0.011719619          888 
  351000   0.70174529   -8.6877369    50.769743  0.012053595  0.011674028          874 
  352000   0.69842844   -8.6985588    50.940927  0.012059879  0.011628618          922 
  353000   0.69912778   -8.7299584     50.83876  0.012001596  0.011583361          877 
  354000   0.70975483   -8.7077605    50.994479   0.01200435  0.011538076          931 
  355000   0.70165072   -8.7328903    50.940898  0.011957957   0.01149312          898 
  356000   0.71116831   -8.7317294    50.851986  0.011903555  0.011448445          881 
  357000   0.68706618   -8.7334118    50.739318  0.011843912  0.011403953          909 
  358000   0.69797532   -8.7419537    50.767985  0.011817501  0.011359566          902 
  359000   0.69611445   -8.7608905    50.866526  0.011807457  0.011315538          902 
  360000   0.68548553   -8.7391857    50.861244  0.011773436  0.011271528          944 
  361000   0.69936044   -8.7671203    50.815663  0.011730301  0.011227524          933 
  362000   0.70454293   -8.7711315    50.789745   0.01169193  0.011183927          937 
  363000   0.67365319   -8.7694277    50.824109   0.01166761  0.011140362          922 
  364000   0.68398887   -8.7546501    50.879761  0.011648297  0.011096903          948 
  365000   0.69794593   -8.7826406    50.768166  0.011590905  0.011053838         1058 
  366000   0.69393167   -8.7647459    50.803609  0.011567306  0.011010842          919 
  367000   0.67632963   -8.7765531     50.81345  0.011538022  0.010968058          961 
  368000    0.6889313   -8.7891745    50.829467  0.011510296  0.010925408          968 
  369000   0.68871013   -8.7792002    50.734319  0.011457615  0.010883049         1003 
  370000    0.6825627   -8.7962923    50.744987  0.011429051  0.010840799         1061 
  371000   0.68739059   -8.8093998      50.7436  0.011397934  0.010798561         1100 
  372000   0.68481394   -8.8186732    50.754167  0.011369661  0.010756451         1053 
  373000   0.66984865    -8.851215    50.668745  0.011320095    0.0107144         1074 
  374000   0.65828474   -8.8195629    50.724858   0.01130233  0.010672565         1071 
  375000   0.65316348   -8.8049694    50.689017  0.011264226  0.010630926         1112 
  376000   0.67805727   -8.8337019    50.767487  0.011251659  0.010589549         1072 
  377000   0.66812564   -8.8501147    50.620697  0.011189367   0.01054838         1133 
  378000    0.6749527   -8.8638989    50.635222  0.011162968  0.010507243         1132 
  379000   0.65863018   -8.8536133    50.642403  0.011135093  0.010466185         1124 
  380000   0.65887191   -8.8405718    50.591633  0.011094656  0.010425572         1143 
  381000   0.66217763   -8.8379813    50.736203  0.011097157  0.010385041         1072 
  382000   0.66432775   -8.8864964    50.656768  0.011050778  0.010344781         1135 
  383000   0.65227025   -8.8683647    50.659631  0.011022548  0.010304721         1179 
  384000   0.65026463   -8.8663837    50.699475   0.01100249  0.010264798         1166 
  385000   0.64222142   -8.8877851    50.668533  0.010967215   0.01022508         1170 
  386000   0.65414026   -8.8825666    50.661606  0.010937307  0.010185548         1196 
  387000   0.64159879   -8.8666374    50.656469  0.010907939  0.010146112         1205 
  388000    0.6493487   -8.9140506    50.699807  0.010889134  0.010106809         1177 
  389000    0.6392183   -8.9254363    50.629962  0.010846179  0.010067717         1249 
  390000    0.6570714   -8.8975963    50.576791  0.010807007  0.010028735         1229 
  391000   0.64713687   -8.9188396    50.563971  0.010776635 0.0099899587         1266 
  392000   0.64219724   -8.9376686    50.550661  0.010746314 0.0099514064         1377 
  393000   0.64042143   -8.9222346    50.627936  0.010735355 0.0099128715         1317 
  394000   0.64937074   -8.9172496    50.598703  0.010701925 0.0098745231         1340 
  395000   0.64673778   -8.9351195    50.510291  0.010656179  0.009836384         1311 
  396000   0.62514201   -8.9303263    50.581539  0.010644263 0.0097985633         1308 
  397000   0.63479385   -8.9305556     50.59019  0.010619267 0.0097608125         1338 
  398000   0.62682046   -8.9508789    50.546567  0.010583452 0.0097232514         1366 
  399000   0.63446997    -8.948719     50.47792   0.01054259 0.0096859185         1363 
  400000   0.62191007   -8.9580823    50.565341  0.010534446  0.009648793         1358 
  401000   0.63262169   -8.9568245    50.684258  0.010532888 0.0096118711         1383 
  402000   0.62212428   -8.9700285    50.600737  0.010489373 0.0095750781         1346 
  403000   0.61253783   -8.9669669    50.694955  0.010482828 0.0095385508         1363 
  404000   0.63045118   -8.9470008    50.603235  0.010437961 0.0095022054         1350 
  405000   0.61931056   -8.9706387    50.457864  0.010382276 0.0094659479         1370 
  406000    0.6219945   -8.9722392    50.573209   0.01038038 0.0094298804         1385 
  407000    0.6118079   -8.9765297    50.627398   0.01036597 0.0093939735         1388 
  408000   0.59064194    -8.989806    50.591113  0.010333152 0.0093582802         1420 
  409000   0.61187041   -9.0034352    50.507897  0.010290932  0.009322692         1385 
  410000   0.61161636   -8.9829146    50.499842  0.010264196  0.009287225         1454 
  411000   0.62264231    -8.986966    50.539479  0.010247259 0.0092519587         1419 
  412000   0.60723098   -8.9924591    50.412492  0.010196701 0.0092168484         1476 
  413000   0.60162426   -9.0234611    50.373546  0.010164154 0.0091818804         1470 
  414000   0.61182408   -8.9971561    50.627694   0.01019076 0.0091471443         1495 
  415000   0.59650805   -9.0002799    50.467711  0.010134079 0.0091125715         1440 
  416000   0.60998998   -9.0202864    50.379653  0.010092078 0.0090781372         1429 
  417000   0.60982002   -9.0259148    50.391321  0.010070208 0.0090437974         1438 
  418000   0.59266563   -9.0218983    50.411327  0.010050105 0.0090097252         1463 
  419000   0.59594422   -8.9978893    50.525537  0.010048834 0.0089758174         1519 
  420000   0.60224316   -9.0201933    50.408498  0.010001686 0.0089420656         1491 
  421000   0.59294334   -9.0361746    50.468469 0.0099897999 0.0089083157         1539 
  422000   0.59033947   -9.0281792    50.413006 0.0099551749 0.0088748838         1491 
  423000   0.59097019   -9.0306993    50.428087 0.0099346113 0.0088414999         1503 
  424000   0.59813945    -9.042668    50.385496 0.0099028097 0.0088083264         1494 
  425000    0.5796684   -9.0301623    50.324043 0.0098674593 0.0087753229         1427 
  426000   0.57988971   -9.0505015    50.368257 0.0098529454 0.0087424361         1502 
  427000    0.5923085   -9.0305339    50.384409 0.0098330228 0.0087095639         1523 
  428000   0.57835322   -9.0419585    50.325967 0.0097986696 0.0086769237         1519 
  429000   0.59698175    -9.063442     50.31802 0.0097742851   0.00864443         1527 
  430000   0.57808645   -9.0585345    50.418527 0.0097710323 0.0086119633         1496 
  431000   0.58251557    -9.075665    50.364052 0.0097378291 0.0085796984         1524 
  432000   0.57367203   -9.0642984    50.363543 0.0097151896 0.0085475222         1490 
  433000   0.57784031   -9.0759033    50.369974 0.0096939905 0.0085154823         1484 
  434000   0.58035725   -9.0872614    50.366639 0.0096710136 0.0084835864         1512 
  435000   0.56917763   -9.0989807    50.254436 0.0096272865 0.0084517926         1486 
  436000   0.58989415   -9.0610444    50.313781 0.0096165484 0.0084201492         1477 
  437000   0.57362156   -9.0920982    50.259372 0.0095841671 0.0083886311         1503 
  438000     0.569146   -9.0961889    50.271317  0.009564558 0.0083572418         1526 
  439000   0.56789565   -9.0947023    50.336096 0.0095550676 0.0083260695         1465 
  440000   0.55683634   -9.1008048    50.261646 0.0095192511 0.0082950116         1473 
  441000   0.55218114   -9.1020856    50.189535 0.0094840392 0.0082642313         1513 
  442000    0.5674333    -9.109748    50.316953  0.009486605 0.0082335226         1454 
  443000   0.56438883   -9.1064198    50.255944 0.0094537141 0.0082028938         1465 
  444000    0.5435962   -9.1096115    50.343159 0.0094487911 0.0081725883         1466 
  445000   0.55886259   -9.1220987    50.327616 0.0094246473 0.0081423577         1484 
  446000    0.5547589   -9.1134732    50.193297 0.0093784187 0.0081122807         1530 
  447000   0.55511047   -9.1125755    50.316642 0.0093804329 0.0080823126         1534 
  448000   0.54730435   -9.1345448    50.279214 0.0093525323 0.0080525362         1548 
  449000   0.55550863   -9.1200934     50.25755 0.0093276818 0.0080229109         1561 
  450000   0.54843306   -9.1171987    50.245659 0.0093047517 0.0079934002         1522 
  451000   0.54608128   -9.1434807    50.250003  0.009284923  0.007964088         1534 
  452000   0.55221931   -9.1201521    50.268802 0.0092678469 0.0079348309         1532 
  453000   0.53652428   -9.1323563     50.27978 0.0092494076 0.0079057697         1537 
  454000   0.52785382   -9.1355094    50.325522 0.0092374305 0.0078768205         1563 
  455000   0.54383646   -9.1262404    50.228363 0.0091993339 0.0078480225         1546 
  456000   0.53127376   -9.1390309    50.266157 0.0091860667 0.0078193499         1561 
  457000   0.53083361   -9.1412775    50.326515  0.009176972 0.0077908157         1537 
  458000   0.53264503   -9.1330474    50.205119 0.0091348469 0.0077623911         1587 
  459000   0.54794549    -9.167953    50.165999  0.009107843 0.0077341193         1562 
  460000   0.54062361   -9.1593114    50.190256 0.0090924377 0.0077059984         1572 
  461000   0.53019383    -9.134383    50.175781 0.0090700977 0.0076779882         1598 
  462000   0.53092938   -9.1363256    50.154642 0.0090466526  0.007650183         1600 
  463000   0.53249677   -9.1603256    50.216222 0.0090381969 0.0076224214         1576 
  464000   0.51942912   -9.1626761    50.220213 0.0090194348  0.007594793         1565 
  465000   0.53502222   -9.1636266    50.170105 0.0089910582  0.007567329         1565 
  466000   0.51955865    -9.167058    50.134981 0.0089654831 0.0075399623         1538 
  467000   0.51482856   -9.1665595    50.148353 0.0089486712 0.0075126822         1576 
  468000    0.5186138    -9.166371    50.190844  0.008937116 0.0074855143         1626 
  469000   0.51035734   -9.1903275    50.129353 0.0089071345 0.0074585103         1558 
  470000   0.51870253   -9.1951458    50.114346 0.0088855223 0.0074315624         1548 
  471000   0.51406909   -9.1734505    50.105619 0.0088651131 0.0074047619         1619 
  472000   0.52795089   -9.1716831    50.148267 0.0088538606 0.0073780703         1531 
  473000     0.505533   -9.1754376    50.098203 0.0088263219   0.00735153         1560 
  474000   0.50829286   -9.1813765    50.012088 0.0087925612 0.0073251143         1572 
  475000   0.50386726   -9.1898104    50.160963 0.0088001689 0.0072988297         1535 
  476000   0.51500695   -9.2036151    50.094626 0.0087700676 0.0072726586         1588 
  477000   0.50681079   -9.2024779    50.122337 0.0087565228 0.0072466109         1630 
  478000   0.50495357   -9.2033422    49.976222 0.0087127304 0.0072206673         1586 
  479000   0.49416709   -9.1994809     49.97398  0.008694151 0.0071948238         1604 
  480000     0.493246   -9.2013519    50.030998 0.0086859371 0.0071691245         1628 
  481000   0.49110527   -9.2124927    50.056159 0.0086722381  0.007143549         1622 
  482000   0.50201839   -9.2358319    50.101915 0.0086621568 0.0071180777         1633 
  483000   0.49991544   -9.2261046    49.998572 0.0086263927  0.007092701         1597 
  484000   0.49716152   -9.2046796    50.013278 0.0086111016  0.007067487         1596 
  485000   0.48714761    -9.212573    49.972192 0.0085862872 0.0070423619         1640 
  486000   0.48629001   -9.2325776    49.948079 0.0085644855   0.00701739         1615 
  487000   0.49362552   -9.2211265    49.960378 0.0085490038 0.0069924787         1621 
  488000   0.49316555    -9.231902    50.026218 0.0085427285 0.0069677085         1610 
  489000   0.48167088     -9.22872    49.963297 0.0085145359 0.0069430786         1614 
  490000   0.47764758   -9.2136687     50.06014 0.0085136292 0.0069185437         1574 
  491000    0.4857128   -9.2333789    49.930549 0.0084742955 0.0068941139         1640 
  492000   0.48100311   -9.2377627    49.939383 0.0084585675 0.0068698183         1634 
  493000   0.47666019   -9.2476324     49.99068 0.0084500812 0.0068456137         1585 
  494000   0.47517513   -9.2423043    49.879216 0.0084141727 0.0068215326         1601 
  495000    0.4826965   -9.2404215    49.973865 0.0084131086 0.0067975913         1599 
  496000   0.47781735   -9.2582604     50.01898 0.0084037265 0.0067736979         1631 
  497000   0.47008787   -9.2550141    49.950713  0.008375371 0.0067499906         1647 
  498000   0.46246616   -9.2462065    49.991749 0.0083654198 0.0067263301         1607 
  499000   0.45901513    -9.258453     49.97199 0.0083453557 0.0067027908         1653 
  500000   0.47113224   -9.2474119    49.935002 0.0083225003 0.0066793674         1614 
  501000   0.46131995   -9.2687952    49.924671 0.0083041701  0.006656052         1613 
  502000   0.48151634   -9.2617645    49.891335 0.0082820941  0.006632851         1634 
  503000    0.4692941   -9.2528278     49.90114 0.0082672531 0.0066097456         1671 
  504000   0.45653159   -9.2578213    49.966367 0.0082616348 0.0065867394         1651 
  505000   0.46485701   -9.2596682    49.919388 0.0082375227 0.0065638642         1631 
  506000   0.45330819    -9.274044    49.959159 0.0082277931    0.0065411         1662 
  507000   0.45640787   -9.2670784    49.843186 0.0081925026 0.0065184136         1633 
  508000   0.46495846   -9.2796418     49.90993 0.0081873245 0.0064958257         1601 
  509000   0.45104257   -9.2832962    49.913889 0.0081718876 0.0064733627         1618 
  510000    0.4481845   -9.2818567    49.899755 0.0081535547 0.0064510465         1623 
  511000   0.45156392   -9.2854039    49.853432 0.0081300444 0.0064288192         1649 
  512000   0.44584361   -9.2845737    49.828651  0.008110132 0.0064066632         1634 
Loop time of 1293.06 on 48 procs for 500000 steps with 4000 atoms

Performance: 66818.279 tau/day, 386.680 timesteps/s
99.4% CPU use with 48 MPI tasks x no OpenMP threads

MPI task timing breakdown:
Section |  min time  |  avg time  |  max time  |%varavg| %total
---------------------------------------------------------------
Pair    | 90.087     | 96.462     | 108.45     |  36.9 |  7.46
Neigh   | 8.5404     | 8.9914     | 9.6387     |   8.6 |  0.70
Comm    | 75.209     | 90.113     | 100.29     |  54.3 |  6.97
Output  | 1.2114     | 1.2123     | 1.2419     |   0.4 |  0.09
Modify  | 1074.6     | 1082.9     | 1090.2     |  12.3 | 83.75
Other   |            | 13.4       |            |       |  1.04

Nlocal:        83.3333 ave          90 max          76 min
Histogram: 5 1 6 1 4 13 5 5 2 6
Nghost:        2344.58 ave        2364 max        2317 min
Histogram: 4 2 3 1 7 7 5 6 5 8
Neighs:        16054.0 ave       18361 max       14325 min
Histogram: 4 4 7 9 8 6 4 1 2 3
FullNghs:      32108.1 ave       35460 max       28823 min
Histogram: 4 4 4 4 12 5 2 5 5 3

Total # of neighbors = 1541190
Ave neighs/atom = 385.29750
Neighbor list builds = 26616
Dangerous builds = 0

#clear
#
#next RN
#
#jump SELF
Total wall time: 0:21:36
