
units lj                  # Use reduced LJ style units
atom_style atomic         # Uncharged point particles
atom_modify map hash      # Needed for indexing of clusters etc
                          # Used to be able to find where atoms are in relation to each other.

lattice fcc 1.0 spacing 1 1 1
Lattice spacing in x,y,z = 1.5874011 1.5874011 1.5874011
region box block 0 10 0 10 0 10 units lattice
create_box 2 box
Created orthogonal box = (0.0000000 0.0000000 0.0000000) to (15.874011 15.874011 15.874011)
  3 by 4 by 4 MPI processor grid
create_atoms 1 box
Created 4000 atoms
  using lattice units in orthogonal box = (0.0000000 0.0000000 0.0000000) to (15.874011 15.874011 15.874011)
  create_atoms CPU = 0.018 seconds
set type 1 type/fraction 2 0.07 78393
Setting atom values ...
  309 settings made for type/fraction
mass 1 1.0
mass 2 1.0
pair_style lj/cut  3.5
pair_modify tail  yes
pair_coeff 1  1  1.0  1.0   # Intearaction between 1 and 1 set with epsilon = 1 and sigma = 1
pair_coeff 1  2  1.5  0.8
pair_coeff 2  2  0.5  0.88

write_data data.0
System init for write_data ...
Neighbor list info ...
  update every 1 steps, delay 10 steps, check yes
  max neighbors/atom: 2000, page size: 100000
  master list distance cutoff = 3.8
  ghost atom cutoff = 3.8
  binsize = 1.9, bins = 9 9 9
  1 neighbor lists, perpetual/occasional/extra = 1 0 0
  (1) pair lj/cut, perpetual
      attributes: half, newton on
      pair build: half/bin/atomonly/newton
      stencil: half/bin/3d
      bin: standard
WARNING: Not all mixed pair coeffs generated from mixing. Use write_data with 'pair ij' option to store all pair coeffs. (../write_data.cpp:312)


#############################
#   M E L T   S Y S T E M   #
#############################

velocity all create 2.4 5300450 mom yes dist gaussian # Assign velocities
                                                    # Temperature 2.4, random number seed, zero linear momentum
                                                                                # Gaussian distribution

timestep 0.002   # simulation timestep
thermo 1000       # output thermodynamic data every 1000 steps bf 100

# Define a fix  in this case with index 1 applied to all
# particles in the simulation. This fix is for simulations
# in the anisotropic NPT ensemble. Note that we use the MTK
# correction.
fix 1 all npt temp 2.4 2.4 0.1 iso 5.68 5.68 0.5 mtk yes tchain 5 pchain 5 # Use NPT ensemble
                                                                         # Set temperature and pressure and damping
                                                                         # Numbers of thermostats in chain and in barostat
run 10000          # run for 10000 steps
Per MPI rank memory allocation (min/avg/max) = 3.642 | 3.644 | 3.648 Mbytes
Step Temp E_pair E_mol TotEng Press Volume 
       0          2.4   -7.8774228            0   -4.2783228   -2.8368304         4000 
    1000    2.4053992   -4.5352293            0   -0.9280326    5.7051692    4937.8839 
    2000    2.4367964   -4.4915995            0  -0.83731869    5.8029359    4965.6936 
    3000    2.3576027   -4.5380543            0   -1.0025343    5.6015675    4965.1549 
    4000    2.3928168   -4.5122075            0  -0.92387954    5.6575799     4959.002 
    5000    2.4271581   -4.5603137            0   -0.9204867    5.7205055    4931.2462 
    6000     2.385974   -4.5387088            0  -0.96064264    5.8804222    4925.6411 
    7000     2.358988   -4.5707049            0   -1.0331075    5.5005762    4947.7879 
    8000    2.3939612   -4.4864831            0  -0.89643898     5.829004    4952.0398 
    9000    2.4506588   -4.5086592            0  -0.83359001     5.881876    4942.7006 
   10000    2.4441517   -4.5318537            0  -0.86654269    5.7896719    4947.4359 
Loop time of 2.1458 on 48 procs for 10000 steps with 4000 atoms

Performance: 805294.124 tau/day, 4660.267 timesteps/s
99.6% CPU use with 48 MPI tasks x no OpenMP threads

MPI task timing breakdown:
Section |  min time  |  avg time  |  max time  |%varavg| %total
---------------------------------------------------------------
Pair    | 0.85523    | 0.94751    | 1.0195     |   3.4 | 44.16
Neigh   | 0.18581    | 0.19509    | 0.20457    |   1.0 |  9.09
Comm    | 0.63257    | 0.74945    | 0.84117    |   4.3 | 34.93
Output  | 0.0002413  | 0.0002502  | 0.0003111  |   0.0 |  0.01
Modify  | 0.21623    | 0.23894    | 0.27894    |   3.3 | 11.14
Other   |            | 0.01456    |            |       |  0.68

Nlocal:        83.3333 ave          92 max          75 min
Histogram: 1 3 7 5 11 7 3 7 2 2
Nghost:        1432.29 ave        1457 max        1413 min
Histogram: 4 2 6 9 7 9 5 4 1 1
Neighs:        7701.56 ave        9020 max        6689 min
Histogram: 3 2 7 10 8 8 4 5 0 1

Total # of neighbors = 369675
Ave neighs/atom = 92.418750
Neighbor list builds = 899
Dangerous builds = 178

# Equilibrate just above the melting temperature to avoid step fn in T

fix 1 all npt temp 1.25 1.25 0.1 iso 5.68 5.68 0.5 mtk yes tchain 5 pchain 5
run 2000
Per MPI rank memory allocation (min/avg/max) = 3.643 | 3.645 | 3.649 Mbytes
Step Temp E_pair E_mol TotEng Press Volume 
   10000    2.4441517   -4.5318537            0  -0.86654269    5.7896719    4947.4359 
   11000    1.2527661   -6.1106043            0    -4.231925     5.773901    4071.5894 
   12000    1.2416806   -6.0890616            0   -4.2270063    5.5813349    4091.5163 
Loop time of 0.46254 on 48 procs for 2000 steps with 4000 atoms

Performance: 747178.839 tau/day, 4323.952 timesteps/s
99.6% CPU use with 48 MPI tasks x no OpenMP threads

MPI task timing breakdown:
Section |  min time  |  avg time  |  max time  |%varavg| %total
---------------------------------------------------------------
Pair    | 0.19946    | 0.22053    | 0.23561    |   1.8 | 47.68
Neigh   | 0.031713   | 0.033379   | 0.035558   |   0.5 |  7.22
Comm    | 0.14063    | 0.15708    | 0.17458    |   2.3 | 33.96
Output  | 5.2777e-05 | 5.3845e-05 | 6.8225e-05 |   0.0 |  0.01
Modify  | 0.041529   | 0.047097   | 0.05271    |   1.3 | 10.18
Other   |            | 0.004402   |            |       |  0.95

Nlocal:        83.3333 ave          90 max          77 min
Histogram: 3 1 4 11 6 4 14 3 1 1
Nghost:        1618.83 ave        1642 max        1597 min
Histogram: 4 2 4 9 8 5 6 3 3 4
Neighs:        9307.81 ave       10276 max        8370 min
Histogram: 1 3 5 6 10 10 6 4 2 1

Total # of neighbors = 446775
Ave neighs/atom = 111.69375
Neighbor list builds = 144
Dangerous builds = 7

#############################
# L I N E A R  Q U E N C H  #
#############################

# Define solid atoms. This closely follows ten Wolde  Ruiz-Montero and Frenkel  Faraday Discuss  1996  104  93-110
# Compute components of the per-atom q6 vector
compute q6 all orientorder/atom degrees 1 6 components 6 nnn NULL cutoff 1.3 # compute the Q6 parameter.
                                                                             # Use all neighbours within 1.3 unit cell.

# get number of connections
compute coord_number all coord/atom orientorder q6 0.5

# An atom is solid if it has 8 or more connections (of a possible 14)
variable is_solid atom c_coord_number>=8
group solid dynamic all var is_solid    # Must be dynamic to update
dynamic group solid defined

# do clustering
compute cluster solid cluster/atom 1.3 # Create a cluster where all atoms within are solid and max 1.3 units from another member

# define chunks one chunk per cluster
compute clus_chunks solid chunk/atom c_cluster nchunk every compress yes  # Says which atoms are in which chunk

# count the size of each chunk
compute size_chunks solid property/chunk clus_chunks count


# Find the maximum entry in the vector of chunk sizes
variable max_n equal max(c_size_chunks)


# Thermo style which includes this variable
# thermo_style custom step temp pe vol v_max_n

thermo ${N}  # Print the thermo information every 100 steps
thermo 1000  

# Reset the npt fix at a lower temperature (below freezing)
fix 1  all npt temp  ${temp} ${temp}  0.1  iso  5.68  5.68  0.5  mtk yes tchain  5  pchain  5
fix 1  all npt temp  0.45 ${temp}  0.1  iso  5.68  5.68  0.5  mtk yes tchain  5  pchain  5
fix 1  all npt temp  0.45 0.45  0.1  iso  5.68  5.68  0.5  mtk yes tchain  5  pchain  5

dump dmp2 all dcd ${N} traj.dcd
dump dmp2 all dcd 1000 traj.dcd


compute msd all msd com yes
variable twopoint equal c_msd[4]/6/(step*dt+1.0e-6)
fix 9 all vector 10 c_msd[4]
variable fit equal slope(f_9)/6/(10*dt)
thermo_style custom step temp pe c_msd[4] v_twopoint v_fit v_max_n

fix 1 all npt temp 1.25 ${temp} 0.1 iso 5.68 5.68 0.5 mtk yes tchain 5 pchain 5
fix 1 all npt temp 1.25 0.45 0.1 iso 5.68 5.68 0.5 mtk yes tchain 5 pchain 5
run 2000000 # 5000000  # Run for this many steps
Neighbor list info ...
  update every 1 steps, delay 10 steps, check yes
  max neighbors/atom: 2000, page size: 100000
  master list distance cutoff = 3.8
  ghost atom cutoff = 3.8
  binsize = 1.9, bins = 9 9 9
  4 neighbor lists, perpetual/occasional/extra = 1 3 0
  (1) pair lj/cut, perpetual
      attributes: half, newton on
      pair build: half/bin/atomonly/newton
      stencil: half/bin/3d
      bin: standard
  (2) compute orientorder/atom, occasional
      attributes: full, newton on
      pair build: full/bin/atomonly
      stencil: full/bin/3d
      bin: standard
  (3) compute coord/atom, occasional
      attributes: full, newton on
      pair build: full/bin/atomonly
      stencil: full/bin/3d
      bin: standard
  (4) compute cluster/atom, occasional
      attributes: full, newton on
      pair build: full/bin/atomonly
      stencil: full/bin/3d
      bin: standard
Per MPI rank memory allocation (min/avg/max) = 9.744 | 9.748 | 9.753 Mbytes
Step Temp PotEng c_msd[4] v_twopoint v_fit v_max_n 
   12000    1.2416806   -6.0890616 2.2709333e-30 1.577037e-32 8.3333333e+20            2 
   13000     1.216801   -6.1042061   0.56801777 0.0036411394  0.045920535            2 
   14000    1.2838977    -6.073231    1.1727638 0.0069807369  0.048570897            2 
   15000    1.2338542   -6.1216286    1.7332011 0.0096288945  0.048644408            2 
   16000    1.2428532   -6.0970215    2.2585746  0.011763409  0.047520631            3 
   17000    1.2427547   -6.1473647    2.7769114   0.01361231  0.046880386            4 
   18000    1.2296337   -6.0689932    3.2924623   0.01524288  0.046020645            2 
   19000    1.2361959   -6.1295717    3.7961458  0.016649762  0.045262031            5 
   20000    1.2852842   -6.0905904    4.3032933  0.017930388  0.044759689            1 
   21000    1.2606173   -6.1107123    4.8980163  0.019436572  0.044478281            5 
   22000    1.2437771   -6.1060251    5.3834453  0.020391838  0.044550409            3 
   23000    1.2603796   -6.1453397    5.9572689  0.021584307  0.044496099            2 
   24000    1.2411628   -6.0990037    6.4557067  0.022415648  0.044413794            2 
   25000    1.2313529   -6.1071833    6.8947155  0.022982384  0.044235522            3 
   26000    1.2454026   -6.1365888     7.390065  0.023686105  0.044022468            1 
   27000    1.2557779   -6.1335619    7.9163285  0.024433112  0.043798958            2 
   28000    1.2254806   -6.0771903    8.4028845  0.025008585    0.0436342            2 
   29000    1.2231453    -6.109977    8.8943733  0.025558544  0.043397925            3 
   30000    1.2479409   -6.1073169    9.5026082  0.026396133  0.043253098            2 
   31000    1.2449947   -6.1304658     10.10544  0.027165161  0.043300148            1 
   32000    1.2515923    -6.105423    10.688675  0.027835092  0.043440108            6 
   33000    1.2365674   -6.1157823    11.175076  0.028219889  0.043524514            3 
   34000    1.2295695   -6.1170601     11.74223  0.028779974  0.043632978            3 
   35000    1.2362016   -6.1237059    12.278332  0.029234123  0.043736738            4 
   36000    1.2265645   -6.1188248    12.925285  0.029919642  0.043858364            4 
   37000    1.2500008   -6.0924813    13.596326  0.030622356  0.044048628            6 
   38000    1.2248204   -6.1466508    14.078436  0.030873764  0.044226297            3 
   39000    1.2262376   -6.1105042    14.563407  0.031118391  0.044361762            4 
   40000    1.2661477    -6.076779     15.19373  0.031653604  0.044468715            9 
   41000    1.2111522   -6.1433745    15.607972   0.03172352  0.044526056            1 
   42000    1.2421059     -6.16218    16.076568  0.031897952  0.044567792            2 
   43000    1.2483667   -6.1798218    16.692511  0.032349828   0.04459778            4 
   44000     1.228276    -6.135387    17.211514  0.032597564  0.044643043            3 
   45000     1.251246   -6.1518287    17.730318  0.032833921  0.044663452            3 
   46000     1.229779   -6.1300622     18.32436  0.033196304  0.044686851            4 
   47000    1.2772921   -6.1436079    18.943187   0.03358721  0.044752881            2 
   48000    1.2262695   -6.1151949     19.45922  0.033783368  0.044848205            3 
   49000    1.2515392   -6.1769494    19.997455  0.034009276  0.044878732            2 
   50000     1.217751   -6.1513804    20.587204  0.034312006  0.044931627            3 
   51000    1.2524168   -6.1927532    21.185194  0.034616331  0.044983443            3 
   52000    1.2309368   -6.1337728    21.795254  0.034928292  0.045040461            3 
   53000    1.2515119    -6.133829    22.278934   0.03502977  0.045111688            2 
   54000    1.2488329   -6.0976094    22.900173  0.035339773  0.045153382            2 
   55000    1.2361946   -6.1203805    23.252533   0.03523111  0.045166765            2 
   56000    1.2289828   -6.1209111    23.673543  0.035228486  0.045147626            1 
   57000    1.2450066   -6.1286867    24.246294  0.035447798   0.04512814            3 
   58000    1.2283388    -6.142875    24.702969  0.035492771  0.045101478            3 
   59000    1.2053404   -6.1095979    25.339011  0.035789564   0.04507869            3 
   60000    1.2393372   -6.1463842    25.795351  0.035826876  0.045065251            4 
   61000    1.2480996   -6.1228495    26.292957   0.03591934  0.045023664            4 
   62000     1.240247   -6.1094353      26.9127  0.036172983  0.045001884            4 
   63000    1.2189215   -6.1084298    27.450421   0.03631008   0.04498411            2 
   64000     1.212942   -6.1293765    27.997921  0.036455626  0.044975216            2 
   65000    1.2150133   -6.1348754    28.456039  0.036482101   0.04496555            2 
   66000    1.2135547   -6.1570041    28.842794  0.036417669    0.0449378            2 
   67000    1.2119611   -6.1407237    29.349217  0.036504001  0.044894871            3 
   68000     1.231684   -6.1147362    29.857502  0.036590076  0.044852904            2 
   69000    1.2362657   -6.1801305    30.345503  0.036649158  0.044804137            3 
   70000    1.2250926   -6.1171845    31.019787  0.036928317  0.044767687            2 
   71000    1.2326447   -6.1784009    31.591901  0.037079696  0.044753803            4 
   72000    1.2399013   -6.1406223     32.25261  0.037329409  0.044755205            1 
   73000    1.2199982   -6.1760813    32.736295  0.037370199  0.044751979            6 
   74000    1.2377264   -6.1196208    33.064105  0.037234352  0.044734345            2 
   75000    1.2117639   -6.1413814    33.714847  0.037460941  0.044714336            3 
   76000    1.2251616   -6.1072134    34.295152  0.037604333  0.044691246            4 
   77000     1.235942   -6.1839548    34.856132  0.037723086  0.044679337            2 
   78000       1.2197   -6.1592017    35.563032  0.037994692  0.044682851            4 
   79000    1.2235769   -6.1605531    35.822802  0.037787766   0.04468317            3 
   80000     1.229876   -6.1681955    36.301499  0.037814061  0.044665169            2 
   81000    1.2194657   -6.1274105    36.780487  0.037840007  0.044642247            2 
   82000    1.2618524    -6.156143    37.380228  0.037988036  0.044622284            3 
   83000    1.2242311   -6.2020196    37.698494  0.037849894  0.044601407            4 
   84000    1.2182158   -6.1526632    38.047821  0.037745854  0.044558508            3 
   85000    1.2411843   -6.1545561    38.276173   0.03752566  0.044491331            3 
   86000    1.2214251   -6.1646426     38.90728  0.037700853  0.044423891            3 
   87000    1.2151499     -6.15674     39.28061  0.037625105  0.044357698            3 
   88000    1.2343772   -6.1613916    39.681376   0.03757706  0.044281956            2 
   89000    1.2019434   -6.1912046    40.185223  0.037626613  0.044214148            2 
   90000    1.2244889   -6.1349608    40.839622  0.037814465  0.044146132            4 
   91000    1.2283902   -6.1310533    41.135172  0.037669571  0.044081483            5 
   92000    1.2071478   -6.1133092    41.729587  0.037798538  0.044008781            2 
   93000    1.2325029   -6.1556839    42.258912  0.037866409   0.04394766            1 
   94000    1.2119895   -6.1651596    42.971544   0.03809534  0.043891538            2 
   95000    1.1863638   -6.1792269    43.234946  0.037925391  0.043843448            5 
   96000    1.2306805   -6.1474722    43.849343  0.038063666  0.043790336            4 
   97000    1.2015295   -6.1699387    44.325854  0.038080631  0.043740064            2 
   98000    1.1768045   -6.1728686    44.969542  0.038239406  0.043701916            2 
   99000    1.2040908    -6.186815    45.357088  0.038179367  0.043666428            5 
  100000    1.1992438   -6.1483832    45.929992  0.038274993  0.043631563            2 
  101000    1.2078252   -6.1729158     46.55501  0.038411724  0.043599874            2 
  102000    1.2318929   -6.1788016     47.00039  0.038399011    0.0435714            6 
  103000    1.1877922   -6.1617878    47.436694  0.038379202  0.043545368            9 
  104000    1.2049228   -6.1485377    48.349613  0.038741677  0.043525724            1 
  105000    1.2070764   -6.1616688    48.849893  0.038769756  0.043510745            3 
  106000    1.2114764   -6.1793098    49.256324  0.038723525  0.043506846            3 
  107000    1.1901927   -6.1813889     49.91732  0.038876417  0.043498141            3 
  108000    1.1901017   -6.1869032    50.396378  0.038886094  0.043491986            2 
  109000    1.2175275   -6.1816868    50.952398  0.038954433  0.043486111            1 
  110000    1.2398604   -6.1682541    51.399566  0.038939065  0.043478766            3 
  111000    1.2222189   -6.1752379    52.046979  0.039074309  0.043468156            2 
  112000     1.184758   -6.1858625    52.419053  0.039002271  0.043460997            5 
  113000    1.2410556   -6.1941444    53.025384  0.039104265  0.043458324            3 
  114000      1.19809   -6.1538895    53.764819  0.039301768    0.0434585            3 
  115000    1.2090241    -6.241589    53.911517  0.039066317  0.043455171            2 
  116000    1.2065497   -6.2114153    54.481305  0.039138869  0.043448045            4 
  117000    1.2049032   -6.1775803    54.656084  0.038928835  0.043436224            4 
  118000     1.206478   -6.1744362    55.283268  0.039041856   0.04341294            3 
  119000    1.2325126   -6.1832053     55.64888  0.038969803  0.043392339            4 
  120000    1.2186141   -6.1664003    56.078068  0.038943103  0.043367488            3 
  121000     1.204117   -6.2198328    56.585094   0.03897045  0.043345041            2 
  122000    1.2046617   -6.1802859    57.106591  0.039007234  0.043325387            4 
  123000    1.1950992   -6.2065792    57.800279   0.03916008  0.043306329            3 
  124000    1.2129735   -6.2244113    58.298535  0.039179123  0.043290587            3 
  125000    1.1911344   -6.2145533     58.86023  0.039240153  0.043277763            4 
  126000    1.1966797   -6.1907862    59.341132   0.03924678  0.043264681            7 
  127000    1.2003998   -6.1855923    59.614586  0.039117182  0.043246469            2 
  128000    1.1967146   -6.1578772    60.029524  0.039081721  0.043218562            5 
  129000    1.2122735   -6.2182854    60.349647   0.03898556  0.043187886            3 
  130000    1.1825389   -6.1706833    60.778274  0.038960432  0.043156714            2 
  131000    1.1978849   -6.1871089    61.409189   0.03906437  0.043128435            3 
  132000    1.1908452   -6.2266156    61.776484  0.039000305  0.043100458            2 
  133000     1.204609   -6.1251779    62.318924  0.039046945  0.043070624            2 
  134000    1.1968534   -6.1788141    62.703057  0.038994438  0.043034262            5 
  135000    1.1672046   -6.1891165    62.764918  0.038743776  0.042995013            3 
  136000     1.197208   -6.1941645    63.350823  0.038817906  0.042956648            2 
  137000    1.1956868   -6.2180844    64.023216  0.038943562  0.042923306            5 
  138000    1.1848097   -6.2237509    64.285552  0.038819778  0.042891314            3 
  139000     1.179258   -6.2044566    65.126361  0.039044581  0.042857268            3 
  140000    1.2117364   -6.1826423    65.453757   0.03896057  0.042821984            2 
  141000    1.1982071   -6.1886594    65.818339  0.038899728  0.042790559            1 
  142000    1.1872114   -6.1924219    66.293714  0.038904761  0.042756548            2 
  143000     1.182163    -6.166092    66.620585  0.038823185  0.042722594            4 
  144000    1.2162899   -6.1507138      67.0623  0.038809201  0.042685028            2 
  145000    1.2024497    -6.218345    67.332475  0.038696824  0.042647133            2 
  146000     1.206807   -6.1996818    67.878257  0.038743297  0.042606398            1 
  147000    1.1760049   -6.1815505    68.161437   0.03864027   0.04256373            9 
  148000    1.2019018   -6.1896269    68.698478  0.038681575  0.042522438            4 
  149000    1.1691078   -6.2091893    69.196424  0.038700461  0.042481722            4 
  150000    1.1615403   -6.1798555    69.646255  0.038692364   0.04243612            3 
  151000    1.2019366   -6.1775544    69.784034   0.03851216  0.042389913            6 
  152000    1.2148438   -6.2183348    70.538619  0.038672488  0.042346694            2 
  153000    1.1770143   -6.2133329    70.640298  0.038475108  0.042305043            4 
  154000    1.2056402    -6.197126    71.098789  0.038473371  0.042258275            2 
  155000    1.2131312   -6.2018379    71.784125  0.038593615  0.042214383            2 
  156000    1.1974446   -6.1932992    72.019766  0.038472097  0.042169187            2 
  157000    1.1815868   -6.2199383    72.409541  0.038433939  0.042120528            4 
  158000    1.2010155   -6.1908201    72.825531   0.03841009   0.04207193            4 
  159000    1.1732427   -6.2487264    73.201694  0.038365667  0.042021892            4 
  160000    1.1810719   -6.1661932      73.7159  0.038393698  0.041974753            2 
  161000    1.1640895   -6.2150479     74.19427  0.038402831  0.041929573            2 
  162000    1.1982852   -6.2475399    74.368495  0.038255399  0.041883519            2 
  163000      1.19719   -6.1988753    75.045015  0.038366572  0.041839152            3 
  164000    1.1870904   -6.1842258    75.946259  0.038590578   0.04179912            4 
  165000    1.2006228   -6.1977534    76.329071  0.038550036  0.041762092            6 
  166000    1.1899362   -6.1869706    77.001212  0.038655227  0.041728121            1 
  167000     1.183229   -6.2249515    77.615276  0.038730178  0.041699196            3 
  168000    1.1824504   -6.1791614    78.140445  0.038760141   0.04166918            3 
  169000    1.2175929   -6.2326183    78.521467  0.038718672  0.041641815            4 
  170000    1.1946347   -6.2179193    78.942641  0.038697373  0.041615209            2 
  171000    1.1876931   -6.2115303    79.312959  0.038651539  0.041584503            2 
  172000    1.1888413   -6.2096548    79.711993  0.038620152  0.041554419            2 
  173000      1.17623   -6.2050138    80.152584  0.038609145  0.041525065            2 
  174000     1.175772   -6.2104046    80.726088   0.03866192  0.041497465            2 
  175000    1.2160805   -6.1997283    80.781426  0.038467346  0.041470227            5 
  176000    1.1878776   -6.2035486    81.389026   0.03853647  0.041440059            2 
  177000    1.2029809   -6.2383575    82.081407   0.03864473  0.041408475            4 
  178000    1.1823434   -6.2205413    82.155164  0.038462156  0.041377198            2 
  179000    1.1866549   -6.2484227    82.884555   0.03858685  0.041343828            3 
  180000    1.1851478   -6.2475212    83.186864  0.038512437  0.041313603            2 
  181000    1.1639673   -6.2381735    83.225347  0.038317379  0.041279758            3 
  182000    1.1800159   -6.2420319    83.950657  0.038438946  0.041247125            3 
  183000    1.2213912   -6.2147309    84.340538  0.038406438  0.041215959            1 
  184000    1.1645231   -6.2241852    85.003268  0.038497857  0.041184708            2 
  185000    1.1587459   -6.2623618    85.613161  0.038564487  0.041159024            3 
  186000    1.1554895   -6.2412521    85.940667  0.038503883  0.041134288            3 
  187000    1.1683413   -6.2315714    86.489378  0.038542504  0.041106904            4 
  188000    1.1817501   -6.1978114    87.290298  0.038692508  0.041084104            3 
  189000    1.1648214   -6.2493566    87.353088  0.038515471  0.041060337            4 
  190000    1.2120946   -6.2367518     88.20618  0.038686921  0.041038419            2 
  191000    1.1826826   -6.2136593      88.7028  0.038701047  0.041018083            2 
  192000    1.1728606   -6.2634346    88.981273  0.038620344  0.040998401            5 
  193000     1.156568   -6.2258862    89.786331  0.038767846  0.040980991            5 
  194000    1.1680642   -6.2691676    89.942639  0.038635154  0.040962931            2 
  195000    1.1804146   -6.2844999    90.543305   0.03869372  0.040944959            1 
  196000    1.1732354   -6.2348418     91.11714  0.038740281   0.04092681            5 
  197000     1.147867   -6.2253544    91.716047  0.038796974  0.040910177            4 
  198000    1.1769266    -6.217428    91.730466  0.038607098  0.040893609            2 
  199000    1.1767581   -6.2106717    92.136935  0.038583306  0.040873784            2 
  200000    1.1772045   -6.2408323    92.836795  0.038681998  0.040852227            4 
  201000    1.1638267   -6.2684058    93.062169  0.038582989  0.040834126            3 
  202000    1.1741422   -6.2531465    93.818775  0.038704115  0.040817941            4 
  203000    1.1768992   -6.2713436      94.1713  0.038658169  0.040800592            2 
  204000    1.1855157   -6.2470719    94.711681  0.038689412  0.040781002            5 
  205000    1.1856992   -6.2520158    95.013969  0.038623564  0.040761995            2 
  206000    1.1602793   -6.2458895    95.470005  0.038620552  0.040744184            2 
  207000    1.1749431   -6.2728436    95.705922  0.038528954  0.040724096            4 
  208000      1.16197   -6.2533723     96.15401  0.038523241  0.040702591            2 
  209000     1.159839   -6.2945739    96.343488  0.038414469    0.0406797            4 
  210000    1.1677563   -6.2426246    96.748162  0.038392128  0.040653631            3 
  211000    1.1599122   -6.2507779    96.946927  0.038288676  0.040626662            3 
  212000    1.1946392   -6.2537023    97.561733  0.038349738  0.040600013           13 
  213000    1.1988089   -6.2453351    98.104522  0.038382051  0.040575067            3 
  214000     1.184595   -6.2657287    98.672275  0.038423783  0.040551681            3 
  215000    1.1635393   -6.2577548    98.956929  0.038355399  0.040527461            4 
  216000    1.1446196    -6.262404    99.930735  0.038553524  0.040504176            8 
  217000    1.1749952   -6.2392682    100.10851  0.038444128  0.040482643           11 
  218000    1.1870997   -6.2667341    100.16185  0.038288169  0.040461625            7 
  219000    1.1572924    -6.244933    100.73481   0.03833136   0.04044032            2 
  220000    1.1615909   -6.2786545    101.12931  0.038306555  0.040419157            1 
  221000    1.1366025   -6.2359901    101.76342  0.038372329  0.040397804            3 
  222000    1.1685866   -6.2899556    102.24933   0.03838188  0.040378118            4 
  223000    1.1795497   -6.2573796    102.40569  0.038268196  0.040356902            3 
  224000    1.1645872   -6.2563301     102.9749  0.038309114  0.040334654            5 
  225000    1.1592259   -6.2642583    103.50705  0.038335944  0.040311444            4 
  226000    1.1641579   -6.2723843    103.90556   0.03831326  0.040287561            2 
  227000    1.1617902   -6.2155358    104.43999  0.038340672  0.040263748            4 
  228000    1.1706378   -6.2390694    104.49643  0.038193141  0.040240211            4 
  229000    1.1613423   -6.3142161    104.39121  0.037988069  0.040213861            4 
  230000    1.1500971   -6.3026839    104.95255  0.038026288  0.040185893            4 
  231000    1.1512646   -6.2514347    105.48824   0.03805492  0.040157034            3 
  232000    1.1546888   -6.2806485    105.56187  0.037917338   0.04012666            8 
  233000    1.1459327   -6.2729163    105.78474  0.037834315  0.040097336            3 
  234000    1.1535439   -6.2271514    106.84531  0.038050325  0.040068699            2 
  235000    1.1887623   -6.2552519    107.50859  0.038123613  0.040042468            5 
  236000    1.1619592    -6.281123    107.63028  0.038005041  0.040017701            2 
  237000    1.1549215    -6.247253    108.21279  0.038049505  0.039992989            9 
  238000    1.1838303   -6.2779934    108.34675  0.037936538  0.039969407            4 
  239000    1.1668069   -6.2421869    109.03161  0.038016601  0.039943673            4 
  240000    1.1752752    -6.271781    109.23333  0.037928241  0.039917842            4 
  241000    1.1580181   -6.2425886    109.70922  0.037935414  0.039891984            2 
  242000    1.1472289   -6.2644602    110.58677  0.038080842   0.03986833            3 
  243000    1.1485553    -6.294256    110.34799  0.037842245  0.039841755            9 
  244000    1.1476228   -6.2594541    110.65873  0.037793282  0.039814614            3 
  245000    1.1880738     -6.23636    110.81933  0.037693651  0.039787846            5 
  246000    1.1350781   -6.2615017    111.87758   0.03789891  0.039761775            4 
  247000    1.1283158   -6.2798667    111.69851  0.037685056  0.039734897            2 
  248000    1.1448835   -6.3118731    112.62497  0.037844411   0.03970795            6 
  249000    1.1498715   -6.2912116    113.20033  0.037884984  0.039682399            1 
  250000    1.1496288   -6.2598258    113.46167  0.037820557  0.039657894            3 
  251000    1.1351968   -6.2980704    113.98243  0.037842773  0.039633643            2 
  252000     1.176575   -6.2269857    114.40441  0.037832145  0.039608986            2 
  253000    1.1437009   -6.2709712    114.37412  0.037672635  0.039584655            4 
  254000     1.151301   -6.2205623    114.96362  0.037717722  0.039559451            2 
  255000     1.162147   -6.2799808    115.51891  0.037751276  0.039535451            2 
  256000    1.1466306   -6.2646116    116.53548  0.037934727  0.039512917            3 
  257000    1.1280777    -6.288618     116.3416  0.037724254  0.039489293            2 
  258000    1.1499324   -6.2470994    116.27908  0.037557842  0.039462792            3 
  259000    1.1129038   -6.2562258    117.47589  0.037797905  0.039436931            8 
  260000    1.1371852   -6.3138679    117.47813  0.037653247  0.039411813            5 
  261000    1.1415149   -6.2683338    117.97829  0.037668674  0.039387677            2 
  262000    1.1236287   -6.2913633    118.25857  0.037614049  0.039363203            4 
  263000    1.1523199   -6.3041521    118.96182  0.037693861  0.039339606            6 
  264000    1.1055776    -6.285371    119.82215  0.037822647  0.039319244            5 
  265000    1.1354435   -6.2883713    119.56899  0.037600312  0.039297322            6 
  266000    1.1474024   -6.2948288    119.91504  0.037567367  0.039275259            8 
  267000     1.118401   -6.2645691    120.70902  0.037674475  0.039253504            4 
  268000    1.1642252   -6.3261314    120.88975  0.037590097  0.039231657            5 
  269000    1.1448255   -6.3089717    121.82265  0.037739359  0.039210928            5 
  270000     1.131895    -6.306777     122.3629  0.037766328  0.039189531            4 
  271000    1.1614939   -6.2699223    122.58632  0.037695669  0.039168099            1 
  272000    1.1408716    -6.277211    122.76331  0.037611307  0.039147163            2 
  273000    1.1558233   -6.3038157    123.20346  0.037607894  0.039126879            4 
  274000     1.163052   -6.3195191    123.30747  0.037502272  0.039106483            3 
  275000    1.1456257   -6.3074286    123.45705  0.037411227  0.039084919            4 
  276000    1.1090565   -6.3182941     124.2637  0.037519232  0.039064349            2 
  277000    1.1520711   -6.2786995    125.08468   0.03763077  0.039043342            7 
  278000    1.1600817   -6.2989823    125.18218  0.037524636  0.039023201            3 
  279000    1.1424721    -6.314183    125.89187  0.037602113  0.039003488            5 
  280000    1.1726478   -6.2636038     126.5555  0.037665327  0.038984069            4 
  281000    1.1487228   -6.2744042     126.4828  0.037509727  0.038963868            4 
  282000    1.1196287   -6.2791223    126.88516  0.037495615  0.038943472            5 
  283000    1.1639081   -6.2904324    127.47549  0.037536951  0.038924522            2 
  284000     1.146062   -6.2834714    127.66427  0.037460173  0.038904762            3 
  285000    1.1495072   -6.2861937    128.21558  0.037489935  0.038886804            2 
  286000    1.1246431   -6.2977278    128.57221  0.037462765  0.038868891            3 
  287000    1.1252009   -6.3135394    129.24838  0.037528565  0.038849931            5 
  288000    1.1419905   -6.3189171     129.6097  0.037502805  0.038831833            2 
  289000    1.1570902   -6.2769341    129.83008  0.037436585  0.038814158            2 
  290000    1.1357444   -6.3012787     130.4558    0.0374873  0.038795866            3 
  291000    1.1308749   -6.2735029     131.0255  0.037521621  0.038777387            5 
  292000    1.1144644   -6.2800689    131.62562  0.037564389  0.038760269            4 
  293000    1.1450022    -6.278713    132.16061  0.037588342  0.038742507            3 
  294000    1.1282737   -6.2815486    131.73662  0.037340312  0.038724709            2 
  295000    1.1387117   -6.3267123    132.47447  0.037422166  0.038705183            2 
  296000    1.1058937   -6.3227638    132.84236  0.037399314  0.038685018            3 
  297000    1.1203479   -6.3235924    133.23738  0.037384225  0.038666246           10 
  298000    1.1263603   -6.3391416    134.12116  0.037505916  0.038648947            4 
  299000    1.1546916   -6.2995809    134.76826   0.03756083   0.03863307            3 
  300000    1.1402434   -6.3538921    134.76778  0.037435495  0.038617613            2 
  301000    1.0915668   -6.3039995    135.38981  0.037483335  0.038602808            4 
  302000    1.1222128   -6.3024741     135.4934  0.037387803  0.038587075            3 
  303000     1.133319   -6.3115873    136.81373   0.03762754  0.038572188            2 
  304000    1.1237425    -6.314415    136.99534  0.037553548  0.038558252            2 
  305000    1.1170911   -6.3458271    137.42306  0.037547284  0.038544818            4 
  306000    1.1200408   -6.3265266    137.72477  0.037506746  0.038530627            1 
  307000    1.1575657   -6.3283938    137.94197  0.037443531  0.038516763            4 
  308000     1.136502   -6.2847203    138.60638  0.037501727  0.038503751            4 
  309000    1.1089791   -6.3474365    139.28012   0.03756206  0.038491593            2 
  310000    1.1545903   -6.3195028      139.949  0.037620699  0.038480197            2 
  311000    1.1229174   -6.3633771    140.07193  0.037532672  0.038467675            3 
  312000    1.1405565   -6.2751778    140.70251  0.037580798  0.038456217            2 
  313000     1.129494   -6.3059674    141.39737  0.037645732  0.038446047            5 
  314000    1.1078543    -6.317435    141.83759  0.037642674  0.038437967            3 
  315000    1.1289543   -6.3525215     142.6211  0.037730449   0.03843036            5 
  316000    1.1130034   -6.3723312    142.75376  0.037646033  0.038422023            3 
  317000    1.1033544    -6.339046    142.94015  0.037576276   0.03841278            4 
  318000    1.1586077   -6.3245919     143.4128   0.03758197  0.038403364            3 
  319000    1.1115827   -6.3491053    144.38569   0.03771831  0.038395531            3 
  320000     1.148678   -6.3320648    144.31883  0.037583029  0.038387869            3 
  321000    1.1296739   -6.3404583    144.88214  0.037612186  0.038378893            2 
  322000    1.1233621   -6.3307916    144.87044  0.037492349  0.038369793            4 
  323000    1.1361019   -6.3178022    145.81389  0.037619683  0.038360266            5 
  324000     1.133487   -6.3573414    146.06614  0.037568451  0.038349657            4 
  325000    1.1145769   -6.3235198    146.46777  0.037555838  0.038338717            4 
  326000     1.099658   -6.3438663    146.86643  0.037542543  0.038328056            5 
  327000    1.1230709    -6.353629    147.14577  0.037498922  0.038317675            3 
  328000    1.1315846   -6.3108043    148.02663  0.037608393  0.038308107            5 
  329000    1.1233302   -6.3112191    149.01709  0.037744956  0.038300079            4 
  330000    1.1251365   -6.3523683    148.40067  0.037474916  0.038291658            3 
  331000    1.0912342   -6.3481463     148.3223   0.03734197  0.038280282            3 
  332000    1.0995298   -6.3693214    148.74692  0.037336075  0.038268207            3 
  333000    1.1298869   -6.3367021    149.07563  0.037306214  0.038255892           12 
  334000    1.1273555   -6.3566885    149.20404  0.037226558  0.038242951            5 
  335000    1.0977048   -6.3405822    149.65727  0.037228177  0.038228806            3 
  336000    1.1157544   -6.3231141    150.02734  0.037209162  0.038214031            2 
  337000    1.1500948   -6.3441621    150.21586  0.037145366  0.038199095            4 
  338000    1.1072876   -6.3265279    151.63224  0.037384674  0.038185954            2 
  339000    1.1038262   -6.3444895    151.75287  0.037304048  0.038173489            2 
  340000     1.103006    -6.376655    151.87745  0.037224864  0.038160064            2 
  341000    1.1169463   -6.3391194    152.57204  0.037285446  0.038147653            3 
  342000     1.134137   -6.3875389    152.95553  0.037269865  0.038134613            2 
  343000    1.1336614   -6.3327096     153.0248  0.037178036  0.038121636            3 
  344000    1.1216712   -6.3275745    154.05622   0.03731982  0.038108037            2 
  345000    1.1182312   -6.3438526    153.62769  0.037108138  0.038094011            3 
  346000    1.1182994   -6.3336124    153.38876  0.036943342   0.03807714            2 
  347000    1.1014929     -6.34055    153.77739  0.036930208  0.038059569            6 
  348000    1.1048422    -6.358254    154.15443  0.036914375  0.038041768            5 
  349000    1.1248078    -6.339183    154.89931  0.036986463  0.038025188            2 
  350000    1.1350361   -6.3428331    155.26829  0.036968641  0.038008017            4 
  351000    1.1003779     -6.36559     155.6776  0.036960494  0.037990581            5 
  352000    1.1372504   -6.3487151    155.34318  0.036776321  0.037973182            2 
  353000    1.1253749    -6.318117     156.1756  0.036868649  0.037954171            2 
  354000    1.1092184   -6.3438141    156.24239  0.036780223  0.037935291            2 
  355000    1.1551386   -6.3419862    156.29487  0.036688937   0.03791592            6 
  356000    1.1043171   -6.3076238    156.75814  0.036694321  0.037895995            2 
  357000    1.0962872   -6.3759283    156.79124  0.036599263  0.037875373            1 
  358000    1.1209195   -6.3166152    157.69974  0.036708505  0.037855291            4 
  359000    1.1161682   -6.3632773    157.74959  0.036617824  0.037834947            2 
  360000    1.1180577   -6.3388247    158.35188  0.036655527  0.037815252            3 
  361000    1.1515278   -6.3835764    158.45319  0.036577375  0.037794279            6 
  362000    1.1075412   -6.3758776    158.89782  0.036578687  0.037773737            5 
  363000    1.0906618   -6.3741694      159.468  0.036608816  0.037753372            1 
  364000    1.1139067   -6.3210018    159.57423  0.036532561  0.037732503            2 
  365000    1.1227721   -6.3545085    160.19346   0.03657385  0.037711909            3 
  366000    1.0967837   -6.3562597    160.18349   0.03647165  0.037691129            3 
  367000    1.1206112   -6.3714309    160.18853  0.036373416  0.037669921            8 
  368000    1.1041932   -6.3448169    160.59445  0.036366496  0.037649123            5 
  369000    1.1235649   -6.3467974    161.39827  0.036449473  0.037629744            1 
  370000     1.114968   -6.3569036    162.82079  0.036671348  0.037611333            3 
  371000    1.1025631   -6.3718099    162.55974  0.036513868  0.037593122            4 
  372000    1.1024577   -6.3718937    162.63599  0.036432793  0.037574511            6 
  373000    1.1095111   -6.3165144    163.77924  0.036590536  0.037555463            3 
  374000    1.1028911   -6.3579542    163.44153  0.036417452  0.037538009            3 
  375000    1.0918255   -6.3605847    164.20739  0.036490532  0.037520028            4 
  376000    1.1322819   -6.3878014    164.42123  0.036440876  0.037501684            2 
  377000    1.0980541   -6.3701105    164.75485  0.036417961  0.037483708            7 
  378000    1.1128787   -6.3622509    165.08152  0.036393634  0.037465128            3 
  379000    1.1047154   -6.3576674    165.11871  0.036305786  0.037446152            4 
  380000    1.1250234   -6.3554705     166.0246  0.036408903   0.03742733            3 
  381000    1.0785154   -6.3429405    166.68994  0.036458867  0.037409755            4 
  382000    1.1075152   -6.3738074    166.72013   0.03637001  0.037392236            2 
  383000    1.1033953   -6.3548263    166.90024  0.036314237  0.037374134            2 
  384000    1.0749806   -6.3793424    167.36983  0.036321579  0.037355113            5 
  385000    1.0805283   -6.3780131    167.93818  0.036350256  0.037336917            5 
  386000    1.0810609   -6.3388553    168.79054  0.036440099  0.037320289            4 
  387000    1.1275946   -6.3826821    168.78842  0.036345483  0.037303834            8 
  388000    1.0809419   -6.4082341    169.60027  0.036426175  0.037286682            2 
  389000    1.1067183   -6.3681813    169.62326  0.036337459   0.03726944            3 
  390000    1.0854756   -6.3853741    169.91829  0.036307327  0.037251805            2 
  391000    1.0927808   -6.3600728    169.70444  0.036168891  0.037234337            2 
  392000    1.0927956   -6.3626184    170.63949  0.036275403   0.03721645            5 
  393000    1.1206099    -6.391017    170.83196   0.03622391  0.037198596            3 
  394000    1.1186681   -6.3509173    171.25097  0.036220594  0.037180777            7 
  395000    1.1051503   -6.4109952    171.01772  0.036079688  0.037162137            3 
  396000    1.1049324   -6.3740458    171.82398  0.036158244  0.037143119            4 
  397000    1.0750647   -6.3928418    172.29154   0.03616531  0.037124331            3 
  398000    1.1112245   -6.3730671    172.05615  0.036025158  0.037104474            2 
  399000     1.097621   -6.3983902    172.41102  0.036008984  0.037085617            6 
  400000    1.0998892   -6.3983185    173.53567  0.036153265  0.037068381            6 
  401000    1.1089846   -6.3959926    173.67064  0.036091155   0.03705068            7 
  402000    1.0782705   -6.3706218    174.91275  0.036258863  0.037032883            8 
  403000    1.0896948   -6.3931443    174.11285  0.036003485  0.037015735            2 
  404000     1.098991   -6.3855631    175.10333  0.036118674  0.036999017            3 
  405000    1.0881711   -6.3810666    175.70176  0.036152625  0.036981294            5 
  406000     1.085541   -6.4316755    175.36153  0.035993745  0.036963403            4 
  407000    1.0880162   -6.4382572    175.42645  0.035918602  0.036945013            3 
  408000    1.0959383   -6.3930547    175.83254  0.035913508  0.036926637            6 
  409000    1.0794893   -6.3969244    175.96377   0.03585244  0.036908079            3 
  410000    1.1056589   -6.3853711    176.92006  0.035959362  0.036889049            2 
  411000    1.0994854    -6.414842    176.69305  0.035825841  0.036869743            3 
  412000     1.104283   -6.3895089    177.44134  0.035890238   0.03684956            5 
  413000    1.0908707   -6.3829375    177.22893  0.035760478  0.036830625            3 
  414000    1.0844548   -6.4054191    178.38439   0.03590668  0.036811681            5 
  415000    1.0974347   -6.3887199    178.80953  0.035905529  0.036792959            4 
  416000    1.0831818   -6.4090622    178.88232  0.035833798  0.036774952            3 
  417000    1.1139121   -6.4120545    179.30048  0.035831431  0.036756577           13 
  418000    1.0818273   -6.3777998    179.85141  0.035855545  0.036737737            3 
  419000    1.0875815    -6.377275    179.94681  0.035788944  0.036719093            7 
  420000    1.0608092   -6.4226837    180.28994  0.035771813    0.0366998            3 
  421000    1.0858445   -6.4421744    179.63101  0.035556415  0.036680452            3 
  422000    1.0866145   -6.4186449    180.82939  0.035708805  0.036660393            2 
  423000    1.1070773   -6.4052786    180.25952   0.03551212  0.036640985            5 
  424000    1.0694103   -6.3771283    181.32728  0.035638224   0.03662098            3 
  425000    1.0936336   -6.4094012    181.53898  0.035595878  0.036601151            7 
  426000    1.1038356   -6.4180824     181.7706  0.035557628   0.03658119            3 
  427000    1.0652709   -6.4098253     182.3484  0.035587119  0.036561422            6 
  428000    1.0800614   -6.4099932    181.74742  0.035386959  0.036540098            4 
  429000     1.094894    -6.389227    183.22647  0.035591778  0.036519215            3 
  430000    1.0822106   -6.4020911    182.71039   0.03540899  0.036498136            4 
  431000    1.0724514   -6.4097145    183.05462  0.035393391  0.036477488            7 
  432000    1.0895088   -6.4236501    183.46979   0.03539155  0.036457014            3 
  433000    1.0870559   -6.3810563    183.56522  0.035328179  0.036435632            3 
  434000    1.0919736   -6.3898269    184.46638  0.035419811  0.036414792            4 
  435000    1.0635913   -6.4009272    184.54523  0.035353492  0.036393373            7 
  436000    1.0521983   -6.4241229     184.9308  0.035346101  0.036371852            3 
  437000    1.0733805   -6.3682791    185.54937  0.035383175  0.036351438            1 
  438000    1.0847043   -6.4117013    186.17903  0.035422189  0.036330988            4 
  439000    1.0839581   -6.3951096    185.85604   0.03528019   0.03631071            3 
  440000    1.0891293   -6.4408509    186.33374  0.035290481  0.036290128            4 
  441000    1.0693203   -6.4022899     186.0869  0.035163813  0.036268876            3 
  442000    1.0703449   -6.4450908    187.07804  0.035271123  0.036247705            5 
  443000    1.0778691   -6.4514656    186.29906   0.03504497  0.036225263            5 
  444000    1.0946247   -6.4050522    187.35754  0.035164703  0.036203666            5 
  445000    1.0802711   -6.3700084     187.8865  0.035184738  0.036182524            3 
  446000    1.0997703   -6.4044776    188.02592  0.035131897    0.0361612            3 
  447000    1.1152565   -6.4514448    187.33619  0.034924718  0.036139187            4 
  448000    1.0557521    -6.421807    188.02613  0.034975098  0.036116773            5 
  449000    1.0912514   -6.4290175    188.59042  0.035001935  0.036093825            4 
  450000    1.0900977   -6.4029364    189.30474  0.035056433  0.036071734            5 
  451000     1.081359    -6.440984    188.86867  0.034898128  0.036049938            4 
  452000    1.0721318   -6.4418023    189.69092  0.034972514  0.036027789            1 
  453000    1.0790857   -6.4484404    190.00961  0.034953938    0.0360058            3 
  454000     1.075761   -6.4114145    190.42121  0.034952497  0.035984188            3 
  455000    1.0666934   -6.4394397    191.05625  0.034991987  0.035962951            5 
  456000    1.0837294   -6.4197822     191.3179  0.034963067  0.035942684            2 
  457000    1.0874405   -6.4432683    191.82329  0.034978718  0.035922379            5 
  458000    1.0501936   -6.4058517    192.47152   0.03502029  0.035902278            6 
  459000    1.0596613   -6.4573313    191.66918  0.034798326   0.03588181            4 
  460000    1.0824421   -6.4281135    192.49947  0.034873092  0.035861874            5 
  461000    1.0800295   -6.4147148     193.5461  0.034986642  0.035842209            4 
  462000    1.0581213   -6.4156723    193.60714  0.034921923  0.035822277            3 
  463000    1.0770185   -6.4401782     193.9453  0.034907361  0.035801711            4 
  464000    1.0560841   -6.4368336    193.49186  0.034750693  0.035780655            4 
  465000    1.0612907   -6.4446274    194.03605  0.034773486  0.035759382            8 
  466000    1.0479098   -6.4448159    194.85498  0.034845311  0.035738601            3 
  467000    1.0601278   -6.4536112    194.59378  0.034724086  0.035717625            8 
  468000    1.0831803   -6.3941075    195.00725  0.034723512  0.035696211           12 
  469000    1.0655031   -6.4208572    195.50152    0.0347373  0.035675527            6 
  470000    1.0434865    -6.443094    196.73487  0.034882068  0.035654633            4 
  471000    1.0619362   -6.4416035    195.87644  0.034656129  0.035634303            4 
  472000    1.0316359   -6.4379066     196.5578  0.034703002  0.035614403            5 
  473000    1.0652589   -6.4427199    196.82348  0.034676441  0.035594419            4 
  474000    1.0615797   -6.4428751    197.30449   0.03468785  0.035573938            3 
  475000    1.0333453   -6.4347151    197.58945  0.034664817  0.035554109            3 
  476000    1.0503259   -6.4238779    197.67775  0.034607449  0.035533463            3 
  477000     1.081487   -6.4423772    198.39733  0.034660609  0.035512724            2 
  478000    1.0463008   -6.4307168    197.95859  0.034511609  0.035492398            4 
  479000    1.0665763    -6.437048     198.6043  0.034551896  0.035471672            3 
  480000    1.0542089   -6.4529458    198.89516   0.03453041  0.035450693            3 
  481000    1.0729783   -6.4695471    199.47896  0.034559765  0.035429854            9 
  482000    1.0414532   -6.4626335    199.48649  0.034489366  0.035409318            4 
  483000    1.0741344   -6.4403896    199.57365  0.034432996  0.035388738            3 
  484000    1.0559734    -6.468954    200.56203   0.03453203  0.035368732            3 
  485000    1.0814478   -6.4308294    200.85548  0.034511251   0.03534831            4 
  486000    1.0657584   -6.4889594    200.51719  0.034382234  0.035327361            3 
  487000    1.0480831   -6.4329024    201.15823  0.034421327   0.03530697            5 
  488000    1.0746289   -6.4928128    200.96748  0.034318216  0.035285839            2 
  489000    1.0745672   -6.4531507    201.42743  0.034326419  0.035264322            4 
  490000    1.0571336   -6.4430113    200.85151   0.03415842  0.035242855            3 
  491000    1.0718087   -6.4757426    201.36486  0.034175978  0.035221367           10 
  492000    1.0260363   -6.4060741    202.76886  0.034344318  0.035200319            7 
  493000    1.0574416   -6.4682188    202.32895  0.034200296  0.035178977            5 
  494000    1.0726399   -6.4590627    202.79475  0.034209641  0.035157495            5 
  495000    1.0460198   -6.4487089    202.79393  0.034140393  0.035135851            5 
  496000    1.0422974   -6.4658128     203.0235  0.034110131  0.035113832            3 
  497000     1.044799   -6.4656169    203.51344  0.034123649  0.035091989            3 
  498000    1.0774937   -6.4622172     203.5764  0.034065662  0.035070417            4 
  499000    1.0568408   -6.4558066     203.9289  0.034056262  0.035048074            3 
  500000    1.0639176   -6.4477041    204.41981  0.034069968  0.035025918            4 
  501000    1.0551205   -6.4344805    204.61203  0.034033937  0.035003105            2 
  502000    1.0571715   -6.4277173    204.51932  0.033950749  0.034980361            8 
  503000    1.0432985   -6.4290295    205.16027  0.033989442  0.034957898            3 
  504000     1.032549   -6.4784346    204.33883  0.033786183  0.034934621            6 
  505000    1.0565382   -6.4532936    205.26102  0.033871455  0.034911327            2 
  506000    1.0502597   -6.4679963    205.91571  0.033912337  0.034888375            5 
  507000      1.05058    -6.455511    206.13913  0.033882172  0.034865716            4 
  508000    1.0550165   -6.4686604    206.39025  0.033856668   0.03484301            2 
  509000    1.0530764   -6.4216852    207.29539  0.033938342  0.034821462            4 
  510000     1.053589   -6.4739522    207.17674  0.033852408  0.034800285            2 
  511000    1.0590679   -6.4730844    207.03537  0.033763107  0.034778206            4 
  512000    1.0549243   -6.4877029    208.43164  0.033924421  0.034756343            5 
  513000    1.0368768   -6.4734281    208.52538  0.033873519  0.034734749            3 
  514000    1.0573285   -6.4537858    208.30319  0.033771593  0.034712742            5 
  515000    1.0306308   -6.4731589    208.71327  0.033772373  0.034690251            9 
  516000    1.0567707   -6.5051347    209.75995  0.033875961  0.034668817            2 
  517000    1.0446057    -6.474914    209.93132   0.03383806  0.034647759            4 
  518000    1.0556075   -6.4958227    210.47034   0.03385945  0.034626944            4 
  519000    1.0507121   -6.4633711    211.05943  0.033888797  0.034606601            3 
  520000    1.0449638   -6.4696219    210.86125  0.033791867  0.034586636            8 
  521000    1.0530341   -6.4796978    211.15888  0.033774613  0.034566505            2 
  522000    1.0510661   -6.4531821    211.48199  0.033761492  0.034545868            4 
  523000    1.0496761   -6.4886401    211.45664    0.0336929  0.034525553            4 
  524000    1.0274632   -6.4770399    211.56697  0.033646146  0.034504747            7 
  525000     1.060163   -6.4686597    211.67739  0.033599585  0.034483661            3 
  526000     1.025102   -6.4693717    212.20226  0.033618862  0.034461953            6 
  527000    1.0363846   -6.4803491    211.56531   0.03345435  0.034440604            7 
  528000    1.0417131   -6.4503638    212.80901  0.033587281  0.034419557            3 
  529000    1.0344633   -6.4566147     213.9807  0.033708364  0.034398716            2 
  530000    1.0300421    -6.501127    213.33398  0.033543079  0.034377621            3 
  531000    1.0264697   -6.5191859    213.49813   0.03350567  0.034356302            5 
  532000    1.0570162   -6.4898314    213.77555  0.033486145  0.034334674            4 
  533000    1.0446564   -6.4893728    213.83037  0.033431891  0.034313362            5 
  534000     1.020048   -6.5072683    214.09028  0.033409843  0.034291715            4 
  535000    1.0310596   -6.4707453    214.50023  0.033411251  0.034270831            6 
  536000    1.0221701   -6.4953257      215.337  0.033479011  0.034249926            4 
  537000    1.0451723   -6.5344362    215.22987  0.033400041   0.03422915            3 
  538000    1.0497732   -6.4716533    216.03977   0.03346341  0.034208416            4 
  539000    1.0398941   -6.5120666    216.49233  0.033471295  0.034188305            3 
  540000    1.0260023   -6.4766209    216.69231  0.033440171  0.034168304            4 
  541000    1.0452812   -6.4656107    217.80665  0.033550008   0.03414865            9 
  542000    1.0385297   -6.4987897     217.4098   0.03342709  0.034128769            6 
  543000    1.0338502    -6.474612    218.08865  0.033469713  0.034108865            5 
  544000    1.0631088   -6.4874437    218.07281  0.033405761  0.034088377            7 
  545000    1.0522327   -6.4693248     218.1138  0.033350733  0.034068124            4 
  546000    1.0340697   -6.4881562    218.79316  0.033393339  0.034047952            2 
  547000    1.0600087   -6.4809326    218.97541  0.033360056  0.034027875            5 
  548000    1.0284024   -6.4744575    219.33067  0.033353204  0.034008129            4 
  549000    1.0475032   -6.4790156    219.48753  0.033316261  0.033988386            6 
  550000    1.0244649     -6.51838    219.13863  0.033202822  0.033968277            2 
  551000    1.0378569   -6.5193007    219.27343  0.033162951  0.033948016            5 
  552000    1.0321323   -6.5284797    219.91419  0.033199605  0.033927431            6 
  553000    1.0095271    -6.486023    220.25981  0.033191653  0.033906913            3 
  554000    1.0295801   -6.4909523    220.75663  0.033206473  0.033886653            8 
  555000    1.0393877   -6.4977252    221.04725  0.033190278  0.033867232            2 
  556000   0.99186917   -6.4863666    221.65661  0.033221913  0.033847854            4 
  557000    1.0361062   -6.4706946    221.53173  0.033143587   0.03382824            5 
  558000    1.0244159   -6.5012091    221.07351  0.033015757  0.033808079            4 
  559000    1.0433864   -6.5171637    221.66501  0.033044873  0.033787557           10 
  560000    1.0541178   -6.4903988    222.21706  0.033068015  0.033767292            3 
  561000    1.0558124   -6.4910212    222.74735  0.033087842  0.033746935            4 
  562000    1.0323289   -6.4741383    224.05953  0.033223536  0.033727572            4 
  563000    1.0475988   -6.5016641    223.56767  0.033091721  0.033708293            8 
  564000    1.0372987   -6.5347308    223.54675  0.033029958  0.033688593            4 
  565000    1.0427671   -6.5220602    223.29716  0.032934684   0.03366862            5 
  566000    1.0557717   -6.5250334    223.65123  0.032928627  0.033648517            4 
  567000    1.0482078   -6.5209669    224.55391   0.03300322   0.03362897            7 
  568000    1.0156244   -6.4983972    224.67076   0.03296226  0.033608902            3 
  569000    1.0358772    -6.465845     225.3307  0.033000981  0.033589323            7 
  570000    1.0279239   -6.4790468    225.89282  0.033025266  0.033569833            2 
  571000    1.0315778   -6.5060669    225.18823  0.032864599  0.033550143            5 
  572000    1.0060461   -6.4935967    225.26367  0.032818134  0.033530347            3 
  573000    1.0457872   -6.4872329    227.11085  0.033029501  0.033510701            4 
  574000   0.99556138   -6.4998642    226.60454  0.032898453    0.0334916            3 
  575000    1.0116235   -6.5105826     227.1804  0.032924696  0.033472317           13 
  576000    1.0233029    -6.497883    227.10373  0.032856443  0.033452866            7 
  577000    1.0239641   -6.5146173     227.5373  0.032862117  0.033433646            3 
  578000    1.0183881   -6.5312697    227.96093   0.03286634   0.03341459            8 
  579000    1.0209557   -6.5200495    227.85602  0.032794476  0.033395293            4 
  580000    1.0213382   -6.5185042     228.6552  0.032852759  0.033376324            6 
  581000    1.0507134    -6.493825    228.59705  0.032787872  0.033357049            3 
  582000   0.99714547   -6.5308241    228.65805  0.032740271  0.033337394            3 
  583000    1.0198371    -6.508117    228.60978  0.032677213  0.033317261            5 
  584000    1.0331412   -6.5318211    229.66811  0.032772275  0.033297207            4 
  585000    1.0300093   -6.5211744    229.75861  0.032729147  0.033277432            3 
  586000     1.026095   -6.5108341     229.7249  0.032668501   0.03325727            6 
  587000    1.0469692    -6.504883    229.92452  0.032641187  0.033236966            5 
  588000    1.0088321   -6.5194885    229.94775  0.032588967  0.033216648            7 
  589000     1.006265   -6.5659925    230.20843   0.03257052  0.033196452            8 
  590000    1.0171176    -6.503149    230.95702  0.032621048  0.033176576            4 
  591000    1.0275704   -6.5123257    231.37275  0.032624471  0.033157335            3 
  592000    1.0272953    -6.569894    231.17989  0.032542214  0.033137691            5 
  593000    1.0365111   -6.5135766    231.63883  0.032551831  0.033118139            3 
  594000    1.0213647   -6.5371726    232.02512  0.032551223  0.033098735            8 
  595000    1.0334552   -6.5397622    232.65216  0.032584337  0.033079317            3 
  596000    1.0127418   -6.5518583    232.32538  0.032483973  0.033059575            8 
  597000    1.0333838    -6.516305    233.41036   0.03258101  0.033040166            7 
  598000   0.99704575   -6.5578502    232.25278  0.032365215  0.033020487            6 
  599000    1.0088201   -6.5374462    233.71343   0.03251439  0.033001178            4 
  600000    1.0341244   -6.5364774    233.33805  0.032408063  0.032981734           10 
  601000    1.0066369   -6.5516076    233.15613  0.032328914  0.032961996            3 
  602000    1.0278532    -6.546763    233.29026  0.032293779  0.032942381            5 
  603000    1.0021266   -6.5096046     234.3922   0.03239251  0.032923457            4 
  604000    1.0222601   -6.4905477    235.18654  0.032448475  0.032904699            4 
  605000   0.98760469   -6.5282064    235.32384  0.032413752  0.032886201            6 
  606000    1.0106149    -6.523098    236.09666  0.032466537  0.032867496            4 
  607000    1.0088722   -6.5547272    235.25028  0.032296853  0.032848892            3 
  608000    1.0024579   -6.5335351    235.99084  0.032345236  0.032830074            5 
  609000    1.0104979   -6.5766278    235.47402  0.032221404  0.032811336            4 
  610000   0.99743882   -6.5600657    237.06164   0.03238547  0.032792338            5 
  611000   0.99772816    -6.531912    236.40983  0.032243567  0.032773511            3 
  612000    1.0102453    -6.526563    237.13443  0.032289546  0.032754785            3 
  613000    1.0232025   -6.5289492    237.47793  0.032283569  0.032735967            6 
  614000    1.0115804   -6.5456203    237.58393  0.032245376  0.032717298            6 
  615000    1.0172855   -6.5447913    237.53176  0.032185875  0.032698359            3 
  616000   0.99422772   -6.5398152    237.89101  0.032182225  0.032679761            3 
  617000    1.0043807   -6.5329542    239.11519  0.032295406    0.0326607            5 
  618000    1.0083121   -6.5565513    238.49323  0.032159281  0.032641816            8 
  619000    1.0119479   -6.5237856     238.4479  0.032101226  0.032623062            4 
  620000    1.0057622   -6.5529979     238.8159  0.032098912  0.032603883            3 
  621000    1.0021186   -6.5315219    239.08404  0.032083204  0.032584641            5 
  622000   0.99708476   -6.5380429    239.32042  0.032063293  0.032565439            7 
  623000    1.0029713   -6.5587806    239.27973  0.032006384  0.032546379            3 
  624000    1.0058923   -6.5572381    239.91315  0.032039683  0.032527699            5 
  625000    0.9932452   -6.5414412    239.98172  0.031997562  0.032508505           10 
  626000    1.0107285   -6.5026253    240.02275  0.031951911  0.032489721            3 
  627000   0.98123017   -6.5798387    240.67124   0.03198714  0.032470899            8 
  628000    1.0192592   -6.5626326    240.76514  0.031948665   0.03245203            4 
  629000     1.009364   -6.5421679    241.71755  0.032024052   0.03243359            5 
  630000    1.0225042   -6.5446049    242.04797  0.032016928  0.032415263            5 
  631000   0.96928896   -6.5793835    241.94412  0.031952472  0.032396841            4 
  632000   0.98244909   -6.5711359    242.57564  0.031985185  0.032378449            4 
  633000   0.99302965   -6.5363518    242.80476  0.031964818  0.032360226            1 
  634000   0.98920424   -6.5271313    243.74739  0.032038301   0.03234206            6 
  635000   0.98932652   -6.6179014     242.4202  0.031813675  0.032323752            4 
  636000    1.0009055   -6.5720972    243.68377  0.031929215  0.032305145            3 
  637000    1.0072221   -6.5833923    243.38439  0.031839926  0.032286498            3 
  638000    1.0006126    -6.573503    243.68029  0.031828669   0.03226811            4 
  639000   0.99598382   -6.5410537    245.14643  0.031970062   0.03225013            3 
  640000   0.98018444   -6.5273244    245.16692  0.031922777  0.032232218            5 
  641000    1.0084195   -6.5506891    244.81094  0.031826695  0.032214333            4 
  642000   0.99820153   -6.5581696    245.60526  0.031880225   0.03219675            6 
  643000   0.99802897   -6.5730978    246.78789  0.031983915  0.032179412            5 
  644000   0.99656277   -6.5824753     246.7505  0.031929412  0.032162092            4 
  645000    1.0182539   -6.5773655    246.78474  0.031884334  0.032144845            8 
  646000   0.98593408   -6.5705041    247.39823  0.031914116  0.032127673            4 
  647000    1.0047913   -6.5677911    247.04571  0.031819386  0.032110575            4 
  648000   0.99831921   -6.5754504    246.93872  0.031756523  0.032092888            3 
  649000   0.99710796    -6.564561    246.93595  0.031707235  0.032075172            9 
  650000    1.0053882   -6.5582692    248.36962  0.031842259  0.032057835           10 
  651000   0.98068784   -6.5496991    248.22197  0.031774446  0.032041066            2 
  652000    1.0006921   -6.5757815    247.79559  0.031671216  0.032024232            7 
  653000   0.98873911   -6.5841446    248.09824  0.031661338  0.032006962            3 
  654000   0.99747164   -6.5987185    249.51052   0.03179288  0.031989817            3 
  655000   0.99830585   -6.5619578    248.99651  0.031678945  0.031972776            6 
  656000   0.97810607   -6.5966948    249.70212   0.03172029  0.031955617            7 
  657000   0.97983968   -6.5653732    250.23885  0.031740087  0.031938438            4 
  658000   0.99358503   -6.5764261    250.11971  0.031676762  0.031921655            6 
  659000   0.97827257   -6.5705191    250.48607  0.031675021  0.031904525            3 
  660000    1.0166878   -6.5734668    249.52728  0.031505969  0.031887084            4 
  661000   0.99576879   -6.5509173    250.70415  0.031606675   0.03186964            4 
  662000   0.97855124   -6.5706259    250.84024  0.031576062  0.031852304            2 
  663000   0.98817186   -6.5736671    250.69667   0.03151039  0.031835112            4 
  664000   0.95626923   -6.5924039    251.18765  0.031524555  0.031817633            4 
  665000    1.0221163   -6.5475141    250.96191  0.031448861  0.031800444            6 
  666000   0.99846978   -6.5753861    251.85734  0.031513682  0.031783391            5 
  667000   0.98633177    -6.566139    252.44999  0.031540479  0.031766405            5 
  668000   0.98346568   -6.5734993    252.69958  0.031524399  0.031749771            5 
  669000   0.98059857   -6.6064936    252.69082  0.031476185  0.031732765            3 
  670000   0.98658856   -6.5636771    252.96577  0.031463404  0.031716008            6 
  671000    1.0008525   -6.5855893    253.64263  0.031500575  0.031699143            4 
  672000   0.99112331   -6.5963629    253.18608  0.031397083  0.031681986            3 
  673000   0.98069374   -6.5884825    254.08763  0.031462064  0.031664694            3 
  674000   0.99102903   -6.6195008    253.48219  0.031340528  0.031647485            5 
  675000   0.99300946    -6.593549    253.86722  0.031341631  0.031630182            3 
  676000   0.98115983   -6.5887087    254.25674  0.031343287  0.031612964            3 
  677000   0.97601291   -6.6091026    254.12919  0.031281289   0.03159577            4 
  678000   0.99428496    -6.604915    254.68464  0.031303422  0.031578756            3 
  679000   0.97468217   -6.5966297    255.25974  0.031327902    0.0315619            6 
  680000   0.98108418   -6.6058291    254.92655  0.031240999  0.031544966           11 
  681000   0.98735308    -6.585047    256.19039  0.031349778  0.031527607           11 
  682000   0.95909473   -6.5695199    256.21509  0.031306829  0.031510462            3 
  683000    1.0088895   -6.5880902    255.86227  0.031217944  0.031493447            5 
  684000   0.99003925   -6.5973863    255.92262  0.031179657  0.031476349            5 
  685000   0.95939951   -6.5578759    256.47815  0.031201721  0.031458638            7 
  686000    0.9519078   -6.5941416    256.06857  0.031106483  0.031440701            3 
  687000   0.95784192   -6.5838778     256.1021  0.031065272   0.03142271            6 
  688000   0.97066082   -6.5977532    256.67308  0.031089278  0.031404931            3 
  689000    0.9765003   -6.6046133    256.11937  0.030977186   0.03138683            6 
  690000   0.96441992   -6.5990865    256.76879  0.031010723  0.031368727            7 
  691000   0.97262934   -6.5934331    257.44592  0.031047506  0.031350824            5 
  692000   0.97860664   -6.6053055    257.44443   0.03100246  0.031332905            3 
  693000   0.99416915   -6.5710455     258.4682  0.031080832  0.031314961            3 
  694000   0.99035883   -6.6102615    258.23613   0.03100818  0.031297256            4 
  695000   0.98369273   -6.5827811    257.96963   0.03093161   0.03127958            6 
  696000   0.97784758    -6.617937    259.03772  0.031015053  0.031261883            6 
  697000   0.96605815   -6.5896454    258.66758  0.030926301  0.031244088            6 
  698000   0.97604883   -6.5922754    258.58898   0.03087261  0.031226255            4 
  699000   0.94873976   -6.6220568    259.23648  0.030905637  0.031208502           10 
  700000   0.98695019   -6.6548772    259.23455  0.030861256  0.031190671            4 
  701000   0.97658882   -6.6078438    259.78694  0.030882899  0.031173023            4 
  702000   0.98308402   -6.6118622    259.87538  0.030849404  0.031155501            2 
  703000   0.98156588   -6.5815328    260.13084  0.030835803  0.031137689            3 
  704000   0.96738426   -6.6057546    260.77126   0.03086781  0.031120017            8 
  705000   0.97944637   -6.6428142    260.80248  0.030827716  0.031102664            5 
  706000   0.95043631   -6.6095344     261.6981  0.030889766  0.031085276            8 
  707000   0.97550776   -6.5928682    261.36893  0.030807276   0.03106788            7 
  708000   0.97970773   -6.6406804    260.92787  0.030711849  0.031050248            5 
  709000   0.99656808   -6.6133875    260.79243  0.030652612  0.031032102            5 
  710000   0.97408697   -6.5729148    262.12951  0.030766375  0.031014169            3 
  711000   0.98667643   -6.6228767    261.72428  0.030675607  0.030996569            4 
  712000   0.97033529   -6.6184982     262.6375  0.030739408  0.030978802            7 
  713000   0.97760133   -6.6280646     262.3231  0.030659549  0.030960951            6 
  714000   0.97275362   -6.5934399    263.12203  0.030709855  0.030943237            4 
  715000   0.97837906   -6.6125409     262.8776  0.030638414  0.030925519            7 
  716000   0.97234062   -6.6550986    262.44062  0.030544765  0.030907686            2 
  717000   0.94858249   -6.6447751     263.1676  0.030586657   0.03088963            4 
  718000   0.96931061    -6.632732     263.7825  0.030615425  0.030871879            6 
  719000   0.97029178   -6.6466507    263.33022  0.030520425  0.030854048            6 
  720000   0.97820656   -6.6070601    263.26752  0.030470778   0.03083573            4 
  721000   0.98478906   -6.6374262    264.21777  0.030538346  0.030817679            8 
  722000   0.94520521   -6.6447166    264.82592  0.030566242  0.030799575            4 
  723000   0.97926252   -6.6493088    264.07986  0.030437974  0.030781586            3 
  724000   0.93869487   -6.5922084    265.10714  0.030514174  0.030763641            3 
  725000   0.96131967   -6.6170116    265.66201  0.030535863  0.030745628            8 
  726000     0.948048    -6.650623    265.11471  0.030430981  0.030727855            3 
  727000   0.97145695   -6.6452758    265.03995  0.030380554  0.030710203            7 
  728000   0.96821021   -6.6463822    266.14563  0.030465388  0.030692592            7 
  729000   0.93030181   -6.6116421    265.41905   0.03034054  0.030675146            5 
  730000   0.95327459   -6.6496323    265.88318  0.030351962  0.030657389            4 
  731000   0.95031322   -6.6168354    265.96823  0.030320135  0.030639577            3 
  732000   0.98961589   -6.6614175    265.76883  0.030256015  0.030621669            3 
  733000   0.95262061    -6.665371    266.20929  0.030264813  0.030603713            4 
  734000   0.97589396   -6.7014835    266.83092  0.030294155  0.030585824            7 
  735000   0.96567403   -6.6537085    267.18974  0.030293621  0.030567978            6 
  736000   0.97522956    -6.695893    267.14135  0.030246982  0.030550123            5 
  737000   0.94992556   -6.6388397    267.55192  0.030252366  0.030532229            3 
  738000   0.95979581   -6.6182995    268.18902  0.030283313  0.030514542            7 
  739000   0.96166263   -6.6314403    268.28636  0.030253311  0.030496881           13 
  740000   0.98099187    -6.648586    268.26238  0.030209727  0.030479314            6 
  741000   0.96295969   -6.6489184    267.51916  0.030085375  0.030461723            7 
  742000   0.96108655   -6.6271829    268.32365  0.030135181  0.030444134            4 
  743000   0.97428142    -6.655091    269.10421  0.030182168  0.030426751            4 
  744000   0.95886559   -6.5906553    270.09031  0.030252051  0.030409427            3 
  745000   0.94043116   -6.6198755    270.73646   0.03028372  0.030392178            3 
  746000    0.9515798   -6.6103959    270.04967  0.030166407  0.030374961            5 
  747000   0.94284131   -6.6400374    270.51326  0.030177739  0.030357706            8 
  748000   0.95280512   -6.6399512    269.71607  0.030048582  0.030340416            4 
  749000   0.96871993   -6.6428075    270.05196  0.030045834  0.030322979            5 
  750000   0.97464571   -6.6444853    270.06627  0.030007363  0.030305477            3 
  751000   0.96613192   -6.6517289    270.98769   0.03006965  0.030287947            4 
  752000   0.94230873   -6.6475287    270.51588   0.02997738  0.030270254            4 
  753000   0.95545597   -6.6640594    270.89268   0.02997927  0.030252334            3 
  754000   0.95094959   -6.6455419    270.34208  0.029878656  0.030234473           13 
  755000   0.94506754   -6.6755636    270.63831  0.029871778  0.030216544            6 
  756000   0.93618534   -6.6553601    270.83404   0.02985384  0.030198625            6 
  757000   0.96756842   -6.6619167    272.10232   0.02995402  0.030180723           14 
  758000   0.95290429   -6.6680173     271.8015  0.029881432  0.030162812            5 
  759000   0.96471291   -6.6691081    271.79608  0.029841467  0.030144997            4 
  760000   0.95154876   -6.6245631     272.7656  0.029908509  0.030127421            4 
  761000   0.95132609   -6.6574935    272.23963  0.029811611  0.030109739            6 
  762000    0.9486813    -6.639035    273.31866  0.029890492  0.030092273            6 
  763000   0.94162331   -6.6566638    272.83258  0.029798229  0.030074935            6 
  764000   0.95686575   -6.6700459    273.62391   0.02984554  0.030057496            6 
  765000   0.96506689   -6.6662049    274.08371  0.029856613  0.030039991            4 
  766000   0.94318314   -6.6624707    273.42401  0.029745867  0.030022567           10 
  767000   0.94789845    -6.652363     274.1479  0.029785734  0.030005135            5 
  768000   0.94646358   -6.6799663    274.49756  0.029784892  0.029987643            3 
  769000    0.9516261   -6.6521813    274.50192  0.029746632  0.029969942            4 
  770000   0.91815621   -6.6761135    274.33681  0.029690131  0.029952471            8 
  771000   0.95575402   -6.6748426    275.17914  0.029742666  0.029934945            5 
  772000   0.95686378   -6.6415342    275.32543   0.02971993  0.029917888            4 
  773000   0.95350003   -6.6656893    276.00224  0.029754446  0.029900936            3 
  774000   0.94534378   -6.6755328    275.87285  0.029702072  0.029883824            5 
  775000   0.94980726   -6.6534296     276.8205  0.029765645  0.029866902            8 
  776000   0.93841241   -6.6926184    276.07088  0.029646787  0.029850075           12 
  777000   0.92007406   -6.6679961    276.15116  0.029617242  0.029832834            7 
  778000   0.93708418   -6.6910282    276.39882    0.0296057  0.029815475            5 
  779000   0.93658305   -6.6813255    276.98719  0.029630637  0.029798249            4 
  780000   0.93770731   -6.6927627    276.71485  0.029563553  0.029780795            5 
  781000   0.93150146     -6.67571    276.84362  0.029539439  0.029763336            5 
  782000   0.94369261   -6.6952834    277.49675  0.029571265  0.029746144            4 
  783000    0.9561528   -6.6995837    276.88861  0.029468775  0.029728829            7 
  784000   0.94917124   -6.6992378      277.475  0.029493517  0.029711291            7 
  785000   0.92765473   -6.6724316    278.28669  0.029542111  0.029693849           10 
  786000   0.94865969   -6.6935897     277.8239   0.02945546  0.029676307            3 
  787000   0.95239168   -6.6839559    278.81046  0.029522497   0.02965916            8 
  788000   0.93609754   -6.7058506    277.70208  0.029367817  0.029642084           10 
  789000   0.93522605   -6.6707851    279.10596  0.029478871  0.029624876            7 
  790000   0.94250416    -6.693787     278.8124  0.029410591  0.029607575            8 
  791000   0.92939491   -6.6777807    279.23121  0.029417532  0.029590241            6 
  792000   0.94138956   -6.6639992    279.14094   0.02937089  0.029572929            6 
  793000   0.92405733   -6.6498174    279.85049  0.029408416  0.029555631            5 
  794000   0.96085803   -6.6634129    278.99968  0.029282082  0.029538463            7 
  795000   0.93362689   -6.6837592    279.59888  0.029308059  0.029521112            6 
  796000   0.94310464   -6.6974499    280.22172  0.029336445  0.029503801            5 
  797000   0.95664674   -6.6646169    280.53774  0.029332678  0.029486814            9 
  798000   0.92637342   -6.6661366    281.00235  0.029344439  0.029469914            4 
  799000    0.9398732   -6.6727492    280.86121  0.029292993  0.029452947            9 
  800000   0.95913775   -6.6947443    281.58183  0.029331441  0.029436238            5 
  801000   0.94877557   -6.7032627    280.67557  0.029200538  0.029419384            3 
  802000   0.94248814   -6.6711387     282.5208  0.029355861  0.029402493            2 
  803000   0.93794003   -6.6978959     280.5348    0.0291132  0.029385567            6 
  804000   0.95183728   -6.7371807    281.33351  0.029159775  0.029368237            6 
  805000   0.94133951   -6.7100601    282.39865  0.029233815  0.029350884            4 
  806000   0.95164296   -6.7299318    281.87338  0.029143236  0.029333586            4 
  807000   0.93182071   -6.7081566    281.72349  0.029091645   0.02931625            6 
  808000   0.93489185   -6.6854412    282.58678  0.029144676  0.029298878            3 
  809000    0.9249266   -6.6921739    283.04664   0.02915602  0.029281634            3 
  810000   0.93797547   -6.7079541    283.59262  0.029176196  0.029264689            3 
  811000   0.93070517   -6.7058172    283.15238  0.029094983  0.029247675           12 
  812000    0.9387395   -6.7167385    283.45466  0.029090175   0.02923075            6 
  813000   0.93342436   -6.7160179     283.6439   0.02907379  0.029213903            6 
  814000   0.93518527   -6.6961165    284.35952  0.029111335   0.02919708           10 
  815000   0.92840702    -6.707583     284.7128  0.029111738  0.029180532            6 
  816000   0.92771961   -6.6516995    285.20473    0.0291263  0.029163916            7 
  817000   0.93152678   -6.7104188    284.74915   0.02904418  0.029147341            6 
  818000   0.93324188   -6.6753736     285.3657  0.029071485  0.029130688           15 
  819000   0.94673844   -6.7045226    284.56911  0.028954936   0.02911406            4 
  820000   0.93825498   -6.7140428    285.34642   0.02899862  0.029097503            4 
  821000   0.93255404   -6.7022534    286.14261  0.029044114  0.029080859            4 
  822000   0.92669473   -6.7143575    285.98336  0.028992636  0.029064238            6 
  823000   0.95812192   -6.6983326    286.25742  0.028985158  0.029048068            4 
  824000   0.92147198   -6.7264338    286.60321  0.028984952  0.029031584            5 
  825000   0.93622655   -6.6802106    287.43825  0.029034167   0.02901531            4 
  826000   0.90913964   -6.6929172     286.4856  0.028902905  0.028999036           13 
  827000   0.94734336   -6.7143823    287.33034  0.028953077  0.028982588            4 
  828000   0.91397319   -6.6867826    287.60915  0.028946171  0.028966184            4 
  829000   0.92689154   -6.6674749    287.71527  0.028921921  0.028949948            5 
  830000   0.92224684   -6.7309909    287.83479  0.028899075  0.028933717            4 
  831000   0.93186636   -6.6834864    287.89574  0.028870411  0.028917356            4 
  832000   0.92469804   -6.7204563    287.47049  0.028793118  0.028901082            6 
  833000   0.91719311   -6.7220085    287.82963  0.028794481  0.028884855            8 
  834000   0.92607673    -6.737819    288.48014  0.028824954  0.028868457            5 
  835000   0.89734729   -6.7203673    287.58233  0.028700831  0.028851851            7 
  836000   0.92766024   -6.7431396    287.68644  0.028676878  0.028835346            7 
  837000   0.90753783   -6.7275652    288.33093  0.028706783  0.028819001            4 
  838000   0.93350566   -6.7040594    288.46323  0.028685683  0.028802879            5 
  839000   0.91650201   -6.7124949    290.34596  0.028838494  0.028786791            6 
  840000    0.9373631   -6.7031233    290.00224  0.028770063  0.028770754            5 
  841000    0.9114878   -6.6959973    290.85317  0.028820171  0.028754774            4 
  842000   0.92941542   -6.7094819    289.61435  0.028663337  0.028738589            5 
  843000   0.90144901   -6.7089161    290.30365  0.028697474  0.028722313            6 
  844000   0.92149807   -6.7064676    290.50629  0.028683481  0.028706021            6 
  845000   0.90620041   -6.7232271    290.60161  0.028658935  0.028689741           13 
  846000    0.9245354   -6.7016676    290.45473  0.028610592  0.028673486            9 
  847000   0.93999867   -6.7131724    290.32651  0.028564198  0.028657195            7 
  848000   0.91492086   -6.6855779    291.19711  0.028616068  0.028641018            9 
  849000    0.9212175   -6.7371417    290.78041  0.028541461  0.028624729            8 
  850000   0.91796585   -6.7230972    291.43517  0.028572076  0.028608458            4 
  851000   0.91877118   -6.7202131     291.4804   0.02854293  0.028592239            5 
  852000   0.89091852   -6.7295188    291.60565   0.02852168  0.028576016            3 
  853000   0.92164186   -6.7212858    292.34115  0.028560096  0.028559641            5 
  854000   0.93435217   -6.7368504    292.01081  0.028494419  0.028543202            5 
  855000   0.89953131   -6.7473524    291.73751  0.028434455  0.028526775            5 
  856000   0.90959717   -6.7404223    292.02049  0.028428786   0.02851032            8 
  857000   0.90291235    -6.741138    291.89696  0.028383602   0.02849377            6 
  858000   0.91223859   -6.7261868    292.42855  0.028402152   0.02847706            4 
  859000   0.92913339   -6.7222171    292.73903  0.028399208  0.028460401            8 
  860000   0.91280563   -6.6945658    292.98675  0.028390189   0.02844387            5 
  861000   0.92141631   -6.6963983    292.85824  0.028344777  0.028427398            4 
  862000   0.92948923   -6.7189108    292.83429  0.028309579  0.028411065            2 
  863000   0.92397458   -6.7573279    294.06266  0.028395391  0.028394562            7 
  864000   0.88823731   -6.7352948    293.38627  0.028297286  0.028377983            4 
  865000   0.93059889   -6.7344428    293.90128  0.028314189  0.028361582           13 
  866000   0.91665838   -6.7335785     294.0636  0.028297113  0.028345115            6 
  867000   0.88627599   -6.7326263    294.46834  0.028303377  0.028328536            5 
  868000   0.91175305   -6.7432357     294.7474  0.028297561  0.028311993            6 
  869000   0.91714442   -6.7634769    294.20762  0.028213235  0.028295496            9 
  870000   0.91519824   -6.7548815    294.46004  0.028204985  0.028278744            6 
  871000   0.91850861   -6.7685195     294.0417  0.028132578  0.028262033           15 
  872000   0.89653674   -6.7409918    295.11434  0.028202823   0.02824561            4 
  873000   0.88813105   -6.7255504     295.0622  0.028165541  0.028229095            5 
  874000   0.92475311   -6.7733709    294.56958  0.028086345  0.028212523            7 
  875000   0.89881318   -6.7289574    295.02991  0.028098087  0.028195937            4 
  876000   0.88247614   -6.7379488    295.62963  0.028123062   0.02817944            6 
  877000   0.92094089   -6.7626437    294.73978  0.028006441  0.028162823           12 
  878000   0.90662477   -6.7739282    296.16251  0.028109578  0.028146084           12 
  879000   0.91785834   -6.7658686    296.02811  0.028064857  0.028129554            9 
  880000   0.89443599    -6.748364    296.08021  0.028037899  0.028112891            9 
  881000    0.8929921   -6.7397708    296.72234  0.028066812  0.028096228           10 
  882000   0.90000648   -6.7298052    296.22785   0.02798827  0.028079503            8 
  883000   0.91699476   -6.7847278    295.90095  0.027925722  0.028062691            3 
  884000   0.89644375   -6.7629794    296.93532   0.02799164  0.028045795           10 
  885000   0.90671459   -6.7577708    296.82405  0.027949534  0.028028951            8 
  886000   0.91456496   -6.7576154    296.99853  0.027934399    0.0280122            4 
  887000   0.88366485   -6.7512217     296.8619   0.02789007  0.027995394            9 
  888000   0.90155046   -6.7485719    297.24895  0.027894984  0.027978847           18 
  889000   0.90111469   -6.7606754    296.93977  0.027834624  0.027962106            7 
  890000   0.89515409   -6.7522473    297.73813  0.027878102  0.027945567            3 
  891000   0.89760432   -6.7670948    297.86058  0.027858266  0.027929011            4 
  892000   0.92216886   -6.7668028    297.43249  0.027787041  0.027912299            5 
  893000    0.8999752   -6.7622484    297.99374    0.0278083  0.027895545           13 
  894000   0.91727356   -6.7640323    298.80897  0.027853186  0.027879122            5 
  895000   0.90171761   -6.7655222    299.54277  0.027890388  0.027862757            6 
  896000   0.87143842   -6.7604022    300.13117  0.027913985  0.027846514            6 
  897000   0.90653011   -6.7591496    299.41309  0.027816155  0.027830234           11 
  898000   0.90710619   -6.7878824    299.07812  0.027754094  0.027813894            7 
  899000    0.9056615   -6.7476748     300.1202  0.027819818  0.027797506            8 
  900000   0.88046515    -6.777871    299.61555   0.02774218  0.027781335            7 
  901000    0.8972354     -6.77378     300.3066  0.027775305  0.027764981            6 
  902000   0.89662236   -6.7576511    300.42212  0.027755184  0.027748612            8 
  903000   0.89772098   -6.7209848    301.33693  0.027808871  0.027732469            5 
  904000   0.90722158   -6.7489854    301.04561  0.027751254  0.027716466            8 
  905000   0.88953274    -6.769217    300.36849   0.02765824  0.027700385            7 
  906000   0.90391617   -6.7479809     301.0791  0.027693074  0.027684216            5 
  907000   0.89049756   -6.7546477    301.46344  0.027697854  0.027668317            5 
  908000   0.88241864   -6.7881031    301.85216  0.027703025  0.027652348            4 
  909000   0.88138036   -6.8152656    301.05176  0.027599171  0.027636412            5 
  910000   0.88709008   -6.7804948    301.79283  0.027636706  0.027620399            6 
  911000   0.88416502   -6.7406565    302.49405  0.027670513  0.027604711            4 
  912000   0.86326802   -6.7672742    301.82698   0.02757922  0.027589078            8 
  913000   0.88094787    -6.779223    302.74148  0.027632483  0.027573473            7 
  914000   0.88829978   -6.7573913    303.49303  0.027670772  0.027557891            4 
  915000   0.90595889   -6.7770994    302.31152  0.027532925  0.027542179           12 
  916000   0.90820987   -6.7867125    302.38522  0.027509572   0.02752628            4 
  917000   0.88180195   -6.8281931    303.01298  0.027536621  0.027510449            9 
  918000   0.88776352   -6.7889482    304.16367  0.027611081  0.027494548            9 
  919000   0.89951389   -6.7574488    304.30826  0.027594148  0.027478983            6 
  920000   0.88990596   -6.7778667    304.97884  0.027624895  0.027463575           13 
  921000    0.8832987   -6.7902026    304.31153  0.027534522  0.027448165            7 
  922000   0.89111558   -6.7714253    304.68365  0.027538291  0.027432682            4 
  923000   0.87398078   -6.7774733    304.83081  0.027521742  0.027417271            8 
  924000    0.8740925   -6.7909135    304.77339  0.027486778   0.02740184           15 
  925000   0.87330719   -6.7738969    305.41808  0.027515142  0.027386382            4 
  926000   0.88223796   -6.8018474    305.34631  0.027478969  0.027370754            8 
  927000   0.89158294   -6.8053429    305.52417  0.027465315   0.02735506            4 
  928000   0.89915325   -6.8138148    304.71162  0.027362753   0.02733929            8 
  929000   0.89939262   -6.7893761    305.27357  0.027383707  0.027323533           12 
  930000   0.88422014   -6.8018515    305.10828  0.027339452  0.027307885            3 
  931000   0.88283298   -6.7723588    306.09057   0.02739801  0.027292279            7 
  932000    0.8840583   -6.7952882    305.29032   0.02729706  0.027276636            4 
  933000   0.87590705   -6.7638529    306.86089  0.027408082  0.027261153            6 
  934000   0.87465201   -6.8113131    306.86642  0.027379231  0.027245691            3 
  935000   0.87332809   -6.7914444    306.50177  0.027317448  0.027230272            9 
  936000   0.87420698   -6.8055242    306.92176  0.027325656  0.027214683            4 
  937000   0.86996214   -6.7870691    306.66491  0.027273649  0.027199148            7 
  938000   0.86851341   -6.7841169    306.92855  0.027267995  0.027183728            7 
  939000   0.89833556     -6.79567    307.12874  0.027256722   0.02716822            5 
  940000   0.89172028    -6.796686    307.46363  0.027257414  0.027152661           10 
  941000   0.87642418   -6.7909706    307.26385  0.027210756  0.027136936            7 
  942000   0.87207094   -6.8261947    307.64219  0.027215339  0.027121258            6 
  943000   0.87288179   -6.8328414    306.79595  0.027111696  0.027105346            5 
  944000   0.87022896   -6.7636381    308.59479  0.027241772   0.02708947            6 
  945000   0.87926493   -6.8077739    307.27511   0.02709657   0.02707381           10 
  946000   0.86899662   -6.8196146    307.69921  0.027105286  0.027058013           13 
  947000   0.85991787   -6.8101649    308.96893  0.027188396  0.027042348            9 
  948000   0.87827224   -6.8250022    309.15365  0.027175954  0.027026905            6 
  949000    0.8566558   -6.7852066     309.4164   0.02717039  0.027011445            5 
  950000   0.87543961   -6.8153095    308.89659  0.027096192   0.02699601           13 
  951000   0.86129876   -6.8003092    309.19844   0.02709415  0.026980505            5 
  952000   0.89581853   -6.8144468    308.40759  0.026996463  0.026964904            9 
  953000    0.8845948   -6.8283027    309.05108  0.027024403  0.026949373            9 
  954000   0.86034511   -6.7949694    309.34204  0.027021492  0.026933863            5 
  955000   0.86357344   -6.8037099    309.73536  0.027027518  0.026918436            7 
  956000   0.86999603   -6.8072021    308.91439  0.026927684   0.02690267            8 
  957000   0.86597361    -6.775077    309.53369  0.026953474  0.026886833           12 
  958000   0.88484771   -6.7771036    309.15012  0.026891973  0.026871021            7 
  959000   0.87138972   -6.8267997    309.13606   0.02686271  0.026855132            4 
  960000   0.87204833    -6.797891     310.1408  0.026921944  0.026839294            4 
  961000   0.86301356   -6.8066035    310.60371  0.026934071  0.026823458           11 
  962000   0.88947552   -6.8120933    309.97651  0.026851742  0.026807661            6 
  963000   0.86213034   -6.8423863    309.80349  0.026808887  0.026791781            4 
  964000   0.87038172   -6.8175162    310.32187  0.026825887     0.026776            8 
  965000   0.86118244   -6.8143492     310.0991  0.026778852  0.026760164           14 
  966000   0.86949884   -6.8326877    311.13218  0.026840251  0.026744482           15 
  967000   0.87563825   -6.8141399     311.4013  0.026835686  0.026728786            5 
  968000   0.86498653   -6.8054589    310.66162  0.026744285  0.026713179            6 
  969000    0.8707685   -6.7706054    311.84336  0.026818315  0.026697718            8 
  970000   0.87372753   -6.8284684    311.00589  0.026718719  0.026682078            4 
  971000   0.87635401    -6.840044     311.1459  0.026703219  0.026666367           10 
  972000   0.86686542   -6.7925426    311.45568  0.026702305  0.026650775            9 
  973000   0.89328034   -6.8340315    311.39079  0.026669304  0.026635163            7 
  974000   0.87933306   -6.8423418     311.7524  0.026672861  0.026619556            6 
  975000   0.86796364   -6.8272322    312.05367  0.026671254  0.026603948            6 
  976000   0.86188842   -6.8473216    312.09009  0.026647036   0.02658837            9 
  977000   0.86068917   -6.8103198    313.20143  0.026714554  0.026573037            5 
  978000   0.85920159   -6.8094935    312.59369  0.026635454  0.026557598           14 
  979000    0.8688084   -6.7893402    313.44173  0.026680433  0.026542268            6 
  980000    0.8421403   -6.8349577    313.10771  0.026624806  0.026527004            8 
  981000   0.86145055   -6.8361908    313.92998  0.026667514  0.026511658           11 
  982000   0.86632634   -6.8250722    313.63701  0.026615496  0.026496383           13 
  983000   0.85579437    -6.840491    314.60658  0.026670616  0.026481002            9 
  984000   0.85484593   -6.8562463    314.25586  0.026613809  0.026465698            3 
  985000   0.88635854    -6.836692     314.7961  0.026632496    0.0264503            8 
  986000   0.85684167   -6.8387627    314.66091  0.026594059  0.026434922            9 
  987000   0.84003106   -6.8204408    314.88355  0.026585913  0.026419631            8 
  988000   0.85660467   -6.8514791    314.57244  0.026532763  0.026404238           11 
  989000   0.83601039   -6.8231259    314.66331  0.026513592  0.026388962            4 
  990000   0.87544388   -6.8272917       315.91  0.026591751   0.02637389            5 
  991000   0.86236529   -6.8279103     315.4995  0.026530399  0.026358662            7 
  992000   0.85927915   -6.8367412      315.682  0.026518985  0.026343421           17 
  993000   0.86454137   -6.8322335    315.35796  0.026465085  0.026328125            4 
  994000   0.86379678   -6.8176626    315.92657  0.026486131  0.026312778            6 
  995000   0.85435254   -6.8507412    315.58532  0.026430931  0.026297319            7 
  996000   0.85943339   -6.8294856    315.53739  0.026400384  0.026281665            5 
  997000   0.85245827   -6.8423408    315.57085  0.026376701  0.026266116            5 
  998000   0.87442869   -6.8571481    314.92484  0.026296329  0.026250451            5 
  999000   0.84080802   -6.8183353    315.38515  0.026308404  0.026234832           10 
 1000000   0.84209504   -6.8299667    316.19706  0.026349755  0.026219381           10 
 1001000   0.86159464   -6.8077654    316.76898  0.026371044  0.026204047            7 
 1002000   0.87035392   -6.8466688     316.2741  0.026303568   0.02618861           27 
 1003000   0.85361032   -6.8575835    316.26107   0.02627626  0.026173198            7 
 1004000    0.8449822   -6.8671575    316.77926    0.0262931  0.026157584           11 
 1005000   0.84159726    -6.857175    317.54867  0.026330735  0.026142149           10 
 1006000   0.84727697   -6.8150536    317.43795   0.02629539  0.026126914            7 
 1007000   0.81323392   -6.8837641    316.73229  0.026210881  0.026111583            6 
 1008000    0.8391862   -6.8174325    317.39455  0.026239629  0.026096181           15 
 1009000   0.85322189   -6.8473188    316.95482  0.026177306  0.026080954            4 
 1010000   0.85509523   -6.8549012    317.64709  0.026208506  0.026065618            5 
 1011000   0.83481624   -6.8717791    317.48912  0.026169561  0.026050261           12 
 1012000   0.84925006   -6.8661667    318.14879  0.026198023  0.026034781            7 
 1013000   0.84860777   -6.8614109    317.66118  0.026132048  0.026019441           10 
 1014000   0.85170794   -6.8722716     318.5188  0.026176759  0.026004063           14 
 1015000   0.85531914   -6.8268044    317.60176  0.026075678  0.025988732            8 
 1016000   0.86358784   -6.8542704    319.98626  0.026245592  0.025973559            7 
 1017000     0.836882   -6.8717053    318.95305  0.026135124   0.02595847            4 
 1018000   0.86151179   -6.8380753    319.53564  0.026157142  0.025943226            6 
 1019000   0.84078152   -6.8532898    318.56038  0.026051716  0.025928083           17 
 1020000   0.86070062   -6.8823288    319.47636   0.02610101  0.025912989           10 
 1021000   0.85073816   -6.8294228    319.29499  0.026060643  0.025897889           10 
 1022000   0.82763949   -6.8513915    319.94653  0.026088269  0.025882711            9 
 1023000   0.84354507   -6.8535273    319.40119  0.026018344  0.025867513            6 
 1024000   0.84267281   -6.8958067     319.4742  0.025998877   0.02585235           21 
 1025000   0.83274578   -6.8932773    319.21786  0.025952672  0.025837071           23 
 1026000   0.83186167   -6.8882973    319.81177  0.025975614  0.025821874           14 
 1027000   0.84635672   -6.8729361    320.54544  0.026009854  0.025806668           11 
 1028000   0.83702878   -6.8770605    319.54099  0.025903129  0.025791432            3 
 1029000   0.85524506   -6.9021793    319.70743  0.025891434  0.025776231            8 
 1030000   0.82954837   -6.8746513    320.75541  0.025951085  0.025761054            8 
 1031000   0.83533328   -6.8639783    321.20181  0.025961996  0.025745865            6 
 1032000   0.82927573    -6.872751    320.55999  0.025885012  0.025730771            6 
 1033000   0.84496914   -6.8648364    320.97164  0.025893163   0.02571562            7 
 1034000   0.84439781    -6.859296    321.82122  0.025936591  0.025700525            7 
 1035000   0.85822007   -6.8742161    320.60842  0.025813883  0.025685323           17 
 1036000   0.83733317    -6.855343    320.83153  0.025806912  0.025670057            7 
 1037000    0.8561664   -6.8858521     321.8061  0.025860343  0.025654719            5 
 1038000    0.8314098   -6.8658397    321.00213  0.025770884  0.025639412           17 
 1039000   0.85053392   -6.8754814    320.95133  0.025742006  0.025624124            8 
 1040000   0.84611282   -6.9086132    321.42397  0.025755126  0.025608722           13 
 1041000   0.83923297   -6.8848217    321.65826   0.02574914  0.025593347            8 
 1042000    0.8446171   -6.8928123    321.17907  0.025686106  0.025577979            9 
 1043000    0.8420835   -6.8993488    321.12298  0.025656998  0.025562546           12 
 1044000   0.83634218   -6.8337456    321.52959  0.025664878  0.025547133            5 
 1045000    0.8302599   -6.8682992    322.56288  0.025722717  0.025531826            6 
 1046000   0.83458078   -6.8645381    321.47657  0.025611581   0.02551657            6 
 1047000   0.82872227   -6.8873275    321.62932  0.025599277  0.025501179           11 
 1048000   0.83990768   -6.9418036    321.09056   0.02553201  0.025485714            9 
 1049000   0.83310399   -6.8867054    322.06942  0.025585432  0.025470244            9 
 1050000   0.83535362   -6.8941172    322.65267  0.025607354  0.025454907           10 
 1051000   0.84613116   -6.8541507    323.20989  0.025627172  0.025439692           14 
 1052000   0.82332203   -6.8885857    322.47651  0.025544718    0.0254245            6 
 1053000   0.83405752   -6.8830567    323.15196  0.025573913  0.025409341            6 
 1054000   0.83779702   -6.8745362    322.92339  0.025531578  0.025394179            7 
 1055000   0.83356142   -6.8880799    323.19041  0.025528468  0.025379002            9 
 1056000   0.84178394   -6.8392123     323.4867  0.025527675  0.025363744           12 
 1057000   0.80949617   -6.8797843    323.24735  0.025484654  0.025348399           12 
 1058000   0.81378843   -6.9008042    323.47362  0.025478388  0.025333012            4 
 1059000   0.83571395   -6.8780438    323.80872  0.025480699  0.025317653           10 
 1060000   0.82201284   -6.9123129    324.49858  0.025510894   0.02530243            7 
 1061000   0.81978197   -6.8603736    324.03739  0.025450628  0.025287078           10 
 1062000   0.82018164   -6.8724991    324.10511  0.025431976  0.025271637            8 
 1063000   0.82001322   -6.8560201    324.41629  0.025432446  0.025256332           12 
 1064000    0.8092471   -6.8982427    323.88635  0.025367039  0.025240988            7 
 1065000   0.83383526   -6.9079196    323.73852  0.025331653  0.025225559            7 
 1066000   0.80759214    -6.905131    324.27923  0.025350159  0.025210195            6 
 1067000    0.8232757   -6.8974632    324.09215   0.02531179  0.025194815           11 
 1068000   0.84670228   -6.8902939     324.3783  0.025310416  0.025179293            7 
 1069000   0.84999918   -6.9050182    324.66443  0.025309045  0.025163831           10 
 1070000     0.826223   -6.9012463    324.51247  0.025273556  0.025148356            6 
 1071000   0.83510002   -6.9048142    324.80636  0.025272826  0.025132897           19 
 1072000   0.81450968   -6.8990171    324.29692  0.025209648  0.025117495            4 
 1073000   0.83105681   -6.9011483    324.95033    0.0252369  0.025102068           15 
 1074000   0.81409713   -6.8923717    325.78834  0.025278425  0.025086532            7 
 1075000   0.83249585    -6.922344     325.2454  0.025212822  0.025071117            7 
 1076000   0.80997895   -6.9085855    325.13623  0.025180935  0.025055607            8 
 1077000   0.82882508   -6.8879488    326.62283   0.02527258  0.025040162            7 
 1078000   0.81140508    -6.896856    325.19291  0.025138598  0.025024781            5 
 1079000   0.82937476   -6.9021119     325.7228  0.025156225  0.025009529            5 
 1080000   0.81031291   -6.8901161    325.50165  0.025115868  0.024994421            7 
 1081000   0.81855277   -6.9011659    325.90595  0.025123801  0.024979233            8 
 1082000   0.81593693   -6.9183484    325.54729  0.025072959   0.02496406           20 
 1083000   0.82239607   -6.9269331    325.38238  0.025037118  0.024948751            5 
 1084000   0.83887561   -6.9221529    326.10753  0.025069767  0.024933454           10 
 1085000   0.83547777   -6.9106064    326.77903  0.025098236  0.024918153           21 
 1086000     0.810327   -6.9471501    325.80947  0.025000727  0.024902761            9 
 1087000   0.81190509   -6.9001161    326.81942  0.025055153  0.024887358            8 
 1088000   0.80974593   -6.9308128    326.51816  0.025009051   0.02487209           16 
 1089000   0.81812056   -6.9273064    326.82744  0.025009752   0.02485691           13 
 1090000   0.80934121   -6.9036954    326.86409  0.024989609  0.024841745           13 
 1091000   0.82504492   -6.8983087    327.23122  0.024994746  0.024826651           11 
 1092000   0.81155337   -6.9292989    326.72661   0.02493335  0.024811441           12 
 1093000   0.82750903   -6.9253235    328.44079  0.025041232  0.024796212            9 
 1094000   0.82653336   -6.9430395    327.13811  0.024919113  0.024780991            8 
 1095000   0.80666518   -6.9316894     327.2002  0.024901081  0.024765748           10 
 1096000   0.82663906   -6.9374186    327.64177  0.024911935  0.024750438            6 
 1097000   0.81849456   -6.9130115    327.40868  0.024871519  0.024735097           17 
 1098000   0.81250303   -6.9390436    327.86751  0.024883691  0.024719903           10 
 1099000   0.82800097   -6.9059031    328.43891  0.024904376  0.024704671           10 
 1100000   0.82676553   -6.9301038    328.26214  0.024868344  0.024689517            4 
 1101000   0.81592684   -6.9347301    327.95294  0.024822354  0.024674248            9 
 1102000   0.82307245   -6.9107558    327.73527  0.024783369  0.024658933            7 
 1103000   0.81385803   -6.9424163    328.34505   0.02480697  0.024643649            6 
 1104000   0.82510904   -6.9522484    328.15229  0.024769949  0.024628318            5 
 1105000    0.8127542   -6.9031255    327.71867  0.024714832  0.024613065           12 
 1106000   0.84432671   -6.9257204    328.61939  0.024760352  0.024597879           13 
 1107000   0.80191581   -6.9300901    328.44774  0.024725063  0.024582727            8 
 1108000   0.82654141   -6.9216567     328.4703  0.024704445  0.024567425           10 
 1109000     0.825269    -6.953283    328.57538  0.024690064  0.024552107           25 
 1110000   0.81866477   -6.9614782    329.01023  0.024700467  0.024536785           10 
 1111000   0.82766975    -6.926602    328.76902  0.024660142  0.024521474           18 
 1112000   0.80782804   -6.9410882    329.30354  0.024678023  0.024506245            9 
 1113000   0.80165607   -6.9310218    328.67997  0.024609162   0.02449094            8 
 1114000   0.82022547   -6.9445139    328.55552  0.024577762  0.024475589            9 
 1115000   0.80699796   -6.9145854    329.34634  0.024614824  0.024460284            5 
 1116000   0.82408312   -6.9577539     328.4364  0.024524821  0.024445181           15 
 1117000   0.82079799    -6.963593     329.3086  0.024567935  0.024429974            8 
 1118000   0.80330467   -6.9538138    329.40347  0.024553031  0.024414733            4 
 1119000   0.81256581   -6.9261885    329.90313    0.0245683  0.024399582           19 
 1120000   0.80206725   -6.9498577    329.71402  0.024532293  0.024384291           10 
 1121000   0.80935912   -6.9271098    330.44354   0.02456464  0.024369066            6 
 1122000   0.80820454   -6.9522869    329.76994  0.024492717  0.024353862            7 
 1123000   0.83707482   -6.9597159    329.90423  0.024480872  0.024338683           12 
 1124000   0.81326115   -6.9586458    329.17597  0.024405098  0.024323419           14 
 1125000   0.80904776   -6.9372709    330.76729  0.024501281  0.024308148            8 
 1126000   0.81723203   -6.9864794    329.65461  0.024397174  0.024292785            9 
 1127000   0.80561288   -6.9811545    329.65142   0.02437529  0.024277312           11 
 1128000   0.79371501   -6.9456794    330.10258  0.024387011  0.024261832            7 
 1129000   0.79967674   -6.9843991    329.06278  0.024288661  0.024246198           17 
 1130000   0.80338315   -6.9986135    329.86697  0.024326473  0.024230601           12 
 1131000   0.78577047   -6.9941012    329.40578  0.024270983  0.024215132            7 
 1132000   0.79555703   -6.9647454    329.41256  0.024250041  0.024199576           11 
 1133000   0.80221062   -6.9696969    330.67269  0.024321322  0.024184061           15 
 1134000   0.80123471   -6.9495774    330.65997   0.02429894  0.024168615           12 
 1135000   0.80497336   -6.9549088    330.95002  0.024298826  0.024153337           13 
 1136000   0.80026458   -6.9452459    330.95317  0.024277668  0.024138093           13 
 1137000   0.79745432    -6.972469    331.69809  0.024310912  0.024122867            9 
 1138000   0.80799526   -6.9449598    331.45286  0.024271592  0.024107648           11 
 1139000   0.81223389   -6.9408301    330.84755  0.024205996  0.024092433            6 
 1140000   0.79809531   -6.9502623    332.43523  0.024300821  0.024077298            8 
 1141000   0.80406933    -6.964527    331.97432   0.02424586  0.024062212            9 
 1142000   0.81211971   -6.9420369    332.26127  0.024245568  0.024047082           12 
 1143000   0.79514231   -6.9265023    331.81565  0.024191867  0.024031997            8 
 1144000   0.79743548   -6.9472025    332.20252  0.024198901   0.02401695           18 
 1145000   0.79717267   -6.9581196    331.35121  0.024115808  0.024001643            6 
 1146000    0.8169358   -6.9532225     332.0027  0.024142139  0.023986332           23 
 1147000   0.79426005   -6.9605399    331.60591  0.024092263  0.023970948            8 
 1148000   0.79518312   -6.9655876    331.45226  0.024060123  0.023955544           17 
 1149000   0.78743135   -6.9383814    331.54378  0.024045821  0.023940126           11 
 1150000   0.79424379   -6.9707864    332.13035  0.024067416  0.023924673           12 
 1151000   0.78778125   -6.9582806    331.93989  0.024032717  0.023909282           10 
 1152000   0.80122929    -6.973919    331.58172  0.023985946  0.023893905           21 
 1153000   0.78363193   -6.9642943    332.48313  0.024030293  0.023878507           19 
 1154000   0.80043508   -6.9789416    331.82059  0.023961626   0.02386307           10 
 1155000     0.794553   -6.9633598     332.1834  0.023967056  0.023847569            7 
 1156000    0.7890637   -6.9871889    331.67001  0.023909314  0.023831924            6 
 1157000   0.79587265   -6.9687644    332.55831   0.02395263  0.023816314           10 
 1158000   0.80432803   -7.0080756    331.72451  0.023871943  0.023800662           14 
 1159000   0.77396835   -6.9749081    332.54915  0.023910637  0.023785067           10 
 1160000   0.80231818   -6.9601596    332.03897  0.023853374  0.023769439           18 
 1161000   0.76622813   -6.9943335    331.35479   0.02378372  0.023753773           13 
 1162000   0.80157445   -6.9974144    332.19231  0.023823315  0.023738109            8 
 1163000   0.80267028   -6.9394201     332.2869  0.023809609  0.023722494           16 
 1164000   0.81262154   -6.9702314    332.22336  0.023784605  0.023706871           18 
 1165000   0.78290174   -6.9815415    332.02326  0.023749876  0.023691239           11 
 1166000   0.78700711   -6.9838989    332.38575  0.023755414  0.023675614            7 
 1167000   0.78965639   -7.0001179    332.58461  0.023749258   0.02366004           13 
 1168000   0.78046986   -6.9670852    333.31398  0.023780963  0.023644479           22 
 1169000   0.79735148   -6.9575707    333.22153   0.02375403  0.023628971           25 
 1170000   0.78794254   -6.9557684    333.18485  0.023731115   0.02361352           15 
 1171000   0.78532352   -6.9760799    333.03095  0.023699897  0.023598152           13 
 1172000   0.78206103   -6.9681883    332.88294  0.023669151  0.023582668            7 
 1173000   0.78171564   -6.9639626    333.83364  0.023716513  0.023567248            9 
 1174000   0.76713815   -6.9589153    334.34432  0.023732561  0.023551926           13 
 1175000   0.78625309   -6.9794032    334.03086  0.023690132  0.023536525           13 
 1176000   0.78717183   -6.9728011    333.77011   0.02365151  0.023521165            6 
 1177000   0.79922212   -6.9833447    334.16669  0.023659494  0.023505856            6 
 1178000    0.7873005   -6.9906093    334.26251  0.023646188  0.023490553            8 
 1179000   0.79184844   -7.0319709    334.50464  0.023643245  0.023475174            9 
 1180000   0.78239116    -6.970164    334.49865  0.023622786  0.023459829           12 
 1181000   0.77167589    -6.995399    335.44694  0.023669697  0.023444521            9 
 1182000   0.78374304   -7.0113095    335.14797  0.023628593  0.023429309           10 
 1183000   0.76978528   -6.9691849     334.0811  0.023533467  0.023414066            6 
 1184000   0.76479795   -7.0146829    334.01721  0.023509094  0.023398704            6 
 1185000   0.79140589    -7.017934    334.74146  0.023540187  0.023383271           10 
 1186000    0.7761466   -6.9986529    334.61691  0.023511587  0.023367882            9 
 1187000   0.77753732   -7.0397353    334.83745  0.023507263  0.023352617           13 
 1188000   0.76553753   -6.9816172    335.37069   0.02352488  0.023337293            9 
 1189000   0.79177853   -6.9985894    335.30446  0.023500453  0.023321963            5 
 1190000   0.77684407   -6.9940368    335.80719   0.02351591  0.023306695            9 
 1191000   0.76115081   -7.0070436     334.4459  0.023400917  0.023291425            9 
 1192000   0.77979268    -6.990392    334.82825  0.023408015  0.023276052            9 
 1193000   0.78210632   -7.0246368    335.22573  0.023416159  0.023260725            4 
 1194000   0.77197567   -7.0294606     335.9156  0.023444696  0.023245386           14 
 1195000   0.77894075    -7.004363    334.61004  0.023334033  0.023230069            8 
 1196000   0.77858411   -7.0213023    333.91548  0.023266129  0.023214666            9 
 1197000   0.79155621   -7.0040644    334.97879  0.023320717  0.023199303           12 
 1198000   0.79525138   -7.0077971    335.37901  0.023329091   0.02318394           17 
 1199000   0.77329236    -7.005904    334.76027   0.02326663  0.023168662            8 
 1200000   0.77450861    -7.029301    335.63418  0.023307929  0.023153309           13 
 1201000   0.77453144   -7.0120328     335.9954  0.023313586  0.023137947           10 
 1202000   0.78123717   -6.9940334    335.51709   0.02326103  0.023122692            6 
 1203000   0.79728559   -6.9652423    336.20154  0.023289106  0.023107494           10 
 1204000   0.75482675   -6.9685154    335.88398  0.023247784  0.023092237           17 
 1205000   0.78076069   -7.0347059    336.49846  0.023270986  0.023076904           16 
 1206000   0.77597773   -7.0043913    336.36967  0.023242791  0.023061669           15 
 1207000   0.76922314   -7.0155025    336.14696  0.023208158  0.023046381            9 
 1208000   0.78576078   -7.0033484    335.74888  0.023161484  0.023031049           11 
 1209000   0.78413088   -7.0231703    336.54455  0.023197171   0.02301579           10 
 1210000   0.77705503   -6.9806512    336.30551  0.023161537  0.023000581           12 
 1211000   0.76551733   -7.0104356    336.61267  0.023163548  0.022985359            8 
 1212000   0.77641493   -7.0105213    336.32038  0.023124338  0.022970157           14 
 1213000   0.76727065   -7.0380856    335.95669  0.023080289  0.022954967            6 
 1214000   0.78607813   -7.0328446    336.42123  0.023093165  0.022939777           18 
 1215000   0.76462886   -7.0462541    337.23698  0.023130108  0.022924674           14 
 1216000   0.76821524   -7.0230094    336.87991  0.023086617  0.022909523            4 
 1217000   0.76000225   -7.0525382    337.09722  0.023082527  0.022894312           27 
 1218000    0.7677613   -7.0334456    336.69395  0.023035984   0.02287916            8 
 1219000   0.75268603   -7.0308388     336.6118  0.023011471  0.022863984           11 
 1220000    0.7725853   -7.0270804    337.12891  0.023027931  0.022848778            9 
 1221000   0.74760387    -7.009813    337.06153  0.023004473  0.022833626           10 
 1222000   0.76557307   -7.0393017    337.24512  0.022998167  0.022818419           11 
 1223000   0.76699317   -7.0065664    336.44467  0.022924821    0.0228032           14 
 1224000   0.75591614   -7.0344146    337.07542  0.022949034  0.022788048           24 
 1225000    0.7530923    -7.031506    337.33607  0.022948032  0.022772812           11 
 1226000   0.77056677    -7.048519    337.38352  0.022932539  0.022757568           18 
 1227000   0.74942775   -7.0495882    337.43334  0.022917233  0.022742325           17 
 1228000   0.75148893   -7.0492834    336.82054  0.022856985  0.022726969           22 
 1229000   0.75971936   -7.0308135    337.43682  0.022880175  0.022711693           17 
 1230000    0.7531953   -7.0113653    337.97939  0.022898333  0.022696494           16 
 1231000   0.77156132   -7.0341846    336.78522  0.022798891  0.022681253           12 
 1232000   0.75950879   -7.0063646    337.85179  0.022852529  0.022666049           11 
 1233000     0.768169   -7.0609037    337.48603  0.022809275  0.022650862           14 
 1234000   0.75544052   -7.0304708     338.1273  0.022834096   0.02263577           13 
 1235000   0.76082647   -7.0445525    337.83467  0.022795862  0.022620687           15 
 1236000    0.7554865   -7.0231414     338.1112  0.022796063   0.02260557            8 
 1237000   0.75048017   -7.0398547    337.63886  0.022745814  0.022590431           12 
 1238000   0.74109127   -7.0362364     337.8786  0.022743578  0.022575314           13 
 1239000   0.75462481   -7.0366707    338.29838  0.022753455  0.022560104           13 
 1240000   0.74816942   -7.0678763    338.36611  0.022739658  0.022545007           20 
 1241000   0.76134153   -7.0288081    338.71948  0.022745063  0.022529911           14 
 1242000   0.76411338   -7.0160907    338.69886  0.022725366  0.022514887            6 
 1243000   0.74664965    -7.023223    339.15603  0.022737733  0.022499815           11 
 1244000   0.76486704   -7.0273873    338.01294  0.022642882   0.02248473           10 
 1245000   0.73838688   -7.0481173    338.34648   0.02264702   0.02246972           15 
 1246000   0.75668999   -7.0192087    339.29202  0.022692082  0.022454679            8 
 1247000   0.76768519    -7.072205    339.27569  0.022672794  0.022439719            9 
 1248000   0.74006993   -7.0290659    339.20623  0.022649989  0.022424783           11 
 1249000   0.75399735   -7.0550882    339.41649  0.022645883  0.022409927           15 
 1250000   0.73241594   -7.0463389    339.01731  0.022601154  0.022394989            9 
 1251000   0.75433476   -7.0549879    339.23253  0.022597424  0.022380058           15 
 1252000   0.75463386   -7.0567761    339.66205  0.022607964   0.02236512           15 
 1253000   0.74571591   -7.0236239     339.0979  0.022552401  0.022350153           17 
 1254000   0.75526002   -7.0423124    338.83643  0.022517041  0.022335252            6 
 1255000   0.74807941   -7.0594013    339.83083  0.022565128  0.022320374            9 
 1256000   0.75245526   -7.0382543    339.68003  0.022537157  0.022305436           21 
 1257000   0.74789365   -7.0572087     339.8101  0.022527851  0.022290574           28 
 1258000   0.75294264   -7.0467924    340.35303  0.022545909  0.022275729           21 
 1259000   0.75109196   -7.0723677    339.08946  0.022444364   0.02226087           17 
 1260000   0.76093308   -7.0577279    340.44997  0.022516532  0.022246057            8 
 1261000   0.74468314   -7.0705821    340.41293  0.022496228  0.022231105           11 
 1262000   0.76410063   -7.0660032    339.93361  0.022446752  0.022216231            7 
 1263000   0.75863254   -7.0539597    339.84382  0.022423055  0.022201313            5 
 1264000   0.74274966   -7.0630897    338.64723  0.022326426    0.0221863           24 
 1265000    0.7402177    -7.079071    339.91423  0.022392242  0.022171235           33 
 1266000   0.74808825   -7.0561606    340.03505  0.022382507  0.022156181           23 
 1267000   0.76503214   -7.0778327    339.30305  0.022316696  0.022141133           14 
 1268000   0.74834637   -7.0613005    339.33305  0.022301068  0.022126044           15 
 1269000   0.75637317   -7.0667137    339.66186  0.022305087  0.022110957           16 
 1270000   0.74406652   -7.0613423    339.51552  0.022277921  0.022095859           12 
 1271000   0.74493249   -7.0873918    339.94631  0.022288638  0.022080775           13 
 1272000   0.74225101   -7.0818642     339.6578  0.022252215  0.022065705           15 
 1273000   0.76825923    -7.092902    339.50841  0.022224955  0.022050619           21 
 1274000   0.76024366   -7.0786559    339.93049  0.022235118  0.022035532           17 
 1275000   0.75287282   -7.0794369    338.99163  0.022156316  0.022020394            8 
 1276000   0.74420322   -7.0800088     339.9781  0.022203377  0.022005258           16 
 1277000   0.74789705   -7.0765531    339.03149  0.022124216  0.021990111           13 
 1278000   0.75488315   -7.0809068    339.63032  0.022145952   0.02197494           28 
 1279000   0.75591183   -7.0761528    339.70289  0.022133366  0.021959792           14 
 1280000   0.74447147   -7.0772964    339.51608  0.022103912  0.021944594           14 
 1281000     0.747292   -7.1087033    339.38576  0.022078178  0.021929417           12 
 1282000   0.73126754   -7.0880581     340.1307   0.02210938  0.021914239           14 
 1283000   0.72438766   -7.0960846    340.20731  0.022097123  0.021899083           10 
 1284000   0.74827778   -7.0734768    340.41764  0.022093564   0.02188396           12 
 1285000   0.74833053   -7.0821263    340.20053  0.022062291  0.021868832           19 
 1286000   0.73619077   -7.0940339    340.60797  0.022071537  0.021853665           24 
 1287000   0.74667406   -7.0765431    339.37849  0.021974779  0.021838579           22 
 1288000   0.72451634   -7.0771889    340.39101  0.022023228  0.021823621           15 
 1289000   0.73891815   -7.1211928    340.49121   0.02201262  0.021808632           18 
 1290000   0.73508523   -7.0766607    340.96905  0.022026424  0.021793704           10 
 1291000   0.74171306   -7.0894119    341.05984  0.022015223  0.021778741           11 
 1292000   0.73642031   -7.0799077     341.2107  0.022007914  0.021763776           12 
 1293000   0.74508227   -7.0804773    340.58302  0.021950439  0.021748871           19 
 1294000   0.73291127   -7.0699731    340.75451   0.02194452  0.021733962           13 
 1295000    0.7475826    -7.087872    341.06833  0.021947769  0.021718973           22 
 1296000   0.73416981   -7.0834345    341.42574  0.021953816  0.021704045            7 
 1297000   0.74183518   -7.0839592    340.80822  0.021897213  0.021689082           38 
 1298000    0.7550016   -7.0751102    341.12986  0.021900993  0.021674158            8 
 1299000   0.73591914   -7.0646756    341.08304  0.021881129  0.021659339            8 
 1300000    0.7504641   -7.1088077    340.75986  0.021843581  0.021644436           10 
 1301000   0.72241176    -7.108745    341.88735   0.02189901  0.021629545           18 
 1302000   0.72410084   -7.0969216    340.96413  0.021823101  0.021614593           20 
 1303000   0.74789075    -7.097144    340.66792  0.021787408  0.021599631           19 
 1304000   0.72773849   -7.0796773    341.49551  0.021823589  0.021584716           19 
 1305000   0.72371696   -7.0781419    341.22618  0.021789667   0.02156986           10 
 1306000   0.73371669   -7.0850845    341.24179  0.021773979  0.021555033           22 
 1307000   0.75315738   -7.0896519    341.33026   0.02176296  0.021540197           22 
 1308000    0.7355785   -7.0840066    341.48635  0.021756266  0.021525355           37 
 1309000   0.71841443   -7.0775836    342.26326  0.021789105  0.021510496           11 
 1310000    0.7326117   -7.1161817    341.09206  0.021697968  0.021495682           20 
 1311000   0.74128147   -7.1332472    341.25823   0.02169198  0.021480842           19 
 1312000   0.71394349   -7.0974904    341.99041  0.021721952  0.021465996           21 
 1313000   0.73401712   -7.1130757     341.4591  0.021671687  0.021451153           17 
 1314000   0.73892783   -7.0863732    340.80192  0.021613516  0.021436331           16 
 1315000   0.72386919   -7.0899488    342.11634  0.021680377  0.021421546           17 
 1316000   0.71408241   -7.0803436    342.52786   0.02168996  0.021406832           31 
 1317000   0.71469278   -7.0863545    341.74028  0.021623657  0.021392138           13 
 1318000   0.74356337    -7.096958    342.54002  0.021657816  0.021377424           10 
 1319000   0.71892956   -7.0962966    342.18667  0.021619072  0.021362673           14 
 1320000    0.7215957   -7.1110916    342.10428  0.021597493  0.021347919           34 
 1321000   0.72652629   -7.1088748    342.86143  0.021628907  0.021333125           22 
 1322000   0.72417208   -7.1042101    342.43904  0.021585921  0.021318373           19 
 1323000   0.72777899   -7.0993618    342.10062  0.021548288   0.02130357            7 
 1324000   0.72534774   -7.0975694    342.56146  0.021561018  0.021288819            6 
 1325000   0.71993243   -7.1069179    342.84688  0.021562697  0.021274083           12 
 1326000   0.71840841   -7.1316511    342.59356  0.021530515  0.021259368           17 
 1327000   0.70650849   -7.1181241    342.54235  0.021511075  0.021244648           16 
 1328000   0.73457674   -7.1161476    343.34849  0.021545463  0.021229922           10 
 1329000   0.73332494   -7.1078091    343.42471   0.02153403   0.02121528           14 
 1330000   0.71041854    -7.116011    344.11828  0.021561296  0.021200709           13 
 1331000    0.7360701   -7.1336741    342.61794  0.021451161  0.021186108           15 
 1332000   0.73181845   -7.1213407    342.96468  0.021456749   0.02117147           19 
 1333000   0.71991357    -7.106111    342.87887  0.021435288  0.021156787           33 
 1334000   0.73732535   -7.0935803    343.52958  0.021459869  0.021142179           14 
 1335000   0.71823569    -7.115874    342.54059  0.021382059  0.021127572           14 
 1336000   0.71942584    -7.121385    342.37809  0.021355919  0.021112942           17 
 1337000   0.71647746   -7.1268831    342.90982  0.021373087  0.021098329           15 
 1338000   0.70551468   -7.1132823    343.26664  0.021379337  0.021083656           13 
 1339000   0.71360927   -7.1225096     342.9904  0.021346178  0.021069029            8 
 1340000   0.70872695   -7.0978971      343.239  0.021345709  0.021054418           14 
 1341000    0.7014869    -7.126544    343.53777  0.021348357  0.021039849           13 
 1342000   0.71074098    -7.117327    344.12999  0.021369224  0.021025243           26 
 1343000   0.73426819   -7.1370856    343.67474  0.021325065  0.021010631           19 
 1344000   0.72308272   -7.1007588    343.58869  0.021303863  0.020996135           16 
 1345000   0.72409528    -7.136289    344.19198  0.021325402  0.020981606           12 
 1346000   0.70625683   -7.0966184    344.27843   0.02131491  0.020967166           13 
 1347000   0.72237811   -7.1017591    343.75759  0.021266864  0.020952717            9 
 1348000   0.71680882    -7.124393    343.10444  0.021210709  0.020938312           13 
 1349000   0.71315736   -7.1097927    343.14798  0.021197676  0.020923862            9 
 1350000   0.72403402   -7.1455352    343.51449  0.021204598  0.020909374            6 
 1351000    0.7170795   -7.1484727    343.01106   0.02115785  0.020894824           15 
 1352000   0.71780112    -7.118427    344.26405  0.021219431  0.020880288           13 
 1353000   0.71109418   -7.1407353     343.3252  0.021145922  0.020865843            8 
 1354000   0.71479312    -7.139408    343.61161  0.021147933  0.020851348           16 
 1355000   0.71124817   -7.1606689    344.32943  0.021176471  0.020836841           23 
 1356000   0.71637575   -7.1465736    343.26924    0.0210957  0.020822259           12 
 1357000   0.71275287   -7.1424005     343.9586  0.021122488  0.020807748            9 
 1358000   0.70381855   -7.1413529    344.41178  0.021134743  0.020793249           17 
 1359000   0.72989638   -7.1468508    343.66153  0.021073187  0.020778749           13 
 1360000   0.71077358   -7.1381699    343.40641  0.021042059  0.020764178           10 
 1361000   0.72389441   -7.1353534    344.70271   0.02110597   0.02074969           27 
 1362000   0.70829979   -7.1437567    343.49414  0.021016528  0.020735178           28 
 1363000   0.72247673   -7.1440073    344.27185  0.021048658  0.020720648           53 
 1364000    0.6938887   -7.1615965     343.7665  0.021002352  0.020706063           40 
 1365000   0.70297402   -7.1402849    343.57626  0.020975352  0.020691504           44 
 1366000   0.69707086   -7.1298062    344.09504  0.020991644  0.020676968           72 
 1367000   0.69971935   -7.1604551    344.02671  0.020972123  0.020662473           53 
 1368000   0.70480726    -7.155793     344.0813  0.020960118  0.020647986           52 
 1369000   0.70683098   -7.1426471    344.35865   0.02096169  0.020633502           26 
 1370000   0.71020955   -7.1357715    343.84104  0.020914905  0.020619001           56 
 1371000    0.7198812   -7.1507656     344.7947  0.020957616  0.020604521           18 
 1372000   0.70168023   -7.1441508    343.97069  0.020892291  0.020590048           22 
 1373000   0.70162286   -7.1464243    344.07574  0.020883451  0.020575552           25 
 1374000   0.69647652   -7.1645123    344.59427  0.020899701  0.020561004           22 
 1375000   0.70674392   -7.1421017    344.49251  0.020878334  0.020546536           23 
 1376000   0.70207184   -7.1462364    345.16535  0.020903909  0.020532097           31 
 1377000   0.72021945   -7.1419774    344.31672  0.020837371  0.020517712           17 
 1378000   0.70291781   -7.1403806    344.71512  0.020846342  0.020503311           13 
 1379000   0.69804464   -7.1583427    345.31031  0.020867193  0.020488972           10 
 1380000   0.69988892   -7.1398951    344.89775  0.020827159  0.020474632           13 
 1381000    0.6974944   -7.1420194    345.30808  0.020836838  0.020460315            5 
 1382000   0.71156653   -7.1591059    344.68624  0.020784265  0.020445962           11 
 1383000   0.71132751   -7.1757674    344.22775  0.020741609  0.020431569           13 
 1384000   0.70315486   -7.1496101    344.87517  0.020765605  0.020417185            8 
 1385000   0.70395394   -7.1651973    345.58368  0.020793242  0.020402825           20 
 1386000   0.69684606   -7.1790737    345.08462  0.020748234  0.020388507           25 
 1387000   0.69259788   -7.1590984    344.90271  0.020722345  0.020374173           23 
 1388000   0.71138202    -7.156474    344.33665   0.02067343  0.020359861           13 
 1389000    0.6848415   -7.1661483    344.35243  0.020659493  0.020345439           14 
 1390000   0.71834023   -7.1470528    345.15301  0.020692627  0.020331071           25 
 1391000   0.70056296   -7.1466525    344.72853   0.02065232  0.020316763           22 
 1392000   0.70778897   -7.1354617    345.20557  0.020666042  0.020302484           40 
 1393000   0.69814628   -7.1690158    344.93086  0.020634773  0.020288193           25 
 1394000   0.68830367   -7.1777309    345.16426  0.020633923  0.020273887           19 
 1395000   0.70217612    -7.170556    345.56329  0.020642968  0.020259597           39 
 1396000   0.70854883    -7.130677    345.65923  0.020633908  0.020245365           31 
 1397000   0.69691109   -7.1818683     344.9079   0.02057432  0.020231194           15 
 1398000   0.69733163   -7.1457869    345.37559  0.020587482  0.020216964           14 
 1399000   0.67905053   -7.1716824    344.98795  0.020549675  0.020202717           29 
 1400000   0.67998811   -7.1616185     344.9999  0.020535708  0.020188467           18 
 1401000   0.70375267   -7.1560526    344.66469  0.020501112  0.020174191           24 
 1402000   0.69928985   -7.1768071    344.38757  0.020470017  0.020159871           22 
 1403000   0.70504718   -7.1904798    344.16263  0.020442066  0.020145465           45 
 1404000   0.69162404   -7.1925541    344.57724  0.020452115  0.020131056           31 
 1405000   0.70036674   -7.2097105    344.54256  0.020435502  0.020116608           66 
 1406000   0.68744422   -7.1860864    344.78704  0.020435458  0.020102157           27 
 1407000   0.68284307   -7.1944232    344.70181  0.020415886  0.020087787           38 
 1408000   0.69481925   -7.2124809    345.00318  0.020419222  0.020073368           19 
 1409000   0.68926542   -7.1909187    344.63648  0.020383043   0.02005898           42 
 1410000   0.68556932    -7.198603    344.44716  0.020357397  0.020044564           26 
 1411000    0.6906206   -7.1986843    344.82293  0.020365162  0.020030162           33 
 1412000    0.6936131   -7.2331343    344.21389  0.020314795  0.020015772           31 
 1413000   0.70756952   -7.1913693    345.35017  0.020367431  0.020001357           22 
 1414000    0.6878559   -7.2111799    343.96697  0.020271509   0.01998694           34 
 1415000   0.69429123   -7.1688989    344.27813  0.020275508  0.019972486           43 
 1416000   0.67748241   -7.2034337    344.93653  0.020299937  0.019958068           53 
 1417000    0.6933299   -7.2284016    344.73742  0.020273901  0.019943666           49 
 1418000   0.69035695    -7.183471    345.00108  0.020275099  0.019929288           85 
 1419000   0.69060797   -7.1887821    345.34007  0.020280718  0.019914954           91 
 1420000   0.69820807   -7.1985971    345.51749  0.020276848  0.019900643           93 
 1421000   0.67544533   -7.2244196    344.42586  0.020198561  0.019886306          103 
 1422000   0.70028438   -7.2012377    344.17267  0.020169519  0.019871954           74 
 1423000   0.69193221   -7.2191874    345.41839  0.020228297  0.019857622          112 
 1424000   0.68717949   -7.1965478    344.90081  0.020183802  0.019843286          133 
 1425000   0.67576012   -7.1980364    345.23676  0.020189284   0.01982897          111 
 1426000   0.67165961   -7.1745333     345.2782  0.020177548  0.019814662           65 
 1427000   0.67894312   -7.1979207    344.82321  0.020136838  0.019800394           75 
 1428000   0.68126686   -7.2315297    345.39026  0.020155827  0.019786146           46 
 1429000   0.69351836   -7.2201572    345.42738  0.020143888  0.019771902           48 
 1430000   0.67886522    -7.224869    344.85427  0.020096403  0.019757671           87 
 1431000   0.68365173    -7.201911    346.19648  0.020160522  0.019743443           31 
 1432000   0.67012123   -7.2013367    346.27815  0.020151196   0.01972929           18 
 1433000    0.6808614   -7.1814448    345.62488  0.020099144  0.019715107           73 
 1434000   0.67403289   -7.2100872    345.67027  0.020087766    0.0197009           86 
 1435000   0.68608022   -7.2065022    345.25751  0.020049798  0.019686699           45 
 1436000    0.6899449   -7.2076344    345.95673  0.020076412   0.01967246           55 
 1437000   0.66643675   -7.2066759    345.35923  0.020027791  0.019658269           59 
 1438000   0.67978435   -7.1946474    344.95258  0.019990298  0.019644104           55 
 1439000   0.68973616   -7.1964261    345.57729  0.020012583  0.019630002           51 
 1440000   0.70333807   -7.2123587    345.63398  0.020001966  0.019615809           56 
 1441000   0.66923052    -7.207639    345.83526  0.019999726  0.019601653           70 
 1442000   0.67341253   -7.2051402    345.91101  0.019990234   0.01958748           35 
 1443000   0.68165839    -7.210615    345.96074  0.019979253  0.019573327           60 
 1444000   0.69287523   -7.2425655    344.83474  0.019900435  0.019559119           92 
 1445000   0.66903529    -7.224558    345.05489  0.019899359  0.019544891           66 
 1446000   0.68727134   -7.2230657    346.04107  0.019942432  0.019530714           31 
 1447000    0.6781201   -7.2200014     345.3312  0.019887768  0.019516569          106 
 1448000   0.69238173   -7.2323409    345.62782  0.019891104  0.019502402           39 
 1449000   0.66906036   -7.2335192    345.36035  0.019861994   0.01948826           41 
 1450000   0.67414747   -7.1966726    345.54278   0.01985878   0.01947416           20 
 1451000   0.67536097   -7.2049206     345.9181  0.019866649   0.01946009           33 
 1452000   0.67113657   -7.2214092    345.76454  0.019844154  0.019446014           34 
 1453000   0.65889144   -7.2151488    345.71606  0.019827716   0.01943193           21 
 1454000   0.67224351   -7.2312726    345.47969  0.019800532  0.019417847           28 
 1455000   0.67035453    -7.226234    346.12166  0.019823692  0.019403807           37 
 1456000   0.67175956   -7.2264232    346.03825  0.019805303  0.019389764           17 
 1457000   0.67035914   -7.2279296    345.95248  0.019786804  0.019375732           37 
 1458000   0.67090557   -7.2266961    345.93619  0.019772302  0.019361737           20 
 1459000   0.67384449    -7.214808     346.5593   0.01979434  0.019347765           18 
 1460000   0.66563834   -7.1984687    345.88171  0.019742107  0.019333806           18 
 1461000   0.67886011   -7.2105128    345.68419  0.019717328  0.019319801           11 
 1462000   0.66257326    -7.218072    346.67235  0.019760166   0.01930584           24 
 1463000    0.6631004   -7.2197628    345.47844  0.019678654  0.019291829           10 
 1464000   0.66860472   -7.2353045    346.40549  0.019717981  0.019277831           19 
 1465000   0.67740989    -7.231797    346.23369  0.019694749  0.019263821           15 
 1466000   0.66912372   -7.2288968    346.01517  0.019668893  0.019249819           15 
 1467000   0.66370656   -7.2302779    345.16146   0.01960699  0.019235847           17 
 1468000   0.66701151   -7.2298266    345.59083  0.019618008  0.019221888           26 
 1469000   0.66567533   -7.2261015    345.71624  0.019611768  0.019207901           18 
 1470000    0.6549988   -7.2061395    346.38084  0.019636102  0.019193945           16 
 1471000   0.67204795   -7.2315016    345.87511  0.019594103  0.019180037           17 
 1472000   0.66298154   -7.2521593    344.74608  0.019516875  0.019166074           17 
 1473000   0.66450831   -7.2058453    345.84667   0.01956589  0.019152129           15 
 1474000   0.66434978   -7.2489783    345.71922   0.01954541  0.019138221           18 
 1475000   0.65171939   -7.2210774    346.19985  0.019559314  0.019124325           16 
 1476000   0.66508842   -7.2274956    346.48759  0.019562307  0.019110415           11 
 1477000   0.67099304   -7.2346398    345.72788    0.0195062  0.019096476           73 
 1478000   0.66452756   -7.2248987    345.69473  0.019491132  0.019082588           36 
 1479000   0.65593875   -7.2369501    346.60467  0.019529224  0.019068714           63 
 1480000   0.66411264   -7.2543269    345.89225  0.019475915  0.019054795           39 
 1481000   0.64882055   -7.2377641    345.78525  0.019456744  0.019040874           24 
 1482000   0.64842486   -7.2286342    345.83993   0.01944669  0.019026949           29 
 1483000   0.67010775   -7.2386185    345.79055  0.019430802  0.019013036           38 
 1484000   0.66608208   -7.2361191    345.56597  0.019405097  0.018999137           53 
 1485000   0.66536112    -7.234633    346.03835  0.019418538  0.018985228           37 
 1486000    0.6587214   -7.2631475     345.7841  0.019391212  0.018971292           33 
 1487000    0.6571823   -7.2692309     346.4616   0.01941614  0.018957341           57 
 1488000   0.64746213   -7.2469513    346.27633  0.019392716  0.018943425           36 
 1489000   0.66900143   -7.2550454    346.06646  0.019367946  0.018929524           22 
 1490000   0.66868488   -7.2570442    346.68137  0.019389338  0.018915604           22 
 1491000   0.63976556   -7.2464937    345.61319  0.019316632  0.018901707           31 
 1492000   0.65372871   -7.2664384    345.91275  0.019320417  0.018887821           23 
 1493000    0.6540147   -7.2364153    345.62058  0.019291169  0.018873906           26 
 1494000   0.65238495   -7.2598583    345.49102  0.019271029  0.018860001           41 
 1495000   0.64786448   -7.2476314    345.81529  0.019276215   0.01884609           24 
 1496000   0.64243911   -7.2607471    345.99939  0.019273584  0.018832186           26 
 1497000   0.67483944    -7.258497    346.01968  0.019261839  0.018818311           41 
 1498000   0.65312652   -7.2607619    345.98129  0.019246845  0.018804396           38 
 1499000   0.63759615   -7.2518099    345.74879   0.01922108  0.018790441           69 
 1500000   0.66427764   -7.2739392    345.77909   0.01920995   0.01877647           31 
 1501000   0.65226105    -7.261998    345.89157  0.019203396  0.018762531           43 
 1502000   0.65623042   -7.2728256    345.73481  0.019181914  0.018748614           48 
 1503000   0.66164206   -7.2732164    345.79646   0.01917257  0.018734684           37 
 1504000   0.65238718   -7.2466135    345.12758   0.01912276  0.018720739           30 
 1505000   0.64925419   -7.2633587    345.46993  0.019129011  0.018706809           34 
 1506000   0.64014683   -7.2720707    345.42295  0.019113709  0.018692893           42 
 1507000   0.65263213   -7.2619156    345.97916  0.019131783  0.018679008           32 
 1508000   0.65067731   -7.2600796    345.68001  0.019102564  0.018665102           21 
 1509000   0.64259779   -7.2545486    345.74543  0.019093518  0.018651211           28 
 1510000   0.64303418   -7.2619486    346.19564  0.019105719   0.01863734           25 
 1511000   0.64057749   -7.2531791     345.1153  0.019033493   0.01862345           27 
 1512000   0.65539912   -7.2612082    345.96865  0.019067937  0.018609583           36 
 1513000   0.65739195   -7.2552857    344.85418  0.018993951  0.018595671           40 
 1514000   0.65152394   -7.2683338    345.54728  0.019019555  0.018581781           36 
 1515000   0.64512868   -7.2832524     345.7576   0.01901857  0.018567882           43 
 1516000   0.65793999   -7.2881649    345.38225  0.018985392  0.018554008           79 
 1517000   0.64728749   -7.2682388    345.94167  0.019003608  0.018540156          149 
 1518000    0.6487402   -7.2903431    345.50393  0.018967058  0.018526297          124 
 1519000   0.64629082   -7.2546042    345.49401  0.018954028  0.018512445           44 
 1520000   0.64825028   -7.2425522    345.14018  0.018922159  0.018498593           58 
 1521000   0.64784517   -7.2714263    345.15496  0.018910528  0.018484738           47 
 1522000   0.64186569   -7.2868675    345.62154   0.01892365  0.018470907           40 
 1523000   0.64429717   -7.3104023    345.44751  0.018901702  0.018457053          112 
 1524000   0.64351785   -7.2950878     344.8386  0.018856004  0.018443171           34 
 1525000   0.65705306   -7.3112762    345.16986  0.018861741  0.018429258           66 
 1526000    0.6467039   -7.3109078    344.76334  0.018827181  0.018415358          115 
 1527000   0.64517943   -7.3085157    345.16036  0.018836518  0.018401434           41 
 1528000   0.66279701   -7.3000676    345.71418  0.018854395  0.018387559           35 
 1529000   0.64652344   -7.2731753    345.76919  0.018845062   0.01837369           77 
 1530000   0.63940554   -7.2977888    344.97685  0.018789589  0.018359804           72 
 1531000   0.64182918   -7.2928661    345.29081  0.018794405  0.018345964           62 
 1532000   0.64096924    -7.305608    345.70085  0.018804441  0.018332169           71 
 1533000   0.63696905   -7.3107512    345.37084  0.018774236  0.018318394           40 
 1534000    0.6331754   -7.3011648    344.98394  0.018740979  0.018304594           69 
 1535000   0.63616374   -7.3051342    345.48702  0.018756081   0.01829086           46 
 1536000   0.64426003   -7.3041915    345.39729  0.018739002  0.018277093           64 
 1537000   0.62671735   -7.2943532    345.86102  0.018751953  0.018263309           49 
 1538000   0.62913181   -7.2934358    345.55739  0.018723309  0.018249542           54 
 1539000   0.63199095   -7.2951458    345.75349  0.018721762  0.018235847           95 
 1540000   0.62960011   -7.3021673     345.6665  0.018704897  0.018222163           46 
 1541000   0.63918509   -7.2854704    345.06137  0.018660035  0.018208457           80 
 1542000   0.65687144   -7.3060715    345.51613   0.01867251  0.018194742           73 
 1543000   0.64189336   -7.2935807    345.05366  0.018635432  0.018181054           56 
 1544000   0.63593693   -7.2909222    344.96917  0.018618802  0.018167316          105 
 1545000   0.63700711    -7.302053    345.18948  0.018618634  0.018153592          108 
 1546000    0.6300523   -7.2694307    345.09152  0.018601311  0.018139885           94 
 1547000   0.64579572   -7.2847335    345.54991  0.018613979  0.018126196           85 
 1548000   0.65036419   -7.2924525    345.53364  0.018601079  0.018112517          174 
 1549000   0.62092374   -7.3342307    345.29275  0.018576111  0.018098826           54 
 1550000   0.63044974   -7.3157872    345.22427  0.018560445  0.018085104           70 
 1551000   0.63208132   -7.3145949    345.08581  0.018541038  0.018071422          146 
 1552000   0.65002119   -7.3141152    345.37464  0.018544601  0.018057756          164 
 1553000    0.6374307    -7.301619    345.57201   0.01854325   0.01804408          121 
 1554000   0.62534933   -7.3286073    344.69038   0.01848404  0.018030398          224 
 1555000   0.63471671   -7.2969806    345.00636  0.018489087  0.018016745          270 
 1556000   0.64240452    -7.320513    345.18857  0.018486963  0.018003098          180 
 1557000   0.63016975   -7.2845953    345.56012  0.018494976  0.017989467          208 
 1558000   0.63316563   -7.3063565    344.83325  0.018444226  0.017975863          168 
 1559000   0.62683053   -7.3021776    345.10794  0.018447078   0.01796226          149 
 1560000    0.6214797   -7.3049809    345.25633   0.01844318  0.017948662          210 
 1561000   0.63737914   -7.3218196     344.9864  0.018416955  0.017935065          104 
 1562000   0.63467685   -7.3037817    344.72896   0.01839143  0.017921453          104 
 1563000   0.61843329   -7.3108185    344.88796   0.01838814  0.017907847          213 
 1564000   0.63532926   -7.3150152    344.78141  0.018370706  0.017894237           74 
 1565000   0.63792156    -7.320794    345.23099  0.018382907  0.017880595           92 
 1566000   0.63864306   -7.3322313    344.85265  0.018351035  0.017866982          101 
 1567000   0.61860839   -7.3313497    345.29297   0.01836274  0.017853323          149 
 1568000   0.61963671   -7.3285362     344.9615  0.018333413  0.017839697          102 
 1569000   0.61229851   -7.3343659    344.84663  0.018315627  0.017826032          130 
 1570000   0.62588716   -7.3326492    344.71973  0.018297225  0.017812374          113 
 1571000    0.6240899   -7.3485403     344.3049  0.018263574  0.017798711          145 
 1572000    0.6284598     -7.33051     345.2973  0.018304564  0.017785072          194 
 1573000   0.63516449   -7.3191604    345.12889  0.018284006  0.017771459          233 
 1574000   0.62880445   -7.3470649    344.74665  0.018252152  0.017757821          224 
 1575000   0.62366042    -7.326853    345.15101  0.018261958    0.0177442          183 
 1576000    0.6092197   -7.3248953    344.34493  0.018207748  0.017730604          204 
 1577000   0.61405004   -7.3256384    344.82462   0.01822155  0.017717014          176 
 1578000   0.63573536   -7.3292444     344.5513  0.018195569  0.017703447          147 
 1579000   0.62482498   -7.3352102    345.59163   0.01823895   0.01768991          202 
 1580000   0.63269225   -7.3433925    344.99766  0.018196079  0.017676384          203 
 1581000   0.62098109   -7.3240269     344.5188   0.01815933  0.017662858          159 
 1582000   0.62844424   -7.3411948    345.11326  0.018179165  0.017649342          206 
 1583000   0.61110128   -7.3469246    344.52938  0.018136943  0.017635835          122 
 1584000   0.61798883   -7.3632444    344.85134  0.018142432  0.017622335          261 
 1585000   0.61308399   -7.3431467    344.94785  0.018136059  0.017608816          184 
 1586000   0.62227002   -7.3211193    344.87138  0.018120606  0.017595289          242 
 1587000   0.62230786   -7.3257703    345.52224  0.018143365  0.017581816          240 
 1588000   0.62436425   -7.3348059    344.62432   0.01808482  0.017568349          243 
 1589000   0.62023345   -7.3515732    344.96136  0.018091114  0.017554872          258 
 1590000   0.62030374   -7.3508549    344.49031  0.018055048  0.017541404          221 
 1591000    0.5995984   -7.3670242    344.24452  0.018030826  0.017527949          193 
 1592000   0.62344591   -7.3679185    344.87058  0.018052271  0.017514499          197 
 1593000   0.61979865   -7.3642174    345.54994  0.018076477  0.017501053          192 
 1594000   0.61796473   -7.3282834    345.17376   0.01804547  0.017487626          238 
 1595000   0.61308222   -7.3451064     344.7913  0.018014175  0.017474236          138 
 1596000   0.61375722   -7.3538349    344.72461  0.017999405  0.017460838          214 
 1597000   0.60961233   -7.3677743    344.65007  0.017984245  0.017447482          297 
 1598000   0.62932034   -7.3459044    345.35003  0.018009492  0.017434142          223 
 1599000   0.62071682    -7.338574    345.09366  0.017984869  0.017420827          212 
 1600000   0.62032682   -7.3456834    344.48714  0.017942038  0.017407533          151 
 1601000   0.61114739   -7.3323942    345.16854  0.017966299   0.01739422          164 
 1602000    0.6160999   -7.3539099    345.54903  0.017974877  0.017380921          227 
 1603000   0.60651272     -7.32486    344.92137  0.017931034  0.017367623          212 
 1604000   0.61440371   -7.3389457     345.1091  0.017929608  0.017354326          288 
 1605000   0.60764052   -7.3588991    345.21074  0.017923714   0.01734104          340 
 1606000   0.60510035   -7.3701549    344.83692  0.017893157  0.017327738          286 
 1607000   0.60869367   -7.3533391    344.91101  0.017885865  0.017314455          317 
 1608000   0.62115653   -7.3554945    344.89734  0.017874033  0.017301182          328 
 1609000   0.62023333   -7.3722405    345.21071  0.017879154   0.01728793          428 
 1610000   0.61502404   -7.3359223    345.20291  0.017867645  0.017274684          245 
 1611000   0.60904623   -7.3481746    345.09774  0.017851114  0.017261467          149 
 1612000   0.61024572   -7.3700445    344.34865  0.017801316  0.017248214          317 
 1613000   0.61131656    -7.371935    344.32203  0.017788904  0.017234958          334 
 1614000   0.62012114   -7.3678279    344.38077  0.017780915  0.017221718          367 
 1615000    0.6154741   -7.3822459    344.82732  0.017792947  0.017208501          385 
 1616000   0.60027627   -7.3582542    344.68458  0.017774576   0.01719528          497 
 1617000   0.61533875   -7.3766935    344.32263  0.017744931  0.017182078          597 
 1618000   0.59947135   -7.3661549     344.8523  0.017761244   0.01716888          424 
 1619000    0.6206094   -7.4094651    344.43992  0.017729047  0.017155649          454 
 1620000   0.60560171   -7.3839956    344.50261  0.017721327  0.017142453          496 
 1621000   0.62418397   -7.3709303    344.38666  0.017704435  0.017129244          464 
 1622000   0.58438535   -7.3565046    344.58414  0.017703665  0.017116038          472 
 1623000    0.6072583   -7.3742982    344.55273  0.017691144  0.017102843          474 
 1624000   0.60958147   -7.3866234     344.1206  0.017658077  0.017089645          512 
 1625000   0.60153617   -7.3743646    344.81571  0.017682857  0.017076455          584 
 1626000   0.59928027   -7.3899175    344.76071  0.017669163  0.017063282          525 
 1627000   0.59353076   -7.3866299    344.18072  0.017628597  0.017050081          519 
 1628000   0.60691396   -7.3844468    344.34223  0.017626036  0.017036894          562 
 1629000   0.61699058   -7.3986448    344.47834  0.017622178  0.017023706          477 
 1630000   0.61786602   -7.3856813    344.51912  0.017613452  0.017010545          377 
 1631000   0.60419572   -7.4028625    343.94638  0.017573389  0.016997364          356 
 1632000   0.60238699   -7.3917028    344.55511  0.017593705  0.016984202          512 
 1633000   0.58493024   -7.4049773    344.35888  0.017572917  0.016971029          531 
 1634000   0.61482192   -7.3972666    344.97614  0.017593643   0.01695789          408 
 1635000    0.6179588    -7.400657    344.67467  0.017567516  0.016944763          376 
 1636000   0.60536647   -7.3830753    344.57679  0.017551792  0.016931663          463 
 1637000   0.59390953   -7.3927443    344.01988  0.017512721  0.016918569          505 
 1638000   0.58772656   -7.4128724    344.28468  0.017515501  0.016905464          439 
 1639000   0.60227332    -7.418822    344.12618  0.017496755  0.016892359          494 
 1640000   0.59956472   -7.4037572    344.47815  0.017503971   0.01687926          468 
 1641000   0.59815129   -7.3923183    344.25191  0.017481815  0.016866166          495 
 1642000   0.59378098   -7.3845793    344.14127  0.017465554  0.016853101          454 
 1643000   0.58209006    -7.421053    344.06726  0.017451169   0.01684002          457 
 1644000   0.60005552   -7.3957705    344.10479  0.017442457  0.016826923          446 
 1645000   0.59372546   -7.4317918    343.49758  0.017401093  0.016813862          529 
 1646000   0.58583207   -7.4060886    344.29461  0.017430874  0.016800817          445 
 1647000   0.59482574    -7.397812    344.52445  0.017431919  0.016787768          476 
 1648000   0.59470391   -7.4171498    344.04146  0.017396919  0.016774738          561 
 1649000   0.59205548   -7.4082502    344.02364  0.017385468  0.016761706          371 
 1650000   0.58625903   -7.4143644    344.27647  0.017387701  0.016748675          478 
 1651000   0.57399108   -7.4184307    344.07586  0.017367043  0.016735644          474 
 1652000   0.59377752   -7.4412093    343.80295  0.017342764  0.016722619          449 
 1653000   0.59414249   -7.4312306    344.05348  0.017344902  0.016709632          467 
 1654000   0.59159661   -7.4074823    344.69875  0.017366926  0.016696647          475 
 1655000   0.59778023   -7.4218497    343.83012  0.017312695  0.016683669          499 
 1656000   0.59453603    -7.404536    343.52293  0.017286782  0.016670729          470 
 1657000   0.59123766   -7.3986508    343.98325    0.0172995  0.016657787          518 
 1658000   0.59854943   -7.4199308     344.0773  0.017293793  0.016644838          513 
 1659000   0.60318109    -7.428544    343.44235  0.017251475  0.016631881          527 
 1660000   0.58737532   -7.4267306    344.00508  0.017269331  0.016618951          468 
 1661000   0.58737975   -7.4402553    343.81309  0.017249302  0.016606042          482 
 1662000   0.59173802   -7.4257763    343.96347  0.017246464  0.016593116          602 
 1663000    0.6029232   -7.4233399    343.76469  0.017226132  0.016580202          505 
 1664000   0.59652389   -7.4154102    343.83035  0.017219068  0.016567277          587 
 1665000   0.59941695   -7.4347755    344.00657  0.017217546  0.016554369          478 
 1666000    0.5936381   -7.4499974    344.41003  0.017227393  0.016541471          586 
 1667000   0.59419557   -7.4378611    343.55968  0.017174549   0.01652859          641 
 1668000   0.59166296   -7.4269947     343.8475  0.017178632  0.016515718          562 
 1669000   0.58390595   -7.4307363    343.62572  0.017157266  0.016502829          580 
 1670000    0.5910959   -7.4298124    343.63156  0.017147284  0.016489958          561 
 1671000   0.58078442   -7.4320221    343.66167  0.017138523  0.016477116          609 
 1672000   0.57606065   -7.4241883    343.59397  0.017124899  0.016464265          498 
 1673000   0.58885163   -7.4403124    344.07841  0.017138793  0.016451423          684 
 1674000   0.58976977   -7.4186933    342.87446  0.017068621   0.01643859          484 
 1675000   0.58184458   -7.4137566    343.96484  0.017112678  0.016425767          681 
 1676000   0.57967721    -7.433292    343.66327  0.017087474  0.016412939          593 
 1677000   0.57602076   -7.4474608     343.0692  0.017047764  0.016400117          651 
 1678000   0.58592019   -7.4398075    343.57158  0.017062554  0.016387287          634 
 1679000   0.60050289    -7.446829    343.78216  0.017062843  0.016374458          696 
 1680000   0.58588011   -7.4539294     343.4057  0.017034013  0.016361649          707 
 1681000   0.57059993   -7.4326132    343.59196  0.017033113  0.016348827          684 
 1682000   0.58117145    -7.436433    343.71535    0.0170291   0.01633605          688 
 1683000   0.58181152   -7.4249513    343.25736  0.016996304  0.016323262          650 
 1684000   0.57060618   -7.4513047    343.54235  0.017000314  0.016310497          705 
 1685000   0.58314982   -7.4420656    343.87459  0.017006656  0.016297733          698 
 1686000   0.57571813   -7.4509554    343.12094  0.016959319   0.01628497          754 
 1687000   0.58066005   -7.4460228    343.46528  0.016966275   0.01627222          657 
 1688000   0.58511144   -7.4302287    343.04976  0.016935711  0.016259494          707 
 1689000   0.58862411   -7.4674304    343.72538  0.016959018  0.016246778          716 
 1690000   0.59173067   -7.4569149    343.40817  0.016933342  0.016234098          698 
 1691000      0.58238   -7.4487739    343.11833  0.016909044    0.0162214          675 
 1692000     0.581819   -7.4505139    343.31975  0.016908971  0.016208697          614 
 1693000   0.58365459   -7.4493824    342.99284  0.016882892   0.01619602          685 
 1694000   0.57281054   -7.4492893     343.4129   0.01689359  0.016183344          669 
 1695000   0.57883231   -7.4406956    343.44721   0.01688531  0.016170663          582 
 1696000   0.58639877   -7.4437208    343.47973  0.016876952  0.016157992          707 
 1697000   0.57125746   -7.4930282    343.87396  0.016886366   0.01614532          691 
 1698000   0.59415214   -7.4647418    343.51267   0.01685869  0.016132669          673 
 1699000    0.5733161   -7.4591551    342.80186  0.016813903  0.016120031          805 
 1700000   0.57505202   -7.4590651    342.74382  0.016801168  0.016107406          710 
 1701000   0.58370836   -7.4585787     343.6787  0.016837091  0.016094804          684 
 1702000   0.58158114   -7.4779641     343.6981  0.016828148  0.016082219          744 
 1703000   0.56948679   -7.4703267    343.75865   0.01682123  0.016069643          711 
 1704000   0.56705361   -7.4563174     343.7922  0.016812999  0.016057071          716 
 1705000   0.57184256   -7.4742834    342.95777  0.016762354  0.016044519          788 
 1706000   0.57190988   -7.4565291    343.37694  0.016773004   0.01603198          702 
 1707000   0.58402636    -7.469063    343.41506  0.016765039   0.01601944          649 
 1708000   0.57487829   -7.4519957    343.24296  0.016746827  0.016006932          688 
 1709000   0.58226079   -7.4619914    343.79849  0.016764116  0.015994407          701 
 1710000     0.575421   -7.4391371    342.41662   0.01668697    0.0159819          585 
 1711000   0.56594138   -7.4495134    342.92571  0.016702012  0.015969402          713 
 1712000   0.57306607   -7.4638347    343.45817  0.016718174  0.015956926          660 
 1713000   0.55380641    -7.451372    343.40368  0.016705764  0.015944434          609 
 1714000   0.57224858   -7.4749632    343.59611  0.016705373  0.015931966          719 
 1715000   0.56162224   -7.5032222    343.49984  0.016690954  0.015919498          653 
 1716000   0.56171035   -7.4678823    342.64587  0.016639757  0.015907045          679 
 1717000   0.56748016    -7.468935    344.05534  0.016698473  0.015894585          696 
 1718000   0.56250646    -7.478151    342.82463  0.016629056  0.015882144          724 
 1719000   0.57646861   -7.4733537    342.85503  0.016620857  0.015869698          710 
 1720000   0.57090282   -7.4970185    343.15692   0.01662582  0.015857283          748 
 1721000   0.56531184   -7.4991653    343.32231  0.016624168  0.015844861          663 
 1722000   0.56834805   -7.4696525    343.39525  0.016618044  0.015832436          752 
 1723000   0.56985561   -7.4692759    343.60405  0.016618497  0.015820027          751 
 1724000   0.56445815   -7.4745236    342.75643  0.016567886  0.015807621          875 
 1725000   0.55959732   -7.4823243    342.95366   0.01656781  0.015795237          829 
 1726000   0.56358727    -7.475093    343.21964  0.016571052  0.015782863          809 
 1727000   0.56277496    -7.468531    343.59978    0.0165798  0.015770503          809 
 1728000   0.56452581   -7.4792066    343.02879  0.016542669  0.015758154          719 
 1729000    0.5646308   -7.4766651    343.28538  0.016545468  0.015745807          738 
 1730000   0.56080438   -7.4769742    343.38016   0.01654047  0.015733481          718 
 1731000   0.55850082   -7.4942265    342.85424  0.016505596  0.015721156          765 
 1732000   0.55486073   -7.4891211    343.02683   0.01650437  0.015708832          709 
 1733000   0.55826773   -7.4851435    343.30674  0.016508306   0.01569653          834 
 1734000   0.56191478   -7.4917691    343.07301  0.016487553  0.015684232          824 
 1735000   0.55530392    -7.508694    343.33797  0.016490776  0.015671944          786 
 1736000   0.55262975   -7.4952485    343.09403  0.016469567  0.015659641          704 
 1737000   0.57485053   -7.4770816    342.47196  0.016430242  0.015647357          744 
 1738000   0.56101205   -7.4901241    342.82177  0.016437561  0.015635092          872 
 1739000   0.56672019   -7.5110064    343.43263  0.016457381  0.015622853          915 
 1740000   0.56071889   -7.4961695    343.25587  0.016439457  0.015610625          835 
 1741000   0.55788647   -7.4750834    343.54596    0.0164439  0.015598402          844 
 1742000   0.56133725   -7.5050513    343.24662  0.016420141  0.015586195          907 
 1743000   0.55738166   -7.4970028    342.90285  0.016394284  0.015573998          935 
 1744000   0.54200671   -7.4978529    343.09516  0.016394073  0.015561794          930 
 1745000   0.56179618   -7.5033451    343.27401  0.016393219  0.015549602          914 
 1746000   0.56391007   -7.4884085    342.36713  0.016340546  0.015537424          858 
 1747000   0.54255725   -7.5113232    342.64012  0.016344215  0.015525239         1014 
 1748000   0.57103887    -7.484498    342.87147  0.016345894  0.015513071          963 
 1749000   0.55252394    -7.485875    342.62216  0.016324669  0.015500918          888 
 1750000   0.55855138   -7.4900185    343.12076  0.016339084  0.015488788          933 
 1751000    0.5493992   -7.4883753    343.07508  0.016327578  0.015476665          911 
 1752000   0.55268909    -7.485599    342.71431  0.016301099  0.015464549          848 
 1753000   0.54947632   -7.5082956    342.57142  0.016285007  0.015452425          905 
 1754000   0.55602051   -7.4918103    343.02865  0.016297447  0.015440319          881 
 1755000   0.56042476     -7.48664     342.6826  0.016271728   0.01542823          916 
 1756000   0.55975592    -7.535819    343.10096  0.016282316  0.015416148          878 
 1757000   0.54839626   -7.4908399    343.53143  0.016293465  0.015404065          901 
 1758000   0.54101535   -7.5013342    342.81812  0.016250385  0.015392002          942 
 1759000   0.54843039   -7.5034772    342.90822  0.016245415  0.015379938          838 
 1760000   0.55305675   -7.4897485    343.05355  0.016243066  0.015367905          875 
 1761000   0.56641733   -7.4904319     342.5768  0.016211281   0.01535588          913 
 1762000   0.54349433   -7.4932939    342.42551  0.016194926  0.015343863          901 
 1763000   0.54737689   -7.4962221    342.77601  0.016202307   0.01533187          941 
 1764000   0.54629914   -7.4933083    342.46677  0.016178514  0.015319887          900 
 1765000   0.55459463    -7.506193    342.94786  0.016192062  0.015307898          931 
 1766000   0.55167604   -7.4928964    342.65316  0.016168986  0.015295915          987 
 1767000   0.56586869   -7.4967491    343.07154  0.016179567   0.01528393          928 
 1768000     0.548256   -7.5128432    342.18375   0.01612857  0.015271973          957 
 1769000    0.5458464    -7.512299    342.52856  0.016135696  0.015260007          987 
 1770000   0.55476189   -7.4893549    343.08039  0.016152561  0.015248044          930 
 1771000    0.5492691   -7.5172176    342.75904  0.016128319  0.015236091          885 
 1772000   0.54060768   -7.5028766    342.46555  0.016105415  0.015224141          986 
 1773000   0.54862148   -7.5063697    342.67007  0.016105944  0.015212193          960 
 1774000   0.53818562   -7.5230727    342.95185  0.016110102  0.015200264          952 
 1775000   0.55527404   -7.4937007    342.37471   0.01607393  0.015188338          932 
 1776000   0.54138269   -7.5124135    342.37815  0.016065041  0.015176429          953 
 1777000   0.54536019   -7.5033091    342.70354   0.01607126  0.015164519          989 
 1778000   0.53158854   -7.5135528    342.31211  0.016043875  0.015152621          943 
 1779000   0.54794248    -7.531724    342.91429  0.016063064  0.015140733          953 
 1780000   0.54352578   -7.5164165    342.59248  0.016038974  0.015128858          877 
 1781000   0.53571605   -7.5012074    342.00106  0.016002296  0.015116993          913 
 1782000   0.55119355   -7.5192874    342.76398  0.016028993  0.015105136          904 
 1783000   0.53377068   -7.5215786    342.07346   0.01598773  0.015093281          981 
 1784000   0.53850246   -7.5060914    342.38715  0.015993421  0.015081431          953 
 1785000   0.55057211   -7.5061315    342.42947  0.015986437  0.015069601          947 
 1786000   0.53431368   -7.5083664    342.14904  0.015964401  0.015057787          911 
 1787000     0.541558   -7.5231206     342.3516  0.015964913  0.015045954          948 
 1788000   0.54468721   -7.4990218    341.85961  0.015933054  0.015034146          913 
 1789000   0.53758963   -7.5284689    342.18625  0.015939363  0.015022323          904 
 1790000   0.54082847   -7.5244196    341.74783  0.015910048  0.015010525          945 
 1791000   0.53489676   -7.5391527    342.52522  0.015937336  0.014998736          976 
 1792000    0.5514027    -7.542053    342.08707  0.015908067  0.014986928         1051 
 1793000   0.54354239   -7.5346642    342.26051  0.015907255  0.014975143         1025 
 1794000   0.53926617   -7.5349032    342.22043  0.015896527  0.014963376         1000 
 1795000    0.5321401   -7.5496672    341.88834  0.015872254  0.014951614         1006 
 1796000   0.54761168   -7.5399534    341.95673  0.015866589  0.014939857          925 
 1797000   0.52422884   -7.5273656    342.12298  0.015865469  0.014928124          943 
 1798000   0.53465415   -7.5209197     342.2194  0.015861114  0.014916392         1011 
 1799000    0.5406641   -7.5334637    342.20017  0.015851407  0.014904671          944 
 1800000   0.53848475   -7.5264365    341.48867  0.015809661  0.014892952          962 
 1801000   0.53814594   -7.5435486     341.9237  0.015821012   0.01488126          997 
 1802000   0.54234108    -7.563236    342.07934  0.015819429  0.014869569          969 
 1803000   0.53786435   -7.5191689    342.39529  0.015825258  0.014857895          914 
 1804000   0.53353368   -7.5254962    342.20671  0.015807775  0.014846231          951 
 1805000    0.5310849   -7.5597735    341.88083  0.015783972  0.014834569          962 
 1806000   0.52791501   -7.5362428    341.79748  0.015771386   0.01482292          998 
 1807000   0.54146653   -7.5295344    342.89101  0.015813088  0.014811279         1014 
 1808000   0.53361215   -7.5365749    342.19828  0.015772414   0.01479966         1023 
 1809000   0.52663735   -7.5442534     342.0355  0.015756196  0.014788049          987 
 1810000   0.52820369   -7.5397474    342.20386  0.015755242  0.014776437         1031 
 1811000   0.52973508   -7.5548164    341.82305  0.015729019   0.01476482          906 
 1812000   0.54119432   -7.5425746    342.43525  0.015748494  0.014753232          957 
 1813000   0.52809306    -7.567686    341.91976  0.015716113  0.014741639          847 
 1814000   0.53412324   -7.5489296    342.36016  0.015727681  0.014730054          948 
 1815000   0.52299058    -7.544553    342.48448  0.015724724  0.014718489          961 
 1816000    0.5136579   -7.5420229    342.21305  0.015703609  0.014706954          936 
 1817000   0.51782556    -7.558316    342.81173  0.015722424  0.014695441          989 
 1818000   0.52866248   -7.5474008    342.18864  0.015685214  0.014683925         1012 
 1819000   0.52128356   -7.5443165    341.81701  0.015659566  0.014672406          992 
 1820000   0.52781529   -7.5345892    342.11317  0.015664522  0.014660915          932 
 1821000   0.51724117    -7.544187    341.84614  0.015643701  0.014649434          965 
 1822000   0.52500459   -7.5653321    342.25003  0.015653587  0.014637956          979 
 1823000   0.52840847   -7.5496315    341.52991  0.015612082  0.014626482          971 
 1824000   0.52726644   -7.5431025    341.80616  0.015616144  0.014615027          973 
 1825000    0.5206767   -7.5557065    342.16846   0.01562413  0.014603594          997 
 1826000   0.52544664   -7.5517864    341.84002  0.015600585  0.014592164          959 
 1827000   0.52724644   -7.5463956     341.6034  0.015581254  0.014580734         1014 
 1828000   0.51182211   -7.5562799    342.08746  0.015594797  0.014569305         1055 
 1829000   0.52002247   -7.5416913    341.28248  0.015549594  0.014557869          976 
 1830000   0.51845459    -7.567642    341.91409  0.015569858   0.01454646         1019 
 1831000   0.53297161   -7.5608589    341.85296  0.015558573  0.014535056         1072 
 1832000   0.51949149   -7.5455354    341.40315  0.015529619  0.014523662         1028 
 1833000   0.51495638   -7.5766979    341.70849  0.015535029  0.014512284         1030 
 1834000   0.51098999   -7.5322551     341.4671   0.01551559  0.014500899          988 
 1835000   0.50619995   -7.5589498    342.18524  0.015539748  0.014489545          935 
 1836000   0.52979555     -7.56398    341.23153  0.015487996  0.014478191          966 
 1837000   0.52936291   -7.5585692    341.69808  0.015500729  0.014466864          969 
 1838000   0.52580714   -7.5420596    342.23257  0.015516529  0.014455542          941 
 1839000   0.51749128   -7.5691517    341.94428  0.015495028  0.014444233         1002 
 1840000   0.52609012   -7.5687792      341.494  0.015466214  0.014432921          985 
 1841000    0.5148902   -7.5763382    342.00432  0.015480913  0.014421615          972 
 1842000   0.51892604   -7.5873524    342.39387  0.015490132  0.014410325         1027 
 1843000   0.50399886   -7.5687044    341.86173  0.015457666  0.014399031         1000 
 1844000   0.51418838   -7.5604774    341.20873  0.015419773  0.014387754          951 
 1845000   0.52506852   -7.5671929    341.31726  0.015416317  0.014376477         1053 
 1846000    0.5240435   -7.5653753    341.97943  0.015437858   0.01436522         1028 
 1847000   0.53613646    -7.570507    342.04238   0.01543234  0.014353964         1035 
 1848000   0.51429782   -7.5748466     341.8592  0.015415729  0.014342731         1044 
 1849000   0.50932347   -7.5644063    341.21899  0.015378537  0.014331494         1021 
 1850000   0.51746352   -7.5663603    341.69325  0.015391588   0.01432027          983 
 1851000   0.51130652   -7.5735075    341.84397  0.015390058  0.014309063          952 
 1852000   0.50764788   -7.5576949    341.77852  0.015378803  0.014297865         1011 
 1853000   0.51187195    -7.557338    341.77034  0.015370136  0.014286669          986 
 1854000   0.51783986   -7.5782626    341.60438  0.015354386  0.014275486          972 
 1855000   0.51193056   -7.5652419    341.61334  0.015346511  0.014264324         1007 
 1856000   0.52136273   -7.5680684    341.73027  0.015343493  0.014253154          997 
 1857000   0.52272265   -7.5610819    341.22551  0.015312579     0.014242          982 
 1858000   0.51540737   -7.5448729    341.80321  0.015330248  0.014230866          900 
 1859000   0.51286806   -7.5626339    341.17683  0.015293923  0.014219748         1038 
 1860000   0.52245953   -7.5685138    341.30884  0.015291615  0.014208638         1086 
 1861000   0.50289839   -7.5629282    341.86322  0.015308222  0.014197534         1038 
 1862000   0.51816205   -7.5511353    341.17891  0.015269375  0.014186444         1049 
 1863000   0.51500086   -7.5668039    341.48537  0.015274887  0.014175346          979 
 1864000   0.50619933   -7.5794407     341.4339  0.015264391   0.01416427         1071 
 1865000   0.50677879   -7.5636256    341.07012  0.015239952   0.01415319         1036 
 1866000   0.51530876   -7.5607535    342.50319  0.015295784  0.014142142         1029 
 1867000   0.51264177   -7.5747265     341.5228  0.015243831  0.014131094         1036 
 1868000   0.50833697   -7.5740606    341.62542  0.015240249   0.01412005         1043 
 1869000   0.51630144   -7.5881305    340.98886  0.015203712  0.014109014         1058 
 1870000   0.50333319   -7.5635514    341.63941  0.015224572  0.014098002          997 
 1871000    0.4959806   -7.5702138    341.45723  0.015208321  0.014086994         1048 
 1872000   0.50859265   -7.5945346    341.55223  0.015204426   0.01407599         1025 
 1873000   0.50521123   -7.5548067    341.38842   0.01518902  0.014065009         1099 
 1874000    0.5031809   -7.5824733    341.42396  0.015182496  0.014054029         1107 
 1875000   0.50459359    -7.573435     341.0985  0.015159933  0.014043055         1040 
 1876000    0.5106822   -7.5866436    341.62444  0.015175215  0.014032099         1027 
 1877000   0.49168115   -7.5711486    341.36425  0.015155579  0.014021142         1047 
 1878000   0.49779616   -7.5935004    341.49579  0.015153346    0.0140102         1061 
 1879000   0.51670281   -7.5823187    341.37527  0.015139936  0.013999268         1052 
 1880000   0.50434136    -7.576083    341.39298  0.015132668  0.013988341          981 
 1881000   0.48887138   -7.5820485     340.9766  0.015106176  0.013977438         1036 
 1882000   0.50770947   -7.5960275    341.37581  0.015115826  0.013966535         1046 
 1883000   0.50228485   -7.5954437    341.48692  0.015112715  0.013955645         1089 
 1884000    0.4996127   -7.5699174    341.27679    0.0150954  0.013944754         1120 
 1885000   0.50890038   -7.5905249    341.21402  0.015084616  0.013933885         1003 
 1886000   0.50656227   -7.5775071    341.49187  0.015088895  0.013923025         1104 
 1887000   0.47752602   -7.6078622    341.12857  0.015064855  0.013912154         1056 
 1888000   0.49078215   -7.6076525     341.6379  0.015079357  0.013901296         1055 
 1889000   0.50468157   -7.5896554    340.86541  0.015037295  0.013890447         1087 
 1890000   0.49750853   -7.6086321    341.11347  0.015040276  0.013879616         1105 
 1891000   0.49822264   -7.5977272    340.85935  0.015021124  0.013868793          960 
 1892000   0.50515105   -7.6013744    341.36495  0.015035454  0.013857977         1072 
 1893000   0.50009412   -7.5906692    341.01891  0.015012278  0.013847171         1062 
 1894000   0.50887449   -7.5890136    340.74764  0.014992417  0.013836371         1097 
 1895000   0.49907952   -7.5938773    341.16205  0.015002729  0.013825581         1092 
 1896000   0.49906502     -7.58632    341.12691  0.014993271    0.0138148         1108 
 1897000   0.50373074   -7.6044563    341.39007  0.014996928   0.01380402         1076 
 1898000   0.49971974   -7.5942814    340.85779  0.014965656  0.013793253         1081 
 1899000   0.49625343   -7.6036425    341.03268   0.01496545  0.013782477         1101 
 1900000   0.49085233     -7.58289    341.02371   0.01495718  0.013771717         1050 
 1901000   0.49319145   -7.6144059    340.49667  0.014926209  0.013760981         1066 
 1902000   0.49264818   -7.5927214    341.09006  0.014944359   0.01375024         1005 
 1903000   0.49912144   -7.6051305    340.19048  0.014897113  0.013739506         1139 
 1904000   0.49454328   -7.6028617    340.79522  0.014915757  0.013728791         1116 
 1905000   0.48603831   -7.6126568    341.30811  0.014930364  0.013718086         1115 
 1906000   0.49902787   -7.5996881    340.74487  0.014897904  0.013707385         1085 
 1907000   0.49782487   -7.6220734    340.40783  0.014875364  0.013696691         1156 
 1908000   0.49374879   -7.6050352    340.69911   0.01488029  0.013686016         1072 
 1909000   0.48338092   -7.6136606    341.08074  0.014889154  0.013675346         1062 
 1910000   0.48374143    -7.627946    340.75239  0.014867033  0.013664681         1110 
 1911000    0.4790075   -7.6259459    340.72162  0.014857911  0.013654027         1096 
 1912000    0.4952527   -7.6029922    340.96198  0.014860616  0.013643389         1094 
 1913000   0.49533729   -7.6192371    340.96644  0.014853042   0.01363275         1077 
 1914000   0.47732969   -7.6126189    341.26644  0.014858344  0.013622132         1010 
 1915000   0.47871426   -7.6116899    340.84162  0.014832098  0.013611518         1078 
 1916000   0.48072184    -7.610823     340.6469  0.014815888  0.013600921         1080 
 1917000   0.48836218   -7.5942749    340.44227  0.014799264  0.013590327         1063 
 1918000   0.50170561   -7.5967409     340.8388  0.014808777   0.01357975         1038 
 1919000   0.47833563   -7.6024802    341.26954  0.014819765  0.013569187         1071 
 1920000   0.49084605   -7.6175096    340.94777   0.01479808   0.01355863         1021 
 1921000   0.49009719   -7.6120655    340.62717  0.014776469  0.013548074         1075 
 1922000   0.48204554   -7.6170024    340.66768  0.014770538  0.013537536         1098 
 1923000   0.48028282   -7.6010257    340.82821  0.014769813  0.013527001         1064 
 1924000    0.4832733   -7.6160846    340.96634   0.01476812  0.013516476         1086 
 1925000   0.48105183   -7.6155395    340.79468  0.014753017  0.013505962         1105 
 1926000   0.47343082   -7.6090149    341.40335  0.014771692  0.013495463         1056 
 1927000   0.48746454   -7.6168089    340.57808  0.014728338  0.013484965         1116 
 1928000   0.47762839   -7.6325878    340.63305  0.014723074  0.013474485         1094 
 1929000   0.48077493   -7.6218647    340.79442  0.014722413  0.013464006         1102 
 1930000    0.4841238   -7.6366179    340.75611  0.014713131  0.013453537         1128 
 1931000   0.47524709   -7.6202902    340.75509  0.014705468   0.01344308         1125 
 1932000   0.48871132   -7.6229941    340.70226  0.014695577  0.013432631         1136 
 1933000   0.47891378   -7.6172556    340.24198  0.014668132  0.013422186         1134 
 1934000   0.47591697   -7.6337446    340.79974   0.01468458  0.013411747         1159 
 1935000    0.4742646   -7.6226904    340.78967  0.014676558  0.013401321         1154 
 1936000   0.47667662   -7.6364228    340.74657  0.014667122  0.013390897         1120 
 1937000   0.47685244   -7.6098297    340.74511  0.014659487  0.013380496         1067 
 1938000   0.48531029   -7.6313004    340.36256  0.014635473  0.013370101         1132 
 1939000   0.48731995   -7.6256968    340.73336  0.014643861  0.013359716         1038 
 1940000   0.48614592   -7.6085701    340.73445  0.014636359  0.013349336         1106 
 1941000   0.47309812   -7.6268155    340.61205  0.014623564  0.013338961         1215 
 1942000    0.4879503    -7.640285    340.36042  0.014605236  0.013328598         1158 
 1943000   0.46263503   -7.6396227    340.19694  0.014590708   0.01331825         1130 
 1944000   0.46803792   -7.6180561    340.66083  0.014603088  0.013307909         1079 
 1945000   0.47275337   -7.6183723     340.2772  0.014579143  0.013297569         1120 
 1946000   0.48366359   -7.6304422    340.41651  0.014577617  0.013287251         1159 
 1947000   0.47280828   -7.6329297    340.75929  0.014584801  0.013276934         1206 
 1948000   0.48456784   -7.6124912    340.40446  0.014562134  0.013266626         1094 
 1949000   0.47348748   -7.6280615    339.88995  0.014532664  0.013256323         1157 
 1950000   0.46563508    -7.656568    340.82938  0.014565358  0.013246028         1163 
 1951000   0.46864406   -7.6315597    340.35187  0.014537497  0.013235726         1133 
 1952000   0.47305115   -7.6313577    340.07608  0.014518275  0.013225443         1154 
 1953000   0.47792231   -7.6221465    340.43071  0.014525973  0.013215173         1096 
 1954000   0.47111702   -7.6227994    340.40705   0.01451753   0.01320491         1054 
 1955000    0.4826985   -7.6374719    339.95524  0.014490846  0.013194669         1093 
 1956000   0.47671219   -7.6261309    340.24829  0.014495922  0.013184423         1086 
 1957000   0.48100797   -7.6387308    340.15188   0.01448441  0.013174192         1086 
 1958000   0.46727786   -7.6518429    340.18456  0.014478403  0.013163966         1126 
 1959000   0.46688973   -7.6440813    340.38851  0.014479688  0.013153741         1064 
 1960000   0.48081811   -7.6334309    340.51956  0.014477872  0.013143538         1101 
 1961000   0.46618747   -7.6326166    339.72683  0.014436802  0.013133343         1072 
 1962000   0.47862256   -7.6382524    339.96638  0.014439619  0.013123151         1123 
 1963000    0.4713211   -7.6441311    340.15123   0.01444011  0.013112967         1032 
 1964000   0.47063509   -7.6615882    340.27487  0.014438004  0.013102788         1150 
 1965000   0.46341907   -7.6484772     340.2553  0.014429826  0.013092616         1103 
 1966000   0.45852975   -7.6599069    340.16686  0.014418737  0.013082455         1139 
 1967000   0.47653655   -7.6320361     340.0991  0.014408536  0.013072302         1129 
 1968000   0.46433645   -7.6340126    339.89065  0.014392389  0.013062162         1092 
 1969000   0.46554847   -7.6342682    340.07579  0.014392915  0.013052044         1062 
 1970000   0.47207618   -7.6290833    340.05517  0.014384736  0.013041919         1067 
 1971000   0.46003632   -7.6439193    339.82804  0.014367835  0.013031806         1158 
 1972000   0.47260734   -7.6575229    340.23326  0.014377673  0.013021704         1115 
 1973000   0.46892339   -7.6526287    340.16212  0.014367381  0.013011608         1130 
 1974000   0.45657896   -7.6528261    340.40999  0.014370567  0.013001533         1141 
 1975000   0.46682323    -7.646995    340.16415  0.014352918  0.012991462         1140 
 1976000    0.4533574   -7.6527299    340.07876  0.014342053  0.012981397         1121 
 1977000    0.4729959   -7.6576339    340.50377  0.014352713  0.012971346         1168 
 1978000   0.46139679   -7.6509374    340.41659  0.014341784  0.012961296         1184 
 1979000   0.46150572     -7.64792    339.70553  0.014304595  0.012951261         1120 
 1980000   0.45543758   -7.6531794     340.1737  0.014317075  0.012941243         1140 
 1981000   0.46400362   -7.6413247    339.81652  0.014294822  0.012931232         1121 
 1982000   0.46443769   -7.6630683    339.80143  0.014286976  0.012921227         1117 
 1983000   0.45305174   -7.6613701    340.52993  0.014310385  0.012911234         1184 
 1984000   0.45976859   -7.6631211    340.56173  0.014304508  0.012901253         1170 
 1985000   0.45556439   -7.6622538    340.44583  0.014292436  0.012891284         1215 
 1986000   0.46636024   -7.6541834    339.94735  0.014264323  0.012881316         1213 
 1987000   0.45645989   -7.6608416    340.10395  0.014263712  0.012871358         1143 
 1988000   0.46389979   -7.6561724    340.13717   0.01425793  0.012861415         1155 
 1989000   0.46100108   -7.6546291    339.41827  0.014220642  0.012851479         1148 
 1990000    0.4633987   -7.6591967    340.30253  0.014250525  0.012841548         1164 
 1991000   0.46073352   -7.6559284    339.78812  0.014221837  0.012831623         1170 
 1992000   0.46286029   -7.6451029    339.30723   0.01419458  0.012821705         1146 
 1993000   0.46136811   -7.6544481    339.78747  0.014207537  0.012811806         1157 
 1994000    0.4613224   -7.6566474    339.72864  0.014197954  0.012801914         1191 
 1995000   0.46121773   -7.6506136    339.40814   0.01417745  0.012792023         1222 
 1996000   0.45942037   -7.6774334    340.11172  0.014199721   0.01278214         1179 
 1997000   0.45932713   -7.6632723    339.87088  0.014182561  0.012772271         1210 
 1998000   0.46240811   -7.6738214    339.95487  0.014178965  0.012762398         1169 
 1999000   0.45103208   -7.6718791    340.10773  0.014178245  0.012752546         1209 
 2000000   0.45287474   -7.6720378    339.65665   0.01415236  0.012742701         1222 
 2001000   0.44597941   -7.6664772    340.01786  0.014160331  0.012732867         1207 
 2002000   0.44150765   -7.6639336    339.39553  0.014127353  0.012723036         1179 
 2003000   0.44576173   -7.6563642     339.7613  0.014135517  0.012713219         1221 
 2004000   0.44518554   -7.6602156    339.56981  0.014120501  0.012703408         1206 
 2005000   0.44327483   -7.6601808     339.7902  0.014122619  0.012693614         1220 
 2006000   0.46050982   -7.6693008    339.18553  0.014090459  0.012683815         1196 
 2007000   0.43992843   -7.6697536    339.66968  0.014103541  0.012674029         1240 
 2008000   0.45708797   -7.6808179     339.4687  0.014088176  0.012664249         1223 
 2009000   0.44912681   -7.6826345    339.65837  0.014089031  0.012654475         1195 
 2010000   0.45345052   -7.6674327    339.52314  0.014076415  0.012644712         1201 
 2011000   0.44948194   -7.6790485     339.4576    0.0140667  0.012634948         1188 
 2012000   0.45322462   -7.6688689    339.55782  0.014063859    0.0126252         1195 
Loop time of 4302.68 on 48 procs for 2000000 steps with 4000 atoms

Performance: 80322.121 tau/day, 464.827 timesteps/s
99.4% CPU use with 48 MPI tasks x no OpenMP threads

MPI task timing breakdown:
Section |  min time  |  avg time  |  max time  |%varavg| %total
---------------------------------------------------------------
Pair    | 271.29     | 287.65     | 309.52     |  50.3 |  6.69
Neigh   | 26.78      | 27.363     | 28.014     |   5.3 |  0.64
Comm    | 227.68     | 249.77     | 266.61     |  51.4 |  5.80
Output  | 4.2988     | 4.3006     | 4.3343     |   0.2 |  0.10
Modify  | 3667.1     | 3685.7     | 3703       |  14.1 | 85.66
Other   |            | 47.84      |            |       |  1.11

Nlocal:        83.3333 ave          93 max          77 min
Histogram: 5 3 10 9 6 5 7 0 1 2
Nghost:        1788.48 ave        1811 max        1757 min
Histogram: 2 2 1 5 3 12 7 8 5 3
Neighs:        10922.5 ave       12468 max        9714 min
Histogram: 1 3 7 11 9 10 4 0 1 2
FullNghs:      21844.2 ave       24791 max       19871 min
Histogram: 3 3 13 9 6 5 6 0 1 2

Total # of neighbors = 1048524
Ave neighs/atom = 262.13100
Neighbor list builds = 107832
Dangerous builds = 0

#clear
#
#next RN
#
#jump SELF
Total wall time: 1:11:45
