
units lj                  # Use reduced LJ style units
atom_style atomic         # Uncharged point particles
atom_modify map hash      # Needed for indexing of clusters etc
                          # Used to be able to find where atoms are in relation to each other.

lattice fcc 1.0 spacing 1 1 1
Lattice spacing in x,y,z = 1.5874011 1.5874011 1.5874011
region box block 0 10 0 10 0 10 units lattice
create_box 2 box
Created orthogonal box = (0.0000000 0.0000000 0.0000000) to (15.874011 15.874011 15.874011)
  3 by 4 by 4 MPI processor grid
create_atoms 1 box
Created 4000 atoms
  using lattice units in orthogonal box = (0.0000000 0.0000000 0.0000000) to (15.874011 15.874011 15.874011)
  create_atoms CPU = 0.015 seconds
set type 1 type/fraction 2 0.41 78393
Setting atom values ...
  1648 settings made for type/fraction
mass 1 1.0
mass 2 1.0
pair_style lj/cut  3.5
pair_modify tail  yes
pair_coeff 1  1  1.0  1.0   # Intearaction between 1 and 1 set with epsilon = 1 and sigma = 1
pair_coeff 1  2  1.5  0.8
pair_coeff 2  2  0.5  0.88

write_data data.0
System init for write_data ...
Neighbor list info ...
  update every 1 steps, delay 10 steps, check yes
  max neighbors/atom: 2000, page size: 100000
  master list distance cutoff = 3.8
  ghost atom cutoff = 3.8
  binsize = 1.9, bins = 9 9 9
  1 neighbor lists, perpetual/occasional/extra = 1 0 0
  (1) pair lj/cut, perpetual
      attributes: half, newton on
      pair build: half/bin/atomonly/newton
      stencil: half/bin/3d
      bin: standard
WARNING: Not all mixed pair coeffs generated from mixing. Use write_data with 'pair ij' option to store all pair coeffs. (../write_data.cpp:312)


#############################
#   M E L T   S Y S T E M   #
#############################

velocity all create 2.4 2750902 mom yes dist gaussian # Assign velocities
                                                    # Temperature 2.4, random number seed, zero linear momentum
                                                                                # Gaussian distribution

timestep 0.002   # simulation timestep
thermo 1000       # output thermodynamic data every 1000 steps bf 100

# Define a fix  in this case with index 1 applied to all
# particles in the simulation. This fix is for simulations
# in the anisotropic NPT ensemble. Note that we use the MTK
# correction.
fix 1 all npt temp 2.4 2.4 0.1 iso 5.68 5.68 0.5 mtk yes tchain 5 pchain 5 # Use NPT ensemble
                                                                         # Set temperature and pressure and damping
                                                                         # Numbers of thermostats in chain and in barostat
run 10000          # run for 10000 steps
Per MPI rank memory allocation (min/avg/max) = 3.642 | 3.644 | 3.648 Mbytes
Step Temp E_pair E_mol TotEng Press Volume 
       0          2.4   -5.8082674            0   -2.2091674   -4.1765581         4000 
    1000    2.3763183    -5.016405            0   -1.4528187    5.6418793    3872.7782 
    2000    2.4378744   -4.9995218            0   -1.3436244    5.4768186    3898.6137 
    3000    2.3983847   -5.0688857            0    -1.472208     5.596157    3864.0607 
    4000     2.392778    -5.052674            0   -1.4644042     5.274524    3879.5909 
    5000    2.3652146   -5.0479689            0    -1.501034    5.6382394    3853.7775 
    6000    2.3764429    -5.041365            0   -1.4775917    5.8094502    3856.6184 
    7000    2.4041662   -5.0533023            0   -1.4479545    5.6094256    3861.9253 
    8000    2.3969674   -5.0529069            0   -1.4583546    5.9151902    3841.6471 
    9000    2.4329636   -5.0661569            0    -1.417624    5.5102979     3863.175 
   10000    2.3969765   -5.0282482            0   -1.4336824    5.8596507    3854.2074 
Loop time of 2.90534 on 48 procs for 10000 steps with 4000 atoms

Performance: 594767.149 tau/day, 3441.940 timesteps/s
99.3% CPU use with 48 MPI tasks x no OpenMP threads

MPI task timing breakdown:
Section |  min time  |  avg time  |  max time  |%varavg| %total
---------------------------------------------------------------
Pair    | 1.1253     | 1.1796     | 1.2309     |   2.0 | 40.60
Neigh   | 0.20741    | 0.21603    | 0.22275    |   0.7 |  7.44
Comm    | 0.78292    | 0.8559     | 1.0685     |   4.8 | 29.46
Output  | 0.00024982 | 0.00025462 | 0.00032491 |   0.0 |  0.01
Modify  | 0.41049    | 0.63837    | 0.68113    |   5.1 | 21.97
Other   |            | 0.01522    |            |       |  0.52

Nlocal:        83.3333 ave          91 max          74 min
Histogram: 1 3 3 4 11 7 2 10 4 3
Nghost:        1682.19 ave        1706 max        1657 min
Histogram: 3 0 7 5 9 7 5 5 5 2
Neighs:        9905.12 ave       11360 max        8435 min
Histogram: 1 2 1 16 8 5 3 8 2 2

Total # of neighbors = 475446
Ave neighs/atom = 118.86150
Neighbor list builds = 904
Dangerous builds = 192

# Equilibrate just above the melting temperature to avoid step fn in T

fix 1 all npt temp 1.25 1.25 0.1 iso 5.68 5.68 0.5 mtk yes tchain 5 pchain 5
run 2000
Per MPI rank memory allocation (min/avg/max) = 3.643 | 3.645 | 3.649 Mbytes
Step Temp E_pair E_mol TotEng Press Volume 
   10000    2.3969765   -5.0282482            0   -1.4336824    5.8596507    3854.2074 
   11000    1.2411693   -7.0340423            0   -5.1727538    5.6477276    3067.0964 
   12000    1.2360101   -7.1121728            0   -5.2586212    5.7469392    3043.2867 
Loop time of 0.599462 on 48 procs for 2000 steps with 4000 atoms

Performance: 576516.741 tau/day, 3336.324 timesteps/s
99.6% CPU use with 48 MPI tasks x no OpenMP threads

MPI task timing breakdown:
Section |  min time  |  avg time  |  max time  |%varavg| %total
---------------------------------------------------------------
Pair    | 0.26863    | 0.29195    | 0.33183    |   2.4 | 48.70
Neigh   | 0.038152   | 0.041017   | 0.044992   |   0.7 |  6.84
Comm    | 0.17725    | 0.21787    | 0.24711    |   3.2 | 36.34
Output  | 5.0729e-05 | 5.4934e-05 | 0.00017171 |   0.0 |  0.01
Modify  | 0.037651   | 0.043826   | 0.049472   |   1.7 |  7.31
Other   |            | 0.004747   |            |       |  0.79

Nlocal:        83.3333 ave          92 max          76 min
Histogram: 3 2 2 11 8 11 9 0 1 1
Nghost:        1979.31 ave        2000 max        1955 min
Histogram: 4 1 2 2 13 3 11 5 5 2
Neighs:        12563.2 ave       14231 max       11233 min
Histogram: 5 5 5 5 9 7 5 2 3 2

Total # of neighbors = 603033
Ave neighs/atom = 150.75825
Neighbor list builds = 142
Dangerous builds = 10

#############################
# L I N E A R  Q U E N C H  #
#############################

# Define solid atoms. This closely follows ten Wolde  Ruiz-Montero and Frenkel  Faraday Discuss  1996  104  93-110
# Compute components of the per-atom q6 vector
compute q6 all orientorder/atom degrees 1 6 components 6 nnn NULL cutoff 1.3 # compute the Q6 parameter.
                                                                             # Use all neighbours within 1.3 unit cell.

# get number of connections
compute coord_number all coord/atom orientorder q6 0.5

# An atom is solid if it has 8 or more connections (of a possible 14)
variable is_solid atom c_coord_number>=8
group solid dynamic all var is_solid    # Must be dynamic to update
dynamic group solid defined

# do clustering
compute cluster solid cluster/atom 1.3 # Create a cluster where all atoms within are solid and max 1.3 units from another member

# define chunks one chunk per cluster
compute clus_chunks solid chunk/atom c_cluster nchunk every compress yes  # Says which atoms are in which chunk

# count the size of each chunk
compute size_chunks solid property/chunk clus_chunks count


# Find the maximum entry in the vector of chunk sizes
variable max_n equal max(c_size_chunks)


# Thermo style which includes this variable
# thermo_style custom step temp pe vol v_max_n

thermo ${N}  # Print the thermo information every 100 steps
thermo 1000  

# Reset the npt fix at a lower temperature (below freezing)
fix 1  all npt temp  ${temp} ${temp}  0.1  iso  5.68  5.68  0.5  mtk yes tchain  5  pchain  5
fix 1  all npt temp  0.45 ${temp}  0.1  iso  5.68  5.68  0.5  mtk yes tchain  5  pchain  5
fix 1  all npt temp  0.45 0.45  0.1  iso  5.68  5.68  0.5  mtk yes tchain  5  pchain  5

dump dmp2 all dcd ${N} traj.dcd
dump dmp2 all dcd 1000 traj.dcd


compute msd all msd com yes
variable twopoint equal c_msd[4]/6/(step*dt+1.0e-6)
fix 9 all vector 10 c_msd[4]
variable fit equal slope(f_9)/6/(10*dt)
thermo_style custom step temp pe c_msd[4] v_twopoint v_fit v_max_n

fix 1 all npt temp 1.25 ${temp} 0.1 iso 5.68 5.68 0.5 mtk yes tchain 5 pchain 5
fix 1 all npt temp 1.25 0.45 0.1 iso 5.68 5.68 0.5 mtk yes tchain 5 pchain 5
run 5000000 # 5000000  # Run for this many steps
Neighbor list info ...
  update every 1 steps, delay 10 steps, check yes
  max neighbors/atom: 2000, page size: 100000
  master list distance cutoff = 3.8
  ghost atom cutoff = 3.8
  binsize = 1.9, bins = 8 8 8
  4 neighbor lists, perpetual/occasional/extra = 1 3 0
  (1) pair lj/cut, perpetual
      attributes: half, newton on
      pair build: half/bin/atomonly/newton
      stencil: half/bin/3d
      bin: standard
  (2) compute orientorder/atom, occasional
      attributes: full, newton on
      pair build: full/bin/atomonly
      stencil: full/bin/3d
      bin: standard
  (3) compute coord/atom, occasional
      attributes: full, newton on
      pair build: full/bin/atomonly
      stencil: full/bin/3d
      bin: standard
  (4) compute cluster/atom, occasional
      attributes: full, newton on
      pair build: full/bin/atomonly
      stencil: full/bin/3d
      bin: standard
Per MPI rank memory allocation (min/avg/max) = 9.829 | 9.833 | 9.836 Mbytes
Step Temp PotEng c_msd[4] v_twopoint v_fit v_max_n 
   12000    1.2360101   -7.1121728 2.8639595e-30 1.9888607e-32 8.3333333e+20            4 
   13000    1.2470806   -7.1170568   0.46922124 0.0030078283    0.0385269            2 
   14000    1.2565988   -7.1078286   0.89805407 0.0053455598  0.036369138            1 
   15000     1.222547   -7.1155823    1.3369237 0.0074273534  0.035965518            2 
   16000    1.2413448   -7.0842119    1.7689705  0.009213388  0.036187908            1 
   17000    1.2570685   -7.1391772    2.1993983  0.010781364  0.036343377            1 
   18000    1.2543081   -7.0841735     2.672744  0.012373814  0.036526063            3 
   19000    1.2572357   -7.0674983    3.1777741  0.013937605  0.037021524            2 
   20000    1.2439326   -7.0922081     3.663522  0.015264674  0.037462174            1 
   21000    1.2644223   -7.0852727     4.086574  0.016216563  0.037757469            2 
   22000    1.2462159   -7.1418718    4.4662369  0.016917564  0.037723909            2 
   23000    1.2515424   -7.0906337    4.8802509  0.017682068  0.037396928            3 
   24000    1.2584379   -7.0993947    5.3023866  0.018411064  0.037187173            1 
   25000    1.2427564   -7.1539698    5.7810792  0.019270264  0.037042832            4 
   26000    1.2316906   -7.1539435    6.1883174   0.01983435  0.036930193            1 
   27000    1.2806704   -7.0848669    6.5490587  0.020213144  0.036752802            3 
   28000    1.2596064   -7.0881669    6.9642607  0.020726966  0.036501516            1 
   29000    1.2511393   -7.1241528    7.4673747  0.021457973  0.036392464            1 
   30000    1.2525171   -7.1063643    7.9402933   0.02205637  0.036428138            3 
   31000    1.2221707   -7.1257452    8.4280805   0.02265613  0.036487164            2 
   32000    1.2409987   -7.1171771    8.9128215  0.023210472  0.036599658            2 
   33000    1.2544925   -7.1028187    9.4033618  0.023745863  0.036721115            1 
   34000    1.2245649   -7.0939568    9.7637593  0.023930782  0.036766372            2 
   35000    1.2487985   -7.0850701     10.09418  0.024033762  0.036748646            2 
   36000    1.2629493   -7.1130822    10.567938   0.02446282  0.036662156            2 
   37000    1.2412441   -7.0730288    10.992148   0.02475709  0.036633946            3 
   38000    1.2711393   -7.1238093    11.274692  0.024725201  0.036547911            1 
   39000    1.2599616   -7.1278732    11.695513  0.024990413  0.036425716            2 
   40000     1.237294   -7.1385506    12.191312  0.025398566  0.036324851            2 
   41000    1.2590692   -7.1291436      12.6922  0.025797155  0.036298949            2 
   42000    1.2416406   -7.0792317    13.137514  0.026066497  0.036287115            2 
   43000    1.2217286   -7.0904305    13.540609  0.026241491   0.03625651            3 
   44000    1.2594212   -7.0881321    13.913545  0.026351411   0.03622728            1 
   45000    1.2433728    -7.133842    14.300761  0.026482891  0.036178491            3 
   46000    1.2235844   -7.1274895    14.772132  0.026761109  0.036132664            1 
   47000    1.2566357   -7.1003623    15.219968  0.026985759  0.036094793            1 
   48000    1.2352867   -7.0848259    15.588961  0.027064168  0.036053184            1 
   49000    1.2592027   -7.1060135    16.079759  0.027346529  0.036034795            1 
   50000    1.2271135   -7.1328016    16.432179  0.027386964   0.03602676            2 
   51000    1.2289731   -7.0979432    16.902685  0.027618767  0.035990517            1 
   52000    1.2490767   -7.1791381    17.241262  0.027630228  0.035962554            1 
   53000    1.2636613   -7.2162764    17.681963  0.027801828  0.035933909            1 
   54000    1.2237299   -7.1624078    18.261647  0.028181553  0.035922304            1 
   55000    1.2395318   -7.0465575     18.81418  0.028506332  0.035938914            1 
   56000    1.2470335   -7.1165107    19.124116  0.028458506  0.035957988            1 
   57000    1.2336706   -7.1429373    19.347703  0.028286115  0.035950172            1 
   58000    1.2488659   -7.1294286    19.841143  0.028507388  0.035905601            1 
   59000     1.226313   -7.1337794    20.352047  0.028745829  0.035881087            2 
   60000    1.2584146   -7.1026817    20.659127  0.028693232  0.035849445            1 
   61000     1.236163   -7.1030149    21.022674    0.0287195  0.035809564            1 
   62000    1.2241124   -7.0919683    21.555159  0.028971988  0.035786704            1 
   63000    1.2470185   -7.1275522    22.021385  0.029128816  0.035776504            3 
   64000    1.2214767   -7.1052188    22.371092  0.029129026  0.035757148            1 
   65000    1.2230589   -7.1408786    22.737557  0.029150713  0.035718532            1 
   66000     1.222836   -7.1447521    23.296502  0.029414775  0.035705946            1 
   67000    1.2333374   -7.1749346    23.767663  0.029561769  0.035702946            6 
   68000    1.2373579   -7.1774955     24.09172  0.029524167  0.035696359            2 
   69000    1.2497648   -7.0997968    24.673229  0.029798586  0.035704352            4 
   70000    1.2263443   -7.1642402    24.971943  0.029728503  0.035709736            1 
   71000    1.2048441    -7.128585    25.572145  0.030014255  0.035718636            3 
   72000    1.2384253   -7.1491885    26.125211  0.030237513  0.035746613            1 
   73000     1.261951   -7.1509963    26.720669  0.030503046  0.035786801            1 
   74000    1.2321043   -7.1606014    27.146937  0.030570875  0.035840133            1 
   75000    1.2244645   -7.1661578    27.516191  0.030573545  0.035880854            4 
   76000    1.2155176   -7.1174728    27.972041  0.030671097  0.035908339            2 
   77000    1.2659894   -7.1247967    28.409445  0.030746152  0.035937266            1 
   78000    1.2483526   -7.1396594    28.630827   0.03058849  0.035953373            1 
   79000    1.2407141   -7.1587896    28.926186  0.030512855  0.035947827            1 
   80000    1.2580471   -7.1765813     29.18265  0.030398594  0.035928897            1 
   81000     1.212079   -7.1544166    29.448753  0.030297071  0.035889239            1 
   82000    1.2535767   -7.1193002    29.834925  0.030320046  0.035858699            4 
   83000    1.2322769   -7.1243344    30.303803  0.030425505  0.035819261       -1e+20 
   84000    1.2642712   -7.1548486    30.541042  0.030298653  0.035776914            3 
   85000    1.2636601   -7.1590549    30.929246   0.03032279  0.035721522            2 
   86000     1.205945   -7.0986406    31.417402  0.030443219  0.035671303            2 
   87000     1.227206   -7.1055623    31.943609  0.030597326  0.035631769            4 
   88000     1.239555   -7.1835943    32.193536  0.030486303  0.035596709            1 
   89000    1.2533709    -7.131976    32.672738  0.030592451   0.03556754            1 
   90000    1.2421304   -7.1054419    33.151876  0.030696181  0.035536725            1 
   91000    1.2595006   -7.1204459    33.464999  0.030645603  0.035510285            4 
   92000    1.2206421   -7.1849639    33.763684  0.030583047  0.035478872            2 
   93000    1.2197768   -7.1790159    34.068775  0.030527576  0.035433334            1 
   94000    1.2342251   -7.1856726    34.420297  0.030514448  0.035378983            3 
   95000    1.2614119   -7.1076885    34.997202    0.0306993  0.035333577            1 
   96000    1.2318979   -7.1388207     35.31641  0.030656606  0.035291652            2 
   97000    1.2546449   -7.1286492    35.809314  0.030764015  0.035254251            1 
   98000    1.2339672   -7.1178321    36.310135  0.030875965  0.035218462            2 
   99000    1.2442206    -7.131566    36.701007  0.030893103  0.035182039            1 
  100000    1.2467425   -7.1177821    37.125197  0.030937664  0.035153529            1 
  101000    1.2227798   -7.1254805    37.708577  0.031112687  0.035126683            6 
  102000    1.2387534   -7.1138376    37.942976  0.030999163  0.035104501            5 
  103000    1.2326013    -7.141996    38.396547  0.031065167  0.035082359            2 
  104000    1.2428839   -7.1329531    38.974639  0.031229679  0.035062511            5 
  105000    1.2510888   -7.1670252     39.31533  0.031202642  0.035047083            2 
  106000    1.2288828   -7.1506544    39.712451   0.03122048   0.03503451            1 
  107000    1.2283536    -7.118598     40.13377   0.03125683  0.035025982            1 
  108000    1.2331936   -7.1405982    40.528799  0.031272221  0.035017566            3 
  109000    1.2223492   -7.1316262     41.04735  0.031381766  0.035009851       -1e+20 
  110000     1.243485   -7.1487625    41.311433   0.03129654  0.034998499            2 
  111000    1.2262604    -7.177862    41.767187  0.031356747  0.034985544            1 
  112000    1.2496958   -7.1710356     41.98918   0.03124195  0.034970423            1 
  113000    1.2293321   -7.1546011    42.432583  0.031292465  0.034952216            1 
  114000    1.2190221   -7.1502944      42.8624  0.031332163  0.034935065            2 
  115000    1.2473375   -7.1604595    43.128152  0.031252284  0.034916052            1 
  116000    1.2422967   -7.1823185     43.57896  0.031306724  0.034896253            1 
  117000      1.24247   -7.1434055    43.888051  0.031259296  0.034875787            2 
  118000    1.2388922   -7.1609208    44.379552  0.031341492  0.034854859            2 
  119000    1.2585364   -7.1558272    44.763391  0.031346912  0.034836815            1 
  120000    1.2710777   -7.1764366     45.14226  0.031348791  0.034815499            2 
  121000    1.2081454   -7.1638112    45.667133  0.031451193  0.034799114            2 
  122000     1.252398   -7.1318252    45.904919  0.031355819  0.034780444            3 
  123000    1.2306461   -7.1710371    46.284344  0.031357957  0.034755929            4 
  124000    1.2313509   -7.1331297      46.7554  0.031421639  0.034729549            1 
  125000    1.2195317       -7.139    47.168867  0.031445911  0.034709162            2 
  126000    1.2272937   -7.2040623    47.287029   0.03127449  0.034689144            1 
  127000    1.2303948    -7.178131    47.735764   0.03132268  0.034665463            2 
  128000    1.2323273   -7.1283688    48.325879   0.03146216  0.034642742            1 
  129000    1.2287153   -7.1720927    48.571027  0.031376633  0.034618901            2 
  130000    1.2240427   -7.1497521    49.072445  0.031456695  0.034594205            1 
  131000    1.2252095   -7.1383609    49.490756  0.031482669  0.034572332            2 
  132000    1.2296155   -7.1397015    50.013587  0.031574234  0.034555081            2 
  133000    1.1805542   -7.1655015    50.224576  0.031469032  0.034536957            1 
  134000    1.2056663   -7.1638442    50.378637  0.031329998  0.034518274            1 
  135000    1.2058274   -7.1231956    50.822822  0.031372112  0.034492106            1 
  136000    1.2412901   -7.1438231    51.279135  0.031421038   0.03446719            2 
  137000     1.251457   -7.2222964    51.443302  0.031291546  0.034443466            3 
  138000     1.222725   -7.1381554     51.97528  0.031386038  0.034416641            2 
  139000    1.2241635   -7.1827312    52.339697  0.031378715  0.034392102            2 
  140000    1.2227944   -7.1825396    52.421082  0.031203025   0.03436666            4 
  141000    1.2054509   -7.1082335    52.906942  0.031268878  0.034340323            1 
  142000     1.210257   -7.1615307    53.019033  0.031114456  0.034307589            1 
  143000    1.2174215   -7.1382173    54.003615  0.031470638  0.034275294            1 
  144000    1.2225729   -7.2003091    53.837497  0.031155959  0.034246185            5 
  145000    1.2518645   -7.2037962    54.278334  0.031194445   0.03421722            2 
  146000    1.2120573   -7.1317051    54.759148  0.031255221  0.034189597            1 
  147000    1.2353524   -7.1867195    55.041162  0.031202473  0.034159499            2 
  148000    1.2309789   -7.1406466    55.638625  0.031328055  0.034130845            1 
  149000    1.2239478   -7.1647207    55.953838  0.031294092  0.034105472            2 
  150000    1.1943534   -7.1511313    56.422624  0.031345902  0.034079073            2 
  151000     1.222626   -7.1550606    56.749617  0.031318773  0.034055976            2 
  152000    1.2244754   -7.1623371    56.939943  0.031217074    0.0340295            4 
  153000    1.2092986   -7.1459116    57.443848  0.031287499  0.033998977            2 
  154000    1.2167552   -7.2154036     57.53987  0.031136293   0.03397045            1 
  155000    1.1998314    -7.133322    58.148509  0.031262639   0.03394676            1 
  156000    1.2329816   -7.2075119     58.48893  0.031244086  0.033924043            2 
  157000    1.2442242   -7.1882109    58.980868  0.031306193  0.033900776            1 
  158000    1.2256535   -7.1888984    59.476657  0.031369545  0.033879002            1 
  159000    1.2200267   -7.1708935    59.861715  0.031374064  0.033860569            1 
  160000    1.2455709   -7.1503207    60.361237  0.031438144  0.033841756            1 
  161000    1.2228836   -7.1659846    60.521791  0.031325978  0.033820007            1 
  162000    1.2301647    -7.199583    61.032937  0.031395544  0.033800704            3 
  163000    1.2074067   -7.1769591    61.708944   0.03154854   0.03378521            1 
  164000     1.209517   -7.1520733     62.13381  0.031572058  0.033771316            2 
  165000    1.1979876   -7.1333001     62.47157  0.031551298  0.033758403            3 
  166000    1.2497205   -7.1689005    62.941552  0.031597165  0.033745269            3 
  167000    1.2080037   -7.1738806    63.579748  0.031726421  0.033735431            3 
  168000    1.2072633   -7.1868704    63.452976   0.03147469  0.033724966            2 
  169000    1.2582948   -7.1577249     64.11709  0.031615922  0.033714679            2 
  170000    1.2487745   -7.2324725    64.129869   0.03143621  0.033702253            1 
  171000    1.2290996   -7.1657044    64.771771  0.031565191  0.033689589            2 
  172000    1.2212931   -7.1473759     64.94461  0.031465412  0.033678638            1 
  173000    1.2180685    -7.174282    65.378413  0.031492492   0.03366483            3 
  174000    1.2190125   -7.1822207    65.743923  0.031486553  0.033650012            1 
  175000    1.2107468   -7.1641375    66.475283  0.031654897  0.033636459            3 
  176000    1.2147782   -7.1844314    66.688958  0.031576211   0.03362606            2 
  177000    1.2285184   -7.1787397    67.092927  0.031588007  0.033616856            2 
  178000     1.246006   -7.2044935    67.520392   0.03161067  0.033606464            2 
  179000    1.2517429   -7.1876767     67.74335  0.031537872  0.033594451            4 
  180000    1.2046812   -7.1801979    68.007221  0.031484824  0.033580841            4 
  181000    1.2562153   -7.1662229    68.680547  0.031620878   0.03356962            1 
  182000     1.239908   -7.2243437     68.92016   0.03155685  0.033560494            1 
  183000      1.21018    -7.147463    69.966262  0.031860775   0.03355365            1 
  184000    1.2377951   -7.2055157    70.134206   0.03176368  0.033548841            2 
  185000    1.2249297   -7.2115699    70.525444  0.031768218  0.033545375            1 
  186000    1.2087839   -7.1698794    70.910056  0.031769738  0.033538717            2 
  187000    1.2147412   -7.2342918    71.468469  0.031848694  0.033533786            1 
  188000    1.2193052   -7.1773455    71.816049  0.031833355  0.033530909            2 
  189000    1.2284567   -7.1868513    72.020479  0.031755061  0.033526704            1 
  190000    1.2357881   -7.1704817      72.5486  0.031819561  0.033522976            1 
  191000    1.2231642   -7.2112062    73.099331  0.031893251  0.033516874            1 
  192000    1.2335882   -7.1972916    73.089982  0.031723082  0.033510322            2 
  193000    1.2183058   -7.1796215    73.587978  0.031773738  0.033502247            1 
  194000    1.2341769   -7.1348316    74.268159   0.03190213  0.033496059            2 
  195000    1.2097582   -7.1437935    74.372609  0.031783166  0.033491518            2 
  196000    1.2000424   -7.2096373    74.692652   0.03175708  0.033485614            1 
  197000     1.193759   -7.1866373    75.227876  0.031822283  0.033479657            1 
  198000    1.2312292   -7.1798166    75.684212  0.031853624  0.033476443            1 
  199000    1.2336949   -7.1648888     76.05136  0.031847303  0.033472821            1 
  200000    1.2072606   -7.2034657    76.350455  0.031812689  0.033467576            3 
  201000    1.2005006   -7.1868245    76.760618  0.031824468   0.03346296            2 
  202000    1.2011381   -7.2302663     76.98952  0.031761353  0.033458579            1 
  203000    1.1918881   -7.1770929    77.466521  0.031800706   0.03345379            2 
  204000    1.1897121    -7.214878    77.740783  0.031756856  0.033449785            2 
  205000    1.2240956   -7.2170728    78.285838  0.031823511   0.03344813            2 
  206000    1.2086826   -7.1723584    79.129543  0.032010333  0.033444585            1 
  207000    1.2244275   -7.1956074    79.493066   0.03200204  0.033442628            1 
  208000    1.2186454   -7.2171206    79.838571  0.031986607  0.033443403            2 
  209000    1.2229603   -7.1478792    80.279805  0.032009492   0.03344377            2 
  210000    1.2062396   -7.1974651    80.594359  0.031981889  0.033443062            1 
  211000    1.2405449   -7.1645016    81.079237  0.032021815  0.033443409            3 
  212000    1.2365933   -7.1654419    81.498415   0.03203554  0.033441517            2 
  213000    1.1960656    -7.168797    81.835577  0.032017049  0.033440397            5 
  214000    1.2172512   -7.1659973    82.320311  0.032056196   0.03343899            2 
  215000    1.2098314   -7.2315904    82.570042  0.032003892  0.033436599            2 
  216000    1.2285409   -7.1965255    83.096361  0.032058781  0.033434716            1 
  217000    1.2084954   -7.1721866    83.442746  0.032044065  0.033434647            1 
  218000    1.2088544   -7.1922213    83.894435  0.032069738  0.033433353            1 
  219000     1.244152   -7.2043098    84.098812   0.03200107  0.033431649            1 
  220000    1.1770041   -7.2271909    84.607638  0.032048348  0.033429148            1 
  221000    1.2072736   -7.1873301     85.08251  0.032082395  0.033427457            1 
  222000    1.2216262   -7.2048227    85.092132  0.031941491  0.033426768            1 
  223000    1.2274205   -7.1865577    86.132928  0.032187193  0.033428006            1 
  224000    1.1940852   -7.2202478    86.994452  0.032364007   0.03343283            2 
  225000     1.230272   -7.2298198    87.156846  0.032280313  0.033437494            1 
  226000    1.2268373   -7.1759096    87.722875  0.032346193  0.033440843            2 
  227000    1.2037875   -7.2160311    88.023621  0.032314105  0.033445888            3 
  228000    1.2342795   -7.2028501    88.025499  0.032173062  0.033450554            2 
  229000    1.2012233     -7.18877     88.62817  0.032251881  0.033453581            1 
  230000    1.2246912   -7.1665054    89.142072  0.032297852  0.033456427            2 
  231000    1.2265154   -7.2023714    89.192685  0.032176293   0.03345782            2 
  232000     1.189147   -7.2148997    89.483214  0.032141959  0.033459836            1 
  233000    1.2335144   -7.1909154    90.049217  0.032206444  0.033460025            2 
  234000    1.1984389   -7.2245244    89.951984  0.032034182  0.033459754            1 
  235000    1.2128782   -7.1816044    90.565099  0.032115283  0.033459734            1 
  236000     1.220751   -7.1679541    90.921904  0.032105192  0.033458567            2 
  237000    1.2206003   -7.1995719    91.167275  0.032056004  0.033455682            1 
  238000    1.2061357   -7.1875769    91.348623  0.031984812   0.03345086            2 
  239000    1.2163662   -7.1604613    91.839868  0.032022269  0.033446235            5 
  240000    1.2320377   -7.2464551    92.388351  0.032079289  0.033441492            3 
  241000    1.2236353   -7.1952533    92.984265  0.032152236  0.033439153            2 
  242000    1.2195345   -7.1913463    93.624132  0.032239715   0.03343744            1 
  243000    1.2134995   -7.1850607    93.646013  0.032114545  0.033435458            1 
  244000    1.2010677    -7.219598    93.759864  0.032021811  0.033431858            3 
  245000    1.2189749   -7.1460244    94.456555   0.03212808  0.033428707            1 
  246000    1.2342495   -7.1817267    94.723258  0.032087824  0.033425517            1 
  247000    1.2109815   -7.1868477    95.327396  0.032161739  0.033422247            3 
  248000    1.2304163   -7.1685835    95.333522  0.032034114  0.033417689            1 
  249000    1.2063891   -7.1688435    96.047204  0.032144312  0.033413087            1 
  250000    1.1780875   -7.2130658    95.930121  0.031976707   0.03340718            2 
  251000    1.2012383   -7.2093064    96.050682  0.031889337  0.033398905            2 
  252000    1.1897594   -7.2038983    96.533969  0.031922609  0.033390679            1 
  253000    1.2510836   -7.2012269    96.630135  0.031828108  0.033382196            1 
  254000    1.2210948   -7.2229976    97.227732  0.031898862  0.033373463            2 
  255000    1.2133104   -7.1891478     98.03211  0.032036637  0.033363661            1 
  256000    1.2031233   -7.2076857    98.150322  0.031949975  0.033356623            2 
  257000    1.1964685   -7.1828871    98.577966  0.031964321  0.033348863            1 
  258000     1.220828   -7.2084562    98.639941  0.031860446   0.03333949            3 
  259000     1.227981   -7.2257698    99.177219  0.031910302  0.033330724            1 
  260000    1.2075449   -7.2353556    99.577624  0.031915905  0.033320949            2 
  261000    1.2161577   -7.1023206    100.36309  0.032044409  0.033312612            1 
  262000    1.2077875   -7.1870524    100.48978  0.031962398  0.033305866            1 
  263000     1.222847    -7.186613    100.60241  0.031876557  0.033296993            3 
  264000    1.2086225   -7.1931171    100.80645  0.031820218  0.033288068            2 
  265000    1.2464268    -7.179809    101.40584   0.03188863  0.033280101            2 
  266000    1.2079293   -7.2082651    102.00032  0.031954986  0.033273064            1 
  267000    1.2076948   -7.1763885     102.3414   0.03194176  0.033265673            2 
  268000    1.1940762   -7.2370207    102.66722  0.031923887  0.033258136            1 
  269000    1.2077627   -7.2016638    102.80873  0.031849048  0.033250231            1 
  270000     1.193995   -7.2030476    103.60696  0.031977456  0.033243556            1 
  271000     1.213249   -7.2709734    103.50222  0.031827251  0.033236016            1 
  272000    1.2133465   -7.2339343    104.10325  0.031894379  0.033228241            2 
  273000    1.2242376   -7.2286907    104.35857  0.031855485  0.033221091            2 
  274000    1.1861384   -7.2001742    104.92349  0.031911038   0.03321354            2 
  275000     1.227284   -7.1907881    105.12654  0.031856526  0.033205996            1 
  276000    1.1908986   -7.2138062    105.62598  0.031891901  0.033198616            1 
  277000    1.1815151   -7.2112321    105.91941  0.031865045   0.03319105            1 
  278000    1.1958047   -7.1956315    106.41168  0.031897984  0.033184638            4 
  279000    1.2306972   -7.2544735    106.73985  0.031881677  0.033177609            2 
  280000    1.1963218   -7.2018729     107.1868  0.031900834  0.033171409            1 
  281000    1.2203547   -7.1711115    107.55006  0.031895037  0.033165313            1 
  282000    1.1948189   -7.2021503    108.21317  0.031977888  0.033158958            1 
  283000    1.2023072   -7.2071073    108.34389  0.031903383  0.033152324            1 
  284000    1.2014196    -7.225764    108.90554   0.03195585  0.033144573            2 
  285000    1.1986291    -7.191694    109.25667  0.031946395  0.033137295            2 
  286000    1.2211238   -7.2026753    109.51716  0.031910593  0.033130723            1 
  287000    1.2146043   -7.1907513    110.57211  0.032105722  0.033125227            1 
  288000    1.1921655   -7.2893563     109.7354   0.03175214  0.033118522            3 
  289000    1.2226634   -7.2277672    110.97088  0.031998523  0.033113555            1 
  290000    1.2252101   -7.2278809    111.35728   0.03199922  0.033109796            2 
  291000    1.2064528   -7.2584979    111.78981  0.032013118  0.033105166            1 
  292000    1.1861938   -7.1879433     112.5335  0.032115724   0.03310104            2 
  293000    1.2093091   -7.2266065    112.70543  0.032055015  0.033096144            2 
  294000    1.2086465   -7.2049829    112.78527  0.031968614  0.033092154            1 
  295000    1.1906875    -7.175402    113.21762   0.03198238  0.033085526            1 
  296000     1.192642   -7.2241691    113.10485  0.031842581  0.033078674            1 
  297000    1.2411948   -7.2486034    113.53119  0.031854993  0.033072005            2 
  298000    1.2336094   -7.2210136    114.03281  0.031888368   0.03306534            2 
  299000    1.2134968   -7.2471563     114.1267  0.031807888  0.033059355            2 
  300000    1.2123203   -7.1951743    115.05095  0.031958596  0.033053503            2 
  301000    1.2464933   -7.2201168     115.1672  0.031884607  0.033046453            1 
  302000    1.2044132   -7.2696018    115.02202  0.031738969  0.033038455            1 
  303000    1.1837584   -7.2333642    115.20783  0.031685321  0.033029066            5 
  304000    1.1766721   -7.2297948     115.3896  0.031630921  0.033018868            3 
  305000    1.2143278   -7.2146813    116.19598  0.031747536  0.033008973            2 
  306000    1.1923563   -7.2657212     116.4691  0.031718165  0.032999547            2 
  307000      1.19092   -7.2263457    116.84964  0.031718142  0.032990947            2 
  308000    1.2050123   -7.2419353    116.99793  0.031655284   0.03298253            2 
  309000    1.1904056   -7.2635299    117.84124  0.031780269  0.032974884            1 
  310000     1.233168   -7.2117567    118.11631  0.031751697   0.03296619            1 
  311000    1.2063179   -7.2327368    118.49223  0.031750329  0.032957595            2 
  312000    1.2002461   -7.1852421    119.06355  0.031801161    0.0329503            2 
  313000    1.1754858   -7.2131553    119.44279  0.031800529  0.032942715            3 
  314000    1.1963922   -7.2287437    119.84524  0.031806062  0.032935317            1 
  315000    1.2242006   -7.2233364    120.59125  0.031902447  0.032927804            1 
  316000    1.2222677   -7.2519025    120.38356   0.03174672  0.032920566            2 
  317000     1.176622   -7.1986348    120.69236   0.03172775   0.03291255            1 
  318000    1.1825606   -7.2570133    121.21788  0.031765691   0.03290519            3 
  319000    1.2194905   -7.2240772    121.99205  0.031868352  0.032898119            2 
  320000    1.2034641    -7.291634    122.69281  0.031951254  0.032893185            1 
  321000    1.1853078   -7.2191432    123.01239  0.031934679  0.032889118       -1e+20 
  322000    1.2044457   -7.2108449    123.30903  0.031912275  0.032884325            2 
  323000    1.1979222   -7.2149038    124.08611   0.03201396  0.032880396            2 
  324000    1.1890052   -7.2761179    124.25293  0.031958057  0.032876885            3 
  325000    1.2180816   -7.2156868    124.80238  0.032000609  0.032873794            4 
  326000    1.1986298   -7.2540342    124.69093   0.03187396    0.0328714            2 
  327000    1.1779169   -7.2029765      125.618  0.032012741  0.032868104            2 
  328000    1.2010477   -7.2532935    126.31448  0.032092094  0.032865955            2 
  329000    1.1771155   -7.2008907    126.87702  0.032137036  0.032863003            2 
  330000    1.2085727   -7.1833713    126.99986  0.032070673  0.032859958            1 
  331000    1.2114855   -7.2426105     126.8431  0.031934316   0.03285694            1 
  332000    1.2230356   -7.1865608    127.53866  0.032012715  0.032854069            1 
  333000    1.1671458   -7.1904279    127.89062  0.032004659  0.032851513            3 
  334000    1.1867692   -7.2176308    128.50554  0.032062262  0.032848196            3 
  335000    1.1785481   -7.2454335    127.86496  0.031807203   0.03284338            1 
  336000    1.2077453   -7.2590642    128.59257  0.031892999  0.032837906            1 
  337000    1.2274023   -7.2308577    128.70576  0.031826349  0.032832197            3 
  338000    1.1674308   -7.2533994    129.50265  0.031928662  0.032825818            3 
  339000    1.1819354   -7.2352227    129.35348  0.031797807  0.032818765            1 
  340000    1.1973665   -7.2289094     129.5853  0.031761103  0.032812316            1 
  341000    1.2219319   -7.2222957    130.04786  0.031781002  0.032805828            2 
  342000    1.1813302    -7.201568    130.96369   0.03191123  0.032799821            1 
  343000    1.1888972   -7.2108989     130.7342   0.03176244  0.032793632            1 
  344000    1.1819484   -7.2392647    130.95399   0.03172335  0.032786334            2 
  345000    1.1993216   -7.2285378    131.20842  0.031692856   0.03277835            2 
  346000    1.2127953   -7.2536669    131.69852  0.031719297   0.03277123            2 
  347000    1.1660373   -7.2307174    131.73364  0.031636321   0.03276375            1 
  348000    1.2004342   -7.1973533    132.46403  0.031720313  0.032755566            1 
  349000    1.1796587   -7.2265498    132.82464   0.03171553  0.032748129            2 
  350000    1.1691521   -7.2348249    133.39006  0.031759538  0.032740587            2 
  351000    1.1872464   -7.2421308    133.14764  0.031611501  0.032732345            3 
  352000    1.1893504   -7.2454756    133.51474  0.031608603  0.032723366            1 
  353000    1.1999402   -7.2516702    133.32357   0.03147393  0.032714056            1 
  354000    1.1935315   -7.2719687    133.66118  0.031464497  0.032704106            1 
  355000    1.2088202   -7.2680708    134.15405  0.031491562  0.032693336            1 
  356000    1.1656179   -7.2446007    135.08334  0.031620631  0.032683815            3 
  357000    1.2002879   -7.2417222    135.31565  0.031586287  0.032674537            1 
  358000    1.2006972    -7.237591    135.81404  0.031614069  0.032665954            2 
  359000    1.1918009   -7.2380052    136.56287   0.03169983  0.032657969            1 
  360000    1.2003277   -7.2699565      136.304  0.031551852  0.032649198            2 
  361000    1.2071069   -7.2826994    136.49176  0.031507792  0.032639709            2 
  362000    1.2314246   -7.2183146     137.1339  0.031568576  0.032629616            2 
  363000    1.2033168   -7.2478454    137.32036  0.031524416  0.032619486            3 
  364000    1.1967726    -7.231864    137.50473  0.031480021  0.032609228            1 
  365000    1.2027431   -7.2110116    138.05458  0.031519311  0.032598643            2 
  366000     1.199791    -7.243419    138.25252   0.03147826   0.03258852            1 
  367000    1.2095551   -7.2635862     138.6373  0.031479859  0.032578891            2 
  368000     1.196727   -7.2590495    139.42318  0.031572277  0.032569871            1 
  369000    1.1949786   -7.2627198     140.0102  0.031619287  0.032561166            3 
  370000     1.179539   -7.2845776    140.25934  0.031589941  0.032553763            1 
  371000    1.1822073    -7.220347    140.75215  0.031615488  0.032546735            1 
  372000    1.1963219   -7.2791468    140.63729  0.031504769  0.032538992            1 
  373000     1.194995   -7.2822307    141.25835  0.031559058  0.032530653            1 
  374000    1.2024885   -7.2537036     141.5966  0.031550046  0.032522146            3 
  375000    1.1854046   -7.2665845      141.912     0.031536  0.032514573            1 
  376000    1.2234875    -7.261432    142.03279  0.031478899  0.032506572            2 
  377000    1.1737926   -7.2711925    142.62416  0.031526118  0.032498158            3 
  378000    1.1930298   -7.2659043    142.78139  0.031477379  0.032490455            3 
  379000    1.1815407   -7.2732802     143.4727  0.031546329  0.032482328            2 
  380000    1.1662634   -7.2942127    143.44519  0.031457279  0.032474913            1 
  381000    1.1843267   -7.2678999    143.76569  0.031444813  0.032467484            3 
  382000    1.1730179   -7.2460113    144.79389    0.0315868   0.03246013            1 
  383000     1.178579   -7.1966093    144.82156  0.031510349  0.032453117            4 
  384000    1.2091826     -7.22276    145.06388  0.031480876    0.0324454            2 
  385000     1.194247   -7.2299854    145.66309  0.031528807  0.032437736            2 
  386000    1.1948124   -7.2630365    145.79371  0.031475326  0.032430251            2 
  387000    1.1838053    -7.226858    146.25689  0.031493732   0.03242248            3 
  388000    1.1902762   -7.2752785    146.11017   0.03138105  0.032414029            1 
  389000     1.191105   -7.2556037    146.41438  0.031365549  0.032404908            1 
  390000    1.1987617    -7.269998    147.51268  0.031519804  0.032396613            2 
  391000    1.1909353   -7.2511472    147.72133  0.031483659  0.032388925            3 
  392000    1.2024261    -7.231449    148.14438  0.031493278  0.032381719            3 
  393000    1.1852464   -7.2334815    148.70728  0.031532502  0.032374955            3 
  394000    1.1873063   -7.2547515    148.88336  0.031489713  0.032367402            3 
  395000    1.1907928   -7.2468361    149.24892  0.031487113  0.032360314            1 
  396000    1.1802331   -7.3175486    149.21664  0.031400808  0.032352681            1 
  397000     1.179285   -7.2836141    149.66061  0.031414905  0.032345466            1 
  398000    1.2246359   -7.2518483    150.23997  0.031457281  0.032338217            1 
  399000    1.1841308   -7.2614538    150.96275  0.031529397  0.032331948            2 
  400000    1.1856754   -7.2700919    150.96229  0.031450476  0.032325277            1 
  401000    1.1850186   -7.2460207    151.14297  0.031409595  0.032318116            4 
  402000    1.1872453   -7.2362542    152.38261  0.031588435  0.032312087            2 
  403000     1.166462    -7.236891    152.48856   0.03153196   0.03230503            3 
  404000    1.1801721   -7.2779813    152.09323  0.031372367  0.032298321            1 
  405000    1.2137701   -7.2797446     152.5196  0.031382634  0.032290443            2 
  406000    1.1905142   -7.2602363    152.97696  0.031399212  0.032282377            1 
  407000    1.1651306   -7.2646829    152.85952  0.031298019  0.032273629            1 
  408000     1.171412   -7.2508549    154.05421  0.031465321  0.032265594            1 
  409000    1.1759637   -7.2675019    154.29578  0.031437608  0.032258838            1 
  410000    1.1952271   -7.2535932    154.76705  0.031456718  0.032251777            2 
  411000    1.1833503   -7.2859474    154.55142  0.031336461  0.032245156            5 
  412000     1.172885   -7.2384595    155.40799  0.031433654  0.032237174            1 
  413000     1.218356   -7.2426572    155.95155  0.031467222  0.032230485            4 
  414000    1.1951409   -7.2591762    156.61582  0.031524924  0.032223161            2 
  415000    1.1733955   -7.2807197    156.79383  0.031484704  0.032217311            1 
  416000    1.1545632   -7.2176491    157.46837  0.031544145  0.032212008            2 
  417000    1.1980308   -7.2070774    157.25351  0.031425562  0.032206173            1 
  418000    1.1725099   -7.2504489    157.84476  0.031468253   0.03220042            1 
  419000    1.1878627   -7.2421246    158.46472  0.031516451  0.032195015            2 
  420000    1.1784503   -7.2802028    158.36391   0.03142141  0.032188679            2 
  421000    1.1782065    -7.237194    158.77722  0.031428587  0.032181876            2 
  422000     1.183232   -7.2828295       158.64  0.031327014  0.032175388            2 
  423000    1.1991275    -7.259487    159.00666  0.031325188  0.032168488            1 
  424000    1.1690538   -7.2722848    159.64957  0.031377667  0.032161076            2 
  425000    1.1615484   -7.2340555    160.08477   0.03138917  0.032154312            2 
  426000    1.1526613   -7.2510651    160.23326  0.031344535  0.032147047            1 
  427000    1.1722547    -7.249583    160.63534  0.031349599  0.032138868            2 
  428000     1.177974   -7.2839896    160.03985  0.031160407  0.032130805            3 
  429000    1.1678477   -7.3100095    160.34787  0.031147605  0.032121786            1 
  430000    1.1937973   -7.2269806    161.16714  0.031233942  0.032112269            1 
  431000    1.2009161   -7.2599457    161.27975  0.031183246  0.032103561            1 
  432000    1.1806635   -7.2513747     162.2322  0.031294792  0.032095508            2 
  433000    1.1534262   -7.2343018    162.75459  0.031323054  0.032087461            1 
  434000     1.177809    -7.262803    161.99271  0.031104591  0.032079212            2 
  435000    1.1641716   -7.2067289    163.07757  0.031240914  0.032070653            1 
  436000    1.1920898   -7.2725207    163.47689  0.031245583  0.032061965            2 
  437000    1.1880047   -7.2895515     163.4673  0.031172253  0.032053178            5 
  438000     1.171393   -7.2173767    163.76655  0.031158019  0.032044627            1 
  439000    1.1970867   -7.2806628    163.71751  0.031077735  0.032036897            1 
  440000    1.1827784   -7.2530505    164.33424   0.03112391  0.032028196            2 
  441000    1.1559469   -7.2937904    164.67385  0.031117508  0.032019257            1 
  442000    1.1795794   -7.2500098     164.4935  0.031013104  0.032009463            1 
  443000    1.1825958   -7.2597787     165.7271   0.03117515  0.031999961            2 
  444000    1.1679587   -7.2988364    165.47903  0.031058377  0.031990471            2 
  445000    1.1943872   -7.2747328    166.36248  0.031154022  0.031981094            1 
  446000    1.1849436   -7.3017268    166.24617  0.031062439   0.03197219            3 
  447000    1.1767129   -7.3137707    166.85816   0.03110704  0.031963503            1 
  448000    1.1852137    -7.314808     166.1398   0.03090398  0.031954078            1 
  449000     1.172418   -7.2573363    166.98192  0.030991447  0.031944465            1 
  450000     1.170356    -7.273156    167.34029  0.030988942  0.031935075            1 
  451000    1.1837474   -7.2908089     167.9318  0.031029527  0.031925807            1 
  452000    1.1615107   -7.3263123    167.96778  0.030967511  0.031916074            1 
  453000    1.1975165   -7.2582164    169.76821  0.031230354  0.031906879       -1e+20 
  454000    1.1571009   -7.3328805    168.65691  0.030957582  0.031897719            2 
  455000    1.2203308   -7.2447476    169.93787  0.031124152  0.031888455            2 
  456000     1.173086   -7.2805204    169.68199  0.031009136  0.031879329            1 
  457000    1.1858037   -7.2724788    170.11838  0.031020857  0.031869426            1 
  458000    1.1731533   -7.3025071    169.79683   0.03089462  0.031859674            4 
  459000    1.1760014   -7.2948377    170.44945  0.030945798  0.031850169            2 
  460000    1.1744928   -7.3314961    170.97715  0.030974122   0.03184064            1 
  461000    1.1947577   -7.2774392    171.10424  0.030929907  0.031830414            2 
  462000    1.1683254   -7.2780019     171.0108  0.030846104  0.031820515            2 
  463000    1.1642033   -7.2871925    171.31424  0.030834097  0.031810586            2 
  464000    1.1662859   -7.2470021    172.40405  0.030963371  0.031800482            2 
  465000    1.1698099   -7.2752469    172.89418   0.03098462  0.031791065            3 
  466000    1.1846812   -7.2944361    172.81329  0.030903664  0.031781804            1 
  467000     1.171512   -7.2392912    173.83634  0.031020047  0.031773053            2 
  468000    1.1786509   -7.3230658    173.64926  0.030920453  0.031764255            3 
  469000      1.16729   -7.2617736    174.24187   0.03095982  0.031755319            2 
  470000    1.1799254   -7.2981271    173.97447  0.030846537  0.031746575            1 
  471000    1.1576021   -7.2204883    175.20277  0.030998366  0.031737736            2 
  472000    1.1726182   -7.2442558    175.12274  0.030918564  0.031729408            2 
  473000    1.1766833    -7.279529    175.22405  0.030871045  0.031721112            3 
  474000    1.1738312    -7.294507     175.6647  0.030883386  0.031712266            2 
  475000    1.1733415   -7.2666406    176.47108  0.030959839  0.031703797            2 
  476000    1.1728626   -7.2517399    176.79955  0.030952303  0.031695518            1 
  477000    1.1817238   -7.3148795    176.48041  0.030831658  0.031686613            3 
  478000    1.1867507   -7.2934197    176.95697  0.030850239   0.03167773            2 
  479000    1.1761736   -7.3153716    177.11702  0.030813678  0.031668712            3 
  480000    1.1677201   -7.2839368    177.77513  0.030863738  0.031659975            3 
  481000    1.1725468   -7.3037165     177.8099  0.030805596  0.031650975            1 
  482000    1.1774076   -7.3146169    177.81779  0.030743047   0.03164267            3 
  483000    1.1708588   -7.3100223    178.52717  0.030801789  0.031633534            3 
  484000    1.2169983   -7.2974883    178.76777  0.030779575  0.031623716            2 
  485000    1.1716597    -7.311769    179.29069  0.030805961   0.03161437            2 
  486000    1.1473626   -7.3146423    179.74474  0.030820429   0.03160483            3 
  487000     1.180535   -7.2584303     180.1858  0.030832615  0.031595312            2 
  488000    1.1824282   -7.2914817    179.95711  0.030730382  0.031586575            2 
  489000    1.1706299   -7.2840584      180.511   0.03076193  0.031577397            1 
  490000    1.1775293   -7.3232679    180.94017  0.030772137  0.031568339            5 
  491000    1.1722311   -7.2717266    181.77431  0.030851037  0.031559737            1 
  492000    1.1837844   -7.2904037     182.2191  0.030863668  0.031551095            3 
  493000     1.182108   -7.2680192    182.41876  0.030834815  0.031542956            2 
  494000    1.1870464   -7.2867039    183.14318  0.030894598  0.031535193            3 
  495000    1.1702973   -7.2556902    183.80341  0.030943336  0.031527652            2 
  496000    1.1866519   -7.2619303    183.79224  0.030879073  0.031520111            1 
  497000    1.1860946   -7.2631257    184.35372  0.030911087  0.031513041            2 
  498000    1.1455073   -7.3083289    184.06551  0.030800788  0.031505262            2 
  499000     1.200335   -7.3202501    184.40312  0.030795445  0.031497011            1 
  500000    1.1403131   -7.2602402    185.26643  0.030877738  0.031488933            1 
  501000    1.1434687   -7.2527121    185.18785  0.030803036   0.03148084            4 
  502000     1.166009   -7.2947687    185.40785  0.030778195  0.031472733            1 
  503000    1.1291459   -7.3200098    185.47221  0.030727669  0.031464926            3 
  504000    1.1866939   -7.3084146     185.7453  0.030711856  0.031456817            1 
  505000    1.1739844   -7.2580581    186.68227  0.030805656  0.031449864            2 
  506000      1.16938   -7.3507018    186.76248  0.030757984   0.03144228            1 
  507000    1.1555708   -7.3082603    186.66501  0.030681297  0.031434005            4 
  508000    1.1740685   -7.2952569    187.20332  0.030709206  0.031426662            3 
  509000    1.1561891   -7.3163033    187.79409  0.030745594  0.031418676            2 
  510000    1.1735177   -7.2502698    187.88223   0.03069971  0.031410687            1 
  511000     1.188401   -7.3236019    187.36135  0.030554688  0.031402389            2 
  512000    1.1770784   -7.3028236    188.51556  0.030682872  0.031393784            2 
  513000    1.1647115   -7.2548567    188.83527  0.030674995  0.031384742            2 
  514000    1.1796535   -7.2839853    189.36785  0.030701662  0.031376048            4 
  515000    1.1294701   -7.3510423    188.67171  0.030529403  0.031367457            2 
  516000     1.166578   -7.3309547    189.64345  0.030627173  0.031358928            6 
  517000      1.14558   -7.3204464    189.76368  0.030587312  0.031350702            2 
  518000    1.1671833   -7.3057783    191.30511  0.030776241  0.031342335            2 
  519000    1.1862293   -7.2934969    190.76198  0.030629734  0.031334545            3 
  520000    1.1626094   -7.2993348      191.292   0.03065577  0.031326367            1 
  521000    1.1952201   -7.2840935    191.53516  0.030635823  0.031318532            3 
  522000    1.1902445   -7.2569257    191.60639  0.030588505  0.031310124            2 
  523000    1.1714422   -7.3294046    191.28554  0.030478894  0.031301594            2 
  524000    1.1685749    -7.278704    192.02055  0.030537619   0.03129223            1 
  525000    1.1480191   -7.3139561    192.46065  0.030549309  0.031283244            2 
  526000    1.1715913   -7.3019631    193.11805  0.030595382  0.031274361            2 
  527000    1.1684065   -7.2828174    192.27832  0.030404541   0.03126559            1 
  528000    1.1455909   -7.3672159    192.65813  0.030406901  0.031255643            2 
  529000    1.1912023   -7.3035304    193.76017  0.030523027  0.031246108            1 
  530000    1.1809257   -7.3025356    193.66291  0.030450143  0.031235683            1 
  531000    1.1655451   -7.3100099     193.9781  0.030442263  0.031225803            2 
  532000    1.2025647   -7.2907724    194.13882  0.030410215  0.031216004            1 
  533000    1.1650525   -7.2593333    194.68327  0.030438286  0.031206447            1 
  534000    1.1860071   -7.3427584    194.60988  0.030369831  0.031196512            1 
  535000    1.1720476   -7.3219047    194.88372   0.03035572  0.031186516            3 
  536000    1.1497795    -7.292778     195.6367  0.030416153  0.031176884            2 
  537000    1.1719243   -7.2723899     196.1574  0.030440317  0.031167339            1 
  538000    1.1543028    -7.312974    195.97076  0.030354827   0.03115858            2 
  539000    1.1642234   -7.3308053    196.11349  0.030320577  0.031148956            2 
  540000    1.1720135   -7.2909952    196.93284  0.030390871  0.031139546            2 
  541000    1.1567979   -7.2781504    198.26833  0.030540408  0.031130578            1 
  542000    1.1416729   -7.3041245    198.21324  0.030475591  0.031121534            2 
  543000    1.1724947   -7.3368061    197.85869  0.030365054  0.031112623            1 
  544000    1.1362503    -7.310132    197.81122  0.030301963  0.031103287            1 
  545000    1.1553315   -7.3565649    198.05359  0.030283423  0.031093708            1 
  546000    1.1480491   -7.2896939    198.56222   0.03030559   0.03108382            1 
  547000    1.1476207   -7.3547289    198.74134  0.030277474  0.031074155            1 
  548000    1.1483948     -7.33154    199.82003  0.030386258  0.031064328            2 
  549000    1.1683828   -7.3007948    200.04425  0.030364944  0.031054884            2 
  550000    1.1476129   -7.2916673    200.46346  0.030373252  0.031045119            2 
  551000    1.1332869   -7.3290705    200.07459  0.030259314  0.031035926            3 
  552000    1.1938889   -7.3160627    200.26152  0.030232718   0.03102599            2 
  553000     1.149493   -7.3272442    200.75544  0.030252478   0.03101597            1 
  554000    1.1841544   -7.2909256    200.09884  0.030099103  0.031006029            1 
  555000    1.1510452   -7.3153872    201.38308  0.030237699  0.030995937            3 
  556000    1.1637332   -7.3312671     201.9078   0.03026196  0.030986821            1 
  557000    1.1707815   -7.2989593    203.02125  0.030374214  0.030977295            1 
  558000    1.1612949   -7.3130073    203.30699  0.030362453   0.03096842            3 
  559000    1.1577704   -7.3086699    203.03252  0.030267221  0.030959656            2 
  560000    1.1504005   -7.3530831    203.46395  0.030277374  0.030950654            2 
  561000    1.1555357   -7.3141332    203.38649  0.030211896  0.030941923            3 
  562000    1.1484323   -7.3257529     204.1215  0.030267126  0.030933186            1 
  563000    1.1666546   -7.3344455    204.40823  0.030255806  0.030923624            1 
  564000    1.1514189    -7.303399    204.17541  0.030167762  0.030914347            2 
  565000    1.1767405   -7.2803376    205.79847  0.030353757  0.030905492            1 
  566000    1.1639026   -7.3314554    205.37431  0.030237679  0.030896743            1 
  567000    1.1614266    -7.319364    205.69176  0.030231006     0.030888            2 
  568000    1.1696394    -7.361301    205.21661  0.030108071  0.030878733            1 
  569000    1.1480099   -7.3188176    205.90603  0.030156126  0.030869432            2 
  570000    1.1514658   -7.2933088    206.46127  0.030184396   0.03086047            5 
  571000    1.1483842   -7.3290735    206.56917  0.030147281  0.030851916            3 
  572000    1.1613189   -7.2887509    206.50715  0.030085541  0.030843082            1 
  573000     1.167417   -7.3456841    207.75924  0.030215131  0.030834386            1 
  574000    1.1260276   -7.3169186    207.81172   0.03017011  0.030825658            1 
  575000    1.1546115   -7.3120565    208.41716  0.030205386  0.030816722            2 
  576000    1.1712658   -7.3610722    207.45875  0.030014286  0.030807327            3 
  577000     1.157976   -7.3308503    208.51829  0.030115293  0.030797913            1 
  578000    1.1337596   -7.3373275    208.63829  0.030080492  0.030788497            1 
  579000    1.1586282   -7.3209732    208.90737  0.030067266  0.030778833            3 
  580000    1.1405086   -7.3155346    209.29665  0.030071358   0.03076922            3 
  581000     1.156972   -7.3234661    209.82949  0.030096025  0.030759777            2 
  582000    1.1735703   -7.2588836    211.76119  0.030320904  0.030750746            1 
  583000    1.1699016   -7.3007519    211.02801  0.030164095  0.030741947            1 
  584000    1.1392091   -7.3212834    210.83899  0.030085472  0.030733088            1 
  585000    1.1302542   -7.3242892    211.04068  0.030062775  0.030724468            2 
  586000    1.1496318   -7.2986433    211.98791  0.030146176  0.030716133            2 
  587000    1.1694952    -7.320993    211.67293  0.030050104  0.030708209            4 
  588000    1.1646694   -7.3408847    211.76507  0.030012057  0.030699583            2 
  589000    1.1764441   -7.3662558    212.79012  0.030106129  0.030690792            1 
  590000    1.1228154    -7.336548    212.99116  0.030083497  0.030682064            1 
  591000     1.177207   -7.3197937    213.40915  0.030091532  0.030673635            3 
  592000    1.1827626   -7.3291835    213.18318  0.030008893  0.030665211            1 
  593000    1.1426372   -7.2931097    214.23281  0.030105791  0.030656526            2 
  594000    1.1636806   -7.3328896     214.4883  0.030090951  0.030647968            2 
  595000    1.1542643   -7.3414773    214.33293  0.030018618   0.03063954            1 
  596000    1.1581208   -7.3536496    214.93881  0.030052965   0.03063117            1 
  597000    1.1723177    -7.341796    214.95472  0.030004846  0.030622592            4 
  598000    1.1701029   -7.3345812     215.8364  0.030077537   0.03061412            1 
  599000    1.1442356   -7.3318572    215.70964  0.030009689  0.030606063            2 
  600000    1.1659176   -7.3274549    215.67769  0.029955235  0.030597547            2 
  601000    1.1685354   -7.3458768    216.73835  0.030052461  0.030589405            1 
  602000    1.1621707   -7.3398062    216.21911  0.029930663  0.030581189            1 
  603000    1.1349939   -7.3430215     217.4555  0.030051893  0.030572184            2 
  604000    1.1629253   -7.3545944    217.14668  0.029959531  0.030563659            1 
  605000     1.151756   -7.3741929    217.47622  0.029955402  0.030555256            1 
  606000    1.1467042   -7.3529052    218.11655  0.029994025   0.03054679            2 
  607000    1.1479436   -7.3518744    218.43714  0.029988625   0.03053851            1 
  608000    1.1689535   -7.3337602    218.75063  0.029982269  0.030530017            2 
  609000    1.1512204   -7.3176236     219.3791  0.030019035  0.030521985            2 
  610000    1.1387488   -7.3080755    219.76129  0.030022034  0.030513644            6 
  611000    1.1326788   -7.3337706     220.1254  0.030022559  0.030505833            2 
  612000    1.1535584   -7.3358839    220.53589  0.030029397  0.030497528            2 
  613000    1.1368186   -7.3337884    220.49716  0.029975144  0.030489977            2 
  614000    1.1634843   -7.3008713    221.53822   0.03006762  0.030482611            3 
  615000    1.1330436    -7.357579    221.14771  0.029965814  0.030475349            2 
  616000    1.1452218   -7.3146106    222.61349  0.030115461   0.03046785            1 
  617000    1.1010971   -7.3532572    222.59357  0.030063962   0.03046068            1 
  618000    1.1489402   -7.3572327    221.85971  0.029916358  0.030453231            4 
  619000     1.162434   -7.3749979    222.02782  0.029890659  0.030445783            2 
  620000    1.1453439   -7.3379197    223.51069  0.030041759  0.030438535            1 
  621000    1.1428169   -7.3297328    223.92377  0.030048814   0.03043167            2 
  622000    1.1372846   -7.3444743    223.34788  0.029923349  0.030424312            2 
  623000    1.1681304   -7.3539675     223.9035  0.029949639  0.030417106            3 
  624000     1.134552   -7.3243413    224.73682   0.03001293  0.030410063            2 
  625000    1.1522665   -7.3371905    225.40938  0.030054584  0.030402936            2 
  626000    1.1555586   -7.3618279    225.58394  0.030029811  0.030396115            3 
  627000    1.1560717   -7.3166978    225.56024  0.029978766  0.030389327            2 
  628000    1.1712338   -7.2826669    227.16492  0.030143965  0.030382896            1 
  629000    1.1489308   -7.3217005     227.0012  0.030074351  0.030376991            4 
  630000    1.1066319    -7.367511     226.6985  0.029986574  0.030370167            2 
  631000     1.145746    -7.367365    226.35907  0.029894225  0.030363438            6 
  632000    1.1711331   -7.3405113    227.40516  0.029984857  0.030356558            1 
  633000    1.1714719   -7.3387165    227.30739  0.029924616  0.030349903            3 
  634000    1.1588001   -7.3463646    228.34169  0.030013367  0.030343744            3 
  635000    1.1513104    -7.367396    228.62309  0.030003031  0.030337413            1 
  636000    1.1375231   -7.3235497    228.80566  0.029979777  0.030330733            1 
  637000    1.1290578   -7.3466415    228.23798  0.029858448   0.03032336            2 
  638000     1.163811   -7.3607371    228.84573  0.029891031  0.030315788            2 
  639000    1.1380996     -7.38579    229.02563  0.029867714  0.030308394            2 
  640000    1.1347556   -7.3798412    229.11706   0.02983295  0.030300922            4 
  641000     1.170608   -7.3503088    229.81705  0.029877412  0.030293418            2 
  642000    1.1207399   -7.3047621    229.83009  0.029832566  0.030286053            3 
  643000    1.1455249   -7.3629329    229.96245  0.029803324  0.030278615            1 
  644000    1.1438297   -7.3338848    230.80894  0.029866581  0.030271328            3 
  645000    1.1310479   -7.3417746    230.91387  0.029833833   0.03026412            3 
  646000     1.136885   -7.3625341    231.59185  0.029875109  0.030256965            1 
  647000    1.1467942   -7.3317866    232.30324  0.029920562  0.030249603            3 
  648000    1.1630326   -7.3458578    232.06287  0.029843476  0.030242654            3 
  649000    1.1490762   -7.3325761    232.38303  0.029838602  0.030236068            2 
  650000    1.1546989     -7.35804     232.1187  0.029758808  0.030228838            1 
  651000    1.1636475   -7.3650855    232.82298  0.029803248  0.030221415            1 
  652000    1.1584662   -7.3514567    232.83009  0.029758446  0.030213994            1 
  653000    1.1397363   -7.3861796    232.72355  0.029699279  0.030206195            1 
  654000    1.1086586   -7.3469468    233.09182  0.029700792  0.030198434            2 
  655000    1.1313889   -7.3954064    232.78092  0.029615893  0.030190439            2 
  656000    1.1523915   -7.3649665    233.36006  0.029644316  0.030182115            1 
  657000    1.1441821   -7.3824751    233.40918  0.029605427  0.030173801            2 
  658000    1.1697458   -7.3188588    234.82384  0.029739595  0.030165781            2 
  659000    1.1633214   -7.3779665    234.58189  0.029663871  0.030157661            1 
  660000    1.1473764   -7.3498615    234.53495  0.029612998   0.03014901            1 
  661000    1.1618506   -7.3904016    234.80652  0.029602435  0.030140829            3 
  662000    1.1359906   -7.3444216    236.08324  0.029718434  0.030133006            2 
  663000    1.1532762   -7.3744421    236.09289  0.029674823  0.030125346            3 
  664000    1.1449339   -7.3447316    237.16216  0.029764327  0.030117896            3 
  665000    1.1710078   -7.2856501    237.55281  0.029768523   0.03011081            4 
  666000     1.134895   -7.3511257    236.99321  0.029653805  0.030103597            2 
  667000    1.1199065   -7.3338276    237.50839  0.029673712  0.030096169            1 
  668000     1.152172   -7.3262753    238.04609  0.029696368  0.030089298            1 
  669000    1.1449857   -7.3417853     238.6225   0.02972378  0.030082824            1 
  670000    1.1328065   -7.3529884    238.86761  0.029709902   0.03007593            2 
  671000    1.1361348    -7.363604    238.83927  0.029662105  0.030068625            2 
  672000    1.1855399   -7.3685479    239.28401  0.029673117  0.030061414            2 
  673000    1.1351156   -7.3770481    239.20093  0.029618738  0.030054023            2 
  674000    1.1501829   -7.3842692    239.11595  0.029564286   0.03004687            1 
  675000    1.1652211   -7.3524495    240.29874  0.029666512  0.030039599            2 
  676000    1.1418707   -7.3378309    240.65484  0.029666523  0.030032583            3 
  677000    1.1603131   -7.3557978    240.40326  0.029591735  0.030025401            1 
  678000    1.1507143   -7.3387852    240.59824  0.029572056  0.030018065            2 
  679000    1.1402822   -7.4048969     239.9595   0.02945011  0.030010391            1 
  680000    1.1529461   -7.3654307    241.40023  0.029583362  0.030002486            1 
  681000    1.1455215   -7.3746141    240.37578  0.029414559  0.029994035            1 
  682000     1.142611   -7.3402411     240.8187  0.029425549  0.029985653            2 
  683000     1.153604   -7.3851916    241.21948  0.029431367  0.029977759            1 
  684000    1.1371629   -7.3874256    242.43502   0.02953643  0.029969409            3 
  685000     1.141698    -7.381685    242.17652  0.029461864  0.029960933            1 
  686000    1.1350407   -7.3742266    242.99987  0.029518935  0.029952953            1 
  687000     1.127412   -7.4221241    242.70901  0.029440686  0.029945013            2 
  688000    1.1436605     -7.34676    243.28932  0.029468183  0.029937419            1 
  689000    1.1475942   -7.2867618    244.72339  0.029598862   0.02992997            3 
  690000    1.1457437   -7.3547572    244.28874  0.029503471  0.029922543            1 
  691000    1.1328463    -7.402544    244.25999  0.029457306  0.029914987            3 
  692000    1.1563673   -7.3442839    244.86805  0.029487963  0.029907204            1 
  693000     1.158583   -7.3914568    243.33233  0.029260741  0.029898865            2 
  694000    1.1480574   -7.3625515    245.01072  0.029420115   0.02989002            2 
  695000     1.132658   -7.3779516    244.85685  0.029359334  0.029881621            2 
  696000    1.1632779   -7.3653024    245.21741  0.029360322   0.02987301            1 
  697000    1.1347651   -7.3767263    245.51211  0.029353433  0.029864391            2 
  698000    1.1397551   -7.3492966    245.43851  0.029302592  0.029855528            1 
  699000    1.1440496   -7.3969077    245.73116   0.02929556  0.029847058            1 
  700000     1.180287   -7.3515897    246.69384  0.029368314  0.029838615            3 
  701000     1.129292   -7.3780103    246.85774  0.029345903  0.029830105            2 
  702000    1.1032244    -7.361181    247.18373  0.029342797  0.029821526            3 
  703000    1.1330686   -7.3783558    247.08636  0.029289517  0.029813314            2 
  704000    1.1461486   -7.3897076    247.49151  0.029295871  0.029805068            1 
  705000    1.1300643   -7.3903872     247.8593   0.02929779  0.029796681            2 
  706000    1.1512938    -7.345834    249.20085  0.029414642  0.029788508            1 
  707000    1.1675819   -7.3390263    248.96159  0.029344836  0.029780306            1 
  708000    1.1174844   -7.4056833    248.61088  0.029262109  0.029771866            2 
  709000    1.1203388   -7.3725177    248.12947  0.029164254  0.029763157            1 
  710000    1.1687766   -7.3911443    249.02906  0.029228763  0.029754232            4 
  711000     1.155943   -7.3661265    249.58287  0.029252563  0.029745148            2 
  712000    1.1377346   -7.3671658    248.58491  0.029094676  0.029736127            2 
  713000    1.1471421   -7.4062403    249.16296   0.02912143  0.029726803            1 
  714000    1.1300123   -7.3708466    249.76843  0.029151311  0.029717717            1 
  715000    1.1500231   -7.3797089    249.77356  0.029111137  0.029708362            2 
  716000    1.1559895   -7.3998242    249.57387  0.029047238  0.029698852            2 
  717000     1.132224   -7.3885513    250.57237  0.029122777  0.029689524            1 
  718000    1.1591565   -7.4299268    249.55385  0.028964002  0.029680252            4 
  719000    1.1568171   -7.3802244    251.07818  0.029100392  0.029671211            2 
  720000    1.1460205   -7.3529646    251.37026   0.02909378  0.029662402            1 
  721000    1.1494749   -7.4031657    251.45572  0.029063305  0.029653783            1 
  722000    1.1402463   -7.3773902    252.36087  0.029127524  0.029645211            1 
  723000     1.119753   -7.3700443     252.7101   0.02912749  0.029636687            3 
  724000    1.1476988   -7.4087441    252.38865  0.029050259  0.029627959            1 
  725000    1.1723585   -7.3773352    252.96745  0.029076719  0.029619301            1 
  726000    1.1437989   -7.4053243    253.21688  0.029065299  0.029610521            4 
  727000    1.1483963   -7.4310216    253.71798  0.029082758  0.029602086            1 
  728000    1.1503836   -7.3835957    254.03803  0.029079445  0.029593599            1 
  729000    1.1552909   -7.3782942    254.50993  0.029093499  0.029585075            1 
  730000    1.1302048   -7.4022834    254.95757  0.029104745  0.029576518            1 
  731000    1.1423373   -7.3784071    254.79874  0.029046824  0.029568304            1 
  732000    1.1209853   -7.3987894    254.86245  0.029014396  0.029559988            3 
  733000    1.1203041   -7.3480418    256.04869  0.029109674  0.029551843            2 
  734000    1.1225237   -7.3696919    256.34574   0.02910374  0.029543937            1 
  735000    1.1436275   -7.4241129    256.78488  0.029113932  0.029535969            2 
  736000    1.1162168   -7.4165344     257.2044  0.029121875  0.029527959            1 
  737000    1.1237441   -7.3928474    257.09248  0.029069705  0.029520153            1 
  738000    1.1212834   -7.3987194    257.30762   0.02905461  0.029512046            3 
  739000    1.1455437   -7.3669514    257.50969  0.029038079  0.029503819            1 
  740000    1.1362547   -7.3710047     257.7391  0.029024673  0.029495109            2 
  741000    1.1034385   -7.4072291    257.57957  0.028967563  0.029486518            1 
  742000    1.1289291   -7.3863252    258.07763  0.028984459  0.029477917            2 
  743000    1.1237078   -7.3873548    258.60741  0.029004869  0.029469713            2 
  744000    1.1417594   -7.3863748     259.0058  0.029010506  0.029461496            2 
  745000    1.1210234   -7.3929276    258.92202  0.028962195  0.029453202            1 
  746000    1.1381678   -7.3478604    260.89956  0.029144277  0.029445179            2 
  747000    1.1491871   -7.3853974    260.72758  0.029086075  0.029437048            4 
  748000    1.1267375   -7.4181088    260.97301  0.029074533   0.02942949            2 
  749000    1.1330943   -7.4008663     260.8977  0.029027336  0.029421768            1 
  750000    1.1321517   -7.3743068    261.83086  0.029092318  0.029414056            2 
  751000    1.1050976   -7.4285411     260.9152  0.028951975  0.029406494            2 
  752000    1.0989127   -7.4133887    261.70942  0.029001487  0.029398676            4 
  753000    1.1366524   -7.4065285     261.7033  0.028962295  0.029390769            1 
  754000    1.1242781   -7.3931581    263.30948  0.029101402  0.029383099            2 
  755000    1.1305019   -7.3790439    262.92955  0.029020921  0.029375848            1 
  756000    1.1052131   -7.3778118    263.15373  0.029007246  0.029368356            3 
  757000    1.1345045   -7.3997988    263.76853  0.029036606  0.029360726            2 
  758000    1.1403076   -7.3990758    264.24466  0.029050644  0.029353507            2 
  759000    1.1268075   -7.3946148    263.87407   0.02897168  0.029345827            2 
  760000    1.1339759   -7.3962911     264.9013  0.029046195  0.029338076            4 
  761000    1.1311173   -7.4139911    265.49126  0.029072631  0.029330579            1 
  762000    1.1259253   -7.3777087    266.01884  0.029092174  0.029323311            1 
  763000    1.1369812   -7.3455276    265.99552  0.029051498  0.029316285            2 
  764000    1.1092914   -7.3841636     265.7907  0.028991132  0.029309286            1 
  765000    1.1536102   -7.4036708     265.3329  0.028903366  0.029302099            2 
  766000     1.131107   -7.3889872    266.40062  0.028981791  0.029294806            3 
  767000    1.1118577   -7.4035135    266.84096  0.028991847  0.029287684            1 
  768000    1.1218505   -7.3774831    266.44586  0.028911226  0.029280259            2 
  769000    1.0952535   -7.4059342    266.97807  0.028931303  0.029272995            1 
  770000    1.1431872   -7.3646309    267.60844  0.028961952  0.029265648            2 
  771000    1.1212675   -7.4064488    267.40896  0.028902828  0.029258178            2 
  772000    1.1244435   -7.3701154    267.52986  0.028878439  0.029250468            2 
  773000    1.1367394   -7.3984742    266.89726  0.028772883  0.029242532            3 
  774000    1.1470697   -7.3967247    268.83549  0.028944389  0.029234565            1 
  775000    1.1177264   -7.4365189    268.03223   0.02882067  0.029226594            3 
  776000     1.133356   -7.4354686    268.35524  0.028818218   0.02921865            1 
  777000    1.1400704   -7.3531448    268.90276   0.02883985  0.029210967            1 
  778000    1.1538126   -7.3958685    269.08849  0.028822674  0.029203097            3 
  779000    1.1320103   -7.4277759    269.49702  0.028829377  0.029195051            1 
  780000    1.1174989   -7.4242421    270.53923  0.028903764  0.029187336            2 
  781000     1.125713   -7.3874181    270.48131  0.028860575  0.029179929            3 
  782000    1.1082977   -7.3961497    270.88909  0.028867124  0.029172753            1 
  783000    1.1292804   -7.3717017    271.13288  0.028856202  0.029165947            2 
  784000    1.1292858   -7.3995592    272.40861  0.028954996  0.029158915            2 
  785000    1.1313276   -7.4077126    271.76594  0.028849888  0.029151976            2 
  786000    1.1644294   -7.3819909    272.78956  0.028921709  0.029145109            2 
  787000    1.1152735   -7.4509751    271.43652   0.02874169  0.029138077            2 
  788000    1.1064796   -7.3888489    271.77162  0.028740653  0.029130664            1 
  789000    1.1170019    -7.434501    272.10767   0.02873972   0.02912337            2 
  790000    1.1184435   -7.4378153    271.65243  0.028655319  0.029115451            2 
  791000    1.1036789   -7.4011262    273.58344  0.028822528  0.029107697            5 
  792000    1.1041759   -7.4305933    273.20345  0.028746154  0.029100241            6 
  793000    1.1084903   -7.4156285    273.04834  0.028693604  0.029092807            2 
  794000    1.1275542   -7.3919896    274.86528  0.028848161  0.029085616            2 
  795000    1.1102626   -7.3879884    274.82823  0.028807991  0.029078232            2 
  796000    1.1213497   -7.4445009     274.6385  0.028751937  0.029070748            2 
  797000    1.1082719   -7.3888871    274.93243  0.028746594   0.02906311            5 
  798000    1.1309683   -7.4194246    274.52779  0.028668315  0.029055409            2 
  799000    1.1270357    -7.407605    275.33062  0.028716168  0.029047908            3 
  800000    1.1167765   -7.4216001    275.48079  0.028695916  0.029040088            3 
  801000    1.1152391   -7.4242235    275.59759  0.028672242  0.029032275            7 
  802000    1.1253985   -7.3753458    275.97802   0.02867602  0.029024381            3 
  803000    1.1141844   -7.3932366    275.78934  0.028620729  0.029016849            1 
  804000    1.1134081   -7.4239311    276.02693  0.028609756  0.029008899            1 
  805000    1.1152245   -7.4083012    277.07749   0.02868297  0.029001262            1 
  806000    1.1259422   -7.3936779    276.95402  0.028634617   0.02899378            4 
  807000    1.1193368   -7.4196266    277.46587   0.02865199  0.028986341            1 
  808000    1.1172495   -7.4291198    277.84086  0.028655205  0.028978905            2 
  809000    1.1259993   -7.3938734    278.21398  0.028658218  0.028971302            1 
  810000    1.1462105   -7.4077725    278.82043  0.028685229  0.028964078            2 
  811000    1.0943959   -7.4335578     279.3633  0.028705641   0.02895698            2 
  812000    1.1528243   -7.4562559    278.24574  0.028555597  0.028949533            2 
  813000    1.0979521   -7.4134783    278.40826  0.028537132  0.028942071            1 
  814000    1.1256265   -7.3896044    280.64826  0.028731395  0.028935009            1 
  815000     1.136069   -7.4207785    280.02097  0.028632001  0.028927986            1 
  816000    1.1052774   -7.4078323    280.14833   0.02860992  0.028921057            1 
  817000    1.1255862    -7.382461    280.93661  0.028655305   0.02891424            1 
  818000    1.1132332   -7.4579574    280.62398  0.028588425  0.028907176            1 
  819000    1.1267925   -7.4070969    281.41915  0.028634427  0.028900042            1 
  820000    1.1378765   -7.4508913    282.14528    0.0286733  0.028892837            5 
  821000    1.1223514   -7.4232136    281.99242  0.028622861  0.028885921            2 
  822000    1.1026802   -7.3739233    283.31783  0.028722407  0.028878994            3 
  823000    1.1142937   -7.4457477    282.25595  0.028579987  0.028871633            1 
  824000    1.1202332   -7.4302603    283.35555  0.028656508  0.028864421            1 
  825000    1.1168911   -7.3712324    283.02611  0.028588496  0.028857199            1 
  826000    1.1251422   -7.4189213    284.63126  0.028715826  0.028850125            1 
  827000      1.11297   -7.3623105    284.94284  0.028712499  0.028843217            1 
  828000    1.1203333   -7.3876945    285.34224   0.02871802   0.02883675            3 
  829000    1.1050294   -7.4061855     284.7077  0.028619592  0.028830454            3 
  830000     1.151726    -7.428086    285.29041  0.028643615   0.02882404            2 
  831000    1.1207637    -7.375359    285.95885  0.028676179    0.0288178            1 
  832000    1.1268505   -7.4108677    285.91031   0.02863685  0.028811564            1 
  833000    1.1237113   -7.4430183    285.95571  0.028607013  0.028805007            1 
  834000    1.1162408    -7.454242    285.98746  0.028575885  0.028798332            2 
  835000    1.1111623   -7.3707358     287.2216   0.02866483  0.028791836            1 
  836000    1.1126643   -7.4246225    286.44396  0.028553027  0.028785211            2 
  837000    1.1022523   -7.3940514    287.16881  0.028591081  0.028778168            1 
  838000    1.1220825   -7.4531654    286.86143  0.028526395  0.028771318            2 
  839000      1.12074   -7.3907893    287.01435  0.028507584  0.028764162            3 
  840000    1.1300596   -7.4058818    287.58832  0.028530587  0.028757123            1 
  841000    1.1049841   -7.4510315    287.87321  0.028524892  0.028750268            3 
  842000    1.1174875   -7.4144206    287.98054  0.028501637  0.028743289            7 
  843000    1.1199009   -7.4057757    287.30408  0.028400957  0.028736202            1 
  844000    1.0874612    -7.379103    288.84127  0.028519082  0.028729442            1 
  845000    1.1429589   -7.4113716    287.84735  0.028387313  0.028722553            2 
  846000    1.0883813   -7.4350869    288.23775  0.028392213  0.028715033            2 
  847000    1.1427753   -7.4160313    289.52754   0.02848559  0.028707709            1 
  848000    1.1331564   -7.4814579    289.13146  0.028413076  0.028700385            1 
  849000      1.10125   -7.4435213    290.35159   0.02849937  0.028693323            1 
  850000     1.108246   -7.4063192    290.21716  0.028452663  0.028686276            2 
  851000    1.1230987   -7.4645745    288.98538  0.028298607  0.028679341       -1e+20 
  852000    1.1113948   -7.4162391    290.52899  0.028416373  0.028672198            3 
  853000    1.1092429    -7.390588    290.72665  0.028402369  0.028664787            2 
  854000    1.0990992   -7.4554769    290.37244  0.028334547  0.028657323            3 
  855000    1.1203414   -7.4598815    291.05092  0.028367536  0.028649674            1 
  856000    1.1167647   -7.4269781    291.08588    0.0283378  0.028642015            2 
  857000    1.1057305   -7.4212078    291.12794  0.028308823  0.028634734            1 
  858000    1.0918314   -7.4419087    291.22291  0.028285054  0.028627082            3 
  859000    1.1002335   -7.4388405    291.79297  0.028307428  0.028619493            2 
  860000    1.1279359   -7.4745373    291.61462  0.028257231  0.028612067            1 
  861000    1.1304676   -7.4441692    292.06694   0.02826819  0.028604424            2 
  862000    1.1163641   -7.4452265     292.8508  0.028311176  0.028597329            1 
  863000    1.1157248   -7.4228615    293.34082  0.028325688  0.028590347            2 
  864000    1.1018277   -7.4386637    293.64241  0.028321992  0.028583113            2 
  865000    1.1175594   -7.3835123      294.041   0.02832765  0.028576282            1 
  866000    1.0937226   -7.4381705    293.48265  0.028241209  0.028569028            2 
  867000    1.1300835   -7.4160924    294.03722   0.02826194  0.028561625            1 
  868000    1.0924295    -7.455159    294.96316  0.028318275  0.028554284            1 
  869000    1.1184914   -7.4759041    294.12941  0.028205735  0.028546898            3 
  870000    1.1136157   -7.4500585     293.9209  0.028153343  0.028539563            6 
  871000    1.1316671   -7.4423878    295.71502  0.028292673  0.028531976            1 
  872000     1.108406   -7.4303776    295.78428  0.028266847   0.02852471            2 
  873000    1.1208157   -7.4256784     295.7411  0.028230346  0.028517249            3 
  874000    1.1423353   -7.4683751    296.27718  0.028249159  0.028509674            2 
  875000    1.1038763   -7.4769627    296.58359  0.028246056  0.028502618            1 
  876000    1.1271439   -7.4679735    295.70617  0.028130344  0.028495585            1 
  877000    1.1022705   -7.4649549    297.16022  0.028236433   0.02848872            2 
  878000    1.0923635   -7.4326749    297.81617  0.028266531    0.0284817            3 
  879000    1.0936634   -7.4376105    298.36144  0.028286068  0.028474824            6 
  880000    1.1101654   -7.4337215    300.47486  0.028454059  0.028468313            4 
  881000    1.1228288   -7.4429424    299.18022  0.028299302  0.028461788            2 
  882000    1.1194872   -7.4481511    299.76065  0.028322057  0.028455275            1 
  883000    1.1308134   -7.4282076      300.146   0.02832635  0.028448929            2 
  884000    1.1279315   -7.4337222    300.72246  0.028348648  0.028442608            2 
  885000    1.0887214   -7.4521424    300.45929  0.028291835  0.028436202            2 
  886000    1.1138627   -7.4698716    300.50333  0.028264045  0.028429675            2 
  887000    1.1135166   -7.4552912    300.21752  0.028205328  0.028423158            2 
  888000    1.0768242   -7.4551364    300.31098  0.028182336  0.028416675            1 
  889000    1.1056299   -7.4254263    301.48646  0.028260823   0.02841019            1 
  890000    1.1164499   -7.4652606    301.66775  0.028246044  0.028403579            2 
  891000    1.1311707    -7.480642    301.75981  0.028222953   0.02839701            2 
  892000    1.1239044   -7.4124122    301.77249  0.028192497  0.028390517            1 
  893000    1.0888028   -7.4461617    302.35297  0.028215096  0.028384191            1 
  894000    1.1349664   -7.4786988     302.6917   0.02821511  0.028377849            1 
  895000    1.1013464   -7.4403083    303.62954  0.028270907  0.028371323            2 
  896000    1.1166163   -7.4588183    304.03292  0.028276872  0.028364955            3 
  897000    1.0895992   -7.4250024     303.4651  0.028192595  0.028358738            1 
  898000    1.1238311   -7.4289693    304.96812  0.028300679  0.028352376            3 
  899000     1.087077   -7.4102063    304.64201   0.02823897   0.02834617            1 
  900000    1.0966753   -7.4697558     304.2851  0.028174546  0.028340157            1 
  901000    1.1143814   -7.4273889    304.55845  0.028168558   0.02833386            3 
  902000    1.0949709   -7.4257608    304.86044  0.028165229  0.028327779            3 
  903000     1.119628   -7.4606503    304.91489  0.028139063  0.028321185            3 
  904000    1.0958297   -7.4365026    305.38716  0.028151471  0.028314711            1 
  905000    1.1032143   -7.4490528    303.91262  0.027984588  0.028307939            2 
  906000    1.1003272   -7.4187381    306.35157  0.028178032  0.028301257            2 
  907000    1.1267688   -7.4466995    306.14493   0.02812798  0.028294844            1 
  908000    1.0981022   -7.4437689    306.87463  0.028163972   0.02828842            2 
  909000     1.087229   -7.4216198      307.162  0.028159332  0.028281788            2 
  910000    1.1422629   -7.4365664     307.5502  0.028163938  0.028275487            2 
  911000    1.1208842   -7.4504235    308.52724  0.028222397  0.028269103            2 
  912000    1.1331514   -7.4165178    309.09064  0.028242931   0.02826281            1 
  913000    1.1185186   -7.4863865    307.84284  0.028098105  0.028256625            2 
  914000    1.1108882   -7.4725123    308.82242  0.028156675  0.028250479            2 
  915000    1.1301432    -7.465203    309.02516  0.028144368  0.028244465            1 
  916000    1.0922399   -7.4316131    309.95241     0.028198  0.028238294            2 
  917000    1.0843414   -7.4370333    309.83629  0.028156697  0.028232575            1 
  918000    1.0993611    -7.480045    309.35549   0.02808238  0.028226642            2 
  919000    1.1122029   -7.4561912    309.97045  0.028107585  0.028220644            5 
  920000    1.1147829   -7.4863145    310.42896  0.028118565  0.028214486            2 
  921000     1.109134   -7.4556449    311.47497  0.028182679  0.028208627            4 
  922000    1.0878121   -7.4423735     312.1363  0.028211885  0.028202919            1 
  923000    1.1153941   -7.4169883    312.21521  0.028188445   0.02819725            2 
  924000    1.0857768   -7.4561318    312.40576  0.028175123  0.028191359            1 
  925000    1.1019192   -7.4821516    311.18885  0.028035031  0.028185488            1 
  926000    1.1084682   -7.4747434    311.58728  0.028040612   0.02817942            3 
  927000    1.0961413   -7.4686859    312.86473  0.028125201  0.028173434            2 
  928000    1.1090178   -7.4768111    313.30613   0.02813453  0.028167699            2 
  929000    1.1062256   -7.4430505    313.62518  0.028132865   0.02816158            1 
  930000    1.1119247    -7.472098    313.46151  0.028087949  0.028155481            2 
  931000    1.1161713   -7.4673846    313.66525  0.028076016   0.02814918            1 
  932000    1.0897769   -7.4280687    313.71966  0.028050757  0.028142994            3 
  933000    1.1031653   -7.4687691     313.2384  0.027977706  0.028136555            1 
  934000    1.1186396   -7.4787585    313.19851  0.027944193  0.028130088            2 
  935000    1.0938537   -7.4425724    314.17249  0.028001113  0.028123485            1 
  936000    1.1250578   -7.4637656    313.41419  0.027903685  0.028117024            2 
  937000    1.0984828   -7.4289556    314.56257  0.027976038  0.028110669            2 
  938000    1.0918613   -7.5167316    314.36905   0.02792902  0.028104064            3 
  939000    1.0958736   -7.4561145    314.79036  0.027936667  0.028097332            1 
  940000    1.0861391   -7.4396095    315.08383  0.027932964  0.028090554            1 
  941000     1.102285   -7.5050264    315.69333  0.027957256  0.028083908            2 
  942000    1.1090684   -7.4679227    316.06826  0.027960745  0.028077336            1 
  943000    1.1009492   -7.4280335    316.35453  0.027956392   0.02807111            2 
  944000     1.119263   -7.4670525    316.70928  0.027958093  0.028064695            2 
  945000     1.092085   -7.4948419    316.52018  0.027911832  0.028058387            2 
  946000     1.109009   -7.4665211    316.22939  0.027856711  0.028051729            3 
  947000    1.0908318   -7.4884436    316.68855  0.027867701  0.028045149            2 
  948000    1.1187057   -7.4624095    317.55061  0.027914083  0.028038737            1 
  949000    1.1033913   -7.4508544    317.27849  0.027860773  0.028032296            2 
  950000    1.0888671   -7.5142183    317.08495  0.027814469   0.02802573            2 
  951000    1.0874184   -7.4572204    318.74124  0.027930358  0.028019227            2 
  952000    1.0872195   -7.4848178    318.74555  0.027901396  0.028012654            2 
  953000    1.0992296   -7.5147564    317.69296  0.027780077  0.028005966            4 
  954000    1.0875184   -7.4867995    318.98237  0.027863589  0.027999288            3 
  955000    1.0998662    -7.463625    318.69404  0.027809253  0.027992941            6 
  956000    1.1064241    -7.454229    319.89818  0.027885127  0.027986372            1 
  957000    1.0931198   -7.4710987    320.30037  0.027891011  0.027979994            1 
  958000    1.0799614   -7.4812649    320.31808  0.027863438  0.027973608            3 
  959000     1.115349    -7.472284    320.48969  0.027849295  0.027967095            1 
  960000    1.0997253   -7.4868091    321.23252  0.027884768   0.02796083            1 
  961000    1.0967111   -7.4594718    321.09097  0.027843476  0.027954471            1 
  962000    1.0927294   -7.4514655    320.94316  0.027801729  0.027947883            2 
  963000    1.1036752   -7.4630429    320.77348  0.027758175  0.027941244            3 
  964000    1.1079718   -7.4736418      320.762  0.027728389  0.027934499            2 
  965000    1.0828067   -7.4916027    321.03996  0.027723658  0.027927764            2 
  966000    1.0895346   -7.4840326    321.69087  0.027751111  0.027921094            3 
  967000    1.1157526   -7.4726223    322.13067  0.027760313  0.027914165            1 
  968000    1.1324661   -7.4694812    321.16235  0.027648274  0.027907367            3 
  969000    1.0885491   -7.5101412    321.87121  0.027680702  0.027900344            1 
  970000    1.0838281   -7.4526321    322.78427  0.027730607  0.027893498            1 
  971000    1.0797164   -7.5068046    322.51249  0.027678724  0.027886942            1 
  972000    1.1076978   -7.4579696    322.51155  0.027650167  0.027880053            3 
  973000    1.0754077   -7.4669808    322.92802  0.027657418  0.027873238            3 
  974000    1.0880257   -7.4793407    323.50307  0.027678223  0.027866212            2 
  975000     1.086791   -7.4789764     324.4238   0.02772853  0.027859432            1 
  976000    1.0694257   -7.4904306    323.66208  0.027635082  0.027852457            4 
  977000      1.07343   -7.5004993    323.47438  0.027590787  0.027845375            1 
  978000    1.1036014    -7.528052    323.58107  0.027571666  0.027838363            3 
  979000    1.0947114   -7.5028506    324.45808  0.027618155  0.027831451            3 
  980000    1.1071072   -7.4986058    325.22571  0.027655248  0.027824346            3 
  981000    1.1039119   -7.4901656    324.39042  0.027556101  0.027817301            2 
  982000    1.0616304   -7.4800707    325.51616  0.027623571  0.027810446            1 
  983000    1.0929345   -7.5109834    325.31767  0.027578643  0.027803432            2 
  984000    1.0971558   -7.4840907    326.26176  0.027630569  0.027796534            3 
  985000    1.1057314   -7.4945971    326.12789  0.027591192   0.02778959            2 
  986000    1.0888527   -7.4748588     327.0556  0.027641616  0.027782733            5 
  987000    1.0891836   -7.4624342    327.07042  0.027614861  0.027776012            2 
  988000    1.1121225   -7.4749067    326.76137  0.027560844  0.027769225            2 
  989000    1.0797213   -7.5020497    326.93629  0.027547716  0.027762119            3 
  990000    1.1124717   -7.4916445    328.12897  0.027620284  0.027755097            4 
  991000    1.1021368    -7.463938    327.77487  0.027562636  0.027748156            1 
  992000    1.0883792   -7.5036725    328.84509  0.027624755  0.027741131            2 
  993000    1.0715512   -7.4721733    328.08178  0.027532878   0.02773415            2 
  994000    1.0991409   -7.4465771    327.76179  0.027478352  0.027727162            1 
  995000    1.0739639   -7.4951252    327.69698  0.027445308  0.027720082            2 
  996000    1.1035937    -7.511842    328.52437  0.027486978  0.027712914            3 
  997000    1.1061117   -7.4916281    328.08182  0.027422419  0.027705873            2 
  998000    1.1149819   -7.4813648    328.52151  0.027431656  0.027698831            1 
  999000    1.0899164   -7.5013265    329.11955  0.027454084  0.027691808            2 
 1000000    1.0657593   -7.5168534    329.11524   0.02742627  0.027684687            2 
 1001000    1.0937306   -7.5097348    330.11979    0.0274825  0.027677775            2 
 1002000    1.0701047   -7.5116528     329.8179  0.027429965  0.027670695            2 
 1003000    1.0928752   -7.5225734    330.25604   0.02743902  0.027663598            2 
 1004000    1.0909232   -7.5035553    329.95394  0.027386615  0.027656597            2 
 1005000    1.0955001   -7.4070911    331.24714  0.027466596  0.027649811            4 
 1006000    1.1142326   -7.4853121    331.23825  0.027438556  0.027642889            1 
 1007000    1.0688642   -7.4995806    331.21517  0.027409398  0.027635842            2 
 1008000    1.1031218    -7.455949    331.13046  0.027375203  0.027628801            1 
 1009000    1.0766649   -7.4847733    332.25192  0.027440694  0.027621637            1 
 1010000    1.0922123   -7.4931767    331.71747  0.027369428  0.027614534            1 
 1011000    1.0973918   -7.4995647     331.5633  0.027329649  0.027607201            1 
 1012000    1.0946246   -7.4653044    333.02313  0.027422853  0.027600049            1 
 1013000    1.0878079   -7.5100053    332.80714  0.027378014  0.027592786            2 
 1014000    1.0666891   -7.5115874    332.43248  0.027320223  0.027585543            2 
 1015000    1.0945764   -7.5321127    332.42682  0.027292843  0.027578276            1 
 1016000    1.0923411   -7.5095978    334.12455  0.027405229  0.027570899            2 
 1017000    1.0972831   -7.4784987    334.41795  0.027402323  0.027563757            1 
 1018000    1.1050811   -7.4589804    333.36993  0.027289614    0.0275565            1 
 1019000    1.1118916   -7.5395428     333.4609  0.027270273  0.027549406            3 
 1020000    1.0651329   -7.4738064    333.82456  0.027273249  0.027542067            3 
 1021000    1.0837464    -7.477675    335.19168  0.027358119  0.027534848            2 
 1022000    1.0819701   -7.5194023     333.5114  0.027194341  0.027527436            4 
 1023000    1.1056545   -7.4972864    334.44449  0.027243767  0.027519978            2 
 1024000    1.1031711   -7.5279973     335.6759  0.027317374  0.027512793            1 
 1025000    1.1151428   -7.4755747    336.76293    0.0273791  0.027505585            1 
 1026000    1.0870328   -7.4886212    336.24089  0.027310014  0.027498455            3 
 1027000    1.0763897   -7.5107162    335.80678  0.027248197  0.027491169            3 
 1028000    1.0741801   -7.5298944    335.01629  0.027157611   0.02748383            2 
 1029000    1.0858327   -7.4925329    336.72143  0.027269309  0.027476439            2 
 1030000    1.1029704   -7.5287073    336.34712   0.02721255  0.027469224            3 
 1031000    1.0726074   -7.4916209    336.41882  0.027191951  0.027461951            2 
 1032000    1.1084618   -7.5080313    336.65488  0.027184664  0.027455095            2 
 1033000    1.0755952   -7.5109509    336.99129  0.027185486   0.02744805            2 
 1034000    1.0689557   -7.4630078    338.66536  0.027294113  0.027440899            2 
 1035000    1.0953214   -7.4835402    338.71937  0.027272091  0.027434017            4 
 1036000    1.0849626   -7.5221436     338.7555  0.027248673  0.027427094            2 
 1037000    1.1144812   -7.5144759    339.06525  0.027247287   0.02742041            2 
 1038000    1.0918922   -7.5352457    339.55167  0.027260089  0.027413586            1 
 1039000    1.0846525   -7.4900737    340.52263  0.027311728  0.027406774            3 
 1040000    1.0792418   -7.5027355    339.44998  0.027199518  0.027400054            3 
 1041000    1.0722901   -7.5054786    339.30766  0.027161997  0.027393164            1 
 1042000     1.094235   -7.4689678     340.9888  0.027270378  0.027386372            6 
 1043000    1.0746461   -7.4970617    341.85482  0.027313424  0.027379673            2 
 1044000    1.0661669   -7.4796451    341.30791  0.027243607  0.027373098            1 
 1045000     1.090802     -7.49945    341.39261  0.027224291  0.027366334            1 
 1046000    1.0576108   -7.5140715    341.37006  0.027196468   0.02735938            2 
 1047000    1.0810595   -7.4742389    341.93237  0.027215247  0.027352349            2 
 1048000    1.0659154   -7.5196004     340.5973  0.027083119  0.027345261            1 
 1049000    1.0800549   -7.5082237    341.55578  0.027133443  0.027338358            3 
 1050000    1.1124263   -7.5349303    342.45804   0.02717921  0.027331618            2 
 1051000     1.104504      -7.4979    342.93023  0.027190789  0.027324822            1 
 1052000     1.072108   -7.5098391    343.77234  0.027231649  0.027318254            2 
 1053000    1.0872185   -7.5154729    343.68464  0.027198848  0.027311738            1 
 1054000    1.0947201   -7.5231297    344.26657  0.027219052  0.027305152            2 
 1055000    1.0650057   -7.5578932    343.38382  0.027123525  0.027298594            2 
 1056000    1.0882042   -7.5079075    344.47496  0.027183946  0.027292072            1 
 1057000    1.0597514   -7.5282619    345.14383  0.027210961  0.027285687            2 
 1058000     1.076718   -7.5140066    345.82555  0.027238938  0.027279133            1 
 1059000    1.0630969   -7.5154217      345.799  0.027211127  0.027272887            1 
 1060000    1.0897583   -7.5062804    345.54594  0.027165561  0.027266607            4 
 1061000     1.083978   -7.5309863    346.25107   0.02719534  0.027260333            2 
 1062000    1.0568364   -7.4992674    346.11921  0.027159386  0.027254015            2 
 1063000    1.0699271   -7.5240932    346.96535  0.027200169  0.027247521            2 
 1064000    1.0844479   -7.5099608    346.64322  0.027149375  0.027241203            3 
 1065000    1.0803746   -7.4723301    346.91251  0.027144954  0.027234956            3 
 1066000     1.077417   -7.4843491    346.66972  0.027100509  0.027228764            1 
 1067000     1.081046   -7.5164802    347.79448  0.027162956   0.02722278            2 
 1068000    1.0641576    -7.509208    348.49594  0.027192255  0.027216596            1 
 1069000    1.0908334   -7.4828441    348.83915  0.027193572   0.02721022            2 
 1070000    1.0738715   -7.5342841    349.25069  0.027200209  0.027204041            1 
 1071000    1.0749524   -7.4691514    349.66923  0.027207378   0.02719793            2 
 1072000    1.0587115   -7.5376222    349.50534  0.027169258  0.027191879            3 
 1073000    1.0712302   -7.5157946     350.3917  0.027212776  0.027185592            2 
 1074000    1.1171268   -7.5458054    349.38221   0.02710911   0.02717922            1 
 1075000    1.0969303   -7.4847651    349.27493  0.027075576  0.027172713            1 
 1076000     1.061615   -7.5457133    348.54697  0.026994034  0.027166318            2 
 1077000    1.0845742   -7.5368844    349.92383  0.027075505  0.027159833            1 
 1078000    1.0998466   -7.5354171    349.73394   0.02703571  0.027153341            2 
 1079000    1.0896219   -7.5160093    350.27917  0.027052762  0.027146905            2 
 1080000    1.0607743   -7.5086957     349.9923  0.027005578  0.027140372            3 
 1081000    1.0576102   -7.5427185    350.27944  0.027002732  0.027133704            3 
 1082000    1.0885426   -7.4751022    350.77151  0.027015674  0.027126843            1 
 1083000    1.0771661    -7.527263    351.05314  0.027012399  0.027120202            3 
 1084000    1.0418695   -7.5018876    351.74124  0.027040378  0.027113596            2 
 1085000    1.0786792   -7.5242101    351.28621  0.026980508   0.02710701            2 
 1086000    1.0687518   -7.5385979    353.36389  0.027115093  0.027100371            2 
 1087000    1.0664571   -7.5242021    351.64026  0.026958009  0.027093806            1 
 1088000    1.0963653   -7.4979752     352.4513  0.026995351  0.027087278            7 
 1089000    1.0634721   -7.5133077    352.28726  0.026958009  0.027080605            2 
 1090000    1.0597412   -7.5085957     351.5068  0.026873609  0.027074067            2 
 1091000    1.0837325   -7.4782841    353.51327  0.027002235   0.02706769            2 
 1092000    1.0857302   -7.5353821    353.16027   0.02695057  0.027061296            4 
 1093000    1.0991648   -7.4864462    354.32445  0.027014673   0.02705492            1 
 1094000    1.0592309   -7.5638863    353.76652   0.02694748  0.027048629            2 
 1095000    1.0654718   -7.5483082    353.73828  0.026920722  0.027042344            2 
 1096000    1.0894966   -7.5475012    355.07038  0.026997444  0.027035857            1 
 1097000    1.0825103   -7.5180215    354.64088  0.026940207  0.027029447            4 
 1098000    1.0909096   -7.5591902    353.54096  0.026832192  0.027022852            4 
 1099000    1.0819763   -7.4545696    355.04254  0.026921636  0.027016191            2 
 1100000     1.082375   -7.5414736    355.50892  0.026932494  0.027009774            1 
 1101000     1.102445   -7.5551138    355.03508  0.026872168  0.027003275            2 
 1102000    1.0917302   -7.4909366    356.29018  0.026942694  0.026996782            1 
 1103000    1.0982968   -7.5064726    355.95679  0.026893078  0.026990209            3 
 1104000    1.0679444    -7.531848    356.76695  0.026929872  0.026983838            4 
 1105000    1.0921866   -7.5183013    357.71111  0.026976705  0.026977506            6 
 1106000    1.0889774   -7.5189879    356.99825  0.026898602  0.026971017            2 
 1107000    1.0692064   -7.5186616    357.93707  0.026944977  0.026964411            1 
 1108000    1.0733513    -7.555159    357.27658  0.026870982  0.026958003            1 
 1109000    1.0833063   -7.5009852    358.39593  0.026930863  0.026951542            3 
 1110000    1.0830144   -7.5473014    356.43205  0.026759163  0.026945039            2 
 1111000    1.0478055   -7.5498591    357.16517  0.026790067  0.026938546            1 
 1112000    1.0639259   -7.5104802    357.69861  0.026805951  0.026931988            5 
 1113000    1.0795708   -7.5364091    358.46236  0.026839051  0.026925362            2 
 1114000    1.0537412   -7.5292796    358.08618  0.026786818  0.026918937            2 
 1115000    1.0836327   -7.5495148    358.43911  0.026789171  0.026912429            4 
 1116000    1.0864934   -7.5225566    359.28151   0.02682807  0.026905942            3 
 1117000    1.0866795   -7.5580527      359.587  0.026826843  0.026899447            3 
 1118000    1.0570783   -7.5153975    359.95234  0.026830079  0.026892912            1 
 1119000    1.0802922   -7.5404528    359.71995  0.026788796  0.026886372            1 
 1120000    1.0625862   -7.5604498    359.68351  0.026762166  0.026879762            1 
 1121000    1.0519549   -7.5233113    359.20517  0.026702733  0.026873043            2 
 1122000    1.0700911   -7.5591372     360.6515  0.026786356  0.026866463            1 
 1123000    1.0458442   -7.5176017    359.96745  0.026711743  0.026859845            2 
 1124000    1.0464374   -7.5365579    359.96931  0.026688116  0.026853349            3 
 1125000    1.0673536   -7.5638393    360.31894  0.026690292  0.026846716            2 
 1126000    1.0656669   -7.5121346    363.25767  0.026884079  0.026840243            3 
 1127000    1.0746992   -7.5020602    362.22687  0.026784004  0.026833804            1 
 1128000    1.0859177   -7.5051266    361.99793  0.026743346  0.026827455            2 
 1129000    1.0679005   -7.5049467    362.63882  0.026766964  0.026820989            2 
 1130000    1.0627379   -7.5338328    363.03429   0.02677244   0.02681449            2 
 1131000    1.0864303   -7.5625684    363.47121  0.026780962  0.026808012            1 
 1132000    1.0705805   -7.5900019    361.71146  0.026627758  0.026801625            2 
 1133000    1.0720796    -7.560359    364.14483  0.026783232  0.026795121            1 
 1134000    1.0518253   -7.5371999    363.37715    0.0267032  0.026788679            2 
 1135000    1.0614865   -7.5790394     362.8767  0.026642929  0.026782144            2 
 1136000    1.0675264   -7.5610117    363.89162  0.026693927  0.026775665            3 
 1137000    1.0703136   -7.5580309    364.56141   0.02671954  0.026769265            2 
 1138000    1.0700193   -7.5588498    365.06223  0.026732735  0.026763085            1 
 1139000     1.071452   -7.5037665    364.80231  0.026690248  0.026756826            2 
 1140000    1.0648364   -7.5159796    366.25027   0.02677268  0.026750628            1 
 1141000     1.060123   -7.5413466    365.46392  0.026691785   0.02674449            2 
 1142000    1.0673704   -7.5534585    365.98659  0.026706552  0.026738518            1 
 1143000    1.0655112   -7.5101334    366.24137  0.026701762  0.026732462            2 
 1144000    1.0619354   -7.5503763    366.10581  0.026668547   0.02672651            2 
 1145000    1.0713462   -7.5465915     367.4716  0.026744658   0.02672033            3 
 1146000    1.0606485   -7.5279661    367.29108  0.026708194  0.026714333            2 
 1147000    1.0787839   -7.5651596    366.87199   0.02665446  0.026708224            1 
 1148000    1.0502998   -7.5317786    367.37131  0.026667488  0.026702109            3 
 1149000    1.0759325   -7.5069684     368.3737  0.026716978  0.026696047            3 
 1150000    1.0695607   -7.5516798    367.54837   0.02663394  0.026689879            2 
 1151000    1.0519862   -7.5146863    368.05505  0.026647484  0.026683474            1 
 1152000     1.059768   -7.5211407    367.42859  0.026579036  0.026677029            3 
 1153000    1.0771091   -7.5577852    367.65013  0.026571996  0.026670529            1 
 1154000     1.079636   -7.5906012    366.42944   0.02646082  0.026664005            1 
 1155000    1.0610554   -7.5987341    366.60281  0.026450419  0.026657217            1 
 1156000       1.0712    -7.562585     368.3361  0.026552487  0.026650634            1 
 1157000    1.0517054   -7.5486168    368.16545  0.026517246  0.026644048            3 
 1158000    1.0741743   -7.5382205     368.4123  0.026512111  0.026637473            1 
 1159000    1.0599316   -7.6074945    368.16209  0.026471246  0.026630951            2 
 1160000    1.0693656   -7.5600794    368.66324  0.026484428   0.02662418            2 
 1161000    1.0899209   -7.5512018    369.89574  0.026550082   0.02661761            2 
 1162000    1.0608706   -7.5851097    368.90795  0.026456393  0.026611099            2 
 1163000    1.0333267   -7.5463595    369.28427   0.02646061  0.026604526            1 
 1164000    1.0696063    -7.522368    371.27361  0.026580298  0.026598028            1 
 1165000    1.0758761   -7.5633039    370.44524  0.026498229  0.026591599            5 
 1166000    1.0759135   -7.5806621     369.6522  0.026418825  0.026584938            3 
 1167000    1.0804287   -7.6058559    369.39205   0.02637761  0.026578246            1 
 1168000     1.068624   -7.5744685    370.30772  0.026420357  0.026571455            1 
 1169000    1.0632228   -7.5488799     370.2474  0.026393456  0.026564763            2 
 1170000    1.0498941   -7.5287976    371.24873  0.026442217  0.026558141            3 
 1171000    1.0613331   -7.5677436    371.65881  0.026448819  0.026551361            1 
 1172000    1.0656174   -7.5615004    371.43928  0.026410643  0.026544588            3 
 1173000    1.0635971   -7.5496757    372.22388  0.026443868   0.02653785            2 
 1174000    1.0689171   -7.5979156     371.0947  0.026341191  0.026531105            3 
 1175000    1.0746305   -7.5497355    372.25622   0.02640115  0.026524176            2 
 1176000    1.0808906   -7.5586515    372.43533  0.026391393  0.026517276            2 
 1177000    1.0804875   -7.5856961    370.86736  0.026257955   0.02651039            2 
 1178000    1.0791062    -7.562918    373.02573  0.026388351  0.026503409            1 
 1179000    1.0580931    -7.569959    373.47258  0.026397553  0.026496629            3 
 1180000    1.0530799   -7.5576191    373.57922  0.026382713      0.02649            2 
 1181000    1.0643791   -7.5690618    373.15401  0.026330371   0.02648344            1 
 1182000    1.0814357   -7.5915416    373.50148  0.026332592  0.026476749            3 
 1183000    1.0576216   -7.5616713    375.32719   0.02643894  0.026470174            4 
 1184000     1.049516   -7.5945225    374.73119  0.026374661  0.026463618            3 
 1185000    1.0822378    -7.589341    374.34538  0.026325273  0.026456936            3 
 1186000    1.0306537    -7.537833    375.32217  0.026371709  0.026450321            1 
 1187000    1.0492614   -7.5717562    374.78556   0.02631182  0.026443797            1 
 1188000    1.0858342   -7.5774047    374.70425  0.026283968  0.026436997            4 
 1189000     1.084696   -7.5768363    374.94631  0.026278827  0.026430156            1 
 1190000    1.0679899   -7.5798819    375.11936  0.026268863  0.026423457            2 
 1191000    1.0727842   -7.5897299    375.90237  0.026301593  0.026416738            2 
 1192000    1.0662631   -7.5967608    374.68469    0.0261944  0.026409907            2 
 1193000    1.0595803   -7.5831369     375.6573  0.026240381  0.026403015            2 
 1194000    1.0497266    -7.562691    376.06079  0.026246566  0.026396189            3 
 1195000    1.0742391   -7.5685685     376.2306  0.026236444  0.026389327            1 
 1196000     1.057195   -7.5479146    377.02131  0.026269601  0.026382499            1 
 1197000    1.0712969   -7.5566087    376.31419  0.026198426   0.02637551            2 
 1198000    1.0517885   -7.5414854     376.4251  0.026184273   0.02636839            1 
 1199000    1.0638511   -7.5677845    376.95688  0.026199394  0.026361267            2 
 1200000    1.0521206   -7.5737976    376.33571  0.026134424  0.026354247            2 
 1201000    1.0432614   -7.6030023    375.53936  0.026057408  0.026346982            1 
 1202000    1.0288049   -7.5526599    377.16457  0.026148403  0.026339736            3 
 1203000    1.0598018   -7.5945858    376.60592  0.026087969  0.026332315            1 
 1204000     1.032137   -7.5769646    377.12028  0.026101902  0.026325099            2 
 1205000     1.043333   -7.5592202     377.2149  0.026086784  0.026317949            2 
 1206000    1.0744414   -7.5482741    378.27085  0.026138118  0.026310891            2 
 1207000    1.0480457   -7.5482689    379.03657   0.02616933     0.026304            2 
 1208000    1.0613619    -7.527935    379.22925  0.026160958  0.026297149            1 
 1209000    1.0719918   -7.5644249    379.75145  0.026175313  0.026290176            2 
 1210000    1.0599613   -7.5994666    378.62651  0.026076206   0.02628343            1 
 1211000    1.0836715   -7.6129311    379.14836  0.026090584  0.026276559            2 
 1212000    1.0061597   -7.5911911    379.45198  0.026089933  0.026269792            1 
 1213000    1.0722189   -7.5741301    380.49463  0.026140054  0.026263056            5 
 1214000    1.0716122   -7.6004055    380.34624  0.026108336  0.026256275            3 
 1215000    1.0436002   -7.5837457    381.94228  0.026196316  0.026249515            2 
 1216000    1.0829748   -7.5803554    381.16789  0.026121703  0.026242752            2 
 1217000    1.0693104   -7.5901955    381.12963  0.026097619  0.026236113            3 
 1218000    1.0625671   -7.5968743    382.24042  0.026152191  0.026229536            4 
 1219000    1.0480258   -7.5819738    381.86016  0.026104741  0.026222857            2 
 1220000     1.056291   -7.5739126    381.99871  0.026092808  0.026216312            2 
 1221000    1.0525642   -7.5682285    383.32529  0.026161977  0.026209682            3 
 1222000    1.0483655   -7.5592239    382.69653  0.026097691  0.026202939            4 
 1223000      1.05188   -7.5632577    382.62431   0.02607143  0.026196412            3 
 1224000    1.0771892   -7.5939828     383.1949  0.026088977  0.026189748            3 
 1225000    1.0763592   -7.5647866     383.4363  0.026084102  0.026183106            1 
 1226000    1.0631499   -7.6105358    384.50626  0.026135554    0.0261767            3 
 1227000    1.0675904    -7.605671    383.33969  0.026035023  0.026170192            2 
 1228000    1.0593326   -7.6072653    383.89128  0.026051254   0.02616359            2 
 1229000    1.0521769    -7.577935    383.65092  0.026013759  0.026157032            2 
 1230000    1.0701522   -7.5895772    384.08037  0.026021705  0.026150544            5 
 1231000    1.0429984   -7.5831545    385.34373  0.026086091  0.026144159            1 
 1232000    1.0462938   -7.5827423    385.29116  0.026061361   0.02613781            2 
 1233000    1.0508642   -7.6097101    386.09899  0.026094822  0.026131512            6 
 1234000     1.066644   -7.5944861    386.26483  0.026084875  0.026125353            1 
 1235000    1.0762656   -7.5846765    385.90288  0.026039331  0.026119079            1 
 1236000     1.059759   -7.5897978    387.33179  0.026114603  0.026112841            3 
 1237000     1.070566   -7.5977991    387.59099  0.026110953  0.026106621            3 
 1238000    1.0255307   -7.6121299    387.10049  0.026056845  0.026100354            3 
 1239000    1.0435473   -7.6040059    387.18422  0.026041446  0.026093995            1 
 1240000     1.069819   -7.6227631    386.10262  0.025947757  0.026087527            2 
 1241000    1.0347487   -7.5949096    387.05565  0.025990844   0.02608113            6 
 1242000    1.0436586   -7.5654266    388.19511  0.026046371  0.026074625            2 
 1243000     1.063124   -7.5978098    387.20416  0.025958981   0.02606796            1 
 1244000    1.0215855   -7.5547454    387.82829  0.025979923  0.026061364            1 
 1245000    1.0628215   -7.5823625    387.68395  0.025949394  0.026054869            2 
 1246000    1.0466224    -7.605511    388.81158  0.026003984  0.026048513            1 
 1247000    1.0433235   -7.6230354    388.00943  0.025929526  0.026042226            4 
 1248000     1.047491   -7.5663377    389.77995  0.026026973  0.026036017            1 
 1249000     1.033479   -7.5967497    389.96247  0.026018313  0.026029876            3 
 1250000    1.0422351   -7.6133078    388.67621  0.025911747  0.026023378            2 
 1251000    1.0658347   -7.6313447    389.02534  0.025914292   0.02601687            2 
 1252000     1.078224   -7.5990801    389.43989  0.025921186  0.026010201            2 
 1253000    1.0458566   -7.6025389    389.69075  0.025917182  0.026003665            1 
 1254000     1.042126   -7.6093113    389.18101   0.02586264   0.02599721            1 
 1255000    1.0528493   -7.6478962     389.4165  0.025857669  0.025990574            2 
 1256000    1.0320228   -7.5852656    390.54563  0.025911998  0.025983926            1 
 1257000    1.0265454   -7.6067257    389.35874  0.025812698  0.025977514            2 
 1258000    1.0730392   -7.5821287     391.0376  0.025903391  0.025970981            2 
 1259000    1.0423895   -7.5638436    391.92361  0.025941462  0.025964574            2 
 1260000    1.0604382   -7.6083105     391.3874   0.02588541  0.025958173            9 
 1261000    1.0476642   -7.5981478    391.64046  0.025881606  0.025951957            4 
 1262000    1.0579545   -7.6244155    392.14056   0.02589412  0.025945713            3 
 1263000    1.0498086   -7.5406941    393.32078   0.02595149  0.025939637            2 
 1264000     1.042667   -7.5939123    392.12772  0.025852302  0.025933424            2 
 1265000    1.0322236   -7.6143047    393.50792  0.025922788  0.025927258            2 
 1266000    1.0610554   -7.5896208    393.22409  0.025883629   0.02592115            2 
 1267000    1.0353007   -7.6125876    394.16107  0.025924827  0.025915059            2 
 1268000    1.0525787   -7.5770214    394.08726  0.025899531  0.025909073            1 
 1269000    1.0641932   -7.6100397    394.27385  0.025891375  0.025902955            1 
 1270000      1.05373   -7.5947901    394.47347  0.025884086  0.025896926            1 
 1271000    1.0493942   -7.6168809    393.65317  0.025809938  0.025890724            1 
 1272000     1.040737   -7.6088901    395.12177   0.02588586  0.025884445            1 
 1273000    1.0478212   -7.6109423    394.92542  0.025852672  0.025878171            1 
 1274000    1.0327138   -7.5947662    395.23201  0.025852434  0.025871995            2 
 1275000    1.0507648   -7.5955818    395.66338  0.025860351  0.025866024            1 
 1276000    1.0645496    -7.598024    396.87985  0.025919531  0.025860069            1 
 1277000    1.0610823   -7.6205857    396.58967  0.025880297  0.025853999            3 
 1278000    1.0538346   -7.6142849    397.20253  0.025900008  0.025847848            1 
 1279000     1.054845   -7.6218577    396.48119  0.025832759  0.025841782            3 
 1280000    1.0413691   -7.5717822    397.60922  0.025886017  0.025835735            2 
 1281000    1.0487966   -7.6131306    397.33273  0.025847823   0.02582966            1 
 1282000    1.0496722   -7.5665225    397.24866  0.025822196  0.025823576            2 
 1283000    1.0461661    -7.621355    397.18937  0.025798218  0.025817406            2 
 1284000    1.0679498   -7.5921239    397.26303  0.025782907   0.02581136            1 
 1285000    1.0438606   -7.6062028     397.0596   0.02574965  0.025805179            2 
 1286000    1.0481033   -7.6252098    397.25187  0.025742086  0.025798858            2 
 1287000    1.0466775   -7.6143425    397.93505   0.02576632  0.025792673            2 
 1288000    1.0404787    -7.626832    397.92344  0.025745564  0.025786479            1 
 1289000    1.0405247   -7.5958139     398.9288  0.025790587  0.025780207            2 
 1290000     1.037045    -7.616881     398.5249  0.025744503  0.025773925            2 
 1291000    1.0548867   -7.5839484    398.57227  0.025727619  0.025767793            2 
 1292000    1.0342206   -7.6042602    398.68216  0.025714793  0.025761542            1 
 1293000    1.0368561   -7.5718751    399.95798  0.025777132  0.025755311            1 
 1294000    1.0442302   -7.5892075    399.05381  0.025698983  0.025749018            5 
 1295000    1.0425796   -7.6197091    398.97289  0.025673931  0.025742757            1 
 1296000    1.0337762   -7.6116539    399.44642  0.025684569  0.025736385            2 
 1297000    1.0328206   -7.6263182    399.14196  0.025645204   0.02573008            2 
 1298000    1.0369994   -7.5933598    401.73751  0.025792085   0.02572385            1 
 1299000    1.0259093    -7.618993    399.30374  0.025616099  0.025717488            3 
 1300000    1.0524746   -7.5999167    400.07066  0.025645555  0.025711108            1 
 1301000    1.0654577   -7.5984922    400.65551  0.025663304  0.025704697            1 
 1302000    1.0355814   -7.6314981    399.89241  0.025594752  0.025698132            1 
 1303000    1.0370908   -7.6145934    399.21332  0.025531678  0.025691432            2 
 1304000    1.0806141   -7.6187698    400.37228  0.025586163  0.025684764            1 
 1305000    1.0350611   -7.6045075    400.97901  0.025605301  0.025678205            1 
 1306000     1.039183   -7.6291601    399.73012  0.025506005  0.025671592            2 
 1307000    1.0377281   -7.5863608    402.55703  0.025666732  0.025664883            1 
 1308000    1.0372508    -7.593605    401.44959  0.025576554  0.025658268            5 
 1309000    1.0328066   -7.6031798    400.81784  0.025516796  0.025651515            2 
 1310000    1.0414036   -7.6434735    401.53667  0.025543045  0.025644771            1 
 1311000    1.0462739   -7.6361375      401.995  0.025552695  0.025638178            6 
 1312000    1.0399925   -7.6192506    401.31092  0.025489769  0.025631622            2 
 1313000    1.0372683    -7.633146    401.79831  0.025501289  0.025624971            3 
 1314000    1.0516979   -7.5726402    403.50596   0.02559018  0.025618376            1 
 1315000    1.0532162   -7.6053584    402.58538  0.025512381  0.025611794            4 
 1316000    1.0170717   -7.5894738    401.69848  0.025436834  0.025604982            1 
 1317000    1.0378044   -7.6170463    402.17496  0.025447669   0.02559815            1 
 1318000    1.0618378   -7.6051593    401.84789  0.025407681   0.02559132            1 
 1319000    1.0477872   -7.6305592    402.98319  0.025460146  0.025584377            1 
 1320000    1.0233669   -7.6431636    402.17762  0.025390001  0.025577327            2 
 1321000    1.0482002   -7.6403494    401.95154  0.025356519  0.025570203            4 
 1322000    1.0483548    -7.566081    403.19926  0.025415989  0.025563108            2 
 1323000    1.0352745   -7.5901757     404.6847  0.025490344  0.025556109            2 
 1324000    1.0561359   -7.5974157    403.86976  0.025419799  0.025549157            1 
 1325000    1.0170941   -7.6264891    403.32931  0.025366623   0.02554213            1 
 1326000    1.0564152   -7.6024592    403.83808  0.025379467  0.025535207            2 
 1327000    1.0596531   -7.6523107    402.85915  0.025298867  0.025528327            2 
 1328000    1.0488659   -7.5924196     405.9902  0.025476293  0.025521472            1 
 1329000    1.0371738   -7.6443983    403.58372  0.025306228  0.025514739            1 
 1330000    1.0363384    -7.588467    405.58177  0.025412391   0.02550798            4 
 1331000    1.0255308   -7.5932281    404.22061  0.025308078  0.025501258            2 
 1332000    1.0619928   -7.6302629    405.74851  0.025384667  0.025494452            3 
 1333000    1.0383247   -7.6481606    405.27127  0.025335789  0.025487474            2 
 1334000    1.0412695   -7.6230637    405.53444  0.025333236  0.025480728            2 
 1335000    1.0307716   -7.6189725    405.76547  0.025328681  0.025473925            2 
 1336000    1.0740518   -7.6129791     407.0393  0.025389178  0.025467145            1 
 1337000    1.0210702   -7.5952944    407.86611  0.025421722  0.025460481            2 
 1338000    1.0474386   -7.6352474    406.04053  0.025289021  0.025453809            1 
 1339000    1.0478096   -7.6143213    407.97882  0.025390766  0.025446997            1 
 1340000    1.0063775   -7.6329278    406.29505  0.025267105  0.025440279            2 
 1341000    1.0370169   -7.6586865    407.56138  0.025326956  0.025433452            2 
 1342000    1.0553884   -7.6244197    407.63069  0.025312387  0.025426644            1 
 1343000    1.0260304   -7.6285849    407.72958  0.025299676   0.02541977            2 
 1344000    1.0248962   -7.6264417    407.18281   0.02524695  0.025412964            1 
 1345000    1.0249219   -7.6103415    408.06759  0.025282998  0.025406191            2 
 1346000    1.0494757   -7.6367647    408.36165   0.02528242  0.025399391            2 
 1347000    1.0732379   -7.6454087    407.23356  0.025193861  0.025392562            1 
 1348000    1.0585574     -7.65076    407.23341  0.025175161  0.025385608            2 
 1349000    1.0491625   -7.5956795    408.59423  0.025240563  0.025378735            4 
 1350000    1.0445569   -7.6296527    409.00759  0.025247382  0.025371767            3 
 1351000    1.0282442   -7.6330519    409.08194   0.02523328  0.025364795            1 
 1352000    1.0361043   -7.6524874    408.68187  0.025189957  0.025357798            1 
 1353000     1.023424    -7.645787    408.35496  0.025151205  0.025350898            3 
 1354000    1.0170785   -7.6475443    408.05021  0.025113873  0.025344029            2 
 1355000    1.0512497   -7.6579792    410.20951  0.025228137  0.025337133            1 
 1356000     1.037679   -7.5972306    409.91424  0.025191386  0.025330299            1 
 1357000    1.0562457   -7.6254095    411.31556  0.025258878  0.025323506            1 
 1358000    1.0301676   -7.6066682    411.25373  0.025236483  0.025316829            1 
 1359000    1.0334295   -7.5958003    411.37013  0.025225051  0.025310227            2 
 1360000    1.0326135   -7.6261797    410.02173   0.02512388  0.025303516            4 
 1361000    1.0556316   -7.6127246    411.12749  0.025173126   0.02529673            1 
 1362000    1.0442748   -7.6408569    411.02092  0.025148123  0.025289802            2 
 1363000    1.0411573   -7.6427236    411.01868  0.025129535  0.025282905            2 
 1364000     1.033359   -7.6503594    410.66827  0.025089703  0.025275817            1 
 1365000    1.0408127   -7.6439145    410.73045  0.025075119  0.025268664            3 
 1366000    1.0464437   -7.6237499    411.83062  0.025123879  0.025261476            2 
 1367000     1.010481   -7.6509599    411.30341  0.025073361  0.025254445            1 
 1368000     1.039687   -7.6211652    413.41769  0.025183826  0.025247448            1 
 1369000    1.0170639   -7.6287563    411.39728  0.025042444  0.025240526            2 
 1370000    1.0434728   -7.6477571    412.47117  0.025089487  0.025233509            1 
 1371000    1.0565526   -7.6315254    411.90271  0.025036634  0.025226445            2 
 1372000    1.0214627    -7.659394    412.37895  0.025047313  0.025219509            4 
 1373000    1.0232543   -7.5966373    414.11052  0.025134166  0.025212643            1 
 1374000    1.0334253   -7.6189545     413.5774  0.025083539  0.025205898            2 
 1375000    1.0118667   -7.6337823    411.85223  0.024960741   0.02519907            1 
 1376000    1.0288257   -7.6156406    414.29634  0.025090621  0.025192178            4 
 1377000    1.0185598   -7.6560687    413.64518  0.025032993  0.025185181            2 
 1378000    1.0358154   -7.6670118    413.08271  0.024980812  0.025178122            2 
 1379000    1.0173433   -7.6450494    413.95311  0.025015295  0.025171073            2 
 1380000    1.0104996   -7.5912056     414.2718  0.025016413  0.025164152            2 
 1381000    1.0506119   -7.6669135    414.11463  0.024988814  0.025157167            3 
 1382000    1.0236728   -7.6746839    413.46006  0.024931263  0.025150042            4 
 1383000    1.0225295   -7.6929492    414.02262  0.024947133  0.025142936            3 
 1384000    1.0472289     -7.63171    414.99269  0.024987517  0.025135884            6 
 1385000    1.0277828   -7.6409471    414.41769  0.024934879  0.025128941            2 
 1386000    1.0282194    -7.660103    415.42297  0.024977331  0.025121998            1 
 1387000    1.0056617   -7.6735145    416.96432   0.02505193  0.025115204            3 
 1388000    1.0092131   -7.6125733    416.48877   0.02500533  0.025108547            2 
 1389000    1.0500716   -7.6552166    414.76559  0.024883944  0.025101762            2 
 1390000    1.0186562    -7.610817    417.33585  0.025020135  0.025095027            1 
 1391000    1.0380214   -7.6289288     416.7147  0.024964935  0.025088304            2 
 1392000    1.0336038   -7.6270131    416.49112  0.024933616  0.025081505            4 
 1393000    1.0228151   -7.6032232    418.46565  0.025033839  0.025074731            3 
 1394000    1.0327623   -7.6670681    417.98179  0.024986955  0.025067873            2 
 1395000    1.0297577   -7.6220224    417.64918  0.024949175  0.025061203            1 
 1396000    1.0183864   -7.6858778    418.66184  0.024991753  0.025054486            1 
 1397000     1.030889   -7.6711217    417.69318  0.024916081  0.025047701            3 
 1398000    1.0408723   -7.5987842     418.3563  0.024937786  0.025040977            1 
 1399000    1.0319178   -7.6925814    416.97523  0.024837695  0.025034221            3 
 1400000     1.049019   -7.6208683    419.12652  0.024948007  0.025027409            3 
 1401000    1.0411188   -7.6437951    418.85998  0.024914346   0.02502069            2 
 1402000    1.0341442   -7.6665739    418.07793  0.024850091   0.02501404            6 
 1403000    1.0424395   -7.6539628    419.77878  0.024933404  0.025007262            4 
 1404000    1.0155914   -7.6507084    419.55629  0.024902439   0.02500053            7 
 1405000    1.0358338   -7.6449061     419.8046  0.024899442  0.024993919            3 
 1406000    1.0216442     -7.67281    419.43616  0.024859895  0.024987238            1 
 1407000    1.0250282   -7.6410862    419.96871  0.024873769  0.024980533            1 
 1408000    1.0153968   -7.6361303    420.73762  0.024901611  0.024973778            2 
 1409000    1.0290828   -7.6479789     421.1545  0.024908593   0.02496726            5 
 1410000    1.0276285   -7.6419562    421.17495  0.024892136  0.024960728            1 
 1411000    1.0576834   -7.6246743    421.55724  0.024897073  0.024954229            2 
 1412000    1.0287189   -7.6391687    421.70645  0.024888247  0.024947614            2 
 1413000    1.0312536   -7.6456773    421.40137   0.02485264  0.024940898            2 
 1414000    1.0134709   -7.6646078    421.33266  0.024831015  0.024933944            3 
 1415000    1.0334009   -7.7066573    420.76713  0.024780161  0.024927196            2 
 1416000    1.0371103   -7.6465779    422.20189  0.024847098  0.024920342            1 
 1417000    1.0239653   -7.6774698     421.4174  0.024783427  0.024913608            2 
 1418000    1.0178171   -7.6570329    421.64489  0.024779319  0.024906817            3 
 1419000    1.0078356    -7.650007    422.14374  0.024791152  0.024900121            2 
 1420000    1.0095319   -7.6509404    422.95275  0.024821171  0.024893348            5 
 1421000    1.0117804   -7.6387944    422.65693  0.024786355  0.024886646            3 
 1422000    1.0154253   -7.6430591    423.78089  0.024834792  0.024879924            2 
 1423000    1.0436185   -7.6694567     421.7939  0.024700978  0.024873169            1 
 1424000    1.0243171   -7.6433646    423.16454  0.024763842  0.024866383            2 
 1425000    1.0347498   -7.6676099     422.7464  0.024722011  0.024859549            2 
 1426000    1.0262126   -7.6452623    424.04199  0.024780388  0.024852647            2 
 1427000    1.0302014   -7.6755017    423.48613  0.024730561  0.024845742            3 
 1428000    1.0386671   -7.6703243    423.08888  0.024690061  0.024838925            1 
 1429000    1.0075141   -7.6853442    424.50825  0.024755555  0.024832015            1 
 1430000    1.0220999   -7.6504915    424.02585  0.024710131   0.02482525            3 
 1431000    1.0234601   -7.6675381    423.78027  0.024678562  0.024818432            2 
 1432000    1.0172352   -7.6455289    423.01111  0.024616569  0.024811594            4 
 1433000    1.0131104   -7.6784454    423.43752  0.024624187  0.024804643            1 
 1434000    1.0341534   -7.6571362    422.59535  0.024558075  0.024797708            1 
 1435000    1.0339091    -7.650405    425.23898  0.024694482  0.024790936            1 
 1436000    1.0267256   -7.6638629    424.96632  0.024661462  0.024784082            1 
 1437000     1.013876    -7.607297    425.54855  0.024678065  0.024777302            2 
 1438000    1.0356293   -7.7109363    424.89547  0.024623057  0.024770505            2 
 1439000    1.0170129   -7.6362822    426.35886  0.024690692  0.024763675            3 
 1440000    1.0272901   -7.6666621     425.5743  0.024628143  0.024756781            2 
 1441000    1.0563833   -7.6784135    424.63157  0.024556533  0.024749857            2 
 1442000     1.043006   -7.6975351    424.97755  0.024559498  0.024743046            5 
 1443000    1.0183734   -7.6580868    426.77235  0.024646128  0.024736262            3 
 1444000    1.0208977    -7.687229    426.12313  0.024591594  0.024729615            2 
 1445000    1.0234431   -7.6779065    427.18567  0.024635852  0.024722968            2 
 1446000    1.0238621   -7.6702175    427.53527  0.024638962  0.024716343            1 
 1447000    1.0223096   -7.6622989    427.88933  0.024642325  0.024709827            2 
 1448000    1.0516506    -7.644604    428.02201  0.024632942  0.024703156            2 
 1449000    1.0280506   -7.6453534    427.17851  0.024567432  0.024696475            3 
 1450000    1.0144429   -7.6507949    428.39086  0.024620164  0.024689784            3 
 1451000    1.0179226   -7.6279384    427.75704  0.024566795   0.02468309            1 
 1452000    1.0350673   -7.6647663    427.95828  0.024561426  0.024676475            2 
 1453000    1.0162432   -7.6997081    427.64037  0.024526289  0.024669661            1 
 1454000     1.026696   -7.6773539    427.69546  0.024512578  0.024662867            3 
 1455000     1.022247   -7.7453485    427.45118   0.02448174  0.024655935            4 
 1456000    1.0303107   -7.6668821    429.20141  0.024565099  0.024649109            4 
 1457000     1.002853   -7.6378386     429.1425   0.02454487   0.02464237            2 
 1458000    1.0118419   -7.6581309    427.92559  0.024458481  0.024635613            4 
 1459000     1.041433    -7.669064    429.98958  0.024559606  0.024628763            1 
 1460000    1.0415526   -7.6937782    428.67107  0.024467527  0.024621807            1 
 1461000    1.0191551   -7.6698609    428.25053  0.024426793  0.024614742            1 
 1462000      1.03223   -7.7080609    428.97283  0.024451255  0.024607533            5 
 1463000   0.99653379   -7.7023005    429.26567  0.024451223  0.024600362            2 
 1464000    1.0146318   -7.7038321    429.30124  0.024436546  0.024593327            6 
 1465000      1.02506   -7.6786638     429.2366  0.024416189  0.024586288            2 
 1466000    1.0004636   -7.6771591    428.85208  0.024377676  0.024579158            3 
 1467000    1.0254155   -7.6895182    428.81286  0.024358831  0.024572104            3 
 1468000    1.0237387   -7.7125721     429.2195  0.024365321  0.024565027            1 
 1469000    1.0341695   -7.7079395    429.63951  0.024372561  0.024557736            2 
 1470000    1.0207707   -7.6769633    429.37312   0.02434088  0.024550481            4 
 1471000    1.0279154   -7.6548674    430.95874   0.02441416  0.024543397            2 
 1472000    1.0131268   -7.7080046    429.88033  0.024336522  0.024536204            2 
 1473000    1.0076242    -7.692116    428.91625  0.024265459  0.024528935            4 
 1474000     1.014731   -7.7041226    429.62315  0.024288961  0.024521756            2 
 1475000    1.0237291   -7.6719569     431.8495  0.024398277  0.024514622            2 
 1476000    1.0431727   -7.7039734    430.81438  0.024323305  0.024507533            2 
 1477000    1.0140626    -7.680585    431.46544   0.02434357   0.02450056            3 
 1478000    1.0069859   -7.6979241     431.4126   0.02432412  0.024493449            2 
 1479000    1.0196942   -7.6719381    431.61713  0.024319198   0.02448626            3 
 1480000    1.0195753   -7.6764318    430.61796  0.024246507  0.024479146            2 
 1481000    1.0049563   -7.6827929    432.24915  0.024321919  0.024472052            5 
 1482000    1.0282838   -7.6523213    431.94232  0.024288255  0.024464981            1 
 1483000    1.0049246   -7.6936601    431.63938  0.024254854  0.024457865            2 
 1484000    1.0193945   -7.7288851     431.7342  0.024243834  0.024450758            4 
 1485000    1.0265916   -7.7065132    431.75444  0.024228644  0.024443667            3 
 1486000   0.99993465   -7.6845834    432.44243  0.024250921  0.024436638            3 
 1487000    1.0294595   -7.6772776    433.33461  0.024284612  0.024429594            2 
 1488000    1.0083052   -7.6931343    432.61833  0.024228177  0.024422448            2 
 1489000    1.0042364    -7.707316     432.1275  0.024184436    0.0244153            2 
 1490000    1.0067347   -7.7456885    431.70014  0.024144303  0.024408063            2 
 1491000    1.0389822   -7.7199176    431.94709  0.024141912  0.024400839            2 
 1492000    1.0076567   -7.7043328    433.65182  0.024220946  0.024393611            2 
 1493000    1.0059333   -7.7191931    433.77808  0.024211771  0.024386389            1 
 1494000    1.0333182   -7.7098407    433.43645  0.024176509  0.024379144            2 
 1495000    1.0074548   -7.6950247    434.14073  0.024199595  0.024371941            4 
 1496000    0.9995815   -7.7001028    434.15196  0.024184044  0.024364805            2 
 1497000    1.0431129   -7.6588694    435.21962  0.024227323  0.024357779            2 
 1498000    0.9960187    -7.676126    434.63058  0.024178381  0.024350858            2 
 1499000    1.0038988   -7.6683118    435.41949  0.024206109  0.024343824            1 
 1500000    1.0327861   -7.6976793    434.58387  0.024143548  0.024336807            1 
 1501000    1.0126096   -7.6702574    435.70556  0.024189738  0.024329769            2 
 1502000    1.0066388   -7.6985225    435.21391  0.024146355  0.024322775            1 
 1503000    1.0269828   -7.6706524    436.82516  0.024219625  0.024315782            2 
 1504000    1.0228432   -7.6905084    436.30115  0.024174487  0.024308865            3 
 1505000    1.0093093   -7.6531034    436.64165  0.024177278  0.024301953            2 
 1506000    1.0012934   -7.7003465    436.15257  0.024134162  0.024294872            1 
 1507000    1.0143702   -7.6637346    437.01477  0.024165825  0.024287806            1 
 1508000    1.0045188   -7.7138115     437.3003  0.024165578  0.024280738            4 
 1509000    1.0013778   -7.7100767    436.70933  0.024116928  0.024273751            1 
 1510000    1.0265761   -7.7069483     436.8041  0.024106187  0.024266746            1 
 1511000   0.98352137   -7.6636814    437.70975   0.02414018  0.024259711            3 
 1512000   0.99543782   -7.7054999    437.31267  0.024102329  0.024252793            3 
 1513000    1.0044935   -7.6762394    438.15427  0.024132754   0.02424583            4 
 1514000    1.0153163   -7.6716679    437.63561  0.024088266   0.02423886            2 
 1515000    1.0083597   -7.7434774     435.9719  0.023980852  0.024231775            3 
 1516000    1.0077882   -7.6903229    437.80108  0.024065583  0.024224694            5 
 1517000   0.99213902    -7.692613     438.0738    0.0240647  0.024217678            4 
 1518000    1.0112981   -7.6915708    438.10222  0.024050407  0.024210688            2 
 1519000     1.030561   -7.7041878    437.94133  0.024025748  0.024203723            3 
 1520000    1.0038413   -7.6705435    438.09112  0.024018154  0.024196763            2 
 1521000   0.99949338   -7.7070665     438.0018  0.023997469  0.024189682            3 
 1522000    1.0192639   -7.6865059    439.30453  0.024053029  0.024182634            1 
 1523000   0.97851395   -7.7002072    439.27783  0.024035775  0.024175619            2 
 1524000    0.9917941   -7.6617698    439.61086  0.024038214  0.024168614            2 
 1525000    1.0085691   -7.7047859     439.3005  0.024005492  0.024161671            3 
 1526000   0.98772591   -7.7059316    440.16679  0.024037068  0.024154777            4 
 1527000    1.0028545   -7.6480618    440.21733  0.024024085  0.024147899            1 
 1528000   0.99446386   -7.6978911    440.95837  0.024048776  0.024141093            2 
 1529000    1.0052184   -7.6838119    441.38714  0.024056417  0.024134241            2 
 1530000    1.0082961   -7.7019541    439.85059  0.023957004  0.024127334            7 
 1531000    1.0040859   -7.6925273    440.68697  0.023986881  0.024120454            2 
 1532000      1.00407   -7.7145202    441.02757  0.023989751   0.02411355            1 
 1533000   0.98298728   -7.6946509    442.34682  0.024045815  0.024106644            2 
 1534000    1.0159375   -7.7101716    441.19691  0.023967672  0.024099772            2 
 1535000    1.0225548   -7.7118207    441.96465  0.023993738  0.024092897            1 
 1536000    1.0125992   -7.6550994    442.91454  0.024029652  0.024086158            4 
 1537000    1.0092861   -7.6971103    442.31201  0.023981349  0.024079493            2 
 1538000    1.0144719   -7.6790414    444.48313  0.024083395  0.024072716            1 
 1539000   0.97942163   -7.6794195    443.28977  0.024003128   0.02406601            3 
 1540000    1.0028686   -7.7292981    443.66804  0.024008011  0.024059341            2 
 1541000    1.0207566   -7.6826182    444.35794  0.024029739  0.024052608            3 
 1542000    1.0178199   -7.7114173    442.58929  0.023918574  0.024045815            1 
 1543000    1.0275001   -7.7354676    443.06928  0.023928996  0.024039056            3 
 1544000   0.98652541    -7.703278    443.85122  0.023955701  0.024032245            2 
 1545000    1.0058039   -7.7153147    444.16461  0.023957099    0.0240255            2 
 1546000    1.0188261   -7.7364625     442.9257  0.023874822  0.024018681            2 
 1547000   0.98804709   -7.7354882    443.81506  0.023907297  0.024011866            1 
 1548000    1.0108278   -7.7264365     443.8067  0.023891403   0.02400508            2 
 1549000    1.0106682   -7.7134356    444.82736  0.023930889  0.023998179            2 
 1550000    0.9900137   -7.6862969    445.24584  0.023937948  0.023991301            4 
 1551000    1.0061584   -7.7007772    444.15632  0.023863976  0.023984466            4 
 1552000   0.99028236   -7.6789635    445.28344  0.023909119  0.023977697            2 
 1553000   0.98098347   -7.7297222    445.32604   0.02389601  0.023970912            2 
 1554000     1.005096   -7.6866223    444.21565  0.023821088   0.02396402            3 
 1555000    1.0133953   -7.6901248    444.38472   0.02381483   0.02395717            2 
 1556000   0.98128496   -7.7244913    445.05194  0.023835258  0.023950341            1 
 1557000    1.0107022   -7.6836942    445.80897  0.023860467  0.023943455            3 
 1558000   0.99594238   -7.7360274    445.16724  0.023810828  0.023936515            2 
 1559000    1.0011066   -7.7375776     444.9175  0.023782206  0.023929557            1 
 1560000     1.001545   -7.7364298     446.5014  0.023851571  0.023922528            1 
 1561000   0.98097715   -7.7517355    445.21813  0.023767784  0.023915612            2 
 1562000   0.97939009   -7.7196133    446.96252  0.023845632  0.023908749            2 
 1563000   0.99405105   -7.7565152    445.90561  0.023774025   0.02390183            3 
 1564000   0.99707965   -7.6980874    447.32016  0.023834195  0.023894975            3 
 1565000   0.98884449   -7.6892904    447.57582  0.023832578  0.023888086            2 
 1566000    1.0270029   -7.7576213    446.36028  0.023752676  0.023881208            1 
 1567000    1.0195969   -7.7389036    446.93031  0.023767832  0.023874351            2 
 1568000    1.0165246   -7.7091646    447.08193  0.023760732   0.02386759            3 
 1569000    1.0181036   -7.7655896    446.70781  0.023725718  0.023860785            2 
 1570000   0.99539675   -7.7440829    448.40816  0.023800858  0.023853986            2 
 1571000    0.9852529    -7.713609    448.25697  0.023777688  0.023847197            3 
 1572000   0.98769247   -7.6917577    450.63243  0.023888488  0.023840513            6 
 1573000    1.0146512   -7.7567204    446.96832  0.023679186  0.023833783            2 
 1574000    0.9837234   -7.7738705     445.7808  0.023601271  0.023826932            3 
 1575000     1.015634    -7.694319    448.76581  0.023744223  0.023820171            6 
 1576000    1.0027187   -7.7198194    449.23101  0.023753755  0.023813464            3 
 1577000    1.0313445    -7.743951    449.47651  0.023751665  0.023806782            3 
 1578000    1.0242893   -7.6994474    449.87224  0.023757512  0.023800182            3 
 1579000    1.0042699   -7.7058274    450.92688  0.023798125  0.023793561            1 
 1580000    1.0115181   -7.7149978    449.44666  0.023704993  0.023786921            2 
 1581000   0.99439489   -7.7220357    450.48055  0.023744495  0.023780244            3 
 1582000     1.017326   -7.7484929    450.33416  0.023721774   0.02377358            2 
 1583000     1.022051   -7.7068232    451.18303  0.023751476  0.023767024            3 
 1584000   0.98266352   -7.7369913    449.62972  0.023654762  0.023760359            1 
 1585000    1.0246941   -7.7572779    450.63069  0.023692465  0.023753717            1 
 1586000   0.99040221   -7.7171918    451.44369  0.023720245  0.023747157            1 
 1587000      1.00015   -7.6993638     451.2061  0.023692822  0.023740515            3 
 1588000   0.97799766   -7.7171475    451.86937  0.023712708  0.023733955            2 
 1589000   0.99769441   -7.7101113    453.09004  0.023761802  0.023727361            2 
 1590000   0.99756273   -7.7210553    452.37216  0.023709233  0.023720815            1 
 1591000   0.99652719   -7.7439197    452.28465  0.023689747  0.023714279            6 
 1592000   0.99794362   -7.7578738    451.67504  0.023642957  0.023707737            5 
 1593000   0.98740711   -7.7434825    453.75016  0.023736669  0.023701165            4 
 1594000   0.99103301   -7.7354849    451.98701  0.023629601  0.023694504            1 
 1595000    0.9939871   -7.6910626     453.2082   0.02367859  0.023688017            5 
 1596000   0.99422527   -7.6932211    453.97416  0.023703747  0.023681641            2 
 1597000    0.9949682   -7.7165968    453.56432  0.023667518  0.023675182            1 
 1598000    1.0118221     -7.70375    453.47778  0.023648195  0.023668595            2 
 1599000   0.99963557   -7.7021213    453.27099  0.023622628  0.023662024            2 
 1600000    1.0101131   -7.6992065    453.83294  0.023637132  0.023655474            7 
 1601000    1.0135304   -7.6815793    455.00296  0.023683269   0.02364892            2 
 1602000    1.0024671    -7.770813     452.2121   0.02352331  0.023642356            2 
 1603000    1.0080089   -7.7243371     454.5379  0.023629543  0.023635635            2 
 1604000    1.0062797   -7.7531259    454.32244  0.023603618  0.023628924            3 
 1605000   0.97903282    -7.706091    453.50405   0.02354642  0.023622418            2 
 1606000    1.0119383   -7.7147267      455.391   0.02362967  0.023615964            1 
 1607000    1.0040122   -7.7083615    455.38069  0.023614431  0.023609456            2 
 1608000   0.99404501   -7.6855419    456.18765  0.023641565  0.023602972            1 
 1609000   0.97811596   -7.6998803    456.10631   0.02362266  0.023596612            1 
 1610000     1.002607   -7.7264753    455.93468  0.023599104  0.023590111            4 
 1611000    1.0203904   -7.7570568    455.31638  0.023552472  0.023583565            2 
 1612000     0.998805   -7.7469703    455.54183  0.023549516   0.02357694            2 
 1613000   0.96910979   -7.6910332    456.25748  0.023571889  0.023570528            3 
 1614000   0.97876188   -7.7102878     457.2389  0.023607957  0.023564169            1 
 1615000   0.98875952   -7.7300265    456.38123  0.023549083   0.02355786            3 
 1616000   0.98337579   -7.7389673    456.64008  0.023547859  0.023551452            2 
 1617000   0.98303559   -7.6833701     457.1338   0.02355874  0.023544971            1 
 1618000   0.98116044   -7.7102142    457.00378  0.023537484  0.023538453            3 
 1619000   0.99705067   -7.7499869    456.92765  0.023519026  0.023532119            1 
 1620000     1.003066   -7.7255656    457.76217  0.023547437   0.02352569            1 
 1621000   0.99916718   -7.7386606    457.39115  0.023513837   0.02351924            3 
 1622000   0.98190474   -7.7725227    457.18111  0.023488549  0.023512796            2 
 1623000   0.97609072   -7.7666767    458.06307   0.02351936  0.023506367            2 
 1624000   0.99937962   -7.7565664     458.5895  0.023531891  0.023499975            2 
 1625000    0.9620518   -7.7282034    458.49589   0.02351261  0.023493597            2 
 1626000   0.97079465   -7.7849107    457.68823  0.023456756  0.023487141            2 
 1627000   0.97310391   -7.7598569    459.53365   0.02353686  0.023480684            2 
 1628000    1.0011569   -7.7258539    459.20266   0.02350546  0.023474174            2 
 1629000   0.98751783   -7.7344031    458.89621  0.023475353  0.023467717            3 
 1630000    1.0065533   -7.7542673    458.68321  0.023450062  0.023461244            3 
 1631000    0.9918084   -7.6931766    459.53604  0.023479258  0.023454738            1 
 1632000   0.95739377   -7.7483543    459.09588  0.023442396   0.02344824            7 
 1633000   0.99119698   -7.7540222    458.59858  0.023402663  0.023441782            1 
 1634000   0.98247219   -7.7511599     461.1204  0.023516952  0.023435249            1 
 1635000   0.99386728   -7.7392696     460.9411   0.02349343  0.023428822            2 
 1636000   0.99722973   -7.7342498    461.69357  0.023517399  0.023422383            2 
 1637000   0.96609751   -7.7502429    460.03152  0.023418424  0.023415986            2 
 1638000    1.0086156   -7.7217999     461.8817  0.023498255  0.023409599            3 
 1639000    0.9922596   -7.7559767     462.1261  0.023496344  0.023403275            3 
 1640000   0.99298188   -7.7637635     461.3439  0.023442271   0.02339707            5 
 1641000   0.99483658   -7.7414056    461.25132  0.023423284  0.023390734            3 
 1642000   0.99556957   -7.7418566    462.05219  0.023449664  0.023384373            1 
 1643000   0.98406516   -7.7412968    462.85436  0.023476078  0.023378017            3 
 1644000     1.006138   -7.7799001    460.99125  0.023367358  0.023371697            2 
 1645000   0.98428428    -7.776849    460.85218  0.023346108   0.02336539            2 
 1646000   0.99739752   -7.8024242    460.75455  0.023326982  0.023358882            3 
 1647000   0.99636832   -7.7759089    461.94223  0.023372912  0.023352474            3 
 1648000    1.0003639   -7.7486527     461.9684  0.023360053  0.023346129            7 
 1649000   0.99944975   -7.7623047    462.60064  0.023377837  0.023339782            2 
 1650000   0.98884497   -7.7410748    463.55431  0.023411834   0.02333354            2 
 1651000    0.9974211   -7.7186762    462.81474  0.023360324   0.02332729            1 
 1652000   0.97304796   -7.7657095     462.6192   0.02333632  0.023321025            1 
 1653000    1.0000719   -7.7909834     463.5192  0.023367574  0.023314779            5 
 1654000    1.0003075   -7.7516085    463.18463   0.02333659  0.023308435            7 
 1655000   0.99571862   -7.7704823     463.5483    0.0233408  0.023302173            3 
 1656000   0.98528101   -7.7584206    463.62227  0.023330428  0.023295848            1 
 1657000   0.97168941   -7.7912594    462.78909  0.023274446  0.023289507            3 
 1658000   0.98172009   -7.7267625     463.0689  0.023274472  0.023283176            2 
 1659000   0.98280082   -7.7653909    464.61624  0.023338168  0.023276982            5 
 1660000   0.98111285   -7.7766358    464.78755  0.023332708   0.02327076            1 
 1661000   0.98077484   -7.7639605    466.37967  0.023398539  0.023264558            1 
 1662000   0.98443666   -7.7582014    465.65987  0.023348369  0.023258413            4 
 1663000    1.0008723   -7.7419139    467.41542    0.0234223  0.023252363            2 
 1664000   0.97823043   -7.7218129    466.80511   0.02337766  0.023246267            2 
 1665000   0.98295998   -7.7819741    465.45314  0.023295953  0.023240089            4 
 1666000   0.97999641   -7.7566351    465.06754  0.023262682  0.023233933            3 
 1667000   0.99059202   -7.7715355    465.88795  0.023289739  0.023227856            2 
 1668000   0.99120873   -7.7608625     466.6989  0.023316292  0.023221759            1 
 1669000   0.99174986   -7.7724835    466.42782  0.023288787  0.023215633            3 
 1670000   0.98507533   -7.7571935    465.98654  0.023252821  0.023209504            2 
 1671000   0.96933491   -7.7664039    466.64521  0.023271754  0.023203285            1 
 1672000   0.96448984   -7.7722721    467.43229  0.023297064  0.023197059            2 
 1673000   0.94340919   -7.7555607    468.60192  0.023341399  0.023190817            3 
 1674000   0.98622353   -7.7800052    466.02362  0.023199105  0.023184707            3 
 1675000   0.99413335   -7.7590862    468.61106  0.023313983  0.023178436            2 
 1676000   0.98320832   -7.8262701    466.78394  0.023209225    0.0231722            4 
 1677000   0.95958871   -7.7824678    467.92364  0.023252019  0.023166011            3 
 1678000   0.98215484   -7.7291853     470.1128  0.023346881  0.023159975            2 
 1679000   0.98139673    -7.754564     468.5799  0.023256894  0.023153987            2 
 1680000   0.97220315   -7.7554967    469.29089  0.023278318  0.023147962            4 
 1681000   0.97473582   -7.7668188    469.39662  0.023269712  0.023141928            4 
 1682000   0.96630476   -7.7691051    468.32137  0.023202604  0.023135887            7 
 1683000   0.97163187   -7.7887006    469.69962  0.023257062  0.023129781            3 
 1684000    1.0103204   -7.7401475    470.58572    0.0232871  0.023123735            2 
 1685000   0.99054062   -7.7916051     468.2516  0.023157843   0.02311774            4 
 1686000   0.96823437   -7.7433991    470.64958  0.023262633  0.023111656            2 
 1687000   0.98432251   -7.7534941    470.14979  0.023224155  0.023105669            3 
 1688000   0.97940438   -7.7934832    469.21599  0.023164296  0.023099569            3 
 1689000   0.99746001    -7.776008    469.02872  0.023141342  0.023093502            2 
 1690000   0.99250735   -7.7590036    471.03194  0.023226427  0.023087403            5 
 1691000   0.96718309   -7.7636443    469.53633  0.023138987  0.023081309            2 
 1692000   0.96466676   -7.7914108    470.51214  0.023173372  0.023075219            1 
 1693000   0.99898419   -7.8040149    470.72828  0.023170323  0.023069083            1 
 1694000   0.98332899   -7.7730131    471.11133  0.023175489  0.023062985            2 
 1695000   0.98857479   -7.7725489    471.85126  0.023198194  0.023056828            3 
 1696000    0.9857346   -7.7531374    471.66732  0.023175477  0.023050722            5 
 1697000   0.99475872   -7.8050448    471.14188  0.023136018   0.02304461            7 
 1698000    1.0054699   -7.8014976    470.32702  0.023082402   0.02303847            1 
 1699000   0.97657572   -7.8150209    469.76238  0.023041121  0.023032311            3 
 1700000    0.9826828   -7.8078206    471.12638   0.02309443  0.023026025            2 
 1701000   0.96738869   -7.7500939    472.11463  0.023129268   0.02301989            1 
 1702000   0.96306149   -7.7662636    471.40215  0.023080795  0.023013735            3 
 1703000   0.93797872   -7.7922718    472.90419  0.023140741  0.023007619            3 
 1704000   0.97095741   -7.7682572     472.5847  0.023111536  0.023001501            3 
 1705000    0.9785174   -7.7716852    472.82523  0.023109737  0.022995448            2 
 1706000   0.97699336   -7.7940883     472.5489  0.023082694  0.022989443            2 
 1707000   0.97887326   -7.7999067    472.86208   0.02308446  0.022983372            4 
 1708000    0.9838405   -7.7836085    472.90443  0.023073011  0.022977352            3 
 1709000   0.97507898   -7.7850625    473.57353  0.023092136  0.022971279            2 
 1710000    0.9987695   -7.8085432    474.21482  0.023109884  0.022965279            1 
 1711000   0.97316994   -7.7621564    473.89592  0.023080845  0.022959221            2 
 1712000   0.96964469   -7.7996372    472.87358    0.0230176  0.022953107            1 
 1713000   0.96935159   -7.7580157    474.64683  0.023090428   0.02294696            5 
 1714000   0.97498087   -7.7828816    472.96678  0.022995273  0.022940886            1 
 1715000   0.99666848    -7.767913    474.37804  0.023050439  0.022934787            3 
 1716000   0.96729469   -7.7741974     474.4779  0.023041856  0.022928687            3 
 1717000   0.98150183   -7.7686938    474.93755  0.023050745  0.022922647            3 
 1718000   0.97365375   -7.7420536    475.79904  0.023079115  0.022916588            5 
 1719000   0.99608482   -7.8039639    475.01102  0.023027488  0.022910485            2 
 1720000    1.0055949   -7.8499404     474.3964  0.022984322  0.022904328            1 
 1721000   0.97261179   -7.7956143     475.0953  0.023004808  0.022898227            5 
 1722000   0.98506304   -7.7910119     475.2099  0.022996995  0.022892106            4 
 1723000   0.96249609   -7.7590468    476.43113  0.023042713  0.022885998            2 
 1724000   0.97185264    -7.761812    476.50739  0.023033033  0.022880003            6 
 1725000   0.97230239   -7.7811125    476.24532   0.02300702   0.02287394            1 
 1726000   0.99315168   -7.7813035    477.36545  0.023047772  0.022867864            1 
 1727000   0.98209211   -7.7822842    475.94716  0.022965989  0.022861756            2 
 1728000   0.95869017   -7.7850521    476.59283  0.022983836  0.022855628            1 
 1729000   0.97648447   -7.8144349    475.26208  0.022906404  0.022849504            2 
 1730000   0.97748006    -7.792543    475.13151  0.022886874  0.022843363            3 
 1731000   0.97198675    -7.781777    476.29811  0.022929815  0.022837267            3 
 1732000   0.96914904   -7.8112007     475.2967  0.022868394  0.022831101            3 
 1733000   0.98843122   -7.8007214    476.43288  0.022909833  0.022824961            2 
 1734000   0.97858962   -7.7898261    476.63294  0.022906235  0.022818788            2 
 1735000   0.97894505   -7.8249193    477.06766  0.022913913  0.022812578            1 
 1736000   0.95101895   -7.7460206    477.57777    0.0229252  0.022806456            2 
 1737000    0.9542197   -7.7758988    477.03327  0.022885879  0.022800363            2 
 1738000   0.98968653    -7.763355    476.70695  0.022857065  0.022794156            4 
 1739000   0.95839658   -7.8146247     476.0632  0.022813073  0.022787902            5 
 1740000   0.99128134   -7.7615855    476.78125  0.022834351  0.022781642            2 
 1741000   0.97386702   -7.8115289    477.70371  0.022865389  0.022775412            1 
 1742000   0.95075173   -7.7937064    477.85566  0.022859532  0.022769289            1 
 1743000    1.0084876   -7.8085357    477.64629  0.022836407  0.022763202            2 
 1744000   0.95883338   -7.8174348    477.51975  0.022817266  0.022757034            2 
 1745000   0.98955825   -7.7933252    478.03059  0.022828586   0.02275079            2 
 1746000    0.9778427   -7.8407703    476.20984   0.02272861  0.022744582            2 
 1747000   0.98108963   -7.7928238    478.31844  0.022816182  0.022738304            1 
 1748000   0.95037791   -7.7849869    478.52222  0.022812844  0.022732141            2 
 1749000   0.98736252   -7.7558686    479.13631   0.02282906  0.022726027            3 
 1750000   0.97566288   -7.7998262    478.98091  0.022808615  0.022719842            1 
 1751000   0.96042252   -7.7874492    477.97199  0.022747572  0.022713677            2 
 1752000   0.96273722   -7.7850316    479.04845   0.02278579  0.022707467            3 
 1753000   0.96148511   -7.7485592    479.57668  0.022797903  0.022701319            1 
 1754000    0.9868599   -7.7532666    479.15523  0.022764882  0.022695169            3 
 1755000   0.98126528   -7.8060882    478.78705  0.022734428  0.022688997            2 
 1756000   0.95688615   -7.7598967    480.55028  0.022805157  0.022682864            3 
 1757000   0.97272906   -7.7987511    478.96731  0.022717099  0.022676721            1 
 1758000   0.96963768   -7.7947018    479.15221  0.022712941  0.022670574            3 
 1759000   0.95736654   -7.7547396    480.46008   0.02276199   0.02266443            2 
 1760000   0.95524884   -7.8006241    479.33414  0.022695745  0.022658293            1 
 1761000   0.95832499   -7.7939636    479.39881  0.022685917  0.022652151            3 
 1762000   0.94396291   -7.7862955    480.63918  0.022731705  0.022645914            2 
 1763000    0.9700911   -7.8092413     481.0834  0.022739809  0.022639697            2 
 1764000   0.96795841    -7.772464    481.12179  0.022728732  0.022633485            1 
 1765000   0.97105323   -7.8029635       479.87  0.022656752  0.022627273            2 
 1766000   0.97489354   -7.7890737    479.38614   0.02262109  0.022621016            1 
 1767000   0.96642198   -7.7784421    480.81791  0.022675812  0.022614723            2 
 1768000   0.97756387   -7.7980991     480.1685  0.022632377  0.022608357            2 
 1769000   0.94804611   -7.8504259    479.06425  0.022567564  0.022601977            3 
 1770000   0.97317121   -7.8012517    480.87563  0.022640096  0.022595603            4 
 1771000   0.94287115   -7.7744529    479.78789  0.022576129  0.022589233            1 
 1772000   0.93436178   -7.8081305    480.12938  0.022579448  0.022582829            2 
 1773000   0.96288519   -7.8161631    481.43158  0.022627918  0.022576395            1 
 1774000   0.97460728   -7.8026978    480.56431  0.022574423  0.022570021            4 
 1775000   0.96220306   -7.8057616    481.13749  0.022588615  0.022563669            2 
 1776000   0.97698188   -7.7795098    480.51728  0.022546794  0.022557331            1 
 1777000   0.96863254   -7.8301462    480.73776  0.022544446  0.022550999            1 
 1778000   0.93861725   -7.8038343     481.3382  0.022559908  0.022544702            2 
 1779000   0.96714064   -7.7938429    482.21859  0.022588467  0.022538487            2 
 1780000    0.9702276   -7.7887947    482.24213  0.022576879  0.022532257            2 
 1781000   0.97516451   -7.8162112    482.07444  0.022556356   0.02252604            3 
 1782000   0.95907974   -7.7821187    483.39756  0.022605573  0.022519781            2 
 1783000   0.94126514   -7.7776453    484.07476  0.022624545  0.022513546            2 
 1784000    0.9795781   -7.7615394    483.10612  0.022566616  0.022507305            2 
 1785000   0.96372292    -7.787393    482.82252  0.022540734    0.0225011            2 
 1786000   0.98034406   -7.8205372    482.86892  0.022530278  0.022494725            4 
 1787000   0.96952013   -7.7940469    483.54675   0.02254928  0.022488338            2 
 1788000   0.98579849   -7.8112878    482.83466   0.02250348  0.022481979            1 
 1789000   0.96737914   -7.8292326    482.00869  0.022452427   0.02247548            2 
 1790000   0.95473517   -7.8036315     482.2727  0.022452174  0.022469064            2 
 1791000   0.95591712    -7.824994     481.6954  0.022412777  0.022462654            2 
 1792000   0.98132986   -7.8383022    481.88922  0.022409283  0.022456305            3 
 1793000   0.95819895   -7.8094021    483.15672  0.022455694  0.022449916            3 
 1794000   0.95494308   -7.8424886    482.76713  0.022425081  0.022443473            6 
 1795000   0.96803158    -7.809123    482.45601  0.022398144  0.022437074            2 
 1796000   0.96967612   -7.8085254    483.95962  0.022455439   0.02243067            2 
 1797000   0.97345298   -7.7535174    484.61097  0.022473148  0.022424306            2 
 1798000   0.96286842   -7.7985915    484.15685  0.022439602  0.022417961            2 
 1799000   0.98511704    -7.810773    482.47071  0.022349023  0.022411482            2 
 1800000   0.96469138   -7.8107308    484.50435  0.022430757  0.022404983            2 
 1801000    0.9543874   -7.8012209    484.55008  0.022420418  0.022398506            1 
 1802000   0.99192278   -7.8071627     484.9573  0.022426808  0.022392103            5 
 1803000    0.9557953   -7.8034853    484.58489  0.022397157  0.022385716            1 
 1804000   0.97499605   -7.8031346    483.94575  0.022355218   0.02237934            2 
 1805000   0.96124032   -7.8510121     483.4981  0.022322165  0.022372869            5 
 1806000   0.96481477    -7.837884    483.42802  0.022306572  0.022366328            2 
 1807000    0.9764759   -7.7898879    487.47327  0.022480782    0.0223599            3 
 1808000    0.9554298    -7.769989    484.85506  0.022347671  0.022353502            2 
 1809000   0.96001392   -7.8083963    483.89049  0.022290883   0.02234709            7 
 1810000   0.95885653   -7.8165983    485.49753  0.022352557  0.022340666            1 
 1811000   0.97038743    -7.805267    484.76934  0.022306706  0.022334188            2 
 1812000   0.93353997    -7.805056    484.67335  0.022289981  0.022327715            1 
 1813000   0.97571811   -7.8295806    484.63547  0.022275946  0.022321253            3 
 1814000   0.95934263    -7.817137    485.22145  0.022290585  0.022314698            4 
 1815000   0.94382063   -7.8080654    486.28429  0.022327102  0.022308152            2 
 1816000    0.9454187   -7.7977997     485.5667  0.022281879  0.022301612            3 
 1817000   0.95814441   -7.8046184    484.78761  0.022233884  0.022295007            2 
 1818000   0.98067901    -7.772588       485.75  0.022265768  0.022288512            1 
 1819000   0.96236299   -7.8284069    485.22797  0.022229612  0.022281954            2 
 1820000     0.963006   -7.8536154    484.91687  0.022203153  0.022275362            1 
 1821000   0.96323116   -7.8214829    486.69884  0.022272508  0.022268769            5 
 1822000   0.95146923   -7.7758457    486.58757  0.022255194  0.022262238            5 
 1823000   0.93807686   -7.8048648     485.6769  0.022201358  0.022255775            2 
 1824000   0.95407085   -7.8284827    486.80394  0.022240677  0.022249275            1 
 1825000   0.93278112   -7.8000393    487.63159  0.022266283  0.022242858           10 
 1826000   0.96992111   -7.7928697     488.2074  0.022280367  0.022236452            2 
 1827000   0.95373888   -7.8449256    486.95582  0.022211085  0.022230066            3 
 1828000   0.93567492   -7.8486159    487.56332  0.022226628  0.022223693            3 
 1829000   0.93719744   -7.8371872    488.46534  0.022255574  0.022217223            3 
 1830000    0.9696612    -7.822718    487.59713  0.022203877   0.02221083            2 
 1831000   0.98192429   -7.8200079    488.97937  0.022254659  0.022204378            1 
 1832000   0.96468317    -7.837338    487.84211   0.02219078  0.022197967            1 
 1833000   0.97154222   -7.8080679    489.38303  0.022248729  0.022191585            1 
 1834000   0.97491956   -7.8289584    488.09833  0.022178223  0.022185204            3 
 1835000   0.96509758   -7.8280207     488.1771  0.022169714  0.022178793            3 
 1836000   0.93980128   -7.8205596    489.59537  0.022222012  0.022172448            2 
 1837000   0.93635762   -7.8114265    490.85728   0.02226716  0.022166089            1 
 1838000   0.94223905   -7.7896196    489.00278  0.022170964  0.022159797            3 
 1839000    0.9863918   -7.8290404    489.04709  0.022160916  0.022153497            2 
 1840000   0.96872144   -7.7972229    490.92578  0.022233957  0.022147245            3 
 1841000   0.94028389     -7.80859    490.92999  0.022222071  0.022140973            5 
 1842000   0.93669654   -7.7852204    489.99468  0.022167693  0.022134742            1 
 1843000   0.96346517    -7.820381    489.92524  0.022152525  0.022128439            3 
 1844000   0.96234576   -7.8137188    490.96477  0.022187489  0.022122127            1 
 1845000    0.9621289   -7.8151645    490.54665  0.022156578  0.022115778            1 
 1846000   0.95616644   -7.8204157    490.42477  0.022139074  0.022109397            3 
 1847000   0.97718779   -7.8214421    490.73391  0.022141035   0.02210298            1 
 1848000   0.93124025   -7.8199148    491.09834  0.022145488  0.022096581            2 
 1849000    0.9687924   -7.8571688    489.70739  0.022070822  0.022090059            2 
 1850000   0.95609941   -7.8841443     488.4689  0.022003104  0.022083549            3 
 1851000   0.98161361   -7.8510698    490.13979  0.022066441   0.02207706            1 
 1852000   0.93224415    -7.844758    491.19275  0.022101906  0.022070612            2 
 1853000   0.95506336   -7.8470304    491.38916  0.022098811  0.022064166            2 
 1854000   0.96322797   -7.8489151    489.97306  0.022023241  0.022057712            5 
 1855000   0.95867792   -7.8015471    491.18553  0.022065837  0.022051273            3 
 1856000   0.93876123   -7.8650421    490.68714  0.022031571  0.022044911            2 
 1857000   0.94954239   -7.8162063     492.5406  0.022102881  0.022038545            1 
 1858000   0.95291942   -7.8605943    491.57826  0.022047823  0.022032211            1 
 1859000   0.94529289   -7.8221805    491.92593  0.022051548  0.022025847            2 
 1860000   0.95392288   -7.8637277    492.46332  0.022063769  0.022019501            5 
 1861000   0.96367711   -7.8417042    492.74603  0.022064572   0.02201312            2 
 1862000   0.94917443   -7.8291803    492.37338  0.022036044  0.022006851            4 
 1863000   0.95623696   -7.8737978    491.10088  0.021967297  0.022000485            2 
 1864000   0.95771184   -7.8073265    493.55563  0.022065255  0.021994085            2 
 1865000   0.94052675   -7.8532469    491.67205   0.02196926  0.021987723            3 
 1866000   0.97739074    -7.821869    492.29639  0.021985369   0.02198139            6 
 1867000    0.9461325   -7.8073607     493.1009  0.022009503  0.021975059            3 
 1868000   0.95998291   -7.8341883     493.2569   0.02200468  0.021968734            1 
 1869000   0.95345746    -7.831152     493.5419  0.022005614  0.021962389            2 
 1870000   0.95496284   -7.8292874     492.1325  0.021931038  0.021955965            2 
 1871000   0.94641682   -7.8273398    493.25864  0.021969474  0.021949449            1 
 1872000   0.96001914   -7.8767119    491.91695  0.021898012  0.021942921            2 
 1873000   0.93479225   -7.8665767    493.27585  0.021946781  0.021936434            5 
 1874000   0.96827857   -7.8433841    491.59627  0.021860382   0.02192989            1 
 1875000   0.95465223   -7.8404006    492.81906  0.021903069  0.021923292            1 
 1876000     0.937822   -7.8213927    494.09416  0.021948035  0.021916778       -1e+20 
 1877000   0.94004476   -7.8630695    493.15204  0.021894514  0.021910226            2 
 1878000   0.95273434   -7.8549864    492.63463  0.021859896  0.021903682            2 
 1879000   0.95813949   -7.8807898     492.4166  0.021838593  0.021897125            4 
 1880000   0.93948163   -7.8663358    493.14287   0.02185917  0.021890558            3 
 1881000   0.93716905   -7.8833751    491.72233  0.021784615  0.021883965            2 
 1882000   0.94034889   -7.8784271    492.81428   0.02182139  0.021877396            4 
 1883000   0.94356449   -7.8652892      493.112  0.021822978  0.021870819            4 
 1884000     0.954895   -7.8861577    492.25643   0.02177355  0.021864216            2 
 1885000   0.96172217   -7.8903633    493.98398  0.021838372  0.021857693            2 
 1886000    0.9505982   -7.8963506     493.1642  0.021790571  0.021851142            2 
 1887000   0.94393804   -7.8568588    493.48453   0.02179317  0.021844561            2 
 1888000    0.9466675   -7.8308246    494.42203  0.021823006  0.021838028            8 
 1889000   0.94167552   -7.8485406    494.45616  0.021812959  0.021831563            2 
 1890000   0.96123764   -7.8245155    496.03779  0.021871155  0.021825046            2 
 1891000   0.94684116   -7.8812468    492.68459  0.021711819  0.021818474            2 
 1892000   0.94274624   -7.8447292    495.02746  0.021803535  0.021811876            3 
 1893000   0.95880553   -7.8715727    494.07242  0.021749975  0.021805303            4 
 1894000   0.94318167   -7.8828988    494.57528  0.021760616   0.02179879            2 
 1895000   0.92595718   -7.8758781    494.25056  0.021734853  0.021792211            4 
 1896000   0.95036013   -7.8189119    495.76128  0.021789789  0.021785691            2 
 1897000   0.96342653   -7.8840581    493.19122  0.021665402  0.021779149            4 
 1898000   0.93378626   -7.8556684    495.17224  0.021740966  0.021772561            2 
 1899000   0.94141745   -7.8220434    495.73382  0.021754161  0.021766009            2 
 1900000   0.95999141   -7.8423135    494.69768  0.021697267  0.021759374            1 
 1901000   0.95048462   -7.8635485     494.5574  0.021679704  0.021752713            1 
 1902000   0.93815235   -7.8474415    495.43387  0.021706707  0.021746038            3 
 1903000   0.95758376    -7.850313    495.29287  0.021689125  0.021739401            1 
 1904000   0.95419801   -7.8460054    494.31142  0.021634778  0.021732789            2 
 1905000   0.93495389    -7.893007    495.84812  0.021690644  0.021726126            2 
 1906000   0.91914666   -7.8764165     495.6014  0.021668477  0.021719533            5 
 1907000   0.93611056   -7.8149476    495.41114    0.0216488  0.021712906            1 
 1908000   0.95924336   -7.8563518    497.22734  0.021716777   0.02170633            4 
 1909000   0.95990985   -7.8670163    497.66472  0.021724494  0.021699781            4 
 1910000   0.95426969   -7.8501697    495.78631  0.021631166  0.021693242            3 
 1911000   0.95078468   -7.8514309    496.53083  0.021652312  0.021686606            5 
 1912000   0.93416688   -7.8560245    496.73682  0.021649966      0.02168            3 
 1913000    0.9362616   -7.8567693    495.98798  0.021606028  0.021673359            2 
 1914000    0.9043013   -7.8522614    496.78187  0.021629305  0.021666752            1 
 1915000   0.97786788   -7.8449758    497.17354  0.021635054  0.021660225            3 
 1916000    0.9375529   -7.8454284    496.93345   0.02161332  0.021653728            2 
 1917000   0.93310881   -7.8727456    497.93898  0.021645756  0.021647247            1 
 1918000   0.96105721    -7.849955    498.63536  0.021664727  0.021640723            1 
 1919000   0.95527227   -7.8464164    498.21961  0.021635384  0.021634252            4 
 1920000   0.96488348    -7.836925    497.55161  0.021595122  0.021627801            1 
 1921000    0.9480978   -7.8810226    497.59637  0.021585822  0.021621373            2 
 1922000   0.96690228   -7.8629881    497.95133  0.021589982  0.021614905            1 
 1923000    0.9313282   -7.8632519    498.61131  0.021607354  0.021608406            4 
 1924000   0.94879094   -7.9022687    498.71052  0.021600421  0.021601986            3 
 1925000   0.95387318   -7.8283525    500.28518  0.021657367  0.021595585            5 
 1926000   0.95412494   -7.8327706    500.49909  0.021655378   0.02158922            4 
 1927000   0.91330619   -7.8864573    499.97366  0.021621417  0.021582863            2 
 1928000   0.94973635   -7.8805298    499.80535  0.021602928  0.021576537            2 
 1929000   0.94933919   -7.8657304    499.49984  0.021578531  0.021570251            1 
 1930000   0.93675166   -7.8636628    500.67289  0.021618001  0.021563967            1 
 1931000   0.95758373   -7.8575566    501.43976    0.0216399  0.021557736            3 
 1932000   0.94058201   -7.8357314    502.24688  0.021663513  0.021551471            1 
 1933000   0.93932891   -7.8749929    500.77005  0.021588638   0.02154518            2 
 1934000   0.92390734   -7.8745557    501.35304  0.021602596  0.021538884            2 
 1935000   0.94581714   -7.8379709    500.96463  0.021574704  0.021532589            3 
 1936000   0.94090593   -7.9059653    500.31397  0.021535553  0.021526301            1 
 1937000   0.94162507   -7.8845641    499.91162  0.021507125  0.021519888            4 
 1938000   0.94752481   -7.8918913    500.63559  0.021527158  0.021513488            4 
 1939000   0.92931012     -7.89265    500.05775  0.021491222  0.021507064            2 
 1940000   0.94447148   -7.8994194    501.27211  0.021532307  0.021500621            2 
 1941000   0.95585515   -7.9056663    500.98068  0.021508702  0.021494153            1 
 1942000    0.9232602   -7.9006263    502.04325  0.021543222  0.021487764            3 
 1943000   0.91514801   -7.9284866    500.72924  0.021475778  0.021481372            2 
 1944000    0.9295541   -7.9208214    501.42656  0.021494623  0.021474913            2 
 1945000   0.92621295   -7.8891439    501.81897  0.021500384  0.021468582            3 
 1946000   0.92508955   -7.8730515    503.07766  0.021543236  0.021462279            2 
 1947000   0.92381205   -7.9062388    502.36019  0.021501464  0.021455975            2 
 1948000   0.96533045   -7.8543361     503.8716  0.021555082  0.021449701            1 
 1949000   0.93133545   -7.8443134    503.67338  0.021535547  0.021443404            3 
 1950000   0.95575494    -7.890129    502.11747  0.021458012  0.021437085            2 
 1951000   0.95380818   -7.8650071    503.60982  0.021510756  0.021430811            1 
 1952000   0.95340788   -7.9013249    502.98231  0.021472947  0.021424496            4 
 1953000   0.91532755   -7.8381091    504.54183  0.021528496  0.021418222            3 
 1954000   0.92111265   -7.8993151    502.85691   0.02144562  0.021411967            3 
 1955000   0.93978649   -7.8922019     503.2484  0.021451338  0.021405716            2 
 1956000    0.9267544   -7.9024132    504.03479  0.021473875  0.021399435            2 
 1957000   0.93548047   -7.8792159    504.08046  0.021464847  0.021393109            6 
 1958000   0.94802718   -7.8821251    504.37791  0.021466543  0.021386744            1 
 1959000   0.93413829   -7.9025975    503.38003  0.021413137  0.021380415            1 
 1960000   0.91685991   -7.9207859    503.59919   0.02141153  0.021374082            3 
 1961000   0.94708922   -7.9079936    504.51938  0.021439715  0.021367786            4 
 1962000    0.9193849   -7.8655116    504.81195  0.021441214  0.021361537            2 
 1963000   0.94281367   -7.8914381    504.90466  0.021434227  0.021355272            2 
 1964000   0.92051171   -7.9013937    503.26767  0.021353856  0.021348989            1 
 1965000   0.92685675   -7.9091818     504.3971  0.021390886  0.021342696            2 
 1966000    0.9156145    -7.846595     507.0797  0.021493714  0.021336419            1 
 1967000   0.90711052   -7.9163144    504.21332  0.021361351  0.021330158            2 
 1968000   0.93025561   -7.9112376    504.55597  0.021365006  0.021323911            1 
 1969000   0.93282717   -7.9269349    505.04916  0.021375028  0.021317642            3 
 1970000   0.94102386   -7.8690103    506.30632  0.021417357  0.021311389            1 
 1971000   0.93539553   -7.8504619    505.50821  0.021372747  0.021305133            1 
 1972000   0.91591384   -7.8690212    505.44419  0.021359203  0.021298965            2 
 1973000   0.92052115   -7.8871148    506.61066  0.021397646  0.021292761            3 
 1974000   0.89994839   -7.8825118    506.50492  0.021382342  0.021286609            2 
 1975000   0.94626978   -7.8788133    506.72889  0.021380966  0.021280502            1 
 1976000   0.92055586   -7.8943075    506.91437  0.021377968  0.021274374            1 
 1977000   0.93997752   -7.8857297    507.35633  0.021385783  0.021268196            1 
 1978000   0.93156812   -7.8948196    504.82292  0.021268239  0.021262043            6 
 1979000   0.94047071   -7.8482593    507.19087  0.021357204  0.021255897            1 
 1980000   0.92369791   -7.9218784    507.41358  0.021355791  0.021249732            5 
 1981000   0.95085251     -7.91242    505.61141    0.0212692   0.02124356            2 
 1982000   0.92971441   -7.8886956    508.01299  0.021359443  0.021237355            7 
 1983000   0.93489258   -7.8998239    507.22924  0.021315736  0.021231171            3 
 1984000   0.93723837    -7.892304    506.72243  0.021283704  0.021225044            2 
 1985000   0.95256819   -7.8788236    508.98287  0.021367879  0.021218967            1 
 1986000   0.94729451   -7.8874501    507.53105  0.021296201  0.021212747            3 
 1987000   0.94051551   -7.8482341    507.69352  0.021292297  0.021206591            4 
 1988000   0.91892057   -7.8986359    508.97977  0.021335503  0.021200436            4 
 1989000   0.93893155   -7.8800619    508.01708  0.021284443  0.021194273            4 
 1990000    0.9323486   -7.8903107    507.27029  0.021242474  0.021188127            1 
 1991000   0.94045618   -7.8691229    509.36247  0.021319373  0.021181979            3 
 1992000    0.9386221    -7.881578    508.71711  0.021281673  0.021175846            3 
 1993000    0.9419969   -7.8881088    507.83302  0.021234028  0.021169677            5 
 1994000   0.92765919   -7.8890376    508.93282  0.021269342  0.021163444            4 
 1995000   0.94890574   -7.8985102    507.74893  0.021209228  0.021157205            1 
 1996000   0.93548429   -7.8904203     508.8926  0.021246351  0.021151023            3 
 1997000   0.91528834    -7.857338    508.33404  0.021212403  0.021144885            2 
 1998000   0.93306454   -7.9021361    507.76348   0.02117799  0.021138685            4 
 1999000   0.94529386   -7.9141469    510.15859  0.021267242   0.02113255            3 
 2000000   0.92974641   -7.9169396    509.34209  0.021222587  0.021126408            1 
 2001000   0.92181759   -7.8568356    510.86954  0.021275593  0.021120288            1 
 2002000   0.92894018   -7.8980253    510.76644  0.021260674  0.021114169            4 
 2003000   0.94255738   -7.9032689    511.01976  0.021260599  0.021108048            1 
 2004000   0.92374679    -7.943637    508.44877  0.021143079  0.021101911            2 
 2005000   0.95114997   -7.8978015    510.24804  0.021207317  0.021095731            2 
 2006000   0.94539917   -7.8811194    510.29769  0.021198807  0.021089595            4 
 2007000   0.92987943   -7.8834498    510.94269  0.021215026  0.021083463            2 
 2008000   0.94351815   -7.8582045      510.544  0.021187915   0.02107739            1 
 2009000   0.91333604    -7.868945    510.60565  0.021179926  0.021071248            4 
 2010000   0.91738415   -7.8532488    510.38235  0.021160131  0.021065195            1 
 2011000   0.95575042    -7.880895    511.38331  0.021191087  0.021059095            1 
 2012000   0.93830593   -7.8663435    511.78819  0.021197324   0.02105302            2 
 2013000   0.90429825   -7.9314112    510.26331  0.021123667   0.02104685            4 
 2014000   0.92662104    -7.902152    510.60372  0.021127264  0.021040692            2 
 2015000    0.9398205   -7.9147843    510.89074  0.021128649  0.021034552            6 
 2016000    0.9348737   -7.9085692    512.17554  0.021171277  0.021028456            2 
 2017000   0.95210023    -7.935802    510.83547  0.021105415  0.021022261            4 
 2018000   0.90615328   -7.9360956    511.12135  0.021106762  0.021016172            4 
 2019000   0.92895757   -7.9196257    512.30287  0.021145075  0.021010065            3 
 2020000   0.93766523   -7.8812608    512.17996  0.021129536  0.021003989            3 
 2021000   0.93293559   -7.8868707    513.53455  0.021174936  0.020997972            4 
 2022000   0.91944705   -7.8649141    514.72329  0.021213456  0.020991958            2 
 2023000   0.93363072   -7.8729789    513.73406   0.02116222  0.020986005            3 
 2024000   0.92337147   -7.9038178    511.97265  0.021079243  0.020979965            6 
 2025000   0.92163372   -7.9399798    511.90527   0.02106606  0.020973934            4 
 2026000   0.91117801   -7.8985059    512.06321  0.021062159   0.02096787            4 
 2027000   0.92363104   -7.8822309    512.92621  0.021087247   0.02096179            3 
 2028000    0.9321716   -7.9255332     512.0504  0.021040861  0.020955718            2 
 2029000   0.95067216   -7.8990737    513.08489  0.021072979  0.020949621            2 
 2030000   0.90827925   -7.9145055    512.31986  0.021031193  0.020943509            2 
 2031000   0.93021586   -7.9210922    511.26296  0.020977473  0.020937331            1 
 2032000   0.91390768   -7.9227723     513.5084  0.021059236  0.020931167            2 
 2033000   0.91706674   -7.9191182    513.74907  0.021058742  0.020925111            3 
 2034000   0.92987785   -7.9266427    512.69934  0.021005381  0.020918993            1 
 2035000   0.93412408   -7.9398804    513.17923  0.021014711  0.020912884            2 
 2036000   0.91040825   -7.9116782    513.56393  0.021020135  0.020906788            9 
 2037000   0.92334264   -7.9204548    513.06017  0.020989207  0.020900707            2 
 2038000   0.90708382   -7.9263534    513.78135  0.021008397  0.020894648            1 
 2039000   0.91818451    -7.948111     513.0453  0.020968011  0.020888527            2 
 2040000   0.93637809   -7.9280999    513.86615  0.020991264  0.020882391            3 
 2041000   0.92294906   -7.8992548    513.87392  0.020981297  0.020876271            1 
 2042000     0.920911   -7.9174821    513.69342  0.020963656  0.020870146            3 
 2043000   0.90836732   -7.8867714    515.63116  0.021032434  0.020864109            4 
 2044000   0.92238635   -7.8738343    515.46187  0.021015242  0.020858074            1 
 2045000   0.92894985   -7.9438008    513.65066   0.02093116  0.020851956            3 
 2046000    0.9391906    -7.947052    514.06626  0.020937857  0.020845828            2 
 2047000   0.92580182   -7.9197486    514.06358  0.020927519  0.020839715            3 
 2048000   0.94424345   -7.9438823     512.8273  0.020866996  0.020833547            1 
 2049000   0.92582766   -7.9381351    514.56258  0.020927386   0.02082741            5 
 2050000   0.92831986   -7.9414424    513.88351  0.020889574  0.020821282            3 
 2051000   0.90658003   -7.9097134    514.95252  0.020922823  0.020815124            4 
 2052000   0.93929046   -7.9509451    514.50761  0.020894558  0.020809072            2 
 2053000   0.92916519   -7.9462181    513.72946  0.020852795  0.020802886            2 
 2054000    0.9257597   -7.9575676    514.89161  0.020889793  0.020796717            2 
 2055000   0.93571479   -7.9389602    516.17219  0.020931557  0.020790534            1 
 2056000   0.93018414   -7.9322256    515.35939  0.020888432  0.020784417            2 
 2057000   0.93351976   -7.9398693    515.01135  0.020864177  0.020778273            1 
 2058000    0.9207748   -7.9521066    514.92822  0.020850673  0.020772079            4 
 2059000   0.90374388   -7.9633337    514.28472  0.020814502  0.020765908            2 
 2060000   0.94262306   -7.9437957    516.01349  0.020874332  0.020759729            2 
 2061000   0.93678645    -7.933705    515.47561  0.020842456  0.020753535            2 
 2062000   0.92691799   -7.9629111    514.08906  0.020776312    0.0207473            2 
 2063000   0.94358049    -7.929913    516.05113  0.020845497  0.020741156            5 
 2064000   0.93711033   -7.9280308    515.45674  0.020811399  0.020735031            2 
 2065000   0.89773233   -7.9337643    516.14435   0.02082907  0.020728853            4 
 2066000   0.90882122   -7.9233108    516.29603  0.020825106  0.020722664            2 
 2067000   0.91329497   -7.9417487    516.67342  0.020830246  0.020716491            2 
 2068000   0.92491326   -7.9715071    516.44088  0.020810803  0.020710326            2 
 2069000   0.90526888   -7.9615042    516.39198  0.020798775  0.020704198            4 
 2070000   0.91827106   -7.9308758     516.5718  0.020795966  0.020698034            2 
 2071000   0.92266419   -7.9290019    517.83509  0.020836757  0.020691878            1 
 2072000   0.91182874   -7.9383831    514.81967  0.020705424  0.020685665            1 
 2073000   0.92153287   -7.9458582    516.14228  0.020748604  0.020679511            3 
 2074000   0.91877177   -7.9617735    517.04254  0.020774773  0.020673314            4 
 2075000   0.91120872   -7.9204835    516.94948  0.020761023  0.020667176            1 
 2076000    0.9182171   -7.9284276    517.94213  0.020790869  0.020661046            4 
 2077000   0.91580893    -7.946863    516.77645   0.02073409  0.020654802            2 
 2078000   0.89086055   -7.9372902    516.55442  0.020715208  0.020648665            5 
 2079000    0.9277077   -7.9647367    516.69294  0.020710796  0.020642477            1 
 2080000   0.92441376   -7.9837989    516.50617  0.020693356  0.020636331            2 
 2081000    0.9128864   -7.9618874    516.85857  0.020697524  0.020630099            2 
 2082000   0.91512372   -7.9502166    518.00408  0.020733433  0.020623957            2 
 2083000   0.90752066   -7.9276609    518.16813  0.020730042  0.020617823            1 
 2084000   0.93682038   -7.9312806    517.93246  0.020710671  0.020611688            2 
 2085000   0.92568708   -7.9653774    518.86458  0.020737993  0.020605571            3 
 2086000   0.94422498   -7.9767139     518.5793  0.020716655   0.02059947            2 
 2087000   0.90794101   -7.9236065    519.20013  0.020731518  0.020593404            1 
 2088000   0.92429845   -7.9714019    518.25126  0.020683719  0.020587277            3 
 2089000   0.91108072   -7.9529904    518.41125    0.0206802  0.020581156            3 
 2090000   0.90988166   -7.9512934    519.32816  0.020706864  0.020575062            3 
 2091000    0.9124898   -7.9383161    519.94508  0.020721548  0.020569051            5 
 2092000   0.93872103   -7.9274668    521.40008  0.020769602  0.020563069            2 
 2093000   0.91767115   -7.9200138    518.43592   0.02064166  0.020557008            2 
 2094000   0.92385651   -7.9480655    520.43373  0.020711307  0.020550962            5 
 2095000   0.93231019   -7.9566678    520.10742  0.020688442  0.020544867            3 
 2096000   0.93230961   -7.9470465    518.84887  0.020628533  0.020538788            2 
 2097000   0.90393533   -7.9744646    519.77883  0.020655652  0.020532699            3 
 2098000   0.92971519   -7.9323665    519.85883  0.020648985  0.020526649            2 
 2099000   0.92117924   -7.9507904    520.61542  0.020669185   0.02052055            3 
 2100000   0.93049901   -7.9344481    520.60124  0.020658779  0.020514411            1 
 2101000   0.92945302   -7.9306357    519.93578  0.020622552  0.020508278            3 
 2102000   0.92494218   -7.8990269    520.43939  0.020632706  0.020502181            1 
 2103000   0.92833904   -7.9264471    521.01211   0.02064559  0.020496215            3 
 2104000    0.9234934   -7.9399528    521.47079  0.020653944  0.020490248            3 
 2105000   0.89739371   -7.9433324    519.77963  0.020577182  0.020484211            2 
 2106000   0.92017868   -7.9109105    520.75747  0.020606104  0.020478157            4 
 2107000   0.92185351   -7.9332393    520.41001  0.020582582  0.020472105            3 
 2108000   0.91824659   -7.8819363    522.72059   0.02066416  0.020466081            2 
 2109000   0.94619121   -7.9191616    522.10795  0.020630155  0.020460121            3 
 2110000   0.90925255   -7.9351822    523.22886  0.020664647  0.020454186            5 
 2111000   0.90020845    -7.937002     521.7217  0.020595362  0.020448174            4 
 2112000   0.92023086    -7.957176     522.4241  0.020613325  0.020442164            2 
 2113000   0.90913607   -7.9679581    521.25029  0.020557276  0.020436141            1 
 2114000   0.92464581   -7.9487223     521.4729  0.020556327  0.020430095            2 
 2115000   0.90360806   -7.9521518     521.7622  0.020558006  0.020424063            2 
 2116000   0.91719535   -7.9775245     521.9057  0.020553942  0.020418004            2 
 2117000   0.91001413   -7.9672331    521.98794   0.02054747   0.02041191            2 
 2118000    0.9241335   -7.9646524    521.78225  0.020529676  0.020405773            3 
 2119000   0.92054384    -7.931545    521.54471  0.020510646  0.020399675            4 
 2120000   0.91826886   -7.9592499    522.55288  0.020540601  0.020393603            1 
 2121000   0.90817142   -7.9603961    522.38465  0.020524307  0.020387507            4 
 2122000   0.90212016   -7.9432322    522.06018  0.020501892  0.020381443            2 
 2123000   0.90271645   -7.9488257    522.14821  0.020495691  0.020375378            3 
 2124000   0.92290285   -7.9633802    520.97547   0.02044003  0.020369239            3 
 2125000   0.89428087   -7.9982246    520.78314  0.020422868  0.020363047            1 
 2126000   0.92829969   -7.9672929     520.9628  0.020420304  0.020356832            2 
 2127000   0.90390058    -7.945232    522.58582  0.020474292  0.020350682            2 
 2128000   0.92849152   -7.9399358    521.41947  0.020418996  0.020344548            4 
 2129000   0.94280281   -7.9692318    521.59255  0.020416179  0.020338405            2 
 2130000    0.8953498   -7.9877531    522.40834  0.020438511  0.020332255            8 
 2131000   0.90631282    -7.986728    522.31749  0.020425367  0.020326115            3 
 2132000     0.914739   -7.9555526    522.19125  0.020410853  0.020319975            3 
 2133000   0.91689055   -7.9149964    522.77616  0.020424135  0.020313875            2 
 2134000   0.88957768   -7.9462428    523.24069  0.020432704  0.020307791            3 
 2135000   0.91811948   -7.9411087    522.28791  0.020385945  0.020301741            1 
 2136000   0.91530947   -7.9706953     522.0264  0.020366198  0.020295614            3 
 2137000   0.90868453   -7.9699211    522.84346   0.02038853  0.020289498            4 
 2138000    0.9049156   -7.9835034    522.62022  0.020370293  0.020283387            2 
 2139000   0.91954524   -7.9380233    522.47975  0.020355296  0.020277258            1 
 2140000   0.93194504   -7.9842412    523.54372  0.020387216  0.020271093            2 
 2141000   0.89853272   -7.9738661    522.05024  0.020319564  0.020264859            8 
 2142000   0.89873576   -7.9245788    523.52362  0.020367399  0.020258717            2 
 2143000   0.88117069   -7.9585096    522.19146  0.020306092  0.020252566            2 
 2144000     0.919171   -7.9658124    522.78511  0.020319695  0.020246343            3 
 2145000   0.90550854   -7.9798094    522.87881  0.020313862   0.02024011            2 
 2146000   0.90460568    -7.942289     523.2861  0.020320212  0.020233914            5 
 2147000   0.93175708   -7.9624065    522.56777  0.020282867  0.020227681            3 
 2148000    0.8994828   -7.9980065    522.37938  0.020266115  0.020221449            5 
 2149000    0.8912158   -7.9572122    523.08657  0.020284108  0.020215195            3 
 2150000   0.90419153   -7.9678313    523.38889  0.020286391  0.020208931            2 
 2151000   0.90354481   -7.9748871    523.06816  0.020264534  0.020202735            4 
 2152000   0.90887507   -7.9843308    524.01177  0.020291658  0.020196565            2 
 2153000   0.94272959   -7.9529325     524.0153  0.020282369  0.020190365            3 
 2154000   0.89769132   -7.9762405    522.71711  0.020222729  0.020184171            4 
 2155000    0.9036274   -7.9727209    523.58776  0.020247013   0.02017796            4 
 2156000   0.91100272   -8.0013557    523.86489  0.020248334  0.020171707            3 
 2157000   0.91358001   -7.9921149    523.90569  0.020240523  0.020165482            2 
 2158000   0.91794583   -8.0104544    522.76988  0.020187283  0.020159252            3 
 2159000    0.9122363   -7.9852792    524.85985  0.020258601  0.020153001            1 
 2160000   0.89714645   -8.0120076     523.3005  0.020189062  0.020146798            3 
 2161000   0.90999342   -7.9626771    522.25038  0.020139225  0.020140631            1 
 2162000   0.90236898   -7.9503501    525.53824  0.020256639  0.020134405            1 
 2163000   0.91089455    -7.981629    524.48262  0.020206604  0.020128256            1 
 2164000   0.89071187    -7.958655    525.63574  0.020241672  0.020122077            3 
 2165000   0.90433133   -7.9422439    525.14504  0.020213435  0.020115922            2 
 2166000    0.9166962   -7.9333135    525.84894  0.020231184  0.020109779            2 
 2167000   0.90043895   -7.9609807    526.19386  0.020235112  0.020103658            2 
 2168000   0.89556793    -7.969269     523.7602  0.020132234  0.020097523            1 
 2169000   0.90131147   -8.0049613    525.78548  0.020200764  0.020091381            4 
 2170000   0.88601615   -7.9663194    524.53297  0.020143355  0.020085156            3 
 2171000   0.92015281   -8.0015216    524.37503  0.020128014  0.020078947            3 
 2172000    0.9235888   -7.9779969    524.49125  0.020123206  0.020072722            1 
 2173000   0.93168716   -7.9813434    526.29754  0.020183216  0.020066526            2 
 2174000   0.88652657   -7.9587389    526.80131  0.020193243  0.020060398            2 
 2175000   0.90322864   -7.9740547    525.32313  0.020127323   0.02005428            2 
 2176000   0.91663081   -7.9571459    526.72147  0.020171625  0.020048178            2 
 2177000   0.91873567   -8.0107659    525.17128  0.020103019  0.020042001            1 
 2178000    0.9074555   -8.0068145    525.45444  0.020104623  0.020035816            1 
 2179000   0.90575389   -7.9913513    524.65746  0.020064917    0.0200296            4 
 2180000   0.90417732   -7.9770479     526.9342  0.020142745  0.020023437            2 
 2181000   0.89661001   -7.9896483    525.35819  0.020073292  0.020017291            3 
 2182000   0.90959227   -7.9317755    526.89086  0.020122627  0.020011163            5 
 2183000   0.89754087   -7.9971234    525.83366  0.020073052  0.020005038            1 
 2184000   0.91123491   -7.9547573    528.22073  0.020154942   0.01999884            2 
 2185000    0.9322422   -7.9400732    526.76071  0.020090035  0.019992715            1 
 2186000   0.90716542   -7.9605557    527.01429  0.020090511  0.019986624            2 
 2187000   0.90037026   -7.9357935    526.37155  0.020056834  0.019980502            2 
 2188000   0.89878211   -7.9850203    525.75917  0.020024344  0.019974361            2 
 2189000   0.89488609   -7.9886659    526.22021  0.020032747  0.019968175            2 
 2190000    0.9129981   -7.9564408    527.06147  0.020055612  0.019962029            5 
 2191000   0.90778435   -7.9388057    528.29185  0.020093254  0.019955904            4 
 2192000    0.9106164   -7.9780351    527.81429  0.020065932  0.019949767            3 
 2193000   0.89873428   -7.9652299    527.01412  0.020026377  0.019943685            2 
 2194000   0.91035852   -7.9645895    526.65376  0.020003561  0.019937548            3 
 2195000   0.89558649   -7.9703329    527.32789  0.020020041  0.019931413            4 
 2196000   0.90242411   -7.9388829    528.72616  0.020063986  0.019925307            2 
 2197000   0.88137752   -7.9797318    527.56983  0.020010993  0.019919179            2 
 2198000   0.92245903   -7.9630389    527.66795  0.020005609  0.019913013            1 
 2199000   0.91337362   -7.9784149    527.29659  0.019982439  0.019906818            5 
 2200000   0.91366742    -7.970892    527.54139  0.019982628  0.019900635            1 
 2201000   0.88963188   -7.9734794    527.37823  0.019967372  0.019894398            2 
 2202000   0.89109766   -7.9948051    527.96453  0.019980492  0.019888176            2 
 2203000   0.90293264   -7.9694591    527.75428  0.019963469  0.019881988            2 
 2204000   0.88927191   -7.9991825    528.77976  0.019993185  0.019875755            2 
 2205000   0.91190564   -7.9840842    527.14102  0.019922185  0.019869547            2 
 2206000   0.90736749   -7.9889033    527.00918  0.019908174  0.019863315            2 
 2207000   0.90174915   -7.9453304    529.62028  0.019997745  0.019857064            2 
 2208000   0.90621941   -7.9872479    526.69825  0.019878406  0.019850888            2 
 2209000   0.90096357   -7.9960068    527.09297  0.019884298  0.019844678            2 
 2210000   0.90174412   -7.9497791     528.3158   0.01992141  0.019838456            1 
 2211000   0.89184212   -7.9699451    527.81957  0.019893697  0.019832249            2 
 2212000   0.89189596   -7.9843915     527.8796  0.019886965  0.019826055            4 
 2213000   0.90567602    -7.979583    528.30404  0.019893961  0.019819808            5 
 2214000   0.90907897   -7.9892563    527.30573    0.0198474  0.019813566            4 
 2215000    0.8988875   -8.0109735    526.78392  0.019818808  0.019807331            1 
 2216000   0.88926645   -7.9796808    528.53948  0.019875883  0.019801086            1 
 2217000   0.87968289    -7.980073    527.59969  0.019831593  0.019794867            2 
 2218000   0.89895536    -7.988983    528.43853  0.019854168  0.019788594            3 
 2219000   0.87396941   -8.0108651    527.28409  0.019801866  0.019782281            2 
 2220000   0.90576719   -7.9958326    527.26586  0.019792262  0.019775995            2 
 2221000   0.90016155   -8.0078819    528.30325  0.019822274  0.019769696            4 
 2222000   0.93114986   -7.9396174    530.54136  0.019897291  0.019763441            2 
 2223000    0.9113222   -8.0041172     528.5189  0.019812525  0.019757206            2 
 2224000   0.90650376   -7.9627408    528.96899  0.019820481  0.019751024            3 
 2225000   0.87852283   -7.9707198    528.97979  0.019811977  0.019744832            1 
 2226000   0.87707919   -7.9575076    530.69969  0.019867463  0.019738601            4 
 2227000   0.88523027   -7.9850035    528.39449  0.019772283  0.019732403            2 
 2228000   0.91018481   -8.0058545    528.05798  0.019750822   0.01972614            4 
 2229000   0.90356838   -8.0333237    528.06655  0.019742282  0.019719823           10 
 2230000   0.89406768   -8.0013222    527.62834  0.019717053  0.019713449            4 
 2231000   0.89732159    -7.997144    528.55298  0.019742753  0.019707138            1 
 2232000   0.89759146    -8.005832     528.7904  0.019742772  0.019700855            4 
 2233000    0.8860623   -7.9978122     528.7183   0.01973124  0.019694551            9 
 2234000   0.88385099   -8.0128528     529.1589  0.019738843   0.01968825            3 
 2235000   0.89181411   -7.9639821    528.89211  0.019720064   0.01968199            2 
 2236000   0.90086419   -8.0058863    528.92357  0.019712417  0.019675691            3 
 2237000   0.88989577   -8.0005502    529.36086  0.019719895  0.019669354            2 
 2238000   0.90317182   -7.9962973    529.59776  0.019719905  0.019663039            3 
 2239000   0.90493323   -8.0183794    529.63356   0.01971243  0.019656708            5 
 2240000   0.89844508   -8.0158686    528.98627  0.019679549  0.019650379            1 
 2241000   0.89808058   -8.0025122    530.01501  0.019709022  0.019644092            2 
 2242000   0.88971965   -7.9803897    529.55202  0.019683022  0.019637849            1 
 2243000   0.87192205   -7.9558958     530.3134  0.019702534  0.019631634            3 
 2244000   0.90059549   -7.9901786     529.6886  0.019670551  0.019625364            5 
 2245000    0.8801696   -7.9728871     529.1787  0.019642862  0.019619108            2 
 2246000   0.89161982   -8.0061798    529.72771  0.019654486  0.019612867            2 
 2247000   0.88378538   -8.0108025    528.81824   0.01961201  0.019606647            2 
 2248000   0.90412304   -8.0081473    529.80228  0.019639764  0.019600362            3 
 2249000   0.89118334   -8.0256832    530.47111  0.019655814   0.01959408            2 
 2250000   0.88908823   -8.0431221    529.21037  0.019600384   0.01958782            2 
 2251000   0.89920195    -8.037262    530.91867  0.019654919  0.019581532            2 
 2252000   0.90859625   -8.0247631    530.60541  0.019634599  0.019575219            1 
 2253000   0.90751381   -8.0001039     530.1185  0.019607875  0.019568932            2 
 2254000   0.89210543   -8.0119264    530.77109  0.019623302  0.019562659            4 
 2255000   0.88661881   -7.9862389    531.36283  0.019636468  0.019556358            3 
 2256000   0.89136434   -8.0444331    530.11618  0.019581715  0.019550075            1 
 2257000   0.91424897   -8.0479117    530.89345  0.019601737  0.019543742            2 
 2258000   0.88761215   -7.9781567    530.28418  0.019570571   0.01953745            2 
 2259000    0.8982736   -8.0238771    529.61631   0.01953727  0.019531161            4 
 2260000   0.89146891   -7.9981872    531.08544  0.019582796  0.019524876            5 
 2261000   0.86316682   -8.0308455    531.69684  0.019596669  0.019518607            4 
 2262000   0.88815768   -8.0211316    531.38278  0.019576436  0.019512317            2 
 2263000   0.88539237   -8.0060839    533.34778  0.019640145  0.019506067            2 
 2264000   0.89796223   -7.9919651    532.34095  0.019594411  0.019499844            1 
 2265000   0.87998706   -8.0040337    531.04092  0.019537929  0.019493641            2 
 2266000   0.87485342   -8.0046702    531.32109  0.019539611   0.01948744            5 
 2267000   0.89218823   -8.0039213    531.31625  0.019530813  0.019481237            3 
 2268000   0.88725806   -7.9680019    533.17553  0.019590518  0.019475047            2 
 2269000    0.8797403   -7.9940241    533.18127  0.019582095  0.019468848            1 
 2270000    0.8791364   -7.9914817    533.44951  0.019583315  0.019462634            2 
 2271000   0.89476427   -8.0064656    533.17519  0.019564626    0.0194565            3 
 2272000   0.87681348   -8.0240179    533.38831  0.019563832  0.019450313            3 
 2273000   0.88697598   -8.0671257    531.68901  0.019492925  0.019444095            1 
 2274000   0.89352315   -8.0024635    531.97423  0.019494805  0.019437839            2 
 2275000   0.89708413   -8.0208119    532.57648  0.019508296  0.019431642            7 
 2276000   0.87485116   -7.9996205    532.44778  0.019495012  0.019425434            4 
 2277000   0.89484675   -8.0221396    532.34651  0.019482745  0.019419204            3 
 2278000    0.8849018   -8.0242611    531.54397  0.019444834   0.01941298            1 
 2279000   0.89429351   -8.0071463    533.03624  0.019490867  0.019406806            4 
 2280000   0.86966014   -8.0091295     534.1459  0.019522877  0.019400684            1 
 2281000   0.90563573   -8.0140523    533.47632  0.019489855  0.019394516            3 
 2282000   0.88548836    -8.034663    533.40485  0.019478705  0.019388337            1 
 2283000   0.86746828   -8.0439083    532.65183  0.019442686  0.019382134            4 
 2284000   0.88682845    -8.022525    533.24967  0.019455986  0.019375934            2 
 2285000   0.88417013    -8.015822    533.91385  0.019471694  0.019369743            2 
 2286000   0.89113413   -7.9978356    533.94058  0.019464151  0.019363541            2 
 2287000   0.89469556   -8.0160395    533.65294  0.019445159  0.019357337            2 
 2288000   0.90168597   -8.0189755     533.8796  0.019444916  0.019351173            3 
 2289000   0.88925992   -8.0501146    533.11696  0.019408656  0.019344981            3 
 2290000   0.89882674    -8.034204     533.8792  0.019427918  0.019338735            3 
 2291000   0.89217001   -8.0344164    533.92148  0.019420976  0.019332515            2 
 2292000   0.89850598   -8.0271032    534.20423  0.019422783   0.01932628            2 
 2293000   0.88370682   -8.0256384    533.92253  0.019404075  0.019320063            2 
 2294000   0.86604243   -8.0214638     533.3734  0.019375668  0.019313841            2 
 2295000   0.88307094   -8.0359992    534.04965  0.019391781  0.019307605            4 
 2296000   0.88754362   -8.0017478    534.59504   0.01940313  0.019301353            3 
 2297000   0.88183926   -8.0340701    532.59542  0.019322138  0.019295109            1 
 2298000   0.87652648   -8.0406841    533.20386  0.019335794  0.019288838            6 
 2299000   0.87708906   -8.0511788     533.6134  0.019342228  0.019282595            1 
 2300000   0.87999492   -8.0623479    532.94633   0.01930965  0.019276347            3 
 2301000   0.88601092   -8.0661637    534.46465  0.019356246  0.019270114            2 
 2302000   0.90169516   -8.0129484    534.87169  0.019362572  0.019263927            3 
 2303000   0.89595489   -8.0431868    535.56169  0.019379132  0.019257755            6 
 2304000   0.88761729   -8.0413264      535.037  0.019351743  0.019251593            2 
 2305000   0.88856671   -8.0467576    535.09299  0.019345372  0.019245369            1 
 2306000   0.87909214   -8.0524994    535.09924  0.019337209  0.019239181            3 
 2307000   0.87044711   -8.0633141    534.98649  0.019324754  0.019232969            5 
 2308000   0.87127556   -8.0091814    534.23191  0.019289136  0.019226819            3 
 2309000   0.88276308    -8.057617    535.07664  0.019311269  0.019220656            2 
 2310000   0.85737134   -8.0535891    534.22025  0.019272015  0.019214483            2 
 2311000   0.88102199   -8.0457626    535.18592  0.019298497  0.019208317            2 
 2312000   0.89632258   -8.0381303    534.31691  0.019258828  0.019202152            1 
 2313000   0.90109365   -8.0213678    534.90982  0.019271863  0.019195998            2 
 2314000   0.87098591   -8.0560529    535.20582  0.019274194  0.019189842            2 
 2315000   0.88023121   -8.0591114    536.53317  0.019313649  0.019183706            3 
 2316000   0.90506049   -8.0052975    536.92827  0.019319526  0.019177608            2 
 2317000   0.88760189   -8.0208198    536.33334  0.019289791  0.019171545            3 
 2318000   0.87765974   -8.0589245    535.15959  0.019239272  0.019165452            5 
 2319000   0.87792286   -8.0599453    536.07504  0.019263872  0.019159341            1 
 2320000   0.90512074   -8.0513254    535.91564  0.019249843  0.019153233            4 
 2321000   0.87274631   -8.0232881    537.59021  0.019301674  0.019147174            1 
 2322000    0.8584185   -8.0689913    535.86846   0.01923157  0.019141146            4 
 2323000   0.88177993    -8.059989    535.05105  0.019193968  0.019135048            1 
 2324000   0.86756481   -8.0721015    535.50929   0.01920214  0.019128962            2 
 2325000   0.89056515   -8.0492437    536.13764  0.019216403   0.01912285            3 
 2326000   0.86502161   -8.0645881    535.41429  0.019182226  0.019116749            4 
 2327000   0.87150519   -8.0461618     536.9367  0.019228502  0.019110631            2 
 2328000   0.86907777   -8.0063949    537.46624  0.019239198  0.019104516            2 
 2329000   0.87764831   -8.0224402    537.64724  0.019237414  0.019098408            1 
 2330000   0.87657005   -7.9810532    538.12869  0.019246377  0.019092384            1 
 2331000   0.89626738   -8.0294044    538.22047  0.019241401  0.019086369            1 
 2332000   0.86790983   -8.0573697    536.78884  0.019181991  0.019080336            1 
 2333000   0.87117882   -8.0427307     536.2453  0.019154354  0.019074248            3 
 2334000   0.87230517   -8.0359906    536.44864  0.019153408  0.019068147            2 
 2335000   0.87565152   -8.0520627    536.74364  0.019155733  0.019062027            1 
 2336000   0.87023737   -8.0547843    538.43694  0.019207939   0.01905593            4 
 2337000   0.88035384   -8.0406003    537.19277  0.019155355  0.019049836            1 
 2338000   0.86481866   -8.0566463     536.5522   0.01912433  0.019043756            2 
 2339000   0.87387277   -8.0736051    538.22294  0.019175678  0.019037673            4 
 2340000   0.89120924   -8.0581008     537.9515  0.019157817   0.01903156            2 
 2341000   0.89084276   -8.0455409    539.78506  0.019214903  0.019025506            4 
 2342000   0.86776413   -8.0409507    539.87697  0.019209969  0.019019509            2 
 2343000   0.87143073   -8.0313767     539.4008  0.019184834  0.019013478            2 
 2344000    0.8755166   -8.0687391    537.97209  0.019125856   0.01900742            2 
 2345000   0.86392372   -8.0299275    538.72408  0.019144424  0.019001371            3 
 2346000    0.8723488   -8.0382374    538.94975  0.019144279  0.018995329            2 
 2347000   0.86235736   -8.0343866    539.28489  0.019148022  0.018989246            1 
 2348000   0.87589037   -8.0796058    538.52303  0.019112827  0.018983139            2 
 2349000   0.86912495   -8.0484896    538.32166  0.019097547  0.018977016            4 
 2350000   0.89261554   -8.0191816    538.85743   0.01910842  0.018970939            2 
 2351000   0.86484304   -8.0320634    541.05307  0.019178118   0.01896489            2 
 2352000   0.87427805   -8.0601781    538.24618  0.019070514  0.018958861            3 
 2353000   0.87050126   -8.0401899    540.31477   0.01913567  0.018952829            2 
 2354000   0.87407577   -8.0647178    539.78529  0.019108797  0.018946761            1 
 2355000   0.86623591   -8.0618146    537.54202  0.019021303  0.018940695            3 
 2356000   0.87041137   -8.0553365    539.06775  0.019067196  0.018934568            2 
 2357000   0.86403374   -8.0345396    539.40909  0.019071174  0.018928456            3 
 2358000   0.88409807    -8.048875    538.36005  0.019026012  0.018922394            3 
 2359000   0.87213684   -8.0603925    539.42053  0.019055409  0.018916301            2 
 2360000   0.86043512   -8.0144582    540.08602  0.019070834  0.018910208            2 
 2361000   0.86610001   -8.0806022      537.808  0.018982352  0.018904062            1 
 2362000   0.89337711   -8.0791179    538.28334  0.018991086  0.018897901            5 
 2363000   0.88012453   -8.0402181    538.15723  0.018978602   0.01889176            2 
 2364000   0.85962016   -8.0498373    540.22137  0.019043337  0.018885631            4 
 2365000   0.88214461   -8.0771768    538.24596  0.018965679   0.01887951            6 
 2366000   0.86729171   -8.0673981    537.97522  0.018948127  0.018873406            5 
 2367000   0.88572253   -8.0237499    539.76716   0.01900321  0.018867356            2 
 2368000   0.87214577   -8.0745674    538.44418  0.018948627  0.018861242            3 
 2369000   0.89018487   -8.0595054    540.73074  0.019021062  0.018855112            4 
 2370000   0.86639656   -8.0390925     539.9917   0.01898705  0.018848994            2 
 2371000   0.87044401   -8.0820364    538.58303  0.018929532  0.018842887            3 
 2372000   0.86514554   -8.0702888    539.18007  0.018942526  0.018836791            3 
 2373000   0.86807837    -8.072358     539.1592  0.018933811   0.01883071            4 
 2374000   0.87071096   -8.0654625    538.37714  0.018898383  0.018824572            1 
 2375000   0.87312604    -8.035986    539.56803  0.018932212   0.01881844            8 
 2376000   0.87712566   -8.0856764    539.49315  0.018921617  0.018812328            4 
 2377000    0.8889663   -8.0614916    539.77162  0.018923419  0.018806239            2 
 2378000    0.8720196   -8.0585706    539.73473  0.018914169  0.018800154            2 
 2379000   0.86672742   -8.0605736    541.02596  0.018951449  0.018794075            3 
 2380000   0.87294464   -8.0571542    541.48518  0.018959565   0.01878798            3 
 2381000   0.88505169    -8.099572    540.35528  0.018912057  0.018781901            3 
 2382000   0.86788246   -8.0486447     540.8988  0.018923132  0.018775859            3 
 2383000   0.87268034   -8.0492078    540.04004   0.01888516  0.018769813            3 
 2384000   0.88651844   -8.0520864    540.62171  0.018897571  0.018763782            2 
 2385000   0.86757257    -8.037607     540.6653   0.01889117  0.018757748            5 
 2386000   0.86559589    -8.059368    542.13003   0.01893441  0.018751723            8 
 2387000   0.87605494   -8.0543283    541.14557  0.018892109  0.018745712            5 
 2388000    0.8678358   -8.0965622    539.76147  0.018835897  0.018739677            4 
 2389000    0.8533209   -8.0872908    540.98082  0.018870546  0.018733643            4 
 2390000   0.86430813   -8.0648362    540.06553  0.018830737  0.018727625            1 
 2391000    0.8630581   -8.0424004     541.9541  0.018888683  0.018721618            4 
 2392000   0.85592856   -8.0592992    542.54727  0.018901452   0.01871564            3 
 2393000   0.86580375   -8.0733767    542.16577  0.018880268  0.018709627            3 
 2394000   0.86152438   -8.0771415    542.81022  0.018894814   0.01870362            5 
 2395000   0.88613479   -8.0734283     541.4968  0.018841225   0.01869765            3 
 2396000   0.88692404   -8.0604708    542.48053  0.018867575  0.018691675            3 
 2397000   0.86364853   -8.0768543    542.14949  0.018848195  0.018685673            3 
 2398000   0.88139574   -8.1024789    542.03877  0.018836488  0.018679668            3 
 2399000   0.84954232     -8.09325    541.51944  0.018810596  0.018673627            3 
 2400000   0.88299713   -8.0705382    541.20017  0.018791673  0.018667608            3 
 2401000   0.86035992    -8.050808    541.96914  0.018810535    0.0186616            2 
 2402000   0.86153273   -8.0947201    541.81146  0.018797234  0.018655592            5 
 2403000    0.8701974   -8.0751218    541.80527  0.018789197  0.018649588            1 
 2404000   0.85443653    -8.074659    541.51735    0.0187714   0.01864357            3 
 2405000   0.86832581   -8.1216925    541.75002  0.018771657  0.018637469            2 
 2406000    0.8879383   -8.0923239    540.85908  0.018732997  0.018631438            5 
 2407000   0.86909234   -8.0853083    541.37104  0.018742939  0.018625412            5 
 2408000   0.86023481   -8.0699064    541.80923  0.018750319  0.018619383            4 
 2409000   0.85260678   -8.0752523    542.47682   0.01876563  0.018613373            3 
 2410000   0.86706597   -8.0711269    540.07523  0.018674801  0.018607315            2 
 2411000   0.87772775   -8.0629413    542.68583  0.018757287  0.018601232            2 
 2412000   0.86606096   -8.0722315    542.08723  0.018728829  0.018595217            5 
 2413000   0.86303087   -8.0863189    541.93659  0.018715865  0.018589177            4 
 2414000   0.87690587   -8.0701207      543.696  0.018768848  0.018583161            3 
 2415000   0.86071463   -8.1002755    543.12996  0.018741545  0.018577126            3 
 2416000   0.85608035   -8.1080066     542.4618  0.018710741   0.01857111            2 
 2417000   0.86477282    -8.105329    543.03052  0.018722608  0.018565049            5 
 2418000   0.86646205   -8.1216748    542.61492  0.018700542  0.018558968            1 
 2419000   0.86012456   -8.0702637    543.70355  0.018730314   0.01855291            3 
 2420000   0.86680999   -8.1095984    542.29724  0.018674147  0.018546866            2 
 2421000   0.88075878   -8.0751332    542.94334  0.018688673  0.018540822            1 
 2422000   0.85404615   -8.0844701    543.07467  0.018685476  0.018534821            2 
 2423000   0.86960034   -8.0835585    543.05318  0.018677025  0.018528816            2 
 2424000   0.87472012   -8.1198807    541.61792  0.018619978  0.018522781            3 
 2425000   0.86304946   -8.1181239    541.16737  0.018596817  0.018516724            5 
 2426000   0.85295823   -8.0644393    543.25092  0.018660721  0.018510682            5 
 2427000   0.85796824   -8.0738197    542.28492  0.018619864  0.018504612            4 
 2428000   0.88061593   -8.1248717    541.62364  0.018589499  0.018498531            2 
 2429000   0.86438747   -8.0983355    542.32418   0.01860588  0.018492469            3 
 2430000   0.86410112    -8.064755    543.84158   0.01865026  0.018486433            1 
 2431000   0.85159876   -8.0882915      542.761  0.018605546  0.018480396            1 
 2432000   0.86037532   -8.0995233    542.73762  0.018597095  0.018474325            3 
 2433000   0.83564867   -8.1104897    543.21776  0.018605897  0.018468229            5 
 2434000   0.87059376   -8.1161297    543.08667  0.018593764  0.018462159            3 
 2435000   0.86741589   -8.1078849    542.62683  0.018570391  0.018456104            1 
 2436000   0.84680365   -8.1234002    542.64852   0.01856351  0.018450055            1 
 2437000   0.85326868   -8.0502905    543.40904  0.018581898  0.018444015            5 
 2438000   0.85939923   -8.1143498    543.37132  0.018572987     0.018438            2 
 2439000    0.8510248   -8.0999203    543.43835  0.018567663  0.018431976            1 
 2440000   0.83559398   -8.1004437    543.76098  0.018571072  0.018425958            4 
 2441000   0.87356798   -8.0721946    543.66898  0.018560323  0.018419946            2 
 2442000   0.85913746   -8.0978409    544.48702  0.018580638  0.018413936            3 
 2443000   0.85393032   -8.1134929    544.38055  0.018569401  0.018407923            3 
 2444000   0.86212573   -8.1046933    543.18172  0.018520926  0.018401908            4 
 2445000   0.85979707    -8.077849    544.33888  0.018552791  0.018395916            4 
 2446000   0.87418596   -8.0899043    545.11217  0.018571551  0.018389931            3 
 2447000   0.84568293   -8.1090182    543.89984  0.018522675  0.018383951            2 
 2448000   0.87271381   -8.0871476    545.24875  0.018561028  0.018377973            2 
 2449000   0.85164573   -8.0487994     544.2909  0.018520856  0.018371997            2 
 2450000   0.86282732   -8.0637384    544.39653  0.018516889  0.018366047            4 
 2451000   0.86978293   -8.1115901     543.6877  0.018485234   0.01836011            4 
 2452000     0.851837    -8.098202    545.14095  0.018527085   0.01835419            6 
 2453000   0.85344983   -8.1079207    545.40198    0.0185284  0.018348212            3 
 2454000   0.86275626   -8.1071752     545.5817  0.018526953  0.018342229            6 
 2455000   0.85413192   -8.0468422    546.98581  0.018567068  0.018336268            6 
 2456000   0.84367522   -8.0714238     545.3605   0.01850436  0.018330304            3 
 2457000   0.83106577   -8.0712699    545.98264   0.01851793  0.018324378            1 
 2458000   0.87665075    -8.076736    545.97533  0.018510148  0.018318438            2 
 2459000   0.85408663   -8.0989825    545.41009  0.018483465  0.018312529            2 
 2460000   0.84962971   -8.1241339    544.95507  0.018460538  0.018306597            2 
 2461000   0.86256489   -8.0980911    545.47108  0.018470509  0.018300643            2 
 2462000   0.83664432   -8.0790645    546.08764  0.018483876  0.018294708            1 
 2463000   0.85098444   -8.0886718    545.52287  0.018457263  0.018288759            1 
 2464000    0.8593902   -8.0987961     545.3004  0.018442248  0.018282786            5 
 2465000   0.84011523   -8.1080464     545.3532  0.018436552  0.018276741            1 
 2466000   0.84002457   -8.1111808    545.19072  0.018423585    0.0182707            5 
 2467000   0.85477716   -8.0749602    545.04441  0.018411174  0.018264676            5 
 2468000   0.85967408   -8.1165914     545.5002  0.018419105  0.018258671            2 
 2469000    0.8233191   -8.1049416    544.97981   0.01839408  0.018252653            5 
 2470000   0.85581386   -8.1232183    544.52171  0.018371178  0.018246621            5 
 2471000    0.8612142   -8.1426101    544.98454  0.018379352  0.018240571            2 
 2472000   0.85882529   -8.0881788    546.41106  0.018420006  0.018234573            2 
 2473000   0.87148643   -8.1304268    544.54943  0.018349826  0.018228555            1 
 2474000   0.84939745   -8.0991523    545.40083  0.018371087  0.018222579            4 
 2475000   0.83896507   -8.1118386    545.96202  0.018382559  0.018216626            3 
 2476000   0.84999078   -8.1200684    545.82207  0.018370425  0.018210666            2 
 2477000   0.85803682   -8.1185457    547.02361  0.018403432   0.01820471            2 
 2478000   0.86077956   -8.1136822    545.63466  0.018349296  0.018198709            3 
 2479000   0.85497741    -8.107485    545.72667  0.018344987  0.018192708            9 
 2480000   0.85706593    -8.107567    547.03023  0.018381392   0.01818679            2 
 2481000   0.85733474   -8.1110045    546.76615  0.018365113  0.018180867            3 
 2482000    0.8407255   -8.0958955    547.93758  0.018397045  0.018174926            3 
 2483000   0.86080617   -8.1185556    546.55162  0.018343121  0.018168989            1 
 2484000   0.85547852   -8.1307137    545.47658   0.01829967  0.018163025            3 
 2485000   0.84494346   -8.1598727    544.91611  0.018273511     0.018157            6 
 2486000   0.85523167   -8.1331986    546.77816  0.018328579  0.018150976            3 
 2487000    0.8682442   -8.1538672    545.48559  0.018277898  0.018144995            1 
 2488000   0.84581878    -8.139578    546.50334   0.01830464   0.01813899            1 
 2489000   0.86007312   -8.1306918    546.03479  0.018281599  0.018133021            2 
 2490000   0.85497118   -8.1072887    546.50191   0.01828989  0.018127072           15 
 2491000   0.85204055   -8.1240106    546.11173  0.018269494  0.018121135            7 
 2492000   0.86253425   -8.1284937    546.44183  0.018273202  0.018115217            2 
 2493000   0.85242439   -8.1395813      546.365  0.018263304  0.018109277            4 
 2494000   0.85886109   -8.1187558    545.84421   0.01823858  0.018103339            2 
 2495000    0.8733612   -8.1010214    546.43548  0.018251018  0.018097379            2 
 2496000   0.85044959   -8.1006308    547.57112  0.018281621  0.018091486            3 
 2497000   0.85407132   -8.1109625     547.2109  0.018262278  0.018085561            1 
 2498000   0.86319498    -8.086367    548.30265  0.018291388  0.018079637            2 
 2499000   0.85517493   -8.0831563    547.93126  0.018271684  0.018073748            2 
 2500000      0.84781    -8.097089    547.73469  0.018257823   0.01806786            1 
 2501000   0.85099211   -8.0920229     548.1147  0.018263185   0.01806194            4 
 2502000   0.85417436   -8.1331646    547.08879  0.018221716  0.018056027            2 
 2503000   0.85551325   -8.1324461    547.40878  0.018225089  0.018050102            3 
 2504000   0.83258971   -8.1086803    548.80891  0.018264407    0.0180442            3 
 2505000   0.85013092   -8.1639595    547.19512   0.01820343  0.018038273            4 
 2506000   0.85969525     -8.13686    547.43926  0.018204285  0.018032346            2 
 2507000   0.87643809   -8.1665243    548.21728  0.018222885  0.018026469            1 
 2508000     0.864143   -8.1173191    548.26269  0.018217128   0.01802057            3 
 2509000   0.84225168   -8.1114607    546.82756  0.018162201  0.018014685            2 
 2510000   0.86332354   -8.1365828     548.7697  0.018219445  0.018008772            3 
 2511000   0.85500473   -8.1270486    548.11598  0.018190495  0.018002877            2 
 2512000   0.86762086   -8.1235079    549.01319  0.018213017  0.017996998            1 
 2513000   0.83341809   -8.1565538    548.06751   0.01817441  0.017991115            2 
 2514000   0.84452857   -8.1717325    547.70637   0.01815521  0.017985248            1 
 2515000   0.84725202   -8.1594479    547.55561  0.018142996  0.017979354            2 
 2516000   0.83618674   -8.1252799    548.85525   0.01817883  0.017973462            3 
 2517000   0.84969166    -8.124462    548.92832  0.018174027  0.017967575            3 
 2518000    0.8525308   -8.1265255    548.27266  0.018145111  0.017961717            2 
 2519000    0.8498185   -8.1139875    548.65462  0.018150543  0.017955864            2 
 2520000   0.84813898   -8.1252772    549.59553  0.018174455  0.017949999            3 
 2521000   0.86453515   -8.1305455    548.52782  0.018131952  0.017944141            6 
 2522000   0.87045829   -8.1275753    550.00747  0.018173654  0.017938285            2 
 2523000   0.85806575    -8.142595    549.77455  0.018158758  0.017932426            1 
 2524000   0.84381155    -8.117454    548.83794   0.01812064  0.017926544            3 
 2525000   0.84063187   -8.1007115    549.69512  0.018141753  0.017920664            2 
 2526000   0.85044726   -8.1516809    549.73967  0.018136041  0.017914818            1 
 2527000    0.8529747   -8.1723643    548.66054  0.018093277  0.017908952            3 
 2528000   0.83287388   -8.1485852    550.17589  0.018136072  0.017903089            2 
 2529000   0.86149038   -8.1410813    549.49784  0.018106559  0.017897221            1 
 2530000   0.83857457   -8.1726445    549.22644  0.018090462  0.017891338            2 
 2531000   0.84362232    -8.149754    548.20274   0.01804961  0.017885423            3 
 2532000   0.83959994   -8.1342346    549.55098  0.018086854    0.0178795            1 
 2533000   0.86016786   -8.1522703    550.00585  0.018094678  0.017873633            6 
 2534000   0.84869278   -8.1275017    549.18861  0.018060662  0.017867773            3 
 2535000   0.83084866   -8.1528015    550.38272  0.018092792  0.017861895            2 
 2536000   0.83925405   -8.1503688    549.08252  0.018042933  0.017856023            2 
 2537000   0.85381566   -8.1282763    550.82974  0.018093212  0.017850159            5 
 2538000   0.85985551   -8.1359894    550.13948  0.018063419  0.017844311            3 
 2539000   0.83542208   -8.1325483    549.93171  0.018049485  0.017838492            1 
 2540000   0.85627838   -8.1432171    549.71304  0.018035205  0.017832666            4 
 2541000   0.84841947   -8.1308464    549.13139  0.018009032   0.01782679            3 
 2542000   0.87190047   -8.1357796    549.02381   0.01799842  0.017820926            1 
 2543000   0.82745607    -8.161644     549.5947   0.01801005  0.017815052            2 
 2544000   0.83441439   -8.1679003    550.07867  0.018018824  0.017809179            3 
 2545000   0.84516097   -8.1652076     548.6096  0.017963641  0.017803279            4 
 2546000   0.84729987   -8.1578602    549.56094  0.017987724  0.017797389            2 
 2547000   0.84568538   -8.1529918     549.4573  0.017977271  0.017791476            9 
 2548000    0.8584563   -8.1675563    548.88712  0.017951567  0.017785562            2 
 2549000   0.86655157   -8.1759088    549.95707  0.017979504  0.017779629            1 
 2550000    0.8428023   -8.1265419    550.34892  0.017985259  0.017773721            4 
 2551000   0.82494004   -8.1422097     551.1859   0.01800555  0.017767869            2 
 2552000   0.83716264   -8.1136367    550.47462  0.017975268  0.017762055            1 
 2553000   0.83682347   -8.1048004    550.72373  0.017976359  0.017756249            3 
 2554000   0.85868082   -8.1138586    551.58168  0.017997314  0.017750453            2 
 2555000   0.84535968   -8.1270851    551.16383  0.017976641  0.017744634            4 
 2556000   0.84045187   -8.1162188    550.72054  0.017955156  0.017738799            2 
 2557000   0.84692004   -8.1842312    550.51949  0.017941581  0.017732935            1 
 2558000   0.84521958   -8.1464803    549.68364  0.017907338  0.017727057            3 
 2559000   0.83820808   -8.1424671    549.95209  0.017909082  0.017721196            2 
 2560000   0.81730361   -8.1346994    550.36245  0.017915444  0.017715315            9 
 2561000   0.84737034   -8.1384426    550.87335  0.017925073  0.017709457            5 
 2562000   0.84355598   -8.1239418    551.97021  0.017953754  0.017703619            3 
 2563000      0.83063   -8.1535853    551.19675  0.017921601  0.017697761            1 
 2564000   0.84711482   -8.1442007    551.31533  0.017918465  0.017691902            5 
 2565000   0.83783036   -8.1718292    551.30775  0.017911233  0.017686069            1 
 2566000   0.86036289   -8.1553311    549.33777  0.017840276  0.017680199            7 
 2567000   0.84711848   -8.1418758    550.15013  0.017859698  0.017674372            2 
 2568000   0.84305485   -8.1437038    552.02928  0.017913723  0.017668539            1 
 2569000   0.84689515   -8.1168776    550.54549  0.017858618   0.01766267            2 
 2570000   0.84929893   -8.1490262    552.05583  0.017900643  0.017656845            2 
 2571000   0.83016698   -8.1469971    551.54104  0.017876995  0.017650997            3 
 2572000   0.84130577   -8.1672627    552.59567  0.017904214   0.01764515            3 
 2573000   0.84981043   -8.1578381    552.49719  0.017894066  0.017639355            2 
 2574000   0.82443307   -8.1739298    550.63798  0.017826922  0.017633503            3 
 2575000   0.82249009   -8.1564541    551.38854  0.017844289  0.017627655            2 
 2576000   0.82885575   -8.1565447    551.33265  0.017835554  0.017621802            1 
 2577000   0.83243049   -8.1396268    551.20832  0.017824613  0.017615983            1 
 2578000   0.83656644   -8.1536946    551.01341  0.017811398   0.01761019            4 
 2579000   0.84064684   -8.1196856    552.29871  0.017846023  0.017604403            3 
 2580000   0.84915846   -8.1029339    552.54614  0.017847098  0.017598629            2 
 2581000   0.85141195   -8.1226285    551.35211  0.017801631  0.017592867            2 
 2582000   0.83921921   -8.1410989    552.38866  0.017828191  0.017587089            5 
 2583000   0.84550214   -8.1296649    550.82744   0.01777092   0.01758128            6 
 2584000   0.84407958   -8.1786637    551.40586  0.017782697   0.01757549            1 
 2585000   0.82597298    -8.172554    550.81788  0.017756863   0.01756969            2 
 2586000   0.83229033   -8.1572247    551.86442  0.017783721  0.017563877            2 
 2587000    0.8454649   -8.1801657    551.74315   0.01777294  0.017558044            1 
 2588000   0.82248869   -8.1882063    551.13307  0.017746428  0.017552238            3 
 2589000   0.84228011   -8.1584286    551.38675  0.017747739  0.017546446            3 
 2590000   0.84117198   -8.1686626    553.24861  0.017800792  0.017540659            6 
 2591000   0.83014063   -8.1620444    551.74972  0.017745713  0.017534845            3 
 2592000   0.84204429   -8.1658788     552.4449  0.017761217  0.017529027            2 
 2593000   0.82772047   -8.1584377    551.99554  0.017739926  0.017523235            4 
 2594000   0.83834112   -8.1107785    552.93248  0.017763187  0.017517466            1 
 2595000    0.8523319    -8.147141    552.60483   0.01774582  0.017511681            3 
 2596000   0.82488141   -8.1527806    553.12391  0.017755647  0.017505892            2 
 2597000   0.82688373   -8.1648828    551.74751  0.017704643  0.017500083            1 
 2598000   0.85469601   -8.1696886    553.15751  0.017743056  0.017494268            2 
 2599000   0.82096831   -8.1802294    552.88628  0.017727532  0.017488436            3 
 2600000   0.82519867   -8.1865674    551.20136   0.01766671  0.017482607            8 
 2601000   0.83054869   -8.2041994    551.65861  0.017674568  0.017476766            3 
 2602000   0.83185875   -8.1621904    552.19838  0.017685062  0.017470928            2 
 2603000   0.83641333   -8.1683326    550.38182  0.017620112  0.017465072            2 
 2604000   0.84552375   -8.1474155    552.40882  0.017678214  0.017459239            1 
 2605000   0.81806219   -8.1503758    552.73001  0.017681702  0.017453408            6 
 2606000    0.8449177   -8.1866717    551.48541  0.017635118  0.017447576            3 
 2607000   0.82749014   -8.1663441    551.00226  0.017612909  0.017441744            2 
 2608000    0.8426967   -8.1764479    551.79939  0.017631627  0.017435906            5 
 2609000   0.82936692   -8.1458617    552.74839   0.01765518  0.017430082            7 
 2610000   0.84533085   -8.1775204    551.83862  0.017619368  0.017424284            2 
 2611000   0.83003935   -8.1660131    553.14113  0.017654192  0.017418472            2 
 2612000   0.83694326   -8.2041667    552.76517  0.017635438  0.017412665            3 
 2613000    0.8351943   -8.1698882    552.51934  0.017620849  0.017406832            9 
 2614000   0.83835603    -8.176518    553.21456  0.017636271  0.017400993            2 
 2615000   0.82532169   -8.1605927    552.65509  0.017611698  0.017395177            3 
 2616000   0.83405309   -8.1744016     553.4979  0.017631814  0.017389333            5 
 2617000   0.81117055   -8.1704576    553.25766  0.017617426  0.017383505            4 
 2618000   0.82322716   -8.1759793    552.30276  0.017580302  0.017377694            5 
 2619000   0.82960618   -8.1782162    551.72109  0.017555081  0.017371842            1 
 2620000   0.83859081   -8.2148577    551.98848  0.017556886   0.01736598            2 
 2621000   0.83981102   -8.1778106    551.85188  0.017545844  0.017360153            2 
 2622000   0.81921351   -8.1748008     552.8215  0.017569969  0.017354291            2 
 2623000   0.83442816     -8.17346     552.2582  0.017545374  0.017348419            2 
 2624000   0.84436324   -8.1755092    551.70955  0.017521264  0.017342556            2 
 2625000   0.84779272   -8.1498876    552.67074  0.017545103  0.017336707            2 
 2626000   0.81930479   -8.1565765    553.09239  0.017551802  0.017330896            2 
 2627000   0.82850215   -8.1442554    553.85974  0.017569463  0.017325066            2 
 2628000   0.83340811   -8.1558477    553.46419  0.017550234  0.017319232            1 
 2629000   0.84161907   -8.1577899     552.6685  0.017518337  0.017313399            3 
 2630000   0.83841193   -8.1773739     552.9894  0.017521844  0.017307601            3 
 2631000   0.83510565   -8.1562571    554.45003  0.017561448  0.017301806            2 
 2632000   0.82929273   -8.1574262     553.6997  0.017531019  0.017296015            6 
 2633000   0.82702958   -8.1477074    554.18934  0.017539858  0.017290254            2 
 2634000   0.83778761   -8.1986511    552.96416  0.017494437  0.017284469            4 
 2635000   0.82434814   -8.1423796    555.24771  0.017560016  0.017278686            5 
 2636000   0.83730713   -8.1901655    554.45398  0.017528262  0.017272908            3 
 2637000    0.8326449   -8.1576382    553.92182  0.017504798  0.017267112            3 
 2638000   0.83529237   -8.1333736    554.24254  0.017508293  0.017261356            4 
 2639000   0.82355765   -8.1426558    554.40139  0.017506675  0.017255583            3 
 2640000   0.81887254   -8.1682093     553.0492  0.017457361  0.017249801            2 
 2641000   0.84468194   -8.1721963    554.04575  0.017482196  0.017244024            3 
 2642000   0.82741804   -8.1893148     553.2175  0.017449454  0.017238255            4 
 2643000   0.81942888   -8.1679774    555.24784  0.017506869  0.017232473            4 
 2644000   0.82121483   -8.1615013    553.60591  0.017448497  0.017226698            3 
 2645000   0.81869056   -8.1536682     553.8336  0.017449074  0.017220954            5 
 2646000   0.84568255   -8.1766947    554.09923  0.017450845  0.017215184            6 
 2647000    0.8109042   -8.2082251    553.65052  0.017430126  0.017209395            2 
 2648000   0.84038097   -8.2014523      553.142   0.01740754  0.017203612            3 
 2649000   0.82432977   -8.1579922    555.62303  0.017479018  0.017197842            5 
 2650000   0.83721081   -8.1767427    553.82236  0.017415798    0.0171921            2 
 2651000   0.83349876   -8.1572038    554.54385  0.017431908  0.017186337            2 
 2652000   0.82555705   -8.1621276    556.49867  0.017486761  0.017180592            4 
 2653000   0.84831673   -8.1574107     556.1881  0.017470414  0.017174869            1 
 2654000   0.82844811   -8.1479053    555.00416  0.017426657   0.01716914            2 
 2655000   0.82090898   -8.1787509    554.74287  0.017411892  0.017163403            2 
 2656000   0.82544204    -8.179962    554.34316  0.017392795  0.017157654            2 
 2657000   0.82911616   -8.2017123    553.97579  0.017374727  0.017151888            1 
 2658000   0.82053862   -8.1669303     553.9692  0.017367984  0.017146118            3 
 2659000   0.84276232   -8.1688694    553.29988  0.017340475  0.017140345            2 
 2660000   0.83310024   -8.1626393    554.78597  0.017380513  0.017134563            5 
 2661000   0.83677271   -8.1460089    555.08734  0.017383419  0.017128809            2 
 2662000   0.84830349   -8.1463777    555.51287   0.01739021  0.017123045            3 
 2663000   0.82959896   -8.1895241    555.13763  0.017371937  0.017117293            2 
 2664000   0.81081628   -8.2114296    554.39791  0.017342277  0.017111519            2 
 2665000   0.83544822   -8.2133795    554.96486  0.017353498   0.01710575            3 
 2666000    0.8316661   -8.2084236    553.78864  0.017310223  0.017099962            1 
 2667000   0.81448766   -8.2084874    555.22573  0.017348635  0.017094188            2 
 2668000   0.82838272   -8.1715107    556.16796  0.017371563  0.017088416            3 
 2669000   0.82460374   -8.1853783    554.70357  0.017319332  0.017082639            3 
 2670000   0.80844171    -8.241113    554.03388  0.017291944  0.017076879            6 
 2671000   0.83787279   -8.1778593    554.30812  0.017294026  0.017071129            2 
 2672000   0.82476808   -8.1830911    555.82205   0.01733477  0.017065394            2 
 2673000   0.79677988   -8.1863074    556.91942  0.017362496  0.017059683            2 
 2674000   0.82829468   -8.1908898     555.5392  0.017312989  0.017053985            1 
 2675000   0.84290587   -8.2106023    554.00483  0.017258718  0.017048279            2 
 2676000   0.82723411    -8.165574    555.70325  0.017305159  0.017042572            3 
 2677000   0.81552175   -8.1981519    555.63078  0.017296438  0.017036881            3 
 2678000   0.81653116   -8.1896699    556.53112  0.017317996  0.017031171            2 
 2679000   0.81561845   -8.1980958    556.59456  0.017313505  0.017025478            3 
 2680000   0.83174655   -8.1872991     555.8804  0.017284838  0.017019782            3 
 2681000   0.83352024   -8.1920631    554.91489   0.01724838  0.017014038            7 
 2682000   0.82729665   -8.2069073    555.42431  0.017257777  0.017008322            3 
 2683000   0.82360185   -8.1594303    557.28186   0.01730904  0.017002617            3 
 2684000   0.83608668   -8.1908488    555.51025  0.017247586    0.0169969            9 
 2685000   0.81779509   -8.1976545    556.84236  0.017282507  0.016991162            4 
 2686000    0.8320311   -8.1805676    556.22385  0.017256883  0.016985452            6 
 2687000   0.81215563   -8.1948414    556.29337  0.017252617  0.016979721            3 
 2688000   0.82414091   -8.1993356    555.03367  0.017207145  0.016973965            4 
 2689000   0.82623883   -8.1899418    555.15977  0.017204654  0.016968205            1 
 2690000   0.79229842   -8.1911711    556.02941  0.017225199  0.016962452            3 
 2691000   0.81305685   -8.2231934    554.70372  0.017177744  0.016956687            2 
 2692000   0.81049804   -8.2465446    554.97947  0.017179899   0.01695091            3 
 2693000   0.81575883   -8.1861935    556.79945  0.017229838  0.016945159            2 
 2694000   0.81787001   -8.1945028    555.89969   0.01719561  0.016939421            5 
 2695000    0.8286077   -8.2446679    555.54579  0.017178287  0.016933709            4 
 2696000   0.84511291   -8.1821551    556.44192  0.017199614  0.016928007            2 
 2697000   0.80617116   -8.2098223    556.46824   0.01719405  0.016922286            3 
 2698000   0.80982653   -8.2327908    555.17818  0.017147831  0.016916554            6 
 2699000   0.80134124   -8.2205829    555.50057  0.017151432  0.016910832            7 
 2700000    0.8227227   -8.2240333    557.41156   0.01720406  0.016905094            1 
 2701000    0.8205652   -8.2015148    556.62465  0.017173413  0.016899412            5 
 2702000   0.80025014   -8.2129867    557.29557  0.017187749   0.01689374            4 
 2703000   0.81011668    -8.210722    556.74705  0.017164479  0.016888055            1 
 2704000   0.81932521   -8.2151803    555.96214  0.017133942  0.016882339            3 
 2705000   0.82270707   -8.2033525     555.8112  0.017122957  0.016876607            3 
 2706000   0.81171088   -8.2249709    556.93318  0.017151182   0.01687089            1 
 2707000   0.82582764   -8.2254836    556.89378  0.017143633  0.016865181            3 
 2708000   0.81176176    -8.234636    556.68734   0.01713095  0.016859468            8 
 2709000   0.81180331   -8.2331636    555.12979  0.017076713  0.016853776            3 
 2710000   0.80651776   -8.1996088    557.22885  0.017134958  0.016848084            4 
 2711000   0.81906531   -8.1955141    556.68315  0.017111864  0.016842415            2 
 2712000   0.82427633   -8.2265331    555.59109  0.017071998  0.016836763            2 
 2713000   0.82541319   -8.2529435    556.14542  0.017082732   0.01683105            3 
 2714000   0.82183623   -8.2360541    555.81972  0.017066437  0.016825323            2 
 2715000   0.80581526   -8.2236547    555.07346  0.017037245  0.016819596            4 
 2716000   0.82742825   -8.1999351    556.66498  0.017079804  0.016813906            2 
 2717000   0.81879621   -8.2320658    556.46927  0.017067515  0.016808202            2 
 2718000   0.83534184   -8.2161944    556.95378  0.017076091  0.016802497            3 
 2719000   0.81669517   -8.2193156    557.80199  0.017095807  0.016796813           12 
 2720000   0.80909087   -8.2203036    557.30727  0.017074365  0.016791133            2 
 2721000   0.82032758   -8.2306395    558.62999  0.017108599  0.016785478            3 
 2722000   0.80773074   -8.2384058    558.06049  0.017084879   0.01677983            4 
 2723000   0.82191008   -8.2194833    557.26007  0.017054109  0.016774179            1 
 2724000   0.80901662    -8.224151     558.0195  0.017071081  0.016768534            2 
 2725000   0.81479612   -8.2141754    558.87147  0.017090871    0.0167629            2 
 2726000   0.80698583   -8.2124568     557.6511  0.017047294   0.01675727            1 
 2727000   0.82062758   -8.2248736    557.23537  0.017028339  0.016751616            1 
 2728000   0.82679036   -8.2065727    559.15915  0.017080864  0.016745967            4 
 2729000   0.81315774   -8.1848528    559.05536  0.017071435  0.016740352            3 
 2730000   0.81598335   -8.2314511    557.81667  0.017027371  0.016734725            2 
 2731000   0.83193017   -8.2254326    556.52254  0.016981647  0.016729075            5 
 2732000   0.81137244    -8.200958    557.93477  0.017018508  0.016723414            2 
 2733000   0.81261563   -8.2292168    558.47771  0.017028836  0.016717794            3 
 2734000   0.78447962   -8.2121556    559.13003  0.017042491  0.016712183            3 
 2735000   0.81275075    -8.190354    558.18102  0.017007344  0.016706567            6 
 2736000   0.81134089   -8.2127441    557.77547  0.016988775  0.016700937            6 
 2737000   0.82011596   -8.2229588    557.43325  0.016972149  0.016695315            2 
 2738000   0.81809661   -8.2227595    558.46443  0.016997335  0.016689669            4 
 2739000    0.8072431   -8.2119755    558.57814  0.016994589  0.016684042            4 
 2740000   0.80614917   -8.2239009    557.94279  0.016969063  0.016678397            5 
 2741000   0.79587921   -8.2196446    559.16391  0.016999997  0.016672753            2 
 2742000   0.81515546   -8.2343926    557.78324  0.016951837  0.016667109            2 
 2743000     0.820686   -8.2511536    557.27717  0.016930282  0.016661474            3 
 2744000   0.82068725   -8.2307409    558.74375  0.016968651  0.016655855            3 
 2745000   0.81362046   -8.2189383    558.39269  0.016951812  0.016650223            2 
 2746000     0.824718   -8.2326782    557.95949  0.016932492  0.016644613            3 
 2747000   0.80492155   -8.2163351    558.42287  0.016940386  0.016638999            7 
 2748000   0.81655714   -8.2594537    557.41863  0.016903767  0.016633376            3 
 2749000    0.8014202   -8.2084304    558.10796  0.016918515  0.016627757            2 
 2750000   0.82774472   -8.2496023    558.27279  0.016917357  0.016622156            3 
 2751000   0.80519375   -8.1995713    559.11359  0.016936677  0.016616564            2 
 2752000   0.81316931   -8.1952556     559.1633  0.016932028  0.016610989            2 
 2753000    0.7965033   -8.2241339    559.26455  0.016928943  0.016605395            2 
 2754000   0.79857478    -8.247942    559.00247  0.016914865  0.016599803            3 
 2755000   0.81872982   -8.2399577    559.00788  0.016908889  0.016594214            4 
 2756000   0.81012229   -8.2349263    559.37605  0.016913886  0.016588599            3 
 2757000    0.8249704   -8.2111096    559.47969  0.016910884  0.016582981            3 
 2758000   0.78682735    -8.242207    557.62391   0.01684868  0.016577393            1 
 2759000   0.81751888   -8.2606332    558.29196  0.016862751  0.016571762            4 
 2760000   0.82146722    -8.268349    558.41238  0.016860277  0.016566156            2 
 2761000    0.8185382   -8.2530286    558.54493  0.016858171  0.016560525            3 
 2762000   0.80907436   -8.2465916    558.17797  0.016840996  0.016554911            5 
 2763000   0.79147981   -8.2319324    558.75466  0.016852294  0.016549332            3 
 2764000   0.80313535   -8.2338971    559.53801  0.016869815  0.016543751            6 
 2765000   0.80717534   -8.2253343    561.05847  0.016909538  0.016538166            7 
 2766000   0.81436878   -8.2151842     558.7894  0.016835063  0.016532591            2 
 2767000   0.81341242   -8.2232661    559.97965  0.016864825  0.016527023            2 
 2768000   0.82465172   -8.2038463    559.16613   0.01683424  0.016521454            2 
 2769000   0.81974401     -8.19487    560.30567  0.016862456  0.016515887            5 
 2770000   0.81006327   -8.1926226    560.00662  0.016847371  0.016510337            4 
 2771000   0.79129979   -8.2235485    559.70692  0.016832278  0.016504792            3 
 2772000   0.80996503   -8.2209873    558.89031  0.016801657   0.01649921            2 
 2773000   0.80433613   -8.2361359      559.504   0.01681404  0.016493657            5 
 2774000   0.79637316   -8.2214183    558.52972  0.016778711   0.01648808            2 
 2775000   0.81638307   -8.2364156    559.82415  0.016811536  0.016482507            3 
 2776000   0.80982847   -8.2468576    558.67188   0.01677089   0.01647694            1 
 2777000   0.81926796   -8.2404812    560.03591  0.016805783  0.016471378            2 
 2778000   0.79699826   -8.2251715    559.91919  0.016796232  0.016465811            3 
 2779000   0.80027976   -8.2013385    560.10686  0.016795816  0.016460251            2 
 2780000   0.80595196   -8.2328994    559.69701  0.016777488  0.016454695            4 
 2781000   0.80268261   -8.2253752    560.04535  0.016781894   0.01644915            4 
 2782000   0.79257835   -8.2171139    559.87317  0.016770704  0.016443588            3 
 2783000   0.81096479   -8.2242946    560.13379  0.016772481  0.016438036            3 
 2784000    0.8106103   -8.2778184    557.57933  0.016689994  0.016432439            1 
 2785000   0.81045804   -8.2631785    559.44145   0.01673972  0.016426883            4 
 2786000   0.79757493   -8.2185467    561.34836   0.01679075  0.016421369            3 
 2787000   0.80932871   -8.2129797    559.74042  0.016736647  0.016415869            2 
 2788000   0.79607079   -8.2050712    561.15916   0.01677305  0.016410349            3 
 2789000   0.82727931   -8.2705293     558.7453  0.016694912   0.01640483            3 
 2790000   0.80438267   -8.2528463     560.1432  0.016730681    0.0163993            4 
 2791000   0.79820851   -8.2886584    559.94672   0.01671882  0.016393763            3 
 2792000   0.80826184   -8.2455112    561.65756  0.016763896  0.016388258            1 
 2793000   0.82732645   -8.2279889    560.98608  0.016737859  0.016382759            2 
 2794000   0.80914696   -8.2202319    562.15394  0.016766701  0.016377276            8 
 2795000   0.79735687   -8.2628745     560.4498  0.016709893  0.016371777            6 
 2796000   0.77796773    -8.240416    561.25792  0.016728002  0.016366253            3 
 2797000   0.81181657   -8.2466984    561.11605  0.016717794  0.016360701            3 
 2798000   0.80800685   -8.2336867    560.51683  0.016693973  0.016355167            4 
 2799000   0.81208501   -8.2594849    560.54321  0.016688794  0.016349618            3 
 2800000   0.79298144   -8.2443498    560.69754  0.016687427  0.016344109            2 
 2801000   0.80753371   -8.2704897    560.94964   0.01668897  0.016338607            4 
 2802000   0.80268643   -8.2203521    560.67101  0.016674727  0.016333077            3 
 2803000   0.80083291   -8.2527032    561.56511  0.016695359  0.016327554            3 
 2804000   0.81757267   -8.2189703    561.48409  0.016686997  0.016322033            5 
 2805000   0.80529408   -8.2032983    561.05552  0.016668316  0.016316504            2 
 2806000   0.80352741   -8.3039933    559.48761  0.016615812  0.016310967            4 
 2807000   0.80917708    -8.271098    560.92813  0.016652658  0.016305432            6 
 2808000   0.80284884   -8.2948392    561.01067  0.016649177  0.016299883            5 
 2809000   0.79254098   -8.2301074    559.77946  0.016606724  0.016294346            2 
 2810000   0.79737011   -8.2709015    560.96988  0.016636117  0.016288795            3 
 2811000   0.78835731   -8.2584898    560.27986  0.016609743  0.016283254            5 
 2812000   0.80966527   -8.2729537    558.98093  0.016565343  0.016277688            2 
 2813000   0.80355699   -8.2799079    559.10406  0.016563102  0.016272131            2 
 2814000   0.80304546   -8.2248834    561.07645  0.016615626  0.016266597            3 
 2815000   0.79701825   -8.2703103    561.14617  0.016611787  0.016261083            3 
 2816000   0.80337948   -8.2721309    560.25816  0.016579609  0.016255568            1 
 2817000   0.79877795    -8.257182    560.65175  0.016585367  0.016250033            3 
 2818000   0.80826665   -8.2667655    560.29927  0.016569058  0.016244483            3 
 2819000   0.80177166   -8.2373639    561.14781  0.016588265  0.016238949            2 
 2820000   0.80613366   -8.2252594    561.65135  0.016597262  0.016233443            6 
 2821000   0.79435825   -8.2984746    561.32303   0.01658168  0.016227924            4 
 2822000    0.8007474    -8.262023    561.61599  0.016584455  0.016222387            3 
 2823000   0.79572569   -8.2817873    559.61335  0.016519464  0.016216835            3 
 2824000   0.78370129   -8.2673308    559.49403  0.016510093  0.016211291            7 
 2825000   0.78287893   -8.2899832    559.48594   0.01650401  0.016205713            2 
 2826000   0.79826695   -8.2713411    561.44355  0.016555896  0.016200151            2 
 2827000   0.79514455   -8.2965428    559.85058  0.016503083  0.016194596            2 
 2828000   0.79725834   -8.2560788    560.79045  0.016524943  0.016189051            1 
 2829000   0.80273736   -8.2613703    560.39968  0.016507591  0.016183547            3 
 2830000   0.81137738   -8.2464589    560.75249  0.016512146  0.016178033            6 
 2831000   0.80903116   -8.2494641    561.11965  0.016517122   0.01617251            2 
 2832000   0.78353791   -8.2702427    560.15384   0.01648287  0.016167016            2 
 2833000   0.80445556   -8.2678354    560.82351   0.01649675  0.016161489            1 
 2834000   0.80732517   -8.2539397    561.68375  0.016516224  0.016155971            3 
 2835000   0.76781989   -8.2650233    561.37576  0.016501345  0.016150439            2 
 2836000   0.80806154    -8.265636    561.66732  0.016504094  0.016144915           12 
 2837000   0.78751725   -8.2450817    560.84504  0.016474123  0.016139378            2 
 2838000   0.78523024   -8.2874867    560.57827  0.016460485  0.016133855            2 
 2839000   0.78723147   -8.2785297    560.87505  0.016463398  0.016128355            2 
 2840000    0.8135375   -8.2588256    560.50704  0.016446803  0.016122848            2 
 2841000   0.81412754   -8.2721786    562.10461  0.016487874  0.016117379            2 
 2842000   0.80318769   -8.3060192    558.84413  0.016386469   0.01611186            3 
 2843000   0.79493836   -8.2572824      560.814  0.016438445  0.016106348            2 
 2844000   0.77728986   -8.2751641    560.52544   0.01642421   0.01610087            2 
 2845000   0.78815591   -8.2601341     561.2262  0.016438963  0.016095373            2 
 2846000   0.78321879    -8.294882    560.98249  0.016426051  0.016089869            1 
 2847000   0.81099423   -8.2769009    560.94388  0.016419151  0.016084339            3 
 2848000   0.80230708   -8.2650274    561.54679  0.016431027  0.016078845            5 
 2849000   0.79434871   -8.2810724     561.0442  0.016410559   0.01607335            3 
 2850000   0.77295353   -8.2735066    559.61387  0.016362979  0.016067836            5 
 2851000   0.80232758     -8.23599     562.1377   0.01643101   0.01606234            5 
 2852000   0.78544992   -8.2740215    561.07566  0.016394216  0.016056853            2 
 2853000   0.78537347   -8.2937954    560.73001  0.016378374  0.016051343            7 
 2854000   0.80058199   -8.2995487    561.32802  0.016390096  0.016045833            7 
 2855000   0.80535631    -8.265305    560.99676  0.016374686  0.016040331            3 
 2856000   0.79376561   -8.2821098    562.05559  0.016399848  0.016034849            2 
 2857000   0.77574036   -8.2646902    561.26517  0.016371053  0.016029354            3 
 2858000   0.80712205   -8.2856068    561.07708   0.01635984  0.016023864            4 
 2859000   0.80957578   -8.2596439    561.03177  0.016352797  0.016018371            7 
 2860000   0.80538243   -8.2970817    562.11889  0.016378755  0.016012874            2 
 2861000   0.78659801   -8.3097536    561.36074  0.016350948  0.016007371            4 
 2862000   0.78693043   -8.2786461    561.73062  0.016356005  0.016001893            2 
 2863000   0.79677652   -8.2761882    561.33613  0.016338809  0.015996411            2 
 2864000   0.81245787   -8.2783553    560.01868  0.016294771  0.015990914            5 
 2865000   0.79080041   -8.2637818    562.37435  0.016357602  0.015985422            4 
 2866000   0.79519369   -8.2568884    562.55899  0.016357263  0.015979952            2 
 2867000   0.79036451   -8.2610354    562.51869  0.016350386  0.015974478            3 
 2868000   0.80758684   -8.2639709    560.69358  0.016291655  0.015969008            2 
 2869000   0.78873653   -8.2942951    562.34325  0.016333892  0.015963534            2 
 2870000   0.80229574   -8.2607761    562.66503  0.016337544  0.015958054            3 
 2871000   0.78209394     -8.26435    562.56004  0.016328807  0.015952574            3 
 2872000   0.79728095    -8.296272    562.16121  0.016311549  0.015947066            8 
 2873000   0.78715437   -8.2878031    561.04571  0.016273515  0.015941557            1 
 2874000   0.79234612   -8.2847066    560.46401  0.016250986  0.015936061            3 
 2875000    0.7873785   -8.2870251    561.00756  0.016261089  0.015930582            6 
 2876000   0.80046736   -8.2957346    561.48831  0.016269365  0.015925101            3 
 2877000   0.78971759   -8.3029649    562.02649  0.016279298  0.015919631            6 
 2878000    0.7890084   -8.2692362    561.65805  0.016262973  0.015914157            3 
 2879000   0.78401376   -8.2919554    562.62893  0.016285427  0.015908685            4 
 2880000   0.79976418   -8.2772522    562.37244  0.016272351  0.015903204            2 
 2881000   0.79883832   -8.2873991    561.85106  0.016251621  0.015897724            2 
 2882000   0.78521522   -8.2742297    561.28451  0.016229601  0.015892244            8 
 2883000   0.78622592   -8.2695217    562.85211  0.016269283  0.015886755            5 
 2884000    0.7856172   -8.2765404     562.8517   0.01626363  0.015881289            3 
 2885000   0.78008722   -8.2544179    562.54212   0.01624905  0.015875834            2 
 2886000   0.78390975   -8.2910228    561.90058  0.016224896  0.015870359            3 
 2887000   0.79007814   -8.2643382    562.21245  0.016228278  0.015864896            2 
 2888000   0.80270498   -8.2595111    562.43315  0.016229027  0.015859433            4 
 2889000   0.78797386    -8.305334    562.46353  0.016224286  0.015853977            3 
 2890000   0.79105997    -8.288097    561.07838  0.016178731  0.015848498            3 
 2891000   0.79816993   -8.2904935    562.06204  0.016201488  0.015843029            7 
 2892000   0.80244666   -8.3133196    562.38789  0.016205276  0.015837553            3 
 2893000   0.80622502   -8.2875503    561.70936  0.016180129   0.01583206            2 
 2894000   0.79962074    -8.275684    561.64423  0.016172663  0.015826596            2 
 2895000   0.78914753   -8.2965787    562.45799  0.016190501  0.015821113            3 
 2896000    0.7742139    -8.309324    562.72169  0.016192498  0.015815626            2 
 2897000   0.78450031   -8.3105069     562.0662  0.016168053  0.015810145            2 
 2898000   0.80687896   -8.3002071    563.09766  0.016192134   0.01580467            2 
 2899000    0.7833517   -8.2987002     563.0246  0.016184449  0.015799204            1 
 2900000   0.78222009   -8.3148995    561.96109  0.016148307  0.015793726            3 
 2901000   0.78321492   -8.3159412     562.5569  0.016159856  0.015788259            3 
 2902000   0.77637363   -8.3093611    563.51639   0.01618184  0.015782797            3 
 2903000   0.78712981   -8.3143179    561.86206  0.016128777  0.015777324            1 
 2904000   0.80690954   -8.3423087    561.31741  0.016107593  0.015771836            5 
 2905000   0.77588272   -8.3125726    560.76341  0.016086156  0.015766348            4 
 2906000   0.80630951   -8.3079356    561.12803  0.016091077  0.015760865            2 
 2907000   0.80066033   -8.2854841    562.11549  0.016113848  0.015755394            6 
 2908000   0.78537861   -8.2959973    563.06418  0.016135493  0.015749928            3 
 2909000   0.77649438   -8.3080856    561.37976  0.016081693   0.01574444            2 
 2910000   0.78959439   -8.3009509    561.35535  0.016075468  0.015738959            2 
 2911000   0.77985644   -8.3377831    562.20755  0.016094342  0.015733481            1 
 2912000   0.78566228   -8.3064528     563.4651  0.016124803  0.015728024            2 
 2913000   0.78326015   -8.3237387    560.61135  0.016037629  0.015722562            3 
 2914000   0.78501923   -8.3236071    561.92221  0.016069612  0.015717088            4 
 2915000   0.77086695   -8.3440033    561.15393  0.016042136  0.015711625            2 
 2916000   0.80709574   -8.2863166    561.79988  0.016055095  0.015706158            4 
 2917000   0.78318169   -8.3108552    561.79392  0.016049421  0.015700711            6 
 2918000   0.77447257   -8.3029663    564.04382  0.016108174  0.015695271            2 
 2919000   0.78121414   -8.3343875    561.27371  0.016023573   0.01568981            4 
 2920000   0.78404872   -8.2776056    563.21053   0.01607336  0.015684363            8 
 2921000    0.7809835   -8.3481408    561.83343   0.01602857  0.015678897            3 
 2922000   0.76528676   -8.2983621    562.05576  0.016029425  0.015673455            2 
 2923000   0.77417709   -8.3026258     562.4823  0.016036102  0.015668006            2 
 2924000   0.79885024     -8.31894    561.51125  0.016002943  0.015662546            6 
 2925000   0.78299228   -8.3318748      561.605  0.016000142  0.015657081            2 
 2926000   0.80208496   -8.3497649    563.16915  0.016039222  0.015651623            5 
 2927000    0.7890531   -8.3379051    561.98167  0.015999934  0.015646153            4 
 2928000   0.79803399   -8.3226554    561.81898  0.015989839  0.015640688            5 
 2929000   0.77889988   -8.3340947    562.08031  0.015991815  0.015635213            2 
 2930000   0.80061217   -8.3357573    561.74844  0.015976918  0.015629724            4 
 2931000   0.79780951   -8.3177706     562.8262   0.01600211  0.015624256            1 
 2932000   0.78593168    -8.275952    563.13484  0.016005424  0.015618814            2 
 2933000   0.78909629   -8.2882973    562.26353  0.015975211  0.015613388            2 
 2934000   0.77410896   -8.2811459    563.32525  0.015999922   0.01560796            2 
 2935000   0.77427327   -8.2813598    562.69898  0.015976689  0.015602527            7 
 2936000   0.77801941   -8.2978829      563.257  0.015987086  0.015597115            4 
 2937000   0.79600433   -8.2997959     562.7973  0.015968599  0.015591694            6 
 2938000     0.777016   -8.2904402    563.85458  0.015993152  0.015586267            3 
 2939000   0.78028368   -8.2978651    563.05641  0.015965079  0.015580828            4 
 2940000    0.7762615   -8.2853112    562.63912  0.015947821  0.015575384            3 
 2941000   0.77091583   -8.3061703    562.37884  0.015935023  0.015569952            3 
 2942000   0.78524343   -8.3184857    561.57412  0.015906813   0.01556452            4 
 2943000   0.77462237   -8.3292842    562.86888   0.01593807   0.01555908            3 
 2944000   0.78935924   -8.3047331    561.80156  0.015902444  0.015553647            2 
 2945000   0.78937491   -8.2751225    562.75391  0.015923993  0.015548233            2 
 2946000   0.79083163   -8.3138939    561.06772  0.015870891  0.015542819            4 
 2947000   0.77927444   -8.3217785    562.37195  0.015902385  0.015537391            5 
 2948000   0.76697099   -8.3041571    563.94277  0.015941394  0.015531952            3 
 2949000   0.79645808   -8.3187343    562.80806  0.015903924  0.015526515            2 
 2950000    0.7714154   -8.3385451    560.90381   0.01584474  0.015521072            2 
 2951000   0.76569113   -8.3185364    561.89772  0.015867438  0.015515638            2 
 2952000     0.780206   -8.3060687    563.63739  0.015911173   0.01551021            1 
 2953000   0.78783025   -8.3143648    563.55725  0.015903523  0.015504796            3 
 2954000   0.78501134   -8.3101003    563.72389  0.015902841  0.015499377            5 
 2955000   0.78095246    -8.335068    561.49481  0.015834597  0.015493962            2 
 2956000     0.779219   -8.3096949    561.99425   0.01584332  0.015488511            1 
 2957000   0.78952583   -8.3573582    560.45955  0.015794712   0.01548306            7 
 2958000   0.76556678     -8.31007    562.09213  0.015835366  0.015477587            5 
 2959000   0.79085024   -8.3114506    561.40064   0.01581054  0.015472118            2 
 2960000    0.7767702   -8.3321311    562.97874  0.015849627  0.015466655            4 
 2961000   0.77565007   -8.3156636    562.27464  0.015824458  0.015461237            2 
 2962000   0.78123889   -8.3367726    562.90176  0.015836759  0.015455788            2 
 2963000   0.77546765   -8.3246297    561.88598  0.015802846  0.015450347            2 
 2964000   0.77008928   -8.2988475    561.61068  0.015789774  0.015444903            3 
 2965000   0.78132532   -8.3324488    561.59915  0.015784124  0.015439471            2 
 2966000   0.77674787    -8.345944    561.31019  0.015770684  0.015434032            4 
 2967000   0.77096394   -8.3350146    561.94671  0.015783247  0.015428593            3 
 2968000   0.78957224   -8.3377802    561.96608  0.015778472  0.015423147            4 
 2969000   0.76549806   -8.3689205     561.5734  0.015762137  0.015417675            2 
 2970000   0.78713479   -8.3476436    561.94345  0.015767212  0.015412202            4 
 2971000   0.77015927   -8.3460331    561.92583  0.015761411   0.01540673            3 
 2972000   0.79298805   -8.3440986    560.63217  0.015719834  0.015401272            3 
 2973000   0.78254448   -8.3304182    561.86345   0.01574906  0.015395831            2 
 2974000   0.79752261   -8.3297256     562.5515  0.015763044  0.015390379            3 
 2975000   0.78268168   -8.3614195    561.92747  0.015740265   0.01538493            3 
 2976000   0.78472608   -8.3440957    562.26793   0.01574451  0.015379482            2 
 2977000   0.78391216   -8.3468303    562.08915  0.015734217  0.015374055            2 
 2978000   0.76738833   -8.3579711    562.16276  0.015730993  0.015368631            1 
 2979000   0.78649656    -8.342767      562.848  0.015744881  0.015363216            3 
 2980000   0.77732544   -8.3412107    563.53679  0.015758859  0.015357785            4 
 2981000   0.77966638   -8.3083154    562.68969  0.015729892  0.015352378            5 
 2982000   0.76202865   -8.3268656    564.13675  0.015765055   0.01534699            1 
 2983000   0.76237446   -8.3238659    563.69967   0.01574756  0.015341605            4 
 2984000   0.77900567   -8.3504867    562.40838  0.015706222  0.015336221            3 
 2985000   0.78000763   -8.3437662    562.80012  0.015711896  0.015330816            3 
 2986000   0.76515319   -8.3278024    562.97125   0.01571141  0.015325405            2 
 2987000   0.78982975   -8.3462061    563.06129  0.015708662  0.015319994            3 
 2988000   0.77440723   -8.3374367    561.92016   0.01567158  0.015314585            1 
 2989000    0.7814654   -8.3341093    562.96009   0.01569533  0.015309199            1 
 2990000   0.77590141   -8.3375707    562.80581  0.015685781  0.015303801            2 
 2991000   0.76588665   -8.3249519    562.57435  0.015674088  0.015298434            8 
 2992000   0.77557629   -8.3332182    562.50154  0.015666821  0.015293041            8 
 2993000   0.78790305   -8.3324908    562.87036  0.015671855  0.015287651            8 
 2994000   0.76224948   -8.3052083    562.61559   0.01565953  0.015282268            5 
 2995000   0.76986055   -8.3376284    561.42712  0.015621233  0.015276887            4 
 2996000   0.77797364    -8.317589    562.70051  0.015651438  0.015271521            7 
 2997000   0.76565912   -8.3288165     562.1553  0.015631056  0.015266161            5 
 2998000    0.7623711   -8.3139841    563.71611  0.015669227  0.015260818            2 
 2999000   0.77141059   -8.3247698     563.2286  0.015650456  0.015255483            2 
 3000000   0.78120644   -8.3146708    563.10435  0.015641787  0.015250122            6 
 3001000   0.77384855   -8.3382167    562.89992  0.015630899   0.01524475            3 
 3002000    0.7763103   -8.3462288    562.51658   0.01561505  0.015239375            7 
 3003000     0.776842   -8.3449494    563.23017  0.015629653  0.015234016            2 
 3004000   0.75882996   -8.3541938    561.97081  0.015589514  0.015228654            3 
 3005000   0.77597201   -8.3320457     563.1883  0.015618089  0.015223279            6 
 3006000   0.76976949   -8.3334017     564.1013  0.015638204   0.01521791            4 
 3007000   0.77418553   -8.3638001    563.09922  0.015605233  0.015212536            5 
 3008000   0.76379708   -8.3779557    562.26431  0.015576914  0.015207148            7 
 3009000   0.78602408   -8.3593442     561.8035  0.015558976  0.015201757            2 
 3010000   0.77006749   -8.3885521    561.52394  0.015546067  0.015196344            2 
 3011000   0.77662246   -8.3701459    562.26895  0.015561523  0.015190947            2 
 3012000    0.7731971   -8.3441637    562.65812  0.015567124   0.01518556            2 
 3013000   0.77178607    -8.356393    563.25494  0.015578464  0.015180181            8 
 3014000   0.76998848    -8.343466    561.99767  0.015538533  0.015174805            1 
 3015000   0.74502637   -8.3728569    562.61287  0.015550383  0.015169427            3 
 3016000   0.77371481     -8.35943    563.36101  0.015565899  0.015164036            2 
 3017000   0.77984773   -8.3755974    561.96512  0.015522183  0.015158648            3 
 3018000    0.7672107   -8.3375959    563.55901  0.015561051  0.015153274            4 
 3019000   0.77049034   -8.3646758    562.67041  0.015531368  0.015147907            6 
 3020000   0.75853599   -8.3432454    561.97243  0.015506965  0.015142544            1 
 3021000   0.76613354   -8.3576133    563.63116  0.015547588  0.015137166            3 
 3022000   0.77718938   -8.3484582    563.41593  0.015536508  0.015131805            1 
 3023000   0.75940155    -8.366552    563.37001  0.015530103  0.015126446            2 
 3024000   0.76216968   -8.3619191    563.29962  0.015523028  0.015121067            3 
 3025000    0.7540944   -8.3338055    562.92024  0.015507445  0.015115703            4 
 3026000    0.7526008   -8.3616867    562.06986  0.015478901  0.015110353            3 
 3027000   0.76520061   -8.3676327      562.978  0.015498789  0.015104993            2 
 3028000    0.7675355   -8.3507168    562.41564  0.015478193  0.015099629            3 
 3029000   0.76242024   -8.3893392    563.35765     0.015499  0.015094273            1 
 3030000   0.76177243   -8.3758796    563.51444  0.015498197  0.015088909            2 
 3031000   0.76229479   -8.3474343    563.76817   0.01550006  0.015083556            4 
 3032000   0.77357074   -8.3732223    561.62479  0.015436037   0.01507821            4 
 3033000   0.76852937   -8.3978108    562.57561  0.015457072  0.015072857            3 
 3034000   0.76519419   -8.3641754    563.82625  0.015486329    0.0150675            3 
 3035000   0.74985143   -8.3658798    564.39515  0.015496846  0.015062158            1 
 3036000   0.77856644   -8.3654371    563.13314  0.015457102  0.015056819            2 
 3037000   0.76180248   -8.3884113    562.41941  0.015432428  0.015051471            2 
 3038000   0.77026121   -8.3975016    563.38759  0.015453906  0.015046139            3 
 3039000   0.76854329    -8.350932    564.72852  0.015485591  0.015040824            3 
 3040000   0.77014996   -8.3623132    563.39798  0.015444023  0.015035499            4 
 3041000   0.76761938   -8.3494941    563.05452  0.015429533  0.015030167            5 
 3042000    0.7642806   -8.3560065    564.98164  0.015477253  0.015024842            4 
 3043000   0.76624855   -8.3666627    563.43467  0.015429803  0.015019536            6 
 3044000   0.76762988   -8.3718079      562.507  0.015399337  0.015014223            2 
 3045000   0.77522899   -8.3631786     563.1666  0.015412332  0.015008889            3 
 3046000    0.7551057   -8.3431822    561.97932   0.01537479  0.015003578            3 
 3047000   0.75525824   -8.3700135    563.86263  0.015421251  0.014998257            2 
 3048000   0.75768419   -8.3430858    562.65666   0.01538322  0.014992942            2 
 3049000   0.75703278   -8.3693889    562.80591  0.015382254   0.01498763            2 
 3050000   0.77021606   -8.3810562     563.8473  0.015405664   0.01498233            5 
 3051000   0.76385915   -8.4170838    562.93367   0.01537566  0.014977018            4 
 3052000   0.75786594   -8.3737967    562.54929  0.015360127  0.014971695            3 
 3053000   0.74766293   -8.3986164    564.06335  0.015396423  0.014966378            1 
 3054000   0.77390524   -8.3879423    562.95456  0.015361126  0.014961044            5 
 3055000   0.75702459   -8.3943928    562.55974  0.015345328  0.014955696            3 
 3056000   0.76120603    -8.394838    563.22008  0.015358314  0.014950364            2 
 3057000   0.76575819   -8.3753526    563.86838  0.015370962  0.014945047            3 
 3058000   0.74975945   -8.3749221    562.85509  0.015338323   0.01493974            3 
 3059000   0.75093215   -8.3933861    562.03458  0.015310956   0.01493443            2 
 3060000   0.75710822   -8.3823989    563.78839  0.015353714   0.01492913            3 
 3061000   0.77203032   -8.3753848    564.82665  0.015376964  0.014923832            1 
 3062000   0.75711947   -8.3877214    564.08672  0.015351805  0.014918534            4 
 3063000   0.75432532   -8.3452353     564.3575   0.01535416  0.014913246            3 
 3064000   0.75409617   -8.3793022    563.44552  0.015324345  0.014907961            3 
 3065000   0.76473959   -8.3812626    564.08901  0.015336841   0.01490268            1 
 3066000   0.74735263   -8.3662876    564.38785  0.015339961  0.014897402            3 
 3067000   0.76860562    -8.374604    563.00491  0.015297384  0.014892118            1 
 3068000   0.77935302   -8.3832992    563.66367  0.015310291  0.014886837            4 
 3069000    0.7515553   -8.3695822    564.32277  0.015323199  0.014881572            2 
 3070000    0.7545885   -8.3552134    565.77818  0.015357714  0.014876306            2 
 3071000   0.75132119   -8.3591172    564.45482  0.015316803   0.01487104            2 
 3072000   0.75770522   -8.3760573    563.85589   0.01529557  0.014865781            5 
 3073000   0.76123342   -8.3807325     564.7444  0.015314687  0.014860524            1 
 3074000    0.7658502   -8.3621524    563.92483  0.015287487  0.014855275            6 
 3075000   0.76678479   -8.3702555    564.90323  0.015309031  0.014850036            2 
 3076000   0.75999032   -8.3415789    564.07708  0.015281672  0.014844777            2 
 3077000   0.75880128   -8.3783805    565.05985  0.015303322  0.014839517            4 
 3078000   0.75239002   -8.3742351    564.40283  0.015280562  0.014834254            3 
 3079000    0.7744976    -8.379308    563.13684  0.015241335  0.014828994            2 
 3080000   0.75301083   -8.4001914    563.89857  0.015256996  0.014823749            7 
 3081000   0.74694056   -8.3860063     565.6226  0.015298675  0.014818487            5 
 3082000   0.73655823   -8.3879482    564.30342  0.015258042  0.014813226            4 
 3083000    0.7606573   -8.4020943    565.35228  0.015281443  0.014807952            9 
 3084000   0.77234196   -8.3769976    564.13394  0.015243567  0.014802692            3 
 3085000   0.75061313   -8.3645606    565.32123  0.015270698  0.014797449            2 
 3086000   0.76615315   -8.3779186    563.79431  0.015224517   0.01479223            3 
 3087000   0.74906953   -8.4074247    564.80845  0.015246962  0.014786996            5 
 3088000   0.75555851   -8.3741632     564.6776  0.015238493  0.014781765            2 
 3089000   0.77550324   -8.3775786    564.86329  0.015238569  0.014776519            5 
 3090000   0.76365084   -8.3546811    565.20782  0.015242929  0.014771284            3 
 3091000   0.75394447   -8.3821892    563.88545  0.015202347  0.014766064           14 
 3092000    0.7575657   -8.3929853     565.2649  0.015234608  0.014760841           10 
 3093000   0.75052042   -8.3639912    565.34153  0.015231747  0.014755622            4 
 3094000   0.76969744   -8.4101253    565.17541   0.01522235  0.014750383            3 
 3095000   0.76457079   -8.3916405    564.57947  0.015201386  0.014745153            5 
 3096000   0.74986151   -8.4119595    564.93051  0.015205925  0.014739913            3 
 3097000   0.75860055   -8.4165666    564.60923   0.01519237  0.014734689            7 
 3098000   0.75091198   -8.4047468    565.01617  0.015198412  0.014729484            3 
 3099000   0.77025781   -8.3644018    566.21323  0.015225697  0.014724288            4 
 3100000   0.77003033   -8.3587301    566.65562  0.015232678  0.014719097            2 
 3101000   0.76350618   -8.3900216    565.25935  0.015190244  0.014713913            2 
 3102000   0.75307202     -8.39755    565.19374  0.015183584  0.014708725            3 
 3103000   0.75421657   -8.4006758    565.26237  0.015180534  0.014703523            2 
 3104000   0.74780937   -8.3685798    564.69844  0.015160504  0.014698327            4 
 3105000    0.7592972   -8.3620674    564.87606  0.015160388  0.014693124            8 
 3106000   0.76075693     -8.37185    565.93781  0.015183994  0.014687931            5 
 3107000   0.75816009   -8.3794186    565.26868   0.01516116  0.014682741            2 
 3108000   0.76552769    -8.384955    565.32302  0.015157739  0.014677543            4 
 3109000    0.7748804   -8.4180096    565.09151  0.015146658  0.014672353            2 
 3110000   0.74306309   -8.3938947    564.37445  0.015122574  0.014667141            3 
 3111000   0.74848665   -8.4061922    564.46524  0.015120145  0.014661952            9 
 3112000   0.76536735   -8.3983178    563.85549  0.015098958  0.014656764           10 
 3113000   0.72728931   -8.4266002    565.80921  0.015146408  0.014651563            3 
 3114000   0.77001677   -8.3951429    564.66314  0.015110874   0.01464637            6 
 3115000   0.73874675   -8.3977728    564.88579  0.015111979  0.014641197            6 
 3116000   0.76028352   -8.4025326     565.0777  0.015112262  0.014636028            5 
 3117000   0.74799854   -8.4036147    564.40957  0.015089551  0.014630845            2 
 3118000   0.75514371   -8.3747399    564.79509  0.015095015  0.014625661            3 
 3119000   0.75405936   -8.4167463    564.36925  0.015078798  0.014620465            5 
 3120000   0.75561282   -8.3855942    563.49119  0.015050513  0.014615282           13 
 3121000   0.74595776    -8.388712    563.05686  0.015034093  0.014610101            5 
 3122000   0.74180575   -8.3926947    564.78285  0.015075348  0.014604935            5 
 3123000    0.7282604   -8.3827036    565.14912  0.015080295  0.014599745            5 
 3124000   0.78290666   -8.3910244    565.36118  0.015081124  0.014594562            8 
 3125000   0.74599817   -8.4246434    565.13554  0.015070281  0.014589408            8 
 3126000   0.74785907    -8.401933    565.05073  0.015063199  0.014584258            6 
 3127000   0.74734275   -8.3929776     565.6088  0.015073254  0.014579101            7 
 3128000   0.73709608   -8.3813282    564.70438  0.015044341  0.014573936            3 
 3129000   0.74835904    -8.418941    563.97228  0.015020035   0.01456876            3 
 3130000   0.76066326   -8.4134257    564.11592  0.015019061   0.01456358            3 
 3131000   0.74627027   -8.3852357    565.27292  0.015045058  0.014558411            3 
 3132000   0.74460724    -8.397964    565.35274  0.015042378  0.014553245            4 
 3133000   0.73330831   -8.4124372    565.38881  0.015038536  0.014548086            7 
 3134000   0.74581654   -8.3994504    565.34057  0.015032455  0.014542945            4 
 3135000   0.74123912   -8.3838065    565.30504  0.015026716  0.014537791            4 
 3136000   0.75033285   -8.3994681    565.14685   0.01501772  0.014532644            4 
 3137000   0.76626385   -8.4040244    565.12225   0.01501228  0.014527488            1 
 3138000   0.75679883   -8.3901693     564.9765  0.015003625  0.014522332            6 
 3139000   0.74481686   -8.4290014    566.05637  0.015027513  0.014517168            3 
 3140000   0.73521016   -8.3987801    565.04121  0.014995786  0.014512034            2 
 3141000    0.7514289   -8.3818275    565.62213  0.015006424    0.0145069            2 
 3142000     0.734867   -8.3855886    565.79077  0.015006121  0.014501772            3 
 3143000   0.76213535   -8.4199299    565.19315  0.014985501  0.014496632            6 
 3144000   0.73724039    -8.390582    565.76243  0.014995824  0.014491507            2 
 3145000    0.7483682   -8.4047552    566.01438  0.014997731  0.014486368            1 
 3146000   0.76047746    -8.400426    565.69121  0.014984404  0.014481239            1 
 3147000   0.75182287   -8.4186907    565.78139   0.01498203  0.014476111            2 
 3148000   0.73335841   -8.4114756    564.82215  0.014951878  0.014470983            3 
 3149000   0.74980534   -8.4061111    564.85945  0.014948117  0.014465847            4 
 3150000    0.7476364   -8.4125117    565.06139  0.014948714  0.014460708            4 
 3151000   0.75080769   -8.4053246    565.93086  0.014966965  0.014455579           10 
 3152000    0.7427418    -8.395198    565.08735  0.014939915  0.014450444           10 
 3153000   0.74955872   -8.4097836    564.55546  0.014921119    0.0144453           13 
 3154000   0.72881239   -8.4092401    563.71748  0.014894248  0.014440163           20 
 3155000    0.7445258   -8.3860259    565.21793  0.014929158  0.014435039           17 
 3156000   0.75037984   -8.4107589    565.28003  0.014926067  0.014429899            3 
 3157000   0.74684917    -8.410481     564.9908  0.014913705  0.014424768           15 
 3158000   0.75024418   -8.4295969    565.14544  0.014913063  0.014419626           19 
 3159000   0.74999289    -8.412741    563.94354  0.014876637   0.01441448            2 
 3160000   0.74036878   -8.4186381    564.82025  0.014895049   0.01440935            4 
 3161000   0.73404861   -8.4002679     564.4816  0.014881409  0.014404214            3 
 3162000   0.74015624   -8.3606818    566.77142   0.01493705  0.014399102           12 
 3163000   0.74457774   -8.3864911    564.94066  0.014884094  0.014393994            4 
 3164000   0.75097273   -8.4083343    565.86964  0.014903857  0.014388879           10 
 3165000   0.76337867   -8.4257475    565.65783  0.014893571   0.01438378           12 
 3166000   0.75555818    -8.427893    564.16103  0.014849469  0.014378653           10 
 3167000    0.7706571   -8.4236841    565.59966  0.014882635  0.014373532            3 
 3168000   0.76478329   -8.4291497    565.49663  0.014875227  0.014368412            7 
 3169000   0.73831605   -8.4302726    565.13096  0.014860917  0.014363268            8 
 3170000   0.72987877   -8.4564966    564.28645  0.014834029  0.014358123            9 
 3171000   0.72682924   -8.4119248    565.97382  0.014873694  0.014352996            6 
 3172000   0.75874965    -8.424562    565.46071  0.014855525  0.014347884            2 
 3173000   0.75376864   -8.3986426    564.72731  0.014831582  0.014342777            4 
 3174000   0.72671984   -8.4094632    565.58243   0.01484936  0.014337647            2 
 3175000   0.73629405   -8.4194744    566.09008  0.014858007  0.014332516            2 
 3176000   0.73447588   -8.4217678    564.83478  0.014820392   0.01432738            2 
 3177000   0.73884419   -8.4284668     564.2476  0.014800325  0.014322251            5 
 3178000   0.74312208    -8.399833    564.98678  0.014815051  0.014317103            3 
 3179000   0.74844816   -8.4124622    565.70917  0.014829327  0.014311971            1 
 3180000   0.75141843   -8.4300183     564.0687  0.014781675   0.01430682            3 
 3181000   0.75235832   -8.4461592     563.5518  0.014763486  0.014301656            5 
 3182000   0.73968191   -8.4281673    563.85112  0.014766685  0.014296504            2 
 3183000   0.75157578   -8.4495529    564.93053  0.014790306  0.014291352            5 
 3184000   0.73907537   -8.4382147    564.02208  0.014761884  0.014286213            3 
 3185000   0.74800003   -8.4369669    564.98189  0.014782362  0.014281083            3 
 3186000    0.7416595   -8.4572273    564.59973  0.014767727  0.014275975            4 
 3187000   0.75183994   -8.4707791    564.15201  0.014751386  0.014270854            4 
 3188000   0.73545941   -8.4545163    564.05235  0.014744154  0.014265724            3 
 3189000   0.74303207   -8.4178028    564.86111  0.014760665  0.014260608            3 
 3190000   0.73990144   -8.4454608     564.9169  0.014757495  0.014255484            1 
 3191000   0.73440794   -8.4299328    565.21381  0.014760624  0.014250354            4 
 3192000   0.72539485   -8.4458319    565.13177  0.014753858  0.014245235            4 
 3193000   0.72365322   -8.4465616    565.06318  0.014747447  0.014240121            3 
 3194000   0.74122695   -8.4301749    565.69631  0.014759349  0.014235001            2 
 3195000   0.74190307   -8.4193142    564.69079  0.014728503  0.014229896            8 
 3196000   0.73457173   -8.4393224    564.54213  0.014720018  0.014224775            4 
 3197000   0.72702674   -8.4655025    564.56553  0.014716024  0.014219651            5 
 3198000   0.73333202   -8.4205208    564.59062  0.014712076  0.014214544            4 
 3199000   0.75790989   -8.4462068    564.17033  0.014696528  0.014209441            4 
 3200000   0.73422279   -8.4345277    565.59671  0.014729081  0.014204336            3 
 3201000   0.73464884   -8.4320823    566.60104  0.014750626  0.014199241            2 
 3202000   0.74814602   -8.4485428    564.85352  0.014700539  0.014194136           13 
 3203000   0.75091598   -8.4651274    565.27806  0.014706995  0.014189016            2 
 3204000   0.74437536   -8.4466051    563.59083  0.014658521  0.014183912            4 
 3205000   0.74439651   -8.4557804    564.12456  0.014667825  0.014178794            2 
 3206000   0.73954926   -8.4606629    563.91655  0.014657843  0.014173675            2 
 3207000   0.75000223   -8.4290868    564.70132  0.014673665  0.014168568            4 
 3208000   0.74558038   -8.4258988    565.21351  0.014682396  0.014163477            6 
 3209000   0.74914518   -8.4507171    564.61321  0.014662232  0.014158375            2 
 3210000   0.75210646   -8.4592277    563.88765  0.014638828  0.014153262            2 
 3211000   0.74404932   -8.4503802    565.02136  0.014663691  0.014148158            2 
 3212000   0.74242228   -8.4540555    565.18715  0.014663427  0.014143063            2 
 3213000   0.73579681   -8.4546236    564.65375  0.014645029  0.014137954            4 
 3214000    0.7276392   -8.4522469    565.36757  0.014658981  0.014132881            3 
 3215000   0.72860966   -8.4111768    565.60133   0.01466048   0.01412781            3 
 3216000   0.73359068   -8.4425794    565.40734  0.014650895  0.014122728            7 
 3217000   0.74810466    -8.456143     563.8389  0.014605712  0.014117651            5 
 3218000   0.73540517   -8.4373414    565.27788  0.014638437  0.014112584            3 
 3219000   0.73599763   -8.4448761    566.14611  0.014656366  0.014107531            3 
 3220000    0.7448607    -8.461631    565.35331  0.014631297  0.014102477            3 
 3221000   0.72594517   -8.4416402    564.56837  0.014606446  0.014097412            2 
 3222000   0.74092498   -8.4287667    565.67853  0.014630626  0.014092372            2 
 3223000     0.744246   -8.4259689    566.32907  0.014642907  0.014087324            5 
 3224000   0.73915318   -8.4140326     564.8012  0.014598873  0.014082293            2 
 3225000   0.73990363   -8.4067264    564.95429  0.014598302  0.014077255            5 
 3226000   0.72379577   -8.4417299    565.11831  0.014598014  0.014072216            4 
 3227000   0.72722845   -8.4257056     565.9843  0.014615853  0.014067185            6 
 3228000   0.73998087   -8.4249936    564.95916  0.014584861  0.014062139            4 
 3229000   0.72250103   -8.4802713    563.07211  0.014531643  0.014057091            4 
 3230000   0.73327938   -8.4598292    563.91083  0.014548783  0.014052029            6 
 3231000   0.73014837   -8.4380829    565.08525  0.014574571  0.014046964            1 
 3232000   0.72824226    -8.474676    564.21146  0.014547531  0.014041916            3 
 3233000   0.73625793   -8.4589695    564.35784  0.014546805  0.014036852            5 
 3234000   0.74695395   -8.4531881    564.23397  0.014539115  0.014031795            6 
 3235000   0.71912582   -8.4628801    565.51299  0.014567568  0.014026739            4 
 3236000   0.74054769   -8.4272561    565.50093  0.014562756  0.014021693            7 
 3237000   0.73137136   -8.4686822    564.68281  0.014537195  0.014016645            4 
 3238000   0.74984605   -8.4379944    565.30272   0.01454866  0.014011615            6 
 3239000   0.74664212   -8.4805566    564.20276  0.014515868  0.014006569           10 
 3240000   0.72441374   -8.4802967    564.89972  0.014529314  0.014001521            3 
 3241000   0.73340949   -8.4761049    563.60828  0.014491625  0.013996467            4 
 3242000   0.73225761   -8.4586827    564.71992  0.014515729   0.01399142            8 
 3243000   0.72582993    -8.469651    565.47698  0.014530707  0.013986371            7 
 3244000   0.73532546   -8.4616482     566.5731  0.014554385  0.013981348            9 
 3245000   0.73608739   -8.4437952    566.09351  0.014537584  0.013976334            3 
 3246000    0.7193397   -8.4444285    564.49017  0.014491943  0.013971329            7 
 3247000   0.73419261   -8.4725482    565.71206   0.01451884  0.013966317            1 
 3248000   0.72506564   -8.4628339     565.8088  0.014516851  0.013961311            2 
 3249000   0.72377309   -8.4702732    565.34132  0.014500393  0.013956302            3 
 3250000   0.72915326   -8.4649876    565.99783  0.014512765  0.013951305            3 
 3251000   0.73306885   -8.4906817    564.18513  0.014461836  0.013946302            2 
 3252000   0.74750579    -8.465868    565.89035  0.014501085  0.013941297            4 
 3253000   0.72961875   -8.4711507    564.40686  0.014458624  0.013936293            4 
 3254000   0.73586857   -8.4728151    565.57369  0.014484063  0.013931295            4 
 3255000   0.72865107   -8.4791159     565.5819  0.014479823  0.013926301            6 
 3256000   0.73004621    -8.479815    565.16213  0.014464633  0.013921298            3 
 3257000    0.7282907   -8.4753503    564.36724  0.014439854  0.013916294            2 
 3258000   0.71361313   -8.4620325    565.04192  0.014452679  0.013911282            4 
 3259000   0.74690555   -8.5046231    565.30674  0.014455015   0.01390627            2 
 3260000   0.74209762   -8.4647681    565.33349  0.014451265  0.013901272            4 
 3261000   0.70756925   -8.4856646    564.92126  0.014436299  0.013896263            6 
 3262000   0.73731243   -8.4551932    566.15657  0.014463432  0.013891266            2 
 3263000   0.72748751    -8.479121    565.58284  0.014444347  0.013886279            6 
 3264000   0.73500522   -8.4641267    564.98035  0.014424539  0.013881296            3 
 3265000   0.72619934   -8.4767296    564.89859  0.014418035  0.013876324            4 
 3266000   0.72570967   -8.4732127    565.68738  0.014433746  0.013871323            2 
 3267000   0.71754319   -8.4902986    565.75434  0.014431036  0.013866344            3 
 3268000   0.73114739    -8.482621    565.76787  0.014426965  0.013861349            2 
 3269000   0.71150792   -8.4798155    564.40163  0.014387724  0.013856363            3 
 3270000   0.72887684   -8.4945093    564.55129  0.014387138  0.013851361            4 
 3271000   0.72849672     -8.51255    564.74083  0.014387568   0.01384637            3 
 3272000   0.73364062   -8.4861695    564.43021   0.01437526  0.013841371            5 
 3273000   0.71753907    -8.444493     566.4888  0.014423281   0.01383639            4 
 3274000   0.72912008   -8.4591652    565.28713   0.01438829  0.013831411            5 
 3275000   0.74599479   -8.4552911    564.17107  0.014355498  0.013826427            4 
 3276000   0.73346305   -8.4809278    566.06119  0.014399196  0.013821452            1 
 3277000   0.73478707    -8.476312    566.42538  0.014404063   0.01381648            2 
 3278000   0.73757765   -8.4427314    566.16478  0.014393044  0.013811515            2 
 3279000   0.74912546   -8.4060265     566.6281  0.014400429  0.013806554            2 
 3280000   0.72991473   -8.4831041    565.43457  0.014365716  0.013801599            3 
 3281000   0.73420193    -8.482953    565.95088  0.014374451  0.013796641            2 
 3282000   0.72316938   -8.5019253    564.83986  0.014341861  0.013791665            2 
 3283000   0.72299846   -8.4916416     564.7891  0.014336204  0.013786685            2 
 3284000    0.7119463   -8.4954703    565.51001  0.014350132  0.013781709            3 
 3285000   0.71147786    -8.467681    565.78181  0.014352659  0.013776742            3 
 3286000   0.72838503   -8.4874584    564.75279  0.014322195  0.013771776            2 
 3287000   0.72435738   -8.4885218    565.55399   0.01433815  0.013766813            2 
 3288000   0.73005722   -8.4625996    565.37822  0.014329334  0.013761856            1 
 3289000   0.73570764   -8.4743414    565.35048  0.014324275  0.013756906            3 
 3290000   0.70869538   -8.4495307     565.9781  0.014335818  0.013751958            3 
 3291000   0.71445734   -8.4595976    565.33931  0.014315287  0.013747012            4 
 3292000   0.73444885   -8.4672358    564.99494  0.014302221  0.013742071            5 
 3293000   0.72350385   -8.4733202    565.89901  0.014320756  0.013737114            1 
 3294000   0.72446865    -8.495077    564.52432  0.014281631   0.01373216            2 
 3295000   0.72518323   -8.4528179    566.82703  0.014335534  0.013727211            3 
 3296000   0.72106984   -8.4843127    566.83956  0.014331502  0.013722276            5 
 3297000    0.7231211   -8.4743208    565.78876  0.014300596  0.013717335            4 
 3298000    0.7102464   -8.4858582    564.86261  0.014272857  0.013712395            2 
 3299000   0.72469168   -8.4565296    565.24539    0.0142782  0.013707448            4 
 3300000   0.71447558   -8.4834633    565.41436   0.01427814    0.0137025            5 
 3301000   0.72562054   -8.4747264    564.75914  0.014257274  0.013697556            1 
 3302000   0.75224116   -8.4573936    565.30736  0.014266792  0.013692606            4 
 3303000   0.72339639   -8.4659898    566.01074  0.014280219  0.013687669            2 
 3304000   0.72573413   -8.4846952    565.82122  0.014271116   0.01368274            4 
 3305000   0.71758045   -8.4804563    566.60006  0.014286436  0.013677803            2 
 3306000   0.71258099   -8.4967119    563.88896  0.014213777  0.013672874            3 
 3307000   0.72571457   -8.4594359    564.96031  0.014236476  0.013667941            2 
 3308000   0.73622306   -8.4886908    565.88174  0.014255384  0.013663005            1 
 3309000   0.73316947   -8.4803287    565.60623  0.014244138  0.013658087            6 
 3310000   0.73551486   -8.4915328    565.44259  0.014235715  0.013653162            4 
 3311000   0.72741161   -8.4564195    566.03849  0.014246413  0.013648245            2 
 3312000   0.72412156   -8.4611901    565.88103   0.01423815  0.013643339            1 
 3313000   0.72288081   -8.4921634    565.90908  0.014234558  0.013638426            3 
 3314000   0.72110473   -8.4590266    565.87499  0.014229405  0.013633513            4 
 3315000    0.7334679   -8.4614135    567.23885  0.014259398  0.013628606            3 
 3316000   0.73507232   -8.4891981    564.44321  0.014184841  0.013623702            5 
 3317000   0.72942838   -8.4767695    565.09881  0.014197036  0.013618805            3 
 3318000   0.71362091   -8.4665533    565.74159  0.014208901  0.013613906            5 
 3319000   0.71321937   -8.4707414    565.90238  0.014208657  0.013609004            5 
 3320000   0.71910387   -8.4836718    565.52507  0.014194906    0.0136041            4 
 3321000   0.72637879   -8.4717439    565.42306  0.014188072  0.013599194            2 
 3322000   0.73441782   -8.5104862    565.55045  0.014186997  0.013594287            5 
 3323000   0.72168353   -8.4991004    566.07223  0.014195813  0.013589381            7 
 3324000   0.72566802   -8.4870942    565.33774  0.014173128  0.013584466            7 
 3325000   0.72538327   -8.4893858    565.57569  0.014174829  0.013579557           12 
 3326000   0.70610382   -8.4749282    565.29083   0.01416343  0.013574646            3 
 3327000   0.72004111   -8.5120002    564.75824  0.014145833  0.013569738            3 
 3328000   0.71721822   -8.5167974    564.86072  0.014144149  0.013564827            5 
 3329000   0.70861691   -8.5035334    566.38215  0.014177985  0.013559919           14 
 3330000   0.73605204   -8.5296438    564.94233  0.014137696  0.013555021            5 
 3331000   0.72434864   -8.4950834    565.90738  0.014157595  0.013550111            8 
 3332000    0.7119762   -8.5112643    564.68657  0.014122813  0.013545197           13 
 3333000   0.71289092     -8.51191    565.66572  0.014143057  0.013540277            3 
 3334000   0.72824891   -8.5051009    566.21331  0.014152502  0.013535362           12 
 3335000   0.70943278   -8.5056918    565.52194  0.014130983  0.013530436           11 
 3336000    0.7090035   -8.4990331    564.55531  0.014102601  0.013525513            3 
 3337000   0.73370423   -8.5205457    564.94786  0.014108178  0.013520595            8 
 3338000   0.72589696   -8.5269715    565.41582  0.014115634  0.013515682            3 
 3339000   0.71725813   -8.5004871    564.35372  0.014084899  0.013510776            5 
 3340000   0.71889804   -8.5363421    563.60302  0.014061952  0.013505866            4 
 3341000   0.71148409   -8.5031307    565.19941  0.014097561  0.013500955            3 
 3342000   0.72190579   -8.5176444    564.60447  0.014078508  0.013496047            7 
 3343000   0.72462735   -8.5435476    563.83316  0.014055069  0.013491134           12 
 3344000   0.71323026   -8.5316023     565.1023  0.014082494  0.013486217            3 
 3345000    0.7206308   -8.4926306    565.26663  0.014082377  0.013481314            4 
 3346000   0.70814346   -8.5205909    565.20288  0.014076581  0.013476417            3 
 3347000    0.7074678   -8.5447052    565.82757  0.014087929  0.013471519            5 
 3348000   0.71065223   -8.4916272    566.27487  0.014094854  0.013466629            3 
 3349000   0.70011417   -8.5031787    566.35784   0.01409271  0.013461742            4 
 3350000   0.70342256   -8.5138406    565.19664  0.014059618  0.013456848            2 
 3351000   0.71988291   -8.5149356    565.10288  0.014053091  0.013451962           10 
 3352000   0.73264507   -8.5297847    563.17193  0.014000893  0.013447062            6 
 3353000   0.71513535   -8.5283862    564.40712  0.014027416  0.013442161            7 
 3354000   0.70875755   -8.5166581    563.64321  0.014004254  0.013437268           13 
 3355000   0.71167068    -8.523799     564.6485   0.01402505   0.01343237            7 
 3356000   0.71618446   -8.5295594    564.36897   0.01401393  0.013427478           13 
 3357000   0.71325672   -8.5146422    564.62381  0.014016081  0.013422591           11 
 3358000   0.71123253   -8.5030588    565.46356  0.014032747  0.013417709            2 
 3359000   0.71766099   -8.5222314    565.24603  0.014023172  0.013412838            2 
 3360000   0.72287474    -8.514857    564.54596  0.014001636  0.013407965            6 
 3361000   0.71519515    -8.521258    565.02356  0.014009312  0.013403094            7 
 3362000   0.70969613   -8.5173224    564.75925  0.013998593  0.013398221            2 
 3363000   0.72358239   -8.5331663    564.74199  0.013994003  0.013393347           10 
 3364000   0.71215427   -8.5052421     564.7758  0.013990681  0.013388474            5 
 3365000   0.70541122   -8.5239471    565.43246  0.014002785  0.013383599            4 
 3366000   0.71233601   -8.5514938    564.55004  0.013976779  0.013378729            6 
 3367000   0.70843402   -8.5193464    563.85343  0.013955386  0.013373858            5 
 3368000   0.71596348    -8.531065     565.0464   0.01398076  0.013368996            8 
 3369000   0.71568112   -8.5322961    564.47959   0.01396259  0.013364134            7 
 3370000   0.70109626   -8.5187593    564.79359  0.013966211   0.01335927            3 
 3371000   0.70569994   -8.5460752    564.02316  0.013943023  0.013354396            7 
 3372000   0.71008957   -8.5210261    563.71081  0.013931169  0.013349512           11 
 3373000   0.71197296   -8.5261418    564.08255  0.013936223  0.013344645           15 
 3374000   0.70977831   -8.5556346    563.37105  0.013914519  0.013339791            3 
 3375000   0.70460942   -8.5469334    563.77913  0.013920472  0.013334932            2 
 3376000   0.71479845   -8.5205848    563.98037  0.013921316  0.013330071            5 
 3377000   0.71312338   -8.5344111    563.25655  0.013899333  0.013325203            6 
 3378000   0.71804456   -8.5365844    563.66851  0.013905381  0.013320339           13 
 3379000   0.70353471   -8.5409537    563.72076  0.013902554  0.013315476            3 
 3380000   0.72388746   -8.5252202    564.01143  0.013905607  0.013310619            8 
 3381000   0.68862339   -8.5332812    565.87446  0.013947414  0.013305773            9 
 3382000    0.7083022    -8.512857    564.61382  0.013912227  0.013300923            4 
 3383000   0.70975629   -8.5289651    565.66987  0.013934128  0.013296079            7 
 3384000   0.69858501   -8.5368589    564.56586  0.013902824  0.013291228            3 
 3385000   0.71383772   -8.5449642    565.04548  0.013910524  0.013286396            3 
 3386000   0.72133398   -8.5256482    564.29555  0.013887959  0.013281559            2 
 3387000   0.72248387   -8.5026721    564.96936  0.013900437  0.013276723            3 
 3388000    0.6978658   -8.5215941    565.78553  0.013916409   0.01327189            4 
 3389000   0.71600509    -8.547187    564.37401  0.013877595  0.013267046            6 
 3390000   0.72786238   -8.5416867    563.27067  0.013846378  0.013262202            9 
 3391000   0.71026139   -8.5210147    564.76417  0.013878998  0.013257355            4 
 3392000   0.70316075   -8.5283085    563.60049  0.013846317  0.013252518            6 
 3393000   0.71357639   -8.5339962    564.82613  0.013872338  0.013247679            4 
 3394000   0.71199857   -8.5421116    564.97205  0.013871834  0.013242845            2 
 3395000   0.69851178   -8.5315423    565.39447  0.013878117  0.013238012            7 
 3396000   0.71978096   -8.5279696     564.5163  0.013852481  0.013233174            3 
 3397000   0.71358195   -8.5356818    564.53518  0.013848866  0.013228343            2 
 3398000   0.71763452   -8.5253272    564.14045   0.01383511  0.013223514            5 
 3399000   0.71863001   -8.5548104    564.99113  0.013851896  0.013218682            2 
 3400000   0.71052271   -8.5621823    564.68288  0.013840267  0.013213849            6 
 3401000   0.70131881   -8.5402836    564.08486  0.013821544  0.013209026            3 
 3402000   0.71967304   -8.5154461    564.60249  0.013830161  0.013204209            7 
 3403000   0.71792681   -8.5217203     564.6138  0.013826374  0.013199389            2 
 3404000   0.71318242   -8.5466414    564.06385  0.013808849  0.013194571            4 
 3405000   0.71429555   -8.5322766    564.96901  0.013826946  0.013189751            8 
 3406000   0.70708575   -8.5222237     565.4639  0.013834995  0.013184944            3 
 3407000    0.7271961   -8.5278422    564.44411   0.01380599  0.013180141            2 
 3408000   0.69537021   -8.5489548    565.10909    0.0138182   0.01317535            5 
 3409000   0.70415184     -8.53153    565.53995  0.013824679  0.013170553            5 
 3410000    0.7031853   -8.5301323    565.59754  0.013822032  0.013165762            6 
 3411000   0.72006085   -8.5250686    564.72061  0.013796556  0.013160976            8 
 3412000   0.71228714   -8.5450296    564.69449  0.013791874  0.013156189            7 
 3413000   0.69927076   -8.5556865    564.73224  0.013788755  0.013151374            4 
 3414000   0.72619158   -8.5351177    565.14643  0.013794826  0.013146568            4 
 3415000   0.68375382    -8.524365    565.42186  0.013797508  0.013141772            3 
 3416000   0.70724227    -8.545847    566.16702  0.013811647  0.013136986            3 
 3417000   0.69759459    -8.539172    564.40343  0.013764595  0.013132202            4 
 3418000   0.70229595    -8.530231    566.10264  0.013801995  0.013127426            5 
 3419000   0.70299856   -8.5141662    565.34288   0.01377944  0.013122654            3 
 3420000   0.71412034   -8.5236946    564.70849  0.013759954   0.01311788            4 
 3421000   0.71176126   -8.5241053    565.70984  0.013780324  0.013113109            5 
 3422000   0.69452462   -8.5349943    564.53295  0.013747637  0.013108325            7 
 3423000    0.6994109   -8.5432787    564.52683  0.013743471  0.013103544            4 
 3424000   0.69086733   -8.5228041    565.39372  0.013760556   0.01309876            8 
 3425000   0.70753357   -8.5484801    564.63131  0.013737988  0.013093978            4 
 3426000   0.69881115   -8.5610489    563.89747  0.013716128  0.013089201            2 
 3427000   0.71082721   -8.5483679    564.73117  0.013732399  0.013084414            5 
 3428000     0.694433   -8.5357344    565.69815    0.0137519  0.013079627            7 
 3429000   0.70808031   -8.5407487    565.27179  0.013737528   0.01307485            4 
 3430000   0.69998425   -8.5602124    565.15293  0.013730635  0.013070071            6 
 3431000   0.70167066   -8.5417067    563.52653   0.01368713  0.013065281            2 
 3432000   0.70118473   -8.5656209    564.02314    0.0136952  0.013060493            4 
 3433000   0.70148646   -8.5625225    562.72987  0.013659818  0.013055709            3 
 3434000   0.70753482    -8.537981    565.11512  0.013713724  0.013050929            3 
 3435000   0.71118559   -8.5580322    564.34016  0.013690931  0.013046157            4 
 3436000   0.68505753   -8.5712654    563.79551  0.013673737   0.01304138            1 
 3437000   0.69441484   -8.5644522    565.20871  0.013704023  0.013036602            3 
 3438000    0.7148866   -8.5556786    564.74208  0.013688726  0.013031838            4 
 3439000   0.70345056   -8.5475149    563.80786  0.013662108  0.013027063            6 
 3440000    0.7031948    -8.559454    563.19228  0.013643224  0.013022292            5 
 3441000   0.72041489   -8.5634985    564.73911   0.01367672  0.013017525            3 
 3442000   0.72432072   -8.5309282    564.45262   0.01366581  0.013012764            2 
 3443000   0.69758678   -8.5777025    564.12127  0.013653821  0.013007996            5 
 3444000    0.6991725   -8.5393471    565.17246  0.013675292  0.013003235            3 
 3445000   0.70560409   -8.5265563    563.86104    0.0136396  0.012998475            2 
 3446000   0.70070739   -8.5661514    563.47898  0.013626402  0.012993715            2 
 3447000   0.69175748   -8.5646898    565.04119  0.013660216  0.012988938            7 
 3448000   0.70037175   -8.5559368    564.11149  0.013633785  0.012984161            4 
 3449000   0.70145344   -8.5497438    564.67489  0.013643445  0.012979397            4 
 3450000   0.70507809   -8.5662222    564.04916  0.013624376  0.012974639            5 
 3451000   0.68904098   -8.5637504    564.19344  0.013623912  0.012969883            4 
 3452000   0.70429321   -8.5577955      564.598  0.013629732  0.012965133            3 
 3453000   0.69448977   -8.5541135    564.59629  0.013625743  0.012960395            1 
 3454000   0.70934916   -8.5646168    564.00927  0.013607635  0.012955657            6 
 3455000   0.69324599   -8.5295261    564.23115  0.013609048  0.012950922            6 
 3456000   0.71125953   -8.5453551    565.53242  0.013636488  0.012946181            3 
 3457000   0.69411532   -8.5487936    564.60871  0.013610276  0.012941455            6 
 3458000   0.70947634   -8.5562165    564.57008   0.01360541  0.012936722            2 
 3459000   0.71046353   -8.5566197    564.30474  0.013595084  0.012931992            5 
 3460000   0.71785296   -8.5449446    564.92039  0.013605982  0.012927257            3 
 3461000   0.70318596    -8.587818    564.28728  0.013586807  0.012922529            6 
 3462000   0.68830321    -8.577751    563.78332  0.013570752  0.012917784            9 
 3463000   0.69952975   -8.5663838    566.19096   0.01362477  0.012913047            5 
 3464000   0.67973759    -8.569491    564.18559  0.013572594  0.012908309            3 
 3465000   0.69471197   -8.5557796    564.17274  0.013568368  0.012903579            7 
 3466000   0.68462187   -8.5793355    563.77637  0.013554923  0.012898866            8 
 3467000   0.69496889   -8.5819443    563.32233    0.0135401   0.01289413            2 
 3468000   0.70165317   -8.5509385    564.65909  0.013568317  0.012889396            3 
 3469000    0.7001082   -8.5892443    564.23278  0.013554165  0.012884666            8 
 3470000    0.6935717   -8.5751528    563.99618  0.013544577  0.012879935            5 
 3471000   0.70653294    -8.582837    564.04383  0.013541819  0.012875211            2 
 3472000   0.70095062   -8.5794133    564.54091  0.013549849  0.012870484            4 
 3473000   0.68560587   -8.5807564    562.23231  0.013490553  0.012865751            4 
 3474000    0.7111684   -8.5684046    563.52558  0.013517693   0.01286102            7 
 3475000   0.67450605   -8.5798309    563.90995   0.01352302  0.012856289            6 
 3476000   0.69902195   -8.5595214    563.27655  0.013503945  0.012851563            5 
 3477000   0.69095353   -8.5784217     563.8007  0.013512624  0.012846843            3 
 3478000    0.7204014   -8.5577908    564.91231  0.013535373  0.012842121            5 
 3479000   0.68142829   -8.5735116    564.38146  0.013518766  0.012837395            2 
 3480000   0.70778691   -8.5971414    564.32527  0.013513536  0.012832665            4 
 3481000   0.71531364   -8.5593373    563.23806  0.013483627  0.012827942            3 
 3482000    0.6840094   -8.5906588    563.74944  0.013491993  0.012823219            3 
 3483000   0.68697747   -8.5694974    563.42212  0.013480288  0.012818493            4 
 3484000   0.69954694   -8.5647063     564.2049  0.013495142  0.012813776            3 
 3485000   0.69331283   -8.5716769    563.97317  0.013485729  0.012809079            2 
 3486000   0.69574842   -8.5579666    565.00509  0.013506528  0.012804373            3 
 3487000   0.69787006   -8.5498733    563.19526  0.013459403  0.012799676            2 
 3488000   0.68871822   -8.5872977    563.52419  0.013463403  0.012794967            2 
 3489000   0.70012477   -8.5925542    563.69574  0.013463642  0.012790252            3 
 3490000   0.70741815   -8.5715787    563.66595  0.013459072  0.012785536            5 
 3491000   0.68319639   -8.5867617    565.11711  0.013489858  0.012780821            5 
 3492000   0.69229613   -8.5833093    563.55826  0.013448794  0.012776124            6 
 3493000   0.70117002   -8.6028564    564.10487  0.013457984  0.012771427            2 
 3494000   0.68730381   -8.5888924    563.62054  0.013442581  0.012766722            4 
 3495000   0.69245551   -8.5698305    563.52834  0.013436536  0.012762021            2 
 3496000   0.68586692   -8.5747272    564.01985  0.013444409  0.012757331            3 
 3497000    0.6876087   -8.5556233    564.57897  0.013453888  0.012752644            2 
 3498000   0.69279164   -8.5475367    563.78465  0.013431119  0.012747962            3 
 3499000   0.68968542   -8.5758642    563.82891  0.013428335  0.012743286            3 
 3500000   0.68642326   -8.5505442    563.26787   0.01341114  0.012738609            4 
 3501000   0.69209472   -8.5639958     563.0268  0.013401571  0.012733928            2 
 3502000   0.69189286   -8.5601901    563.66242  0.013412869  0.012729248            5 
 3503000   0.68693066   -8.5754076    564.09662  0.013419369  0.012724572            1 
 3504000   0.69748742   -8.5627251    563.86518  0.013410036  0.012719887            7 
 3505000   0.69598369   -8.5706129     563.6001  0.013399907  0.012715206            4 
 3506000   0.69879037    -8.561797    563.82082  0.013401332  0.012710526            3 
 3507000   0.69048597   -8.5772776    564.65185  0.013417257  0.012705847            2 
 3508000   0.70385157   -8.5582533    563.67378  0.013390198  0.012701168            2 
 3509000   0.69378041   -8.5848096    563.86051  0.013390817   0.01269649            2 
 3510000   0.71097851   -8.6122654    562.78097  0.013361372  0.012691814            6 
 3511000   0.69276027   -8.5746647    564.64176  0.013401732  0.012687131            5 
 3512000   0.69430371   -8.5953804    563.91403  0.013380648  0.012682464            3 
 3513000   0.70059318      -8.5743    564.38168  0.013387932   0.01267779            6 
 3514000   0.69021367   -8.5555245    564.40926  0.013384777  0.012673117           12 
 3515000   0.69527241   -8.5912873    563.75489  0.013365455  0.012668446            8 
 3516000   0.69369455   -8.5896516    564.03042  0.013368184  0.012663784           12 
 3517000   0.68366746   -8.5807509    564.16056  0.013367467  0.012659118            4 
 3518000   0.70081826   -8.5837868    563.92792  0.013358156  0.012654468            5 
 3519000   0.68077415   -8.5856305    563.34954  0.013340664  0.012649803            8 
 3520000   0.66382753   -8.5967745    564.05777   0.01335364  0.012645145            9 
 3521000   0.70502682   -8.6048157     563.7429  0.013342396  0.012640476           17 
 3522000   0.67776685   -8.6022259    562.87263  0.013318016  0.012635808            7 
 3523000   0.70006413   -8.5803615    562.07398  0.013295344  0.012631135           18 
 3524000     0.683173   -8.5994383    562.84698  0.013309851  0.012626471           21 
 3525000   0.68331867   -8.6023168    563.00428  0.013309794  0.012621808            2 
 3526000   0.69687904   -8.5997437    563.04585  0.013307001  0.012617161            3 
 3527000   0.69292066    -8.580419    564.33075  0.013333587  0.012612506            4 
 3528000    0.6833511   -8.5639937    564.04918  0.013323157  0.012607865            3 
 3529000   0.68287127   -8.5853245    564.00637  0.013318371   0.01260322            5 
 3530000   0.68362554   -8.5893735    563.90675  0.013312246  0.012598567            5 
 3531000   0.69606425   -8.6108536    564.23381  0.013316195  0.012593912            3 
 3532000   0.68798751   -8.6197496    562.83813  0.013279495  0.012589254            1 
 3533000   0.67829512   -8.6028947    563.15265  0.013283155  0.012584607            2 
 3534000   0.69272557   -8.6280295    563.51364  0.013287909  0.012579965            3 
 3535000   0.68873869   -8.6190645    563.23068  0.013277479  0.012575325            1 
 3536000   0.67693906   -8.5770086     563.8826  0.013289088  0.012570679            1 
 3537000   0.69646417   -8.6050919    563.51861  0.013276756  0.012566038            4 
 3538000   0.67369659   -8.6065305    563.28587  0.013267521  0.012561395            3 
 3539000   0.67582769   -8.6145866    563.15046  0.013260583  0.012556751            2 
 3540000   0.69449782   -8.5795778    563.01937  0.013253752  0.012552112            3 
 3541000   0.67312867   -8.6030556     563.2609  0.013255693  0.012547483            5 
 3542000   0.68887233   -8.5837032    563.73801  0.013263175  0.012542849            4 
 3543000   0.69085208   -8.6012848      562.946  0.013240804  0.012538217            3 
 3544000   0.67509918    -8.600903    563.73179  0.013255544  0.012533589            4 
 3545000    0.6776355   -8.6164203    563.13983   0.01323789  0.012528964            3 
 3546000    0.6811454   -8.5937014     564.3343  0.013262227   0.01252434            3 
 3547000   0.66609963   -8.6049378    563.33329  0.013234971  0.012519719            2 
 3548000   0.68092732   -8.6256646    562.80285  0.013218782  0.012515094            2 
 3549000   0.68060122    -8.602074    563.57659  0.013233225  0.012510467            3 
 3550000    0.6751895   -8.5917122    564.18113  0.013243689  0.012505852            3 
 3551000   0.69430009   -8.5976091     564.2132  0.013240712  0.012501248            3 
 3552000   0.71629925   -8.5992969    563.25053  0.013214399  0.012496642            2 
 3553000   0.69745972   -8.6291731    563.32091   0.01321233  0.012492043            3 
 3554000   0.67616424   -8.6080811    564.34004  0.013232509  0.012487443            2 
 3555000   0.68837093   -8.6012847    564.16139  0.013224599   0.01248284            4 
 3556000   0.68967353   -8.6134824    562.67034  0.013185938  0.012478242            3 
 3557000   0.67003546   -8.6232389       564.15  0.013216896  0.012473646            2 
 3558000   0.69363263   -8.5866284     563.8803  0.013206865  0.012469049            3 
 3559000   0.68712383   -8.6168368    563.47225    0.0131936  0.012464456            4 
 3560000   0.66034896   -8.6182004    563.12338  0.013181727  0.012459867            2 
 3561000   0.69284961   -8.6359579    562.66651  0.013167334  0.012455265            1 
 3562000   0.67526713   -8.6048365     562.2733  0.013154438  0.012450671            3 
 3563000   0.66316808   -8.6081749    563.27071  0.013174074  0.012446083            3 
 3564000   0.68314921   -8.5810942    562.96153  0.013163148  0.012441491            4 
 3565000   0.68004108   -8.6135712    563.85853  0.013180424  0.012436905            3 
 3566000   0.67439194   -8.5856412     563.1414  0.013159969  0.012432314            6 
 3567000   0.67937444   -8.6393661    562.98935  0.013152727  0.012427724            1 
 3568000   0.67648258   -8.6234705    563.51953  0.013161424  0.012423141            2 
 3569000   0.67601948   -8.5919233    563.72842  0.013162614  0.012418557            3 
 3570000   0.69606275   -8.6147187     562.9931  0.013141762  0.012413978            5 
 3571000   0.67610292   -8.6013999    563.69962   0.01315457  0.012409408            2 
 3572000   0.66675284   -8.6432259    563.35447  0.013142835  0.012404834            4 
 3573000   0.66918943    -8.623135    563.03022  0.013131594  0.012400263            3 
 3574000   0.68715565   -8.6020762     563.5043  0.013138974  0.012395695            3 
 3575000   0.67721439   -8.5825367     562.9616  0.013122648  0.012391132            3 
 3576000   0.67756824   -8.6167573    563.73079  0.013136903  0.012386565            3 
 3577000   0.67269808   -8.5871713    562.75371  0.013110468  0.012381999            9 
 3578000   0.66849723   -8.5935368    563.39216  0.013121673  0.012377429            2 
 3579000   0.67486831   -8.6160503    563.28051  0.013115407  0.012372863            4 
 3580000   0.68403507   -8.5998264    563.71891  0.013121949  0.012368295            2 
 3581000   0.67912982   -8.6304178    563.82468  0.013120746  0.012363743            9 
 3582000   0.68885617   -8.6274105    563.56297  0.013110994  0.012359184            5 
 3583000   0.66108773   -8.6065975    562.81157  0.013089859  0.012354626            4 
 3584000   0.66256512   -8.6312406    562.43937  0.013077552   0.01235007            8 
 3585000   0.66412754   -8.6113203    562.89314  0.013084452  0.012345515            6 
 3586000   0.67042808   -8.6049834    562.34055  0.013067962   0.01234096            6 
 3587000   0.68903635   -8.6253529    562.80973  0.013075219  0.012336413            3 
 3588000   0.67512142   -8.6047917    562.59756  0.013066647  0.012331872            4 
 3589000   0.67948336   -8.5909274    563.71073  0.013088853  0.012327331            5 
 3590000   0.67923014   -8.6275164    564.07392  0.013093638  0.012322788            9 
 3591000   0.66882169   -8.6168837    564.19194  0.013092731  0.012318247            1 
 3592000   0.68082306    -8.603914    562.84715  0.013057887  0.012313706            5 
 3593000   0.67506866   -8.6057446     563.8352  0.013077169  0.012309175            3 
 3594000   0.68625307   -8.5906815    564.50613  0.013089087  0.012304642            5 
 3595000   0.68176694   -8.6104087    563.97373  0.013073105  0.012300104            3 
 3596000   0.67905267   -8.6303215    563.45694  0.013057493   0.01229558           10 
 3597000   0.68259546   -8.6206588    563.44125    0.0130535  0.012291057            4 
 3598000   0.67638994   -8.6147839    564.79829  0.013081302  0.012286532           10 
 3599000   0.66439982   -8.6241877    562.57668  0.013026227  0.012282001            6 
 3600000   0.68696866   -8.6156195    562.82543  0.013028366  0.012277465            2 
 3601000   0.67118618   -8.6233849    562.70342  0.013021925  0.012272935            2 
 3602000   0.67565602   -8.6414844      561.459   0.01298952  0.012268393            4 
 3603000   0.66601809    -8.635186    562.59008  0.013012075  0.012263857            3 
 3604000   0.66590565   -8.6228715    564.10613   0.01304352  0.012259322            9 
 3605000    0.6508023   -8.6420447    562.62126  0.013005577  0.012254784            2 
 3606000   0.66627367   -8.6031796      562.933  0.013009175  0.012250249            4 
 3607000   0.66329286   -8.6308753    562.39473  0.012993132   0.01224572            6 
 3608000   0.68786036   -8.6481445    562.74258  0.012997565  0.012241205            3 
 3609000   0.68042916   -8.6242239    563.51442  0.013011786   0.01223668            2 
 3610000   0.67487794    -8.649791    562.94419  0.012995018  0.012232162            2 
 3611000   0.66772084   -8.6233958     563.9202  0.013013943  0.012227645            1 
 3612000   0.66628153   -8.6325204     562.2399  0.012971574  0.012223124            3 
 3613000   0.68201598    -8.607117    563.34998  0.012993587  0.012218605            2 
 3614000   0.67726087   -8.6282368     563.2612  0.012987945  0.012214112            2 
 3615000   0.68910164   -8.6365318    563.89723  0.012999014  0.012209604            2 
 3616000   0.67880979   -8.6155897    563.95861  0.012996834  0.012205104            2 
 3617000    0.6845695   -8.6370383    562.32383  0.012955576  0.012200591            1 
 3618000   0.67636143   -8.6408766    563.08266  0.012969473  0.012196086            2 
 3619000   0.67633363   -8.6390444    563.05193  0.012965182  0.012191574            2 
 3620000   0.68744677   -8.6421489    563.69068  0.012976305  0.012187065            3 
 3621000   0.67131343   -8.6248876    563.35201  0.012964927  0.012182556            2 
 3622000    0.6792013   -8.6496163     563.1929  0.012957687  0.012178049            7 
 3623000   0.66377715   -8.6413832    561.92784  0.012925012  0.012173547            3 
 3624000   0.66147129   -8.6594946    562.81197  0.012941776  0.012169043            6 
 3625000   0.66774952    -8.635265    562.92782  0.012940869  0.012164541            2 
 3626000   0.66280739     -8.62104    562.79729  0.012934301  0.012160043            3 
 3627000   0.67003141   -8.6292655    563.28148  0.012941859  0.012155549            3 
 3628000   0.67403243   -8.6568583    562.80376  0.012927319   0.01215105            3 
 3629000   0.68235217   -8.6590257     562.7013  0.012921404  0.012146556            7 
 3630000   0.68140615    -8.662448    561.33279  0.012886428  0.012142056            2 
 3631000   0.67975971   -8.6710267    562.93546  0.012919661  0.012137559            3 
 3632000   0.65258555   -8.6594224    560.93346  0.012870169  0.012133065            4 
 3633000   0.68923898   -8.6462963    562.29132  0.012897773  0.012128576            4 
 3634000   0.68014213   -8.6453654    563.24497  0.012916093   0.01212409            1 
 3635000   0.65304998    -8.644867    562.14718  0.012887372  0.012119599            5 
 3636000   0.65484832   -8.6542529    562.63197  0.012894939  0.012115106            2 
 3637000   0.67310363   -8.6737403    561.51017   0.01286569  0.012110609            4 
 3638000   0.67341054    -8.671094     562.5708  0.012886449  0.012106106            3 
 3639000   0.68120543   -8.6589211    561.94064  0.012868477  0.012101616            5 
 3640000   0.66238047   -8.6722853    561.80456  0.012861826  0.012097123           12 
 3641000   0.67110388   -8.6581143    561.95855  0.012861818  0.012092627            3 
 3642000   0.67485955   -8.6697319    562.62074  0.012873438  0.012088137            7 
 3643000   0.66931756   -8.6700743    563.06712  0.012880115  0.012083655            2 
 3644000   0.66106911   -8.6585045    561.34487  0.012837195  0.012079177            2 
 3645000   0.66748113   -8.6648799    561.64559  0.012840548  0.012074693            3 
 3646000   0.66790018   -8.6733811     563.1089  0.012870472  0.012070218            5 
 3647000   0.67050635   -8.6494891    562.34184  0.012849416  0.012065735            5 
 3648000    0.6624792   -8.6615678    562.18621  0.012842339  0.012061253            4 
 3649000   0.67079283    -8.675334    562.91414  0.012855443  0.012056771            7 
 3650000   0.66089984   -8.6630761    563.96027  0.012875805  0.012052307            3 
 3651000   0.64817359   -8.6621601    562.76433  0.012844982  0.012047832            8 
 3652000   0.66018983   -8.6623404    561.81636  0.012819833  0.012043371            3 
 3653000   0.66898525    -8.675585    562.74146  0.012837427   0.01203891            1 
 3654000   0.65883085   -8.6657411    562.51163  0.012828673  0.012034452            5 
 3655000   0.66073078    -8.681363    561.71848  0.012807079  0.012029996            6 
 3656000   0.65909513   -8.6733569    563.25165  0.012838522  0.012025536            3 
 3657000   0.67475544   -8.6742123    562.62914  0.012820826  0.012021083            4 
 3658000   0.65208392   -8.6605958    563.80674  0.012844149  0.012016629            5 
 3659000   0.65694072   -8.6490425    564.12014  0.012847776  0.012012197            1 
 3660000   0.67310987    -8.663988    562.43159  0.012805819  0.012007758            7 
 3661000   0.67319964   -8.6520516    562.81065   0.01281095  0.012003327            4 
 3662000   0.66102918   -8.6467933    563.44768  0.012821948  0.011998896            4 
 3663000   0.66239975    -8.659582    562.63874  0.012800044  0.011994471            5 
 3664000   0.64361332   -8.6555467    563.04331  0.012805752  0.011990043            3 
 3665000   0.66189084   -8.6592921    562.48274  0.012789512  0.011985619            2 
 3666000   0.65785402   -8.6538951    562.10256  0.012777381  0.011981188            3 
 3667000   0.66782349    -8.683321    562.87448  0.012791439  0.011976753            5 
 3668000   0.64957833   -8.6754717    562.41893  0.012777602   0.01197232            3 
 3669000   0.65978828   -8.6641682    562.20852   0.01276934  0.011967881            3 
 3670000   0.67847438   -8.6488667    562.64381  0.012775745  0.011963457            3 
 3671000   0.65133084   -8.6724447    561.40162  0.012744067  0.011959029            5 
 3672000   0.67366901   -8.6680848    562.40805  0.012763436  0.011954597            3 
 3673000   0.65255998   -8.6615126     562.2152  0.012755586  0.011950176            4 
 3674000    0.6645265    -8.675102    561.30263  0.012731415  0.011945756            3 
 3675000   0.66712139   -8.6903681    562.12921  0.012746694  0.011941336            4 
 3676000    0.6614471   -8.6710674    563.33535  0.012770569  0.011936922            2 
 3677000   0.67742033   -8.6865592    561.73872  0.012730911  0.011932512            1 
 3678000   0.68435145   -8.6607382    562.72786  0.012749861   0.01192809            4 
 3679000   0.66586117   -8.6732916    561.73927  0.012724003   0.01192368            3 
 3680000   0.67407071   -8.6832638     561.6834   0.01271928  0.011919267            2 
 3681000    0.6605435   -8.6877004    561.74009  0.012717108  0.011914859            5 
 3682000   0.66416873   -8.6620467    561.24629  0.012702478  0.011910446            7 
 3683000   0.65736369   -8.6652742    561.57938  0.012706566  0.011906036            3 
 3684000   0.66725868   -8.6750711    561.67212  0.012705215  0.011901636            7 
 3685000    0.6546997   -8.6695435    562.13794  0.012712301  0.011897239            3 
 3686000   0.66423143   -8.6528564    562.43311  0.012715525  0.011892848            2 
 3687000   0.67340894   -8.6867596    562.96715  0.012724147  0.011888461            5 
 3688000   0.66470604    -8.654909    561.97978  0.012698386   0.01188407            4 
 3689000   0.66527317   -8.6665441    562.11925  0.012698095  0.011879677            2 
 3690000   0.66108793   -8.6623948    562.38769  0.012700716   0.01187529            4 
 3691000   0.65726221   -8.6805083    561.91663  0.012686639  0.011870908            9 
 3692000   0.65003562   -8.6740037    562.75588  0.012702146  0.011866525            5 
 3693000   0.66288959   -8.6476921    560.68122  0.012651891  0.011862141            3 
 3694000    0.6589436   -8.6535599    562.35579  0.012686243  0.011857761            5 
 3695000   0.66770084     -8.66434    562.53566  0.012686866  0.011853378            2 
 3696000    0.6654017   -8.6885043    562.08961  0.012673377  0.011848993            2 
 3697000    0.6575736   -8.6915018    562.55118  0.012680353  0.011844615            4 
 3698000   0.67669503   -8.6566234    563.24587  0.012692579  0.011840239            1 
 3699000   0.66196658   -8.6610684     563.3837  0.012692252   0.01183587            4 
 3700000   0.66764694   -8.6727568    562.63924  0.012672055  0.011831505            2 
 3701000   0.65976174   -8.6868454    560.98091  0.012631291  0.011827134            5 
 3702000   0.65619352   -8.6746001    561.45961  0.012638655  0.011822764            6 
 3703000   0.66197068   -8.6771195    562.09089  0.012649448   0.01181839            2 
 3704000   0.66528016    -8.678156    563.16266  0.012670146  0.011814024            1 
 3705000    0.6534082   -8.6764999    562.86428  0.012660015   0.01180966            3 
 3706000   0.64010611   -8.6678938    562.07512  0.012638854  0.011805304            2 
 3707000   0.65267362   -8.6823629    562.37992  0.012642296  0.011800944            2 
 3708000   0.64847262   -8.6728278    562.52185  0.012642077  0.011796591            6 
 3709000    0.6626354   -8.6616471    563.25018  0.012655032  0.011792238            3 
 3710000   0.64369546   -8.6681303    563.01389  0.012646314  0.011787888            6 
 3711000    0.6548152   -8.6814626    562.40571  0.012629249   0.01178354            3 
 3712000    0.6584804   -8.6683014    563.03293  0.012639927  0.011779194            3 
 3713000   0.67126946   -8.6864053    562.31869  0.012620493  0.011774843            3 
 3714000   0.65590404   -8.6782121    562.41765  0.012619315  0.011770495            2 
 3715000   0.64518131   -8.6700786    561.94762  0.012605375  0.011766149            5 
 3716000   0.65302711   -8.6719697    562.44777  0.012613199  0.011761796            4 
 3717000   0.65752422   -8.6760048    562.02677  0.012600367  0.011757445            6 
 3718000   0.65084083   -8.7056705    562.30076  0.012603119  0.011753094            6 
 3719000   0.63389805   -8.6929552    561.79193  0.012588329  0.011748744            5 
 3720000   0.64425441   -8.6734545    562.53466  0.012601583  0.011744401            5 
 3721000   0.66293318   -8.6714147    561.52434   0.01257557  0.011740059            6 
 3722000   0.65169041   -8.6849694    562.11694  0.012585459  0.011735725            3 
 3723000   0.66346371   -8.7003819    561.38967    0.0125658  0.011731386            5 
 3724000    0.6528891   -8.7108454    562.84786  0.012595056  0.011727046            4 
 3725000   0.64986952   -8.6911633    562.41671  0.012582029  0.011722706            3 
 3726000   0.65642491   -8.6757601    561.91095  0.012567341  0.011718384            7 
 3727000   0.66046364    -8.684843    561.64821  0.012558094   0.01171405            3 
 3728000   0.63949502   -8.6679171    561.88648  0.012560052  0.011709713            4 
 3729000   0.65964726   -8.6925478    562.28894  0.012565678  0.011705379            5 
 3730000   0.64947486   -8.6910544    561.23993  0.012538872  0.011701049            7 
 3731000   0.67031172   -8.6899125    562.85549  0.012571596  0.011696715            3 
 3732000   0.64075922   -8.6979626    563.35226   0.01257932  0.011692383            6 
 3733000   0.65916465   -8.6814805    561.75862  0.012540374  0.011688063            4 
 3734000   0.65581165   -8.6853222    561.40812  0.012529194  0.011683739            4 
 3735000   0.64622217   -8.6906611    560.91385  0.012514812  0.011679413            2 
 3736000   0.64650841   -8.6778952    562.37207  0.012543988  0.011675085            2 
 3737000   0.64232872   -8.6595051    562.46411  0.012542684   0.01167076            4 
 3738000   0.64803008   -8.7104392    562.41439   0.01253822  0.011666447            6 
 3739000   0.66161093    -8.684547    562.01446  0.012525953  0.011662128            4 
 3740000   0.65658329   -8.6892254    561.70755  0.012515765  0.011657811            3 
 3741000   0.64784494    -8.681404    561.24372  0.012502088  0.011653497            3 
 3742000   0.64724614   -8.6958245    561.79457  0.012511014  0.011649192            3 
 3743000   0.66391817   -8.6852555    562.57207  0.012524982  0.011644884            7 
 3744000    0.6443218    -8.693668    561.40713  0.012495707  0.011640574            2 
 3745000   0.66216493   -8.6646343    561.39129  0.012492018  0.011636272            3 
 3746000   0.63153729   -8.6835368     560.8182  0.012475934  0.011631971           10 
 3747000   0.65163966   -8.7081421    561.07254  0.012478261  0.011627671            7 
 3748000    0.6335039   -8.6737695    561.18676  0.012477472  0.011623366            4 
 3749000   0.64649907   -8.6989126    561.10869  0.012472408  0.011619068            3 
 3750000   0.64484545   -8.6938567    562.34769  0.012496615  0.011614768           13 
 3751000   0.63616649   -8.6862783    561.24427   0.01246877  0.011610479            8 
 3752000    0.6427965   -8.6894273    562.06903  0.012483765  0.011606186           10 
 3753000   0.65256461   -8.6914372    562.81269  0.012496951  0.011601901            5 
 3754000   0.64565379   -8.6714699    562.32534  0.012482804  0.011597623            5 
 3755000   0.65820848   -8.6900996    561.89675  0.012469968  0.011593341            2 
 3756000   0.64972741   -8.6775462    562.08196  0.012470757  0.011589066            4 
 3757000   0.66449389   -8.6728294     562.3046  0.012472376  0.011584783            2 
 3758000   0.65053801   -8.6813138    561.45802  0.012450284  0.011580502            2 
 3759000   0.64050621   -8.6790154    561.78544  0.012454231  0.011576225            5 
 3760000   0.64862807     -8.68697    562.49636  0.012466675  0.011571951            3 
 3761000   0.63810041   -8.6931867    562.19823  0.012456754   0.01156767            5 
 3762000   0.65691803   -8.6735809    562.55728  0.012461396  0.011563393            3 
 3763000   0.65813372     -8.68039    561.30184  0.012430283  0.011559118            2 
 3764000   0.64427514   -8.7016857    561.36398  0.012428356  0.011554853            6 
 3765000   0.65802683   -8.6918505    562.05932  0.012440445  0.011550584            2 
 3766000   0.63749145    -8.669044    562.21443  0.012440574  0.011546313            3 
 3767000   0.64371681   -8.6839103    561.92749  0.012430924  0.011542043            2 
 3768000   0.64962127   -8.6848544    562.97218  0.012450729  0.011537776            4 
 3769000   0.64191171   -8.6712244    561.54271   0.01241582  0.011533511            6 
 3770000   0.65833318   -8.6840233    561.55684  0.012412839  0.011529241            2 
 3771000   0.64230142   -8.6952195    562.17332  0.012423171  0.011524979            1 
 3772000   0.64350616   -8.6917729    561.36399  0.012401997  0.011520718            3 
 3773000    0.6371502   -8.6759653    561.86041  0.012409674  0.011516452            3 
 3774000   0.63032254   -8.6835247    560.88065  0.012384752   0.01151219            5 
 3775000   0.64420261   -8.6854191    561.28293  0.012390352  0.011507929            8 
 3776000   0.64434716    -8.669496    561.21552  0.012385583  0.011503666            5 
 3777000    0.6527218   -8.7184348    561.28723  0.012383886  0.011499412            7 
 3778000   0.62327898   -8.6959613    562.77905  0.012413514  0.011495161            7 
 3779000   0.63803124   -8.6936964      561.714  0.012386743  0.011490909            8 
 3780000    0.6422209   -8.6931883    560.77166  0.012362691  0.011486664            9 
 3781000   0.63390352   -8.7039363    560.83703  0.012360862  0.011482422            9 
 3782000   0.66143615   -8.6895413    561.34396  0.012368764  0.011478183            3 
 3783000   0.64032166   -8.6744953    562.68939  0.012395132  0.011473936            6 
 3784000   0.65046064   -8.7090364    562.02209   0.01237716   0.01146969            8 
 3785000   0.65351564   -8.6905122    561.70522  0.012366914  0.011465451            5 
 3786000   0.64735083   -8.6833507     561.3491  0.012355809  0.011461212           11 
 3787000   0.64575513   -8.7120743    561.19103  0.012349068  0.011456973            9 
 3788000   0.64398548   -8.6788481    561.76741  0.012358488  0.011452734            4 
 3789000   0.64609157   -8.6937239     562.4904  0.012371127  0.011448496           17 
 3790000   0.63241816   -8.7150536     561.9244  0.012355418  0.011444259           11 
 3791000   0.65127846   -8.7058225    561.44941  0.012341717  0.011440029            8 
 3792000   0.63955747    -8.707798    561.17961  0.012332534   0.01143579           17 
 3793000   0.63828731   -8.6963474    562.63948  0.012361356  0.011431561            8 
 3794000    0.6453182   -8.7030932    560.97871   0.01232162  0.011427329            9 
 3795000   0.64502052     -8.70068    561.30802  0.012325604  0.011423103            4 
 3796000   0.65583718   -8.7206339    561.16276  0.012319168  0.011418875            5 
 3797000   0.66291231   -8.7073872    562.14583    0.0123375  0.011414651            8 
 3798000   0.64955748   -8.6860592    561.63084  0.012322952  0.011410424            5 
 3799000   0.64464781   -8.6985814    561.55919  0.012318136  0.011406206            8 
 3800000   0.65132588   -8.7130179    561.33943  0.012310075  0.011401993            9 
 3801000   0.64141792   -8.6809676    561.11693  0.012301959  0.011397785           16 
 3802000   0.64147707   -8.7254913     560.6462  0.012288405  0.011393576           15 
 3803000   0.63472478    -8.720409    559.89272  0.012268663  0.011389356           11 
 3804000    0.6516394    -8.697343    562.00833  0.012311784  0.011385145            9 
 3805000   0.64499978   -8.6938738    561.28446  0.012292695  0.011380939            4 
 3806000   0.63969538   -8.7163981    560.84555  0.012279855  0.011376727            3 
 3807000   0.65344527   -8.6993259     561.2003  0.012284395  0.011372522           12 
 3808000   0.63905115    -8.706896    561.16609   0.01228042  0.011368313            8 
 3809000    0.6323851   -8.7136017    560.62839  0.012265433  0.011364114            9 
 3810000   0.64892749   -8.7065762     560.9476  0.012269195  0.011359913            7 
 3811000   0.63151834   -8.7104714     561.5158    0.0122784  0.011355708            6 
 3812000   0.62606161   -8.7019284    561.11031  0.012266315  0.011351505            5 
 3813000   0.63790634   -8.7244081    559.98349  0.012238471  0.011347303            6 
 3814000   0.64725017   -8.7316925     561.7188  0.012273178  0.011343099            3 
 3815000   0.65095237   -8.7414093    560.01984  0.012232849  0.011338897           19 
 3816000   0.63415473     -8.70842    561.89138  0.012270514  0.011334699           16 
 3817000   0.63679934   -8.7222052    560.31657  0.012232918  0.011330502            7 
 3818000   0.63609558    -8.711202    560.23309  0.012227892  0.011326309            8 
 3819000   0.64109182   -8.7263698    561.93528  0.012261833  0.011322114           10 
 3820000   0.61903272   -8.7089532    561.10227  0.012240451  0.011317921            8 
 3821000   0.64617727   -8.7149496    560.97275  0.012234423  0.011313728            8 
 3822000   0.62044131   -8.7293471    561.24777  0.012237218  0.011309529            2 
 3823000   0.63611135   -8.7437492    560.67323  0.012221493   0.01130534            6 
 3824000   0.64090008   -8.7087905     560.6206  0.012217151  0.011301153            3 
 3825000   0.63941139   -8.7225971    560.36773  0.012208447   0.01129697            4 
 3826000   0.63331793   -8.7157563    560.83928  0.012215527  0.011292792            4 
 3827000   0.64925596     -8.72293    560.12676   0.01219682  0.011288614            3 
 3828000    0.6430032   -8.7304285    560.24708  0.012196253  0.011284435            3 
 3829000   0.64048842   -8.7078042     559.7828  0.012182963  0.011280257            2 
 3830000   0.65170082   -8.7376953    561.31798  0.012213185  0.011276074            8 
 3831000   0.63600282   -8.7346779    560.78408  0.012198383  0.011271897            6 
 3832000    0.6358439   -8.7213389    560.81093  0.012195784  0.011267721           12 
 3833000   0.63512106   -8.7101288    561.32195  0.012203712  0.011263555           10 
 3834000   0.62793499   -8.7168967    561.56154  0.012205737  0.011259378            2 
 3835000   0.63050723   -8.7212401      562.228  0.012217036  0.011255208            5 
 3836000   0.64893699   -8.7206166    561.09997  0.012189346  0.011251045            8 
 3837000    0.6412761   -8.7311979     561.1429  0.012187101  0.011246878            5 
 3838000   0.62879721   -8.7282622    560.87057  0.012178013  0.011242716            5 
 3839000   0.63880754   -8.7364674    562.14521  0.012202509  0.011238563            5 
 3840000   0.64329491   -8.7220324     561.3613   0.01218232   0.01123441            7 
 3841000   0.62245578   -8.7326606    560.45665  0.012159521  0.011230254            5 
 3842000   0.64444954   -8.7512416    560.60186  0.012159506  0.011226102            4 
 3843000   0.63488621   -8.7160081    562.10602  0.012188959  0.011221955            3 
 3844000   0.63819383   -8.7312441    561.57858  0.012174353  0.011217807            8 
 3845000   0.64088557   -8.7187018    561.62263  0.012172142   0.01121366            4 
 3846000   0.62802166   -8.7173608    561.21964  0.012160245  0.011209515            5 
 3847000   0.64442305   -8.7273449    561.35931   0.01216011  0.011205374            9 
 3848000   0.64964522   -8.7163946    560.55213  0.012139469   0.01120124           13 
 3849000   0.62849043   -8.7115949    561.07135  0.012147557  0.011197103            8 
 3850000    0.6446551   -8.7064261     560.9436  0.012141636  0.011192962            6 
 3851000   0.62027455   -8.7292491    561.32313  0.012146696   0.01118883            4 
 3852000   0.63413246    -8.711727    561.46271  0.012146563  0.011184694            3 
 3853000   0.63688923   -8.7263376    559.92364  0.012110123  0.011180562           11 
 3854000    0.6272342    -8.735694    560.04253  0.012109551  0.011176432            4 
 3855000   0.63384411   -8.7170464    560.88193  0.012124555   0.01117231            3 
 3856000   0.62947865   -8.7086127    561.33326  0.012131165  0.011168188            6 
 3857000    0.6414856   -8.7378025    560.19091  0.012103338  0.011164059            5 
 3858000   0.63525098   -8.7334931    560.31532  0.012102888  0.011159928           10 
 3859000   0.63022285   -8.7412167    560.14678  0.012096113  0.011155798           10 
 3860000   0.62300564   -8.7351098    560.38492   0.01209812  0.011151674           14 
 3861000   0.65556345    -8.735353    560.55136  0.012098579   0.01114755           17 
 3862000   0.63263926    -8.721233    561.53931  0.012116764  0.011143427           11 
 3863000   0.62788797   -8.7226292    560.96108  0.012101154  0.011139304            5 
 3864000   0.61968393   -8.7420781    559.45482  0.012065537  0.011135179           11 
 3865000   0.62603463   -8.7543988    559.08168   0.01205437  0.011131057           14 
 3866000   0.62295142   -8.7479062    560.23426  0.012076096  0.011126937           18 
 3867000   0.63471059   -8.7353585     560.2336  0.012072959  0.011122827            8 
 3868000   0.64103841   -8.7361229     561.0923  0.012088338  0.011118711           13 
 3869000   0.62684674   -8.7176236    561.68016  0.012097876  0.011114599           11 
 3870000   0.63137421   -8.7350298    560.63217  0.012072183  0.011110483           15 
 3871000   0.62905438     -8.74911    559.76659   0.01205043  0.011106372            6 
 3872000   0.61959151   -8.7410669    560.00539  0.012052458  0.011102261           13 
 3873000   0.63745027   -8.7398157    559.18012  0.012031589  0.011098151            7 
 3874000   0.63337728   -8.7414263    561.39398  0.012076105   0.01109404            8 
 3875000   0.63218111   -8.7361005    561.00334  0.012064588  0.011089935           12 
 3876000   0.63991032    -8.743805    560.63877  0.012053637  0.011085828            9 
 3877000   0.63707174   -8.7342677     560.9345  0.012056885  0.011081724           11 
 3878000   0.63318669   -8.7614577    560.95224  0.012054157  0.011077617           15 
 3879000   0.63107171   -8.7352832    560.97833   0.01205161  0.011073514            9 
 3880000   0.61642978    -8.733053    560.12055  0.012030081  0.011069418            8 
 3881000   0.64124902    -8.729363     560.5819  0.012036887  0.011065322            2 
 3882000   0.62992621   -8.7497524    561.21494  0.012047375  0.011061224            3 
 3883000   0.64931697   -8.7471574    561.10931  0.012042006  0.011057129            4 
 3884000   0.63931308   -8.7481396    561.52701  0.012047868  0.011053037            5 
 3885000   0.64208615   -8.7615359    559.50674  0.012001431  0.011048947           10 
 3886000   0.63259261   -8.7504443    560.51608  0.012019988  0.011044853            3 
 3887000   0.63553749   -8.7400559     560.2637  0.012011485  0.011040768            4 
 3888000   0.62309525   -8.7368077    561.05532  0.012025363  0.011036684            4 
 3889000   0.62274493   -8.7316574    561.13789   0.01202404    0.0110326            3 
 3890000   0.62316391    -8.719948    560.36338  0.012004357  0.011028525            3 
 3891000   0.62875558   -8.7202637    561.23824  0.012020009  0.011024446            4 
 3892000   0.65111135   -8.7415766    560.03688  0.011991197  0.011020367            1 
 3893000    0.6221356   -8.7572508    560.33356  0.011994468  0.011016289            2 
 3894000   0.62572185   -8.7551952     560.2345  0.011989268  0.011012211            2 
 3895000   0.63651047   -8.7261337    560.22645  0.011986017   0.01100814            3 
 3896000   0.63048055   -8.7324532    560.19985  0.011982372  0.011004071            2 
 3897000   0.62620464   -8.7456987    559.35867  0.011961309  0.011000005            6 
 3898000     0.601075   -8.7510129    560.28909  0.011978132   0.01099594            6 
 3899000   0.62792344    -8.763578    560.02009   0.01196931  0.010991868           11 
 3900000   0.61097025   -8.7358648    561.15637  0.011990521  0.010987799            4 
 3901000   0.63751142   -8.7404098     560.9838  0.011983761  0.010983726           13 
 3902000   0.62520854   -8.7391713    559.68636   0.01195298  0.010979662            9 
 3903000   0.63602221   -8.7489451    559.79171  0.011952167    0.0109756            9 
 3904000   0.61429061   -8.7375394    560.48207  0.011963842  0.010971546            8 
 3905000   0.63537054   -8.7742075    560.50569  0.011961282  0.010967494            9 
 3906000   0.63261419    -8.727774    560.75501  0.011963539  0.010963443            9 
 3907000   0.62600327   -8.7545507    559.88594  0.011941941  0.010959392           10 
 3908000   0.63099009    -8.749524    559.72206   0.01193539  0.010955341           11 
 3909000    0.6238402   -8.7276938    560.59547  0.011950957    0.0109513            9 
 3910000   0.64132796    -8.754881    560.44654  0.011944726  0.010947251           12 
 3911000   0.63149167    -8.749467    560.34287  0.011939463   0.01094321            7 
 3912000   0.62265385   -8.7585442    560.18514  0.011933051   0.01093917            9 
 3913000   0.63093205   -8.7338402    560.48936   0.01193648   0.01093513            7 
 3914000   0.62573136   -8.7447298    560.14466  0.011926091  0.010931087           11 
 3915000   0.63597685   -8.7512204    559.62312  0.011911944  0.010927052            7 
 3916000   0.63183029    -8.753527    561.51006  0.011949057  0.010923017            5 
 3917000   0.61533054    -8.742368    560.81828  0.011931288  0.010918979            3 
 3918000   0.62993583   -8.7485433    560.41594  0.011919686  0.010914944            3 
 3919000   0.63227183   -8.7516258    560.14513  0.011910886  0.010910907            3 
 3920000   0.61711888   -8.7580646     560.7161  0.011919985  0.010906875            3 
 3921000   0.62288459    -8.760013    559.69462  0.011895235  0.010902839            8 
 3922000   0.61118846   -8.7665254    560.23281  0.011903638  0.010898804            5 
 3923000   0.63209758   -8.7282474    559.75576   0.01189047  0.010894776            2 
 3924000   0.63679115   -8.7552225    559.98839   0.01189238  0.010890745            4 
 3925000     0.624883   -8.7473609    560.13751  0.011892516  0.010886716            3 
 3926000   0.61830927   -8.7227205     560.3781  0.011894594  0.010882694            2 
 3927000   0.63048752   -8.7749973     558.7572  0.011857168  0.010878668            3 
 3928000   0.61472135   -8.7687028     559.3038  0.011865746  0.010874637            4 
 3929000   0.61740588   -8.7798017    559.49969  0.011866881  0.010870608            2 
 3930000   0.63288717   -8.7663991    558.90655  0.011851284  0.010866579           11 
 3931000   0.61989033   -8.7743393    559.39503  0.011858624   0.01086256            6 
 3932000   0.62051842   -8.7816279    560.68121  0.011882867  0.010858539            5 
 3933000   0.64456617    -8.759788    559.58085  0.011856531  0.010854521            2 
 3934000   0.62133248   -8.7730904    559.82071  0.011858598  0.010850502            5 
 3935000   0.61794441   -8.7545045    558.94347  0.011837007  0.010846489            4 
 3936000   0.63198102   -8.7738851    560.01985  0.011856789  0.010842476            6 
 3937000   0.61908136   -8.7576822    559.91712  0.011851603  0.010838461            5 
 3938000   0.61034529   -8.7518955    559.20457  0.011833515  0.010834446            5 
 3939000   0.61707126   -8.7630577    559.57504  0.011838348  0.010830443            3 
 3940000   0.61698437   -8.7704071    560.62695  0.011857592  0.010826436            5 
 3941000   0.61762501   -8.7422454    559.90812  0.011839383  0.010822434            4 
 3942000   0.61363681   -8.7824748    559.22989  0.011822042  0.010818428            5 
 3943000   0.62522237   -8.7553268    558.37338  0.011800942  0.010814421            4 
 3944000   0.61269863   -8.7784954    558.95727  0.011810287  0.010810423            3 
 3945000   0.62164739   -8.7738243    558.86254  0.011805292  0.010806419            2 
 3946000   0.62358458   -8.7500038     559.3958  0.011813562  0.010802424            1 
 3947000   0.61908551    -8.766203    558.93027   0.01180074  0.010798426            4 
 3948000   0.61863274   -8.7683034    559.12245  0.011801808  0.010794431            2 
 3949000   0.62285963   -8.7648169    559.48492  0.011806468  0.010790435            5 
 3950000    0.6104407     -8.79413    558.83215  0.011789708  0.010786443            4 
 3951000   0.62231342   -8.7815498    559.61739  0.011803286  0.010782447            9 
 3952000   0.62036183    -8.791526     557.7299  0.011760499  0.010778454           10 
 3953000   0.63227136   -8.7723601    559.25344  0.011789642  0.010774462            6 
 3954000   0.63107384   -8.7880294    559.64432  0.011794898  0.010770475            3 
 3955000   0.61964193   -8.7662855    558.48548  0.011767499  0.010766487            3 
 3956000   0.62246769   -8.7722744    558.53781  0.011765626  0.010762501            5 
 3957000   0.61775297   -8.7975443    559.29045  0.011778503  0.010758511            3 
 3958000   0.60930684   -8.7815925    559.25406  0.011774761  0.010754523            3 
 3959000     0.616363   -8.7707298    559.80195   0.01178332  0.010750541            4 
 3960000   0.63063895   -8.7683971    559.52574  0.011774532   0.01074656            4 
 3961000   0.62053617   -8.7778463    560.43581  0.011790705  0.010742584            5 
 3962000   0.62109948   -8.7828722    558.87427  0.011754885  0.010738602            8 
 3963000   0.61409921   -8.7798298    559.44034  0.011763822   0.01073462            4 
 3964000   0.61812482   -8.7580597    560.45052  0.011782091  0.010730645            4 
 3965000   0.61545589   -8.7750834    559.84446  0.011766382  0.010726674            3 
 3966000   0.62161894   -8.7804449    559.16986  0.011749241  0.010722703            8 
 3967000   0.60732007    -8.764631    559.39129   0.01175093   0.01071873            5 
 3968000    0.5987392   -8.7647373    559.08768  0.011741593  0.010714757            4 
 3969000   0.60692467   -8.8007189    558.72532  0.011731026  0.010710792            5 
 3970000   0.60401195   -8.7750295     559.7374  0.011749316  0.010706833            4 
 3971000   0.61992485   -8.7838177    558.99496  0.011730777   0.01070287            7 
 3972000   0.62138141   -8.7666259    559.58961  0.011740299  0.010698907            3 
 3973000   0.60894363   -8.7872804    558.48184  0.011714109  0.010694942            6 
 3974000   0.61186975   -8.7831902    558.48008  0.011711124  0.010690979            2 
 3975000   0.60485398   -8.7880453    558.53729  0.011709377  0.010687022            5 
 3976000   0.60647336   -8.7965169    559.20983  0.011720528  0.010683064            3 
 3977000   0.60555053   -8.7923028    558.02576   0.01169277  0.010679112            4 
 3978000   0.61557686   -8.7635668    559.91486  0.011729405  0.010675159            5 
 3979000   0.60216402   -8.7799083    558.76742  0.011702426  0.010671213            5 
 3980000   0.62358775   -8.7970854    558.57171  0.011695388   0.01066726            9 
 3981000   0.61971827   -8.7784294    559.33497  0.011708427  0.010663316            7 
 3982000   0.60809155   -8.7930816    558.36668  0.011685223  0.010659372            5 
 3983000    0.6022407   -8.7957329    559.25295  0.011700832  0.010655427            5 
 3984000   0.62609696   -8.7760294    558.35326  0.011679076  0.010651489            3 
 3985000   0.60271764   -8.7839864    559.32237  0.011696411  0.010647556            7 
 3986000   0.60653471    -8.780747    558.89931  0.011684632  0.010643626            6 
 3987000   0.62329832   -8.7902232    558.78237  0.011679257  0.010639692            7 
 3988000   0.60411854    -8.795997    559.70667  0.011695643  0.010635764            6 
 3989000   0.60578483   -8.7897621    559.07485  0.011679511  0.010631833            6 
 3990000    0.6149507   -8.7833332    560.59248  0.011708281  0.010627905            2 
 3991000   0.61303916   -8.8162145    559.27276  0.011677791  0.010623978            2 
 3992000     0.625606   -8.7897167     559.3488  0.011676453  0.010620055            5 
 3993000    0.6150227   -8.8028103    559.81553  0.011683269  0.010616134            5 
 3994000   0.61525927   -8.7777073    559.79135  0.011679839   0.01061221            5 
 3995000   0.62250671    -8.790763    559.53877  0.011671647  0.010608284            5 
 3996000   0.59711838   -8.7746474    559.57411  0.011669464  0.010604366           12 
 3997000   0.60175803   -8.7942067    559.75638  0.011670344  0.010600453            4 
 3998000    0.6037665   -8.7811606    559.53186  0.011662745  0.010596535            3 
 3999000   0.61498902   -8.7913439    559.62185  0.011661704  0.010592618            3 
 4000000   0.60858671   -8.7924387    559.15291  0.011649019  0.010588704            2 
 4001000   0.60875177   -8.7828194    558.87374  0.011640293  0.010584796            5 
 4002000    0.6142698   -8.8023182    558.18569  0.011623057  0.010580883            5 
 4003000   0.61006511   -8.7866908    558.96922  0.011636465  0.010576972            4 
 4004000   0.60214344   -8.7855181    558.94142   0.01163298  0.010573072            2 
 4005000   0.61712746   -8.7823638    559.14996  0.011634414  0.010569172            4 
 4006000   0.61270945   -8.7700211    559.28899  0.011634402  0.010565271            4 
 4007000   0.61442224   -8.7957558    559.07753  0.011627101  0.010561375            5 
 4008000   0.60184223   -8.7931585    558.86155   0.01161971   0.01055748            3 
 4009000    0.6107758   -8.7840985    559.39387  0.011627876  0.010553586            5 
 4010000   0.60780157   -8.7860773    558.95072  0.011615767  0.010549697            2 
 4011000   0.61233141    -8.794294    559.39652  0.011622133  0.010545802            7 
 4012000   0.60532941   -8.7943014    559.32433  0.011617737  0.010541917            4 
 4013000    0.5990767   -8.8004352    559.01882  0.011608498   0.01053803            3 
 4014000   0.60123016    -8.794158    558.73718  0.011599759  0.010534144            4 
 4015000   0.61739723   -8.8142227    558.50395  0.011592029  0.010530259            2 
 4016000   0.61040985   -8.7996109     559.2024  0.011603635  0.010526375            2 
 4017000   0.61554722   -8.8059507     558.5334  0.011586868  0.010522497            7 
 4018000   0.61118877   -8.7836173     559.5812  0.011605716  0.010518617            4 
 4019000   0.59786306     -8.82079    558.47002  0.011579788  0.010514735            3 
 4020000     0.615743   -8.8077468    559.02695  0.011588453  0.010510856            8 
 4021000   0.59954344   -8.8168429     558.5667  0.011576032  0.010506975            3 
 4022000   0.60670438   -8.8037091    558.16091  0.011564746  0.010503096            6 
 4023000   0.60831616    -8.797093    558.19373  0.011562551  0.010499227            4 
 4024000   0.60928903   -8.7999669    559.08112  0.011578055  0.010495354            8 
 4025000   0.61873031   -8.7891302    559.78552  0.011589762  0.010491484            4 
 4026000   0.61182162   -8.8007781    559.54472  0.011581899  0.010487618            5 
 4027000   0.61791948   -8.8183202    559.12233  0.011570282  0.010483756            4 
 4028000   0.62723819     -8.79742    559.29376  0.011570957  0.010479891            2 
 4029000   0.60092567   -8.7845489    558.27472  0.011547008  0.010476032           11 
 4030000   0.60404245   -8.8052725    558.55449  0.011549927  0.010472174            2 
 4031000   0.60002441   -8.8078289    559.71344  0.011571021  0.010468313            5 
 4032000   0.61087336   -8.7899927    558.46547  0.011542358  0.010464452            2 
 4033000    0.6061896   -8.7761661    558.87923  0.011548046  0.010460593            2 
 4034000   0.62446641   -8.8067916     558.6391  0.011540223  0.010456738            7 
 4035000   0.61586782   -8.7887039    558.10483  0.011526329  0.010452888            1 
 4036000   0.61025105   -8.8116985    558.62916  0.011534299  0.010449041            4 
 4037000   0.62755918   -8.7816064     558.7623   0.01153419  0.010445196            7 
 4038000   0.61718805    -8.818011    558.81659  0.011532454  0.010441348            6 
 4039000   0.61752774   -8.7928938    557.04967  0.011493143  0.010437502            4 
 4040000   0.60234798   -8.7946658    558.70214  0.011524384  0.010433655            3 
 4041000   0.60094656   -8.7854436    558.59402  0.011519303  0.010429816            2 
 4042000   0.60620178   -8.8057619    558.45614   0.01151361  0.010425976            4 
 4043000   0.60126072   -8.8019905    558.81965  0.011518255  0.010422135            2 
 4044000   0.60089317   -8.7961898    558.47785  0.011508363  0.010418294            3 
 4045000   0.58967041   -8.8270153    558.79737  0.011512101  0.010414456            3 
 4046000   0.60918459    -8.810978    558.28322  0.011498666  0.010410622            2 
 4047000    0.5998556   -8.8052192    558.07526  0.011491542   0.01040679            2 
 4048000   0.60123205   -8.7887869    558.61137   0.01149974  0.010402959            3 
 4049000   0.58811072   -8.8013063    558.12532  0.011486896  0.010399128            3 
 4050000    0.6259595   -8.8004445     559.1086  0.011504292    0.0103953            5 
 4051000   0.59703138   -8.8063774    559.44088  0.011508288  0.010391472            2 
 4052000   0.59198078   -8.8240157    558.48142  0.011485715  0.010387643            4 
 4053000   0.59484677   -8.8099164    558.72483  0.011487886  0.010383817            2 
 4054000   0.59948002    -8.807317    559.04531   0.01149164  0.010379998            2 
 4055000   0.58768621   -8.8062627    558.70153  0.011481741  0.010376176            3 
 4056000   0.60700512   -8.7821166    559.90157  0.011503566   0.01037236            3 
 4057000    0.5915333   -8.7948362    558.84715  0.011479072  0.010368544            1 
 4058000   0.61463644   -8.8144279    557.91525  0.011457106  0.010364729            5 
 4059000   0.60246163   -8.8013637       559.17  0.011480044  0.010360919            7 
 4060000   0.60167352   -8.7980296    559.28811  0.011479641  0.010357109            7 
 4061000   0.59367967   -8.8089694    558.54024  0.011461468    0.0103533            2 
 4062000   0.59425184   -8.8094561    558.71679  0.011462268  0.010349492            3 
 4063000   0.59514235    -8.809638    559.08141  0.011466925  0.010345688            2 
 4064000   0.59117865   -8.8017826    558.69632  0.011456207  0.010341885            4 
 4065000   0.60476736   -8.8038113    559.84702  0.011476979  0.010338082            3 
 4066000   0.59024636   -8.8077817    557.79356   0.01143207  0.010334284            3 
 4067000   0.60274458    -8.811281    559.02163  0.011454422  0.010330485            2 
 4068000   0.60163851   -8.8213535    559.18495  0.011454952  0.010326689            3 
 4069000   0.60298428   -8.8085764    558.99157  0.011448177  0.010322891            2 
 4070000   0.59619772    -8.830979    558.94367  0.011444383  0.010319099            3 
 4071000   0.60332138   -8.8099941    559.47179  0.011452382  0.010315308            2 
 4072000   0.59346406   -8.8014978    559.05231  0.011440985  0.010311518            3 
 4073000    0.6002697   -8.8052691    559.10129  0.011439179  0.010307728            3 
 4074000   0.58691972   -8.8165741    557.84477  0.011410669   0.01030394            2 
 4075000   0.60082733   -8.8097759    557.56845  0.011402218  0.010300152            2 
 4076000   0.60811371    -8.806433    558.61871  0.011420893  0.010296369            2 
 4077000   0.59374835    -8.800269    558.12271  0.011407953  0.010292584            3 
 4078000   0.61289483   -8.7976965    558.35031  0.011409807  0.010288804            3 
 4079000   0.60348061   -8.8049897    558.73814  0.011414933  0.010285023            4 
 4080000   0.59926628   -8.8158157    558.12079  0.011399526  0.010281242            4 
 4081000    0.6100713   -8.8161495    558.93222  0.011413302  0.010277467            4 
 4082000   0.60318346   -8.8140936    558.53313  0.011402359   0.01027369            2 
 4083000   0.58911988    -8.809899    558.98961  0.011408883  0.010269917            5 
 4084000    0.5896159   -8.8194518    558.30898  0.011392201  0.010266147            1 
 4085000   0.60788933   -8.8452058    557.99435  0.011382994  0.010262372            3 
 4086000   0.61208424    -8.836531    558.58563  0.011392267  0.010258601            2 
 4087000   0.59534093   -8.8216825    558.48903   0.01138751   0.01025484            1 
 4088000   0.60337854   -8.8122343    558.14577  0.011377727  0.010251075            2 
 4089000   0.59625301   -8.8169684    558.64878  0.011385196  0.010247311            2 
 4090000   0.59538414   -8.8087724    558.04102  0.011370029  0.010243546            2 
 4091000   0.59911992   -8.8139796    558.32883  0.011373112  0.010239782            3 
 4092000   0.60133788   -8.8252217    558.43766  0.011372549  0.010236021            3 
 4093000   0.59684002   -8.8035425    558.06768  0.011362238  0.010232265            1 
 4094000   0.61063258    -8.818968    558.00738  0.011358235  0.010228512            3 
 4095000   0.59290507   -8.8267142      558.978  0.011375214  0.010224765            4 
 4096000   0.59913444   -8.8289637     557.4633   0.01134162  0.010221017            3 
 4097000   0.59035134    -8.832449    558.02768  0.011350331  0.010217263            4 
 4098000    0.5902396   -8.8125743    558.41816  0.011355502   0.01021351            4 
 4099000   0.59375086    -8.804693    558.14999   0.01134728  0.010209764            2 
 4100000      0.61052   -8.8153204    558.69298  0.011355548  0.010206019            2 
 4101000    0.6084647   -8.8281873    557.78475  0.011334324  0.010202276            6 
 4102000   0.60476328   -8.8178232    557.89377  0.011333776  0.010198531            3 
 4103000   0.60904476   -8.8320885    559.03741  0.011354241  0.010194788            2 
 4104000   0.58594292   -8.8293449    557.69061  0.011324127  0.010191046            3 
 4105000   0.59598456   -8.8117202    559.41691  0.011356413  0.010187309            2 
 4106000   0.58977572   -8.8092344    559.04407   0.01134608  0.010183575            5 
 4107000   0.59332161    -8.823823    557.94297  0.011320976   0.01017985            2 
 4108000   0.59734243   -8.8214734    558.21563  0.011323751  0.010176123            3 
 4109000   0.59367699   -8.8235697     558.6772  0.011330356  0.010172398            3 
 4110000   0.59605221   -8.8057322    557.64928  0.011306757  0.010168674            3 
 4111000   0.60648834     -8.82225    558.70714  0.011325451  0.010164949            3 
 4112000   0.59166086   -8.8026304    557.86279  0.011305585  0.010161226            4 
 4113000   0.58162023      -8.8173    558.09757  0.011307593  0.010157502            3 
 4114000   0.59248305   -8.8285472    558.46152  0.011312217  0.010153774            6 
 4115000   0.60108766   -8.8424174    558.43151   0.01130886  0.010150049            2 
 4116000   0.59713233   -8.8261206    558.32814   0.01130402  0.010146328            2 
 4117000   0.59781765   -8.8219263    558.41014  0.011302934  0.010142609            2 
 4118000   0.58962764   -8.8291368    557.93558  0.011290586  0.010138892            2 
 4119000    0.5812209   -8.8248935    558.37874   0.01129681  0.010135175            5 
 4120000   0.59346694   -8.8299319     559.1773  0.011310221   0.01013146            3 
 4121000   0.58160975   -8.8230017    559.08531  0.011305616  0.010127746            2 
 4122000   0.59385239   -8.8468239    557.51953  0.011271218  0.010124033            2 
 4123000   0.59841931    -8.851356    558.23112  0.011282867  0.010120323            2 
 4124000   0.59301964   -8.8249302    559.77478  0.011311324  0.010116612            3 
 4125000   0.59231341   -8.8278067    558.06602  0.011274061  0.010112904            2 
 4126000   0.58532921   -8.8284416    557.83933   0.01126675  0.010109198            3 
 4127000   0.58957199   -8.8349193     557.0577  0.011248237  0.010105497            4 
 4128000   0.58395842    -8.826267    557.95729  0.011263673  0.010101793            5 
 4129000   0.58665182   -8.8273473    558.98741  0.011281735  0.010098091            2 
 4130000   0.58948959   -8.8299339    557.73938  0.011253821  0.010094391            2 
 4131000   0.58946773   -8.8364144    558.29382  0.011262282  0.010090695            2 
 4132000   0.60690149   -8.8375617    558.34508   0.01126059  0.010086998            3 
 4133000   0.58659361   -8.8181044    557.25612  0.011235909  0.010083303            3 
 4134000    0.5965464     -8.84236    557.21067  0.011232274  0.010079609            4 
 4135000   0.59526322   -8.8441752    557.84317  0.011242305  0.010075916            2 
 4136000   0.58884411   -8.8362979    557.21915  0.011227014  0.010072223            8 
 4137000   0.59248007   -8.8547235    557.83277   0.01123666  0.010068533            3 
 4138000   0.59922368   -8.8466873    557.97753   0.01123686  0.010064848            4 
 4139000   0.59661721   -8.8375066    558.08894  0.011236388  0.010061164            5 
 4140000   0.58441171   -8.8273352    557.87245  0.011229317  0.010057487            2 
 4141000    0.5941886   -8.8158329    559.18003  0.011252919  0.010053813            1 
 4142000   0.58408506   -8.8377835    557.80426  0.011222523  0.010050133            3 
 4143000   0.58437057   -8.8506963    557.66233  0.011216959  0.010046456            2 
 4144000    0.5860822   -8.8439994    557.86266  0.011218281   0.01004278            2 
 4145000   0.58946718   -8.8411438    557.19604  0.011202172  0.010039109            3 
 4146000   0.59448795   -8.8301927    557.76953  0.011210997  0.010035436            4 
 4147000   0.59560042   -8.8276962    558.42386  0.011221442  0.010031764            4 
 4148000   0.58493471   -8.8352226    557.85778  0.011207365  0.010028093            2 
 4149000     0.587973   -8.8285495    557.56304  0.011198744  0.010024427            3 
 4150000   0.58044595   -8.8283877    558.61211  0.011217111  0.010020761            3 
 4151000   0.58391713   -8.8222213     558.3087  0.011208317  0.010017098            3 
 4152000   0.58801257   -8.8466576    558.66439  0.011212757  0.010013433            2 
 4153000   0.59227707   -8.8387239    558.23052  0.011201351  0.010009773            3 
 4154000   0.58556158   -8.8514657    557.65094  0.011187027  0.010006112            4 
 4155000    0.5856016   -8.8545414    558.16134  0.011194572   0.01000245            2 
 4156000   0.58788944   -8.8218371    556.38025  0.011156165 0.0099987912            2 
 4157000   0.58200035   -8.8319911    557.67205  0.011179377 0.0099951358            7 
 4158000   0.58806242   -8.8345987    557.91879  0.011181634 0.0099914848            2 
 4159000   0.58781613   -8.8413016    558.86877   0.01119798 0.0099878289            2 
 4160000   0.59117108   -8.8418356    558.29464  0.011183787 0.0099841761            2 
 4161000   0.57807067   -8.8530855    557.88546  0.011172904 0.0099805269            2 
 4162000   0.59239753   -8.8504521    557.58978    0.0111643 0.0099768763            2 
 4163000   0.60140372    -8.850039    558.58498  0.011181539 0.0099732265            3 
 4164000   0.58459805    -8.857495    558.23487  0.011171847  0.009969583            3 
 4165000   0.58432999   -8.8515428    558.36233  0.011171715 0.0099659412            1 
 4166000   0.58484024   -8.8304305    557.31964  0.011148177 0.0099622961            5 
 4167000   0.58740504   -8.8394029    558.47858  0.011168678  0.009958658            2 
 4168000   0.58480899   -8.8273822    557.52493  0.011146932 0.0099550197            2 
 4169000   0.60114565   -8.8526383    557.37744   0.01114131 0.0099513831            3 
 4170000   0.58029666   -8.8311625     557.5703  0.011142492  0.009947744            2 
 4171000    0.5845854   -8.8515308    557.19036   0.01113223 0.0099441101            4 
 4172000   0.59741113   -8.8611401    558.84328  0.011162577 0.0099404757            3 
 4173000   0.59133967   -8.8613704    556.58229  0.011114751 0.0099368408            3 
 4174000   0.58420862   -8.8546957    556.59274  0.011112297 0.0099332094            3 
 4175000    0.5881743   -8.8366727    557.41746  0.011126097 0.0099295791            5 
 4176000   0.59141957   -8.8566379    557.75995  0.011130267  0.009925954            2 
 4177000   0.58621487   -8.8568838    557.31582  0.011118742 0.0099223297            2 
 4178000   0.58551793   -8.8581857    558.07121  0.011131148 0.0099187028            6 
 4179000   0.58203154    -8.843577    557.61238  0.011119334 0.0099150787            3 
 4180000    0.5729779   -8.8433376    558.66469  0.011137653 0.0099114604            3 
 4181000   0.58258281   -8.8335623    557.79917  0.011117738 0.0099078442            4 
 4182000   0.58725581    -8.851061    558.39135   0.01112688 0.0099042219            2 
 4183000   0.58723246   -8.8424072    558.42596   0.01112491 0.0099006079            2 
 4184000    0.5809507    -8.846706    558.98146  0.011133315 0.0098969955            2 
 4185000   0.57716389   -8.8610379    557.77373  0.011106606 0.0098933828            4 
 4186000   0.58896692   -8.8508453    557.60524  0.011100598 0.0098897698            4 
 4187000   0.57968262   -8.8430075    557.69296  0.011099693 0.0098861614            3 
 4188000   0.58580654   -8.8541687    558.64216   0.01111593  0.009882555            5 
 4189000   0.57962995   -8.8530015    558.12636  0.011103015 0.0098789533            5 
 4190000   0.57738864   -8.8587387    556.76049    0.0110732 0.0098753474            3 
 4191000   0.59689198   -8.8562092     557.1787  0.011078873 0.0098717423            2 
 4192000   0.58019054   -8.8518526    557.32074  0.011079054 0.0098681396            2 
 4193000   0.57312179   -8.8636016    557.31838  0.011076365 0.0098645371            3 
 4194000   0.59018585    -8.838547    558.13624  0.011089975 0.0098609352            4 
 4195000   0.58189058   -8.8525485    557.64469  0.011077566 0.0098573403            2 
 4196000   0.59275579   -8.8432081    557.36227  0.011069317 0.0098537437            2 
 4197000   0.58312813   -8.8582701    557.59743  0.011071349 0.0098501459            4 
 4198000   0.58164867    -8.859118    557.88337  0.011074388 0.0098465518            2 
 4199000   0.57869173   -8.8498584    557.79942  0.011070085 0.0098429603            5 
 4200000   0.57875068   -8.8593245    558.16733  0.011074749 0.0098393716            4 
 4201000   0.58347227   -8.8579268    557.36772  0.011056251 0.0098357831            3 
 4202000   0.58287128   -8.8561104    557.69325  0.011060076 0.0098321948            5 
 4203000   0.58295112   -8.8366833    557.80394  0.011059639 0.0098286112            4 
 4204000   0.57855362   -8.8741174     556.8722  0.011038539  0.009825025            3 
 4205000    0.5788003   -8.8611437    558.39391   0.01106607 0.0098214404            2 
 4206000   0.58444448   -8.8618506    557.41671  0.011044078 0.0098178624            2 
 4207000   0.58908247   -8.8679443    557.81925  0.011049426 0.0098142841            3 
 4208000   0.57466076   -8.8500324    557.86935  0.011047793 0.0098107088            2 
 4209000   0.58069682   -8.8359558    557.37134  0.011035308 0.0098071349            2 
 4210000   0.56709051   -8.8524258    557.00734  0.011025482 0.0098035605            3 
 4211000   0.58825053    -8.840076    557.38818    0.0110304 0.0097999865            2 
 4212000   0.58729023   -8.8653391    557.99283  0.011039744 0.0097964156            3 
 4213000   0.57826673   -8.8620042    556.83698  0.011014261 0.0097928463            4 
 4214000    0.5713719   -8.8468659    557.36942  0.011022176 0.0097892768            4 
 4215000   0.57890809   -8.8560892    558.00912  0.011032209 0.0097857154            2 
 4216000   0.55641456   -8.8681868    557.67601  0.011023008 0.0097821482            1 
 4217000   0.57985351   -8.8582241       556.84  0.011003873 0.0097785849            3 
 4218000   0.58364738   -8.8557633    557.37599  0.011011854 0.0097750268            2 
 4219000   0.57302246   -8.8312925     557.2281  0.011006323 0.0097714722            4 
 4220000   0.57019705   -8.8596237    557.49571  0.011008999 0.0097679136            2 
 4221000   0.56187754   -8.8734753    556.66529  0.010989996 0.0097643585            1 
 4222000   0.57250798   -8.8689605    557.89748  0.011011714 0.0097608052            2 
 4223000   0.58434903    -8.866091    558.06298  0.011012372  0.009757255            3 
 4224000   0.57573975   -8.8514545    557.75034  0.011003597 0.0097537038            1 
 4225000   0.56172289   -8.8555387    557.34815   0.01099306 0.0097501562            2 
 4226000   0.58441404   -8.8746927    557.75614  0.010998504 0.0097466109            2 
 4227000    0.5744421   -8.8788522    557.54021  0.010991645 0.0097430639            2 
 4228000   0.57696128   -8.8656015    558.64229  0.011010767 0.0097395228            2 
 4229000   0.58211626   -8.8663056    556.91451  0.010974117 0.0097359825            4 
 4230000   0.57965351   -8.8466614    557.82503  0.010989461  0.009732445            2 
 4231000   0.57222785   -8.8526898    557.80075  0.010986385 0.0097289083            2 
 4232000   0.58017793   -8.8638282    556.92504  0.010966545 0.0097253757            1 
 4233000    0.5846776   -8.8786052    557.56572  0.010976568 0.0097218408            2 
 4234000   0.57612335   -8.8654093    557.74062  0.010977417 0.0097183145            2 
 4235000   0.57485073   -8.8736544    557.43617  0.010968835 0.0097147837            2 
 4236000   0.58107196   -8.8540292    556.97769  0.010957226 0.0097112543            2 
 4237000   0.56945357    -8.895253    556.74886  0.010950139 0.0097077239            2 
 4238000    0.5738258   -8.8601911    558.11378  0.010974394 0.0097041952            2 
 4239000   0.56469084   -8.8793376    558.00406  0.010969648 0.0097006685            3 
 4240000    0.5809447   -8.8560457    558.28897  0.010972661 0.0096971455            4 
 4241000   0.57843328   -8.8707929    557.26813  0.010950014 0.0096936249            1 
 4242000   0.56547278   -8.8558484    557.16284  0.010945365 0.0096900993            3 
 4243000    0.5775152   -8.8778819    556.90489  0.010937719 0.0096865768            5 
 4244000   0.57439641    -8.861963    557.08255   0.01093863 0.0096830498            7 
 4245000   0.57806672   -8.8745653    556.55703  0.010925737 0.0096795253            7 
 4246000   0.57496561   -8.8578065    556.96054  0.010931083 0.0096760077            8 
 4247000   0.58538861   -8.8735698     557.3562  0.010936273  0.009672491            6 
 4248000   0.57332006   -8.8656639     556.8067  0.010922919  0.009668973            4 
 4249000   0.58770904   -8.8708208    557.80343  0.010939896 0.0096654583            4 
 4250000   0.57919807   -8.8660446    557.97554  0.010940697 0.0096619469            4 
 4251000    0.5566153   -8.8530054    557.59096  0.010930584 0.0096584355            3 
 4252000   0.56351178   -8.8603242    557.19504  0.010920254 0.0096549267            5 
 4253000   0.57038635   -8.8807599    558.01672  0.010933786 0.0096514195            7 
 4254000   0.57042698   -8.8635331    557.38635  0.010918867 0.0096479141            4 
 4255000   0.58839068    -8.867501    557.85667  0.010925513 0.0096444141            7 
 4256000   0.56698022    -8.868846    557.15619   0.01090923 0.0096409099            4 
 4257000   0.57048074   -8.8734083    556.73102  0.010898344 0.0096374146            1 
 4258000   0.57388251   -8.8726586    557.17804  0.010904533 0.0096339125            7 
 4259000   0.56498428   -8.8677649    557.39914  0.010906299 0.0096304147            5 
 4260000   0.55437157   -8.8750044    556.20334  0.010880347 0.0096269187            6 
 4261000   0.56496434   -8.8763431    556.45301  0.010882677 0.0096234208            4 
 4262000    0.5618101   -8.8723127    557.29782  0.010896641 0.0096199309            1 
 4263000    0.5785367   -8.8666757    557.82192   0.01090433  0.009616439            4 
 4264000   0.57629034   -8.8786298      557.293  0.010891436 0.0096129497            6 
 4265000   0.56265677   -8.8723035    557.34406   0.01088988 0.0096094642            4 
 4266000   0.56870135   -8.8683379    556.60764  0.010872942 0.0096059799            4 
 4267000   0.56020843   -8.8729822    556.74272  0.010873032  0.009602493            5 
 4268000   0.56163715    -8.872912    556.98099  0.010875137 0.0095990101            7 
 4269000   0.57000878   -8.8728034    557.39533  0.010880677 0.0095955276            4 
 4270000   0.56271516   -8.8644891    557.38032  0.010877836 0.0095920495            3 
 4271000   0.56915797   -8.8602488    558.40705  0.010895322  0.009588576            4 
 4272000   0.57654555   -8.8552112     557.7684  0.010880314  0.009585101            4 
 4273000   0.57412984   -8.8571477    557.18488  0.010866387 0.0095816262            2 
 4274000   0.55486644   -8.8834688    557.79438  0.010875729 0.0095781576            4 
 4275000   0.57489633   -8.8811239    557.25218  0.010862616 0.0095746827            7 
 4276000   0.56250411   -8.8586703    557.15808  0.010858241 0.0095712083            3 
 4277000   0.55856264   -8.8610655    557.33596  0.010859168  0.009567737            3 
 4278000   0.58103594    -8.876715    557.89325  0.010867486 0.0095642668            5 
 4279000   0.57278072    -8.881672     557.0445  0.010848417 0.0095608003            6 
 4280000   0.57142924   -8.8761418    556.93555  0.010843761 0.0095573346            6 
 4281000   0.57716763   -8.8683722    557.48421  0.010851908 0.0095538728            6 
 4282000   0.56432314   -8.8714932    556.44534  0.010829156 0.0095504116            2 
 4283000   0.56427987    -8.892555    557.98892   0.01085666 0.0095469507            5 
 4284000   0.55344811   -8.8806697    557.33776   0.01084146 0.0095434912            3 
 4285000   0.55789896   -8.8817615    556.89637  0.010830346 0.0095400315            1 
 4286000   0.58330974   -8.8820621    556.85375   0.01082699 0.0095365736            3 
 4287000   0.56721301   -8.8761182    557.65848  0.010840107  0.009533116            7 
 4288000   0.56606897   -8.8575849    557.00747  0.010824927 0.0095296608            9 
 4289000    0.5651439   -8.8829377    556.92284  0.010820759 0.0095262115            5 
 4290000   0.57366753   -8.8718222    556.80092  0.010815869 0.0095227599            6 
 4291000   0.56772403    -8.891041    557.91518  0.010834988 0.0095193118            6 
 4292000   0.56578844   -8.8761764    556.36879  0.010802438 0.0095158639            6 
 4293000   0.55652279   -8.8561987    556.80998  0.010808486 0.0095124159            6 
 4294000   0.57688875   -8.8781289     556.6155  0.010802195 0.0095089708            5 
 4295000   0.55966893   -8.8758518    556.90959  0.010805386 0.0095055317            9 
 4296000   0.55937012   -8.8646184    557.26866  0.010809836 0.0095020886            4 
 4297000   0.57148717   -8.8660452    557.24474  0.010806856 0.0094986466            6 
 4298000   0.56911615   -8.8969585    556.27642  0.010785567 0.0094952091            1 
 4299000   0.55566519   -8.8691687    557.14353  0.010799867 0.0094917707            9 
 4300000   0.56363428   -8.8814115    557.14968  0.010797474  0.009488335            1 
 4301000   0.57426339    -8.900988    556.06276  0.010773905    0.0094849            4 
 4302000   0.55958249   -8.8846655     556.0413  0.010770984 0.0094814657            5 
 4303000   0.57142177   -8.8886972    557.84824  0.010803475 0.0094780329            5 
 4304000   0.55055335   -8.8902598     556.3595   0.01077214 0.0094745997            8 
 4305000   0.57356464   -8.8870094    556.79638  0.010778095 0.0094711707            4 
 4306000   0.57343907   -8.8757144    556.26635  0.010765334 0.0094677489            8 
 4307000   0.55219009   -8.8988976    556.62546  0.010769783 0.0094643235            1 
 4308000   0.56897141   -8.8827867    556.82282  0.010771101 0.0094609016            3 
 4309000   0.55822486   -8.8662427    557.36075  0.010779004 0.0094574809            1 
 4310000   0.54779647   -8.8875537    556.38896  0.010757714 0.0094540624            5 
 4311000   0.56009118   -8.8963532     556.5106   0.01075757 0.0094506418            4 
 4312000   0.56145941   -8.8820021      557.577  0.010775684 0.0094472268            4 
 4313000   0.56483972   -8.8797183     556.9878  0.010761802 0.0094438109            6 
 4314000   0.55681132   -8.8821062    556.44667  0.010748854 0.0094403999            3 
 4315000   0.55536399   -8.9004927    556.15803  0.010740789 0.0094369839            3 
 4316000   0.55874671   -8.9084619    557.47284  0.010763686 0.0094335736            4 
 4317000   0.56400205   -8.8835163    557.36049  0.010759024 0.0094301676            5 
 4318000   0.55327356   -8.8787682    556.13914  0.010732962 0.0094267592            2 
 4319000   0.55944216   -8.9034183    556.92352  0.010745611 0.0094233525            3 
 4320000   0.55701234    -8.874818    556.28968  0.010730897 0.0094199453            4 
 4321000   0.56843452   -8.8841624    556.94328  0.010741018 0.0094165412            4 
 4322000   0.55427684   -8.8818942    556.53018  0.010730568 0.0094131387            3 
 4323000   0.55785544    -8.894083    556.45721  0.010726679 0.0094097356            6 
 4324000   0.56564853   -8.8867246    556.12313   0.01071776 0.0094063378            5 
 4325000   0.54736602   -8.8872008    557.18128   0.01073567 0.0094029373            8 
 4326000   0.54739642   -8.8943044    556.54413  0.010720915 0.0093995398            6 
 4327000   0.55763226    -8.888195    557.54474  0.010737708 0.0093961437            4 
 4328000   0.55162655   -8.8977965     556.9706  0.010724172 0.0093927502            5 
 4329000   0.55235307   -8.8772055     556.4323  0.010711332 0.0093893591            3 
 4330000   0.55147112   -8.8812815    555.72814  0.010695307 0.0093859676            2 
 4331000   0.55468651   -8.8866195    556.31631  0.010704154 0.0093825787            5 
 4332000   0.55399245   -8.8829053    557.16139   0.01071794 0.0093791905            3 
 4333000   0.55077908   -8.8820876    556.53709   0.01070346 0.0093758044            4 
 4334000   0.55538303   -8.8814055     556.9815  0.010709535  0.009372421            3 
 4335000   0.55472668   -8.8827773     556.4526  0.010696897 0.0093690397            4 
 4336000   0.55601208   -8.8896118    555.47847  0.010675709 0.0093656568            2 
 4337000   0.55033311   -8.8906864    557.10658   0.01070453 0.0093622757            6 
 4338000   0.55459289   -8.8932009    556.17232  0.010684116 0.0093588934            7 
 4339000   0.55015474   -8.9069052    556.49772  0.010687903 0.0093555167            3 
 4340000   0.55205302   -8.8947691    555.93219  0.010674581 0.0093521386            4 
 4341000   0.55831679   -8.8999169    557.40755  0.010700444 0.0093487625           10 
 4342000   0.56161239   -8.8995022    555.33702  0.010658242  0.009345389            6 
 4343000     0.565892   -8.8998294     557.0078  0.010687846 0.0093420114            4 
 4344000   0.55561144   -8.8927325    556.22876  0.010670441 0.0093386377            5 
 4345000   0.55494599   -8.9130072    556.83231  0.010679561 0.0093352662            2 
 4346000   0.56682775   -8.8872451    556.07922  0.010662663  0.009331896            6 
 4347000   0.57437053   -8.8767143    556.65279  0.010671206 0.0093285299            4 
 4348000    0.5407592    -8.901196    556.35795  0.010663101 0.0093251621            5 
 4349000   0.55533402   -8.9023501     556.4896  0.010663172 0.0093217957            2 
 4350000   0.55819439   -8.8910633    556.25586  0.010656243 0.0093184351            8 
 4351000   0.54793209   -8.9108328    555.64338  0.010642063  0.009315072            4 
 4352000   0.55472174   -8.8967323    556.98096   0.01066523 0.0093117116            2 
 4353000    0.5485334   -8.8929997    556.32829  0.010650285  0.009308354            3 
 4354000    0.5651874   -8.8898674    556.24085  0.010646165 0.0093049959            3 
 4355000   0.56296056   -8.8924793    557.08906  0.010659951 0.0093016416            2 
 4356000   0.54530714   -8.8849702    555.64947  0.010629964 0.0092982891            2 
 4357000   0.54674953   -8.8952568    557.01568  0.010653655  0.009294941            6 
 4358000   0.54462193   -8.8948628    555.10939  0.010614758  0.009291592            8 
 4359000   0.56089391    -8.904343    556.39528  0.010636906 0.0092882439            4 
 4360000   0.55930348   -8.8983613     556.7809  0.010641837 0.0092848971            5 
 4361000   0.56181363   -8.8911039    556.56416  0.010635255 0.0092815514            4 
 4362000   0.54294944   -8.9001626    555.85311  0.010619233 0.0092782068            3 
 4363000   0.54794557   -8.9026758    556.36257  0.010626529 0.0092748632            7 
 4364000   0.55309335   -8.8968858    555.57025  0.010608964 0.0092715215            2 
 4365000   0.55273518    -8.884621    556.63735  0.010626906 0.0092681847            3 
 4366000    0.5592217   -8.8825262    557.20958  0.010635394 0.0092648473            3 
 4367000   0.56005821   -8.9217146     556.4183  0.010617859 0.0092615122            6 
 4368000   0.54526195   -8.9065592    556.38974  0.010614884 0.0092581772            9 
 4369000   0.54275508    -8.892611    556.38634  0.010612389 0.0092548428            7 
 4370000   0.55057489    -8.892156    555.46878  0.010592463 0.0092515078            3 
 4371000   0.55433127   -8.8762168    557.70199  0.010632616 0.0092481778           11 
 4372000   0.55485408    -8.908075    556.03836  0.010598474 0.0092448514            6 
 4373000   0.54962606   -8.9112134    555.56891  0.010587105 0.0092415235            6 
 4374000    0.5412647   -8.9064064    556.77892  0.010607737 0.0092381981            5 
 4375000   0.55693526   -8.8930818    557.08794  0.010611199 0.0092348735            3 
 4376000   0.55816525   -8.9086319    556.04873  0.010588984 0.0092315545            8 
 4377000   0.55845172   -8.9008162    556.41201  0.010593481 0.0092282334            8 
 4378000    0.5538635   -8.9107024    556.99788  0.010602213 0.0092249111            4 
 4379000   0.53792367   -8.8834563    555.98291  0.010580477 0.0092215962            3 
 4380000   0.55813673   -8.9055703    556.96019  0.010596655 0.0092182786            3 
 4381000   0.53857411   -8.9117407    555.92043  0.010574458 0.0092149651            4 
 4382000   0.54524178   -8.9002427    556.04265   0.01057437 0.0092116487            4 
 4383000   0.55079085   -8.9284304    556.45508  0.010579798 0.0092083335            8 
 4384000   0.55278236   -8.8954515    556.40082  0.010576354 0.0092050249            6 
 4385000   0.55522477   -8.9113357    556.09587  0.010568146 0.0092017173            7 
 4386000   0.54589312   -8.8956747    555.85127   0.01056109 0.0091984039            7 
 4387000   0.54267758   -8.9118547    556.08091  0.010563044 0.0091950962            4 
 4388000   0.55917068   -8.9018962    556.63616  0.010571182 0.0091917915            6 
 4389000   0.55164268   -8.8939573    555.83305  0.010553525 0.0091884875            8 
 4390000   0.54843432   -8.9241457    556.60845   0.01056584 0.0091851835            7 
 4391000   0.55167803   -8.8927547    556.45892  0.010560596 0.0091818842            4 
 4392000   0.54847362   -8.8851645    555.88607  0.010547322 0.0091785841            8 
 4393000    0.5478355    -8.905556    557.12359  0.010568397  0.009175286            8 
 4394000   0.55449405   -8.8912594    556.81157  0.010560074 0.0091719921            9 
 4395000   0.54397719   -8.9008376    555.54749  0.010533703  0.009168699            7 
 4396000    0.5503795   -8.9038152    556.69774  0.010553111 0.0091654085            7 
 4397000   0.55262124   -8.9062141     555.6298  0.010530471 0.0091621189            4 
 4398000   0.54788718   -8.9129829    555.97869  0.010534688 0.0091588305            7 
 4399000   0.54172232   -8.8831138    556.54071   0.01054294 0.0091555449           10 
 4400000   0.54203582   -8.9075363    555.42041  0.010519326 0.0091522571            4 
 4401000    0.5545635   -8.9154055    556.44836    0.0105364  0.009148973            2 
 4402000   0.54701228   -8.9048392    556.25389  0.010530325 0.0091456902            5 
 4403000     0.545909   -8.9007988    555.77197  0.010518812 0.0091424065            6 
 4404000   0.54324274   -8.9037248    555.50256  0.010511326 0.0091391249            4 
 4405000   0.53986368   -8.9153602    555.25505  0.010504258 0.0091358447            8 
 4406000   0.55749319    -8.908388    556.37559  0.010523067 0.0091325656            5 
 4407000   0.53345803   -8.9258077    556.73433  0.010527463 0.0091292875            8 
 4408000   0.56253519   -8.9014259    555.30332  0.010498021 0.0091260122            9 
 4409000   0.54310236   -8.9115403    555.29308  0.010495447 0.0091227376            7 
 4410000   0.55762651   -8.9166669    556.15195  0.010509296 0.0091194638            2 
 4411000   0.54159754   -8.9077565    556.79242  0.010519013 0.0091161908            4 
 4412000   0.55176924   -8.9043644    556.05207  0.010502646 0.0091129233            4 
 4413000   0.54931719   -8.9111564    556.24245  0.010503861 0.0091096555            4 
 4414000   0.54130571   -8.8931058    556.50293  0.010506399 0.0091063915            2 
 4415000   0.54898342   -8.9119173     556.2108  0.010498505  0.009103124            3 
 4416000   0.54253003   -8.8945365    555.88726  0.010490022 0.0090998578            8 
 4417000   0.53416621   -8.9076346    556.32275  0.010495863 0.0090965948            5 
 4418000   0.53625018   -8.9177049    555.59574  0.010479775 0.0090933345            2 
 4419000   0.54017381   -8.8896985    555.43134  0.010474303 0.0090900754            7 
 4420000   0.54486936    -8.916009    555.20915  0.010467744 0.0090868127            6 
 4421000   0.54192643    -8.926998     555.5325  0.010471471 0.0090835574            5 
 4422000   0.55288208   -8.9367458     556.0033  0.010477976 0.0090803004            6 
 4423000   0.54218084   -8.9204501    556.57498  0.010486378  0.009077045            4 
 4424000   0.54678409   -8.9112667    555.99903  0.010473158 0.0090737927            5 
 4425000   0.54011718   -8.9155299    556.25776  0.010475664 0.0090705434            8 
 4426000   0.53925451   -8.9100203    555.45529  0.010458188 0.0090672938            6 
 4427000   0.55871154   -8.9131988    555.89703  0.010464141 0.0090640462            2 
 4428000   0.53527301   -8.9056142    556.40176  0.010471277 0.0090607972            7 
 4429000   0.54603705   -8.9283511    556.39081  0.010468707 0.0090575484            3 
 4430000   0.55311125   -8.9249273    556.00581  0.010459101 0.0090543019            9 
 4431000   0.54275157   -8.9171001    556.86772   0.01047295 0.0090510585            3 
 4432000   0.54376092   -8.9158637    556.00592  0.010454383 0.0090478151            6 
 4433000   0.54233967   -8.9239357    556.95513  0.010469869 0.0090445742            2 
 4434000   0.54145588   -8.8931524     555.9116  0.010447895 0.0090413384            7 
 4435000   0.54357952   -8.9128444     555.9073  0.010445458 0.0090381012            4 
 4436000   0.54181078   -8.9036534    556.27392  0.010449991 0.0090348649            2 
 4437000   0.53593019   -8.9171717    556.28594  0.010447861 0.0090316274            2 
 4438000   0.54465232   -8.9078377    555.59322    0.0104325 0.0090283946            3 
 4439000   0.55418674   -8.9118685    555.80874  0.010434196 0.0090251656            4 
 4440000   0.54153526   -8.9193447    556.08839  0.010437094 0.0090219393            4 
 4441000   0.54656287   -8.9000473    555.35368  0.010420958 0.0090187122            4 
 4442000   0.54400354    -8.921105     555.8263  0.010427478 0.0090154843            8 
 4443000   0.53467285   -8.9047785    556.01768  0.010428721 0.0090122592            4 
 4444000   0.53864357   -8.9239668    555.97799   0.01042563 0.0090090345            5 
 4445000   0.53441223   -8.9124498    556.62792  0.010435469 0.0090058114            5 
 4446000   0.54537335   -8.9221442    555.37454  0.010409629 0.0090025886            3 
 4447000   0.53386256   -8.9121017    555.62705   0.01041202 0.0089993654            9 
 4448000   0.54491106   -8.9130944     556.6802   0.01042941 0.0089961457            2 
 4449000   0.53700826   -8.9299762     555.4934  0.010404836  0.008992927            5 
 4450000   0.53316287   -8.9004508    554.71862  0.010387989 0.0089897118            4 
 4451000   0.54216911   -8.9252794     554.7168  0.010385621 0.0089864947            4 
 4452000   0.54562725    -8.920868    555.16173  0.010391617 0.0089832827            6 
 4453000    0.5286083   -8.9130469    555.56694  0.010396866 0.0089800718            5 
 4454000   0.53535658   -8.9100778    555.94275  0.010401563 0.0089768621            7 
 4455000   0.54114514   -8.9228742    556.32156  0.010406314 0.0089736522            5 
 4456000   0.54307718   -8.9102783    555.92817  0.010396622 0.0089704458            7 
 4457000   0.54715975   -8.9042432    555.86607  0.010393128 0.0089672367            5 
 4458000   0.55266695   -8.9358143    555.36976  0.010381519 0.0089640322            5 
 4459000   0.53832123   -8.9233198    555.39575  0.010379677 0.0089608289            4 
 4460000   0.53638087   -8.9346889    556.46119  0.010397257 0.0089576287            4 
 4461000   0.52631343   -8.9234732    555.30421  0.010373313 0.0089544255           12 
 4462000   0.53454193   -8.9326328    555.47754  0.010374226 0.0089512287            5 
 4463000   0.53326291    -8.932943    555.35548  0.010369622 0.0089480276            8 
 4464000   0.54091727   -8.9061728    555.81375  0.010375854 0.0089448309            4 
 4465000   0.54030195   -8.9147016     555.8475   0.01037416  0.008941633            3 
 4466000   0.52502603   -8.9216404    555.27304  0.010361118 0.0089384394            6 
 4467000   0.53031552   -8.9369205    554.70696  0.010348238 0.0089352449            3 
 4468000    0.5331249   -8.9196046    555.51836  0.010361056 0.0089320524            4 
 4469000   0.54164218   -8.9313438    555.45485  0.010357553 0.0089288609            9 
 4470000   0.54960956    -8.925547    554.62453  0.010339756 0.0089256729            7 
 4471000   0.52824751   -8.9335299    555.36927  0.010351325 0.0089224837            5 
 4472000   0.53945238    -8.929635    555.86682  0.010358281 0.0089193002            3 
 4473000   0.53635722    -8.920004    555.23723  0.010344236 0.0089161157           14 
 4474000   0.53493374   -8.9106334    556.53881  0.010366168 0.0089129327            3 
 4475000   0.54164839   -8.9181365    556.06785  0.010355081 0.0089097545            7 
 4476000   0.54116324   -8.9251885    555.44373  0.010341148 0.0089065734            7 
 4477000   0.53618293   -8.9256709    555.19688  0.010334243 0.0089033965            9 
 4478000   0.53887163   -8.9343914    555.87281  0.010344514 0.0089002178           10 
 4479000   0.54719232   -8.9278801     555.2215  0.010330087 0.0088970409            5 
 4480000   0.54045091   -8.9247919    555.35801   0.01033032 0.0088938684            6 
 4481000    0.5376889   -8.9181782    555.57411  0.010332034 0.0088906958            2 
 4482000   0.54470586   -8.9250656    555.66523  0.010331422 0.0088875226           11 
 4483000   0.53509933   -8.9438012    555.44081  0.010324946 0.0088843525            5 
 4484000   0.52972531   -8.9463037    555.87832  0.010330775 0.0088811855            1 
 4485000    0.5316818   -8.9272517    555.34783  0.010318614 0.0088780201            6 
 4486000   0.54182766    -8.916063    554.93308   0.01030861 0.0088748572            3 
 4487000   0.53518866    -8.929028    555.29522  0.010313038 0.0088716927            7 
 4488000   0.53891952   -8.9328522    555.40232  0.010312729 0.0088685307           15 
 4489000   0.53525796   -8.9163623    555.81385  0.010318071 0.0088653669            8 
 4490000   0.53507788   -8.9232402    555.79106   0.01031535 0.0088622072            8 
 4491000   0.53413416    -8.930106    555.81054  0.010313415   0.00885905            3 
 4492000   0.52049551   -8.9299964    555.99785  0.010314593 0.0088558979            5 
 4493000   0.55274557    -8.949479    555.62128  0.010305314 0.0088527437            6 
 4494000   0.53887227   -8.9280502    555.57084  0.010302085 0.0088495935            5 
 4495000   0.54101917   -8.9199767    557.46017   0.01033482 0.0088464416            3 
 4496000   0.53972642   -8.9302703    555.19978  0.010290625 0.0088432907            7 
 4497000   0.54110053   -8.9303569    555.46701  0.010293288 0.0088401443            9 
 4498000   0.54036379   -8.9505507    555.54034  0.010292358  0.008836998            7 
 4499000    0.5384951   -8.9404024    555.37621  0.010287031 0.0088338524            5 
 4500000   0.52364539   -8.9256143    555.83531  0.010293247 0.0088307082            3 
 4501000   0.53257727    -8.927867    555.65613  0.010287642 0.0088275638            4 
 4502000     0.533545   -8.9638355    555.46621  0.010281842 0.0088244215            7 
 4503000   0.52159016   -8.9551425    556.05255  0.010290409 0.0088212805            4 
 4504000   0.54280037   -8.9419768    555.92741  0.010285809 0.0088181416            6 
 4505000   0.54064148   -8.9270191    555.15426  0.010269224 0.0088150028            9 
 4506000   0.53999785   -8.9252386    555.52374  0.010273778 0.0088118656            8 
 4507000   0.52376684   -8.9309724    554.86488  0.010259317 0.0088087293            8 
 4508000   0.53234177   -8.9166873    555.75814  0.010273553 0.0088055991            6 
 4509000   0.53614077   -8.9198824    554.87965  0.010255039 0.0088024656            3 
 4510000   0.53186715   -8.9408589    555.81279  0.010270007 0.0087993331            9 
 4511000   0.52425206   -8.9229327    555.76567   0.01026686 0.0087962017            7 
 4512000   0.53291169   -8.9369274     554.1894  0.010235472 0.0087930715            6 
 4513000   0.52674141   -8.9632149    554.91322   0.01024657 0.0087899467            5 
 4514000   0.53384339   -8.9259151    554.94322  0.010244854 0.0087868214            5 
 4515000   0.52755758   -8.9296066    555.57692   0.01025428 0.0087836948            3 
 4516000   0.53399183   -8.9344268    556.06265  0.010260973 0.0087805725            2 
 4517000   0.52570108   -8.9350645    554.97545  0.010238644 0.0087774511            9 
 4518000   0.52673607   -8.9424589     555.2724  0.010241855 0.0087743314            7 
 4519000      0.53772   -8.9253969    555.32234  0.010240509 0.0087712135           10 
 4520000   0.53788998   -8.9442901    555.24557  0.010236828 0.0087680943            8 
 4521000   0.51688151   -8.9433625    555.59409  0.010240988 0.0087649783            6 
 4522000   0.52536842   -8.9579906    555.00865  0.010227935 0.0087618611            7 
 4523000   0.53742837   -8.9425397    554.47407  0.010215824 0.0087587496            3 
 4524000   0.52418035   -8.9643272    554.35342  0.010211344 0.0087556359            9 
 4525000   0.51399195   -8.9681033    555.72537  0.010234353 0.0087525214           10 
 4526000   0.52893692   -8.9328346    555.44859  0.010226996 0.0087494127            2 
 4527000   0.53530951    -8.950956    554.59896  0.010209097 0.0087463007            6 
 4528000   0.52557968   -8.9360531    555.16571  0.010217272 0.0087431915            7 
 4529000   0.52672862   -8.9316561    554.83889  0.010209003 0.0087400822            3 
 4530000    0.5236334   -8.9388821    555.69424  0.010222484 0.0087369791            4 
 4531000   0.51881303   -8.9355318    555.88203  0.010223682 0.0087338746            4 
 4532000   0.52530757   -8.9413244    554.63341  0.010198467 0.0087307739            5 
 4533000   0.51625027   -8.9426804    555.55766  0.010213208 0.0087276772            6 
 4534000    0.5225308   -8.9284558     555.3772  0.010207639 0.0087245784            5 
 4535000   0.52046474   -8.9521976    554.47297  0.010188772 0.0087214816            6 
 4536000   0.52572747   -8.9378417    555.41751  0.010203878 0.0087183885            5 
 4537000   0.52108744   -8.9552601    554.75213  0.010189408 0.0087152947            7 
 4538000   0.53002662   -8.9415156    555.51957  0.010201255 0.0087122015            5 
 4539000   0.53578256   -8.9403205    554.33026  0.010177173 0.0087091101            5 
 4540000   0.52062339   -8.9529574    554.94433  0.010186203 0.0087060208            9 
 4541000    0.5247654   -8.9556453    555.34274  0.010191271  0.008702933            3 
 4542000   0.53157151   -8.9372713    555.84242  0.010198195 0.0086998449            4 
 4543000   0.53256487   -8.9447151    554.73525  0.010175641 0.0086967627            7 
 4544000   0.52132631   -8.9336319    554.93272  0.010177023 0.0086936798            5 
 4545000   0.52370622   -8.9337429    555.70379  0.010188922 0.0086905969            3 
 4546000   0.52048358   -8.9460598    554.19746  0.010159068 0.0086875179            5 
 4547000   0.52713782   -8.9588671    555.26193  0.010176342 0.0086844407           11 
 4548000   0.51375066   -8.9329426    554.39252  0.010158174 0.0086813608            8 
 4549000   0.52800109   -8.9549933    555.09947  0.010168892 0.0086782834            2 
 4550000   0.52529329   -8.9526503     555.1257  0.010167137 0.0086752086            6 
 4551000    0.5398674   -8.9558576    555.21508   0.01016654 0.0086721365            3 
 4552000   0.53174296   -8.9471428    555.06085  0.010161483  0.008669064            6 
 4553000   0.52571698   -8.9397968    554.60065  0.010150828 0.0086659897            3 
 4554000     0.521592   -8.9552248    555.60012  0.010166888 0.0086629179           10 
 4555000   0.52529098   -8.9563221    555.85895  0.010169392 0.0086598511            8 
 4556000   0.52432395   -8.9369398    555.16549  0.010154476 0.0086567784            7 
 4557000    0.5251819   -8.9461942    555.13492  0.010151688 0.0086537112            8 
 4558000   0.52682809   -8.9468944    554.58819  0.010139465 0.0086506447           12 
 4559000   0.52187993   -8.9309644    555.05515  0.010145777 0.0086475811            6 
 4560000   0.51766363   -8.9474416    553.72555  0.010119253 0.0086445165            6 
 4561000   0.52959197   -8.9462567    554.96422  0.010139666 0.0086414523            5 
 4562000   0.53121969   -8.9467081     555.0802  0.010139562 0.0086383903            6 
 4563000   0.51274125   -8.9367947    555.66824  0.010148079 0.0086353315            7 
 4564000   0.51546073   -8.9660654    554.96297  0.010132979 0.0086322743            7 
 4565000    0.5217794   -8.9465325    553.63537  0.010106524 0.0086292148            7 
 4566000   0.52165674   -8.9490226     554.8926  0.010127256 0.0086261594           14 
 4567000   0.53495432   -8.9657882    554.78843  0.010123138 0.0086231032            8 
 4568000    0.5309061   -8.9377641    555.32111  0.010130639 0.0086200488            8 
 4569000   0.52637339   -8.9336774       554.31   0.01010998 0.0086170001            9 
 4570000   0.53865111   -8.9479734    554.96777  0.010119762 0.0086139521            5 
 4571000   0.52527486   -8.9538891    554.90576  0.010116418 0.0086109043           10 
 4572000   0.52476076   -8.9639259    555.79742  0.010130457 0.0086078551            5 
 4573000   0.52750473   -8.9502126    554.77216  0.010109559 0.0086048109            7 
 4574000   0.53563683   -8.9453235    553.98884  0.010093078 0.0086017648            5 
 4575000   0.51644841   -8.9380375    554.92908  0.010107998 0.0085987223            6 
 4576000   0.51939932   -8.9550163    555.18213  0.010110397 0.0085956801            7 
 4577000   0.52056381   -8.9641326    554.55439  0.010096759 0.0085926416            2 
 4578000    0.5081215   -8.9474385    555.58688  0.010113348  0.008589602           11 
 4579000   0.52178009   -8.9725482    555.07655  0.010101852 0.0085865631            5 
 4580000   0.52287935   -8.9431561    554.32872  0.010086039 0.0085835283            8 
 4581000   0.51524133   -8.9599755    553.99362  0.010077742 0.0085804958            7 
 4582000   0.51541756   -8.9708802    553.70411  0.010070277 0.0085774626            5 
 4583000   0.51820087    -8.952814    555.09206  0.010093317 0.0085744291            7 
 4584000   0.51785619   -8.9481821    554.57425  0.010081702 0.0085713999            7 
 4585000   0.51780599   -8.9548006    555.40547   0.01009461 0.0085683729            4 
 4586000   0.52261227   -8.9542612    554.21044  0.010070694 0.0085653477            4 
 4587000   0.51918232   -8.9423181    554.94181  0.010081786 0.0085623209            2 
 4588000   0.50754481    -8.948056    554.80824  0.010077162 0.0085592965            8 
 4589000   0.52455801   -8.9358492    554.73024   0.01007355 0.0085562734            8 
 4590000   0.51647993   -8.9490934    554.17284  0.010061235 0.0085532542            7 
 4591000   0.51878955   -8.9600608    554.78953  0.010070238 0.0085502341            3 
 4592000   0.52110273   -8.9689303    553.89673  0.010051843 0.0085472153            6 
 4593000   0.51225671   -8.9477898    554.43842  0.010059482 0.0085441984            3 
 4594000   0.51913131    -8.971482    554.51391  0.010058662 0.0085411819            6 
 4595000   0.51970751   -8.9496314    555.10897  0.010067265 0.0085381668            4 
 4596000   0.51566086    -8.971703    554.17841  0.010048202 0.0085351536            4 
 4597000   0.51152503    -8.958025    555.16171  0.010063841 0.0085321436            5 
 4598000   0.51834451   -8.9585244    554.85538    0.0100561 0.0085291336           10 
 4599000    0.5097251   -8.9482027     554.2698  0.010043303 0.0085261249            9 
 4600000   0.50373769   -8.9693342    555.30337  0.010059844 0.0085231166            6 
 4601000   0.51615307   -8.9481657    554.96618   0.01005155 0.0085201098            3 
 4602000   0.50474292   -8.9770663    555.11017  0.010051973 0.0085171041            3 
 4603000   0.51011604   -8.9533967    554.57698  0.010040136 0.0085140978            9 
 4604000   0.52092164   -8.9698644     553.7215  0.010022471 0.0085110941            8 
 4605000   0.51692553   -8.9601772    554.80977  0.010039989 0.0085080931            7 
 4606000   0.51628028   -8.9587517     553.8782  0.010020955 0.0085050931            7 
 4607000   0.51898865   -8.9624661    555.71257   0.01005196 0.0085020957            6 
 4608000    0.5173656   -8.9627443     554.3747  0.010025584 0.0084990987           10 
 4609000   0.49624565   -8.9538712    555.44215  0.010042709  0.008496099            5 
 4610000   0.51600996    -8.943064    554.83383  0.010029534 0.0084931059            3 
 4611000   0.51233997   -8.9736169    554.22067  0.010016278   0.00849011            5 
 4612000   0.52093813   -8.9686083    554.83042  0.010025123  0.008487119            3 
 4613000   0.50869475   -8.9516802    554.69744  0.010020548 0.0084841282            2 
 4614000   0.51644112   -8.9627401    555.16315  0.010026787 0.0084811372            6 
 4615000   0.51659618   -8.9593103    554.83557  0.010018699 0.0084781464            7 
 4616000   0.51625782   -8.9553282    554.52334  0.010010892 0.0084751585            7 
 4617000    0.5119093   -8.9710545    555.38628  0.010024299 0.0084721747            5 
 4618000   0.50863535   -8.9692874    554.19701  0.010000668  0.008469191            4 
 4619000   0.51371229   -8.9549867    554.40229  0.010002206 0.0084662078            5 
 4620000   0.50757672   -8.9622125    553.65488   0.00998656 0.0084632294            7 
 4621000   0.50910075    -8.957878    554.75666  0.010004268 0.0084602513            8 
 4622000   0.51134972   -8.9459525    554.49721 0.0099974255  0.008457273            4 
 4623000   0.50534937   -8.9648154    555.13801  0.010006814 0.0084542941            6 
 4624000   0.50582199   -8.9621734    554.39511 0.0099912613 0.0084513162            5 
 4625000    0.5099553   -8.9669062    553.99605 0.0099819108  0.008448341            6 
 4626000   0.50608084   -8.9537606    553.95221 0.0099789632 0.0084453662            9 
 4627000   0.52080325   -8.9661897    554.91241 0.0099941001 0.0084423912            4 
 4628000   0.50550203   -8.9614027    554.14058 0.0099780427 0.0084394191            9 
 4629000   0.51740192   -8.9659187    555.72041  0.010004328 0.0084364494            4 
 4630000   0.51533935   -8.9713269    554.85587 0.0099866068 0.0084334811            9 
 4631000   0.50815592   -8.9704441    554.75993 0.0099827238 0.0084305127            4 
 4632000   0.50996694   -8.9665403    554.79537 0.0099812063 0.0084275453            7 
 4633000   0.51745996    -8.972099    554.83559 0.0099797753 0.0084245816            7 
 4634000   0.50312929   -8.9767574    554.18909 0.0099659958 0.0084216178            4 
 4635000   0.50496902   -8.9672419    553.99424 0.0099603423 0.0084186576            9 
 4636000   0.50136343   -8.9502378    554.43023 0.0099660309 0.0084156958            8 
 4637000   0.51889076   -8.9866668    554.77772 0.0099701264 0.0084127364            4 
 4638000    0.5214743   -8.9699241    554.46082  0.009962283 0.0084097772            4 
 4639000   0.49825592   -8.9703324     553.4551  0.009942069 0.0084068188            5 
 4640000   0.51727745   -8.9622886     554.6657 0.0099616685 0.0084038635            4 
 4641000   0.51620726   -8.9559203    554.82708 0.0099624197 0.0084009119            9 
 4642000   0.51547827   -8.9576407    554.09816  0.009947188 0.0083979577            5 
 4643000   0.51105323   -8.9693355     553.6171 0.0099364115 0.0083950064           10 
 4644000   0.51070778   -8.9603713    554.97747 0.0099586827 0.0083920547            5 
 4645000    0.5069561   -8.9560471    554.10932 0.0099409637 0.0083891061            5 
 4646000   0.51245015   -8.9489063    554.92481 0.0099534512 0.0083861572            4 
 4647000   0.51339392   -8.9574889    554.03474 0.0099353479 0.0083832118            8 
 4648000   0.50647188   -8.9603887    555.04207 0.0099512706 0.0083802698           12 
 4649000   0.51782545    -8.961231    554.46777 0.0099388357 0.0083773293            5 
 4650000     0.503204   -8.9743457    553.46565 0.0099187392  0.008374386            8 
 4651000   0.51564366   -8.9729554    555.71765 0.0099569563 0.0083714462            6 
 4652000   0.50591492    -8.950954    553.75647 0.0099196846 0.0083685074            6 
 4653000     0.514463   -8.9859615    554.28958 0.0099271004 0.0083655706            8 
 4654000   0.51343217   -8.9795121    553.56906  0.009912066 0.0083626337           10 
 4655000   0.51503909   -8.9616907    554.80719 0.0099321016  0.008359698           10 
 4656000   0.51155665   -8.9750874     554.2881 0.0099206776 0.0083567652            5 
 4657000   0.50537909   -8.9698914    553.48111 0.0099041068 0.0083538335            3 
 4658000   0.51191677   -8.9601486    554.20044 0.0099148498 0.0083509014            5 
 4659000   0.50893691   -8.9754631    554.43969 0.0099170009 0.0083479738            4 
 4660000   0.49949198   -8.9743913    554.50465 0.0099160346 0.0083450449            4 
 4661000    0.5128767   -8.9548789    554.04602 0.0099057074 0.0083421169            7 
 4662000   0.50500938   -8.9740903    554.82471 0.0099175015 0.0083391912            6 
 4663000   0.49665522   -8.9911332    554.24337 0.0099049855 0.0083362634            6 
 4664000   0.49578546   -8.9739385    553.93392 0.0098973327  0.008333337           10 
 4665000   0.50788467   -8.9703465    554.21255 0.0099001884  0.008330415            6 
 4666000   0.49872295   -8.9713916    554.04325  0.009895043  0.008327492           10 
 4667000   0.49586759   -8.9891582    554.34664 0.0098983402 0.0083245718            6 
 4668000   0.50011132   -8.9731571    553.87684 0.0098878327 0.0083216504            8 
 4669000   0.50753586   -8.9879031    554.50599 0.0098969442 0.0083187337            3 
 4670000   0.50092492   -8.9579764    554.04133 0.0098865335 0.0083158202            5 
 4671000   0.50193997   -8.9676843    554.09183 0.0098853178 0.0083129056            8 
 4672000   0.50406141   -8.9953207    554.03849 0.0098822504 0.0083099928            8 
 4673000   0.50076628   -8.9750586    554.47402 0.0098879026 0.0083070812            2 
 4674000    0.5067913   -8.9700179     554.6667 0.0098892222 0.0083041684           12 
 4675000   0.50616156   -8.9586908    554.56321 0.0098852621 0.0083012587           12 
 4676000   0.49738677   -8.9740852    553.77053 0.0098690215 0.0082983505            5 
 4677000   0.50173169   -8.9764825     554.7929 0.0098851276 0.0082954455            7 
 4678000   0.49876633   -8.9675874    554.69942 0.0098813492 0.0082925442            6 
 4679000   0.50566477   -8.9789587    555.26188 0.0098892548 0.0082896425            7 
 4680000   0.50781469   -8.9692224    554.15455 0.0098674243 0.0082867445            6 
 4681000   0.49856765   -8.9680641      553.984 0.0098622801 0.0082838423            7 
 4682000    0.5007372   -8.9886546    555.07994 0.0098796799 0.0082809437            4 
 4683000   0.49252888   -8.9643456    553.21798  0.009844437 0.0082780468            7 
 4684000   0.49054184   -8.9795911     553.5347   0.00984797 0.0082751511            8 
 4685000   0.50114341   -8.9622548    554.83145 0.0098689337 0.0082722563            7 
 4686000   0.50701538   -8.9676437    554.10215 0.0098538581 0.0082693607            8 
 4687000   0.50744493   -8.9928367     554.5303 0.0098593681 0.0082664668            6 
 4688000   0.49908065    -8.973356    554.25137 0.0098523067 0.0082635737            6 
 4689000   0.49559979   -8.9707716    553.54916 0.0098377258 0.0082606808            6 
 4690000   0.50826735   -8.9814633     554.0203 0.0098439997 0.0082577891            7 
 4691000   0.50767799   -8.9857829    553.91299 0.0098399949 0.0082548998            4 
 4692000   0.49254719   -8.9769934    554.42609 0.0098470106 0.0082520125           10 
 4693000   0.50149981   -8.9649029    554.86571 0.0098527187  0.008249131            3 
 4694000   0.49184768   -8.9724057    554.51659 0.0098444218 0.0082462447            2 
 4695000    0.5053783    -8.988893    554.17863 0.0098363264 0.0082433586            7 
 4696000   0.50465671   -8.9810676    554.17619 0.0098341884 0.0082404772            5 
 4697000    0.4960103   -8.9678883    553.45805 0.0098193537 0.0082375954           10 
 4698000   0.49301734   -8.9728498     553.6554 0.0098207641 0.0082347159            6 
 4699000   0.50693081   -8.9848415    554.31408 0.0098303554 0.0082318382            8 
 4700000   0.48684838   -8.9718312    553.31575 0.0098105629 0.0082289597            8 
 4701000   0.49298967   -8.9761687    554.10425 0.0098224536  0.008226084            2 
 4702000   0.50104314   -8.9730559    554.57487 0.0098287053 0.0082232091            5 
 4703000   0.49762652    -8.964055    554.04019 0.0098171413 0.0082203376            7 
 4704000   0.50461226   -8.9855308    553.68074 0.0098086866 0.0082174657            2 
 4705000   0.49470935   -8.9684036    554.44312 0.0098201049 0.0082145939            6 
 4706000   0.49849456   -8.9836225    554.75799 0.0098235938 0.0082117238            6 
 4707000   0.49176672   -8.9877113    554.43646 0.0098158144 0.0082088542            8 
 4708000   0.50465142   -8.9895032    554.02993 0.0098065337 0.0082059873            8 
 4709000   0.50414485   -8.9929935    553.29364 0.0097914214 0.0082031232            3 
 4710000   0.50695115   -8.9873247    553.89906 0.0098000541 0.0082002562            6 
 4711000   0.50736185    -8.995227    553.82494 0.0097966628 0.0081973947            7 
 4712000   0.50678388   -8.9740725    554.41079 0.0098049447 0.0081945343            6 
 4713000   0.48678028   -8.9918615    554.07594 0.0097969436 0.0081916746            6 
 4714000   0.49393882   -8.9889025    553.95529 0.0097927325  0.008188813            3 
 4715000   0.49058758   -8.9771682    554.38057  0.009798172 0.0081859553            5 
 4716000   0.50169024   -8.9773032    553.80291 0.0097858869 0.0081831004            6 
 4717000   0.49453531   -8.9755871    553.90092 0.0097855438 0.0081802438            8 
 4718000   0.49703605   -8.9965786    554.62968 0.0097963416   0.00817739            7 
 4719000   0.48711261    -8.996831    553.44002 0.0097732574 0.0081745374            9 
 4720000   0.49730457   -8.9795944    553.64154 0.0097747446 0.0081716865            8 
 4721000   0.48813546   -8.9867686    553.62846 0.0097724433 0.0081688351            6 
 4722000    0.4968495   -8.9828894    554.51668 0.0097860491 0.0081659875            6 
 4723000   0.49285674   -8.9738672    553.29134  0.009762357 0.0081631414            8 
 4724000   0.49896391   -8.9882098    553.56572 0.0097651305  0.008160296            8 
 4725000   0.50276042   -8.9893132    554.17219   0.00977376 0.0081574535            4 
 4726000   0.48998016   -8.9972027    553.67251  0.009762881 0.0081546105            9 
 4727000   0.49663654    -8.992444    552.87993 0.0097468432 0.0081517669            6 
 4728000   0.50745533   -8.9901645    553.77009 0.0097604712 0.0081489243            6 
 4729000   0.49486016   -8.9896968    553.03239 0.0097454075 0.0081460827            6 
 4730000   0.48609744   -9.0081189    553.81884 0.0097572029 0.0081432397            6 
 4731000   0.49907284   -9.0061396    552.44577 0.0097309548 0.0081403999            5 
 4732000   0.50268218   -8.9839213    554.04458 0.0097570544 0.0081375642            9 
 4733000   0.49038479   -9.0047935    553.12451 0.0097387934 0.0081347257            6 
 4734000   0.48718798   -8.9876334    553.27397 0.0097393672 0.0081318918            3 
 4735000   0.49488339   -8.9976694     553.3939 0.0097394211 0.0081290586            7 
 4736000     0.477632   -9.0011738    553.92417  0.009746695 0.0081262258            3 
 4737000   0.49768381   -8.9956712    553.99291 0.0097458467 0.0081233964            9 
 4738000   0.49829624    -8.992833    554.70034 0.0097562323 0.0081205672            7 
 4739000   0.50511061   -8.9869539    552.91993 0.0097228658 0.0081177383            8 
 4740000   0.48356786   -8.9838301    553.62888 0.0097332785 0.0081149104            4 
 4741000   0.48698299   -8.9989726     554.5274  0.009747019 0.0081120882            7 
 4742000   0.49099806   -8.9988501    553.24275 0.0097223878 0.0081092631            9 
 4743000   0.48498226    -8.984139    553.22586 0.0097200411 0.0081064417            6 
 4744000   0.49095835   -9.0008047    553.78447 0.0097278048 0.0081036189            5 
 4745000   0.48797234   -8.9938887    554.53771 0.0097389834 0.0081008003            4 
 4746000   0.48832147   -8.9875648    553.57327  0.009719997 0.0080979819            3 
 4747000   0.48203493   -9.0141069    553.80905 0.0097220886  0.008095164            2 
 4748000   0.50588009   -8.9841503     553.6715 0.0097176268 0.0080923469            9 
 4749000   0.48465408   -9.0002489    553.74464 0.0097168639 0.0080895329            9 
 4750000   0.49376297   -8.9906696    553.75818 0.0097150558 0.0080867172            8 
 4751000   0.48996336   -9.0094834    552.66522 0.0096938402 0.0080839035            8 
 4752000   0.51075654   -8.9863319    553.94155 0.0097141826 0.0080810934            3 
 4753000   0.49764969   -8.9916582    553.96724 0.0097125892 0.0080782841            4 
 4754000   0.50013852   -9.0069413    553.30383 0.0096989173  0.008075475            2 
 4755000   0.47410654   -9.0127428    553.24555  0.009695856 0.0080726659            4 
 4756000   0.49519828   -8.9972139    553.50569 0.0096983755 0.0080698564            5 
 4757000   0.50445477   -8.9993118    553.08693 0.0096890009  0.008067053            3 
 4758000   0.48974118   -8.9997302    553.94559 0.0097020035 0.0080642496            6 
 4759000   0.49379306   -9.0009752    553.66592 0.0096950675 0.0080614445            3 
 4760000   0.48018117    -8.984421    553.56482 0.0096912609 0.0080586438            9 
 4761000   0.48801606    -9.002587    552.86346 0.0096769492 0.0080558444            5 
 4762000   0.50682613   -9.0163061    553.93229 0.0096936212 0.0080530475            8 
 4763000   0.49792904   -8.9999479     553.1591 0.0096780582 0.0080502481            3 
 4764000   0.49443508    -9.006613    554.21625 0.0096945187 0.0080474502            7 
 4765000   0.49156638   -9.0124539    553.56282 0.0096810566 0.0080446573            5 
 4766000   0.48308105   -8.9911193    554.01626 0.0096869537 0.0080418625            6 
 4767000   0.49489929   -8.9996424    553.06544 0.0096683001 0.0080390698            7 
 4768000   0.49934572   -9.0048678    553.94809  0.009681699 0.0080362807            6 
 4769000   0.49000834   -8.9878963    552.98106 0.0096627711 0.0080334874            6 
 4770000   0.48951912   -8.9974842    554.25391 0.0096829824 0.0080306995           11 
 4771000   0.48406592   -8.9846879    552.99843 0.0096590237 0.0080279137           12 
 4772000    0.4892932   -9.0013801    553.32225 0.0096626545 0.0080251258            7 
 4773000   0.48866276   -9.0101324    552.91064 0.0096534436 0.0080223404            9 
 4774000   0.48748907   -9.0015369    554.25102 0.0096748188 0.0080195547            1 
 4775000    0.4915396   -8.9943557    552.84298 0.0096482196 0.0080167718            7 
 4776000   0.48702144   -9.0050178    553.72337 0.0096615608 0.0080139902            6 
 4777000   0.49150441   -9.0108057    553.61475 0.0096576434 0.0080112097           13 
 4778000   0.48954836   -9.0005058    553.82679 0.0096593203 0.0080084312           11 
 4779000   0.48302341     -9.00245    553.31342 0.0096483474 0.0080056525            7 
 4780000   0.48141501   -8.9975534    553.67463 0.0096526261 0.0080028777            6 
 4781000   0.49670249   -8.9984163    553.81762 0.0096530995 0.0080001014            8 
 4782000   0.49198822    -9.001519    553.32181 0.0096424407 0.0079973268           12 
 4783000   0.49030588     -9.01325    553.96093 0.0096515599 0.0079945536            4 
 4784000   0.48591705     -8.99417    553.34602 0.0096388312 0.0079917841            6 
 4785000   0.49587031   -9.0040912    554.59182 0.0096585131 0.0079890161            6 
 4786000   0.49653104    -8.990713    553.69272   0.00964084 0.0079862493            5 
 4787000   0.50595632    -9.011944    553.27249 0.0096315105 0.0079834838            7 
 4788000    0.4852548   -8.9989309    553.60536 0.0096352924 0.0079807166            5 
 4789000   0.48929966    -9.005152    553.14586 0.0096252847  0.007977951            5 
 4790000   0.48566252   -8.9995522    553.80671 0.0096347723 0.0079751851           10 
 4791000   0.47831959   -9.0148646    552.30207 0.0096065899  0.007972422            4 
 4792000   0.48890294    -9.005053    552.75966 0.0096125428 0.0079696581            8 
 4793000   0.48463092   -8.9930491    553.83012 0.0096291487  0.007966897           10 
 4794000   0.49595191   -8.9967405    552.92284 0.0096113691 0.0079641408            7 
 4795000   0.47937306   -9.0147281    553.29711 0.0096158692 0.0079613823            5 
 4796000   0.48463523   -9.0178397     553.7583 0.0096218776 0.0079586272            7 
 4797000   0.48116496   -9.0027288    553.19436 0.0096100751 0.0079558731           10 
 4798000   0.47727934   -8.9967058    553.86741 0.0096197619 0.0079531211            8 
 4799000   0.47995163   -9.0071175     553.7465 0.0096156577 0.0079503699           10 
 4800000   0.48514326   -9.0072079    552.74261 0.0095962259 0.0079476168           12 
 4801000    0.4825121   -8.9992488    553.31518 0.0096041655 0.0079448657            6 
 4802000   0.48322057   -9.0179683    553.59026 0.0096069391 0.0079421151            3 
 4803000   0.47981697   -9.0168462     553.8568 0.0096095635 0.0079393655           10 
 4804000   0.48112344   -9.0076065    553.50851 0.0096015215 0.0079366191           11 
 4805000   0.48185869   -9.0104945    554.02859  0.009608543  0.007933874            3 
 4806000   0.47632314   -9.0065352    552.87434 0.0095865297 0.0079311272            4 
 4807000   0.47914649   -9.0198326    554.11908 0.0096061141 0.0079283842            4 
 4808000   0.48567989   -9.0136455    553.49124 0.0095932342 0.0079256392            5 
 4809000   0.48978085   -9.0147769    553.10546 0.0095845543 0.0079228953            6 
 4810000   0.48822937   -8.9891046    553.02204 0.0095811164 0.0079201549            9 
 4811000   0.46899829   -9.0249101     553.3636 0.0095850411 0.0079174168            5 
 4812000   0.48748205   -9.0136788    553.19983 0.0095802132 0.0079146795            3 
 4813000   0.49151719   -9.0043582    553.39272 0.0095815625 0.0079119428            6 
 4814000   0.49059723     -9.00326     552.5954   0.00956577 0.0079092089            5 
 4815000   0.48098022   -9.0134877    553.08343 0.0095722296 0.0079064746            8 
 4816000   0.47047292   -9.0101748     552.8026 0.0095653827 0.0079037416            6 
 4817000   0.48404539   -9.0019999    553.30495 0.0095720875 0.0079010122            3 
 4818000   0.48008068   -9.0266722    553.51421 0.0095737202 0.0078982823            8 
 4819000   0.48705334   -9.0105888    552.48153 0.0095538757 0.0078955535            8 
 4820000   0.48018424   -9.0180801     553.6002 0.0095712344 0.0078928248            9 
 4821000   0.48635537   -9.0174524    553.33681 0.0095646964 0.0078900969            8 
 4822000   0.48247222   -9.0316701     553.7626 0.0095700711  0.007887371            4 
 4823000   0.48253378   -9.0098194    552.96064 0.0095542304 0.0078846473            3 
 4824000   0.47777979    -9.019074    554.14531 0.0095727148 0.0078819232            5 
 4825000   0.47758483    -9.002075    554.41727 0.0095754277 0.0078792002            2 
 4826000   0.46867729   -9.0245801    552.89137  0.009547095 0.0078764821            3 
 4827000   0.48767426   -9.0221513    551.90832 0.0095281459  0.007873764            5 
 4828000   0.46094491   -9.0200136    553.32798 0.0095506763 0.0078710464            3 
 4829000   0.49115351   -9.0144603    552.75329 0.0095387812 0.0078683289            4 
 4830000    0.4838606   -9.0192048    553.18346  0.009544228 0.0078656157            6 
 4831000   0.48597944   -9.0164263    553.46595 0.0095471253 0.0078629016            7 
 4832000   0.46684979    -9.010206    551.34875  0.009508636 0.0078601864            5 
 4833000   0.48084929   -9.0007047    553.20657 0.0095387021 0.0078574721            4 
 4834000   0.48514031   -9.0095728    552.77278 0.0095292508 0.0078547617            7 
 4835000   0.47659386   -9.0152273    552.96779 0.0095306409 0.0078520526            8 
 4836000   0.48372652   -9.0266034    553.53549 0.0095384528 0.0078493455           10 
 4837000   0.48775809   -9.0126388    553.01354 0.0095274885 0.0078466393            6 
 4838000   0.48707361   -9.0148637    553.03649 0.0095259145 0.0078439311            6 
 4839000   0.47668192   -9.0149369    552.65301 0.0095173419 0.0078412245            8 
 4840000    0.4788397   -9.0319329    553.11379 0.0095233091 0.0078385209            9 
 4841000   0.47546283   -9.0119242    553.81281 0.0095333748 0.0078358196            3 
 4842000   0.48255495   -9.0151613    553.09961 0.0095191313 0.0078331161            7 
 4843000   0.46608113   -9.0221476    553.80648 0.0095293289 0.0078304172            3 
 4844000   0.48153098   -9.0249643    552.94039  0.009512462 0.0078277181            5 
 4845000   0.47317736   -9.0106842    552.71253 0.0095065794   0.00782502            8 
 4846000   0.46604588   -9.0237272    553.22564 0.0095134414 0.0078223231            7 
 4847000   0.47849527    -9.023833     553.6713 0.0095191408 0.0078196277            4 
 4848000   0.47040747   -9.0196805    553.44965 0.0095133671 0.0078169342            7 
 4849000   0.47153316    -9.013866    553.02834 0.0095041647 0.0078142421            4 
 4850000   0.46737373   -9.0176184    552.99552 0.0095016412 0.0078115511            4 
 4851000    0.4721326    -9.041986     553.0497 0.0095006133 0.0078088628            6 
 4852000   0.47520501   -9.0242842     553.2131 0.0095014615 0.0078061736            7 
 4853000   0.46063401   -9.0193877    553.55553 0.0095053838 0.0078034851            7 
 4854000   0.47807076   -9.0279273    552.70997 0.0094889089 0.0078007977            6 
 4855000   0.48094017   -9.0186814    552.93133 0.0094907539 0.0077981107            2 
 4856000   0.47007936   -9.0165119    553.05333 0.0094908932 0.0077954243            4 
 4857000   0.47149103   -9.0197045     553.3775  0.009494501 0.0077927392            8 
 4858000    0.4803201   -9.0224201    552.63961 0.0094798891 0.0077900557            6 
 4859000   0.47995602   -9.0286392    553.00225 0.0094841574 0.0077873719            2 
 4860000   0.47339029   -9.0133865    552.80333  0.009478795 0.0077846916            7 
 4861000   0.47290937    -9.027996    552.96407 0.0094796008 0.0077820129            2 
 4862000    0.4720866   -9.0222747    552.59421 0.0094713117 0.0077793346            6 
 4863000    0.4688961   -9.0146596    553.10158 0.0094780584 0.0077766576            2 
 4864000   0.47664873   -9.0217734    552.85485 0.0094718827 0.0077739799            4 
 4865000   0.46709193   -9.0274545    551.92472 0.0094540035 0.0077713032            6 
 4866000   0.47621469   -9.0229338    553.43742 0.0094779664 0.0077686292            5 
 4867000   0.47069517   -9.0190711    553.64294 0.0094795381 0.0077659575            4 
 4868000   0.47095925   -9.0276066     552.7249 0.0094618752 0.0077632873            5 
 4869000    0.4633045   -9.0355249    553.28031 0.0094694378 0.0077606166            3 
 4870000   0.46239702    -9.030448    552.98895 0.0094625078 0.0077579447            6 
 4871000   0.48354767   -9.0127292    553.14394 0.0094632166 0.0077552762            3 
 4872000   0.48105819   -9.0248908    553.53539 0.0094679699 0.0077526097            6 
 4873000   0.47979582   -9.0243707    553.08478  0.009458321 0.0077499454            5 
 4874000   0.47166388   -9.0151361     552.8115 0.0094517081 0.0077472804            2 
 4875000    0.4651695   -9.0271109    553.61365 0.0094634812 0.0077446176            6 
 4876000   0.46847632   -9.0295105    553.17675 0.0094540736  0.007741957            7 
 4877000   0.46025098   -9.0366146    553.10093 0.0094508395 0.0077392965            7 
 4878000   0.46974066   -9.0476134    552.25986 0.0094345336 0.0077366366            6 
 4879000   0.46627391   -9.0194931    552.54671 0.0094374994 0.0077339804            5 
 4880000    0.4716092   -9.0327952    552.65566  0.009437426 0.0077313205            2 
 4881000   0.47463611   -9.0208834    553.39112 0.0094480488 0.0077286639            5 
 4882000   0.47515146   -9.0292215    552.50793  0.009431038  0.007726011            5 
 4883000    0.4779549   -9.0291274    552.24609  0.009424638 0.0077233594            6 
 4884000   0.46288695   -9.0309323    552.56328 0.0094281203 0.0077207069            5 
 4885000   0.46371514   -9.0124636    552.31432 0.0094219434  0.007718056            3 
 4886000   0.47206192   -9.0279738    553.24929 0.0094359614 0.0077154048            6 
 4887000   0.47301808    -9.034564    553.12896 0.0094319788 0.0077127542            5 
 4888000   0.47509713   -9.0382491     552.7299 0.0094232457 0.0077101058            8 
 4889000   0.46721726     -9.02133    552.30594 0.0094140918 0.0077074608            7 
 4890000   0.47365162   -9.0077429    553.23441 0.0094279893  0.007704816            3 
 4891000   0.48011625   -9.0272271    552.12729 0.0094071984  0.007702172            4 
 4892000   0.47155458   -9.0321507    553.32399 0.0094256609 0.0076995283            5 
 4893000   0.46131267   -9.0309408    552.22127 0.0094049538 0.0076968858            5 
 4894000   0.46727538   -9.0216782    552.70128 0.0094112056  0.007694245            4 
 4895000    0.4632624   -9.0513873    551.89641 0.0093955806 0.0076916043            3 
 4896000   0.46370778   -9.0308755    552.77505 0.0094086168 0.0076889658            4 
 4897000   0.45982346   -9.0189443    552.61912 0.0094040419 0.0076863282            3 
 4898000   0.47108575   -9.0252937    552.81311 0.0094054224 0.0076836934            7 
 4899000    0.4642797   -9.0093088     552.5057 0.0093982735 0.0076810579            3 
 4900000   0.47218369   -9.0290868    552.98711 0.0094045428 0.0076784244            5 
 4901000   0.46280094   -9.0357357    552.31614 0.0093912151 0.0076757915            6 
 4902000   0.46972462   -9.0294234    552.14255 0.0093863483 0.0076731599            8 
 4903000   0.47368314   -9.0388614    552.35879 0.0093881091 0.0076705288            8 
 4904000    0.4724954   -9.0237321    552.51172 0.0093887935 0.0076678996            5 
 4905000   0.47927325   -9.0191173    552.68624 0.0093898445 0.0076652719            5 
 4906000   0.46339429   -9.0259103     552.7316 0.0093887009 0.0076626459            6 
 4907000   0.47298202   -9.0218729    552.71015 0.0093864233  0.007660019            3 
 4908000   0.45384323     -9.04237    552.63308 0.0093832022 0.0076573917            6 
 4909000   0.47298646   -9.0317631    553.07731 0.0093888318 0.0076547664            6 
 4910000    0.4559747   -9.0488388    552.58578 0.0093785774 0.0076521416           12 
 4911000   0.47986733   -9.0277279    552.57447 0.0093764757 0.0076495192            3 
 4912000   0.47087576   -9.0311059    551.31627 0.0093532212  0.007646898            9 
 4913000   0.45724069   -9.0298803    552.74667 0.0093755796 0.0076442783            4 
 4914000   0.46315329   -9.0206825     551.5665  0.009353658 0.0076416606            3 
 4915000   0.46274053   -9.0445399    552.27954 0.0093638443 0.0076390429            4 
 4916000   0.46333785   -9.0535213    553.06078 0.0093751828  0.007636428           10 
 4917000   0.46281812   -9.0388237    552.33213 0.0093609269  0.007633815            8 
 4918000   0.46781155   -9.0287015    552.24788 0.0093575959 0.0076312018            5 
 4919000   0.45643159    -9.034787    552.67392 0.0093629112 0.0076285924            3 
 4920000   0.46506935   -9.0390072    552.80712 0.0093632643 0.0076259816            4 
 4921000   0.46207415   -9.0446773    553.12739  0.009366785 0.0076233723            5 
 4922000   0.46820763     -9.03371    552.44254  0.009353287  0.007620766            3 
 4923000   0.45852065   -9.0385367    552.77904  0.009357083 0.0076181576            7 
 4924000   0.45689364   -9.0479899     552.6756 0.0093534321 0.0076155512            9 
 4925000   0.45715259   -9.0281603    552.09289 0.0093416732 0.0076129492            6 
 4926000   0.46442359   -9.0322851    551.68427 0.0093328642  0.007610344            7 
 4927000   0.45480027   -9.0466671    551.51403 0.0093280906 0.0076077399            6 
 4928000   0.47189266   -9.0379489    552.32333 0.0093398831 0.0076051379            7 
 4929000   0.46260699    -9.029964    552.96827 0.0093488921 0.0076025377            4 
 4930000   0.46843645   -9.0480655     552.1989 0.0093339909 0.0075999375            6 
 4931000   0.46100345   -9.0494347    552.25674 0.0093330755 0.0075973391            5 
 4932000   0.46618668   -9.0476813    551.83811 0.0093241098 0.0075947421            5 
 4933000   0.45915722   -9.0332852    552.28859 0.0093298296 0.0075921458            8 
 4934000   0.46486564   -9.0467362    552.56566 0.0093326183 0.0075895502            5 
 4935000   0.46505257    -9.048373    553.07459  0.009339321 0.0075869558            3 
 4936000   0.45995455   -9.0424148    552.40419 0.0093261107 0.0075843646           10 
 4937000   0.45725825   -9.0467286    551.75525 0.0093132679 0.0075817742            9 
 4938000   0.47385957   -9.0368141     552.5068 0.0093240651 0.0075791844            6 
 4939000   0.46448581   -9.0371768    553.07952 0.0093318404 0.0075765946            5 
 4940000     0.464845   -9.0315028    552.96512 0.0093280216 0.0075740079            7 
 4941000   0.46765928   -9.0346406     551.7571 0.0093057596 0.0075714229            3 
 4942000   0.46803519   -9.0399668    552.24877 0.0093121672 0.0075688374            4 
 4943000    0.4685326    -9.054962    551.72985  0.009301535 0.0075662526           10 
 4944000   0.46070915   -9.0405103    551.67997 0.0092988128 0.0075636695            5 
 4945000   0.47347922   -9.0444476    553.51568  0.009327868 0.0075610886            7 
 4946000   0.46814943   -9.0432779    552.50948 0.0093090289 0.0075585081            7 
 4947000   0.45872617   -9.0307239    552.39238 0.0093051745 0.0075559278            7 
 4948000    0.4651764   -9.0484421    552.19628 0.0092999913 0.0075533499            4 
 4949000   0.46153978   -9.0408342    552.97474 0.0093112201 0.0075507707            6 
 4950000   0.46584117   -9.0352943    552.34032 0.0092986587 0.0075481933            7 
 4951000   0.45877771   -9.0407323    551.81803 0.0092879894 0.0075456175           11 
 4952000   0.45376612   -9.0450433    552.40407 0.0092959758 0.0075430428            7 
 4953000   0.46169156   -9.0506955    552.49996 0.0092957124 0.0075404693            5 
 4954000    0.4617593   -9.0484257    553.20805  0.009305747 0.0075378965            8 
 4955000   0.46162631   -9.0379094    551.56868 0.0092762981 0.0075353248            4 
 4956000   0.46251126   -9.0482545    552.09252 0.0092832345 0.0075327552            6 
 4957000   0.44525172   -9.0494364    553.09787 0.0092982628 0.0075301871            6 
 4958000    0.4603903   -9.0438918    551.65847 0.0092721943 0.0075276203            3 
 4959000    0.4555382   -9.0492616    553.17888 0.0092958741  0.007525055            2 
 4960000   0.46002182   -9.0472303    551.67803 0.0092687841 0.0075224895            4 
 4961000    0.4678057   -9.0433807    552.70237 0.0092841223 0.0075199241            4 
 4962000   0.46433281   -9.0325539    552.18655 0.0092735884 0.0075173615            4 
 4963000   0.46462612   -9.0403858    551.73253 0.0092640964 0.0075148002            8 
 4964000   0.46373197   -9.0530641    552.19025 0.0092699143 0.0075122383            4 
 4965000   0.46361133   -9.0459984     552.6523 0.0092758023   0.00750968            4 
 4966000   0.45270289   -9.0607849    552.58243 0.0092727619 0.0075071225            6 
 4967000   0.46150739   -9.0458338    552.13771 0.0092634338 0.0075045643            8 
 4968000   0.45464604   -9.0368373    552.47241 0.0092671835 0.0075020089            7 
 4969000   0.46293962   -9.0357873    552.53713 0.0092664038 0.0074994556            3 
 4970000   0.46063014   -9.0338049    551.95207 0.0092547296 0.0074969018            3 
 4971000   0.45743776   -9.0520754    551.50383 0.0092453535 0.0074943508            7 
 4972000   0.45256611   -9.0580936    552.03205 0.0092523474 0.0074918006            5 
 4973000   0.45762416   -9.0493749    552.61158  0.009260198 0.0074892506            6 
 4974000   0.45804122    -9.061657    552.45153 0.0092556549 0.0074867008            7 
 4975000    0.4543765    -9.040604    552.48498 0.0092543548 0.0074841531            8 
 4976000   0.44933104   -9.0628781    551.87746 0.0092423208 0.0074816067            6 
 4977000   0.46149415   -9.0633884    552.53827 0.0092515281 0.0074790616           10 
 4978000   0.44894141    -9.050882    551.96255  0.009240032 0.0074765171            9 
 4979000   0.45092352   -9.0736375    552.33644  0.009244434 0.0074739723            7 
 4980000   0.44935427   -9.0502169    551.67018 0.0092314288 0.0074714292            6 
 4981000    0.4528185   -9.0451663    552.64407 0.0092458688 0.0074688876            7 
 4982000   0.46367444   -9.0657255    552.02444 0.0092336485 0.0074663469            8 
 4983000   0.45322894   -9.0336142     552.1149 0.0092333082 0.0074638081            2 
 4984000   0.45620522   -9.0576352    551.99269 0.0092294123   0.00746127            6 
 4985000   0.45678567    -9.056159    552.07023 0.0092288571 0.0074587321            5 
 4986000   0.45671671     -9.05362    552.74262 0.0092382441 0.0074562001            8 
 4987000    0.4493362   -9.0626454    552.46791 0.0092318011 0.0074536665            7 
 4988000   0.45686937   -9.0411465    551.90688 0.0092205774 0.0074511348            9 
 4989000   0.45677658   -9.0454811    552.90033 0.0092353231  0.007448604            8 
 4990000   0.46511698   -9.0305523    551.99228  0.009218308 0.0074460754            7 
 4991000   0.45383591   -9.0489264    552.11233 0.0092184654 0.0074435463            8 
 4992000   0.45344614   -9.0466526    551.71286 0.0092099503 0.0074410182            7 
 4993000   0.45138281   -9.0507067    551.97019 0.0092124005  0.007438494            6 
 4994000    0.4562685   -9.0689416    552.01797 0.0092113532 0.0074359697           10 
 4995000   0.45263743   -9.0531286    552.47095 0.0092170663 0.0074334444            8 
 4996000   0.45328211   -9.0507715    552.38816 0.0092138403 0.0074309192            8 
 4997000   0.45309352   -9.0650709    552.60716 0.0092156487 0.0074283947            5 
 4998000   0.44850883   -9.0640279    551.64092 0.0091976944 0.0074258713            6 
 4999000   0.44408539   -9.0542625    551.50167 0.0091935332 0.0074233495            3 
 5000000   0.45491407   -9.0551315    551.80667 0.0091967779   0.00742083            5 
 5001000   0.45064725    -9.062742    551.64206 0.0091921959 0.0074183133            7 
 5002000   0.44460751   -9.0570788    552.54677 0.0092054306 0.0074157953            4 
 5003000   0.45405804   -9.0523964    552.05933 0.0091954715 0.0074132767            3 
 5004000   0.44964654   -9.0735081    552.17056 0.0091954862 0.0074107603            4 
 5005000   0.46009209    -9.056465    552.14612 0.0091932421 0.0074082455            7 
 5006000   0.45250982   -9.0576382    552.36166 0.0091949936 0.0074057325            5 
 5007000   0.44703326   -9.0610694    551.38077 0.0091768319 0.0074032207            6 
 5008000   0.45001457   -9.0600362     551.2672 0.0091731098 0.0074007098            2 
 5009000   0.44197051   -9.0550494    552.81688   0.00919706 0.0073981974           10 
 5010000   0.45572685   -9.0514663    551.66096 0.0091759974 0.0073956875            6 
 5011000   0.45792421   -9.0625291    550.81248 0.0091600559 0.0073931799           12 
 5012000    0.4529572   -9.0639401    552.09507 0.0091795536 0.0073906717            3 
Loop time of 12423.5 on 48 procs for 5000000 steps with 4000 atoms

Performance: 69545.506 tau/day, 402.462 timesteps/s
99.4% CPU use with 48 MPI tasks x no OpenMP threads

MPI task timing breakdown:
Section |  min time  |  avg time  |  max time  |%varavg| %total
---------------------------------------------------------------
Pair    | 833.13     | 891.06     | 959.27     | 100.4 |  7.17
Neigh   | 82.782     | 85.794     | 89.227     |  18.9 |  0.69
Comm    | 777.78     | 850.38     | 914.36     | 105.9 |  6.84
Output  | 13.696     | 13.702     | 13.793     |   0.4 |  0.11
Modify  | 10446      | 10468      | 10490      |  10.2 | 84.26
Other   |            | 114.4      |            |       |  0.92

Nlocal:        83.3333 ave          92 max          76 min
Histogram: 1 5 6 7 6 12 4 4 1 2
Nghost:        2212.02 ave        2230 max        2193 min
Histogram: 4 3 4 7 5 6 3 8 5 3
Neighs:        14723.9 ave       16042 max       12846 min
Histogram: 2 0 6 2 5 8 8 8 4 5
FullNghs:      29447.9 ave       32475 max       26761 min
Histogram: 1 4 7 3 14 8 4 4 1 2

Total # of neighbors = 1413501
Ave neighs/atom = 353.37525
Neighbor list builds = 266825
Dangerous builds = 0

#clear
#
#next RN
#
#jump SELF
Total wall time: 3:27:07
