
units lj                  # Use reduced LJ style units
atom_style atomic         # Uncharged point particles
atom_modify map hash      # Needed for indexing of clusters etc
                          # Used to be able to find where atoms are in relation to each other.

lattice fcc 1.0 spacing 1 1 1
Lattice spacing in x,y,z = 1.5874011 1.5874011 1.5874011
region box block 0 10 0 10 0 10 units lattice
create_box 2 box
Created orthogonal box = (0.0000000 0.0000000 0.0000000) to (15.874011 15.874011 15.874011)
  3 by 4 by 4 MPI processor grid
create_atoms 1 box
Created 4000 atoms
  using lattice units in orthogonal box = (0.0000000 0.0000000 0.0000000) to (15.874011 15.874011 15.874011)
  create_atoms CPU = 0.003 seconds
set type 1 type/fraction 2 0.13 78393
Setting atom values ...
  541 settings made for type/fraction
mass 1 1.0
mass 2 1.0
pair_style lj/cut  3.5
pair_modify tail  yes
pair_coeff 1  1  1.0  1.0   # Intearaction between 1 and 1 set with epsilon = 1 and sigma = 1
pair_coeff 1  2  1.5  0.8
pair_coeff 2  2  0.5  0.88

write_data data.0
System init for write_data ...
Neighbor list info ...
  update every 1 steps, delay 10 steps, check yes
  max neighbors/atom: 2000, page size: 100000
  master list distance cutoff = 3.8
  ghost atom cutoff = 3.8
  binsize = 1.9, bins = 9 9 9
  1 neighbor lists, perpetual/occasional/extra = 1 0 0
  (1) pair lj/cut, perpetual
      attributes: half, newton on
      pair build: half/bin/atomonly/newton
      stencil: half/bin/3d
      bin: standard
WARNING: Not all mixed pair coeffs generated from mixing. Use write_data with 'pair ij' option to store all pair coeffs. (../write_data.cpp:312)


#############################
#   M E L T   S Y S T E M   #
#############################

velocity all create 2.4 8172548 mom yes dist gaussian # Assign velocities
                                                    # Temperature 2.4, random number seed, zero linear momentum
                                                                                # Gaussian distribution

timestep 0.002   # simulation timestep
thermo 1000       # output thermodynamic data every 1000 steps bf 100

# Define a fix  in this case with index 1 applied to all
# particles in the simulation. This fix is for simulations
# in the anisotropic NPT ensemble. Note that we use the MTK
# correction.
fix 1 all npt temp 2.4 2.4 0.1 iso 5.68 5.68 0.5 mtk yes tchain 5 pchain 5 # Use NPT ensemble
                                                                         # Set temperature and pressure and damping
                                                                         # Numbers of thermostats in chain and in barostat
run 10000          # run for 10000 steps
Per MPI rank memory allocation (min/avg/max) = 3.642 | 3.644 | 3.648 Mbytes
Step Temp E_pair E_mol TotEng Press Volume 
       0          2.4     -7.50335            0     -3.90425   -3.2182506         4000 
    1000    2.3981475   -4.6663942            0   -1.0700722    5.5146683    4756.3804 
    2000    2.4042766   -4.6842856            0   -1.0787723    5.5384543    4745.4319 
    3000    2.3698706   -4.6742524            0   -1.1203352    5.7552501    4710.9566 
    4000    2.4404067   -4.6840091            0   -1.0243142    5.7867704    4714.0449 
    5000    2.3264352   -4.7455316            0   -1.2567512    5.2395562    4738.4612 
    6000    2.4491313   -4.6401221            0  -0.96734359    5.6712851    4752.6666 
    7000    2.3620716   -4.6686306            0   -1.1264089    5.8341924    4708.8788 
    8000    2.4704377   -4.6498285            0  -0.94509842    5.5104756    4780.1336 
    9000    2.4194259   -4.6996697            0   -1.0714381    5.6823466    4723.9731 
   10000     2.361726   -4.6935846            0   -1.1518813    5.7770164    4709.1639 
Loop time of 2.1931 on 48 procs for 10000 steps with 4000 atoms

Performance: 787926.942 tau/day, 4559.762 timesteps/s
99.7% CPU use with 48 MPI tasks x no OpenMP threads

MPI task timing breakdown:
Section |  min time  |  avg time  |  max time  |%varavg| %total
---------------------------------------------------------------
Pair    | 0.91639    | 0.97845    | 1.0418     |   3.0 | 44.61
Neigh   | 0.18971    | 0.19798    | 0.21158    |   0.9 |  9.03
Comm    | 0.69243    | 0.76748    | 0.85727    |   4.2 | 35.00
Output  | 0.00023656 | 0.00024134 | 0.00029968 |   0.0 |  0.01
Modify  | 0.19366    | 0.23447    | 0.26667    |   4.4 | 10.69
Other   |            | 0.01447    |            |       |  0.66

Nlocal:        83.3333 ave          91 max          75 min
Histogram: 3 2 3 10 4 7 6 4 5 4
Nghost:        1469.50 ave        1493 max        1450 min
Histogram: 6 4 3 7 7 5 9 4 1 2
Neighs:        8102.21 ave        9286 max        7223 min
Histogram: 4 6 10 3 7 7 4 2 3 2

Total # of neighbors = 388906
Ave neighs/atom = 97.226500
Neighbor list builds = 901
Dangerous builds = 178

# Equilibrate just above the melting temperature to avoid step fn in T

fix 1 all npt temp 1.25 1.25 0.1 iso 5.68 5.68 0.5 mtk yes tchain 5 pchain 5
run 2000
Per MPI rank memory allocation (min/avg/max) = 3.642 | 3.644 | 3.648 Mbytes
Step Temp E_pair E_mol TotEng Press Volume 
   10000     2.361726   -4.6935846            0   -1.1518813    5.7770164    4709.1639 
   11000    1.2533338    -6.330888            0   -4.4513573    5.4891021    3888.6423 
   12000     1.249527   -6.3033025            0   -4.4294806     5.571893     3896.059 
Loop time of 0.483918 on 48 procs for 2000 steps with 4000 atoms

Performance: 714171.314 tau/day, 4132.936 timesteps/s
99.6% CPU use with 48 MPI tasks x no OpenMP threads

MPI task timing breakdown:
Section |  min time  |  avg time  |  max time  |%varavg| %total
---------------------------------------------------------------
Pair    | 0.21317    | 0.22984    | 0.25237    |   1.7 | 47.49
Neigh   | 0.031324   | 0.03358    | 0.035545   |   0.6 |  6.94
Comm    | 0.14199    | 0.16531    | 0.18328    |   2.2 | 34.16
Output  | 5.2687e-05 | 5.3705e-05 | 6.8033e-05 |   0.0 |  0.01
Modify  | 0.043356   | 0.050722   | 0.057834   |   1.6 | 10.48
Other   |            | 0.004418   |            |       |  0.91

Nlocal:        83.3333 ave          92 max          75 min
Histogram: 3 4 7 1 8 11 1 8 4 1
Nghost:        1669.31 ave        1689 max        1644 min
Histogram: 2 1 5 1 10 2 14 6 4 3
Neighs:        9802.85 ave       11053 max        8502 min
Histogram: 3 2 6 4 5 11 5 7 4 1

Total # of neighbors = 470537
Ave neighs/atom = 117.63425
Neighbor list builds = 143
Dangerous builds = 7

#############################
# L I N E A R  Q U E N C H  #
#############################

# Define solid atoms. This closely follows ten Wolde  Ruiz-Montero and Frenkel  Faraday Discuss  1996  104  93-110
# Compute components of the per-atom q6 vector
compute q6 all orientorder/atom degrees 1 6 components 6 nnn NULL cutoff 1.3 # compute the Q6 parameter.
                                                                             # Use all neighbours within 1.3 unit cell.

# get number of connections
compute coord_number all coord/atom orientorder q6 0.5

# An atom is solid if it has 8 or more connections (of a possible 14)
variable is_solid atom c_coord_number>=8
group solid dynamic all var is_solid    # Must be dynamic to update
dynamic group solid defined

# do clustering
compute cluster solid cluster/atom 1.3 # Create a cluster where all atoms within are solid and max 1.3 units from another member

# define chunks one chunk per cluster
compute clus_chunks solid chunk/atom c_cluster nchunk every compress yes  # Says which atoms are in which chunk

# count the size of each chunk
compute size_chunks solid property/chunk clus_chunks count


# Find the maximum entry in the vector of chunk sizes
variable max_n equal max(c_size_chunks)


# Thermo style which includes this variable
# thermo_style custom step temp pe vol v_max_n

thermo ${N}  # Print the thermo information every 100 steps
thermo 1000  

# Reset the npt fix at a lower temperature (below freezing)
fix 1  all npt temp  ${temp} ${temp}  0.1  iso  5.68  5.68  0.5  mtk yes tchain  5  pchain  5
fix 1  all npt temp  0.45 ${temp}  0.1  iso  5.68  5.68  0.5  mtk yes tchain  5  pchain  5
fix 1  all npt temp  0.45 0.45  0.1  iso  5.68  5.68  0.5  mtk yes tchain  5  pchain  5

dump dmp2 all dcd ${N} traj.dcd
dump dmp2 all dcd 1000 traj.dcd


compute msd all msd com yes
variable twopoint equal c_msd[4]/6/(step*dt+1.0e-6)
fix 9 all vector 10 c_msd[4]
variable fit equal slope(f_9)/6/(10*dt)
thermo_style custom step temp pe c_msd[4] v_twopoint v_fit v_max_n

fix 1 all npt temp 1.25 ${temp} 0.1 iso 5.68 5.68 0.5 mtk yes tchain 5 pchain 5
fix 1 all npt temp 1.25 0.45 0.1 iso 5.68 5.68 0.5 mtk yes tchain 5 pchain 5
run 500000 # 5000000  # Run for this many steps
Neighbor list info ...
  update every 1 steps, delay 10 steps, check yes
  max neighbors/atom: 2000, page size: 100000
  master list distance cutoff = 3.8
  ghost atom cutoff = 3.8
  binsize = 1.9, bins = 9 9 9
  4 neighbor lists, perpetual/occasional/extra = 1 3 0
  (1) pair lj/cut, perpetual
      attributes: half, newton on
      pair build: half/bin/atomonly/newton
      stencil: half/bin/3d
      bin: standard
  (2) compute orientorder/atom, occasional
      attributes: full, newton on
      pair build: full/bin/atomonly
      stencil: full/bin/3d
      bin: standard
  (3) compute coord/atom, occasional
      attributes: full, newton on
      pair build: full/bin/atomonly
      stencil: full/bin/3d
      bin: standard
  (4) compute cluster/atom, occasional
      attributes: full, newton on
      pair build: full/bin/atomonly
      stencil: full/bin/3d
      bin: standard
Per MPI rank memory allocation (min/avg/max) = 9.754 | 9.762 | 9.769 Mbytes
Step Temp PotEng c_msd[4] v_twopoint v_fit v_max_n 
   12000     1.249527   -6.3033025 1.1550896e-30 8.0214551e-33 8.3333333e+20            2 
   13000    1.2498108   -6.2772628   0.55385665  0.003550363  0.045354774            1 
   14000    1.2686375   -6.3316665    1.0802893 0.0064302933  0.043837064            4 
   15000      1.23972   -6.3233985    1.6477744 0.0091543017  0.044995784            2 
   16000    1.2303783   -6.2886043    2.1428553  0.011160704  0.044887621            2 
   17000     1.270836   -6.2904435    2.6467871  0.012974446  0.043811557            1 
   18000    1.2531601   -6.3737149    3.1956597  0.014794721  0.043849443            3 
   19000    1.2449326   -6.2746857    3.7755802  0.016559562   0.04434341            4 
   20000    1.2600565   -6.3179048    4.2828881  0.017845367  0.044453032            3 
   21000    1.2024754   -6.3216608    4.7531109  0.018861551  0.044259153            1 
   22000     1.232648   -6.3402002    5.2825848   0.02000979  0.043935994            3 
   23000    1.2094425   -6.3436335    5.8250902  0.021105399  0.043923985            5 
   24000    1.2189267   -6.3856956    6.2379156  0.021659429  0.043799552            2 
   25000    1.2257647    -6.345545    6.7909003  0.022636334  0.043551308            3 
   26000    1.2534263   -6.3581761    7.2969572  0.023387683  0.043363417            2 
   27000    1.2362134   -6.3421937    7.6956391  0.023751972  0.043177799            2 
   28000    1.1905156   -6.4301932      8.20636   0.02442369  0.042941373            2 
   29000    1.2005574   -6.3645684    8.6687851  0.024910302  0.042717195            2 
   30000    1.2191015   -6.3963077    9.1598936  0.025444148  0.042518082            5 
   31000    1.2090488   -6.3265037    9.6541938  0.025952133  0.042367668            2 
   32000    1.2464394   -6.4147246    10.006647  0.026058976  0.042120446            3 
   33000    1.2228075   -6.3468586    10.450035  0.026388978  0.041830726            2 
   34000    1.1978301    -6.372116    10.936932  0.026806205  0.041556395            4 
   35000    1.1905204   -6.3815161    11.349475  0.027022558  0.041283625            3 
   36000    1.1848054   -6.3839856    11.834734  0.027395217  0.041049809            3 
   37000    1.2088817   -6.4371891    12.293968  0.027689117  0.040860438            6 
   38000    1.2011213   -6.3796969    12.754139  0.027969602  0.040692689            3 
   39000    1.1995208   -6.4200958    13.214046   0.02823514  0.040570392            3 
   40000    1.2013281   -6.4298745    13.692961  0.028527002  0.040476492            2 
   41000    1.2130666   -6.4234293    14.055991  0.028569088  0.040321658            2 
   42000    1.2011362   -6.4139132    14.514912  0.028799428  0.040157176            3 
   43000    1.2072336   -6.3632003    15.280262  0.029612911  0.040085189            2 
   44000    1.1815865   -6.4095896    15.796336  0.029917303  0.040104234            4 
   45000    1.1914859   -6.4173045    16.323216  0.030228177   0.04013796            3 
   46000      1.19042   -6.4126453    16.871091  0.030563571  0.040199757            5 
   47000    1.1899887   -6.4126125    17.435543  0.030914083  0.040281969            1 
   48000    1.2232942   -6.4132558    17.928885  0.031126535  0.040362562            2 
   49000    1.1914887   -6.4050179    18.438584  0.031358136  0.040440699            3 
   50000    1.2017583   -6.4180317    19.021023  0.031701705  0.040496355            2 
   51000    1.2164649   -6.4109379    19.429604  0.031747719  0.040564314            2 
   52000    1.1864876   -6.4093211    19.824545  0.031770104  0.040593572            2 
   53000    1.1876812    -6.452647    20.115368  0.031627936  0.040595465            1 
   54000    1.1671808   -6.4586681    20.569698   0.03174336  0.040562874            1 
   55000     1.178619   -6.4402226    20.926987  0.031707557  0.040518283            2 
   56000    1.1449443   -6.4464169    21.521261  0.032025686  0.040463891            2 
   57000     1.172548   -6.4288004    21.895264   0.03201062   0.04042289            2 
   58000    1.1743718   -6.4430805    22.430223  0.032227332  0.040382314            3 
   59000    1.1854656   -6.4699621    22.792004  0.032192096  0.040325089            3 
   60000    1.1759668   -6.4510726    23.179161  0.032193278  0.040257685            2 
   61000    1.1701754    -6.465601    23.581908  0.032215721  0.040190866            2 
   62000    1.1878365   -6.4799841    23.968571  0.032215821  0.040104595            6 
   63000    1.1761663   -6.4812093    24.376968  0.032244666  0.040013151            1 
   64000     1.148699   -6.4537141    24.649057  0.032095126  0.039912519            3 
   65000    1.1514726   -6.4739818    25.123119  0.032209127  0.039803556            4 
   66000    1.1381699   -6.4559896    25.575648  0.032292485  0.039696033            2 
   67000    1.1547928   -6.4852487    25.865747  0.032171327  0.039585633            5 
   68000     1.186075    -6.479892    26.370459  0.032316738   0.03948521            1 
   69000    1.1734299   -6.4713509    26.875239  0.032458018  0.039386437            4 
   70000    1.1634291   -6.4617555     27.31465  0.032517441  0.039291991            2 
   71000     1.142603   -6.5261498    27.820582  0.032653265  0.039205907            3 
   72000    1.1403778   -6.5137121    28.200644  0.032639634  0.039132313            2 
   73000    1.1480293   -6.4875573    28.657133  0.032713622  0.039064699            2 
   74000    1.1822396   -6.4785611    29.147413  0.032823663   0.03899953            3 
   75000    1.1480409   -6.4998056     29.53284  0.032814266  0.038934199            2 
   76000    1.1502424   -6.5012559    29.806338  0.032682388  0.038864355            1 
   77000    1.1352777   -6.4533368    30.422853  0.032925166  0.038790265            1 
   78000    1.1421825   -6.5598208    30.829636  0.032937645  0.038731707            5 
   79000    1.1528455   -6.4988093    31.352858  0.033072634  0.038679931            6 
   80000    1.1213324   -6.4921482    31.738955  0.033061412  0.038628231            4 
   81000    1.1365537   -6.4979227    32.255891  0.033185073  0.038575565            4 
   82000    1.1476787   -6.5156121    32.666018  0.033197172  0.038525767            9 
   83000     1.132529   -6.5381138    32.934048  0.033066313  0.038474953            2 
   84000    1.1429407   -6.5345935    33.472366  0.033206712   0.03842168            3 
   85000    1.1066167   -6.5705105    33.740851  0.033079265  0.038364262            5 
   86000     1.133477   -6.5576676    34.181662  0.033121765  0.038305484            4 
   87000    1.1424117   -6.5593871    34.349605   0.03290192  0.038239278            3 
   88000    1.1072178   -6.5264256     35.06789  0.033208229  0.038178173            2 
   89000    1.1419684   -6.5217252     35.49033  0.033230646  0.038123777            2 
   90000    1.1228864   -6.5930855    35.931862  0.033270243  0.038075849            3 
   91000    1.1141269    -6.531606    36.517552  0.033440981  0.038038686            2 
   92000     1.126354   -6.5461518    36.752925  0.033290693   0.03799462            3 
   93000    1.1105861    -6.545347    37.181474  0.033316733  0.037948434            5 
   94000       1.1431   -6.5272889    37.478381  0.033225515  0.037894449            3 
   95000    1.1189935   -6.5541403    37.712438  0.033081086  0.037834871            2 
   96000     1.124755   -6.5749925    38.276122    0.0332258  0.037771896            8 
   97000    1.1162334   -6.4793488    38.535667  0.033106243  0.037704102            3 
   98000    1.1065086   -6.5717974    38.843171  0.033029908  0.037639737            2 
   99000    1.0946406   -6.5579848    39.029667  0.032853255  0.037570428            2 
  100000    1.1368778    -6.565483    39.155124   0.03262927  0.037483565            2 
  101000    1.1075251   -6.6067727    39.501558  0.032592045  0.037391429            2 
  102000    1.1058666   -6.5453225    39.705424  0.032439072  0.037291922            2 
  103000     1.093953   -6.5659255     40.05574  0.032407556  0.037190549            2 
  104000    1.1105546   -6.5863132    40.325613   0.03231219  0.037085898            6 
  105000    1.1168698   -6.5733585    40.847647  0.032418767  0.036977492            9 
  106000    1.0918764   -6.6042258    40.844804  0.032110695  0.036865796            2 
  107000    1.0978264   -6.5739038    41.443084  0.032276545  0.036756281            2 
  108000    1.1088969   -6.6193624    41.799902  0.032253011  0.036656772            3 
  109000     1.079606   -6.6069493    42.194807  0.032259027  0.036556514            4 
  110000    1.0745793   -6.6136915    42.415543  0.032132987  0.036456021            4 
  111000    1.1157568   -6.5910505    43.031131  0.032305654  0.036364432            4 
  112000    1.0976573   -6.5763142    43.405529   0.03229578  0.036278592            3 
  113000    1.1051234   -6.6107843    43.662469  0.032199461  0.036192591            5 
  114000    1.1016925   -6.6234391    44.161082  0.032281493  0.036112918            4 
  115000    1.0932115   -6.5956892      44.4891  0.032238478  0.036033619            4 
  116000    1.0761284   -6.6364762    44.642005  0.032070405   0.03595785            4 
  117000    1.0675262    -6.626743    45.100824  0.032123094  0.035879257            3 
  118000    1.0688054   -6.6302565    45.360164  0.032034014  0.035799181            2 
  119000    1.0913914   -6.6520947    45.603719  0.031935378  0.035715805            3 
  120000    1.0816938   -6.6475486    45.928422  0.031894737  0.035630988            2 
  121000     1.081958   -6.6046236    46.250283  0.031852812  0.035549163            4 
  122000    1.0496378   -6.6413866    46.622296  0.031845831  0.035463977            5 
  123000    1.0770445   -6.6254937    46.834362  0.031730598   0.03537957            3 
  124000    1.0617944   -6.6302893    47.276219  0.031771652  0.035295067            2 
  125000    1.0721404    -6.659322    47.757318  0.031838212  0.035215172            4 
  126000    1.0656721   -6.6565161    48.102797  0.031814019  0.035139017            4 
  127000    1.0332917   -6.6533841    48.472905  0.031806368  0.035066548            2 
  128000    1.0592692   -6.6304214    48.831861  0.031791576  0.034995598            2 
  129000    1.0604948   -6.6668965    49.253173  0.031817295  0.034924977            7 
  130000    1.0671026   -6.6761049    49.373264  0.031649528   0.03485446            5 
  131000    1.0475741   -6.6602648    49.918498  0.031754769  0.034783793            3 
  132000    1.0584759   -6.6797828    50.029919  0.031584545  0.034711381            4 
  133000    1.0415872   -6.6996917    50.439619  0.031603771  0.034640222            2 
  134000    1.0739603   -6.6500675    51.106188  0.031782455  0.034572888            7 
  135000    1.0378142   -6.6659763    51.256132  0.031639588  0.034510516            3 
  136000    1.0512126   -6.6473396    51.826924  0.031756694   0.03444724            2 
  137000    1.0580873   -6.7372916     52.13432  0.031711873   0.03438707            2 
  138000    1.0467508   -6.6770909    52.276427  0.031567891  0.034323733            2 
  139000    1.0551463   -6.6826702    52.529528  0.031492523  0.034260554            3 
  140000    1.0489417   -6.6704837    52.776459  0.031414559  0.034194429            2 
  141000    1.0215732   -6.6961425    53.029061  0.031341053  0.034125267            5 
  142000    1.0294915   -6.7189158    53.350153  0.031308775  0.034059816            3 
  143000    1.0367865    -6.668557    53.614236  0.031243727  0.033991805            4 
  144000    1.0465989   -6.6918335    53.862341  0.031170336  0.033919196            2 
  145000    1.0455323    -6.723421    54.146379  0.031118608  0.033846329            5 
  146000    1.0244746   -6.7244419    54.328223   0.03100926   0.03377525            3 
  147000    1.0297737   -6.6694737    54.789266  0.031059675  0.033703779            3 
  148000     1.012034   -6.7174487    55.153892  0.031055119  0.033634216            4 
  149000    1.0294507   -6.6761867    55.551595  0.031069125  0.033567541            7 
  150000    1.0233528   -6.7265607    55.697548  0.030943082  0.033499176            3 
  151000    1.0512669   -6.7339391    55.696177  0.030737405  0.033427036            4 
  152000    1.0345829   -6.7178393    56.171138   0.03079558  0.033352636            4 
  153000    1.0392439   -6.7139983    56.330249  0.030680964  0.033278098            7 
  154000    1.0145237   -6.7236084    56.712698   0.03068869  0.033202953            5 
  155000    1.0169361   -6.7290881    56.850911  0.030565006  0.033128339            3 
  156000    1.0121201   -6.7271828    57.380997  0.030652242  0.033058148            2 
  157000    1.0003397   -6.7580785    57.798668  0.030678699   0.03299104            6 
  158000    1.0197615   -6.7498268    57.965124  0.030572323  0.032924641            3 
  159000     1.017173    -6.724187    58.296775  0.030553865  0.032856613            1 
  160000   0.99754737   -6.7660777    58.423823  0.030429074  0.032787312            3 
  161000    1.0088051   -6.8041186    58.397068  0.030226226  0.032716367            5 
  162000    1.0315959   -6.7468593    58.830501  0.030262603  0.032641511            2 
  163000    1.0224205   -6.7457297    58.892903  0.030108846  0.032566844            7 
  164000    1.0173818   -6.7524975    59.161556  0.030061766  0.032491495            3 
  165000    1.0211166   -6.7506615    59.158916   0.02987824  0.032412626            4 
  166000     1.022153   -6.7432937    59.688985   0.02996435  0.032336106            3 
  167000    1.0003485   -6.7399431    59.984149   0.02993221  0.032259717            3 
  168000   0.99746672   -6.7595165    60.215724  0.029868911   0.03218343            6 
  169000    0.9748844   -6.7955783    60.603845  0.029883553  0.032109327            5 
  170000    0.9987562   -6.8057313    60.807112  0.029807408   0.03203616            2 
  171000   0.98946955   -6.7812419    61.023296  0.029738448  0.031964317            1 
  172000   0.98900051   -6.8280608    61.378544  0.029737666  0.031892611            3 
  173000   0.98065713   -6.8159474    61.603414  0.029674091  0.031821688            5 
  174000   0.98874417   -6.7841627    61.713928  0.029556479  0.031750357            2 
  175000   0.98110187   -6.7695505    62.203522  0.029620725  0.031680223            5 
  176000   0.98280999   -6.8551324    62.453918  0.029570984  0.031614108            5 
  177000   0.97416079   -6.8412783     63.03474  0.029677373  0.031548392            4 
  178000   0.99933943   -6.7882261    63.399062  0.029681209  0.031485861            3 
  179000   0.97761373   -6.8189137    63.511814  0.029567884  0.031425184            6 
  180000   0.97012418   -6.8180719    64.177822  0.029711955  0.031366998            5 
  181000   0.98094172   -6.8584798     64.32909  0.029617445  0.031308631            4 
  182000   0.96962334   -6.8529653    64.723674  0.029635382  0.031250394            5 
  183000   0.98850647   -6.8135876    64.774439  0.029496557  0.031191743            6 
  184000    1.0129692   -6.8079125    65.079408   0.02947437  0.031134085            2 
  185000   0.94626798    -6.879312    65.252884  0.029393191  0.031074818            3 
  186000    0.9644776   -6.8455899    65.074545  0.029155262  0.031011047            5 
  187000   0.97720858   -6.8323686    65.582662  0.029225785  0.030945626           10 
  188000   0.95503368   -6.8592561    65.629468  0.029091076  0.030881415            3 
  189000   0.98416687   -6.8629995    66.049739   0.02912246  0.030817094            9 
  190000   0.96282097   -6.8504903    66.432953   0.02913726  0.030753965            3 
  191000   0.96529003   -6.8473887    66.551274  0.029036333  0.030690829            6 
  192000   0.97305418   -6.8474237    66.693628  0.028946887  0.030628284            3 
  193000   0.96203201   -6.8953934    66.858406  0.028868051  0.030564449            3 
  194000   0.95126794   -6.8688704    66.853309  0.028717057  0.030499157            6 
  195000   0.94743502    -6.861399     67.29148  0.028757043  0.030433415            5 
  196000   0.94216959   -6.8555307     67.45551  0.028680064  0.030368638            5 
  197000   0.95108973   -6.8739009      67.7467  0.028657657  0.030303797            4 
  198000   0.96781526   -6.8895605    67.663219  0.028477786  0.030238062            8 
  199000   0.95083667   -6.8600938    67.811752  0.028396881  0.030170289            2 
  200000   0.92999647   -6.8567452    68.050478  0.028354366  0.030101263            7 
  201000   0.93522797   -6.8564485    68.520041  0.028407977  0.030033782            4 
  202000   0.94870124   -6.9061116    68.357475  0.028200278  0.029966816            4 
  203000   0.94601124   -6.8882347    68.404836  0.028080803  0.029895299            6 
  204000   0.93168895   -6.8899309    68.493876  0.027979524  0.029822675            4 
  205000   0.94759038   -6.9128182    68.640948  0.027902824  0.029748321            4 
  206000   0.94800328   -6.9217739    68.747474  0.027810467  0.029674635            7 
  207000   0.93673131   -6.9256886    69.022273  0.027786744   0.02960044            4 
  208000    0.9581895   -6.9214177    69.489747  0.027840443   0.02952635            3 
  209000   0.94120064    -6.931178    69.230883   0.02760402  0.029451436            4 
  210000   0.93167587   -6.9082481    69.555516  0.027601395  0.029378876            4 
  211000   0.92075784   -6.9346133    69.941526  0.027623035  0.029305819            7 
  212000   0.93543122     -6.91561    69.941411  0.027492693  0.029232847            5 
  213000   0.94181443   -6.9082156    70.189624  0.027460729  0.029161274            5 
  214000   0.92282796   -6.9308559    70.411592  0.027418844  0.029089197            7 
  215000   0.90656913   -6.9031785    70.686598  0.027397906  0.029015781            5 
  216000   0.91507706   -6.9267636    70.855958  0.027336404  0.028943738            6 
  217000   0.94012692   -6.9248416    71.084584  0.027298227  0.028872161            3 
  218000    0.9353897   -6.9136268    71.185136  0.027211443  0.028801135            4 
  219000   0.91480237   -6.9531232    71.477807  0.027198557  0.028731018            5 
  220000   0.90835612    -6.903146    71.694277  0.027156923  0.028661764            4 
  221000   0.90963739   -6.9624508     71.79362  0.027071501  0.028592283            5 
  222000   0.92396296   -6.9300177    72.134567   0.02707754  0.028522298            4 
  223000   0.89476948   -6.9548488    72.000044  0.026905846  0.028452094            6 
  224000   0.90422911   -6.9582693    72.463464  0.026958134  0.028382063            3 
  225000   0.91023967   -6.9602932    72.667495  0.026913887  0.028312836            4 
  226000   0.89726401   -6.9711149    72.614417  0.026775227  0.028241959            3 
  227000   0.88748397   -6.9751224    72.620872  0.026659645  0.028170531            4 
  228000   0.92040758   -6.9526274    72.947617  0.026662141  0.028099652            7 
  229000   0.89376568   -6.9688643    73.079973  0.026593877  0.028029206            6 
  230000   0.89002589   -6.9523336    73.188538  0.026517586  0.027958419            5 
  231000   0.89935833    -6.985194    73.306932  0.026445502  0.027886648           11 
  232000   0.89925931   -6.9701133    73.151142  0.026275554   0.02781433            4 
  233000   0.88712234   -7.0169348    73.390941  0.026248548  0.027741738            6 
  234000   0.90228344   -7.0137715    73.551306  0.026193485  0.027670258            5 
  235000   0.88851485   -7.0009163    73.753688   0.02615379  0.027597386            5 
  236000   0.90975594   -6.9831206    74.102914  0.026166283  0.027524463            5 
  237000    0.8818622   -7.0111355    74.226516  0.026099338  0.027452863            9 
  238000   0.90650139   -7.0067489    74.091299  0.025942331  0.027381264           11 
  239000   0.87422309   -7.0069106    74.258739  0.025892168  0.027309426            4 
  240000   0.89834116   -6.9904389    74.617451  0.025908837  0.027238037            8 
  241000   0.87190306   -7.0157453    74.786232  0.025859693  0.027167447            8 
  242000   0.88112807   -6.9760431    74.949819  0.025809166   0.02709786            4 
  243000   0.87666893   -7.0218427    74.933061  0.025697209  0.027027718            6 
  244000   0.86989037   -7.0253612    75.007131   0.02561719   0.02695673            5 
  245000   0.87967241   -7.0260403    75.258579  0.025598156  0.026885911            3 
  246000   0.88484408   -7.0421291    75.282501  0.025502202  0.026815449            5 
  247000   0.86187878   -7.0693423    75.187189  0.025366798  0.026744299            5 
  248000   0.88100723   -7.0353558     75.65218  0.025420759  0.026673094            4 
  249000   0.86918926   -7.0050102     76.04539  0.025450264  0.026603638            4 
  250000   0.88278996   -7.0499983    75.830297  0.025276765  0.026535049            7 
  251000   0.85101325   -7.0907539    75.933215  0.025210231  0.026465279            7 
  252000   0.86658789   -7.0566768    75.961825  0.025119651  0.026395157            5 
  253000   0.86394287   -7.0691344    76.517687  0.025203454   0.02632606            5 
  254000   0.86624944   -7.0673585    76.785215     0.025192  0.026257909            5 
  255000    0.8624993   -7.0850569    76.702987  0.025066336  0.026189374            7 
  256000   0.85965314   -7.0955479    76.671558  0.024958189  0.026120329            6 
  257000   0.85844703   -7.0446839    76.875031  0.024927053  0.026051581            7 
  258000   0.85831131   -7.0578761    77.024919   0.02487885  0.025983305            8 
  259000    0.8511824   -7.0749488    77.146661  0.024821963  0.025914584            7 
  260000   0.84614647   -7.1128785    77.027046  0.024688156  0.025845705            7 
  261000    0.8382089   -7.1078537    77.394145  0.024710774  0.025776105            7 
  262000   0.86537778   -7.0650416    77.323962  0.024594135  0.025706232            6 
  263000   0.84402264   -7.0676872    77.340959  0.024506007  0.025636995            5 
  264000   0.84619469   -7.0827435    77.667232  0.024516172  0.025568194           13 
  265000   0.84428423   -7.0900042     77.65604  0.024420138  0.025499061           11 
  266000   0.86091721   -7.1086572    77.990172  0.024433011  0.025430252            6 
  267000   0.83429377   -7.1153415    77.961069  0.024332418  0.025362594           10 
  268000   0.83544854   -7.0930228    78.119174  0.024290788  0.025294602            4 
  269000   0.84739905   -7.1162296    78.175525  0.024217944   0.02522585            6 
  270000   0.84016838   -7.1102641    78.440268  0.024209959  0.025158218            5 
  271000   0.82027029    -7.131379    78.483193  0.024133823  0.025090562            4 
  272000   0.80333911   -7.1282455    78.537489  0.024061731  0.025023734            5 
  273000    0.8339317   -7.1492824    78.433267  0.023941779  0.024956821            7 
  274000   0.83165628   -7.1178357    78.889251  0.023993081  0.024890026            5 
  275000   0.81190504    -7.140723    78.891003  0.023906364  0.024822853            4 
  276000   0.82229637   -7.1337488    78.900435  0.023822595  0.024755021            7 
  277000   0.82120779   -7.1367472    79.049259  0.023781365  0.024686924            9 
  278000   0.83614316   -7.1552468    78.923275  0.023658056  0.024618737            3 
  279000   0.80505933   -7.1041846    79.224045  0.023663096  0.024551278            5 
  280000   0.80247289   -7.1588964    79.084083   0.02353693   0.02448405           27 
  281000   0.81695119   -7.1302325    79.191837  0.023485124  0.024415691            9 
  282000   0.82643019   -7.1628393    79.390938  0.023460679  0.024347513           11 
  283000   0.79058582   -7.1483102    79.469358  0.023400871  0.024279819            2 
  284000    0.8313354   -7.1338406     79.59199  0.023354457  0.024212339            6 
  285000   0.81718974   -7.1855147    79.556585  0.023262159  0.024144664            3 
  286000   0.82096915    -7.155088    79.704939   0.02322405  0.024077286            8 
  287000   0.81167641   -7.1641245    79.825031     0.023178  0.024010193            6 
  288000   0.79647274   -7.1558925    79.775182  0.023083097  0.023943134            4 
  289000   0.78023203   -7.1988806    79.667583  0.022972198  0.023875659            7 
  290000   0.79867818   -7.1814005    79.648344  0.022887455   0.02380732            4 
  291000   0.79707227   -7.1811226    79.877053  0.022874299  0.023739332            7 
  292000   0.79300571   -7.1636512     79.89972  0.022802431  0.023671391            4 
  293000   0.80233221   -7.1648777    79.831041  0.022705074  0.023603295            8 
  294000   0.79654348   -7.1989549     79.91511  0.022651675  0.023534847            7 
  295000    0.7893145   -7.2074605    80.119951  0.022632754  0.023466957            5 
  296000   0.79423534   -7.2021091    80.068489  0.022541804  0.023398994            5 
  297000   0.79001367   -7.2037644    80.380875  0.022553556  0.023330901            6 
  298000   0.79715143   -7.2008686     80.31971  0.022460769  0.023263739            6 
  299000    0.7931699   -7.1872326    80.428337  0.022415924  0.023196458            4 
  300000   0.78664908   -7.2319866    80.409695  0.022336026  0.023129462            4 
  301000   0.78913203   -7.1924604    80.308889  0.022233912  0.023062273           16 
  302000   0.79289351   -7.2205731    80.617168  0.022245355  0.022995148           11 
  303000   0.79170877   -7.2398946    80.721135  0.022200532  0.022928115            9 
  304000   0.79781558   -7.2494785    80.732356   0.02213058  0.022861614           10 
  305000   0.78611147   -7.2142144    80.973374  0.022123873  0.022795693            7 
  306000   0.79160969   -7.2356095     80.82479  0.022011108  0.022729527            4 
  307000   0.77966154   -7.2285142    81.207927  0.022043411  0.022664221            4 
  308000   0.76875964   -7.2361701     81.29191  0.021994564  0.022599043            3 
  309000   0.76418332   -7.2645853    81.174953  0.021891843   0.02253393           15 
  310000   0.77199123   -7.2679655    81.087651  0.021797756  0.022468037            8 
  311000   0.75897894   -7.2061206    81.354596  0.021799195  0.022402654            4 
  312000   0.76225538   -7.2481777     81.27633  0.021708422  0.022337866           12 
  313000   0.79295126   -7.2383715    81.459449  0.021687819  0.022272952            9 
  314000   0.76984761   -7.2322028    81.383208  0.021598516  0.022208063           16 
  315000   0.77267576   -7.2486023    81.254251  0.021495833  0.022143026            8 
  316000   0.78668006   -7.2607305    81.364268  0.021456822  0.022077428            8 
  317000   0.76355749   -7.2729493    81.412701  0.021401867  0.022012309           16 
  318000   0.75353288   -7.2475729    81.489254  0.021354626  0.021947619           12 
  319000   0.76693393   -7.2909037    81.414037  0.021268035  0.021882825           12 
  320000   0.73808465   -7.2714463    81.542725  0.021235085  0.021817894            5 
  321000   0.74701695   -7.2741561    81.900259  0.021261749  0.021753985            6 
  322000    0.7470423   -7.2866387    81.839902  0.021180099  0.021690594            5 
  323000   0.75071587     -7.27193    82.012461  0.021159046   0.02162714            7 
  324000   0.74538437   -7.2546946    82.084049  0.021112153  0.021563633            6 
  325000   0.74855794   -7.2769865    82.166132  0.021068239  0.021500324            4 
  326000   0.75990129   -7.3142857    82.098852  0.020986414  0.021437228            4 
  327000   0.73648039   -7.2999017    82.005075  0.020898337  0.021373991            4 
  328000   0.74104794   -7.2759142    82.093175  0.020857006  0.021311032            5 
  329000   0.74488226   -7.3372851    82.112835   0.02079859  0.021247909           11 
  330000   0.74959991   -7.3079485    82.242257  0.020768247  0.021184836            6 
  331000   0.74256574   -7.3152611    82.123985  0.020675726  0.021121674           15 
  332000   0.75402565   -7.3306522    82.183754  0.020628452  0.021058308            7 
  333000   0.74027333   -7.3297552    82.065374   0.02053688  0.020994968            8 
  334000   0.74338447   -7.3568454    81.956271  0.020448171  0.020931442           36 
  335000   0.72626551   -7.3667125    82.162246   0.02043837  0.020867634           44 
  336000   0.72899849   -7.3653653     82.15466   0.02037566  0.020804009           36 
  337000   0.72269286   -7.3558715    81.998431  0.020276566  0.020740736           39 
  338000   0.72006565   -7.3633901    82.120759  0.020246736  0.020677242           32 
  339000   0.71672008   -7.3302632    82.289914  0.020228592   0.02061436           25 
  340000   0.72285687   -7.3544469    82.128372  0.020129503  0.020551239           17 
  341000   0.71928616   -7.3518165    82.315318  0.020116158  0.020487993            7 
  342000   0.73487294   -7.3682099    82.194431  0.020027883  0.020424922           17 
  343000   0.71298617   -7.3758446    82.239319  0.019980398  0.020361842           18 
  344000   0.70699466   -7.3696337    82.168013  0.019905042  0.020299329            6 
  345000   0.70581823   -7.3828687    82.345321  0.019890174  0.020236617           11 
  346000   0.71412096   -7.3931575    82.208303  0.019799688  0.020173968           18 
  347000   0.73039223   -7.4060434    82.251417  0.019752982  0.020111561            8 
  348000   0.72485368   -7.4150576    82.175716  0.019678093  0.020049298            4 
  349000   0.71202042   -7.3919339    82.194743  0.019626252  0.019986895            9 
  350000   0.69465494     -7.40345    82.160313  0.019561979   0.01992443           10 
  351000   0.72384116   -7.3999577    82.276908  0.019533929  0.019862524            5 
  352000   0.70697436   -7.4007893    82.169621  0.019453035   0.01980057           15 
  353000   0.70910477   -7.4295676     82.19827  0.019404691  0.019738941           11 
  354000   0.71173672    -7.394607    82.420786  0.019402257  0.019677259            8 
  355000   0.70435323    -7.429908    82.482672  0.019362129   0.01961591            9 
  356000   0.70122184   -7.4123878    82.306636  0.019266535  0.019554625            7 
  357000   0.68662145    -7.415905    82.447872  0.019245535   0.01949371            7 
  358000   0.69830825      -7.4025    82.543627  0.019214066   0.01943327            5 
  359000   0.68525638   -7.4086335    82.550888   0.01916223  0.019373172           12 
  360000   0.67752412   -7.4255067    82.767346  0.019159108  0.019313302            7 
  361000   0.70856545    -7.413046    82.629769  0.019074277  0.019253929           11 
  362000   0.70821262   -7.4003231    82.847311  0.019071665  0.019194666           12 
  363000   0.69918735   -7.4016234    82.927612   0.01903756  0.019135687            6 
  364000   0.69538473    -7.408022    82.963556  0.018993488  0.019077144            8 
  365000   0.69375082   -7.4073249    83.260768  0.019009308   0.01901894            6 
  366000   0.66914916   -7.4342758    82.958844  0.018888626  0.018960837            8 
  367000   0.67085127   -7.4274832    83.082766  0.018865297  0.018902937           10 
  368000   0.68003059   -7.4510536    83.057389  0.018808285  0.018845348           15 
  369000   0.67580667   -7.4703686    82.942884  0.018731455  0.018787663           13 
  370000   0.67906204   -7.4716794    82.932291  0.018678444  0.018730046           15 
  371000   0.66244985   -7.4673257    83.112394  0.018668552  0.018672477           12 
  372000   0.67255233   -7.4636034    82.980993  0.018588932  0.018614916           15 
  373000   0.65373591   -7.4612577    83.134271   0.01857334  0.018557998           14 
  374000    0.6708866   -7.4976208    83.183524  0.018534653  0.018501118           15 
  375000   0.67470259   -7.4670833    83.300729  0.018511273  0.018444346            9 
  376000   0.66353642   -7.4771788    83.056745  0.018407966  0.018387692           11 
  377000   0.66957834   -7.4680761    83.300133  0.018412938  0.018331384            8 
  378000   0.66715866   -7.4916637    83.259665  0.018355305  0.018275241           23 
  379000    0.6669228   -7.4585872    83.240945  0.018302758  0.018219236           16 
  380000   0.66350596   -7.4596328    83.272782  0.018261575  0.018163328            8 
  381000   0.65442851    -7.455913    83.210423  0.018200005  0.018107769           13 
  382000   0.65059333   -7.4937596    83.094315  0.018127032  0.018052223           28 
  383000   0.66495003   -7.5116723    83.190203  0.018100566  0.017996475           15 
  384000   0.65493094   -7.4946445    83.223191  0.018060588  0.017940805           14 
  385000   0.65481553   -7.4931277    83.264705  0.018022663  0.017885446           14 
  386000   0.65267093   -7.5161863    83.238281  0.017970268  0.017830569           12 
  387000   0.65452149   -7.5136367    83.259853  0.017928478  0.017775556           14 
  388000   0.63997499   -7.4993617    83.474961  0.017928471  0.017720869           13 
  389000    0.6364421    -7.521731    83.330259  0.017851384  0.017666126           27 
  390000   0.64893948   -7.5578961    83.353619  0.017810602  0.017611823           21 
  391000   0.64399353   -7.5408467    83.547387  0.017806348  0.017557552           24 
  392000   0.62865309   -7.5235317    83.411393  0.017732014  0.017503536           11 
  393000   0.64818299   -7.5553839    83.431873  0.017691237  0.017449648           19 
  394000   0.63303426   -7.5355908    83.222002  0.017601946  0.017396036           20 
  395000   0.63064651   -7.5528119     83.17373    0.0175472  0.017342341           16 
  396000   0.65365102   -7.5505351    83.412501  0.017553136  0.017288862           10 
  397000   0.62840167   -7.5677963    83.322808  0.017490094  0.017235559           10 
  398000   0.62525418   -7.5636922    83.242906  0.017429419  0.017182511           15 
  399000   0.62348401   -7.5628564    83.440997  0.017427109  0.017129691           11 
  400000   0.62675646   -7.5709177    83.590434  0.017414674  0.017077059           20 
  401000   0.60679985   -7.5635138     83.51599  0.017355775   0.01702449           11 
  402000   0.64250461   -7.5743358    83.308013  0.017269489  0.016972283           11 
  403000   0.63899553   -7.6028607    83.572767  0.017281383  0.016920085           14 
  404000   0.62611088   -7.5371346    83.587725  0.017241692  0.016868056           13 
  405000   0.62702736   -7.5707787    83.449182  0.017170613  0.016816075            7 
  406000   0.61933728   -7.5604249    83.602334  0.017159757  0.016764294           13 
  407000   0.60832866   -7.5709712    83.589677  0.017115004  0.016712914           12 
  408000   0.62417821   -7.5633514     83.47876    0.0170504  0.016661417           11 
  409000   0.61032011   -7.5800472    83.427017   0.01699817  0.016610094           13 
  410000   0.60890314   -7.5925931     83.37588  0.016946317  0.016558724           17 
  411000    0.6303211   -7.6032738    83.507098  0.016931691  0.016507623           18 
  412000   0.61296323   -7.5886352    83.825431  0.016954982  0.016456775           11 
  413000   0.61537814   -7.5681484    83.630619   0.01687462  0.016406147           20 
  414000   0.61164158   -7.6075124    83.408659  0.016789183  0.016355472           12 
  415000    0.6115433   -7.6156956     83.49032  0.016765124  0.016304806           19 
  416000   0.60660118   -7.6028354    83.425544  0.016711848  0.016254418           16 
  417000   0.59809421   -7.6192942    83.449644  0.016676588  0.016204187           21 
  418000   0.61424991   -7.5967265    83.552837  0.016657264  0.016154207           15 
  419000   0.58535891   -7.6269374    83.329098  0.016573011  0.016104401           15 
  420000   0.60740852   -7.6215056    83.483307  0.016564148   0.01605459           23 
  421000   0.59494709   -7.6332304    83.438196  0.016515874  0.016004751           11 
  422000   0.59857048   -7.5994366    83.496946  0.016488339   0.01595527           16 
  423000   0.58696071   -7.6390394    83.487094  0.016447418  0.015905842           24 
  424000   0.59124122   -7.6329928    83.337222  0.016379171  0.015856647           12 
  425000   0.59268852   -7.6300648    83.611743  0.016394459  0.015807692           11 
  426000   0.57002463   -7.6211939    83.366528  0.016308006  0.015758824           11 
  427000   0.58648112   -7.6478606    83.530654  0.016301845   0.01571011           26 
  428000   0.59635432   -7.6487834    83.311925  0.016221169  0.015661472           22 
  429000   0.58613436   -7.6428516    83.394721  0.016199441  0.015613059           25 
  430000   0.57797885   -7.6423638    83.441632  0.016170859  0.015564702           22 
  431000   0.57305738   -7.6620173    83.501807  0.016144974  0.015516611           10 
  432000   0.58589234   -7.6653554    83.671867  0.016140407  0.015468836           15 
  433000   0.56828953   -7.6508575    83.549873  0.016079652  0.015421136           30 
  434000   0.58311087   -7.6605298    83.427495  0.016019104  0.015373554           20 
  435000   0.57556217   -7.6585653    83.472142  0.015990832   0.01532621           15 
  436000   0.57688196   -7.6756348    83.396153  0.015939632  0.015278973           13 
  437000   0.56925493   -7.6720877    83.329634  0.015890472  0.015231794           20 
  438000    0.5669958   -7.6855858    83.324396  0.015853196  0.015184672           14 
  439000   0.57423881   -7.6654028    83.428782  0.015836899  0.015137677           23 
  440000   0.57399015   -7.6838476      83.3627   0.01578839  0.015090799           14 
  441000   0.56407451   -7.6857906    83.316088  0.015743781  0.015044045           13 
  442000   0.55940394   -7.6734141    83.436331  0.015730832  0.014997386           15 
  443000   0.55957229   -7.6808048    83.366601  0.015682205  0.014950936           21 
  444000   0.55557177   -7.6670362    83.461602  0.015664715  0.014904639           31 
  445000   0.55942905   -7.6968248    83.463797  0.015629924  0.014858556           37 
  446000   0.56622598    -7.683294    83.244519  0.015553909  0.014812383           20 
  447000   0.55254985   -7.6983367    83.285031  0.015526665   0.01476641           30 
  448000   0.56041156   -7.7036625    83.358569  0.015505686   0.01472065           16 
  449000   0.54452009   -7.6932899    83.227936  0.015446907  0.014675012           21 
  450000   0.54719137   -7.7152367    83.199192  0.015407258  0.014629589           17 
  451000   0.55741189   -7.6947942    83.322297  0.015395842  0.014584403           17 
  452000   0.55567916   -7.7042837    83.212346  0.015341509   0.01453932           10 
  453000   0.55968667   -7.7331746    83.232135  0.015311283  0.014494254           17 
  454000   0.54382354   -7.7177883     83.22666  0.015276553  0.014449443           14 
  455000   0.53004673   -7.7214785    83.201117    0.0152383  0.014404798           18 
  456000   0.53186177   -7.7104323    83.355037  0.015233011  0.014360208           18 
  457000   0.51824449   -7.7276997    83.160603  0.015164224  0.014315855           17 
  458000   0.52694534   -7.7387719    83.221622  0.015142216  0.014271524           18 
  459000   0.52656206   -7.7213734    83.322742  0.015127586   0.01422745           27 
  460000   0.52453384   -7.7439031    83.309802  0.015092355  0.014183543           15 
  461000   0.53170276   -7.7592354    83.387717  0.015073702  0.014139857           20 
  462000     0.541794   -7.7351159    83.162974  0.015000536  0.014096177           23 
  463000   0.52488144   -7.7524474    83.226306  0.014979537  0.014052573           22 
  464000   0.52313408   -7.7542495     83.11328  0.014926954   0.01400916           15 
  465000   0.51687154   -7.7483197    83.157138  0.014902713  0.013965886           17 
  466000   0.53123337   -7.7462734    83.152362  0.014869879  0.013922702           17 
  467000   0.52700591   -7.7475217    83.273816   0.01485971  0.013879694           16 
  468000   0.52784399   -7.7590351    83.180687  0.014811376  0.013836785           16 
  469000   0.52140953   -7.7661759    83.037776  0.014754402  0.013794013           26 
  470000   0.51500491   -7.7806981    83.095499  0.014733245  0.013751296           22 
  471000   0.50683066   -7.7725852    83.171478  0.014715407  0.013708733           23 
  472000   0.51213965   -7.7802625     82.86043  0.014629313  0.013666297           34 
  473000   0.50809264   -7.7759485    82.982925  0.014619966  0.013624053           28 
  474000   0.51422949   -7.7658739    82.946791  0.014582769  0.013581886           17 
  475000   0.50241162    -7.786855    83.030722  0.014566793  0.013539901           21 
  476000   0.51446994   -7.7780564    83.019332  0.014534197  0.013498048           28 
  477000   0.50905416   -7.7981347    83.000902  0.014500507  0.013456241           21 
  478000    0.4896495   -7.7803737    82.933727   0.01445846  0.013414623           56 
  479000   0.50215364   -7.7773451    82.939979  0.014429363  0.013373139           24 
  480000   0.50573693   -7.7776956    83.088322  0.014425056  0.013331923           21 
  481000   0.49344196   -7.7831617    82.936629  0.014368785  0.013290695           30 
  482000   0.50822385   -7.7854081    82.888338  0.014330625  0.013249554           22 
  483000   0.49277001   -7.7812892    83.015749  0.014322938  0.013208642           19 
  484000   0.48244431   -7.7886978    82.954901  0.014282869  0.013167939           19 
  485000    0.4848588   -7.8003273    82.962574  0.014254738  0.013127402           23 
  486000   0.48656516   -7.8064658    82.878657  0.014211018  0.013086987           15 
  487000   0.49319685    -7.822143    83.000945  0.014202763   0.01304674           12 
  488000    0.4889639   -7.8101469    82.772343  0.014134621  0.013006548           23 
  489000   0.47823942   -7.8141009    82.969025  0.014139234   0.01296656           15 
  490000   0.49466941   -7.7994096    82.995287  0.014114845   0.01292669           24 
  491000   0.47947039   -7.8407002    82.951049  0.014078589  0.012886922           20 
  492000   0.47239706   -7.8192315    82.838738  0.014030952  0.012847321           24 
  493000   0.47370076   -7.8113409    82.914458   0.01401529  0.012807896           15 
  494000   0.48252686   -7.8302383    83.025524  0.014005655  0.012768597           19 
  495000   0.47012984   -7.8234553    82.925865  0.013960583   0.01272943           19 
  496000   0.47329027   -7.8288805    82.705561  0.013895424  0.012690378           37 
  497000    0.4767639   -7.8615034    82.864469  0.013894109  0.012651491           26 
  498000   0.46170293   -7.8297854    82.935149  0.013878037  0.012612738           16 
  499000   0.46788012   -7.8533654    82.946529  0.013852126  0.012574141           17 
  500000   0.47210565   -7.8295843     82.75424  0.013792373   0.01253563           16 
  501000   0.45708767   -7.8467524    82.839094  0.013778958  0.012497307           16 
  502000   0.46622407   -7.8373255    82.769928  0.013740028  0.012459138           33 
  503000   0.46749145   -7.8573166    82.937763  0.013740517  0.012421079           21 
  504000    0.4518225   -7.8474612    82.796845  0.013689954  0.012383164           22 
  505000   0.46720223   -7.8516935    82.816789  0.013666137   0.01234536           21 
  506000    0.4448939   -7.8736901    82.703919   0.01362054  0.012307658           25 
  507000   0.46590489   -7.8567788    82.686219  0.013590766   0.01227015           20 
  508000   0.46187081   -7.8546176    82.648893  0.013557889  0.012232776           22 
  509000     0.444258   -7.8658539    82.779264  0.013552597  0.012195544           11 
  510000   0.45401825   -7.8553677    82.755457  0.013522134  0.012158453           16 
  511000   0.45982732   -7.8801789    82.662354  0.013480488  0.012121483           22 
  512000   0.45301068   -7.8673791    82.781904  0.013473617  0.012084584           23 
Loop time of 1105.46 on 48 procs for 500000 steps with 4000 atoms

Performance: 78157.170 tau/day, 452.298 timesteps/s
99.4% CPU use with 48 MPI tasks x no OpenMP threads

MPI task timing breakdown:
Section |  min time  |  avg time  |  max time  |%varavg| %total
---------------------------------------------------------------
Pair    | 66.945     | 72.064     | 76.648     |  25.7 |  6.52
Neigh   | 6.8853     | 7.1256     | 7.4134     |   4.8 |  0.64
Comm    | 62.368     | 67.735     | 73.398     |  31.5 |  6.13
Output  | 0.85261    | 0.85317    | 0.86374    |   0.2 |  0.08
Modify  | 940.93     | 945.2      | 949.38     |   6.8 | 85.50
Other   |            | 12.48      |            |       |  1.13

Nlocal:        83.3333 ave          93 max          76 min
Histogram: 2 1 12 4 16 6 1 4 1 1
Nghost:        1841.15 ave        1870 max        1812 min
Histogram: 2 1 9 5 6 6 10 2 5 2
Neighs:        11398.1 ave       13185 max       10264 min
Histogram: 3 7 9 8 6 6 5 2 1 1
FullNghs:      22773.6 ave       26559 max       20480 min
Histogram: 2 5 10 11 10 6 3 0 0 1

Total # of neighbors = 1093132
Ave neighs/atom = 273.28300
Neighbor list builds = 26940
Dangerous builds = 0

#clear
#
#next RN
#
#jump SELF
Total wall time: 0:18:28
