
units lj                  # Use reduced LJ style units
atom_style atomic         # Uncharged point particles
atom_modify map hash      # Needed for indexing of clusters etc
                          # Used to be able to find where atoms are in relation to each other.

lattice fcc 1.0 spacing 1 1 1
Lattice spacing in x,y,z = 1.5874011 1.5874011 1.5874011
region box block 0 10 0 10 0 10 units lattice
create_box 2 box
Created orthogonal box = (0.0000000 0.0000000 0.0000000) to (15.874011 15.874011 15.874011)
  3 by 4 by 4 MPI processor grid
create_atoms 1 box
Created 4000 atoms
  using lattice units in orthogonal box = (0.0000000 0.0000000 0.0000000) to (15.874011 15.874011 15.874011)
  create_atoms CPU = 0.016 seconds
set type 1 type/fraction 2 0.29 78393
Setting atom values ...
  1200 settings made for type/fraction
mass 1 1.0
mass 2 1.0
pair_style lj/cut  3.5
pair_modify tail  yes
pair_coeff 1  1  1.0  1.0   # Intearaction between 1 and 1 set with epsilon = 1 and sigma = 1
pair_coeff 1  2  1.5  0.8
pair_coeff 2  2  0.5  0.88

write_data data.0
System init for write_data ...
Neighbor list info ...
  update every 1 steps, delay 10 steps, check yes
  max neighbors/atom: 2000, page size: 100000
  master list distance cutoff = 3.8
  ghost atom cutoff = 3.8
  binsize = 1.9, bins = 9 9 9
  1 neighbor lists, perpetual/occasional/extra = 1 0 0
  (1) pair lj/cut, perpetual
      attributes: half, newton on
      pair build: half/bin/atomonly/newton
      stencil: half/bin/3d
      bin: standard
WARNING: Not all mixed pair coeffs generated from mixing. Use write_data with 'pair ij' option to store all pair coeffs. (../write_data.cpp:312)


#############################
#   M E L T   S Y S T E M   #
#############################

velocity all create 2.4 8172548 mom yes dist gaussian # Assign velocities
                                                    # Temperature 2.4, random number seed, zero linear momentum
                                                                                # Gaussian distribution

timestep 0.002   # simulation timestep
thermo 1000       # output thermodynamic data every 1000 steps bf 100

# Define a fix  in this case with index 1 applied to all
# particles in the simulation. This fix is for simulations
# in the anisotropic NPT ensemble. Note that we use the MTK
# correction.
fix 1 all npt temp 2.4 2.4 0.1 iso 5.68 5.68 0.5 mtk yes tchain 5 pchain 5 # Use NPT ensemble
                                                                         # Set temperature and pressure and damping
                                                                         # Numbers of thermostats in chain and in barostat
run 10000          # run for 10000 steps
Per MPI rank memory allocation (min/avg/max) = 3.642 | 3.644 | 3.648 Mbytes
Step Temp E_pair E_mol TotEng Press Volume 
       0          2.4   -6.4756105            0   -2.8765105   -3.9602485         4000 
    1000    2.3789118   -4.9270195            0    -1.359544     5.579788    4206.2892 
    2000    2.3393786   -4.9695891            0   -1.4613985    5.3658669    4199.1821 
    3000    2.3924605   -4.9189395            0   -1.3311459    5.8316558    4191.9605 
    4000    2.3681715   -5.0022494            0   -1.4508803    5.4175892     4179.224 
    5000    2.4151709   -4.9416717            0    -1.319821    5.4713638    4214.6491 
    6000    2.4023773   -4.9880717            0   -1.3854065    5.5281187    4176.2855 
    7000    2.3659471   -4.9802688            0   -1.4322354    5.4496716    4187.1262 
    8000    2.3494281   -4.9822346            0   -1.4589734     5.514182    4180.0689 
    9000    2.4004675   -4.8941288            0   -1.2943278    5.7600931    4211.3449 
   10000    2.3865984   -4.9823247            0   -1.4033221    5.4606603     4197.065 
Loop time of 2.42824 on 48 procs for 10000 steps with 4000 atoms

Performance: 711626.194 tau/day, 4118.207 timesteps/s
99.6% CPU use with 48 MPI tasks x no OpenMP threads

MPI task timing breakdown:
Section |  min time  |  avg time  |  max time  |%varavg| %total
---------------------------------------------------------------
Pair    | 1.0254     | 1.1126     | 1.2002     |   3.4 | 45.82
Neigh   | 0.20028    | 0.2122     | 0.22342    |   1.0 |  8.74
Comm    | 0.73779    | 0.82574    | 0.92055    |   4.1 | 34.01
Output  | 0.0002461  | 0.00025079 | 0.0003156  |   0.0 |  0.01
Modify  | 0.22738    | 0.2623     | 0.28451    |   3.5 | 10.80
Other   |            | 0.01514    |            |       |  0.62

Nlocal:        83.3333 ave          94 max          70 min
Histogram: 2 1 4 4 3 14 6 10 1 3
Nghost:        1591.27 ave        1626 max        1564 min
Histogram: 2 6 7 10 7 4 3 2 4 3
Neighs:        9094.58 ave       10746 max        7291 min
Histogram: 2 0 6 4 7 12 7 5 4 1

Total # of neighbors = 436540
Ave neighs/atom = 109.13500
Neighbor list builds = 907
Dangerous builds = 202

# Equilibrate just above the melting temperature to avoid step fn in T

fix 1 all npt temp 1.25 1.25 0.1 iso 5.68 5.68 0.5 mtk yes tchain 5 pchain 5
run 2000
Per MPI rank memory allocation (min/avg/max) = 3.643 | 3.645 | 3.649 Mbytes
Step Temp E_pair E_mol TotEng Press Volume 
   10000    2.3865984   -4.9823247            0   -1.4033221    5.4606603     4197.065 
   11000    1.2286079   -6.8044263            0   -4.9619752    5.7818255      3369.59 
   12000    1.2708532   -6.8342834            0   -4.9284801    5.6031416    3367.8757 
Loop time of 0.619221 on 48 procs for 2000 steps with 4000 atoms

Performance: 558120.481 tau/day, 3229.864 timesteps/s
99.5% CPU use with 48 MPI tasks x no OpenMP threads

MPI task timing breakdown:
Section |  min time  |  avg time  |  max time  |%varavg| %total
---------------------------------------------------------------
Pair    | 0.25112    | 0.27413    | 0.31173    |   2.4 | 44.27
Neigh   | 0.037056   | 0.039983   | 0.043825   |   0.6 |  6.46
Comm    | 0.20912    | 0.249      | 0.27574    |   2.8 | 40.21
Output  | 5.4558e-05 | 5.5885e-05 | 7.2311e-05 |   0.0 |  0.01
Modify  | 0.04671    | 0.051286   | 0.055647   |   1.0 |  8.28
Other   |            | 0.00476    |            |       |  0.77

Nlocal:        83.3333 ave          91 max          74 min
Histogram: 1 3 4 4 13 5 2 5 6 5
Nghost:        1835.19 ave        1850 max        1815 min
Histogram: 2 5 4 2 4 4 8 5 9 5
Neighs:        11343.8 ave       12543 max       10266 min
Histogram: 6 5 6 2 7 3 7 4 5 3

Total # of neighbors = 544503
Ave neighs/atom = 136.12575
Neighbor list builds = 143
Dangerous builds = 9

#############################
# L I N E A R  Q U E N C H  #
#############################

# Define solid atoms. This closely follows ten Wolde  Ruiz-Montero and Frenkel  Faraday Discuss  1996  104  93-110
# Compute components of the per-atom q6 vector
compute q6 all orientorder/atom degrees 1 6 components 6 nnn NULL cutoff 1.3 # compute the Q6 parameter.
                                                                             # Use all neighbours within 1.3 unit cell.

# get number of connections
compute coord_number all coord/atom orientorder q6 0.5

# An atom is solid if it has 8 or more connections (of a possible 14)
variable is_solid atom c_coord_number>=8
group solid dynamic all var is_solid    # Must be dynamic to update
dynamic group solid defined

# do clustering
compute cluster solid cluster/atom 1.3 # Create a cluster where all atoms within are solid and max 1.3 units from another member

# define chunks one chunk per cluster
compute clus_chunks solid chunk/atom c_cluster nchunk every compress yes  # Says which atoms are in which chunk

# count the size of each chunk
compute size_chunks solid property/chunk clus_chunks count


# Find the maximum entry in the vector of chunk sizes
variable max_n equal max(c_size_chunks)


# Thermo style which includes this variable
# thermo_style custom step temp pe vol v_max_n

thermo ${N}  # Print the thermo information every 100 steps
thermo 1000  

# Reset the npt fix at a lower temperature (below freezing)
fix 1  all npt temp  ${temp} ${temp}  0.1  iso  5.68  5.68  0.5  mtk yes tchain  5  pchain  5
fix 1  all npt temp  0.45 ${temp}  0.1  iso  5.68  5.68  0.5  mtk yes tchain  5  pchain  5
fix 1  all npt temp  0.45 0.45  0.1  iso  5.68  5.68  0.5  mtk yes tchain  5  pchain  5

dump dmp2 all dcd ${N} traj.dcd
dump dmp2 all dcd 1000 traj.dcd


compute msd all msd com yes
variable twopoint equal c_msd[4]/6/(step*dt+1.0e-6)
fix 9 all vector 10 c_msd[4]
variable fit equal slope(f_9)/6/(10*dt)
thermo_style custom step temp pe c_msd[4] v_twopoint v_fit v_max_n

fix 1 all npt temp 1.25 ${temp} 0.1 iso 5.68 5.68 0.5 mtk yes tchain 5 pchain 5
fix 1 all npt temp 1.25 0.45 0.1 iso 5.68 5.68 0.5 mtk yes tchain 5 pchain 5
run 5000000 # 5000000  # Run for this many steps
Neighbor list info ...
  update every 1 steps, delay 10 steps, check yes
  max neighbors/atom: 2000, page size: 100000
  master list distance cutoff = 3.8
  ghost atom cutoff = 3.8
  binsize = 1.9, bins = 8 8 8
  4 neighbor lists, perpetual/occasional/extra = 1 3 0
  (1) pair lj/cut, perpetual
      attributes: half, newton on
      pair build: half/bin/atomonly/newton
      stencil: half/bin/3d
      bin: standard
  (2) compute orientorder/atom, occasional
      attributes: full, newton on
      pair build: full/bin/atomonly
      stencil: full/bin/3d
      bin: standard
  (3) compute coord/atom, occasional
      attributes: full, newton on
      pair build: full/bin/atomonly
      stencil: full/bin/3d
      bin: standard
  (4) compute cluster/atom, occasional
      attributes: full, newton on
      pair build: full/bin/atomonly
      stencil: full/bin/3d
      bin: standard
Per MPI rank memory allocation (min/avg/max) = 9.807 | 9.813 | 9.817 Mbytes
Step Temp PotEng c_msd[4] v_twopoint v_fit v_max_n 
   12000    1.2708532   -6.8342834 1.0969111e-30 7.6174378e-33 8.3333333e+20            1 
   13000    1.2367489   -6.8494885   0.51490266  0.003300658  0.042377192            3 
   14000    1.2428709   -6.8334505   0.98417228 0.0058581681  0.040434449            2 
   15000    1.2441506   -6.8667979    1.4581154 0.0081006407  0.040095683            1 
   16000    1.2499952   -6.8412514    1.9054251 0.0099240889  0.039216215            1 
   17000    1.2509947    -6.822461    2.3992591  0.011761074  0.039335412            3 
   18000    1.2464668   -6.8641488    2.8656784  0.013267029  0.039383654            1 
   19000    1.2456231   -6.8638156    3.3067043  0.014503089  0.039278829            2 
   20000    1.2299802   -6.8099071    3.7765244  0.015735518  0.039001114            2 
   21000    1.2633839   -6.8370523    4.2495695  0.016863371  0.038783947            2 
   22000    1.2549498   -6.8449415    4.6649237  0.017670165  0.038711323            2 
   23000    1.2699951   -6.8647888    5.1123316   0.01852294  0.038541757            1 
   24000    1.2561494   -6.8520032    5.5625919  0.019314555  0.038404132            1 
   25000    1.2429966   -6.8577327     6.020524  0.020068413  0.038228482            2 
   26000    1.2656905   -6.8497105    6.5333334  0.020940171  0.038228181            2 
   27000    1.2405425    -6.845766    7.0117283  0.021641136  0.038331449            2 
   28000    1.2628329   -6.8361332    7.5588232  0.022496497  0.038492203            3 
   29000    1.2505033   -6.9081967    8.0462526  0.023121415  0.038644974            2 
   30000    1.2532372   -6.8915572    8.5427558  0.023729877  0.038838586            2 
   31000    1.2458433   -6.9127773    9.0065428  0.024211136   0.03900818            2 
   32000    1.2358851   -6.8630862     9.557504  0.024889333  0.039202386            1 
   33000    1.2313238     -6.84281    10.087047   0.02547234  0.039382138            2 
   34000    1.2520337    -6.844376    10.612363  0.026010692  0.039570923            3 
   35000    1.2462083   -6.9104613    10.991032  0.026169124   0.03972263            2 
   36000    1.2472461    -6.864193     11.47421   0.02656067  0.039735012            2 
   37000    1.2659531   -6.8966655     11.96227  0.026942049  0.039782457            1 
   38000    1.2467208   -6.8166189    12.580003  0.027587726  0.039867682            1 
   39000    1.2553532   -6.8850981     13.04232  0.027868204  0.039984791            2 
   40000    1.2648446     -6.85561    13.543827  0.028216305   0.04008564            2 
   41000    1.2224332   -6.8975107    14.154115  0.028768525  0.040207914            1 
   42000    1.2233439   -6.8559803    14.642523  0.029052625  0.040368825            2 
   43000    1.2420364   -6.8977767    15.085659  0.029235773  0.040468842            1 
   44000    1.2162306   -6.9020969    15.507359  0.029369997  0.040497087            2 
   45000    1.2297822   -6.8674695    15.949133  0.029535431  0.040539692            1 
   46000    1.2326513   -6.8662085    16.387071  0.029686723  0.040541081            1 
   47000     1.238246   -6.8532094    16.960217  0.030071307  0.040550724            2 
   48000    1.2563706   -6.8239693    17.508396   0.03039652  0.040566256       -1e+20 
   49000    1.2389713   -6.8847553    18.062139  0.030717923  0.040605484            3 
   50000    1.2231722   -6.9067815    18.499388  0.030832313  0.040650973            1 
   51000    1.2604782   -6.8741352    19.044105  0.031117819  0.040700917            1 
   52000    1.2413248   -6.8845024     19.53493  0.031305977  0.040739629            1 
   53000    1.2414258   -6.8910634    19.954332  0.031374736  0.040769995            1 
   54000    1.2321475   -6.8982501    20.364171   0.03142619   0.04078925            1 
   55000    1.2242445   -6.8668703    20.792544  0.031503855  0.040780433            1 
   56000    1.2583733   -6.8487655    21.379564  0.031814828  0.040773902            1 
   57000     1.224394   -6.8508724     21.93202  0.032064357  0.040774139            2 
   58000    1.2473337   -6.8481207    22.565689  0.032421967  0.040794484            1 
   59000    1.2438135    -6.895634    22.888342  0.032328167  0.040824406            1 
   60000    1.2609275   -6.8807012    23.285317  0.032340717  0.040832307            1 
   61000    1.1969534   -6.9011718    23.722791  0.032408184  0.040815199            3 
   62000    1.2515962   -6.8393555    24.247755  0.032591068  0.040799797            1 
   63000    1.2230761   -6.8747407    24.870886  0.032897997   0.04078284            2 
   64000    1.2405449   -6.8970206    25.416807    0.0330948  0.040805407            3 
   65000    1.2470536    -6.925952    25.574086   0.03278729  0.040813955            2 
   66000    1.2231517   -6.8654046    26.085192  0.032935848  0.040783624            1 
   67000    1.2679807   -6.8993994        26.37  0.032798507  0.040738708            1 
   68000    1.2397783   -6.8465388    26.905799  0.032972793  0.040682394            1 
   69000    1.2499145   -6.8978908    27.201481   0.03285203   0.04061874            1 
   70000    1.2413072   -6.8920563    27.605879  0.032864142  0.040554001            1 
   71000    1.2367423   -6.8918368    28.046627  0.032918576  0.040489494            2 
   72000    1.2640164   -6.8273963    28.553993  0.033048603  0.040422001            2 
   73000    1.1959766   -6.8987013    28.948377  0.033046093  0.040354524            2 
   74000    1.2315543   -6.8757952    29.303747  0.032999715  0.040279604            1 
   75000    1.2508269   -6.8717019     29.70499  0.033005545  0.040196934            3 
   76000    1.2382607   -6.9168516    30.148318  0.033057366  0.040110565            2 
   77000    1.2106605   -6.9108874     30.52877  0.033039794  0.040028889            2 
   78000    1.2716335   -6.8915682    31.227302  0.033362502  0.039958832            4 
   79000    1.2414296   -6.8871457    31.836489  0.033582794  0.039915051            1 
   80000    1.2549319   -6.8734993    32.352039   0.03370004  0.039867137            1 
   81000    1.2254737    -6.897517    32.780888  0.033725193  0.039828045            1 
   82000    1.2534997   -6.8546911    33.104778  0.033643067  0.039792607            2 
   83000    1.2116122      -6.8648     33.39947  0.033533604  0.039748661            2 
   84000    1.2379879   -6.8485282    33.819693  0.033551282  0.039686977            2 
   85000    1.2156191   -6.8767377    34.195465  0.033524965  0.039630029            1 
   86000    1.2369183   -6.8923465    34.569517  0.033497594  0.039565237            1 
   87000    1.2352256   -6.9012038    34.876949  0.033407039  0.039500972            3 
   88000    1.2183831   -6.8887359    35.556553  0.033670978  0.039443719            2 
   89000    1.2350562   -6.8940341    36.161146  0.033858751  0.039397821            2 
   90000    1.2272553   -6.9142509    36.615716  0.033903441  0.039367072            2 
   91000    1.2449991   -6.9276804    37.286547  0.034145189  0.039346881            2 
   92000    1.2230418   -6.8918625    37.805181  0.034243823  0.039335008            2 
   93000    1.2370557   -6.8812041    38.307801  0.034325986  0.039323774            1 
   94000    1.2218538   -6.8991005    39.061266  0.034628781  0.039325393            1 
   95000    1.2315387   -6.9088378    39.493924  0.034643793  0.039328093            2 
   96000     1.246418   -6.8822301    40.184824  0.034882659   0.03934396            1 
   97000    1.2162083   -6.8574682    40.370298  0.034682386   0.03935727            1 
   98000    1.2103046   -6.8948033    40.967899  0.034836649  0.039367513            2 
   99000    1.2383308   -6.8796906    41.359756  0.034814609  0.039380739            2 
  100000     1.254415   -6.8515986    41.934055  0.034945045  0.039383854            1 
  101000    1.2219291   -6.9103234    42.252586   0.03486187  0.039386835            2 
  102000    1.2201753   -6.9014309      42.7028  0.034887908  0.039385494            4 
  103000    1.2318738   -6.8677228    43.375503  0.035093449  0.039383022            1 
  104000    1.2331772   -6.8849861    43.688412   0.03500674  0.039385794            1 
  105000    1.2295939   -6.8917292    44.142627  0.035033831  0.039386964            1 
  106000    1.2301952   -6.8829299    44.779009  0.035203623  0.039396734            1 
  107000    1.2430083   -6.9012422     45.28544  0.035269034  0.039411758            1 
  108000    1.2264628   -6.8345307    46.030914   0.03551768  0.039434106            1 
  109000    1.2534873   -6.8713335    46.410284  0.035481868  0.039451646            2 
  110000    1.2304134   -6.8557991    46.844742  0.035488441  0.039465373            1 
  111000    1.2195415    -6.937135    46.991865  0.035279178  0.039465228            1 
  112000    1.2445489   -6.8747472     47.55452  0.035382827   0.03946062            1 
  113000     1.259733   -6.8787207     47.94455  0.035357337  0.039457333            1 
  114000    1.2490315     -6.89375    48.270387  0.035285371  0.039446496            2 
  115000    1.2222188   -6.9103162    48.633996  0.035242026  0.039433188            1 
  116000     1.244629   -6.8688241    49.068599   0.03525043  0.039419975            2 
  117000    1.2311843   -6.9022864    49.634308  0.035352071  0.039409291            2 
  118000    1.2486874     -6.86158    50.302315  0.035524234  0.039399714            3 
  119000     1.264373   -6.8953757    50.605202  0.035437817  0.039393075            3 
  120000    1.2332877   -6.8738172    51.267906  0.035602712  0.039394857            1 
  121000     1.258163   -6.9014843    51.592795  0.035532228  0.039388916            2 
  122000    1.2349876   -6.9167346    52.068544  0.035565945  0.039385066            1 
  123000    1.2296745   -6.8577353     52.57925  0.035622798  0.039381076            1 
  124000    1.2212943   -6.9132204     52.81407  0.035493327  0.039370847            1 
  125000    1.2106739    -6.936044    53.013461  0.035342307  0.039353953            1 
  126000    1.2553099   -6.8589174    53.836877    0.0356064   0.03933806            4 
  127000    1.2493632   -6.9170867     53.86545  0.035344783  0.039321465            1 
  128000    1.2030117   -6.9070574     54.36308   0.03539263  0.039299204            1 
  129000     1.240422   -6.9309523    54.511862  0.035214381  0.039273363            1 
  130000    1.2223529   -6.9017693    55.243212  0.035412315  0.039247913            2 
  131000    1.2398961    -6.870797    55.605608  0.035372524  0.039222346            1 
  132000    1.2367453   -6.9107983    55.713007  0.035172353  0.039189471            4 
  133000    1.2450111   -6.9193021    56.202543  0.035214626  0.039153218            1 
  134000    1.2746116   -6.8882413    56.464109  0.035114495  0.039120186            2 
  135000    1.2344677   -6.8774352    57.112752  0.035254785  0.039085981            2 
  136000    1.2414101   -6.8993593    57.497574  0.035231357  0.039054199            3 
  137000    1.2285396   -6.8974723    57.757286  0.035132169  0.039022972            3 
  138000    1.2366909   -6.8880951     58.40024  0.035265845  0.038989338            2 
  139000    1.2398714   -6.8581826    58.713211  0.035199767   0.03895821            2 
  140000    1.2117179   -6.9211021    58.834614  0.035020604  0.038920865            2 
  141000    1.2343974   -6.9069824    59.337531  0.035069463  0.038882264            1 
  142000    1.2105805   -6.8584454    59.847987  0.035122058   0.03884344            1 
  143000    1.2380914   -6.8989512    60.354242   0.03517147  0.038806442            1 
  144000    1.2565916   -6.9344175    60.617982  0.035079851   0.03876903            2 
  145000    1.2347234    -6.901376    61.013082   0.03506499  0.038729982            1 
  146000    1.2054197    -6.916395     61.38468  0.035036918  0.038691139            2 
  147000    1.2347494   -6.8920088    62.159789  0.035237976  0.038656801            2 
  148000    1.2493236   -6.8910457    62.745274  0.035329546  0.038630842            3 
  149000    1.2166766   -6.8876726    63.395917  0.035456329  0.038606204            3 
  150000    1.2291444   -6.8968424    63.278907  0.035154948  0.038578627            2 
  151000    1.2104151   -6.9485186    63.524181  0.035057495  0.038548028            3 
  152000    1.2329899   -6.8784623    64.571584  0.035401088  0.038518753            1 
  153000    1.2154647   -6.8717123    64.851239  0.035322025   0.03849635            2 
  154000    1.2299973   -6.8930358    65.245026   0.03530575  0.038473068            2 
  155000     1.228444   -6.8927451    65.456843  0.035191851  0.038449664            1 
  156000    1.2813283   -6.9121484    66.254305  0.035392257  0.038425635            2 
  157000    1.2328025   -6.8980042    66.511889  0.035303551  0.038401044            2 
  158000    1.2303533   -6.8894341    67.103002  0.035391879  0.038377829            1 
  159000    1.2268045   -6.9072868    67.410247  0.035330318  0.038353441            1 
  160000     1.228818   -6.9300319    67.684838   0.03525252  0.038326533            3 
  161000    1.2224785   -6.9278216    68.359514  0.035382771   0.03830219            4 
  162000    1.2073768    -6.881896    68.717206  0.035348357  0.038281166            1 
  163000    1.2179216   -6.9139589    69.336318  0.035448015  0.038260791            1 
  164000    1.2361722   -6.9248357     69.63493  0.035383602  0.038241964            3 
  165000    1.2196499   -6.9059044    70.124125  0.035416225  0.038221331            1 
  166000    1.2124368   -6.8642444    70.826109  0.035555276  0.038205926            3 
  167000    1.2168973   -6.9088017    70.999942  0.035429112  0.038189886            1 
  168000    1.2355549   -6.8903737    71.535386  0.035483822  0.038173579            1 
  169000    1.2279672   -6.9026913    72.294879  0.035648362  0.038157937            2 
  170000    1.2235656   -6.9258333    72.427374  0.035503614  0.038141727            5 
  171000    1.2171254   -6.8946316    73.222658  0.035683556  0.038130717            1 
  172000    1.2317435   -6.9216607    73.602215  0.035659988  0.038122412            3 
  173000    1.2048359   -6.9017935    73.755836  0.035527859  0.038111378            2 
  174000    1.2192616   -6.8972804    74.284291  0.035576768  0.038099693            1 
  175000    1.2194674   -6.9348256    74.807333  0.035622539   0.03809066            1 
  176000    1.2528991   -6.8891692    75.541416  0.035767716  0.038083942            2 
  177000    1.2104046   -6.9020209    75.697449    0.0356391  0.038076761            1 
  178000     1.241687   -6.8773742    76.346955  0.035742957  0.038066929            1 
  179000    1.2092346   -6.9203026     76.55917  0.035642072  0.038056818            2 
  180000    1.2290802   -6.8839469    77.009015  0.035652321  0.038044538            1 
  181000    1.2343811   -6.8814269    77.701888   0.03577435  0.038033976            1 
  182000    1.2329887   -6.9386864    78.099873  0.035760015  0.038028046            1 
  183000    1.2081329   -6.9037946    78.689693  0.035833193  0.038022137            1 
  184000    1.2044931   -6.9324257    78.905667  0.035736262  0.038016449            4 
  185000    1.2107007   -6.9182731    79.265038  0.035704972  0.038007269            2 
  186000    1.2247873    -6.905228    79.955334  0.035822282   0.03799699            2 
  187000    1.2377185   -6.9234898    80.133764  0.035710233  0.037987051            2 
  188000    1.2441218   -6.9301803    80.854122  0.035839593  0.037982101            4 
  189000    1.2235687   -6.9399557    80.986959  0.035708536   0.03797433            3 
  190000    1.2328795   -6.8921952     81.58549   0.03578311  0.037965878            1 
  191000    1.2303634    -6.877284    82.121846  0.035829776  0.037958619            1 
  192000    1.2320394   -6.9435265    82.550045  0.035829013  0.037953189            2 
  193000    1.2006055     -6.90244    83.181249   0.03591591  0.037945917            3 
  194000    1.2049695   -6.9417024    83.712158   0.03595883   0.03794135            1 
  195000    1.2284977   -6.9387407    83.708108  0.035772695  0.037935901            2 
  196000    1.2136709   -6.8675599    84.356083  0.035865681  0.037930309            1 
  197000    1.2324638   -6.9288223    84.209435  0.035621588  0.037920805            2 
  198000    1.2097326   -6.8955611    84.846194  0.035709677  0.037908458            2 
  199000    1.2390555   -6.9172175    85.302678  0.035721389  0.037898264            1 
  200000    1.2195076   -6.9236452    85.699941  0.035708308   0.03788432            1 
  201000    1.1995735   -6.8865438    85.753316  0.035552784  0.037869882            2 
  202000    1.2233446   -6.9332048    86.247785  0.035580769   0.03785251            2 
  203000    1.2352761   -6.9060695    86.598119   0.03554931  0.037838438            1 
  204000    1.1980296   -6.9425953    87.209321  0.035624722  0.037826332            2 
  205000    1.1894795   -6.9239937    87.933272  0.035745232  0.037815319            1 
  206000    1.2368468   -6.8474526    88.486746  0.035795609  0.037806573            1 
  207000    1.2249097   -6.9168755    88.918631   0.03579655  0.037797184            3 
  208000    1.2284437   -6.9348702    89.173105  0.035726404  0.037786299            1 
  209000    1.2406085    -6.971549    89.589673   0.03572156  0.037777005            1 
  210000    1.2305246   -6.9079628    89.679545  0.035587121  0.037764531            1 
  211000    1.2304738   -6.9710931    90.349999  0.035683254  0.037753719            1 
  212000    1.1876681   -6.9320719    90.176849  0.035446874   0.03773932            1 
  213000    1.1977624   -6.9451613    90.796937  0.035523058  0.037722446            1 
  214000    1.2161957   -6.9478472    91.029394  0.035447583  0.037705169            1 
  215000    1.2147851   -6.9283202    91.357107  0.035409731   0.03768788            2 
  216000    1.2281293   -6.9714884    91.719415  0.035385577  0.037669055            1 
  217000    1.2241247   -6.9351468    92.241163  0.035422873  0.037650344            1 
  218000    1.1957571   -6.9311632     92.90896  0.035515657  0.037631391            3 
  219000    1.2089056   -6.9389483    93.501872  0.035579099  0.037614615            4 
  220000    1.2267223   -6.9004956    93.893451  0.035565701  0.037599598            1 
  221000    1.2308539   -6.9261871    94.273339  0.035548016  0.037584172            2 
  222000    1.2075188   -6.9388454    94.414933  0.035441041  0.037566743            1 
  223000      1.20371   -6.8857171    94.843855  0.035442397  0.037548084            1 
  224000     1.188322    -6.908611    95.649414  0.035583859  0.037531718            2 
  225000    1.2181152   -6.9596882    95.286652  0.035291353  0.037513825            2 
  226000    1.2242792   -6.8977089    96.401599  0.035546312   0.03749595            2 
  227000    1.1794481   -6.9572305    96.503933  0.035427288   0.03748049            2 
  228000    1.2510822    -6.950194    96.993904  0.035450988  0.037463654            2 
  229000    1.2264256   -6.8896276     97.36492  0.035431194  0.037448444            2 
  230000    1.2143147   -6.9202466    98.117303  0.035549747  0.037434604            2 
  231000    1.2037742   -6.9772349    98.168795  0.035414428  0.037423146            3 
  232000    1.2137025   -6.9307407    99.313957  0.035673117  0.037412801            2 
  233000    1.1817814   -6.9295617    99.498801  0.035586123  0.037400444            2 
  234000    1.2044585   -6.9402265    99.833081  0.035553091   0.03738804            1 
  235000    1.2093659    -6.935122    99.985798  0.035455957  0.037375325            2 
  236000    1.2070277   -6.9162519    100.24524  0.035397329  0.037361646            2 
  237000    1.2114869   -6.9169656    100.56805  0.035361479  0.037346505            3 
  238000    1.2371504   -6.9055121    101.10774   0.03540187  0.037332823            1 
  239000    1.2079042   -6.9445092    101.82138  0.035502575  0.037319154            3 
  240000    1.2213495   -6.9397208    102.25664  0.035505777  0.037305411            1 
  241000    1.2311704   -6.9507513    102.32803  0.035383136  0.037291578            1 
  242000    1.2291234   -6.9556995    103.21488  0.035542315  0.037279518            1 
  243000    1.2254517   -6.9284614    103.39489  0.035457782  0.037266875            2 
  244000     1.242268   -6.9021926    104.09269  0.035550782  0.037255512            2 
  245000    1.2019882   -6.9089385    104.66384  0.035599947  0.037244419            2 
  246000    1.2241529   -6.9303498    104.90467  0.035536814  0.037231468            3 
  247000    1.2131217   -6.8882766    105.70045   0.03566142   0.03722128            3 
  248000    1.2274267   -6.9691244    105.57669  0.035476037  0.037212131            2 
  249000    1.2233277   -6.9286879    106.26837  0.035565051   0.03720307            3 
  250000    1.1960118   -6.9671638    106.76964  0.035589879  0.037194127            2 
  251000    1.2294653   -6.9085992    107.55674   0.03570941  0.037185543            1 
  252000    1.2308077   -6.8976169    107.95673  0.035699977  0.037178024            2 
  253000    1.1946182   -6.9752933    108.20941  0.035642098  0.037171133            1 
  254000    1.2026296    -6.950318    108.95041  0.035744887  0.037163581            1 
  255000    1.2277619   -6.9877634    109.00639  0.035623002  0.037155372            1 
  256000    1.2146749   -6.9519038    108.80217  0.035417373  0.037146995            2 
  257000    1.2166427    -6.962178    109.72827  0.035579855  0.037138068            2 
  258000    1.2269784   -6.9175275    110.91771  0.035826135  0.037131009            2 
  259000    1.2260033   -6.8990914    111.21586  0.035783739  0.037125534            2 
  260000    1.1859633   -6.9576057    111.55556  0.035754986   0.03712049            3 
  261000    1.2153081   -6.9261408     112.0634  0.035780139  0.037115816            1 
  262000     1.235946    -6.937678    112.65069  0.035830373  0.037113252            1 
  263000    1.2051657   -6.9619309    113.05108     0.035821  0.037109493            1 
  264000    1.2090232   -6.9373402    113.57044  0.035849256  0.037106487            2 
  265000    1.2261311   -6.9444161    113.87214   0.03580885  0.037103029            1 
  266000    1.2167516    -6.941605    114.16467  0.035765873  0.037099305            2 
  267000    1.1923644   -6.9316172       114.93  0.035870787  0.037095091            1 
  268000    1.1975255   -6.9243979    115.58967  0.035942063   0.03709099            1 
  269000      1.20211   -6.9178896    115.76123  0.035861597  0.037088784            1 
  270000    1.2143605   -6.8976405    116.44715  0.035940479  0.037088061            1 
  271000    1.1877851   -6.9768827    116.47035  0.035814991  0.037084906            1 
  272000    1.2124649   -6.9373954    116.74693  0.035768056  0.037081074            1 
  273000     1.241756   -6.9548226    117.63097   0.03590689  0.037077239            1 
  274000    1.2384031   -6.9663571     117.7532  0.035813018  0.037075305            2 
  275000    1.2173054   -6.9314087    118.11794  0.035793315   0.03707095            2 
  276000    1.2173738   -6.9437279    118.93019  0.035908875  0.037068435            1 
  277000    1.2014598   -6.9485178    119.32137  0.035896923  0.037064984            1 
  278000    1.2200928   -6.9362113     120.0797  0.035995114  0.037063451            2 
  279000    1.2027088   -6.9514853    120.74698  0.036065407  0.037063965            3 
  280000    1.2075016   -6.9476721    120.80145  0.035952814  0.037064743            2 
  281000     1.225078   -6.9627313    121.56612  0.036051638  0.037065198            1 
  282000    1.2059739   -6.9494632    122.40664  0.036172174  0.037066856            4 
  283000    1.2224279   -6.9138726    122.81455  0.036164472  0.037068507            1 
  284000    1.2113957   -6.9660143    122.95565  0.036078536  0.037069456            5 
  285000    1.1952769   -6.9757117    122.80779  0.035908711   0.03707091            2 
  286000    1.2159899   -6.9608662    123.19471  0.035895895  0.037069303            1 
  287000    1.2321673   -6.9792568    123.66179  0.035906444   0.03706673            2 
  288000    1.1815856   -6.9526726    124.28951    0.0359634  0.037064085            1 
  289000    1.2037012    -6.940163    125.13352  0.036082329  0.037061978            2 
  290000    1.2098498   -6.9423486     125.1871  0.035973304  0.037061004            1 
  291000     1.233115   -6.9372973     125.7451   0.03600948  0.037061268            1 
  292000    1.2183746   -6.9727692    126.03534  0.035968989   0.03706183            2 
  293000    1.2245081   -6.9378219    127.26633   0.03619634  0.037063818            1 
  294000    1.1962009   -6.9310784    127.29626  0.036081707  0.037065179            2 
  295000    1.2302381   -6.9533498    127.93925  0.036141032  0.037066233            2 
  296000    1.2174642   -6.9304922    128.38866  0.036145457  0.037067028            1 
  297000    1.2199752   -6.9303363    128.69943  0.036110951  0.037068969            1 
  298000    1.2215305   -6.9427773    128.84059  0.036029246  0.037070777            2 
  299000    1.1886675   -6.9302652    129.76714  0.036166984  0.037071719            1 
  300000    1.2059442   -6.9194679    130.08131  0.036133697  0.037072856            2 
  301000    1.1895609    -6.987588    129.63756  0.035890798  0.037072545            2 
  302000    1.1876463   -6.9446518     130.6224   0.03604371   0.03706978            2 
  303000    1.1878542   -6.9812821    130.70144  0.035946491  0.037067353            2 
  304000    1.2050255   -7.0062136    130.88437  0.035878391  0.037064897            2 
  305000    1.1890881   -6.9708117    131.23241   0.03585585  0.037062356            2 
  306000    1.1829348   -6.9044922    132.30925  0.036031931  0.037058067            2 
  307000    1.2152362   -6.9425949    132.05522  0.035845608  0.037054252            1 
  308000    1.1931788   -7.0313621    132.09334   0.03573954   0.03704872            1 
  309000    1.2207523   -6.9374983    133.51859   0.03600825  0.037043803            2 
  310000    1.1886451    -6.972379    133.70131  0.035941213  0.037040141            1 
  311000    1.2337806   -6.9789022    133.74817  0.035838201  0.037036543            1 
  312000    1.2237584   -6.9614794    134.26857  0.035862333  0.037032286            1 
  313000    1.1960742   -6.9780793    135.19999  0.035995739  0.037028823            2 
  314000     1.193932    -6.943364    135.34545  0.035919707  0.037025619            2 
  315000    1.1957061     -6.97343    135.57005  0.035865093  0.037022656            5 
  316000    1.1859381   -6.9612492    136.08312  0.035886899  0.037019731            2 
  317000     1.213576   -7.0132125    136.64832  0.035922272  0.037017221            1 
  318000    1.2081513   -6.9358827     137.6249  0.036065224  0.037015837            1 
  319000    1.2142855   -6.9678186    137.96994  0.036042304  0.037014576            3 
  320000    1.2220715   -6.9732112    138.29126  0.036013349  0.037013407            1 
  321000    1.2258803   -6.9763362    138.98863    0.0360822  0.037011932            1 
  322000    1.2078695   -6.9954075     138.9675  0.035964673  0.037010646            2 
  323000    1.2067862   -6.9605589    139.63075  0.036024445  0.037010424            2 
  324000    1.1952864   -6.9381426    140.44239  0.036122014  0.037009785            1 
  325000    1.1892368   -6.9722143     140.6183  0.036055973  0.037010316            3 
  326000    1.2188742   -6.9469677     140.8864  0.036013906   0.03701011            2 
  327000    1.2005909    -6.952692    141.81169  0.036139574  0.037009355            1 
  328000    1.2035209   -6.9776885     141.3198  0.035904421  0.037008865            2 
  329000    1.1719954   -6.9326684    142.78213  0.036165687  0.037008271            2 
  330000    1.2062516   -6.9013975    143.02466  0.036117337  0.037007849            3 
  331000    1.1796268   -6.9464241    143.14787  0.036039243  0.037006894            1 
  332000    1.2042986   -6.9703203    143.35156  0.035981816  0.037005723            2 
  333000     1.218916   -6.9691477    143.74066  0.035971137  0.037003302            4 
  334000    1.1786986   -6.9770285    144.59802  0.036077351  0.037000582            2 
  335000      1.19646   -6.9593774    144.81741  0.036024231  0.036998422            1 
  336000    1.1823843   -6.9550545    145.23614  0.036020867  0.036996922            1 
  337000    1.1908788   -6.9806997     145.8847  0.036074356  0.036996732            3 
  338000    1.1878033   -6.9707473    146.50843  0.036121408  0.036995778            3 
  339000    1.2102946   -6.9194263    146.75151  0.036074609  0.036995434            1 
  340000    1.1811888   -6.9845642    146.81251  0.035983459   0.03699481            1 
  341000    1.1955966   -6.9857732    147.63471  0.036078864  0.036993694            1 
  342000    1.1909841   -6.9826127    147.97977  0.036057448  0.036992526            2 
  343000     1.193388   -6.9819334    148.27453  0.036023939  0.036991467            1 
  344000    1.2127437   -6.9612214    149.33196  0.036175377  0.036990186            1 
  345000    1.2069559   -6.9717421    149.05592  0.036003845  0.036988781            2 
  346000    1.2119842   -6.9889592    149.52502  0.036012769  0.036987372            1 
  347000    1.1999397   -6.9900891    150.41712  0.036123227  0.036986265            1 
  348000    1.2142903    -6.973779    150.90685  0.036136698  0.036985042            1 
  349000    1.2080608   -6.9582116    151.04376  0.036065846   0.03698434            2 
  350000    1.1837428   -6.9925164    151.30023  0.036023865    0.0369829            1 
  351000    1.1917571   -6.9441072    151.93298  0.036071457  0.036979996            2 
  352000    1.1619189   -6.9760852    151.92678  0.035967515  0.036977049            2 
  353000    1.2042512   -6.9899031    152.33595  0.035962218  0.036975057            1 
  354000    1.1808943   -6.9853116    152.99671  0.036016175  0.036971788            1 
  355000    1.1895071   -6.9805056    153.43333  0.036017214  0.036968905            1 
  356000    1.1784721   -6.9463261    154.25431  0.036108219  0.036966726            1 
  357000    1.2250544   -7.0045536    154.05723  0.035961072  0.036964316            3 
  358000    1.1956121    -6.939511    155.20199  0.036127093  0.036961723            2 
  359000    1.1919338   -6.9780195    155.14647  0.036013572   0.03695935            2 
  360000    1.1882682   -6.9626807    155.79169  0.036062891  0.036956353            1 
  361000    1.1934108   -6.9420496    156.41795  0.036107561  0.036954456            2 
  362000    1.1815425   -6.9963157    156.27831   0.03597567  0.036952422            2 
  363000    1.1908927   -6.9885609    156.96992  0.036035336   0.03694947            2 
  364000    1.1976161   -6.9752159     157.2358  0.035997208  0.036946209            1 
  365000    1.1743456   -6.9851022    157.73541  0.036012651  0.036942301            1 
  366000    1.1922023   -6.9943384     158.1538  0.036009517  0.036939235            2 
  367000    1.1669404   -6.9761665    158.88586  0.036077625  0.036937361            1 
  368000     1.162268    -6.973669     158.8915  0.035980865  0.036934482            1 
  369000    1.1919682    -6.957951    159.76003  0.036079502  0.036931301            1 
  370000     1.205639   -6.9647937    159.41316  0.035903865   0.03692868            2 
  371000    1.1647866   -6.9988858    160.40039  0.036028839  0.036925742            2 
  372000    1.1901093   -6.9567958    161.19124  0.036109148  0.036923824            2 
  373000    1.1767668   -7.0186731    161.16393  0.036006239  0.036921344            1 
  374000    1.1847242   -6.9439518    161.38475  0.035959168  0.036918169            1 
  375000    1.1758742   -6.9886646    161.34577  0.035854615  0.036914338            1 
  376000    1.1846331   -6.9586675    162.18579  0.035945433  0.036910178            4 
  377000    1.1782574   -6.9931508    162.10708  0.035832687  0.036905835            1 
  378000    1.2019028   -6.9518554     162.9283  0.035918937  0.036900702            2 
  379000    1.2267524   -6.9322959    163.48432  0.035946421  0.036895847            2 
  380000    1.1915905   -6.9668953    163.24907  0.035800235  0.036890535            1 
  381000    1.2138664   -7.0132455     163.8753  0.035843242  0.036885413            4 
  382000    1.1630657   -6.9855868    164.50765  0.035887358   0.03687942            2 
  383000    1.1573071   -7.0034236    164.42594  0.035775878  0.036874197            1 
  384000     1.178473   -6.9398997    165.54316  0.035925166  0.036868409            2 
  385000    1.1558025   -7.0100556    165.86399  0.035901296  0.036863713            1 
  386000    1.1893668   -6.9979193    166.58202  0.035963303  0.036859008            2 
  387000    1.1859787    -6.996126     166.2824  0.035805857   0.03685436            1 
  388000    1.1850712   -7.0013278    166.58677  0.035778946  0.036848456            4 
  389000    1.2075159    -6.981128    166.98235  0.035771711  0.036842824            1 
  390000    1.1779785   -7.0164449    166.91413  0.035665413  0.036836856            2 
  391000    1.1902058   -6.9645088    168.49458  0.035911037  0.036831301            1 
  392000    1.1695711   -6.9788138    168.57211  0.035835907  0.036826586            1 
  393000    1.1940735   -7.0348237    168.46977  0.035723021  0.036821065            2 
  394000     1.184829   -7.0386997    168.76202  0.035694168  0.036815782            1 
  395000    1.1789189   -6.9836954    169.07569  0.035669976  0.036809571            2 
  396000    1.2081649   -6.9717103    170.19744  0.035815959  0.036803158            1 
  397000    1.1852811   -7.0139208    170.37966  0.035763993  0.036796527            4 
  398000     1.169978   -7.0047155    170.28518  0.035654351  0.036789953            1 
  399000     1.182286   -7.0012919    170.61667  0.035634225  0.036782923            5 
  400000     1.161958   -6.9978668    171.58656    0.0357472  0.036775449            1 
  401000     1.203572    -7.016854    171.61932  0.035664863  0.036768817            2 
  402000    1.1710646   -6.9588513    172.52067  0.035762992  0.036762771            1 
  403000    1.1684327   -6.9661603    172.18472   0.03560478  0.036756507            1 
  404000    1.1727807   -6.9797293    172.73042  0.035629212    0.0367485            2 
  405000    1.1792655   -7.0347512    173.46166  0.035691699  0.036741489            1 
  406000    1.2184833    -6.946001    174.12559  0.035740063  0.036735111            1 
  407000    1.1864108   -6.9736957     174.0353  0.035633763  0.036728397            1 
  408000    1.2110868   -6.9603154    175.03012  0.035749616  0.036721759            2 
  409000     1.188585   -6.9829008    174.62461  0.035579587  0.036715248       -1e+20 
  410000    1.1714479   -7.0247324    175.45346  0.035661273  0.036707317            1 
  411000    1.1607806   -7.0068001    175.32087  0.035547622  0.036699392            2 
  412000    1.1874721   -7.0259621    175.36004  0.035469263  0.036691142            5 
  413000    1.1968973   -6.9432625    176.24751  0.035562452  0.036683939            2 
  414000    1.1796584   -7.0378731    176.06054  0.035438918  0.036675092            3 
  415000    1.1818504   -7.0296843    176.77931  0.035497853  0.036666134            3 
  416000    1.1599912    -6.981822    177.30759  0.035518346  0.036657653            2 
  417000    1.1808582   -7.0027466    177.90169  0.035551896  0.036649924            2 
  418000    1.2038406   -6.9836513    178.72078   0.03563014  0.036642388            3 
  419000    1.2014516   -6.9888219    178.81666  0.035564173  0.036635297            2 
  420000    1.1780808   -6.9821836    179.70326  0.035655408  0.036628582            1 
  421000    1.1770896   -6.9792262    179.89294  0.035608261  0.036622112            2 
  422000    1.2152007   -7.0071659    180.34767  0.035613679  0.036615587            1 
  423000    1.2151904   -6.9626563    181.23472   0.03570424  0.036609592            2 
  424000    1.1557147   -6.9973261    180.77196   0.03552908  0.036602769            1 
  425000    1.1607447   -7.0109274    181.25485  0.035540167  0.036594753            1 
  426000    1.1784994   -7.0062154    180.37854  0.035285317   0.03658655            2 
  427000    1.1857025   -6.9993695     182.2916  0.035576035  0.036579159            1 
  428000    1.1786256   -7.0187709    181.66422   0.03537076  0.036571466            1 
  429000    1.1815929   -6.9578835     183.4143  0.035628262  0.036564379            2 
  430000    1.1853852    -6.956288    183.88951  0.035637502  0.036558671            1 
  431000     1.191419   -7.0148801    183.34023  0.035448615  0.036552463            1 
  432000    1.2166283   -7.0155959    183.65495  0.035427266  0.036545661            1 
  433000    1.1795015   -6.9718309     184.3463  0.035478504  0.036537275            1 
  434000    1.1818138   -7.0183572    184.51749  0.035429625  0.036528403            1 
  435000    1.1941154   -7.0216777    185.33883  0.035505523   0.03652002            1 
  436000    1.1948575   -6.9919455    185.19583  0.035396756  0.036511162            2 
  437000    1.1752855   -6.9934917     185.8972  0.035449504  0.036502099            3 
  438000      1.19954   -6.9856186    185.54195  0.035300979  0.036491993            3 
  439000    1.2057511   -6.9930488    186.64985  0.035430875  0.036482674            1 
  440000    1.2065423   -6.9557208    187.06317  0.035428631  0.036473889            1 
  441000    1.1692722   -6.9988755    187.50224  0.035431263  0.036465538            1 
  442000    1.1779885   -6.9804056    187.60183  0.035369877  0.036457611            2 
  443000    1.1829275   -6.9984996    187.61295  0.035292128  0.036449167            3 
  444000    1.1586956   -7.0146012    188.01316  0.035287755  0.036440363            2 
  445000    1.1854982   -7.0160388    188.16525  0.035236938  0.036430352            2 
  446000    1.1918333   -7.0199061    188.02497  0.035131721  0.036420531            1 
  447000    1.1875609   -6.9875094    189.34073   0.03529842  0.036411199            2 
  448000    1.1714778    -7.003494    189.12291  0.035179112  0.036400711            3 
  449000    1.1688727   -7.0316719    189.21131   0.03511717  0.036390206            3 
  450000    1.1866737   -6.9880333     190.0176  0.035188445    0.0363801            1 
  451000    1.1815564   -6.9986475    191.11976  0.035314073  0.036370865            2 
  452000    1.1732094   -7.0047802    191.19073  0.035249028  0.036361375            2 
  453000    1.1786814   -6.9976184    192.13814  0.035345501  0.036352003            1 
  454000     1.158655   -6.9790467    192.54093   0.03534158  0.036343112            1 
  455000    1.1871815   -7.0115108    192.81699  0.035314467   0.03633424            2 
  456000    1.1708489   -6.9474246    193.72562  0.035403074  0.036324946            2 
  457000    1.1538742   -7.0184744    193.39686  0.035265657  0.036315905            3 
  458000    1.1861936   -7.0103217    193.98579  0.035295813  0.036307973            2 
  459000    1.1546915   -7.0160444    194.48432  0.035309426  0.036299789            1 
  460000    1.1962387   -7.0225664    194.76648  0.035283782  0.036291228            2 
  461000    1.1604851   -6.9811322     195.7124  0.035378235  0.036283344            1 
  462000    1.1966861   -6.9815093    195.75545  0.035309425  0.036275255            1 
  463000    1.1828786   -6.9743334    195.89284   0.03525789  0.036267439            1 
  464000    1.1939897   -6.9806091    196.79621  0.035344147   0.03625986            1 
  465000    1.2026759    -7.029082    195.90121  0.035107743  0.036251231            1 
  466000    1.1827034   -7.0185491    196.58689  0.035155023  0.036243241            2 
  467000    1.1931238    -7.046991    196.80998  0.035119554  0.036234659            2 
  468000    1.1816787    -7.013583     197.5998   0.03518515  0.036225783            1 
  469000    1.1815955   -7.0195003    198.14451  0.035206914  0.036217335            1 
  470000     1.174827   -7.0378824     199.0488  0.035292341  0.036209145            2 
  471000    1.1956994   -7.0092694    199.33633  0.035268282  0.036201658            1 
  472000    1.1754661   -7.0387435    199.64172  0.035247479   0.03619475            2 
  473000    1.1925937   -7.0540519    200.48055  0.035320745  0.036187785            1 
  474000     1.174815   -6.9978895    200.98308  0.035334579  0.036181488            2 
  475000    1.1594867   -7.0050692    201.91528  0.035423733  0.036175453            2 
  476000    1.1708117   -6.9837173    201.90678  0.035347825  0.036169135            2 
  477000    1.1669689   -7.0066837    202.21714  0.035327942   0.03616301            1 
  478000    1.1704752   -7.0209658    203.04876  0.035399017  0.036157416            2 
  479000    1.1555815   -7.0039586    202.79889  0.035281644  0.036151588            2 
  480000    1.1705397   -6.9962883    203.88986  0.035397546  0.036145179            3 
  481000    1.1860697   -6.9964797    204.10784  0.035361718  0.036138777            4 
  482000      1.16975   -7.0840623    204.37232   0.03533408  0.036132824            2 
  483000    1.1797376   -7.0184347    205.28614  0.035418589  0.036126186            1 
  484000    1.1670285   -7.0540162    204.30394  0.035176299   0.03611967            2 
  485000    1.1584288   -6.9740022    205.80735  0.035362087  0.036113445            2 
  486000    1.1536869   -7.0091152    206.13033  0.035344708  0.036107734            3 
  487000    1.1857559   -6.9658375    206.71514    0.0353722  0.036101902       -1e+20 
  488000    1.1800064   -6.9489368    207.56006  0.035443999  0.036096619            2 
  489000    1.1801343   -7.0415572    206.87432  0.035254655  0.036090388            2 
  490000    1.1605274    -7.017365    206.97665  0.035200111  0.036083499            2 
  491000    1.1712716   -7.0353004    207.10904  0.035150889  0.036076846            2 
  492000    1.1654938   -7.0121949    207.53045  0.035150821  0.036070433            1 
  493000    1.1720071   -6.9766206    208.53423  0.035249194  0.036062741            1 
  494000    1.2010465   -7.0030875    208.38128  0.035152038    0.0360555            2 
  495000    1.1754191   -7.0167262    208.87025  0.035163341   0.03604768            1 
  496000    1.1708725   -6.9927961    210.02597  0.035286621  0.036040026            1 
  497000    1.1717533    -7.015983    209.82869  0.035182543   0.03603249            4 
  498000    1.1760423   -7.0153944    210.20164  0.035174304  0.036024975            2 
  499000     1.169467   -7.0315398    210.44132  0.035143841  0.036018174            1 
  500000     1.174714   -7.0354985    211.28794  0.035214657  0.036011344            2 
  501000    1.1769623   -7.0289922    211.32848  0.035151111  0.036004767            2 
  502000    1.1568701   -7.0299225    210.76482  0.034987521   0.03599745            1 
  503000    1.1497361   -7.0337133    211.90665  0.035107132  0.035990499            3 
  504000    1.1739458   -7.0307985    211.77404  0.035015548  0.035982195            2 
  505000    1.1764136   -6.9899563    211.93005  0.034971956  0.035973984            1 
  506000    1.1650097   -6.9921792    213.14861  0.035103526  0.035965811            3 
  507000     1.178798   -7.0360387    212.52235  0.034931353  0.035956814            2 
  508000    1.1624729   -7.0530092    212.22767   0.03481425    0.0359481            1 
  509000    1.1683493   -6.9807365    214.02777  0.035040564  0.035938912            2 
  510000    1.1851952   -7.0309897    214.14577  0.034991139  0.035929686            1 
  511000     1.188481   -7.0445917    213.60955  0.034835217  0.035919915            1 
  512000    1.1700213   -7.0022519    214.28176  0.034876588  0.035909813            1 
  513000     1.176326   -7.0422434    213.69572  0.034713406  0.035899638            2 
  514000     1.170909   -7.0192872     214.8933   0.03484003  0.035889379            1 
  515000    1.1667297   -7.0440571    214.68379  0.034738477  0.035878736            3 
  516000    1.1837309   -6.9505575    215.09085  0.034736894  0.035868012            2 
  517000    1.1770253   -7.0444573    215.21741  0.034690104  0.035857885            3 
  518000    1.1506105   -7.0383996    216.37225  0.034808921  0.035847016            2 
  519000    1.1511443   -7.0052862    216.50308  0.034762859  0.035836708            1 
  520000    1.1788763   -7.0423276    217.11144  0.034793499  0.035826523            1 
  521000    1.1692113   -7.0450658    217.85254  0.034845256  0.035816676            1 
  522000    1.1646619   -7.0432459    218.09585  0.034817345  0.035807464            2 
  523000    1.1525655   -7.0305329    218.45687  0.034808296  0.035798312            1 
  524000    1.1606539   -7.0721252    219.03419  0.034833681  0.035789004            2 
  525000     1.142939   -7.0217787    219.41725  0.034828135   0.03578024            2 
  526000    1.1752082   -7.0437382    219.58912  0.034789151  0.035770797            2 
  527000    1.1456581   -7.0050857    220.03833   0.03479417  0.035760696            1 
  528000      1.16322   -7.0405982     220.1285  0.034742503   0.03575158            1 
  529000    1.1768511   -7.0321437    221.03544  0.034819698  0.035742184            1 
  530000    1.1838822   -7.0496535    221.34945  0.034803373  0.035733008            1 
  531000    1.1550442   -7.0247042     221.7351  0.034798351  0.035724487            1 
  532000    1.1766349   -7.0299401    222.78394  0.034897234  0.035716002            1 
  533000    1.1525587   -7.0329204    222.12846  0.034729277  0.035706652            1 
  534000    1.1546676   -7.0026295    222.71513  0.034755795  0.035697786            1 
  535000     1.177853   -7.0643642    222.73801  0.034694393  0.035689072            1 
  536000    1.1628417   -7.0366238    223.47756  0.034744645  0.035680585            1 
  537000     1.153221   -7.0198974    224.92443  0.034904474  0.035672215            1 
  538000    1.1820564   -7.0486389    223.79973  0.034665386  0.035663806            2 
  539000    1.1510141   -7.0115259    225.05876  0.034795727  0.035655727            1 
  540000    1.1733292   -7.0696305    225.01707  0.034724857  0.035646787            1 
  541000    1.1546185   -7.0596323    224.02924  0.034508509  0.035636854            2 
  542000    1.1829807   -7.0649721    224.81264   0.03456529  0.035626729            1 
  543000    1.1604648   -7.0714819    225.11276  0.034547692  0.035617314            1 
  544000    1.1424376   -7.0296926    226.36668  0.034676269  0.035607295            1 
  545000    1.1653126   -7.0677782    226.10594  0.034572774  0.035597342            2 
  546000    1.1801253   -7.0415702    226.59819  0.034584583  0.035586605            1 
  547000    1.1467873   -7.0400396    226.32975  0.034480461  0.035576052            1 
  548000    1.1584476   -6.9928105    227.91487  0.034658588  0.035566754            1 
  549000    1.1587052   -7.0353691    227.85576  0.034586484  0.035557265            1 
  550000    1.1415936   -7.0625295    228.34607  0.034597889  0.035548156            2 
  551000    1.1749541    -7.002334    229.09177  0.034647879  0.035538605            1 
  552000    1.1835359   -7.0402278    229.19662  0.034600939  0.035529367            2 
  553000    1.1407793    -7.037783    229.46844  0.034579331  0.035519987            3 
  554000    1.1797679   -7.0166219    230.13883  0.034617754  0.035510566            3 
  555000    1.1461988   -7.0514398    231.14381  0.034706278  0.035501236            1 
  556000    1.1571043    -7.057382    230.69544  0.034576655  0.035492058            1 
  557000    1.1706753   -7.0072764    231.12033  0.034578147  0.035482663            2 
  558000    1.1797212   -7.0451004    231.61039  0.034589365  0.035473155            2 
  559000     1.159816   -7.0158228     231.6998  0.034540817   0.03546388            3 
  560000    1.1698886   -7.0389217     232.0871  0.034536771  0.035454781            2 
  561000    1.1794913   -7.0430493     232.9447    0.0346026  0.035445414            3 
  562000    1.1908907   -7.0537249    232.89068  0.034533019  0.035437098            2 
  563000    1.1846335    -7.043929    234.15429  0.034658717  0.035428408            1 
  564000    1.1662488   -7.0624832    233.35072  0.034478534  0.035420046            1 
  565000    1.1721403   -6.9895938    234.55253  0.034594769  0.035411819            2 
  566000    1.1299754   -6.9798925    236.31167  0.034792649  0.035403486            2 
  567000    1.1693491   -7.0139734    235.37285  0.034593305  0.035395103            1 
  568000    1.1702578   -7.0502764    235.96913  0.034619885  0.035386713            3 
  569000    1.1877332   -7.0278246    236.32392  0.034611001  0.035378299            2 
  570000    1.1280008   -7.0425155    235.40377  0.034415756  0.035369244            2 
  571000    1.1899936    -7.019691    236.02237  0.034445764  0.035359501            1 
  572000     1.171299   -7.0387574    236.31848  0.034428683  0.035349777            2 
  573000    1.1843997   -7.0799301    235.98507  0.034320109  0.035339464            3 
  574000    1.1590455   -7.0459604    236.66768  0.034359419  0.035329203            3 
  575000    1.1340422   -7.0127576    236.98563  0.034345743  0.035319063            1 
  576000    1.1517348   -7.0586871    236.72952  0.034249062  0.035308299            1 
  577000    1.1604846   -7.0287417    237.19659  0.034257162  0.035296983            1 
  578000    1.1634248   -7.0794955     236.8614  0.034149568  0.035285743            1 
  579000    1.1464711   -7.0160836    238.52088   0.03432943  0.035274478            3 
  580000    1.1528069   -7.0678326    238.16767  0.034219492   0.03526328            2 
  581000    1.1548852   -6.9983838    238.50379  0.034208806  0.035251994            1 
  582000    1.1659646   -7.0228347     239.3347  0.034269001  0.035241215            2 
  583000    1.1480976   -7.0255009    239.19918  0.034190849  0.035230254            1 
  584000    1.1384916   -7.0134469    239.37645  0.034157598  0.035218741            2 
  585000    1.1566082   -7.0366113    238.98954  0.034044094  0.035207317            4 
  586000    1.1412493   -7.0618426    240.28524  0.034170256  0.035196001            2 
  587000    1.1324658   -7.0551442    240.36951  0.034124008  0.035184821            1 
  588000     1.150623   -7.0549669    241.26964  0.034193544  0.035173327            2 
  589000    1.1720958   -7.0688049    240.98616  0.034095382  0.035161495            4 
  590000    1.1691151   -7.0539968    241.24706  0.034074443  0.035149897            2 
  591000    1.1641605   -7.0765794    240.97813  0.033978868  0.035138505            2 
  592000    1.1840134   -7.0929306    241.79323  0.034036209  0.035126852            2 
  593000    1.1799312   -7.0855042    241.59567   0.03395105  0.035115317            1 
  594000    1.1380026   -7.0694011    242.64137  0.034040596  0.035103788            1 
  595000    1.1388241   -7.0259145    243.90794  0.034160775  0.035092522            1 
  596000    1.1352923   -7.1177463     242.4854  0.033904559  0.035081492            1 
  597000    1.1607491   -7.0746069    243.90737  0.034046255  0.035070054            1 
  598000    1.1525884   -7.0189814    245.12914  0.034159579  0.035058624            1 
  599000    1.1732925   -7.0176149    245.28899   0.03412479  0.035048191            2 
  600000    1.1503964   -7.0515868    244.88389  0.034011651  0.035037266            1 
  601000    1.1553353   -7.0134603    245.80486   0.03408276  0.035025881            1 
  602000    1.1749857   -7.0819349    245.61813  0.034000294  0.035014897            1 
  603000    1.1793609   -7.0752153    246.43375  0.034056626  0.035004078            3 
  604000    1.1370888   -7.0499802    246.96203  0.034073128  0.034993557            2 
  605000     1.157728   -7.0642021    246.93495  0.034013078  0.034982959            1 
  606000    1.1482884   -7.0802017    247.97682  0.034100223   0.03497228            1 
  607000    1.1461291   -7.0639579    247.79079  0.034018505  0.034961804            1 
  608000    1.1482538   -7.0533574    249.09594  0.034141439  0.034951377            3 
  609000    1.1430548   -7.0608903    248.58768  0.034015829  0.034941324            1 
  610000    1.1374726    -7.107282    248.22506  0.033910527  0.034930649            2 
  611000    1.1623267   -7.0438694    249.74329  0.034062096  0.034919579            1 
  612000    1.1400467   -7.0578445    249.72552   0.03400402  0.034908718            2 
  613000    1.1474124   -7.0332932    251.47677  0.034186619  0.034898204            1 
  614000    1.1455017   -7.0551654    251.12387  0.034083045  0.034888078            1 
  615000    1.1626115   -7.0887196    251.44462  0.034071086  0.034878405            2 
  616000    1.1649708   -7.0617464    252.04856  0.034097478  0.034868421            2 
  617000    1.1451509       -7.047    252.05542  0.034043141  0.034858756            3 
  618000    1.1525408   -7.0413893    251.78733  0.033951905  0.034848438            2 
  619000    1.1470566   -7.0406481    251.93574  0.033917036  0.034838036            2 
  620000    1.1466271   -7.0721437      252.839  0.033983737  0.034827802            1 
  621000    1.1210711   -7.0400708    254.38675  0.034136708  0.034817607            1 
  622000    1.1634796   -7.0493672    254.14033  0.034048812  0.034808245            2 
  623000    1.1581948   -7.0574441    253.97508  0.033972054  0.034798791            2 
  624000     1.177781   -7.0221956    255.17323  0.034077622  0.034789621            2 
  625000    1.1520573   -7.0667224    254.57584  0.033943446  0.034780558            1 
  626000    1.1635154   -7.0530355    256.19177  0.034104336  0.034771467            1 
  627000    1.1662581   -7.1053532    256.71941  0.034120071  0.034763101            1 
  628000    1.1430145   -7.0693008    256.75953  0.034071062  0.034754018            4 
  629000    1.1458355    -7.055489    257.69918  0.034141386  0.034745262            3 
  630000    1.1644551   -7.1108139     257.3492    0.0340409  0.034737004            2 
  631000    1.1625109   -7.0921122     257.1387  0.033959153  0.034728273            1 
  632000    1.1555187   -7.0487554    257.87157  0.034002054  0.034719577            2 
  633000    1.1698826   -7.0833493    258.38061  0.034015352  0.034710904            1 
  634000    1.1669182   -7.0589813    258.75903  0.034011439  0.034702239            3 
  635000     1.169884    -7.064268    258.46195  0.033918891  0.034693449            2 
  636000    1.1395579   -7.0851951    258.97679  0.033933017  0.034684549            1 
  637000    1.1722054   -7.0655394    260.50594  0.034079793  0.034676091            1 
  638000    1.1363109   -7.0611445    260.35755  0.034006994  0.034668167            2 
  639000    1.1764518   -7.1109463    260.27751  0.033943338      0.03466            2 
  640000     1.154602    -7.095506    261.18566  0.034008549  0.034651718            1 
  641000    1.1508253   -7.0690825    261.88956  0.034047005  0.034642929            2 
  642000    1.1688513   -7.0552037    261.45323  0.033937335  0.034634124            1 
  643000    1.1439691   -7.0860651      261.383  0.033875454  0.034624988            2 
  644000    1.1395614   -7.0726566    262.33189  0.033945638  0.034616164            1 
  645000    1.1361147    -7.101674    262.39546  0.033901222  0.034607479            2 
  646000    1.1522197   -7.0952407    262.28908   0.03383502  0.034598732            1 
  647000    1.1589192   -7.0802851    262.90705   0.03386232  0.034590016            5 
  648000    1.1650892    -7.024621    264.42207  0.034004896  0.034580657            2 
  649000    1.1313584   -7.0546167    264.04765  0.033904424  0.034571887            2 
  650000    1.1463534   -7.1210294    262.88059   0.03370264  0.034562824            2 
  651000    1.1539806   -7.0629365    264.68317  0.033881614  0.034553887            2 
  652000    1.1572928   -7.0711718    264.13538  0.033759634  0.034544544            2 
  653000    1.1428002   -7.0707111    265.18016  0.033841266  0.034535436            3 
  654000    1.1512974   -7.1120056    265.75182  0.033862363  0.034526911            2 
  655000    1.1394946   -7.0299006    266.60901  0.033919722  0.034518534            1 
  656000    1.1380748   -7.0857711    266.76942  0.033888392  0.034510647            1 
  657000    1.1425841   -7.0595994    267.06993  0.033874928  0.034502227            3 
  658000    1.1445886    -7.056101    266.52822   0.03375484  0.034493963            1 
  659000    1.1432394   -7.0850755    267.53288  0.033830663  0.034485483            3 
  660000    1.1786475   -7.0519185    267.45763  0.033769903  0.034477368            1 
  661000    1.1492594    -7.099086    268.30483  0.033825621  0.034469076            2 
  662000    1.1482928   -7.0730208    268.38328  0.033784401  0.034460582            1 
  663000    1.1518321   -7.0947142    268.72237  0.033776065  0.034452317            1 
  664000    1.1777108   -7.1161066    269.98012  0.033883047  0.034444387            2 
  665000    1.1594651   -7.0759243     270.2063  0.033860438  0.034436045            2 
  666000    1.1497059   -7.0788098    270.25814  0.033816083  0.034427542            4 
  667000     1.149799   -7.0561106    270.30694  0.033771482  0.034418889            3 
  668000     1.137567   -7.0696687    271.09899  0.033819734  0.034410102            2 
  669000    1.1384142   -7.0597705    271.17115   0.03377817  0.034401111            3 
  670000    1.1780462   -7.0892249    270.33841   0.03362418  0.034392506            1 
  671000    1.1483281   -7.1182322    271.46196  0.033713607  0.034383331            2 
  672000     1.142209   -7.0783944    271.74686  0.033698767  0.034374506            1 
  673000    1.1648112   -7.0952035    272.55121  0.033748293  0.034365202            1 
  674000    1.1472181   -7.0662654    271.98195  0.033627838  0.034356379            2 
  675000    1.1157005   -7.0633873    273.20427  0.033728922  0.034347646            1 
  676000    1.1504535    -7.096293    273.61677  0.033729878   0.03433947            2 
  677000    1.1553218   -7.0637075    274.02047  0.033729748  0.034331682            2 
  678000    1.1327226   -7.0745361    274.56041  0.033746364  0.034323817            1 
  679000    1.1296199   -7.0834921    274.88961  0.033737066  0.034315888            1 
  680000    1.1521522   -7.1036688    275.55818  0.033769385  0.034307858            2 
  681000    1.1606178   -7.0655788    275.78199  0.033747185   0.03429968            1 
  682000    1.1616066   -7.0955984    276.64332  0.033802947  0.034291775            1 
  683000    1.1364991   -7.0651642    276.20272  0.033699697  0.034283802            3 
  684000     1.139333   -7.0912888    276.35338  0.033668784  0.034275901            1 
  685000    1.1495517    -7.149122    276.48443  0.033635575  0.034267893            2 
  686000    1.1360402   -7.0862169    277.05864  0.033656297  0.034259634            3 
  687000    1.1774659   -7.0607458     279.3675  0.033887373  0.034251992            2 
  688000    1.1625022   -7.1042254    278.04273  0.033677657  0.034244521            1 
  689000    1.1475581    -7.042502    279.65773  0.033824108  0.034237235            1 
  690000    1.1518107   -7.0692149    279.70576  0.033780889  0.034229792            3 
  691000    1.1483813   -7.0855271    279.82142   0.03374595  0.034222268            4 
  692000    1.1424821   -7.0724627    279.75533  0.033689226  0.034214961            1 
  693000    1.1279402   -7.1246681    280.23822   0.03369868  0.034207368            2 
  694000    1.1335935   -7.0949471    281.30964  0.033778775  0.034200101            3 
  695000     1.144507   -7.1225435    280.88732  0.033679535  0.034193023            3 
  696000     1.141998   -7.0828222    281.56277  0.033712017  0.034185569            1 
  697000    1.1543575   -7.0945855    282.54662  0.033781279  0.034178285            1 
  698000    1.1460231   -7.0737582    282.21148   0.03369287  0.034171499            1 
  699000    1.1241695   -7.1160259    282.57023  0.033687438   0.03416457            1 
  700000    1.1619872   -7.1062938    283.18335  0.033712304  0.034157239            3 
  701000    1.1258269     -7.10697    283.54244    0.0337069  0.034150584            2 
  702000    1.1275668   -7.0620249    284.03568  0.033717436   0.03414384            2 
  703000    1.1226239   -7.0657746    285.37973  0.033828797  0.034137283            2 
  704000    1.1562665   -7.1253046    284.91357  0.033725564  0.034130587            2 
  705000    1.1394466   -7.0821635    285.19122  0.033710546  0.034123616            1 
  706000    1.1451463   -7.0772606    285.14657  0.033657527  0.034116905            1 
  707000    1.1501127   -7.0723901     286.0008  0.033710608  0.034110312            1 
  708000    1.1402929   -7.0630765    287.51804  0.033841577  0.034103861            1 
  709000    1.1685969   -7.1142314    286.20473  0.033639484  0.034097321            1 
  710000    1.1295181   -7.0581384     287.9728  0.033799624  0.034090577            2 
  711000    1.1805853   -7.0942517    287.36578   0.03368094  0.034083825            1 
  712000    1.1232449   -7.0984766    287.95269  0.033702327  0.034077067            1 
  713000    1.1318145   -7.0785875    287.92456  0.033651772  0.034070297            2 
  714000    1.1187229    -7.093114     289.1223  0.033744433  0.034063646            1 
  715000    1.1240971   -7.1064577    288.79346  0.033658912  0.034056859            1 
  716000    1.1240967   -7.1231059    288.84068  0.033617398  0.034049964            1 
  717000    1.1306816   -7.1049524    289.60539   0.03365939  0.034042943            3 
  718000    1.1161594   -7.1222545    288.74052  0.033512131  0.034035711            1 
  719000    1.1482422   -7.1260954    288.46685  0.033433802  0.034027923            2 
  720000    1.1603868   -7.1063159     289.3108  0.033485046  0.034020137            4 
  721000    1.1224668   -7.1052235    290.15179  0.033535806  0.034012602            2 
  722000    1.1754752   -7.1352148    290.88556  0.033574049  0.034005354            1 
  723000    1.1463965   -7.0896545     291.0483  0.033546369  0.033997978            1 
  724000    1.1423035   -7.0782209    291.27915  0.033526606  0.033990754            2 
  725000    1.1544682   -7.0680813    290.98039  0.033446022   0.03398308            2 
  726000    1.1184668   -7.1194783    291.31222  0.033438042   0.03397539            2 
  727000    1.1188032   -7.1278043    291.93385  0.033463303  0.033967677            2 
  728000     1.135068     -7.13317    292.45999  0.033477563  0.033959798            2 
  729000    1.1322089   -7.0575632    292.88199   0.03347988  0.033952513            1 
  730000    1.1225391   -7.1064214     293.4323  0.033496838  0.033945562            1 
  731000    1.1137773   -7.1112659    292.95582  0.033396697  0.033938148            2 
  732000    1.1391982    -7.121031    293.85631  0.033453587  0.033930688            1 
  733000    1.1459885   -7.0570616     295.5787  0.033603763  0.033923307            1 
  734000    1.1238254   -7.1568279     294.0608   0.03338565  0.033915442            1 
  735000    1.1384314   -7.1175263    294.48525   0.03338835  0.033907496            2 
  736000     1.119623   -7.0660073    295.59475  0.033468609  0.033899919            3 
  737000    1.1042257   -7.1057871    295.15897  0.033373922   0.03389252            1 
  738000    1.1374921   -7.1091782    295.51414  0.033368805  0.033884436            2 
  739000    1.1140997   -7.1561005    295.03583  0.033269714  0.033876311            1 
  740000     1.127275   -7.1225407    295.61747  0.033290256  0.033868121            2 
  741000    1.1464016   -7.0888247    296.73139  0.033370602   0.03386023            3 
  742000    1.1114727   -7.0856625    296.89728  0.033344258  0.033852965            1 
  743000    1.1277032   -7.1072027    297.55032  0.033372625  0.033845522            4 
  744000    1.1552416   -7.0671119    298.16654   0.03339679  0.033837896            2 
  745000    1.1263683   -7.1097318    298.78773  0.033421446  0.033830645            1 
  746000    1.1643048   -7.1365978    298.08192  0.033297801  0.033823142            2 
  747000    1.0937933   -7.1407903    297.65302  0.033205379  0.033815273            2 
  748000    1.1261708   -7.1479124    298.70995  0.033278738  0.033807629            2 
  749000    1.1277761    -7.074232     299.4474  0.033316355  0.033800102            1 
  750000    1.1357892   -7.0989521    299.87471  0.033319412  0.033792621            1 
  751000     1.160659   -7.0916002    300.44917   0.03333879  0.033785271            4 
  752000    1.1086881   -7.0632865    300.41269  0.033290413   0.03377788            1 
  753000    1.1182806   -7.0923259    301.39032  0.033354395  0.033770466            2 
  754000    1.1453206   -7.1429717    301.34538  0.033305192  0.033763032            1 
  755000    1.1196606   -7.1181005    301.46903  0.033274727  0.033755314            1 
  756000    1.1364265   -7.1203152    301.98824  0.033287945  0.033747481            2 
  757000    1.1118855   -7.0926944    301.72715  0.033215231  0.033739678            5 
  758000    1.1371219   -7.1266708    302.35931   0.03324091  0.033731612            1 
  759000    1.1272673   -7.1045572    302.36756  0.033198019  0.033723737            1 
  760000    1.1371852   -7.1170999     303.7987  0.033311261  0.033715868            2 
  761000    1.1239916   -7.1278452    303.09322  0.033190234  0.033707881            1 
  762000     1.161269   -7.0715281    304.68047  0.033320261  0.033700843            3 
  763000    1.1157913   -7.1099064    303.32776  0.033128851  0.033693222            1 
  764000    1.1265411   -7.1211554    303.91602  0.033149653  0.033685775            1 
  765000    1.1202469   -7.1479049    304.29827   0.03314796  0.033677931            4 
  766000    1.1305564   -7.0959194    306.11933  0.033302799  0.033670161            1 
  767000     1.162832   -7.1281241    306.51023   0.03330185  0.033662782            2 
  768000    1.1496509   -7.1230143    306.62158  0.033270571  0.033655379            2 
  769000    1.1533848   -7.0879372    307.15519  0.033285131  0.033647923            1 
  770000    1.1049604   -7.1524383    306.35483  0.033155285  0.033640526            2 
  771000    1.1293104   -7.0843182    306.86078  0.033166967  0.033632739            1 
  772000    1.1055116   -7.1345599    306.27456  0.033060726  0.033625014            2 
  773000    1.1133873   -7.1062406    307.26631  0.033124871  0.033617146            2 
  774000    1.1263522   -7.1478169    308.19288  0.033181835  0.033609389            2 
  775000    1.1051144   -7.1048546    308.01405  0.033119791  0.033601564            2 
  776000    1.1168275   -7.1232549    308.49562  0.033128825  0.033594148            1 
  777000    1.1377266   -7.1192754    308.86584  0.033125894  0.033586403            2 
  778000    1.1340446   -7.0853069    310.55129  0.033263848  0.033578684            1 
  779000    1.1258845     -7.09379    310.32014   0.03319642  0.033571223            1 
  780000    1.1129929   -7.1241422    310.61172  0.033185013  0.033563996            2 
  781000    1.1420325   -7.0999277    310.21045  0.033099706  0.033556481            3 
  782000    1.1611571   -7.1425084    311.38886  0.033182956  0.033548701            1 
  783000    1.1292726   -7.0891771    310.89747  0.033088279  0.033540963            3 
  784000      1.12828   -7.1231308    310.59125  0.033013526  0.033533226            2 
  785000    1.1312311   -7.1027253      312.411  0.033164649   0.03352592            2 
  786000    1.1257182   -7.1374251    310.83245  0.032955094  0.033518471            2 
  787000    1.1338688   -7.1672397    311.53337  0.032987439  0.033510877            2 
  788000    1.1184936   -7.0963118     313.3214  0.033134666  0.033503689            1 
  789000    1.1124903   -7.1377129     312.7916  0.033036713  0.033496287            2 
  790000      1.12033   -7.1606426    312.48386  0.032962432  0.033488627            2 
  791000     1.123199   -7.1379989    313.35577  0.033012618  0.033480773            2 
  792000    1.1354294   -7.1390662    314.68162   0.03311044  0.033473139            2 
  793000    1.1364154   -7.1517319    314.25616  0.033023976  0.033465891            4 
  794000    1.1199646   -7.1128645    315.45941   0.03310867  0.033458555            1 
  795000    1.1353372   -7.1793998    314.65208  0.032982398  0.033451341            2 
  796000    1.1284118   -7.1383938    316.04323  0.033086603  0.033444007            3 
  797000    1.1295809   -7.1598481    315.37388  0.032975103  0.033436829            3 
  798000    1.1421677   -7.1220958    316.67263  0.033069406   0.03342971            4 
  799000    1.1212588   -7.1082672    317.36815  0.033100558  0.033422887            2 
  800000    1.1131565   -7.0912595    318.09496  0.033134891  0.033416358            2 
  801000    1.0880394   -7.0609712    318.87094  0.033174255  0.033409921            1 
  802000    1.1405799   -7.0963666     318.7126  0.033116439  0.033403616            2 
  803000    1.1211682   -7.1176731    317.99897  0.033001138  0.033396917            2 
  804000    1.1198066   -7.1448496    319.28509  0.033093396   0.03339002            2 
  805000    1.1552437   -7.1252788    319.53485  0.033078141    0.0333835            1 
  806000    1.1256033   -7.0945934     321.2514  0.033214578  0.033377037            1 
  807000    1.1060502   -7.1339907    320.50344  0.033096183  0.033370435            2 
  808000    1.1177391   -7.1451898     320.1902  0.033022916  0.033363945            3 
  809000    1.1112442   -7.1115314    320.08499   0.03297126   0.03335733            1 
  810000    1.1220614   -7.1772534    320.87147  0.033011468  0.033350589            1 
  811000    1.1191129   -7.1240852    322.28772  0.033116289    0.0333439            2 
  812000    1.1169366   -7.1148581    321.48924  0.032993559  0.033337151            3 
  813000     1.101809   -7.1023459    321.39063  0.032942869  0.033330244            2 
  814000    1.1429118   -7.1250096    321.58202  0.032921993  0.033323255            1 
  815000    1.1196448   -7.1468759    322.88564  0.033014892  0.033316384            1 
  816000    1.1053432   -7.1399077      322.598  0.032945057  0.033309453            1 
  817000     1.129948   -7.1356201    322.75494   0.03292074   0.03330263            4 
  818000    1.1105209   -7.1550142    322.90526  0.032895809  0.033295753            1 
  819000    1.1118146   -7.1419115    324.65885  0.033034071  0.033288714            1 
  820000    1.1228152   -7.1572283    323.40129  0.032865985  0.033281759            2 
  821000    1.1011196   -7.0804583    325.33776  0.033022509  0.033275103            2 
  822000    1.1076983   -7.1098861    325.66977  0.033015994  0.033268468            2 
  823000    1.1003572   -7.1525406    325.48105  0.032956769   0.03326172            1 
  824000    1.1101699   -7.1296811    325.81375   0.03295042  0.033254991            2 
  825000      1.11553   -7.1210549    327.04419  0.033034767  0.033248433            3 
  826000    1.1290669   -7.1403232    326.85701  0.032975889  0.033242058            2 
  827000    1.1165342   -7.1454647    327.52297  0.033003121  0.033235919            3 
  828000    1.1230961    -7.140427    327.75781  0.032986897  0.033230082            2 
  829000    1.1189521   -7.1401435    328.41966  0.033013637  0.033224326            1 
  830000    1.1184165   -7.1507866    328.25859   0.03295769   0.03321843            2 
  831000    1.1085653   -7.1732691     329.6632  0.033058885  0.033212598            1 
  832000    1.1224238   -7.1588211    329.45775  0.032998573   0.03320662            2 
  833000    1.1366623   -7.1446441    329.69291  0.032982484  0.033200592            6 
  834000    1.1431101   -7.1586963    330.28781  0.033002379   0.03319486            2 
  835000    1.1119501   -7.1283324    329.92284  0.032926431   0.03318912            3 
  836000    1.1274713   -7.1229075    330.44059  0.032938656  0.033183238            2 
  837000    1.1198553   -7.1226826     331.8182   0.03303646  0.033177287            2 
  838000    1.1501018   -7.1486897    331.91054  0.033006219  0.033171402            2 
  839000    1.1403357   -7.1557565    332.16552  0.032992205  0.033165377            1 
  840000    1.1171247   -7.0582815    333.85552  0.033120587  0.033159897            3 
  841000    1.1286488    -7.129014    332.72037  0.032968725  0.033154453            1 
  842000    1.1158264   -7.1220479    333.03194  0.032960406  0.033148892            1 
  843000    1.1030856   -7.1512657    332.94289  0.032912504  0.033143352            2 
  844000    1.0857135   -7.0967318    335.58436  0.033134316  0.033137672            2 
  845000    1.1262702   -7.1404368    333.94948  0.032933874  0.033131983            2 
  846000     1.111915   -7.1370714    334.48807  0.032947997  0.033126308            1 
  847000    1.1063183   -7.1182039    335.74664  0.033032924  0.033120689            1 
  848000    1.1405036     -7.15887    336.18362  0.033036912  0.033115073            1 
  849000     1.131873   -7.1346452    336.09721  0.032989518  0.033109713            1 
  850000    1.1128278    -7.153575    336.16359  0.032957215  0.033104599            2 
  851000    1.1370911   -7.1446271    337.34116  0.033033799   0.03309921            2 
  852000    1.1005475   -7.1381468    336.25744  0.032889029  0.033093508            2 
  853000    1.1002215   -7.1687679    336.78442  0.032901956  0.033087739            2 
  854000    1.1099214   -7.1748457    336.01269  0.032788123  0.033081855            1 
  855000    1.1003572    -7.125595    336.76718  0.032823312  0.033076054            2 
  856000    1.1196659   -7.1236814    338.01701   0.03290664  0.033070393            1 
  857000    1.1224955   -7.1524379    337.74004  0.032841311  0.033064724            1 
  858000    1.0816724   -7.1406515    338.86894  0.032912678  0.033058947            2 
  859000    1.1153387   -7.1911164    337.30745  0.032722881  0.033053306            1 
  860000    1.1388811   -7.1691957    339.34252  0.032882027  0.033047367            2 
  861000    1.1383209   -7.1946074    337.56237  0.032671542  0.033041519            4 
  862000     1.119369   -7.1639914    340.19819  0.032888456  0.033035623            2 
  863000     1.101381   -7.1920919    339.62381  0.032794883  0.033029698            3 
  864000    1.1202382   -7.1674865    339.96468  0.032789803  0.033023486            1 
  865000    1.1096019   -7.1611454    340.03095   0.03275828  0.033017208            1 
  866000    1.0949721   -7.1726922    339.45018  0.032664567  0.033010763            5 
  867000    1.1268575   -7.1237504    340.88824  0.032765114  0.033004501            1 
  868000    1.1270267   -7.1341142    341.72843  0.032808029  0.032998438            1 
  869000    1.1321151   -7.1321139    341.46371   0.03274489  0.032992303            1 
  870000    1.0951542   -7.1507256    342.82855  0.032837983  0.032986128            3 
  871000    1.1171987   -7.1070142    342.82123  0.032799582  0.032980147            2 
  872000    1.1443701   -7.1354423    342.46787  0.032728198  0.032974051            3 
  873000    1.0936011   -7.0919272     344.4197  0.032877024   0.03296821            2 
  874000    1.1158258   -7.1048893    343.44107  0.032746098  0.032962328            1 
  875000    1.1060452   -7.1221798    344.02426  0.032764215  0.032956459            2 
  876000    1.1175241   -7.1585755    344.06509  0.032730697  0.032950603            1 
  877000    1.1139492    -7.149617    344.47139  0.032731983   0.03294479            1 
  878000    1.1093843   -7.1326382    345.34946  0.032778043  0.032939048            1 
  879000    1.1145214   -7.1368961    345.15514   0.03272233  0.032933264            2 
  880000    1.1173183   -7.1497168    345.73571  0.032740124  0.032927375            4 
  881000    1.1348619   -7.1724986    346.06368  0.032733985  0.032921712            1 
  882000     1.105044    -7.197641    345.65089  0.032657869  0.032915669            1 
  883000    1.1126266    -7.189158    346.37756  0.032689464  0.032909607            2 
  884000    1.0996413   -7.1667283    346.41805  0.032656302  0.032903358            1 
  885000    1.1202632   -7.1632167    347.25467  0.032698179  0.032897246            1 
  886000    1.1083835   -7.1760476    346.84535  0.032622776  0.032891231            3 
  887000    1.0966488   -7.1676071    348.43986    0.0327358  0.032885067            1 
  888000    1.1081193   -7.1896963    347.15063  0.032577949  0.032878717            2 
  889000    1.1036399   -7.1582568    348.18961  0.032638696  0.032872534            1 
  890000    1.1237038   -7.1803889    347.74637  0.032560521  0.032866077            2 
  891000    1.1257753   -7.1139124    349.34023  0.032673048  0.032860009            1 
  892000     1.113278   -7.1285026    350.11718  0.032709004  0.032854163            2 
  893000    1.1233728   -7.1129775    349.71703  0.032635035  0.032848128            1 
  894000    1.0916087   -7.1863944    349.01564  0.032533151     0.032842            1 
  895000    1.1053584   -7.1648695    349.47626  0.032539689  0.032835534       -1e+20 
  896000    1.1089314    -7.126585    351.65002  0.032705545  0.032829176            2 
  897000    1.1137555   -7.1543771    351.41411  0.032647168  0.032823136            3 
  898000    1.1108929   -7.1460343    351.03873  0.032575977  0.032816785            2 
  899000    1.0979336   -7.1441269    350.41581     0.032482   0.03281043            2 
  900000    1.0686362    -7.150699    351.98494  0.032591198  0.032803978            3 
  901000    1.1031042   -7.1676495    351.87978    0.0325453  0.032797205            1 
  902000    1.1295773   -7.1919513    352.06387  0.032526226  0.032790333            4 
  903000       1.0803   -7.1488603    351.21061  0.032411463  0.032783821            1 
  904000    1.1169566   -7.1881099     352.3713  0.032482605   0.03277762            1 
  905000     1.111176   -7.1984733    353.26953  0.032529423  0.032771294            3 
  906000    1.1026889   -7.1697075    353.40589   0.03250606  0.032765059            1 
  907000     1.099504   -7.1492682    354.61784  0.032581573  0.032759231            1 
  908000    1.0914792   -7.1216823    354.61095  0.032545057  0.032753282            2 
  909000    1.1060566   -7.1506338    356.17555   0.03265269  0.032747311            2 
  910000    1.1175674   -7.1587408    355.56119  0.032560549   0.03274109            1 
  911000    1.1126407   -7.1542545    355.13537  0.032485855  0.032734904            4 
  912000    1.0850392   -7.1834361     355.5608  0.032489108  0.032728904            1 
  913000    1.0939008    -7.147621    355.58306  0.032455555  0.032722831            4 
  914000    1.1081398    -7.201525     356.8804   0.03253833  0.032716624            2 
  915000    1.1149591   -7.1643173    356.63589    0.0324805  0.032710622            2 
  916000    1.1034067   -7.1851887    358.51113  0.032615641   0.03270496            2 
  917000    1.0990004   -7.1660897    358.07061  0.032540041   0.03269889            1 
  918000    1.0944384   -7.1365423    357.33261  0.032437601  0.032692978            2 
  919000    1.0983554   -7.1618733    358.17666  0.032478841  0.032686947            3 
  920000    1.1017371   -7.1854528    358.13865  0.032440095  0.032681056            2 
  921000    1.1144106   -7.1465698    359.95427  0.032569152   0.03267554            1 
  922000    1.1063173   -7.1525375    359.16711  0.032462682  0.032669708            2 
  923000    1.0871016   -7.1229042    359.78209  0.032483035  0.032663733            2 
  924000    1.1153222   -7.1576359    359.26815  0.032401529  0.032657547            2 
  925000    1.1229887   -7.1446249    360.07852  0.032439507  0.032651242            2 
  926000     1.121739     -7.15224    359.65031  0.032365938  0.032644885            3 
  927000    1.1074644   -7.1489754    360.06881  0.032368645  0.032638392            1 
  928000    1.1093285    -7.131224    361.58079   0.03246954   0.03263235            1 
  929000    1.1145562   -7.1662635    362.02858  0.032474756  0.032626007            4 
  930000    1.0947094   -7.1620779    360.95553  0.032343685  0.032619561            1 
  931000    1.1083512   -7.1789921    361.50974  0.032358552  0.032612907            2 
  932000    1.1091332   -7.1732126     361.5906  0.032331062  0.032606462            2 
  933000    1.1192704   -7.2016268    363.44564  0.032462097  0.032599971            2 
  934000    1.1176714   -7.1236981    363.23805  0.032408819  0.032593556            3 
  935000    1.1031903   -7.1438447    361.87697  0.032252849  0.032587398            1 
  936000    1.0692833   -7.1516054    364.26215  0.032430747  0.032581229            2 
  937000    1.1181229    -7.206284    364.26579  0.032396459  0.032575246            2 
  938000    1.0981107   -7.2134732    364.81264  0.032410504  0.032569001            2 
  939000    1.1253566   -7.1540652    364.53188  0.032351072  0.032562884            2 
  940000    1.0971873   -7.1409044    364.86513    0.0323462   0.03255677            1 
  941000    1.1121005   -7.1778665    366.18637  0.032428832  0.032550866            5 
  942000    1.0897503   -7.1809326    365.60996  0.032343415  0.032545059            3 
  943000    1.1454009   -7.2063578    365.41455  0.032291848  0.032539315            4 
  944000    1.1042769   -7.1766565    367.16152  0.032411858  0.032533644            2 
  945000    1.0679238   -7.1793424    367.52858  0.032409927  0.032527871            2 
  946000    1.0971384   -7.1422159    368.47731  0.032459242  0.032522288            1 
  947000    1.1012476   -7.1779455    369.13105  0.032482493  0.032516869            1 
  948000    1.1156306   -7.1726243    368.90894  0.032428705  0.032511278            2 
  949000    1.1061825   -7.1871386    368.46969  0.032355961  0.032505422            2 
  950000    1.0901062   -7.1360282    370.29007  0.032481585  0.032499856            2 
  951000    1.0942679   -7.1609815    370.00323  0.032422295  0.032494186            1 
  952000    1.1118416    -7.181825    369.27793  0.032324748  0.032488411            2 
  953000    1.0978692   -7.1658323    369.61877  0.032320634  0.032482544            6 
  954000     1.107329   -7.1545734    369.97965  0.032318278  0.032476663            2 
  955000    1.1068179   -7.1694574    369.09262  0.032207035  0.032470621            4 
  956000    1.0907902   -7.1566592    371.26546  0.032362749  0.032464365       -1e+20 
  957000    1.0698314   -7.1555168    370.32606  0.032247132  0.032458209            2 
  958000    1.0807571   -7.1730358    370.96221  0.032268807  0.032452013            2 
  959000    1.1145111    -7.163506    371.34557  0.032268471  0.032445868            2 
  960000    1.1176594   -7.1683844    369.94339  0.032113142  0.032439422            2 
  961000    1.0927553   -7.2022669    371.46413  0.032211597  0.032432872            1 
  962000    1.0888725   -7.1797739    371.12892  0.032149075  0.032426296            1 
  963000    1.1163127    -7.207956    371.12538  0.032115384  0.032419501            2 
  964000    1.0941151   -7.1789672    371.16576   0.03208556  0.032412588            2 
  965000    1.0842222   -7.1759958    371.56222  0.032086548  0.032405626            1 
  966000    1.0970922   -7.1976739    370.27418  0.031942217  0.032398754            1 
  967000    1.0790351   -7.1992605    371.70054  0.032032104  0.032391828            5 
  968000    1.0904424   -7.1772799    371.14197  0.031950928  0.032384877            2 
  969000    1.0944693   -7.1587653    373.37563  0.032110047  0.032377814            1 
  970000    1.0901628   -7.1280977    373.84354  0.032117142  0.032370966            2 
  971000    1.1240511   -7.1587821    373.73605  0.032074842  0.032364004            1 
  972000    1.1171806   -7.1970943    373.63696  0.032033347  0.032357062            2 
  973000    1.0853632    -7.190093    374.09668  0.032039798  0.032350249            2 
  974000    1.0999866   -7.1864082    373.36873  0.031944621  0.032343383            1 
  975000    1.1227754   -7.2101591    374.25019  0.031987195  0.032336481            3 
  976000    1.0954102   -7.1704916    374.32719  0.031960996  0.032329421            1 
  977000    1.0878309    -7.160707    375.38047  0.032018123  0.032322528            2 
  978000    1.1198241   -7.1697875      376.034   0.03204107  0.032315672            1 
  979000    1.0815031   -7.1890139    376.58307  0.032055079  0.032308821            1 
  980000    1.1041041   -7.1840161    377.43135  0.032094503  0.032302017            1 
  981000    1.0845203   -7.1825344    377.38605  0.032057938  0.032295475            2 
  982000    1.0888708   -7.1879103    377.37496  0.032024352  0.032288819            2 
  983000    1.0812435   -7.1874767    378.62182  0.032097476   0.03228237            1 
  984000    1.0801299   -7.1749482    377.75085  0.031991095  0.032275971            3 
  985000    1.1098456   -7.1795647    376.94569  0.031890498  0.032269204            2 
  986000    1.1133437   -7.1873525    379.24065  0.032052117  0.032262799            2 
  987000    1.1117685   -7.1606176    380.07447  0.032090043  0.032256313            2 
  988000    1.0928973    -7.165507    378.51501  0.031926029  0.032249606            1 
  989000    1.0828075   -7.1980668    379.15496  0.031947671  0.032242841            2 
  990000    1.0798686   -7.1952543    378.13901  0.031829883  0.032236026            2 
  991000    1.0982863   -7.1738982    380.32287  0.031981405  0.032229337            1 
  992000    1.0698496   -7.1817759    379.84485   0.03190901   0.03222233            1 
  993000    1.0964956    -7.164928    380.06182  0.031895084  0.032215392            2 
  994000    1.1159512   -7.1568721    380.49097  0.031898975  0.032208682            2 
  995000    1.0844316   -7.1918989    381.49559  0.031951054   0.03220193            2 
  996000     1.078307   -7.1705068    382.39005  0.031993812  0.032195203            3 
  997000    1.1083953   -7.1710041    382.04527  0.031932904  0.032188577            1 
  998000    1.0923171   -7.1591229    382.36298  0.031927437  0.032181776            3 
  999000    1.0837969    -7.176769    382.03096  0.031867781   0.03217497            3 
 1000000    1.0709241   -7.1761077    382.86944  0.031905787  0.032168208            3 
 1001000    1.0926283   -7.2145644     382.3192  0.031828106  0.032161248            2 
 1002000    1.0922021   -7.1839682    383.70724   0.03191178   0.03215429            1 
 1003000    1.0886942   -7.1297663    383.37588  0.031852433  0.032147563            4 
 1004000    1.0739069   -7.1752501     383.6985  0.031847485   0.03214066            2 
 1005000    1.0589673   -7.1807957    383.94038  0.031835852  0.032133824            2 
 1006000    1.0846844   -7.1826104    384.73523  0.031870049  0.032126789            1 
 1007000    1.0938051   -7.1830288     384.0541  0.031782034  0.032119674            2 
 1008000     1.096155   -7.1894297    385.41171  0.031862741  0.032112675            3 
 1009000    1.1140699   -7.1922676    385.19202  0.031813017  0.032105562            2 
 1010000    1.0789627   -7.2150991    384.65263  0.031737015   0.03209845            4 
 1011000    1.0878341   -7.2013282    384.93891  0.031729221  0.032091373            2 
 1012000    1.0866323   -7.2300419    385.00329  0.031703169  0.032084324            2 
 1013000    1.0915905   -7.1420384    386.47421  0.031792877   0.03207711            4 
 1014000    1.0986131   -7.1785288    386.63163   0.03177446  0.032070041            1 
 1015000    1.0962491   -7.2349799     386.3603  0.031720878  0.032062974            2 
 1016000    1.0911405   -7.1926435     386.7177  0.031718972  0.032055976            2 
 1017000    1.0831867   -7.1491844    386.35326  0.031657921   0.03204912            1 
 1018000    1.0799614   -7.1915384    387.27623  0.031702377  0.032042075            1 
 1019000    1.0755377   -7.2058971    387.91738  0.031723698  0.032034704            1 
 1020000    1.0785428   -7.1935365    387.22416   0.03163596  0.032027495            4 
 1021000    1.0853129    -7.207798    388.18721  0.031683579  0.032020611            2 
 1022000    1.1103509   -7.2329395    388.33675  0.031664771  0.032013565            5 
 1023000    1.0600889   -7.2075172    389.16432  0.031701232  0.032006434            1 
 1024000    1.0841583   -7.2267129    388.68509  0.031631274  0.031999386            2 
 1025000    1.0908254   -7.1897134    389.97293  0.031705116  0.031992286            2 
 1026000    1.1033951   -7.2278597    390.24143  0.031696022   0.03198495            2 
 1027000    1.1005666   -7.2245892    389.02186  0.031566201  0.031977893            2 
 1028000    1.1019889   -7.2094135    389.36306  0.031563153  0.031970805            2 
 1029000    1.0682851   -7.1722842    390.95064  0.031661049  0.031963524            2 
 1030000    1.0835877   -7.2382889    390.77387  0.031616008  0.031956421            4 
 1031000    1.0665055   -7.2007683    391.46175  0.031640943  0.031949278            2 
 1032000    1.1032623   -7.1881826    390.67886  0.031547065  0.031942155            4 
 1033000    1.0941086   -7.2055227    392.82581  0.031689723  0.031935107            2 
 1034000    1.0994991      -7.1709    392.08076   0.03159903  0.031927924            1 
 1035000    1.0956178   -7.2189732    391.60159  0.031529918  0.031920644            1 
 1036000    1.0773075   -7.2602253    391.13904  0.031462278  0.031913383            2 
 1037000    1.1315895   -7.2161226    393.60038  0.031629731  0.031906095            1 
 1038000    1.0780759   -7.2053924    392.92686  0.031545188   0.03189908            2 
 1039000    1.0962149   -7.2121254      393.195  0.031536333  0.031892016            2 
 1040000    1.0630949   -7.2248302    393.50226   0.03153063  0.031884787            1 
 1041000    1.0852859    -7.202523     394.5884  0.031587288  0.031877633            2 
 1042000    1.0566731   -7.1837089    395.77927  0.031652213  0.031870671            4 
 1043000    1.0739543   -7.1958517    394.74794  0.031539465  0.031863648            1 
 1044000    1.0824183   -7.2321058    393.82361  0.031435474  0.031856586            4 
 1045000    1.0758191   -7.1713059    394.35134  0.031447475  0.031849577            2 
 1046000    1.1003037   -7.1930378    395.19075  0.031484286  0.031842538            1 
 1047000    1.0647075   -7.2136018    394.93069  0.031433516  0.031835145            2 
 1048000     1.075269   -7.2188277    395.41095   0.03144171  0.031827976            2 
 1049000    1.1038052    -7.194319    396.45726  0.031494857  0.031820949            3 
 1050000    1.0803645   -7.2015798    395.99958  0.031428538   0.03181369            2 
 1051000    1.0912284   -7.2293808    395.84622  0.031386475  0.031806257            2 
 1052000    1.0742826   -7.1953201    396.17345  0.031382561  0.031798671            4 
 1053000    1.0676885   -7.2006571    398.56667  0.031542155  0.031791324            1 
 1054000     1.100568   -7.2124559    396.79726  0.031372333  0.031784086            3 
 1055000    1.0734026   -7.1838078    398.43295  0.031471797  0.031776758            2 
 1056000    1.0827413   -7.2070783      397.154  0.031341067  0.031769518       -1e+20 
 1057000    1.0733594   -7.2036576    398.73279  0.031435887  0.031762097            5 
 1058000    1.0625003    -7.162002    399.73823  0.031485368  0.031754788            1 
 1059000    1.0892747   -7.2038694    398.47196  0.031355993  0.031747838            1 
 1060000    1.0876112   -7.2041915    399.67292  0.031420827  0.031740545            1 
 1061000    1.0929699   -7.2418334    399.83019  0.031403565  0.031733302            2 
 1062000     1.098938    -7.229438    399.76826  0.031369135  0.031726117            4 
 1063000    1.0816022   -7.2576211    400.34918  0.031385166  0.031719088            1 
 1064000    1.0715091   -7.2019593    401.51526  0.031446997  0.031711924            2 
 1065000    1.0783825    -7.205808    400.42277  0.031331985  0.031704663            2 
 1066000    1.0734892   -7.2043824    400.66094  0.031321212  0.031697193            2 
 1067000    1.0907418   -7.1948855    401.71837  0.031374443  0.031689826            1 
 1068000    1.0761311   -7.1880305    403.40676  0.031476807  0.031682569            1 
 1069000    1.0642889   -7.2345742    402.22972  0.031355606  0.031675402            2 
 1070000    1.0746397   -7.2393769    403.30544  0.031410081  0.031668328            2 
 1071000    1.0880526   -7.2408276    402.94481  0.031352693   0.03166116            3 
 1072000     1.063582    -7.195493    403.09618  0.031335213  0.031654065            1 
 1073000    1.0784259   -7.2039665    403.32496  0.031323777  0.031646997            1 
 1074000    1.0877931   -7.1923561    404.96497  0.031421863  0.031639884            1 
 1075000    1.0973661   -7.2302821    404.31158  0.031341983  0.031632887            1 
 1076000    1.0820001   -7.2165658    405.53638  0.031407713    0.0316258            3 
 1077000    1.0785047   -7.2161829     405.3721  0.031365838  0.031618955            1 
 1078000    1.0710195   -7.2045147    405.17788  0.031321728  0.031611934            1 
 1079000    1.0752301    -7.208175    405.28198  0.031300739  0.031604983            2 
 1080000    1.0865385   -7.2445397    405.24002   0.03126852  0.031597738            2 
 1081000    1.0802616   -7.1972989    406.34895  0.031325081  0.031590596            2 
 1082000    1.0647857   -7.2173316    405.97614  0.031267417  0.031583425            1 
 1083000    1.0782365   -7.2191695    406.52029  0.031280416  0.031576252            2 
 1084000    1.0953871   -7.2067194    408.77806  0.031425128  0.031569114            7 
 1085000     1.110037   -7.2027474    406.86735  0.031249413  0.031561899            1 
 1086000    1.0623557   -7.2188969    407.46346   0.03126638  0.031554817            2 
 1087000    1.0630297   -7.2106116    407.86056  0.031268059  0.031547926            1 
 1088000    1.0852548   -7.2449869    407.67611  0.031225192  0.031540501            2 
 1089000    1.0945229   -7.2455428    408.19144  0.031235953  0.031533371            2 
 1090000    1.1023217   -7.2377379    408.08761  0.031199358  0.031526046            2 
 1091000    1.0880328    -7.230949    407.41818  0.031119629  0.031518801            2 
 1092000    1.0761526   -7.2279846    408.32194  0.031160099  0.031511518            1 
 1093000    1.0712162   -7.2338263    407.88761  0.031098476  0.031504114            1 
 1094000    1.0831527    -7.229824     409.3425  0.031180873  0.031496614            1 
 1095000    1.0887201   -7.2365307    408.15517  0.031062038  0.031489183            2 
 1096000    1.0849094   -7.2387125     410.2134  0.031190192  0.031481728            4 
 1097000    1.0647252    -7.218505    410.69613   0.03119843  0.031474397            2 
 1098000    1.0889957    -7.206762    411.24076  0.031211351  0.031467222            2 
 1099000    1.0653138   -7.2358262    411.34745  0.031191041  0.031460067            2 
 1100000     1.068298   -7.1826557    411.34429  0.031162446   0.03145303            1 
 1101000     1.063225   -7.2378753    411.89099  0.031175521  0.031446019            1 
 1102000    1.0758986   -7.2125162    410.76635  0.031062186  0.031438814            3 
 1103000     1.057945   -7.2388364    412.28111  0.031148467  0.031431619            3 
 1104000     1.077018   -7.2223759    411.90053  0.031091525  0.031424457            1 
 1105000    1.0769101   -7.1975168    414.17417  0.031234855  0.031417418            2 
 1106000    1.1049304   -7.2322127    414.62067  0.031240256  0.031410617            2 
 1107000    1.0567762   -7.2322106    413.92384  0.031159578  0.031403736            2 
 1108000    1.0782353   -7.2106723     415.8894  0.031279287  0.031396792            5 
 1109000    1.0759968   -7.1986684    414.55894  0.031151107  0.031390221            1 
 1110000     1.087999   -7.2332219    415.46878   0.03119135  0.031383505            2 
 1111000    1.0710232   -7.1999497    414.54232  0.031093783    0.0313766            2 
 1112000    1.0655364   -7.2460963    414.84483  0.031088491   0.03136968            3 
 1113000    1.0866665   -7.1966944    415.85248  0.031136005   0.03136267            1 
 1114000    1.0374073   -7.2806444    414.02069  0.030971027  0.031355501            2 
 1115000    1.0886149   -7.2193275    415.06173  0.031021056  0.031348082            3 
 1116000    1.0529224   -7.2549298    415.49784  0.031025825  0.031340612            1 
 1117000    1.0782969   -7.2521496    415.71143  0.031013983  0.031333184            2 
 1118000    1.0903148   -7.1960199      416.933  0.031077296  0.031325846            2 
 1119000    1.0762761   -7.2440912    416.80189  0.031039759  0.031318663            1 
 1120000    1.0951095   -7.2094046    416.93065  0.031021625  0.031311518            2 
 1121000    1.0948666   -7.2415053    418.60115  0.031118135  0.031304634            2 
 1122000    1.0652681   -7.2827624    417.40423  0.031001502  0.031297473            1 
 1123000    1.0715393   -7.2235187    418.51933  0.031056644  0.031290571            1 
 1124000    1.0638167   -7.2265527     418.5076  0.031028144  0.031283719            3 
 1125000    1.0473401   -7.2510878    419.32792  0.031061327  0.031276835            1 
 1126000    1.0900171   -7.2365293     419.7364  0.031063973  0.031270092            1 
 1127000    1.0700287    -7.224216     419.9677  0.031053512  0.031263169            1 
 1128000    1.0629425   -7.2874842    418.65465  0.030928978  0.031256015            2 
 1129000    1.0738326   -7.2259631    419.58092  0.030969952  0.031248935            1 
 1130000    1.0456007   -7.2722135    419.12358  0.030908818  0.031241935            2 
 1131000    1.0563368   -7.2749836    419.10866   0.03088039  0.031234735            1 
 1132000    1.1056618   -7.2353371    420.54084  0.030958542  0.031227521            2 
 1133000    1.0639297   -7.2631618    421.74972  0.031020132  0.031220764            1 
 1134000    1.0646102    -7.253489    421.14017  0.030947984  0.031213829            2 
 1135000    1.0816851   -7.2287868     421.1661  0.030922621  0.031207078            1 
 1136000    1.0569265   -7.2262147    422.20582  0.030971671   0.03120049            2 
 1137000    1.1040011   -7.2360113    422.85147  0.030991752   0.03119378            2 
 1138000    1.0802873   -7.2624616    421.61354  0.030873868  0.031186875            2 
 1139000    1.0678437   -7.2262983    423.83248  0.031009107  0.031180012            2 
 1140000     1.049254   -7.2588876    423.47346  0.030955662  0.031173137            2 
 1141000    1.0657238   -7.2402889    422.36339  0.030847457  0.031166281            2 
 1142000    1.0756919    -7.236158    425.72912  0.031066048  0.031159509            1 
 1143000    1.1021516   -7.2571406    423.58384  0.030882461  0.031152903            1 
 1144000    1.0698611    -7.223244    425.91763  0.031025468  0.031146223            2 
 1145000    1.0694447   -7.2636971    425.45839  0.030964948   0.03113977            1 
 1146000    1.0572083   -7.2334209    427.08667  0.031056332  0.031133265            3 
 1147000     1.073261   -7.2570372     426.5148  0.030987707  0.031126695            1 
 1148000    1.0601608   -7.2425769    427.38039  0.031023548  0.031119878            2 
 1149000     1.065696   -7.2802939    425.99368  0.030895973  0.031113153            1 
 1150000    1.0553903   -7.2338408    427.27918  0.030962259  0.031106654            2 
 1151000    1.0822389   -7.2203052    426.09723  0.030849785  0.031100228            1 
 1152000    1.0915741   -7.2571873    426.04604  0.030819303  0.031093887            2 
 1153000    1.0584775   -7.2346637    428.39133  0.030962079  0.031087514            2 
 1154000    1.0562514   -7.2654406    427.98221  0.030905705  0.031081037            1 
 1155000    1.0685739   -7.2367451    429.56297  0.030992999  0.031074855            1 
 1156000    1.0657703    -7.252427    428.13076  0.030862944  0.031068349            2 
 1157000     1.067893   -7.2991664    427.89513  0.030819298  0.031061482            3 
 1158000    1.0623237   -7.2413693    428.93376  0.030867426  0.031054753            3 
 1159000    1.0855723   -7.2567263    428.27608  0.030793506  0.031047958            6 
 1160000    1.0862195   -7.2503308    429.20428  0.030833641  0.031041154            2 
 1161000    1.0723675   -7.2824274    429.52001  0.030829745  0.031034435            2 
 1162000    1.0540962   -7.2336668    430.73791  0.030890555  0.031027787            2 
 1163000     1.067121    -7.251857    430.21158  0.030826281  0.031021214            4 
 1164000    1.0695827   -7.2799598    429.50193  0.030748993  0.031014521            5 
 1165000    1.0653087   -7.2656573    430.18179  0.030771229  0.031007971            1 
 1166000    1.0661909   -7.2642747    430.46694  0.030765218  0.031001451            1 
 1167000    1.0575313   -7.2370985    430.84896  0.030766136  0.030994969            1 
 1168000    1.0644027   -7.2489756    431.85283  0.030811417  0.030988577            2 
 1169000    1.0800111   -7.2357854    433.91911  0.030932357  0.030982396            6 
 1170000    1.0509706   -7.2761422    433.75981  0.030894573  0.030976057            2 
 1171000    1.0530352   -7.2719433    433.27059  0.030833376  0.030969716            1 
 1172000    1.0474243   -7.2820081    433.98929  0.030858169  0.030963195            5 
 1173000    1.0959514   -7.2659524    434.50429  0.030868449   0.03095672            2 
 1174000    1.0680948   -7.2790671    433.44131  0.030766703  0.030950143            2 
 1175000    1.0771377   -7.2610794    433.91148  0.030773864  0.030943619            2 
 1176000    1.0698114   -7.2383458    436.10508  0.030903138  0.030937128            3 
 1177000    1.0877835    -7.255114    433.75203  0.030710283  0.030930515            1 
 1178000     1.059193   -7.2163595    436.26313  0.030861852  0.030924053            3 
 1179000    1.0901212   -7.2825978    435.41686  0.030775859  0.030917598            1 
 1180000    1.0780714   -7.2854791    434.83601  0.030708758  0.030911038            1 
 1181000    1.0542071   -7.2779411     434.7678  0.030677942  0.030904313            4 
 1182000    1.0572395   -7.2730114    435.27642  0.030687847  0.030897537            2 
 1183000    1.0736789   -7.2706533    435.17272  0.030654602  0.030890664            3 
 1184000    1.0464075   -7.2730635    434.47136  0.030579347  0.030883903            1 
 1185000    1.0688862   -7.2727261    436.59594  0.030702949  0.030877251            2 
 1186000    1.0305293   -7.2585527    436.87663  0.030696784  0.030870571            2 
 1187000    1.0604759   -7.2480504    437.86149  0.030740065  0.030864087            2 
 1188000    1.0687582    -7.238449     438.6357  0.030768497  0.030857744            1 
 1189000     1.031056   -7.2731046    437.46882  0.030660837  0.030851371            3 
 1190000    1.0825069   -7.2711702     438.4998  0.030707269  0.030844902            3 
 1191000    1.0530348   -7.2392222    437.66098  0.030622795  0.030838468            3 
 1192000    1.0693411   -7.2257927    439.04109  0.030693589  0.030832073            1 
 1193000    1.0564762   -7.2689383     438.5993     0.030637  0.030825504            1 
 1194000    1.0459276   -7.2617162    439.57729  0.030679599  0.030818712            1 
 1195000    1.0605005   -7.2439042    439.36826  0.030639349  0.030811919            2 
 1196000    1.0624458   -7.2325347    439.33547  0.030611446  0.030805163            2 
 1197000    1.0278183   -7.2946055     438.2232  0.030508438   0.03079823            2 
 1198000     1.056093   -7.2783229     438.9748  0.030535253  0.030791134            2 
 1199000    1.0545515   -7.2881823    440.41653  0.030609989  0.030784185            3 
 1200000    1.0626544   -7.2748576    438.12503   0.03042535  0.030777229            2 
 1201000     1.058156    -7.236521    439.80913   0.03051687  0.030770276            1 
 1202000    1.0531427   -7.2568066    438.85249  0.030425159  0.030763182            2 
 1203000    1.0735216   -7.2532742    441.03653  0.030551159  0.030756196            3 
 1204000    1.0573626   -7.2565822    441.15575  0.030534036  0.030749139            3 
 1205000    1.0747713   -7.2367908    441.28588  0.030517695  0.030742164            1 
 1206000     1.083854   -7.2372328    441.15551  0.030483383    0.0307351            1 
 1207000    1.0351315    -7.234521    442.03419  0.030518792  0.030728112            2 
 1208000    1.0593281   -7.2711274    442.56306  0.030530012   0.03072113            1 
 1209000     1.037091   -7.2231868    441.65838  0.030442403  0.030714352            1 
 1210000    1.0446958   -7.2714112    442.69113   0.03048837  0.030707633            3 
 1211000    1.0545045   -7.2503678    442.23049  0.030431495  0.030700704            1 
 1212000    1.0505503   -7.2689033    443.73327  0.030509713  0.030693797            1 
 1213000    1.0434625   -7.2204227    444.20346  0.030516863  0.030686913            2 
 1214000    1.0517526   -7.2582345    444.27725  0.030496791  0.030680267            2 
 1215000    1.0409688   -7.2825918    445.29691  0.030541626  0.030673474            1 
 1216000    1.0664162   -7.2389939    445.18288  0.030508695  0.030666755            1 
 1217000    1.0545428   -7.2458582    445.85818  0.030529867  0.030660074            1 
 1218000    1.0782835   -7.2539933    446.12589  0.030523118  0.030653436            1 
 1219000    1.0607146   -7.2600139    446.58036  0.030529147  0.030646812            1 
 1220000    1.0674066   -7.2871482    447.04429  0.030535812  0.030640254            1 
 1221000    1.0634063   -7.2442858    447.15364  0.030518266  0.030633703            2 
 1222000    1.0542728   -7.2957495    447.14143   0.03049246  0.030627111            1 
 1223000     1.050854   -7.2812897    446.56615  0.030428329  0.030620483            3 
 1224000    1.0615366   -7.2961507    446.90358  0.030426442  0.030613983            3 
 1225000    1.0535233   -7.2398427     447.4896   0.03044147  0.030607423            2 
 1226000    1.0726199   -7.3039142    448.64453  0.030495142  0.030600994            6 
 1227000    1.0393929   -7.2559412    448.82963   0.03048286  0.030594756            3 
 1228000    1.0390811    -7.271178     449.8777   0.03052916  0.030588177            1 
 1229000    1.0621615   -7.2969687    447.51819  0.030344331  0.030581794            2 
 1230000    1.0563014   -7.2608881    451.04371  0.030558517  0.030575306            1 
 1231000    1.0623738   -7.2412079    449.26325  0.030413164  0.030569108            1 
 1232000     1.084998   -7.2742026    450.77402  0.030490667  0.030563023            1 
 1233000    1.0590551    -7.254202    452.86941  0.030607556  0.030556914            2 
 1234000    1.0564886   -7.2648903    452.01687   0.03052518  0.030550936            2 
 1235000    1.0419545    -7.230921    453.26435  0.030584639  0.030544772            1 
 1236000    1.0551838   -7.2626067     451.9414  0.030470699  0.030538614            2 
 1237000     1.054347   -7.2316967    451.12846    0.0303913   0.03053232            1 
 1238000     1.033744   -7.2831309    451.67934  0.030403833  0.030526098            1 
 1239000       1.0744   -7.3061073    451.53981  0.030369909  0.030519675            1 
 1240000    1.0548932   -7.2773727     452.1088  0.030383656  0.030513176            2 
 1241000    1.0563668    -7.293623    452.45257  0.030382257  0.030506814            1 
 1242000    1.0240249   -7.3115036    450.75874  0.030244145   0.03050021            1 
 1243000    1.0650469   -7.2465515    453.47058  0.030401621  0.030493671            2 
 1244000    1.0648617   -7.2700305    452.53171  0.030314289  0.030487198            1 
 1245000    1.0492586   -7.2511987    452.70482  0.030301527  0.030480692            1 
 1246000    1.0423628   -7.2602458    453.20266  0.030310504   0.03047418            2 
 1247000    1.0576934   -7.2665819    453.96075  0.030336858  0.030467588            3 
 1248000    1.0458015   -7.2764688    454.15732  0.030325676  0.030461189            2 
 1249000    1.0514441   -7.2885014    452.70311  0.030204371  0.030454603            2 
 1250000    1.0436986    -7.296548    454.95634  0.030330423   0.03044802            2 
 1251000    1.0269716    -7.290401    455.72928  0.030357666  0.030441331            2 
 1252000    1.0519703   -7.2869256    455.95418  0.030348388  0.030434723            2 
 1253000    1.0484665   -7.2717928    455.33972  0.030283302  0.030428139            2 
 1254000    1.0581555   -7.3156075    454.45724  0.030200508  0.030421563            1 
 1255000    1.0508764   -7.2829648    454.81569  0.030200245  0.030414972            2 
 1256000    1.0392567   -7.2795778    455.45062  0.030218327  0.030408362            5 
 1257000     1.032688    -7.279903     456.2106   0.03024467  0.030401642            1 
 1258000    1.0376199   -7.2910286    456.79327  0.030259226  0.030395077            1 
 1259000    1.0742502   -7.2911606    456.27423  0.030200836   0.03038836            1 
 1260000    1.0415763   -7.2590251    457.26127  0.030242147   0.03038163            2 
 1261000    1.0327745   -7.2559255    456.97056  0.030198953  0.030374665            3 
 1262000    1.0411605   -7.3175993    456.79944  0.030163725  0.030367903            3 
 1263000    1.0480472   -7.3483307    454.99536  0.030020808  0.030360956            2 
 1264000    1.0538252   -7.3134134    456.03182  0.030065389  0.030354034            1 
 1265000     1.070545   -7.2790834    457.16258  0.030116112  0.030347353            1 
 1266000    1.0685787   -7.3192776    457.54579  0.030117548  0.030340612            3 
 1267000     1.053465   -7.2759635    457.74649  0.030106978  0.030333872            3 
 1268000    1.0325879   -7.3103605     458.3045  0.030119907   0.03032704            2 
 1269000    1.0275613   -7.2674287    459.15706  0.030152158  0.030320153            2 
 1270000    1.0425554    -7.292689    459.04795  0.030121256  0.030313309            3 
 1271000    1.0480196   -7.3071922    459.78741   0.03014604  0.030306479            1 
 1272000    1.0347289     -7.28538    459.93776  0.030132191   0.03029967            2 
 1273000    1.0417634   -7.3084781     459.5121  0.030080656  0.030292783            1 
 1274000    1.0439021   -7.2994993    458.70591  0.030004311  0.030285859            3 
 1275000    1.0401227   -7.3063557    461.45359  0.030160365  0.030279117            3 
 1276000    1.0458088   -7.2829419    461.36017  0.030130628  0.030272411            2 
 1277000    1.0312846   -7.3027485    460.23272  0.030033458  0.030265631            1 
 1278000     1.055442   -7.3166808    459.78345  0.029980663  0.030258816            2 
 1279000    1.0428065   -7.2948973    461.98341  0.030100561  0.030252055            2 
 1280000    1.0699186   -7.2893109    462.41982  0.030105457  0.030245393            2 
 1281000    1.0460358   -7.2428666    461.72434  0.030036712  0.030238806            2 
 1282000    1.0619656   -7.3109187    463.21684  0.030110299  0.030232192            1 
 1283000    1.0421174   -7.2598657    461.33814  0.029964805  0.030225505            2 
 1284000    1.0627725   -7.3112471    462.16388   0.02999506  0.030218898            1 
 1285000    1.0381567   -7.3404606    461.53875  0.029931177  0.030212079            2 
 1286000    1.0348916   -7.2996489    461.95444  0.029934839  0.030205157            5 
 1287000    1.0450259   -7.2897588    463.00419  0.029979552  0.030198357            2 
 1288000    1.0483753   -7.2791538    464.01845  0.030021898  0.030191632            2 
 1289000    1.0374337   -7.3219014    462.86003  0.029923715  0.030184848            2 
 1290000    1.0451524   -7.2923384    463.34298  0.029931717  0.030177852            2 
 1291000    1.0383595   -7.3085062    464.84433  0.030005443  0.030171047            1 
 1292000    1.0469377    -7.297496    464.49094  0.029959426  0.030164155            4 
 1293000    1.0327807    -7.286065    465.38382  0.029993801  0.030157326            2 
 1294000    1.0341842   -7.2772407    464.85766  0.029936738  0.030150387            2 
 1295000    1.0493617   -7.2898305    466.26474  0.030004166  0.030143544            2 
 1296000    1.0416722   -7.3060175     463.5126  0.029804051   0.03013647            2 
 1297000    1.0497089   -7.2970324    465.29818  0.029895797  0.030129521            2 
 1298000    1.0465199   -7.2954886    464.96736  0.029851525  0.030122615            1 
 1299000    1.0424203   -7.3130948    465.09052  0.029836446  0.030115647            2 
 1300000    1.0456199   -7.2838686    465.48736  0.029838933   0.03010871            2 
 1301000    1.0145576   -7.2985087    466.07348  0.029853541  0.030101814            2 
 1302000    1.0452194   -7.2858425     468.1606  0.029964196  0.030094962            1 
 1303000    1.0473384   -7.3006028    466.67122  0.029845947  0.030088164            1 
 1304000    1.0404867   -7.2673805    468.80655  0.029959519  0.030081459            1 
 1305000    1.0405036   -7.3123116    468.48101  0.029915773  0.030074871            2 
 1306000    1.0438022   -7.3161124    468.35276  0.029884683  0.030068145            1 
 1307000     1.025185   -7.3202828     468.2231  0.029853552   0.03006151            2 
 1308000    1.0511325   -7.2982521    469.87688  0.029936091  0.030054708            3 
 1309000    1.0646635   -7.2963707    468.40277  0.029819377  0.030047886            2 
 1310000    1.0303649   -7.3393557    468.33494  0.029792299  0.030041063            5 
 1311000    1.0478365   -7.3038995    469.07236  0.029816448  0.030034181            1 
 1312000     1.032741    -7.274301    469.26697  0.029806083  0.030027184            1 
 1313000    1.0481275   -7.3076514    469.28554   0.02978456  0.030020202            1 
 1314000    1.0536348   -7.2955285    468.44939  0.029708865  0.030013147            3 
 1315000    1.0289644   -7.3077743     469.5328   0.02975493  0.030006022            3 
 1316000    1.0335421   -7.3286243    468.59687  0.029673054  0.029998926            3 
 1317000     1.055032   -7.2893492    469.27916  0.029693695  0.029991678            2 
 1318000    1.0466028   -7.2890481    469.33829  0.029674905  0.029984569            2 
 1319000      1.05196   -7.3132384    470.28499  0.029712218  0.029977394            2 
 1320000    1.0673671   -7.3053492    471.02039  0.029736136  0.029970138            2 
 1321000    1.0442164   -7.2822126    471.43315  0.029739664  0.029963038            2 
 1322000    1.0396923   -7.2912041    472.36522  0.029775921  0.029955821            2 
 1323000    1.0382989   -7.3303328    472.18158  0.029741848   0.02994858            2 
 1324000    1.0520525   -7.3098669    472.28294  0.029725764    0.0299416            2 
 1325000    1.0452915    -7.277694     474.0582  0.029814981  0.029934523            2 
 1326000    1.0594738   -7.2967652     473.5572  0.029761011  0.029927567            2 
 1327000    1.0268329   -7.3336189    471.42355  0.029604594  0.029920504            2 
 1328000    1.0344078   -7.3178815     473.0581  0.029684871   0.02991344            1 
 1329000    1.0560805   -7.2944406    473.40755  0.029684446  0.029906603            1 
 1330000    1.0254655   -7.3355456    473.11903   0.02964405  0.029899655            3 
 1331000    1.0515092   -7.3122962    474.65463  0.029717921  0.029892673            2 
 1332000    1.0313847   -7.3333905    474.58313  0.029691137  0.029885743            4 
 1333000    1.0446553   -7.2968871     475.0931  0.029700744  0.029878826            1 
 1334000    1.0498001   -7.2834888    475.28869  0.029690697   0.02987216            2 
 1335000    1.0265037   -7.3249397    473.96137  0.029585603  0.029865374            2 
 1336000    1.0505882    -7.343325    475.17174  0.029638956  0.029858404            1 
 1337000    1.0457199   -7.3294474    476.38499  0.029692408  0.029851474            1 
 1338000    1.0288785   -7.2895437    476.50275  0.029677551  0.029844482            3 
 1339000    1.0472054   -7.3185489    474.98478  0.029560915    0.0298376            2 
 1340000      1.01732   -7.3081029     476.1763  0.029612954  0.029830654            3 
 1341000    1.0450971   -7.3146707    474.92051  0.029512833  0.029823682            1 
 1342000    1.0182564   -7.2900111    476.99618  0.029619733   0.02981657            2 
 1343000    1.0557445   -7.2803168    477.47047  0.029627108  0.029809724            3 
 1344000     1.021206   -7.3153686    477.70531  0.029619625  0.029802778            2 
 1345000    1.0517613   -7.3107846    476.88902  0.029547027  0.029795621            2 
 1346000    1.0509568   -7.3492574     477.6294  0.029570914  0.029788779            3 
 1347000    1.0080577   -7.3073242    479.70408  0.029677312  0.029781955            4 
 1348000    1.0682959    -7.358765     478.1902  0.029561709  0.029775092            2 
 1349000    1.0458151   -7.3422125    478.04964  0.029531112  0.029768096            2 
 1350000    1.0121975   -7.2965284    478.34147  0.029527251  0.029761221            2 
 1351000     1.021714   -7.3188087    479.40758  0.029571156  0.029754566            3 
 1352000    1.0336749   -7.2836933    481.29654  0.029665714  0.029747844            2 
 1353000    1.0573077   -7.2895382    480.35729  0.029585938  0.029741367            2 
 1354000    1.0088428   -7.3484967    479.96777  0.029540114  0.029734838            2 
 1355000     1.033216   -7.3317355    481.03271  0.029583807  0.029728233            2 
 1356000    1.0180834   -7.3001541    482.77003  0.029668758  0.029721742            1 
 1357000    1.0187565   -7.3128568    481.81793  0.029588426  0.029715314            3 
 1358000    1.0135868    -7.299053    482.63904  0.029617025  0.029708894            2 
 1359000    1.0083246   -7.3450164    481.36884  0.029517343  0.029702373            4 
 1360000    1.0344423   -7.3361597    482.22807  0.029548289  0.029695906            2 
 1361000    1.0536128   -7.3394507    482.66486  0.029553323  0.029689541            1 
 1362000    1.0177397   -7.3610801     483.7791  0.029599798  0.029683158            3 
 1363000    1.0186386   -7.2982103    484.82146  0.029641811    0.0296767            2 
 1364000    1.0210473   -7.3054919    483.48542  0.029538454  0.029670439            2 
 1365000    1.0429343   -7.3288791    484.89075   0.02960261  0.029664072            3 
 1366000    1.0127104   -7.3290312    485.38215  0.029610917  0.029657673            2 
 1367000    1.0285774   -7.3198727    484.99731  0.029565796  0.029651277            1 
 1368000    1.0237778   -7.2857824    486.65905   0.02964541  0.029644952            1 
 1369000    1.0313163   -7.2921171    485.13609   0.02953105   0.02963864            1 
 1370000     1.038056   -7.3009047    485.56484  0.029535574  0.029632354            3 
 1371000    1.0199504   -7.3160643    486.83817  0.029591428  0.029626044            1 
 1372000    1.0175149   -7.3207024    486.89846  0.029573522  0.029619771            2 
 1373000    1.0278453   -7.3638484      485.508  0.029467589  0.029613424            3 
 1374000    1.0356951   -7.3458167    486.39008  0.029499641  0.029607002            4 
 1375000    1.0091366   -7.3447134    486.00946  0.029455119  0.029600477            1 
 1376000    1.0277029   -7.3295149    487.72533  0.029537629  0.029593881            1 
 1377000    1.0509231    -7.303354    487.45052  0.029499547  0.029587401            1 
 1378000    1.0346608   -7.3465857    485.29781  0.029347957  0.029580808            3 
 1379000    1.0415804    -7.343436    487.78109   0.02947674   0.02957417            1 
 1380000    1.0536483   -7.3425769    486.41592  0.029372942  0.029567534            1 
 1381000    1.0303471   -7.3499214    485.37168  0.029288661  0.029560783            1 
 1382000    1.0241867   -7.3153385    488.34468  0.029446737    0.0295541            1 
 1383000    1.0264558   -7.3406856    487.37579  0.029367064  0.029547461            2 
 1384000    1.0393199   -7.3241007    488.42142  0.029408804  0.029540679            2 
 1385000    1.0321692   -7.3181185    488.17725  0.029372879  0.029533963            1 
 1386000    1.0128639   -7.3186489    489.05729  0.029404599   0.02952722            1 
 1387000    1.0316925   -7.3007855       489.07  0.029384162  0.029520362            1 
 1388000    1.0499095   -7.2930359    488.95696  0.029356206  0.029513597            1 
 1389000    1.0253845   -7.3091067    487.86169   0.02926936  0.029506799            1 
 1390000    1.0391058   -7.3289988    490.09426   0.02938215  0.029499921            3 
 1391000     1.017009   -7.3646926    487.68443  0.029216657  0.029492983            2 
 1392000    1.0187672   -7.3596199    490.72174  0.029377499  0.029486045            2 
 1393000    1.0310746   -7.3215816    490.03551  0.029315357  0.029479083            3 
 1394000    1.0461402   -7.3238688    490.37973  0.029314905  0.029472238            2 
 1395000    1.0562832   -7.3346065    490.47329   0.02929948  0.029465296            3 
 1396000    1.0256007   -7.3610318    489.61042  0.029226983  0.029458477            2 
 1397000    1.0253545   -7.3486076    490.45979  0.029256728  0.029451721            1 
 1398000    1.0593535   -7.3302817    490.55887  0.029241707  0.029444985            3 
 1399000    1.0218618   -7.3512734    491.77634  0.029293325  0.029438192            1 
 1400000    1.0191449   -7.3158453    491.96858  0.029283844  0.029431394            2 
 1401000    1.0356532   -7.3159057    491.63706  0.029243223  0.029424602            2 
 1402000    1.0180653    -7.318777    492.85325  0.029294653  0.029417864            3 
 1403000    1.0322051   -7.3240524    494.11759  0.029348871  0.029411183            2 
 1404000    1.0285912   -7.3096062    493.04901  0.029264542  0.029404475            3 
 1405000    1.0299251   -7.2864907    493.95944  0.029297713  0.029397856            2 
 1406000    1.0254028   -7.3197797    494.41471  0.029303859  0.029391155            2 
 1407000    1.0248089   -7.3012235    493.88798  0.029251835  0.029384425            2 
 1408000    1.0392705   -7.3626531    493.67269  0.029218317  0.029377757            2 
 1409000     1.002474   -7.3165115    493.92411  0.029212451  0.029371133            2 
 1410000    1.0029855   -7.3274987    494.64191  0.029234156  0.029364558            1 
 1411000    1.0368541   -7.3220357    495.97801  0.029292346   0.02935793            2 
 1412000    1.0247054   -7.3491089    494.25846  0.029170117  0.029351282            1 
 1413000    1.0486068   -7.3305379    496.46655  0.029279698  0.029344665            1 
 1414000   0.99578594   -7.3512752    495.68697  0.029213046  0.029338238            3 
 1415000    1.0351748   -7.2937862     495.6271  0.029188875  0.029331824            2 
 1416000     1.016388   -7.3580747    495.30167   0.02914911  0.029325332            2 
 1417000    1.0314542   -7.3549439    496.05294  0.029172721  0.029318737            3 
 1418000   0.99868326   -7.3431604    495.72843  0.029133076  0.029312142            2 
 1419000    1.0216837   -7.3364265    496.13305  0.029136308  0.029305419            3 
 1420000    1.0123324   -7.3485558    496.06348  0.029111707  0.029298824            4 
 1421000    1.0293291   -7.3120515    496.92854  0.029141951  0.029292158            2 
 1422000    1.0246981   -7.3312906    496.54666  0.029099078  0.029285496            3 
 1423000    1.0141153   -7.3516007    496.82498  0.029094927  0.029278765            3 
 1424000    1.0394871   -7.3154104    497.42329  0.029109509   0.02927202            2 
 1425000    1.0331741    -7.321523    498.22791  0.029136135  0.029265261            1 
 1426000    1.0362598    -7.355419     498.9629  0.029158655  0.029258409            3 
 1427000    1.0293517   -7.3352913     496.6413  0.029002645  0.029251653            1 
 1428000    1.0477293    -7.372826    497.25642  0.029018232  0.029244803            2 
 1429000    1.0132948   -7.3365416    500.00437  0.029158174  0.029238056            2 
 1430000    1.0274912   -7.3576821      498.532  0.029051981  0.029231418            1 
 1431000    1.0167737   -7.2986784    498.80641  0.029047659  0.029224851            2 
 1432000    1.0418079   -7.3803974     499.7523   0.02908242  0.029218228            2 
 1433000     1.024599   -7.3488636    498.87961  0.029011375  0.029211592            1 
 1434000     1.025433   -7.3663611    498.52234  0.028970382  0.029204876            1 
 1435000    1.0257167   -7.3807227    501.04195  0.029096513  0.029198148            1 
 1436000    1.0115269   -7.3883417     499.5928  0.028992154  0.029191496            2 
 1437000     1.031619    -7.379562    500.82309  0.029043325  0.029184901            1 
 1438000    1.0489416    -7.324306    500.95653  0.029030861  0.029178371            4 
 1439000    1.0192627   -7.3446358    501.89891   0.02906526  0.029171763            1 
 1440000    1.0114196   -7.3390601    503.27424  0.029124667  0.029165305            1 
 1441000    1.0274964   -7.3736194    500.91362   0.02896794  0.029158696            2 
 1442000    1.0051269   -7.3465159    501.69042  0.028992743  0.029151975            2 
 1443000   0.98792567   -7.3683471    502.02146  0.028991768  0.029145463            2 
 1444000    1.0191358   -7.3490273    502.18777  0.028981288  0.029139001            2 
 1445000    1.0129061   -7.3170923    503.18145  0.029018538  0.029132424            1 
 1446000   0.99623007   -7.3691413    504.37681  0.029067359  0.029125985            4 
 1447000    1.0170068    -7.312792    504.65643  0.029063374   0.02911974            3 
 1448000    1.0162805   -7.3488405    504.87282  0.029055756  0.029113434            2 
 1449000     1.011537   -7.3883891    504.62763  0.029021603   0.02910703            1 
 1450000    1.0089932   -7.3639144    504.11252  0.028971984  0.029100567            2 
 1451000    1.0107385   -7.3756698    505.22874  0.029016124  0.029094166            3 
 1452000    1.0075225   -7.3676593    505.98967  0.029039811  0.029087678            1 
 1453000    1.0237259   -7.3495388    503.80949  0.028894786  0.029081103            2 
 1454000    1.0018976   -7.3636719    505.93195  0.028996558  0.029074501            1 
 1455000    1.0203103   -7.3533904    505.80898  0.028969587  0.029067954            1 
 1456000    1.0207454   -7.3443204    505.77629  0.028947819  0.029061421            3 
 1457000    1.0211091   -7.4040656     503.7677  0.028813069  0.029054757            3 
 1458000    1.0027336   -7.3715913    505.35758  0.028884178  0.029047869            2 
 1459000     1.016395   -7.3337129    506.36649  0.028922007  0.029041155            1 
 1460000    1.0170943   -7.3301152    507.33385  0.028957412  0.029034538            4 
 1461000    1.0067324   -7.3622302    506.49023  0.028889472  0.029027843            4 
 1462000    1.0191693   -7.3398272    507.81401  0.028945167  0.029021211            2 
 1463000    1.0088304   -7.3577833    507.06336  0.028882624   0.02901455            2 
 1464000    1.0200535   -7.3654155    507.54375  0.028890241  0.029007954            1 
 1465000    1.0007024   -7.3568489    508.63114  0.028932374  0.029001425            2 
 1466000    1.0021831    -7.354261     506.8011  0.028808612  0.028994898            2 
 1467000    1.0363491   -7.3718061    508.57204  0.028889573  0.028988278            7 
 1468000    1.0021282   -7.3385356    508.47379  0.028864316  0.028981507            2 
 1469000    1.0247606   -7.3531469    507.04781  0.028763774  0.028974688            2 
 1470000    1.0101146   -7.3495649     509.8656  0.028903946  0.028967941            3 
 1471000    1.0214864     -7.38286    508.18393  0.028789028  0.028961273            3 
 1472000    1.0234148   -7.3446614    509.18036  0.028825881   0.02895453            1 
 1473000   0.99548197   -7.3809736    509.01355  0.028796874   0.02894784            1 
 1474000    1.0160061   -7.3636219    508.40158   0.02874274  0.028940993            4 
 1475000    1.0102686   -7.3818914    508.51135  0.028729455  0.028934219            5 
 1476000    1.0165328   -7.3106045     510.2167  0.028806273  0.028927486            2 
 1477000    1.0291647   -7.3423598    510.18298  0.028784867  0.028920747            2 
 1478000    1.0284777    -7.375078    510.71119  0.028795173  0.028914047            1 
 1479000    1.0070146    -7.367333    511.19811  0.028803139  0.028907309            1 
 1480000     1.023744   -7.3770648    509.36573  0.028680503  0.028900524            1 
 1481000   0.99125046   -7.3408443    512.01334  0.028810114  0.028893869            3 
 1482000    1.0199159   -7.3657454     511.6478  0.028770119  0.028887181            2 
 1483000    1.0053474   -7.3857763    511.32222  0.028732424  0.028880497            2 
 1484000    1.0462814    -7.355405    512.04947  0.028753901  0.028873945            3 
 1485000    1.0208651   -7.3722359    512.42719  0.028755734  0.028867372            1 
 1486000    1.0220477   -7.3517963    512.89106  0.028762397  0.028860814            2 
 1487000    1.0203737   -7.3549978    512.82992  0.028739628  0.028854067            2 
 1488000    1.0217759   -7.3922785    511.21103   0.02862965  0.028847419            1 
 1489000   0.97473075   -7.3952747    512.17065  0.028664129  0.028840657            2 
 1490000    1.0138635   -7.3678644    512.99969  0.028691258  0.028833957            6 
 1491000    1.0069826   -7.3717569    513.74177  0.028713491  0.028827316            2 
 1492000    1.0360051   -7.3735422     514.5041  0.028736824  0.028820732            1 
 1493000    1.0226105   -7.3717249    514.97429  0.028743821  0.028814156            2 
 1494000   0.99416522   -7.3737729    513.29731  0.028631042  0.028807515            2 
 1495000    1.0207403   -7.3588894    515.83123  0.028753134   0.02880112            2 
 1496000    1.0245716   -7.3869062    515.08088  0.028692117  0.028794754            1 
 1497000    1.0020476   -7.3587365    516.29578   0.02874058  0.028788479            3 
 1498000     1.018866   -7.3637953       516.31  0.028722185  0.028782282            1 
 1499000    1.0157186   -7.3548279    516.95372   0.02873881  0.028776016           11 
 1500000    1.0106067   -7.3700873    516.91045  0.028717247  0.028769752            1 
 1501000    1.0102006   -7.3533884    516.68837  0.028685786  0.028763366            1 
 1502000   0.99968808   -7.3903626    517.84146  0.028730662  0.028756953            1 
 1503000    1.0148943   -7.3871293    517.50056  0.028692646  0.028750627            3 
 1504000    1.0079567   -7.3796643    517.28652  0.028661709  0.028744246            2 
 1505000    1.0051268   -7.3763453    517.99918  0.028682125  0.028737842            2 
 1506000    1.0342091   -7.3904582    517.64665  0.028643573  0.028731414            2 
 1507000    1.0126895    -7.384035    519.14384  0.028707357   0.02872496            1 
 1508000     1.025002   -7.3558099    518.74414  0.028666232  0.028718509            1 
 1509000    1.0227004    -7.398503    519.28946  0.028677351  0.028712132            1 
 1510000   0.99049343    -7.390899    518.31246   0.02860444  0.028705679            2 
 1511000    1.0151776   -7.3711484     518.3232  0.028586102  0.028699259            5 
 1512000   0.98132817   -7.3400633    520.06479  0.028663183  0.028692858            2 
 1513000    1.0067751   -7.3972096    518.37311  0.028551063  0.028686476            1 
 1514000    1.0093908   -7.3819083    520.49937  0.028649239  0.028680105            1 
 1515000    1.0135962   -7.3280342    521.97088   0.02871127  0.028673976            1 
 1516000    1.0325027   -7.3679889    522.12586   0.02870085  0.028667756            1 
 1517000    1.0028071   -7.3674563    521.18072  0.028630011  0.028661542            1 
 1518000    1.0223841   -7.3910856     521.5135  0.028629419  0.028655336            3 
 1519000    1.0168221   -7.3749695    520.47121  0.028553391  0.028648933            2 
 1520000    1.0182023   -7.3981332    521.49593  0.028590785  0.028642465            2 
 1521000    1.0044798   -7.3944579    520.86386  0.028537358  0.028636115            3 
 1522000   0.99224709   -7.3986259    521.95777  0.028578503  0.028629707            2 
 1523000    1.0088969    -7.378532    521.06288  0.028510773  0.028623234            2 
 1524000    1.0114568   -7.3479489    522.34361  0.028562096  0.028616805            2 
 1525000    1.0347077   -7.3715529    521.62789  0.028504257  0.028610436            2 
 1526000    0.9919659   -7.4079473    522.12282  0.028512605  0.028603906            1 
 1527000    1.0224732   -7.3883652    521.83121  0.028478018  0.028597344            3 
 1528000   0.99995945   -7.4196657    521.02086  0.028415187  0.028590745            4 
 1529000    1.0051983   -7.3667709    522.28052  0.028465256  0.028584073            1 
 1530000    1.0010397   -7.3832184    523.65906  0.028521735  0.028577414            2 
 1531000   0.99669809   -7.3342371    523.53588  0.028496401  0.028570809            3 
 1532000   0.96479578   -7.3907867    522.94557   0.02844569  0.028564278            2 
 1533000    1.0333045    -7.395203    523.27641  0.028445119  0.028557653            1 
 1534000   0.97960618   -7.4035979    522.96746  0.028409793  0.028551009            4 
 1535000    1.0048376   -7.4389815    521.77878  0.028326752  0.028544244            2 
 1536000    1.0172097   -7.3957389    523.20154    0.0283855  0.028537408            3 
 1537000    0.9939056   -7.3752433    525.23168  0.028477103  0.028530732            1 
 1538000    1.0229393   -7.3783184    526.23594  0.028513001  0.028524151            2 
 1539000    1.0057001   -7.4040631    523.99716  0.028373249  0.028517613            2 
 1540000   0.99915634   -7.4074687    524.83208  0.028400004  0.028510937            5 
 1541000     0.998481   -7.3923204    525.67128  0.028426956  0.028504414            1 
 1542000    1.0184524   -7.3945168    525.24585   0.02838553   0.02849781            2 
 1543000     1.024554    -7.409451    526.35938  0.028427273  0.028491291            1 
 1544000    1.0230919   -7.4165684    525.06637  0.028339074  0.028484654            4 
 1545000    1.0094675   -7.3652692    526.71276  0.028409534  0.028478282            2 
 1546000    1.0085837   -7.4020683    526.73915   0.02839258  0.028471729            2 
 1547000    1.0023273   -7.3741103    526.54568  0.028363805  0.028465144            2 
 1548000   0.99086398   -7.3934532    527.59681  0.028402068  0.028458662            2 
 1549000   0.99008741   -7.3977338    527.69627  0.028389083  0.028452236            1 
 1550000    1.0120917   -7.3961575     529.7777  0.028482672  0.028445843            2 
 1551000    1.0054645   -7.3423678    529.43928  0.028446125  0.028439467            2 
 1552000    1.0175391    -7.391713    528.35833  0.028369755  0.028433039            3 
 1553000   0.99990375   -7.3935393    530.63772  0.028473799  0.028426574            1 
 1554000   0.97952335    -7.422675    526.81501  0.028250483  0.028420044            1 
 1555000   0.98610978   -7.3972117    528.67003  0.028331727  0.028413574            1 
 1556000   0.98644508   -7.3613645    529.98053  0.028383704  0.028407191            1 
 1557000   0.99093716   -7.4139266    528.31873  0.028276532  0.028400867            1 
 1558000    1.0036675   -7.4181241     529.7781  0.028336441  0.028394433            1 
 1559000   0.99067265   -7.4328333    528.51046  0.028250506  0.028387956            1 
 1560000    1.0098382   -7.3920539    529.92086  0.028307738  0.028381479            6 
 1561000   0.98954055   -7.3724471    530.39096    0.0283147  0.028375009            1 
 1562000    1.0035674   -7.3986683    530.75748  0.028316127  0.028368601            4 
 1563000    1.0307458   -7.3758815    532.38057  0.028384548  0.028362322            1 
 1564000   0.98223835   -7.3798157    532.19627  0.028356579  0.028356001            2 
 1565000   0.98949048   -7.3987971    531.09493  0.028279815  0.028349617            1 
 1566000   0.98917812   -7.4077427    529.74681  0.028190018  0.028342993            2 
 1567000    0.9913662   -7.3754645    531.51445  0.028266031  0.028336492            1 
 1568000   0.99287322   -7.4260098    530.77403  0.028208654  0.028329905            2 
 1569000   0.97876892   -7.3899812     531.3595  0.028221771  0.028323313            1 
 1570000    0.9836038   -7.4308062    530.49825  0.028158081  0.028316689            1 
 1571000     1.031787   -7.3955878    531.99178  0.028219382  0.028310132            3 
 1572000   0.96977716   -7.3951021    532.42798  0.028224553  0.028303654            3 
 1573000    1.0030075   -7.3744036    532.85845  0.028229416  0.028297142            2 
 1574000   0.99569671    -7.422566    531.47913  0.028138455   0.02829066            3 
 1575000   0.97550622   -7.3960016    534.14115  0.028261437  0.028284038            1 
 1576000   0.98254325   -7.3725626    534.37836  0.028256047  0.028277421            3 
 1577000   0.98892758   -7.3925203    532.20349  0.028123203   0.02827082            1 
 1578000    1.0217755   -7.4100004    533.27619  0.028162029   0.02826419            2 
 1579000   0.98123747   -7.3922233    533.93418   0.02817892   0.02825752            1 
 1580000    1.0112632   -7.3826797    532.27202  0.028073419  0.028250855            1 
 1581000    1.0282858   -7.3976593    532.40003  0.028062409  0.028244185            2 
 1582000     0.982644   -7.4118028    534.49436  0.028154991  0.028237514            1 
 1583000   0.99848722    -7.402536    535.14011    0.0281712  0.028230885            3 
 1584000    1.0027932   -7.4209674    535.37737  0.028165897  0.028224354            2 
 1585000   0.99470667   -7.4084162    535.18607  0.028138069  0.028217761            3 
 1586000   0.99050784   -7.4243729     533.4121  0.028027117  0.028211151            2 
 1587000   0.98555166   -7.3961594    534.43609  0.028063227  0.028204497            3 
 1588000   0.99576631   -7.4271165    534.58497  0.028053367  0.028197789            2 
 1589000   0.99248825   -7.3855631    535.19121  0.028067506  0.028191106            1 
 1590000   0.99451597   -7.4013418    534.69072  0.028023622  0.028184453            3 
 1591000    1.0099961   -7.3828857    536.61271  0.028106678  0.028177766            2 
 1592000    0.9925297   -7.4209259     536.0914  0.028061736   0.02817113            5 
 1593000   0.99741724   -7.3952714    535.67163  0.028022161  0.028164532            2 
 1594000   0.99229892   -7.3667393    535.49319  0.027995252  0.028157942            2 
 1595000   0.99451273   -7.3810547     536.9191    0.0280522  0.028151381            2 
 1596000   0.99282276   -7.4138163    537.10295  0.028044223  0.028144855            1 
 1597000    1.0073526   -7.4336402    537.46249  0.028045423  0.028138333            4 
 1598000    0.9873987   -7.3882852    538.33614  0.028073433   0.02813186            3 
 1599000   0.98886684   -7.4189932    536.63335  0.027967133  0.028125365            3 
 1600000   0.99279882    -7.413446    538.08969  0.028025505  0.028118884            2 
 1601000   0.99182126    -7.405884    538.55587  0.028032265  0.028112324            2 
 1602000   0.99496407   -7.4257692    538.13588  0.027992919  0.028105862            2 
 1603000   0.99226743   -7.3895213     538.1164  0.027974444  0.028099416            2 
 1604000    1.0001552   -7.4166356    538.17637  0.027960119  0.028092837            2 
 1605000    1.0079597   -7.3963456     537.9424  0.027930551   0.02808627            2 
 1606000   0.97444992   -7.4079297    539.43541  0.027990629  0.028079685            1 
 1607000   0.98659363   -7.4268597    538.40761  0.027919914  0.028073117            3 
 1608000   0.99453652   -7.4331492    539.73827   0.02797151  0.028066478            2 
 1609000   0.98369764   -7.3879427    540.17226  0.027976604   0.02805997            1 
 1610000   0.99967228   -7.4135803    539.39916  0.027919211  0.028053355            2 
 1611000    1.0020317   -7.4659917    537.57902  0.027807729  0.028046579            2 
 1612000   0.97992049   -7.4160477    539.71662  0.027900983  0.028039727            1 
 1613000   0.96460345   -7.4340307    537.35074  0.027761456  0.028032809            1 
 1614000   0.98531027   -7.4370667    538.16462  0.027786278   0.02802587            2 
 1615000    1.0153727   -7.4046039    538.41089   0.02778178  0.028018973            2 
 1616000   0.97573589   -7.3990206    540.42492  0.027868447  0.028012119            3 
 1617000    1.0058304   -7.4324596    540.13397  0.027836218  0.028005391            2 
 1618000   0.98257367   -7.4027104    540.11108  0.027817835  0.027998652            4 
 1619000   0.98669038   -7.4246531    540.16854   0.02780361  0.027991756            2 
 1620000    1.0049156   -7.3825916    542.28799  0.027895473  0.027985019            2 
 1621000    1.0111448   -7.4172107     540.9705  0.027810534  0.027978273            1 
 1622000    1.0151418   -7.4125246    542.94907  0.027895041  0.027971545            5 
 1623000    1.0047154   -7.3937284    541.85449  0.027821652   0.02796479            1 
 1624000   0.98092935   -7.3519806    544.66102  0.027948534  0.027958161            3 
 1625000   0.98183197   -7.4105854    542.10871  0.027800447  0.027951464            1 
 1626000   0.99363184   -7.4033358     543.0822  0.027833241  0.027944721            2 
 1627000    1.0024146   -7.4059278    542.05531  0.027763538  0.027938004            2 
 1628000   0.98470627   -7.4144262    542.56596  0.027772623  0.027931307            4 
 1629000   0.97673649   -7.4461912    544.02524  0.027830225  0.027924554            1 
 1630000    1.0190388   -7.4115517    542.59357  0.027739957  0.027917718            3 
 1631000    0.9918881   -7.3950089    544.56821   0.02782384  0.027911052            1 
 1632000    1.0042515    -7.418552    544.90358  0.027823916  0.027904477            1 
 1633000   0.97546049   -7.4308324    544.69425  0.027796196  0.027897752            1 
 1634000   0.99899731   -7.4190999     544.7377    0.0277814  0.027891075            2 
 1635000   0.99092229   -7.3936632    545.52501  0.027804536  0.027884396            3 
 1636000    1.0046864   -7.4205018    545.42051  0.027782218  0.027877842            1 
 1637000   0.99998895   -7.4241654    546.12622  0.027801172  0.027871247            2 
 1638000   0.99441016   -7.4135952    545.75275  0.027765199  0.027864679            2 
 1639000   0.98529153    -7.448902    546.10174  0.027766003  0.027858052            1 
 1640000   0.98202253   -7.4105069    546.10491  0.027749233   0.02785145            3 
 1641000   0.99005322   -7.3982108    546.13142   0.02773367  0.027844917            3 
 1642000   0.99674551     -7.42615    547.02209  0.027761982  0.027838287            5 
 1643000   0.98892923   -7.4500716    546.52649  0.027719948  0.027831647            1 
 1644000   0.99418349   -7.3845393    546.76737  0.027715296   0.02782505            1 
 1645000   0.98730498   -7.3948188    548.42741  0.027782543   0.02781848            6 
 1646000    1.0009675   -7.4135304    548.66122  0.027777502  0.027811887            2 
 1647000    1.0049206   -7.4383469    546.30635  0.027641487  0.027805141            1 
 1648000   0.99699134   -7.3941083    547.67093  0.027693716   0.02779861            1 
 1649000   0.98577962   -7.4198133      547.427  0.027664594  0.027791977            4 
 1650000   0.97836609   -7.4224009     547.3168  0.027642263  0.027785366            4 
 1651000   0.98673429   -7.4327017    548.97003  0.027708966  0.027778742            4 
 1652000   0.98749559   -7.3987323    549.44644  0.027716225  0.027772249            1 
 1653000   0.99416689   -7.3905569    548.47835  0.027650653  0.027765608            2 
 1654000   0.98267047   -7.3947924     548.7668  0.027648469  0.027758953            2 
 1655000   0.97351099   -7.3872582    548.88926  0.027637928  0.027752383            2 
 1656000   0.99270197   -7.3853425    550.06161  0.027680234  0.027745793            1 
 1657000    1.0171795   -7.4102783    549.20007  0.027620201   0.02773927            1 
 1658000   0.98397453   -7.4243583    549.32206  0.027609674  0.027732684            2 
 1659000     1.009566   -7.4264134    549.15853  0.027584817  0.027726111            2 
 1660000   0.96388993   -7.4121595    551.39216  0.027680329  0.027719472            3 
 1661000   0.97986061   -7.4308929    549.96131  0.027591878  0.027712924            2 
 1662000    0.9776242   -7.4455705    549.48753  0.027551521  0.027706375            4 
 1663000   0.98951028   -7.4635247    551.42703  0.027632142  0.027699762            4 
 1664000   0.98694216   -7.4336871    549.74613  0.027531356  0.027693214            2 
 1665000   0.96948066   -7.4278896    552.03961   0.02762961  0.027686688            1 
 1666000   0.97628099   -7.4390765    552.57512  0.027639812  0.027680238            3 
 1667000    1.0051067   -7.4107561    553.10757  0.027649849  0.027673747            3 
 1668000   0.99787306   -7.4420157    551.84626  0.027570257  0.027667326            2 
 1669000    0.9822043    -7.427154    553.28904  0.027625776   0.02766076            1 
 1670000    0.9933795   -7.4350715    552.18276   0.02755403  0.027654087            3 
 1671000   0.97438535   -7.3784218    552.76286   0.02756647  0.027647589            2 
 1672000   0.98628848   -7.4310483    552.61554  0.027542641  0.027641003            3 
 1673000   0.99312894   -7.4723719     552.3555  0.027513225  0.027634343            1 
 1674000    1.0010909   -7.4735624    551.51891  0.027455143  0.027627619            2 
 1675000   0.99587585   -7.4306936    553.87875  0.027556157  0.027621136            1 
 1676000   0.97789727   -7.4532169    552.92997   0.02749254  0.027614574            2 
 1677000   0.96298327   -7.4568582    553.60311  0.027509596  0.027608092            2 
 1678000    1.0099108   -7.3855664    555.66029  0.027595366  0.027601771            2 
 1679000   0.98130541   -7.4236487    556.18313  0.027604881  0.027595469            3 
 1680000   0.97037778   -7.4093947     555.1422  0.027536816  0.027589138            1 
 1681000   0.96072872   -7.4194724    557.87886  0.027656101  0.027582707            3 
 1682000   0.96668095   -7.4420117    554.77281  0.027485771  0.027576353            2 
 1683000   0.95827002   -7.4221139    556.01378  0.027530886    0.0275699            2 
 1684000    1.0020275   -7.4353858    556.13427  0.027520501  0.027563356            4 
 1685000   0.99132757   -7.4192774    555.49547  0.027472575  0.027556877            4 
 1686000   0.97577196    -7.457444    556.49715   0.02750579  0.027550318            1 
 1687000   0.97432662   -7.4360431    555.52566  0.027441497  0.027543558            3 
 1688000   0.98682109   -7.4523151     556.4381  0.027470285   0.02753696            2 
 1689000   0.97764163    -7.411693    556.77888  0.027470835  0.027530334            2 
 1690000    1.0115975   -7.4376128    556.35544    0.0274337  0.027523782            3 
 1691000   0.97319711   -7.4371414     557.2331  0.027460728  0.027517157            6 
 1692000    0.9830621   -7.4453631    555.89943  0.027378814  0.027510526            1 
 1693000   0.97377128   -7.4193889    556.68678  0.027401397  0.027503934            1 
 1694000   0.96800162   -7.4374524    557.24303  0.027412585  0.027497272            2 
 1695000   0.98575055   -7.4342541    557.42932  0.027405571  0.027490686            1 
 1696000    0.9994086   -7.4757793    556.01093   0.02731972  0.027483992            2 
 1697000   0.97259756   -7.4908057    557.21304  0.027362652  0.027477267            1 
 1698000   0.97779899   -7.4555436    558.07144  0.027388665  0.027470595            2 
 1699000   0.97397127   -7.4259943    558.03322   0.02737067  0.027463992            5 
 1700000   0.99239999   -7.4224356    558.59878  0.027382293  0.027457367            3 
 1701000   0.98044857   -7.4896076    557.07943  0.027291761  0.027450589            3 
 1702000   0.99383865    -7.440034    558.98327  0.027368942  0.027443963            5 
 1703000    0.9685485   -7.4768008    558.62786   0.02733548  0.027437328            5 
 1704000   0.96208215   -7.4369403     558.9627  0.027335813  0.027430693            1 
 1705000   0.98524725   -7.4516227    558.98933  0.027321081  0.027424126            2 
 1706000   0.97351492   -7.4667745    559.17266  0.027314022  0.027417547            1 
 1707000   0.98904839   -7.4621763    559.88719  0.027332903   0.02741094            2 
 1708000   0.96855864   -7.4230519    559.72345  0.027308912  0.027404421            2 
 1709000   0.98932891   -7.4876391    558.99783   0.02725755  0.027397768            1 
 1710000   0.99114264   -7.4343628    560.19754  0.027300075  0.027391087            1 
 1711000   0.98661189   -7.4368756    561.78997  0.027361678  0.027384486            1 
 1712000   0.96646179   -7.4196566    561.91701  0.027351879  0.027377911            5 
 1713000   0.94225059   -7.4479868    560.22547  0.027253623  0.027371294            2 
 1714000   0.96398562   -7.4591374    559.70441  0.027212389  0.027364575            1 
 1715000   0.98663757   -7.4371753    561.70406  0.027293686   0.02735786            2 
 1716000   0.97964285   -7.4604577    562.00809  0.027292545  0.027351016            1 
 1717000    1.0026787   -7.4221369    562.36883  0.027294158  0.027344315            1 
 1718000   0.98069978   -7.4431748    561.13593  0.027218468   0.02733756            3 
 1719000   0.94971791   -7.4634127    560.74544  0.027183704  0.027330822            1 
 1720000    0.9866039   -7.4390039    561.79874  0.027218931  0.027324022            4 
 1721000   0.97936097   -7.4475708    560.73436  0.027151577  0.027317304            2 
 1722000   0.95740861   -7.4411294    561.24328  0.027160437  0.027310481            1 
 1723000   0.97206923   -7.4402754    561.53954  0.027159003  0.027303704            3 
 1724000   0.97921915   -7.4624564    562.59454  0.027194245  0.027297008            1 
 1725000   0.98790195   -7.4328903     562.0678  0.027153034  0.027290272            2 
 1726000   0.97063142   -7.4799587    562.34622  0.027150744  0.027283561            2 
 1727000   0.96687591   -7.3998187     562.3598  0.027135679  0.027276799            3 
 1728000   0.97866482     -7.46212    562.32301  0.027118201  0.027270024            2 
 1729000   0.98871118   -7.4632337    562.76731   0.02712393  0.027263164            1 
 1730000   0.97944333    -7.478952    561.50705  0.027047546  0.027256324            5 
 1731000   0.97654957   -7.4430899    562.17126  0.027063896  0.027249475            3 
 1732000   0.95811959   -7.4704331    562.50506  0.027064331  0.027242632            3 
 1733000    0.9713046   -7.4454656    564.06651  0.027123798   0.02723572            3 
 1734000   0.97844479   -7.4521524    561.62865  0.026990996  0.027228864            3 
 1735000   0.98671044   -7.4582886    564.68195  0.027122092  0.027221968            2 
 1736000    0.9699501   -7.4447859    562.31854  0.026993017  0.027215122            2 
 1737000   0.98342484   -7.4297881    564.48311  0.027081323  0.027208238            2 
 1738000   0.98212462   -7.4551399    563.78493  0.027032266  0.027201285            4 
 1739000   0.95742253    -7.461781    563.42715  0.026999576  0.027194251            1 
 1740000   0.97614893   -7.4645966    562.56236  0.026942642  0.027187325            1 
 1741000   0.96870924   -7.4858329    562.98907  0.026947591  0.027180343            2 
 1742000   0.97443243   -7.4606317    562.75817  0.026921076  0.027173272            2 
 1743000   0.98541434   -7.4654459    564.09881  0.026969727  0.027166202            3 
 1744000    0.9664612   -7.4245575    563.57174  0.026929078  0.027159206       -1e+20 
 1745000   0.97613613   -7.4768605     565.5267  0.027007006  0.027152187            2 
 1746000   0.96644819   -7.4845607    563.27223  0.026883936  0.027145167            1 
 1747000    0.9630646   -7.4426251    564.29049  0.026917119  0.027138172            2 
 1748000   0.95417096   -7.4625922    563.84775  0.026880614  0.027131263            2 
 1749000   0.98078003   -7.4767649    565.07655  0.026923792  0.027124276            1 
 1750000   0.96945415   -7.4598859    564.98905   0.02690424  0.027117269            2 
 1751000   0.99347374   -7.4504697    565.42785  0.026909759  0.027110327            1 
 1752000   0.95773502   -7.4595804    565.66101  0.026905489  0.027103199            2 
 1753000   0.94453395   -7.4653751    564.48356  0.026834168  0.027096108            1 
 1754000   0.98771871   -7.4822761    565.95256  0.026888662  0.027089009            1 
 1755000   0.96750305   -7.4758551    564.41052   0.02680012  0.027081919            3 
 1756000   0.98484839   -7.4280407    566.68013  0.026892565  0.027074786            5 
 1757000   0.96558789   -7.4613108    565.92053  0.026841232  0.027067715            4 
 1758000   0.95496161   -7.4334458    567.52021  0.026901792  0.027060674            2 
 1759000   0.95816599   -7.4521517    567.05134  0.026864285   0.02705359            1 
 1760000   0.99495677   -7.4224238    567.74989  0.026882097  0.027046562            2 
 1761000   0.95828455   -7.4459322    569.12911  0.026932099  0.027039626            3 
 1762000   0.95315701   -7.4981588    566.58835  0.026796649  0.027032652       -1e+20 
 1763000   0.97575334    -7.457468    569.13986  0.026902054  0.027025712            1 
 1764000   0.95056933   -7.4362906     568.8532  0.026873261   0.02701884            1 
 1765000   0.98546074   -7.4436314    568.88396  0.026859488  0.027011909            2 
 1766000   0.95912251   -7.4872499    568.54134  0.026828112  0.027004875            2 
 1767000   0.99361528    -7.489833    568.35563  0.026804171  0.026997976            1 
 1768000   0.98702896   -7.4684647    568.46385   0.02679411  0.026990967            1 
 1769000   0.96803447   -7.4831921    568.02671  0.026758371  0.026983908            3 
 1770000   0.95768919   -7.4592952    569.74828  0.026824307  0.026976905           11 
 1771000   0.98009392   -7.4546787    568.55245  0.026752891  0.026969819            1 
 1772000   0.96840613    -7.483765    569.29749  0.026772832  0.026962714            1 
 1773000   0.97218642   -7.4442483    569.43724    0.0267643  0.026955591            1 
 1774000   0.97678498   -7.4610855    569.14175  0.026735332  0.026948496            2 
 1775000   0.99639098   -7.4870829    568.94816  0.026711181  0.026941289            2 
 1776000   0.97036098   -7.5055677    568.51398  0.026675769  0.026934078            2 
 1777000    0.9543316   -7.4452869    569.97852  0.026729437  0.026927049            3 
 1778000   0.98431138   -7.4884261    570.23553   0.02672645  0.026919976            3 
 1779000   0.97502643   -7.4560338    570.38334   0.02671835  0.026912938            1 
 1780000   0.96833011   -7.4672926    569.39174  0.026656917  0.026905919            4 
 1781000   0.95630068    -7.430552    571.76064  0.026752791  0.026898813            2 
 1782000   0.95773307    -7.466967    569.74729  0.026643625  0.026891673            2 
 1783000   0.95404746   -7.4830232    571.23772  0.026698342   0.02688464            2 
 1784000   0.95757464    -7.492037    571.08166  0.026676087  0.026877592            2 
 1785000   0.95577643   -7.4711789    571.80153  0.026694749  0.026870468            2 
 1786000   0.97471853   -7.4191676    572.45417  0.026710255  0.026863275            6 
 1787000   0.95362117   -7.4372618    572.17904  0.026682477  0.026856199            3 
 1788000   0.98136413   -7.4735856    570.10623  0.026570947  0.026848947            3 
 1789000   0.94303956   -7.4573446    570.59192  0.026578718  0.026841743            2 
 1790000   0.96788079   -7.4437207    570.89158   0.02657782  0.026834553            2 
 1791000   0.96052691   -7.4733223    569.77213  0.026510894  0.026827332            6 
 1792000    0.9797295   -7.4515789    572.27272  0.026612385  0.026820132            2 
 1793000   0.97655317   -7.4800403    572.91361  0.026627329  0.026812949            3 
 1794000   0.96373358   -7.4614482    572.33415   0.02658557  0.026805764            2 
 1795000   0.94333776   -7.4586769    569.97344  0.026461163  0.026798529            1 
 1796000   0.96708118   -7.4685663    571.38285  0.026511825   0.02679129            2 
 1797000   0.97895422   -7.4513348    571.74157  0.026513707  0.026784052            1 
 1798000   0.96189153   -7.4636066    571.52909  0.026489112   0.02677684            2 
 1799000   0.95901302   -7.5230964    571.24361  0.026461164  0.026769535            2 
 1800000   0.95975565   -7.4741315    570.00971  0.026389338  0.026762134            3 
 1801000   0.95656286   -7.4836601    572.52242   0.02649095  0.026754742            1 
 1802000   0.95707083   -7.4849562     572.1843  0.026460613  0.026747302            4 
 1803000   0.97079852   -7.4811325    571.22405  0.026401555   0.02673995            3 
 1804000   0.95443894   -7.4967243    573.02929  0.026470311  0.026732548            2 
 1805000   0.94591011   -7.4557582    572.67858  0.026439454  0.026725138            2 
 1806000   0.99207976   -7.5122453    572.17935  0.026401779  0.026717743            2 
 1807000   0.97129123   -7.4925993    572.03234  0.026380388  0.026710393            1 
 1808000   0.95605179   -7.4858826    571.24385  0.026329455  0.026702998            1 
 1809000   0.94677222    -7.464069    572.75338  0.026384438  0.026695508            4 
 1810000   0.95712003   -7.5035893    572.68519  0.026366722  0.026687983            2 
 1811000    0.9501847   -7.4668062    573.07293  0.026370004  0.026680538            3 
 1812000   0.96852156   -7.5025153     572.9489  0.026349747  0.026673082            4 
 1813000   0.95689088   -7.4836139      573.409  0.026356361  0.026665617            2 
 1814000   0.95781508    -7.517214     570.2202  0.026195342  0.026658125            2 
 1815000   0.96845507    -7.492356    571.98372  0.026261879  0.026650654            2 
 1816000   0.95963752   -7.5178941    570.74027  0.026190358  0.026643171            1 
 1817000   0.97312207   -7.4607202    574.77818  0.026361135   0.02663576            1 
 1818000   0.94946252   -7.4424891    573.50556    0.0262883  0.026628278            2 
 1819000   0.95622954   -7.4691401    575.96575  0.026386556  0.026620886            1 
 1820000   0.94536551   -7.4676926      575.573  0.026354075  0.026613555            2 
 1821000   0.96249146   -7.4859362    574.21834   0.02627761  0.026606205            3 
 1822000   0.95870551    -7.479469    576.40191  0.026363058  0.026598841            2 
 1823000   0.96104786   -7.5056015    575.81075  0.026321574  0.026591503            2 
 1824000   0.96342585   -7.4486062    575.48893   0.02629244  0.026584238            1 
 1825000   0.96283594   -7.4667857    577.00836  0.026347414  0.026576974            4 
 1826000   0.95506481   -7.4883968    576.35221   0.02630304  0.026569661            1 
 1827000   0.97379909   -7.4775245    576.00532   0.02627282  0.026562302            2 
 1828000   0.96925841   -7.4702791    577.88769   0.02634426  0.026554961            2 
 1829000   0.95604987   -7.5113813    576.80423  0.026280492  0.026547533            3 
 1830000   0.96654102   -7.4806027    576.24584  0.026240703  0.026540152            2 
 1831000   0.96268108   -7.4698099    579.42915  0.026371252  0.026532821            2 
 1832000   0.95381755   -7.4672619    577.45412  0.026267018  0.026525526            1 
 1833000   0.96462275   -7.5165022    575.27149  0.026153459  0.026518192            2 
 1834000   0.95379181   -7.4884877    576.73061  0.026205498  0.026510818            3 
 1835000   0.97552436    -7.483308    576.83223  0.026195833  0.026503441            2 
 1836000   0.93784932   -7.4724167    577.33553  0.026204408  0.026496067            2 
 1837000   0.96787157   -7.4688785    577.09665  0.026179307  0.026488681            2 
 1838000   0.96430464   -7.5384293    575.37196  0.026086868  0.026481279            2 
 1839000   0.96160059   -7.4809479      577.512  0.026169658  0.026473891            3 
 1840000   0.92798373   -7.5259519     576.9174  0.026128505  0.026466479            2 
 1841000   0.97434206   -7.4929012     577.7026  0.026149855  0.026459057            2 
 1842000   0.94797389    -7.479066    578.63918   0.02617803  0.026451772            2 
 1843000   0.96064567   -7.4956022    579.37158  0.026196942  0.026444513            1 
 1844000   0.98668003   -7.5065283    578.78607  0.026156276  0.026437158            4 
 1845000   0.95022118   -7.4968352    578.78793  0.026142183  0.026429817            1 
 1846000   0.91382298   -7.4930056    579.15853  0.026144751  0.026422491            2 
 1847000    0.9481752   -7.4946486    578.55254  0.026103255  0.026415135            1 
 1848000   0.95893448   -7.5342975    577.66898  0.026049287  0.026407732            1 
 1849000   0.97432682   -7.4626125    577.23371  0.026015581  0.026400283            1 
 1850000   0.95587133   -7.4584625    580.55418  0.026151089  0.026392811            2 
 1851000   0.95983056   -7.4750078    580.17473  0.026119878  0.026385283            2 
 1852000   0.95734422    -7.554908    576.98377  0.025962193  0.026377646            2 
 1853000   0.94012196    -7.472114    577.15402  0.025955838  0.026370042            2 
 1854000   0.95127702   -7.5145579    578.39673  0.025997696  0.026362371            2 
 1855000   0.96400311   -7.5209702    577.92855  0.025962648  0.026354595            1 
 1856000   0.95526923   -7.5045726    580.30068  0.026055167  0.026346981            1 
 1857000   0.93322712    -7.480324    580.90771  0.026068377  0.026339335            1 
 1858000    0.9426244   -7.5257348    576.80859  0.025870497  0.026331709            2 
 1859000   0.95754692   -7.5023193     579.5695  0.025980343  0.026323985            2 
 1860000   0.96886918   -7.4807895    579.91572  0.025981887  0.026316342            1 
 1861000   0.95796081   -7.4930126    579.09169  0.025931027  0.026308711            4 
 1862000   0.95925212   -7.5091172    577.45597  0.025843894  0.026300929            1 
 1863000   0.94976086   -7.4950072    578.94687  0.025896711  0.026293206            1 
 1864000   0.94848889    -7.468046    581.40821  0.025992856  0.026285443            2 
 1865000   0.93672389   -7.4625894    581.15031  0.025967396  0.026277824            2 
 1866000   0.94852176   -7.5057248    579.56072   0.02588249  0.026270251            2 
 1867000   0.95600055   -7.5028129    580.30212  0.025901719   0.02626259            2 
 1868000   0.92661317   -7.5168983    580.19984  0.025883291  0.026254928            2 
 1869000   0.95410612   -7.5028948    580.09091  0.025864585  0.026247328            1 
 1870000   0.95197933   -7.4946169    580.86311  0.025885165  0.026239729            4 
 1871000    0.9544876   -7.5217222    581.36781  0.025893809  0.026232137            2 
 1872000   0.94360377    -7.478018    581.43986  0.025883185  0.026224596            2 
 1873000    0.9376194   -7.5094105    582.32884  0.025908918   0.02621702            3 
 1874000   0.95669825   -7.5101847    581.99996  0.025880468  0.026209446            1 
 1875000   0.94821722   -7.4941957    583.19293  0.025919686  0.026202041            3 
 1876000   0.94108691   -7.4636188    582.92956   0.02589417  0.026194705            2 
 1877000   0.94245619   -7.5040248    583.55812  0.025908281   0.02618732            3 
 1878000    0.9425703   -7.5281257    582.18296  0.025833465  0.026179889            4 
 1879000   0.94954421   -7.5319574     584.8815  0.025939396  0.026172424            2 
 1880000   0.95785902   -7.5402093    582.38549   0.02581496  0.026164924            3 
 1881000   0.91814226   -7.5117519    584.18479  0.025880949  0.026157419            1 
 1882000   0.94858368   -7.4809187    583.41862  0.025833272   0.02615004            3 
 1883000   0.94028718   -7.5219293    583.27906  0.025813377  0.026142616            2 
 1884000   0.96955784   -7.5616092    581.90194  0.025738763   0.02613507            5 
 1885000   0.92974705   -7.5428728    583.12389  0.025779128  0.026127513            3 
 1886000   0.94194599   -7.5406268    583.77343   0.02579416  0.026119949            4 
 1887000   0.95423174   -7.5141035    583.44676  0.025766064  0.026112523            3 
 1888000   0.93673124   -7.5101692    585.12664  0.025826564  0.026105086            2 
 1889000   0.94648004   -7.5594424    583.46941  0.025739784  0.026097587            3 
 1890000    0.9495066   -7.4992639    586.10886  0.025842542  0.026090144            2 
 1891000   0.97524462   -7.4898317    584.52969  0.025759285  0.026082664            2 
 1892000   0.96392787   -7.5081809    585.48906  0.025787925   0.02607532            2 
 1893000     0.961214     -7.47228    586.42971  0.025815712  0.026067955            1 
 1894000   0.93906682   -7.4865277    585.72736  0.025771179  0.026060512            1 
 1895000   0.97481299   -7.4909591    586.74874  0.025802495  0.026052988            2 
 1896000   0.94467822   -7.4978054    585.62084  0.025739313   0.02604553            2 
 1897000   0.95160393   -7.5218537    585.42474   0.02571713  0.026037996            2 
 1898000   0.95109197    -7.508523    585.44282  0.025704374  0.026030574            3 
 1899000   0.93980502   -7.5180281    585.97005  0.025713974  0.026023065            1 
 1900000   0.95178729   -7.5164003    585.35698  0.025673552  0.026015556            1 
 1901000    0.9448755   -7.5316271    586.46663   0.02570869  0.026008055            1 
 1902000   0.97411654   -7.5657873    584.58674  0.025612809  0.026000529            2 
 1903000   0.93239115   -7.5147222     587.1205  0.025710304  0.025992966            3 
 1904000   0.95489814   -7.5323831    584.90772  0.025599953  0.025985449            2 
 1905000   0.92612737    -7.550433    584.98065  0.025589705  0.025977876            1 
 1906000    0.9293103   -7.5120288    585.77173  0.025610866  0.025970298            2 
 1907000   0.95554361   -7.5355778    585.81583  0.025599363  0.025962737            2 
 1908000   0.94378906   -7.5080338    587.33269  0.025652197  0.025955229            4 
 1909000   0.93850829   -7.5414252    587.37998  0.025640823  0.025947676            5 
 1910000    0.9535678   -7.5086352    586.95032  0.025608653  0.025940147            2 
 1911000   0.95175286   -7.4998447    587.80298  0.025632434  0.025932548            5 
 1912000   0.94542282   -7.5254931    586.22154  0.025550102  0.025925025            2 
 1913000   0.93682748   -7.4936614    588.08372  0.025617865  0.025917545            2 
 1914000   0.90229108   -7.5013774    587.30294  0.025570487  0.025910055            2 
 1915000   0.93441554   -7.5302602    587.76645  0.025577304   0.02590251            2 
 1916000   0.93927206   -7.5250645    589.53716  0.025640969  0.025894996            2 
 1917000    0.9518703   -7.5034022    588.15144  0.025567355  0.025887492            4 
 1918000   0.94267052   -7.5060456    587.90988   0.02554353  0.025879999            2 
 1919000   0.93894357   -7.5111909      588.956  0.025575647  0.025872503            1 
 1920000   0.96675507    -7.543164    588.58621  0.025546277  0.025865006            5 
 1921000   0.96865106   -7.5236395     589.3915  0.025567911  0.025857494            3 
 1922000   0.94308934   -7.5265993    588.13357  0.025500068  0.025849933            3 
 1923000   0.96155214   -7.5461504    589.43285  0.025543112  0.025842369            4 
 1924000   0.92737303   -7.5146988    589.57418  0.025535957  0.025834873            2 
 1925000   0.93775764   -7.5294469    588.62795   0.02548173  0.025827388            2 
 1926000   0.95215583   -7.5268161    588.86128  0.025478595  0.025819914            1 
 1927000   0.95276236   -7.5035484    590.43958  0.025533626  0.025812463            1 
 1928000   0.95146705   -7.5116763    590.63644  0.025528892  0.025805064            2 
 1929000   0.93435848   -7.5155375    590.32897  0.025502375  0.025797652            2 
 1930000   0.94650444   -7.5393456    590.44993  0.025494384  0.025790282            2 
 1931000    0.9419405   -7.5486464    589.07777  0.025421965  0.025782863            2 
 1932000   0.93873015   -7.5228139    591.02292  0.025492707  0.025775465            2 
 1933000   0.94189944   -7.5061241    590.83193  0.025471285  0.025767996            2 
 1934000   0.95596804    -7.521709    592.16244  0.025515445  0.025760606            3 
 1935000   0.94430415   -7.5204524    591.69098  0.025481954  0.025753224            1 
 1936000   0.94272387   -7.5285581     592.4302  0.025500611  0.025745818            2 
 1937000   0.94573545    -7.519367    592.40853  0.025486514  0.025738387            2 
 1938000   0.93423284   -7.5339753      592.127  0.025461257  0.025730936            1 
 1939000   0.95089541   -7.5483357    591.70854  0.025430142  0.025723572            2 
 1940000    0.9383725    -7.543471    592.72681  0.025460774  0.025716241            4 
 1941000   0.94552223   -7.5005823    593.72826  0.025490652  0.025709018            2 
 1942000   0.93008414   -7.5468015     593.2686  0.025457801  0.025701723            2 
 1943000   0.94149424   -7.5393688     593.2172  0.025442495  0.025694392            3 
 1944000   0.94854405   -7.5434145    594.62963  0.025489953  0.025687104            1 
 1945000   0.95093718   -7.5198081    596.65294  0.025563536  0.025679819            2 
 1946000   0.93994019   -7.5231876    595.07279  0.025482734  0.025672671            1 
 1947000   0.95042537   -7.5348312    594.93212  0.025463624  0.025665521            2 
 1948000   0.94166997   -7.4715121    594.37028  0.025426518  0.025658298            2 
 1949000   0.92799696   -7.5303934    593.66258  0.025383213  0.025651049            2 
 1950000   0.92973562   -7.5731738     595.2527   0.02543815  0.025643743            3 
 1951000    0.9234225   -7.5451644    594.47982  0.025392099   0.02563645            4 
 1952000    0.9502448   -7.5035806    597.06882  0.025489618  0.025629186            1 
 1953000   0.95058077   -7.5623928    592.92519  0.025299761  0.025621946            3 
 1954000   0.93992296   -7.5725675    595.38962  0.025391915  0.025614705            2 
 1955000   0.95971966   -7.5412135    594.37251  0.025335572  0.025607431            3 
 1956000    0.9507048   -7.5397212    596.46391  0.025411721   0.02560021            3 
 1957000   0.93595066     -7.51239    596.29989  0.025391751  0.025593094            4 
 1958000   0.95420197   -7.5503599     596.0911  0.025369897  0.025585946            3 
 1959000   0.94308283   -7.5210312    598.42899  0.025456397   0.02557886            4 
 1960000   0.92923419   -7.5365044    598.17809  0.025432742  0.025571779            3 
 1961000   0.92273691    -7.538623    597.85001  0.025405831  0.025564685            2 
 1962000   0.95463421   -7.5533127    598.01589  0.025399928  0.025557653            1 
 1963000   0.94636394   -7.5280242    597.80141  0.025377883  0.025550601            2 
 1964000   0.95293991   -7.5398536    597.78518  0.025364273  0.025543557            1 
 1965000   0.91466542   -7.5035214    600.34134  0.025459768  0.025536466            1 
 1966000   0.93132736   -7.5694285    598.56966  0.025371722  0.025529464            2 
 1967000   0.94815351   -7.5618077    597.89376  0.025330188  0.025522387            5 
 1968000   0.93919277   -7.5511146    599.33918  0.025378522   0.02551526            2 
 1969000   0.92649754   -7.5097399    598.99055  0.025350878  0.025508243            3 
 1970000   0.93223672   -7.5264666    598.99672  0.025338271  0.025501201            2 
 1971000   0.92680624   -7.5690065    597.49132  0.025261767  0.025494144            5 
 1972000   0.95582771   -7.5472217    598.87219   0.02530731  0.025487172            2 
 1973000   0.93424963   -7.5351336    601.99922  0.025426559  0.025480203            3 
 1974000   0.95327818    -7.576667    600.17432   0.02533664  0.025473138            1 
 1975000   0.92436886   -7.5124574    600.12753  0.025321837  0.025466045            2 
 1976000   0.91497543   -7.5229385    601.34896  0.025360533  0.025459035            2 
 1977000    0.9315632   -7.5572664     600.7472   0.02532234  0.025451981            5 
 1978000   0.93189456   -7.5768482    600.18915  0.025286027  0.025444837            2 
 1979000   0.95712162   -7.5720597    598.69697  0.025210417  0.025437637            3 
 1980000   0.92970726   -7.5685561    597.71529  0.025156367  0.025430518            2 
 1981000    0.9485228   -7.5876627     598.4536  0.025174727  0.025423329            2 
 1982000   0.92726814   -7.5784746    600.33058  0.025240942  0.025416166            2 
 1983000   0.92778332   -7.5386745    599.69036  0.025201309  0.025409109            1 
 1984000   0.94024087   -7.5453803    601.74507  0.025274911  0.025402038            2 
 1985000   0.95107141   -7.5299946    601.09816  0.025235019  0.025394974            2 
 1986000    0.9228033   -7.5295121    601.00046  0.025218214  0.025387892            1 
 1987000   0.93256406   -7.5621475    599.46728  0.025141221  0.025380849            3 
 1988000    0.9627393   -7.5836787    599.83949  0.025144177  0.025373743            2 
 1989000   0.93200114   -7.5594523    600.97777  0.025179226  0.025366562            2 
 1990000   0.92109749   -7.5625899    602.30761  0.025222262  0.025359389            2 
 1991000   0.93283253   -7.5713002    599.99743  0.025112901  0.025352289            1 
 1992000   0.95319141   -7.6078407    602.30148  0.025196682  0.025345143            2 
 1993000   0.92820873   -7.5694517    600.88028  0.025124615  0.025337996            2 
 1994000   0.93272511   -7.5818449    602.05084  0.025160934   0.02533074            2 
 1995000   0.93041244   -7.5466003    601.48616  0.025124735  0.025323588            1 
 1996000   0.92124755   -7.5778786    601.82216  0.025126176  0.025316432            1 
 1997000   0.94843922   -7.5686446    602.59889  0.025146006  0.025309299            2 
 1998000   0.93813395   -7.5779614    603.28976  0.025162236  0.025302155            2 
 1999000   0.93953313   -7.5350503    602.56711  0.025119523  0.025295014            2 
 2000000   0.91042266   -7.5641402    602.98622  0.025124426  0.025287896            2 
 2001000   0.93322977    -7.554754    602.29597  0.025083124  0.025280868            1 
 2002000   0.93236576   -7.5379556    605.64535  0.025210013  0.025273926            2 
 2003000   0.92814676   -7.5740631    604.23446  0.025138728  0.025266996            1 
 2004000   0.92630393    -7.544244     605.1329  0.025163544  0.025260119            1 
 2005000   0.93719946   -7.5609046       606.29  0.025199086  0.025253273            2 
 2006000   0.94589561   -7.5144592     606.3117  0.025187425  0.025246445            1 
 2007000    0.9351478   -7.5577534    605.93731   0.02515933  0.025239574            2 
 2008000   0.91310778   -7.5739595    605.43009  0.025125751   0.02523269            2 
 2009000    0.9432968   -7.5266107    606.07157  0.025139853  0.025225858            2 
 2010000    0.9219298   -7.5588491    605.56417  0.025106309  0.025218958            3 
 2011000   0.94657805   -7.5593076    606.47332  0.025131498  0.025212019            2 
 2012000   0.91284372   -7.5726126    606.16969  0.025106432  0.025205062            2 
 2013000   0.93287552   -7.5730816    606.46828  0.025106321  0.025198187            3 
 2014000   0.92566237   -7.5622592    606.42073  0.025091887  0.025191348            2 
 2015000   0.91818524   -7.5560493    607.89933  0.025140584  0.025184545            1 
 2016000   0.93890379   -7.5460347    607.77236  0.025122865  0.025177753            2 
 2017000   0.91630108   -7.5491415      605.149  0.025002025  0.025170925            1 
 2018000   0.91578792   -7.5385985     607.2666  0.025077081  0.025164061            3 
 2019000   0.94091901   -7.5831467    607.26991  0.025064797  0.025157213            3 
 2020000   0.93534933   -7.5510894    608.63123  0.025108549  0.025150349            3 
 2021000   0.92074199   -7.5623794    608.35779   0.02508485  0.025143507            2 
 2022000   0.91085589    -7.544764    606.80156  0.025008307  0.025136578            2 
 2023000   0.93100818   -7.5460005     608.0818  0.025048682  0.025129676            4 
 2024000   0.91225619   -7.5603623    606.61527  0.024975925  0.025122761            2 
 2025000    0.9075269   -7.5584986    606.97736  0.024978492  0.025115785            2 
 2026000   0.93517746    -7.576152    606.57817  0.024949744  0.025108816            2 
 2027000   0.92080163    -7.545673    609.02684  0.025038104  0.025101871            2 
 2028000    0.9295059   -7.5857825     606.6857  0.024929557  0.025094951            1 
 2029000   0.92581913   -7.5384107    609.85826  0.025047571  0.025088004            1 
 2030000   0.92525435    -7.533942    607.82658   0.02495183  0.025081124            3 
 2031000   0.92587701   -7.5864421    607.84765  0.024940409  0.025074135            1 
 2032000   0.92878797   -7.5939485    609.66882  0.025002822  0.025067155            2 
 2033000   0.92172737   -7.5964433     606.9484  0.024879013  0.025060165            2 
 2034000   0.92535531   -7.5489247    607.53859  0.024890962  0.025053187            2 
 2035000   0.94094686   -7.5748598    608.99006  0.024938168  0.025046244            2 
 2036000     0.932258   -7.5632516    609.07356  0.024929337   0.02503934            2 
 2037000   0.93065577   -7.5560948    610.25308  0.024965353  0.025032443            3 
 2038000   0.90258659   -7.5913323    608.29406  0.024872999  0.025025458            4 
 2039000   0.93121169   -7.5951517    609.52062  0.024910929  0.025018515            2 
 2040000   0.93508695   -7.5988973    608.91986  0.024874177  0.025011531            1 
 2041000   0.94933839   -7.5766062    609.78244  0.024897209   0.02500454            2 
 2042000   0.93143279   -7.5496013     610.8533  0.024928718  0.024997602            1 
 2043000   0.91509913   -7.5760719    609.99675  0.024881577  0.024990687            2 
 2044000   0.93912991   -7.6061346    609.73346   0.02485867  0.024983774            3 
 2045000   0.91939949   -7.5821988    609.56956  0.024839835  0.024976853            3 
 2046000    0.9168922    -7.583552    610.31433  0.024858029  0.024969968            1 
 2047000   0.91591947   -7.5371273    611.44199  0.024891793  0.024963111            1 
 2048000   0.94069058   -7.5523873    611.61461  0.024886662  0.024956281            3 
 2049000   0.92285365   -7.6100505    608.62565  0.024752955  0.024949486            4 
 2050000   0.89999528   -7.6039256    610.21161   0.02480535  0.024942602            3 
 2051000   0.92255894   -7.5591844    613.39706  0.024922682  0.024935755            1 
 2052000   0.91586886   -7.6011581    610.19036   0.02478031  0.024928917            1 
 2053000   0.91867069   -7.5695381    612.67482  0.024869087  0.024922136            1 
 2054000   0.93583006   -7.5880457    612.54355  0.024851653  0.024915374            2 
 2055000   0.91018083   -7.5712855    611.40721   0.02479348  0.024908549            2 
 2056000   0.90329732   -7.5980411    610.91955  0.024761655  0.024901709            3 
 2057000   0.91698231   -7.5595236    614.36235  0.024889092  0.024894867            1 
 2058000   0.93091845   -7.5748234    612.58192  0.024804905  0.024888025            1 
 2059000   0.92026548   -7.5681152    611.18337  0.024736254  0.024881191            2 
 2060000   0.92623484   -7.5749062     612.9718  0.024796594    0.0248743            2 
 2061000   0.92503252   -7.5726505    611.01554  0.024705464  0.024867378            2 
 2062000   0.89798834   -7.5613086    613.53665  0.024795371  0.024860471            2 
 2063000   0.91606452   -7.5816201    612.08284  0.024724626  0.024853579            3 
 2064000   0.91093907   -7.5945974    612.48307  0.024728806  0.024846675            3 
 2065000   0.91377275   -7.5822477    611.40841  0.024673463  0.024839755            1 
 2066000   0.93352781   -7.5892969    613.44931  0.024743841  0.024832831            4 
 2067000    0.9196376   -7.5677273    614.25205  0.024764233  0.024825936            2 
 2068000   0.91500064   -7.5623696    613.59046  0.024725599   0.02481901            2 
 2069000    0.9222353   -7.5312215    614.63359  0.024755662  0.024812119            2 
 2070000   0.92880387   -7.5708257    614.38408  0.024733659  0.024805268            4 
 2071000   0.91666398   -7.5794966    614.93792  0.024744001  0.024798375            3 
 2072000   0.91624906   -7.5872717    613.66121  0.024680711  0.024791411            3 
 2073000   0.93427685   -7.6019139    614.44747  0.024700413    0.0247845            7 
 2074000    0.9184739    -7.596873    613.39833  0.024646349  0.024777556            2 
 2075000   0.91846949   -7.5841632    612.46809  0.024597112  0.024770612            1 
 2076000    0.9152322   -7.5927626    613.83239  0.024640028  0.024763606            2 
 2077000   0.93093195   -7.5961481    613.04393  0.024596531  0.024756663            1 
 2078000   0.92654833   -7.6225266    614.87052  0.024657945   0.02474972            2 
 2079000   0.91870059   -7.5655803    614.73653  0.024640714  0.024742728            1 
 2080000   0.91056347   -7.5912496    615.43925  0.024657021  0.024735734            2 
 2081000   0.94134187   -7.5676019    615.04767  0.024629492  0.024728748            1 
 2082000   0.91474883    -7.588991    614.44581  0.024593572  0.024721733            3 
 2083000   0.92928889   -7.5903988    613.53783  0.024545441   0.02471475            1 
 2084000   0.93906489   -7.5999134    613.90201  0.024548225  0.024707765            2 
 2085000   0.92176105    -7.640344    613.89076  0.024536002  0.024700748            4 
 2086000   0.90661473   -7.6007439    615.30439  0.024580712  0.024693769            2 
 2087000   0.92397025   -7.5735703    617.05853  0.024638977  0.024686779            2 
 2088000   0.92521874   -7.5934278    615.68104    0.0245722  0.024679845            2 
 2089000   0.91609865   -7.5617343    617.53994  0.024634591  0.024672948            2 
 2090000    0.9228954   -7.5951225     615.4622   0.02453996  0.024666058            2 
 2091000   0.92513978   -7.5870076     616.7601   0.02457995  0.024659171            2 
 2092000   0.90660706   -7.6112588    617.20127  0.024585774   0.02465229            2 
 2093000   0.93280809   -7.5886871    615.64643  0.024512121  0.024645407            6 
 2094000    0.9193962   -7.5827954    617.44536  0.024572006  0.024638527            2 
 2095000   0.90993644   -7.5834597    616.74345  0.024532357  0.024631659            4 
 2096000    0.9058615   -7.5777437    617.51159  0.024551192  0.024624766            1 
 2097000    0.9140695    -7.573625    616.98568  0.024518585  0.024617931            2 
 2098000   0.91326726   -7.5922423    617.00591  0.024507702  0.024611135            1 
 2099000   0.90916268   -7.6118822    616.55639   0.02447818  0.024604321            1 
 2100000   0.92964747   -7.5971209    618.60905  0.024547978  0.024597525            1 
 2101000   0.91201248   -7.6308022    618.09165  0.024515772  0.024590656            2 
 2102000   0.90076822   -7.5690738    618.39453  0.024516117  0.024583805            2 
 2103000   0.91120786   -7.6108244    617.73038  0.024478141  0.024576974            3 
 2104000   0.91811493    -7.625361    617.75922   0.02446765  0.024570132            1 
 2105000   0.90814976   -7.5899832    618.15739  0.024471789  0.024563303            3 
 2106000   0.91756373   -7.5787072    618.47099  0.024472578  0.024556528            2 
 2107000   0.90871044   -7.6054307    620.41726   0.02453794  0.024549817            2 
 2108000   0.91792139   -7.6012442    621.99146   0.02458853  0.024543138            2 
 2109000   0.94762902   -7.5811641    618.71959  0.024447589  0.024536464            2 
 2110000   0.92330068   -7.5931303    620.42654  0.024503418  0.024529703            3 
 2111000   0.92266864    -7.584279    620.31478  0.024487399  0.024522967            5 
 2112000   0.92238232   -7.6214834    619.01506  0.024424521  0.024516181            3 
 2113000   0.90978934   -7.6081767    620.72509  0.024480403   0.02450936            4 
 2114000   0.91648379   -7.5820654    619.47288  0.024419461  0.024502584            3 
 2115000   0.89665513   -7.5951476    621.64075  0.024493331  0.024495819            3 
 2116000   0.90649235   -7.5767647    621.23937  0.024465949  0.024489092            4 
 2117000   0.91578001   -7.5727623    620.71553  0.024433772  0.024482351            2 
 2118000   0.90631972   -7.5902592    621.66316   0.02445952   0.02447562            2 
 2119000   0.90974882   -7.5801954    621.18659  0.024429235   0.02446887            2 
 2120000   0.91164681   -7.5943458    619.17768  0.024338745  0.024462106            1 
 2121000   0.92649465   -7.5753347     620.5774  0.024382265  0.024455322            3 
 2122000   0.92088692   -7.6160897     620.4317  0.024365053  0.024448467            2 
 2123000   0.91315192    -7.630411    620.32786    0.0243495  0.024441586            2 
 2124000   0.91483398   -7.5932332    621.86007  0.024398151  0.024434747            2 
 2125000   0.90715921   -7.6016471    620.21788   0.02432227  0.024427933            2 
 2126000   0.90506571   -7.6415525    618.87282  0.024258107  0.024421076            3 
 2127000   0.92631167   -7.6289322     620.8047  0.024322391   0.02441418            1 
 2128000   0.93167574   -7.6127993    620.98208  0.024317907  0.024407301            1 
 2129000   0.90524476   -7.6152013    620.92387  0.024304207  0.024400471            5 
 2130000   0.90909687   -7.6378385      619.531  0.024238302  0.024393568            2 
 2131000   0.92150176   -7.6579004     620.7912  0.024276208  0.024386676            1 
 2132000   0.89845682   -7.6069255    622.79919  0.024343308  0.024379798            1 
 2133000   0.94223606   -7.6105393    621.61261  0.024285537  0.024372896            2 
 2134000   0.91027473   -7.5849945    622.21268   0.02429759  0.024366008            3 
 2135000   0.91530884   -7.5759587    623.10793  0.024321153  0.024359199            3 
 2136000   0.91936915   -7.5730584    623.62051  0.024329764  0.024352376            3 
 2137000   0.93623338     -7.60656     620.9798  0.024215403  0.024345569            3 
 2138000   0.92013748   -7.6229169    621.17094  0.024211527  0.024338704            2 
 2139000   0.87680629   -7.6117707    622.13443  0.024237745  0.024331858            1 
 2140000   0.90060774   -7.6186206    622.57941  0.024243746  0.024325004            2 
 2141000    0.9062533   -7.6054827    623.85908  0.024282231  0.024318212            2 
 2142000   0.89375501   -7.6044764    622.15605  0.024204639  0.024311405            1 
 2143000   0.91847314   -7.6024973    623.82804  0.024258362  0.024304598            2 
 2144000   0.92066083   -7.6182861    623.67985  0.024241288  0.024297788            1 
 2145000   0.92306531   -7.6219602    623.50097  0.024223037  0.024291014            3 
 2146000   0.92344631    -7.646052    623.84557  0.024225131  0.024284236            3 
 2147000   0.89788925   -7.6077557    625.39102  0.024273833  0.024277421            2 
 2148000   0.91830337   -7.6038685    623.56315  0.024191618  0.024270617            5 
 2149000   0.91887248   -7.5970727    625.19306  0.024243565  0.024263849            2 
 2150000   0.91523909   -7.6406716    624.18123  0.024193071  0.024257082            2 
 2151000   0.92062115   -7.5990442    625.46055  0.024231387  0.024250283            5 
 2152000   0.90024191   -7.5989567    625.03495  0.024203646  0.024243513            2 
 2153000   0.89335223   -7.6156065    627.54135  0.024289416  0.024236768            3 
 2154000   0.90752229   -7.6361188    623.19245   0.02410989  0.024230004            3 
 2155000   0.89611493   -7.6459865    624.57803  0.024152283  0.024223191            5 
 2156000   0.87965957   -7.6226804    624.52094  0.024138874  0.024216321            1 
 2157000   0.90899513   -7.6297519     624.6513  0.024132719  0.024209528            2 
 2158000   0.91641128   -7.6240369    624.23233  0.024105357  0.024202787            1 
 2159000   0.89331542   -7.6121596    626.43373  0.024179162  0.024196016            1 
 2160000   0.89962589   -7.6150489    626.11297  0.024155593  0.024189279            3 
 2161000   0.91697324   -7.6071385    626.12638  0.024144932  0.024182591            2 
 2162000   0.90117979   -7.6103155    627.11243  0.024171771   0.02417592            2 
 2163000   0.90085632   -7.6396806    625.75965  0.024108478  0.024169151            2 
 2164000   0.91013403   -7.6473001    625.75942  0.024097328  0.024162408            4 
 2165000    0.9133365   -7.6156532    626.32868  0.024108109  0.024155692            1 
 2166000   0.91069267   -7.6177725    627.92196  0.024158278  0.024149037            2 
 2167000   0.88740012   -7.6185216    627.38351  0.024126423   0.02414236            1 
 2168000   0.92052541   -7.6333863    626.93605  0.024098095  0.024135696            2 
 2169000   0.90746699   -7.6001995    629.48898  0.024185069  0.024129024            2 
 2170000   0.92285111   -7.6582574    627.43604  0.024095086  0.024122359            1 
 2171000   0.91740345   -7.6189876     629.4676  0.024161968  0.024115669            3 
 2172000   0.91230022   -7.6168511     626.5852  0.024040255  0.024108943            3 
 2173000   0.90309841   -7.6449717    627.50383  0.024064421  0.024102263            1 
 2174000    0.9036874   -7.6234187    627.77864  0.024063885  0.024095618            1 
 2175000   0.89409362   -7.6178759    628.72274  0.024088994  0.024088988            2 
 2176000    0.9039411   -7.6208945    627.50499  0.024031288  0.024082345            9 
 2177000   0.89503791   -7.6093855    628.93702  0.024075066  0.024075625            4 
 2178000   0.89765575   -7.6246919    627.95314  0.024026368  0.024068907            4 
 2179000   0.90965793   -7.6158226    629.26077   0.02406535  0.024062219            2 
 2180000   0.90011414   -7.6466538    628.79253  0.024036412  0.024055515            3 
 2181000    0.8932842   -7.6069092    628.39031  0.024010022  0.024048779            2 
 2182000   0.88808404   -7.5892652    628.58124  0.024006311   0.02404208            1 
 2183000   0.90344985   -7.6164247    629.42811  0.024027642   0.02403536            2 
 2184000   0.90092008   -7.6084729     629.0949  0.024003926  0.024028613            2 
 2185000   0.89976834   -7.6267024    629.01243  0.023989795  0.024021896            1 
 2186000   0.90095238    -7.638342    629.37551  0.023992662  0.024015159            1 
 2187000   0.88579424   -7.5944265    629.38788  0.023982163  0.024008406            1 
 2188000   0.89842027     -7.61979    629.27959  0.023967078  0.024001638            5 
 2189000   0.91453726   -7.6224898    628.92317   0.02394256  0.023994985            1 
 2190000   0.89874315   -7.6178887    629.11647  0.023938983   0.02398824            1 
 2191000   0.88302914   -7.6393601    628.49952  0.023904592  0.023981416            1 
 2192000     0.902343   -7.6280255    629.05493  0.023914801  0.023974566            2 
 2193000   0.89364142   -7.5931298    630.84811  0.023972036  0.023967776            3 
 2194000   0.89058286   -7.6222808    629.20761    0.0238988  0.023960981            3 
 2195000   0.89252275   -7.6246206    630.03688  0.023919396  0.023954248            3 
 2196000   0.90406667   -7.6466548    629.21517  0.023877321  0.023947505            1 
 2197000   0.89996235   -7.6780617    628.71213  0.023847372  0.023940714            2 
 2198000   0.89317338   -7.6385947    631.62286  0.023946878  0.023933952            2 
 2199000   0.89338196   -7.6360827    630.98076  0.023911655  0.023927172            2 
 2200000   0.90280068   -7.6460931    630.40387  0.023878934  0.023920377            3 
 2201000   0.90640085   -7.6495086    629.46194  0.023832422  0.023913566            2 
 2202000   0.91630198   -7.6611664    629.97087  0.023840859  0.023906752            1 
 2203000   0.89305396   -7.6346415    629.78349  0.023822949  0.023899959            1 
 2204000    0.8775782   -7.6263925    630.32304  0.023832541   0.02389323            2 
 2205000   0.91230449   -7.6633566    630.95043  0.023845443  0.023886415            1 
 2206000   0.89467206   -7.6658831    631.67717  0.023862087  0.023879586            3 
 2207000   0.88964513   -7.6421753    631.68466  0.023851558  0.023872752            2 
 2208000   0.89815503   -7.6664834    629.30856  0.023751078  0.023866009            2 
 2209000   0.90706651   -7.6445691    630.91653  0.023800986  0.023859244            1 
 2210000   0.91081117   -7.6243746     631.8523  0.023825501  0.023852521            3 
 2211000   0.89479691   -7.6011199    633.46915  0.023875665  0.023845835            3 
 2212000   0.92245879   -7.6228837    633.14705  0.023852737  0.023839157            2 
 2213000   0.89681895   -7.6130155    633.74729  0.023864561  0.023832454            5 
 2214000   0.88773296   -7.6305824     631.2928  0.023761397  0.023825728            2 
 2215000   0.88780874   -7.6199105    632.37349  0.023791328  0.023818982            4 
 2216000   0.89699309   -7.6266962    632.22695  0.023775081  0.023812261            1 
 2217000    0.8999637   -7.6680349     632.5577  0.023776789  0.023805489            3 
 2218000   0.91364933   -7.6567603    632.09798  0.023748797  0.023798689            3 
 2219000   0.89319995   -7.6431927    631.64621  0.023721128  0.023791897            2 
 2220000   0.89766771   -7.6113053    633.81787  0.023791962  0.023785199            1 
 2221000   0.89580128   -7.6156181    633.39205  0.023765273  0.023778504            3 
 2222000   0.89352795   -7.6074223    632.77706  0.023731513  0.023771821            5 
 2223000   0.90320656   -7.6425141    633.12629  0.023733929  0.023765106            4 
 2224000   0.90407529   -7.6527313    631.85431  0.023675596  0.023758365            7 
 2225000   0.89817982   -7.6370132     632.1126  0.023674629  0.023751628            2 
 2226000   0.90404227   -7.6388895    633.83856  0.023728607  0.023744903            2 
 2227000   0.89485261   -7.6551171    632.71933  0.023676071  0.023738143            2 
 2228000   0.86650249   -7.6880914    631.05589  0.023603227  0.023731353            1 
 2229000   0.91160337    -7.647162    633.72242  0.023692329  0.023724546            1 
 2230000   0.89887372   -7.6532492    633.91245  0.023688806  0.023717766            1 
 2231000   0.90222286    -7.651588    632.52179  0.023626243  0.023711014            2 
 2232000   0.87881839   -7.6426249    634.04164  0.023672403  0.023704211            2 
 2233000   0.89174301   -7.5958177    633.87318  0.023655515  0.023697354            1 
 2234000   0.87873529   -7.6371704    634.07716  0.023652535  0.023690621            2 
 2235000   0.87648821   -7.6467737    634.23242  0.023647741  0.023683834            1 
 2236000   0.88247369   -7.6335942    633.50316  0.023609987  0.023677092            2 
 2237000   0.89080386    -7.624971    632.85016  0.023575107  0.023670338            1 
 2238000   0.89543131   -7.6702866    633.81159  0.023600372  0.023663581            2 
 2239000   0.90053771   -7.6440468    633.22369   0.02356795  0.023656779            4 
 2240000    0.9025906   -7.6199735    634.37845  0.023600389  0.023650012            3 
 2241000   0.90176562   -7.6288782    635.45681  0.023629957  0.023643272            1 
 2242000   0.89928419   -7.6185184    635.90327  0.023636012  0.023636508            3 
 2243000    0.8886545   -7.6247658    636.04406  0.023630705   0.02362981            8 
 2244000   0.89711129   -7.6211876    634.15692  0.023550094  0.023623058            2 
 2245000    0.8956046   -7.6583684    634.93341  0.023568427  0.023616219            5 
 2246000   0.89404899   -7.6540242    633.15669  0.023492011  0.023609331            1 
 2247000   0.91550761   -7.6750495      634.648  0.023536864  0.023602482            1 
 2248000    0.8976536   -7.7112947    634.74775  0.023530092   0.02359562            2 
 2249000   0.87581916   -7.6701752    634.93535  0.023526581  0.023588735            2 
 2250000   0.89553313   -7.6232473    635.77575   0.02354725  0.023581922            3 
 2251000   0.90160797   -7.6266765    636.85168  0.023576621  0.023575181            1 
 2252000   0.88476381   -7.6576994    635.63199  0.023521018  0.023568467            2 
 2253000   0.88450503   -7.6382908     637.5734  0.023582387  0.023561795            4 
 2254000   0.88438437   -7.6473579    637.05171  0.023552636  0.023555144            4 
 2255000   0.90325005   -7.6939566    635.11542  0.023470636  0.023548433            4 
 2256000   0.88531037   -7.6610385     635.4449  0.023472403  0.023541698            2 
 2257000   0.87906809   -7.6856456    635.52345  0.023464904  0.023534908            2 
 2258000   0.86793032   -7.6717055    638.82349  0.023576302  0.023528174            4 
 2259000   0.88820277   -7.6440278    637.34001  0.023511141  0.023521448            3 
 2260000   0.88006603   -7.6645415    638.73239  0.023552079  0.023514721            2 
 2261000   0.88500075   -7.6341203    637.86801  0.023509804  0.023508058            3 
 2262000   0.88828299   -7.6984496    636.52681      0.02345  0.023501303            2 
 2263000   0.88773898    -7.681052    636.88609  0.023452868   0.02349457            1 
 2264000   0.88801717   -7.6740843    636.57549  0.023431077  0.023487822            3 
 2265000   0.88797842   -7.6955519    636.34026  0.023412077  0.023480998            1 
 2266000   0.87757077   -7.6303783    637.57509  0.023447157   0.02347425            2 
 2267000   0.89359593   -7.6769047    637.47552  0.023433154  0.023467518            1 
 2268000   0.88738414   -7.6606837    636.61886  0.023391345  0.023460769            4 
 2269000    0.8837032   -7.6736092    637.78723  0.023423947  0.023453995            3 
 2270000   0.88245949   -7.6416497     636.9623  0.023383344  0.023447198            2 
 2271000   0.88583153   -7.6602933    637.11294  0.023378576   0.02344047            3 
 2272000    0.8792006   -7.6410043    637.84649  0.023395191  0.023433726            2 
 2273000   0.89656021   -7.6388908    636.72356  0.023343729  0.023426942            3 
 2274000   0.88934355   -7.6671238    637.07095  0.023346194  0.023420153            2 
 2275000   0.88692755    -7.637315    638.06559  0.023372366  0.023413446            3 
 2276000   0.89476978   -7.6758891    638.45405   0.02337632   0.02340669            2 
 2277000    0.8928808   -7.6800845    637.91029  0.023346153   0.02339993            1 
 2278000   0.88283806   -7.6855341    637.21766  0.023310567   0.02339317            1 
 2279000   0.86232949   -7.6799787    636.84686   0.02328678    0.0233864            3 
 2280000   0.89149079   -7.6553808    638.29784  0.023329599  0.023379638            3 
 2281000   0.89622466   -7.6745015    639.52202  0.023364095   0.02337291            3 
 2282000   0.87295705   -7.6801507    638.78313  0.023326875  0.023366149            2 
 2283000   0.87704194   -7.6745198     639.0994  0.023328201  0.023359385            3 
 2284000    0.8742856   -7.6477972    640.13592  0.023355805  0.023352715            1 
 2285000   0.88712279   -7.6586622    638.67717  0.023292384  0.023346032            2 
 2286000   0.90107703   -7.6695765    640.53243  0.023349826  0.023339351            3 
 2287000   0.88645282   -7.6243997    639.37168  0.023297321  0.023332663            2 
 2288000   0.87002375   -7.6655725    639.97372  0.023309066  0.023326053            3 
 2289000   0.89493832   -7.6679739    640.52428  0.023318927  0.023319425            1 
 2290000   0.88929819   -7.6703393    640.24913  0.023298731  0.023312777            3 
 2291000   0.87578711   -7.6701027     639.8482  0.023273978  0.023306076            3 
 2292000   0.89241678   -7.6566937    641.80315  0.023334902  0.023299381            2 
 2293000   0.86123663   -7.6872864    639.65272  0.023246574  0.023292707            2 
 2294000   0.87384731   -7.6861155    640.57509  0.023269947  0.023286017            1 
 2295000   0.87177646   -7.6794596    640.54895  0.023258858  0.023279294            1 
 2296000   0.90504343   -7.6620755    640.07971  0.023231697  0.023272571            7 
 2297000   0.87736369   -7.6953041    640.71621  0.023244674  0.023265864            5 
 2298000   0.88899273   -7.6588156    640.96716   0.02324366   0.02325915            3 
 2299000   0.88901237   -7.6991023    639.98789  0.023198053  0.023252417            1 
 2300000   0.89378143   -7.6783122    642.59105  0.023282285  0.023245674            2 
 2301000   0.87697395   -7.6911771    641.52775  0.023233657  0.023238968            2 
 2302000   0.88672206   -7.6669983    641.32298  0.023216152  0.023232263            1 
 2303000   0.87779391   -7.6715279    641.07834  0.023197219  0.023225523            2 
 2304000   0.87418754   -7.6673504    641.94122   0.02321836  0.023218818            1 
 2305000    0.8711599   -7.6893711    641.35688  0.023187161  0.023212035            2 
 2306000   0.86521481   -7.6820924    641.14255  0.023169361  0.023205305            3 
 2307000   0.87817921    -7.678892    642.13785   0.02319527  0.023198583            2 
 2308000   0.90712188   -7.6544818    644.02757  0.023253451  0.023191947            2 
 2309000    0.8864593   -7.6775328    642.62503  0.023192761  0.023185306            2 
 2310000     0.878992   -7.6776478    642.33033   0.02317209   0.02317861            1 
 2311000   0.86794092   -7.6480784    642.14342  0.023155323   0.02317197            3 
 2312000   0.88260787   -7.6872575    641.09272  0.023107437  0.023165341            2 
 2313000    0.8803667   -7.6716287    640.90895  0.023090825  0.023158681            2 
 2314000   0.88099215   -7.6924702    643.33919  0.023168366  0.023152042            3 
 2315000    0.9013866   -7.7183958    642.74384  0.023136927  0.023145394            3 
 2316000   0.88854984   -7.6868273    643.90902  0.023168862  0.023138714            2 
 2317000   0.88630002   -7.6553829    644.01683   0.02316274  0.023132036            2 
 2318000   0.88817247   -7.6874701    641.98341  0.023079645  0.023125395            2 
 2319000   0.89888318    -7.674034    644.64802  0.023165446  0.023118703            9 
 2320000   0.88077863   -7.6755374    641.75916  0.023051694  0.023112047            4 
 2321000    0.8852956    -7.665277    642.65599  0.023073962  0.023105375            2 
 2322000   0.89128238   -7.6826929    643.94321  0.023110221  0.023098713            2 
 2323000   0.88001828   -7.7068451    643.15792  0.023072102  0.023092092            2 
 2324000   0.88055473   -7.6609032    644.17899  0.023098788   0.02308546            3 
 2325000   0.89135215   -7.6867674     643.7605  0.023073853  0.023078847            3 
 2326000   0.86542962   -7.6527925    644.91284  0.023105218  0.023072209            2 
 2327000   0.85510717   -7.6887297    645.85313  0.023128962  0.023065534            2 
 2328000   0.85700949   -7.6904804    645.09959  0.023092053  0.023058892            2 
 2329000   0.86794129   -7.6812819    643.20322  0.023014284  0.023052227            2 
 2330000   0.87477772   -7.6977373    645.03441    0.0230699  0.023045636            2 
 2331000   0.88019462   -7.6747394    645.49312  0.023076402  0.023039076            2 
 2332000   0.88264064   -7.7232327    644.70525  0.023038352  0.023032452            5 
 2333000     0.874193   -7.6835272    646.32034  0.023086167  0.023025853            1 
 2334000    0.8767839   -7.7034325    647.13403  0.023105328  0.023019226            2 
 2335000   0.89183301   -7.6681881    645.05363  0.023021186   0.02301259            2 
 2336000   0.86314389   -7.6818759    645.50055  0.023027274  0.023006008            2 
 2337000   0.86650696   -7.6742891    647.34574  0.023083217  0.022999475            3 
 2338000   0.86996716   -7.6862307    645.15735  0.022995343  0.022992931            2 
 2339000   0.89384374   -7.6716697    646.55375  0.023035263  0.022986429            3 
 2340000   0.85707978   -7.6742544      646.321   0.02301713  0.022979819            3 
 2341000     0.860018    -7.682562    647.05938  0.023033582  0.022973276            1 
 2342000   0.87981931   -7.6835211    646.74197  0.023012453  0.022966715            5 
 2343000   0.87097387   -7.6692536    646.91476  0.023008777  0.022960115            2 
 2344000   0.88012505   -7.6697159    644.99225  0.022930612  0.022953546            2 
 2345000   0.88869062   -7.6547595    647.94606  0.023025802  0.022946997            3 
 2346000   0.87392295   -7.6843322    646.88421  0.022978268  0.022940431            1 
 2347000   0.87976436   -7.6901935    647.59063   0.02299356  0.022933923            3 
 2348000   0.89680145   -7.6654439     648.6693  0.023022051  0.022927431            3 
 2349000   0.88069091    -7.662465    647.33041  0.022964751  0.022920913            2 
 2350000   0.87777228   -7.7110835    646.70762  0.022932894  0.022914325            2 
 2351000   0.87559716   -7.7561022    645.06544  0.022864931  0.022907676            3 
 2352000    0.8833354    -7.682213    647.30492  0.022934556  0.022901049            3 
 2353000   0.88949482   -7.7087613    646.94911  0.022912208  0.022894474            2 
 2354000   0.88760875   -7.7278777    647.48584  0.022921475  0.022887871            2 
 2355000    0.8864161    -7.707362    647.24896   0.02290336  0.022881303            2 
 2356000   0.88429233   -7.6998718    646.70373  0.022874354  0.022874795            4 
 2357000   0.86310072   -7.6862976    648.93215  0.022943436  0.022868283            4 
 2358000   0.87367455   -7.7119823    646.97381  0.022864497  0.022861728            1 
 2359000   0.86099334   -7.6735585    649.78667  0.022954171  0.022855145            6 
 2360000   0.86200337   -7.6923996    647.26708  0.022855476  0.022848632            2 
 2361000    0.8698017   -7.7186127    647.52529  0.022854909  0.022842093            2 
 2362000   0.87816709   -7.6961713    648.16187  0.022867692  0.022835529            3 
 2363000   0.88387572   -7.6649893    648.80484   0.02288069   0.02282902            9 
 2364000   0.87507092   -7.7133047    647.73782  0.022833398  0.022822503            1 
 2365000    0.8661848   -7.7041465    647.53213  0.022816495  0.022815986            2 
 2366000    0.8814195   -7.6826672    648.63378  0.022845653  0.022809443            2 
 2367000   0.88468263   -7.7233164    646.99988  0.022778478  0.022802887            3 
 2368000   0.87717988   -7.6778892    649.52856  0.022857846  0.022796257            2 
 2369000   0.86397812   -7.6772263    650.97098  0.022898937  0.022789697            1 
 2370000   0.87653488   -7.6762952    649.10187  0.022823554  0.022783153            2 
 2371000   0.85374447   -7.6913935    648.62486  0.022797162  0.022776609            2 
 2372000   0.86991843   -7.7099011      647.246  0.022739109  0.022769982            4 
 2373000    0.8738157   -7.6907164    649.09402  0.022794424  0.022763329            4 
 2374000   0.87169549   -7.7328467    647.16413  0.022717078  0.022756687            3 
 2375000   0.86901818   -7.6784378     648.5387  0.022755744  0.022750034            3 
 2376000   0.87776445   -7.6874947    648.67274  0.022750868  0.022743454            1 
 2377000   0.85236012   -7.7028502    648.81158  0.022746164  0.022736869            2 
 2378000   0.86949621   -7.7148325    649.13932  0.022748084  0.022730249            3 
 2379000    0.8715293   -7.7085685    648.68234  0.022722514  0.022723612            1 
 2380000   0.87318216   -7.6937398    649.31395  0.022735082  0.022716907            5 
 2381000   0.87858027   -7.7249287    649.26611  0.022723859   0.02271024            4 
 2382000    0.8692719   -7.7359484    646.78135  0.022627391  0.022703561            1 
 2383000   0.86575717   -7.6835809    650.18136  0.022736794  0.022696903            2 
 2384000   0.87610448    -7.735008    648.75797  0.022677502   0.02269028            2 
 2385000   0.85644796   -7.7347907    648.48953  0.022658614  0.022683661            4 
 2386000   0.88319668   -7.7261938     651.5155  0.022754802  0.022677042            4 
 2387000   0.87849823   -7.6670346    651.00576  0.022727474  0.022670462            3 
 2388000    0.8572116   -7.6797252    650.90126   0.02271431  0.022663926            4 
 2389000   0.86650151   -7.6959984    651.64038  0.022730584  0.022657381            1 
 2390000   0.87481886   -7.7445845    649.79814  0.022656839  0.022650797            3 
 2391000   0.88611177   -7.7297112      648.974  0.022618639  0.022644206            4 
 2392000   0.87779606   -7.7152832    650.65807  0.022667854  0.022637659            3 
 2393000   0.85933524   -7.6869857    652.35094  0.022717333   0.02263114            3 
 2394000   0.87721273   -7.7180839    650.70987  0.022650719  0.022624621            1 
 2395000   0.87742642   -7.7065033    653.64781  0.022743487  0.022618096            2 
 2396000   0.85870328   -7.6918073    651.78253   0.02266912  0.022611589            3 
 2397000   0.86605692   -7.7109166    652.03358   0.02266839    0.0226051            1 
 2398000   0.87172012    -7.711245    652.65938  0.022680685  0.022598576            2 
 2399000   0.85704878   -7.6693614    653.54122  0.022701863  0.022592098            2 
 2400000   0.87121549   -7.6838999    653.03412  0.022674796  0.022585675            1 
 2401000   0.88531016    -7.702688     653.5266  0.022682445  0.022579277            1 
 2402000   0.86142572   -7.7076417    652.99958  0.022654718  0.022572839            2 
 2403000   0.86962549   -7.7106775    653.75838  0.022671604  0.022566415            2 
 2404000   0.87718089   -7.7368475    651.63753  0.022588655  0.022559995            1 
 2405000   0.86551024   -7.7261875    653.46464  0.022642572  0.022553539            2 
 2406000    0.8674153   -7.7494399    654.00368  0.022651832  0.022547124            3 
 2407000    0.8678642   -7.6954985    654.84902  0.022671688  0.022540719            2 
 2408000   0.87334792   -7.6791531     656.0219  0.022702862  0.022534346            2 
 2409000   0.87428833     -7.70109    653.82183  0.022617332  0.022527952            4 
 2410000      0.86117   -7.6959037    654.19758   0.02262094  0.022521509            1 
 2411000    0.8767779   -7.6995852    653.83454  0.022599009  0.022515111            1 
 2412000   0.84392552   -7.6980718    654.14814  0.022600475   0.02250872            5 
 2413000   0.86967613   -7.7376585    654.25709  0.022594871  0.022502282            3 
 2414000   0.85346756   -7.6905528    654.44722  0.022592075  0.022495898            5 
 2415000   0.86764881   -7.7060123    654.49172  0.022584255   0.02248952            1 
 2416000   0.85876497   -7.7176937    654.83706  0.022586819  0.022483059            1 
 2417000   0.87334302   -7.7160142    654.62159  0.022570045  0.022476616            3 
 2418000   0.83780469    -7.710341    656.07045  0.022610644  0.022470205            2 
 2419000    0.8656566   -7.7108085    654.07256  0.022532471  0.022463835            4 
 2420000   0.86887751   -7.7145353    653.70515  0.022510508  0.022457439            2 
 2421000   0.86728063   -7.7015321    654.31142  0.022522078   0.02245102            1 
 2422000   0.86818138   -7.7178534    653.78819  0.022494777  0.022444541            3 
 2423000   0.87650691   -7.7366854     653.8123  0.022486322  0.022438074            6 
 2424000    0.8577228   -7.7411981    655.25534  0.022526655  0.022431615            3 
 2425000   0.87601301    -7.712862    653.92304  0.022471582   0.02242514            3 
 2426000   0.87082544   -7.7765155    652.29978   0.02240656  0.022418583            1 
 2427000   0.86547803   -7.7366042    654.92622  0.022487509  0.022412016            3 
 2428000   0.86981931   -7.7495153    653.38726  0.022425428  0.022405468            2 
 2429000   0.86636016   -7.7598345    654.18868   0.02244369   0.02239892            3 
 2430000   0.85834308   -7.7579042     655.0081  0.022462555  0.022392382            1 
 2431000    0.8780357   -7.7394257    653.46911  0.022400559  0.022385827            4 
 2432000   0.85764032   -7.7225894    655.37629  0.022456699  0.022379254            3 
 2433000   0.87177654   -7.7131083    655.83195  0.022463076  0.022372696            4 
 2434000   0.87903491    -7.722478    655.14665  0.022430384  0.022366165            2 
 2435000   0.86426452   -7.7351188    654.03529  0.022383138  0.022359664            5 
 2436000   0.86474755   -7.7059235    656.60231  0.022461765  0.022353164            2 
 2437000   0.86577219   -7.7386895    655.39028  0.022411103  0.022346671            1 
 2438000   0.86391815   -7.7548388    654.26997  0.022363617  0.022340116            3 
 2439000   0.85314782   -7.7380408    653.87711  0.022341025  0.022333609            2 
 2440000   0.86331244   -7.7276362     656.4998  0.022421441  0.022327137            1 
 2441000   0.83448402   -7.7024384    656.19887  0.022401982  0.022320635            2 
 2442000   0.85507119   -7.7692571    653.32216  0.022294641  0.022314068            2 
 2443000   0.86936904   -7.7313557    655.56482  0.022362015  0.022307535            1 
 2444000   0.83628282   -7.7189014    655.95203  0.022366068  0.022301023            2 
 2445000   0.87110806   -7.7513313    656.74979   0.02238411  0.022294467            1 
 2446000   0.87111157   -7.7384143    655.83924  0.022343937  0.022287918            3 
 2447000   0.86696976   -7.7451114     656.6121  0.022361126  0.022281414            2 
 2448000    0.8734282   -7.7424789    657.37254  0.022377878  0.022274925            2 
 2449000   0.84224194   -7.8070618    655.04699  0.022289608  0.022268392            1 
 2450000   0.87173342   -7.7632611    655.34238  0.022290557  0.022261842            2 
 2451000   0.84796107   -7.7149088    656.14713  0.022308824  0.022255299            4 
 2452000   0.86272725   -7.7096008    656.43488  0.022309505  0.022248833            2 
 2453000   0.87350874   -7.7340542    655.99244   0.02228538  0.022242374            4 
 2454000   0.85927209   -7.7115889    658.28938  0.022354298  0.022235873            2 
 2455000   0.87580953   -7.7166546    656.84891  0.022296297  0.022229417            2 
 2456000   0.83966813   -7.7327021    656.90809  0.022289227  0.022222948            2 
 2457000   0.84870956   -7.7363392    657.17001  0.022289038  0.022216514            2 
 2458000   0.86045672   -7.7437968    657.07815  0.022276856  0.022210029            2 
 2459000   0.85525018    -7.731672    657.38765  0.022278285  0.022203564            3 
 2460000   0.85249747   -7.7409278    658.12966  0.022294365  0.022197043            6 
 2461000   0.83626725   -7.7333616    656.11771  0.022217178  0.022190577            2 
 2462000   0.88416936   -7.7078839    657.36031  0.022250214  0.022184111            2 
 2463000   0.85950433   -7.7406607    655.31103  0.022171844  0.022177628            4 
 2464000   0.86135549   -7.7242725    658.07292  0.022256254  0.022171085            1 
 2465000   0.87627436   -7.7285165     657.3626  0.022223212  0.022164603            2 
 2466000   0.85127312   -7.7281929    656.96627  0.022200807  0.022158112            4 
 2467000   0.83774893   -7.6996603    656.31263  0.022169728  0.022151613            2 
 2468000   0.86648043   -7.7183507    659.00045  0.022251501  0.022145199            2 
 2469000   0.83189971   -7.7366526    658.43799  0.022223505  0.022138731            2 
 2470000   0.88124243   -7.6796179    660.15171  0.022272325  0.022132295            3 
 2471000   0.87564609   -7.7244359    658.27825   0.02220013  0.022125857            2 
 2472000   0.87426693   -7.7184891    660.23245  0.022257027  0.022119397            2 
 2473000   0.86499485     -7.72373    658.58695  0.022192578  0.022112966            2 
 2474000   0.85470959   -7.7221721    657.77791  0.022156357  0.022106489            5 
 2475000   0.84892612   -7.7720022    658.18067  0.022160965  0.022099994            2 
 2476000   0.87085402   -7.7415677    657.88537  0.022142076  0.022093446            1 
 2477000   0.85853797   -7.7576467    656.96451  0.022102157  0.022086906            2 
 2478000   0.86204535   -7.7044306    659.11737  0.022165637  0.022080442            1 
 2479000   0.83763466   -7.7083395    659.54825   0.02217118  0.022074002            2 
 2480000   0.85588049   -7.7542144    657.51224  0.022093825   0.02206751            2 
 2481000   0.85082633   -7.7205674    658.30305  0.022111482  0.022061005            3 
 2482000   0.85884162   -7.7417561    658.83105  0.022120301  0.022054556            2 
 2483000   0.86191412   -7.7445415    658.38359  0.022096375   0.02204804            2 
 2484000   0.86737795   -7.7260707    659.01827  0.022108772  0.022041608            5 
 2485000   0.85808782   -7.7878363    656.73856  0.022023426  0.022035136            3 
 2486000   0.84604045   -7.7436685    658.37219  0.022069328  0.022028621            1 
 2487000   0.86132402    -7.727806    659.62013  0.022102269  0.022022096            4 
 2488000   0.85327821   -7.7457405    658.79493  0.022065747  0.022015542            3 
 2489000    0.8487179   -7.7643157    660.34806  0.022108881  0.022009006            1 
 2490000   0.85736152   -7.7665421    658.97167  0.022053938  0.022002473            2 
 2491000   0.87242468   -7.7363356    660.04609  0.022081028  0.021995981            2 
 2492000   0.84336962   -7.7389907    661.38848  0.022117057  0.021989536            2 
 2493000   0.84520226   -7.7689352    660.29496  0.022071632  0.021983056            4 
 2494000   0.83973442   -7.7325837    658.93009  0.022017178  0.021976521            3 
 2495000   0.83739083   -7.7869065    659.13472  0.022015188  0.021969966            1 
 2496000   0.85626536   -7.7550238    659.86119  0.022030622  0.021963422            2 
 2497000   0.86686654   -7.7385141     658.5611  0.021978411  0.021956898            1 
 2498000   0.83838898   -7.7643878    659.92081  0.022014972  0.021950413            2 
 2499000   0.85770752   -7.7274671    658.71796  0.021966052  0.021943946            2 
 2500000    0.8532949   -7.7545909    660.07605  0.022002535  0.021937435            2 
 2501000   0.85076982   -7.7538175    659.71772  0.021981798  0.021930977            2 
 2502000   0.84846916   -7.7691456    658.94904   0.02194741  0.021924463            1 
 2503000    0.8500196   -7.7419546    657.82967  0.021901374  0.021917919            2 
 2504000   0.83796158   -7.7424858    659.69082  0.021954567  0.021911407            3 
 2505000    0.8422877   -7.7668991    661.71867  0.022013263  0.021904893            4 
 2506000   0.85483765   -7.7815952    659.21371   0.02192118  0.021898391            3 
 2507000    0.8423454   -7.7608377    660.24369  0.021946672  0.021891867            2 
 2508000   0.85197917   -7.7517809    659.42741  0.021910799  0.021885382            1 
 2509000    0.8391914   -7.8034615    659.54277  0.021905898  0.021878896            1 
 2510000   0.84983019   -7.7442745     661.4889  0.021961783   0.02187243            2 
 2511000    0.8502612   -7.7437795    661.04485    0.0219383  0.021865997            2 
 2512000   0.85993616    -7.745071    660.71545  0.021918639  0.021859561            2 
 2513000   0.82896231   -7.7650932    660.72663  0.021910288  0.021853066            3 
 2514000   0.83563746   -7.7516267      661.549  0.021928832  0.021846608            2 
 2515000   0.84690375   -7.7712813    660.28771   0.02187832  0.021840156            2 
 2516000   0.83122629   -7.7931339    659.16301  0.021832373  0.021833651            2 
 2517000   0.84205946   -7.7800662    661.09704  0.021887731  0.021827154            2 
 2518000   0.85603552   -7.7545456    662.66943  0.021931077  0.021820661            2 
 2519000   0.83905031   -7.7477817    661.78319  0.021893053  0.021814225            4 
 2520000    0.8445431   -7.7909638    661.63905  0.021879598  0.021807777            3 
 2521000   0.83690352    -7.793881    661.19121  0.021856116  0.021801296            3 
 2522000   0.85768523   -7.7496539    663.35733  0.021919024   0.02179483            3 
 2523000   0.86186455   -7.7324277    662.57435  0.021884475  0.021788366            4 
 2524000   0.83692479   -7.7245954    662.82279  0.021884006  0.021781888            6 
 2525000   0.83879246   -7.7401796    662.21104   0.02185515   0.02177541            1 
 2526000   0.84813915   -7.7461638    662.86861  0.021868191  0.021768964            2 
 2527000   0.83597966   -7.7279907    663.68685  0.021886521  0.021762567            2 
 2528000   0.85248049   -7.7553799    664.56349  0.021906761  0.021756182            4 
 2529000   0.84805427   -7.7391238    664.78601  0.021905431   0.02174982            1 
 2530000   0.87016092   -7.7777927    663.22681  0.021845415  0.021743413            3 
 2531000   0.82942383    -7.764835    663.03127  0.021830346  0.021737013            1 
 2532000   0.86315989   -7.7771312    663.20415  0.021827414  0.021730598            2 
 2533000   0.85189228   -7.7418565    662.58544  0.021798442  0.021724178            2 
 2534000   0.83911303   -7.7474273    662.66735  0.021792533  0.021717729            3 
 2535000    0.8675642   -7.7807848    663.29405  0.021804538  0.021711266            2 
 2536000   0.83268044   -7.7699643    662.69818   0.02177636  0.021704801            4 
 2537000   0.85586022   -7.7460599    664.43573   0.02182485  0.021698359            3 
 2538000   0.84992756   -7.7567297    662.39595  0.021749276   0.02169188            1 
 2539000   0.84833829   -7.7668065    663.30201  0.021770448  0.021685421            2 
 2540000    0.8386597   -7.7529314    663.27865   0.02176111  0.021679027            1 
 2541000   0.85297853   -7.7455563    665.38665   0.02182168  0.021672662            3 
 2542000   0.86655862   -7.7632439    666.29777  0.021842964  0.021666292            3 
 2543000   0.85386921   -7.7302013    666.59566  0.021844136  0.021659926            3 
 2544000   0.84080838   -7.7315259    665.69309  0.021805984  0.021653566            2 
 2545000   0.82496556   -7.7538162    664.09659  0.021745141  0.021647199            3 
 2546000   0.83070921   -7.7726345    664.86977  0.021761907   0.02164085            4 
 2547000   0.85556331   -7.7778471    664.99035  0.021757308  0.021634486            1 
 2548000   0.84744149   -7.7803849    665.38927  0.021761815  0.021628133            4 
 2549000     0.834309   -7.7616007    664.13194  0.021712173  0.021621772            2 
 2550000    0.8616575   -7.7734479    665.41453  0.021745573  0.021615407            3 
 2551000   0.85382458   -7.7450537    666.74357  0.021780464  0.021609071            2 
 2552000   0.85873651   -7.7819791    664.06618  0.021684502    0.0216027            2 
 2553000   0.83266514   -7.7828426    665.02946  0.021707451  0.021596305            2 
 2554000   0.83622382   -7.7978451    664.70384  0.021688327  0.021589913            2 
 2555000   0.84929991   -7.7545065    664.32672  0.021667538  0.021583481            6 
 2556000   0.82489619    -7.772062    665.76519   0.02170596  0.021577088            4 
 2557000    0.8419075   -7.7785763    665.77916  0.021697926  0.021570681            2 
 2558000   0.86182206   -7.7940572    664.77258  0.021656652  0.021564313            2 
 2559000   0.83450171   -7.7617238    666.59051  0.021707389  0.021557921            3 
 2560000   0.84421004    -7.769859    664.31112  0.021624711  0.021551528            3 
 2561000   0.83823852   -7.8020838    665.85913  0.021666638  0.021545141            4 
 2562000   0.84038396   -7.8014598    664.87727  0.021626245  0.021538739            2 
 2563000   0.85086404    -7.782619    666.11196  0.021657952  0.021532326            3 
 2564000   0.84372619    -7.743792    667.23892  0.021686132  0.021525951            2 
 2565000   0.87111201   -7.7815252    663.99286  0.021572218  0.021519562            3 
 2566000   0.83516012   -7.7842518    666.06792    0.0216312  0.021513157            4 
 2567000   0.84215792   -7.7419878    666.52971  0.021637765  0.021506766            2 
 2568000   0.83059281   -7.7532423    667.26592   0.02165323  0.021500417            3 
 2569000   0.85456657   -7.7469339    668.75714  0.021693173  0.021494112            2 
 2570000    0.8398548   -7.7735604    665.93653  0.021593273  0.021487788            2 
 2571000    0.8400866   -7.8132093    666.41028   0.02160023  0.021481443            2 
 2572000   0.84505192   -7.7654223    667.12995  0.021615149  0.021475054            3 
 2573000   0.85166442   -7.7952681    665.48709   0.02155354  0.021468689            2 
 2574000   0.84452969   -7.7834123    666.41696  0.021575271  0.021462344            2 
 2575000   0.84899065   -7.7528411    666.68447  0.021575549  0.021456033            3 
 2576000   0.83744042   -7.7822319    666.90227  0.021574219  0.021449668            2 
 2577000   0.82378441   -7.7601236    666.22289  0.021543878  0.021443281            2 
 2578000   0.84360195   -7.7985382    666.60865  0.021547991  0.021436914            2 
 2579000   0.85379521   -7.7963582    664.94575  0.021485904  0.021430531            1 
 2580000    0.8369234   -7.7956305    668.62636  0.021596459   0.02142414            4 
 2581000   0.85458513   -7.8176271    667.01628  0.021536106  0.021417759            5 
 2582000   0.83684347   -7.7942197    666.83416  0.021521887  0.021411386            2 
 2583000   0.82847327   -7.7891827    666.13982  0.021491154  0.021404995            3 
 2584000   0.83731422   -7.8170359    666.85616  0.021505939  0.021398575            3 
 2585000   0.85987101   -7.7727075     665.2227  0.021444961  0.021392155            1 
 2586000   0.82771363   -7.8206194    665.19496  0.021435775  0.021385721            2 
 2587000    0.8446142   -7.7788914    667.60854  0.021505236   0.02137934            2 
 2588000   0.86063317   -7.7835186    667.78036  0.021502459  0.021372975            1 
 2589000   0.82194011    -7.796865    666.43204  0.021450755  0.021366587            1 
 2590000     0.854359   -7.8042215    668.61014  0.021512553  0.021360235            2 
 2591000    0.8340286   -7.7908718    668.56544  0.021502812  0.021353869            4 
 2592000   0.82610785   -7.7851852    666.97244  0.021443301  0.021347511            2 
 2593000   0.85046032   -7.7684015    668.58462  0.021486843  0.021341187            2 
 2594000   0.84214106   -7.7583847    669.16629  0.021497247  0.021334856            3 
 2595000   0.83288226   -7.7478776    669.07056  0.021485888  0.021328514            3 
 2596000   0.82949708   -7.7790999    667.81704  0.021437373  0.021322194            4 
 2597000   0.83861383   -7.8125102    668.37334  0.021446969  0.021315861            2 
 2598000   0.85289877   -7.7941727    669.60278  0.021478149  0.021309559            5 
 2599000   0.82472753   -7.8125434    670.58494  0.021501377   0.02130326            2 
 2600000   0.83669422   -7.8202902    668.78909  0.021435548  0.021296965            1 
 2601000    0.8221139   -7.8022226    669.18477  0.021439984  0.021290694            2 
 2602000   0.83680099   -7.8354477    668.53238   0.02141085  0.021284399            3 
 2603000   0.82664745   -7.8062984    669.92283  0.021447139  0.021278034            2 
 2604000    0.8439182   -7.7725833     670.3098  0.021451286  0.021271676            5 
 2605000   0.85069154   -7.7673705    669.83205  0.021427769  0.021265382            2 
 2606000   0.80476668   -7.7803726    668.54566  0.021378411  0.021259105            3 
 2607000   0.83261966   -7.7908919    670.57638  0.021435123  0.021252815            2 
 2608000   0.82024623   -7.7709923     670.8145  0.021434512  0.021246526            2 
 2609000   0.82612014   -7.7739026    669.44829  0.021382659  0.021240232            3 
 2610000   0.83376337   -7.7805131    669.11222  0.021363736   0.02123396            2 
 2611000   0.83558556   -7.8003449    669.72517  0.021375117  0.021227708            4 
 2612000   0.81506699    -7.775408    669.87922  0.021371848  0.021221451            3 
 2613000   0.83239237   -7.7560859    670.54128  0.021384784  0.021215196            2 
 2614000    0.8499578   -7.7771565    669.62294  0.021347327  0.021208957            3 
 2615000   0.82731934   -7.8030681    669.89878  0.021347953  0.021202721            1 
 2616000   0.82292661   -7.7539638    670.94808  0.021373219  0.021196432            3 
 2617000   0.84391634   -7.7951973      670.038  0.021336072  0.021190141            4 
 2618000   0.83224259    -7.836722    669.15652  0.021299864  0.021183816            2 
 2619000   0.83488139   -7.8222267    670.31782  0.021328682  0.021177505            4 
 2620000   0.82039419   -7.7931621    671.73365  0.021365574  0.021171234            3 
 2621000   0.83312422   -7.7641324    671.57865  0.021352494  0.021164966            4 
 2622000   0.82261347   -7.8154365    670.48943  0.021309733  0.021158647            1 
 2623000   0.82397604   -7.7780405    669.82467  0.021280489  0.021152367            2 
 2624000    0.8458201   -7.8071327    668.94113  0.021244319  0.021146073            1 
 2625000   0.82721477   -7.8221986    670.75219   0.02129372  0.021139771            1 
 2626000   0.82636264   -7.8060458    670.34599  0.021272721  0.021133486            2 
 2627000   0.83280713   -7.7997191     671.7972  0.021310659  0.021127175            2 
 2628000   0.83643934   -7.8053423    671.23715   0.02128479  0.021120924            3 
 2629000   0.83004375   -7.8237433    668.73172  0.021197278    0.0211146            2 
 2630000   0.84940869   -7.8055085    668.86931  0.021193578  0.021108274            2 
 2631000   0.83408707   -7.8127476    671.28075  0.021261901  0.021101971            4 
 2632000    0.8525293   -7.8400521     670.3454  0.021224208  0.021095639            3 
 2633000   0.83194047   -7.8068606    671.35933  0.021248238  0.021089331            1 
 2634000   0.82912961   -7.8139251    671.19673  0.021235027  0.021083059            2 
 2635000   0.82851586   -7.7654567    672.67756    0.0212738  0.021076805            2 
 2636000   0.83929868   -7.8183634     669.3057  0.021159133  0.021070542            4 
 2637000   0.82944665   -7.8044386    670.60905  0.021192297  0.021064235            2 
 2638000   0.84485178   -7.8309496    670.78811   0.02118992  0.021057903            1 
 2639000    0.8311642   -7.7989785    672.26032  0.021228379  0.021051574            2 
 2640000    0.8343338   -7.8308855    669.99017   0.02114868   0.02104525            3 
 2641000   0.82526707   -7.7967321    670.90345  0.021169489   0.02103895            3 
 2642000   0.83113091   -7.8195678    671.54949  0.021181854  0.021032613            3 
 2643000   0.82108622   -7.7495076    673.19196  0.021225626  0.021026338            1 
 2644000   0.83579385   -7.8088754    671.23028   0.02115577  0.021020065            1 
 2645000   0.82248295   -7.7993856    672.30417  0.021181606  0.021013772            3 
 2646000   0.84764898   -7.8049257    671.76915  0.021156751  0.021007473            2 
 2647000   0.83651031   -7.7672454    671.90318  0.021152978  0.021001186            2 
 2648000   0.82493992    -7.774606    671.94506  0.021146307  0.020994917            3 
 2649000   0.83158743   -7.8020369     671.8457  0.021135199  0.020988638            2 
 2650000   0.81573631   -7.8066321    670.90969  0.021097789  0.020982316            2 
 2651000   0.82808179   -7.7929038    672.11267  0.021127646  0.020976019            4 
 2652000   0.84818653   -7.8064239    672.87015  0.021143481  0.020969675            2 
 2653000      0.81675   -7.7894773    671.99285  0.021107955  0.020963339            4 
 2654000   0.80673267   -7.8007657    672.05166  0.021101848  0.020957016            2 
 2655000   0.83904742   -7.8094355    671.50067  0.021076606   0.02095074            5 
 2656000   0.82937638   -7.8400759    670.44133  0.021035433  0.020944427            1 
 2657000    0.8316458   -7.8055058     671.2846  0.021053964  0.020938106            3 
 2658000   0.80531103   -7.7942748    672.51584  0.021084645  0.020931805            3 
 2659000   0.82401696   -7.8023676    671.37736  0.021041036  0.020925481            2 
 2660000   0.81559285   -7.7994146    671.94619  0.021050946  0.020919159            2 
 2661000    0.8067936   -7.8288212    671.22337  0.021020399  0.020912822            2 
 2662000   0.82741599   -7.8202992     671.0493  0.021007053  0.020906469            1 
 2663000   0.81244322   -7.8092315    672.22697  0.021036017  0.020900152            2 
 2664000    0.8351571   -7.8414044    672.18975  0.021026957  0.020893834            3 
 2665000    0.8231213   -7.8149442     672.2052   0.02101955  0.020887525            2 
 2666000   0.81970846    -7.815358    672.32055  0.021015271  0.020881225            3 
 2667000   0.84538695   -7.8314646    669.89301   0.02093154  0.020874878            4 
 2668000   0.82423666    -7.817878    671.24151  0.020965814  0.020868544            2 
 2669000   0.83616994   -7.8217126    671.87252  0.020977661  0.020862212            5 
 2670000   0.82233537   -7.8110588     672.1782  0.020979345  0.020855894            7 
 2671000   0.83009221   -7.7935031    672.90913  0.020994295  0.020849552            4 
 2672000   0.83114278   -7.8116832    672.96167  0.020988076    0.0208432            1 
 2673000   0.81178523     -7.81357    672.66436  0.020970955  0.020836878            4 
 2674000   0.84117675   -7.8474247    672.26792  0.020950758  0.020830536            1 
 2675000    0.8306518   -7.7889081    673.79713  0.020990565   0.02082419            2 
 2676000   0.84294489   -7.7893351    672.80469  0.020951815  0.020817834            4 
 2677000   0.84222648   -7.7936766     673.6735  0.020971034   0.02081148            3 
 2678000   0.82055751   -7.8251854    672.24239   0.02091867  0.020805145            4 
 2679000   0.83201416   -7.8143329    672.28325  0.020912133   0.02079881            1 
 2680000   0.84302055   -7.8004247    672.71483   0.02091775  0.020792455            2 
 2681000      0.83917   -7.8054934     672.8899  0.020915389  0.020786116            2 
 2682000   0.81683428   -7.8110943     673.0922  0.020913877  0.020779762            1 
 2683000   0.81076977   -7.8204836    672.49922  0.020887664  0.020773405            2 
 2684000   0.82762441   -7.8215514    672.52379  0.020880644  0.020767072            3 
 2685000     0.815893   -7.8095483    672.60833  0.020875491  0.020760738            2 
 2686000    0.8168353   -7.8003165    672.22485  0.020855822   0.02075439            1 
 2687000   0.80658804   -7.7693203     674.2896  0.020912095  0.020748079            2 
 2688000   0.82111999   -7.8222699    672.06085   0.02083522  0.020741736            4 
 2689000   0.81874757   -7.8459174    671.29881  0.020803856  0.020735404            1 
 2690000   0.83702902   -7.8459788    672.13336  0.020821975  0.020729066            3 
 2691000   0.82359491    -7.844852    673.80469  0.020865994  0.020722741            3 
 2692000   0.82167978   -7.8414215    672.32936  0.020812573  0.020716433            1 
 2693000   0.82079461   -7.8199759    675.48465  0.020902483  0.020710116            2 
 2694000   0.81943253   -7.8220785    673.92006  0.020846327  0.020703819            4 
 2695000   0.81305653   -7.8552303    673.29269  0.020819193  0.020697508            2 
 2696000   0.82719937   -7.8278681    674.70965  0.020855269  0.020691224            1 
 2697000   0.81908806   -7.8474882    674.73225  0.020848234  0.020684928            2 
 2698000   0.81993914   -7.8350381    674.78243  0.020842057  0.020678669            2 
 2699000   0.80792116   -7.8265681    673.14373  0.020783739  0.020672386            2 
 2700000   0.81654464    -7.810027    673.92634  0.020800196  0.020666084            6 
 2701000   0.82120464   -7.8076312    676.19664   0.02086254  0.020659755            2 
 2702000   0.80041977   -7.8253457    673.94634  0.020785416   0.02065345            3 
 2703000   0.80707674   -7.8091329    676.17088  0.020846309   0.02064712            2 
 2704000   0.81571477   -7.8334294    673.19532  0.020746897   0.02064084            2 
 2705000   0.81934299   -7.8374567    674.32582  0.020774055  0.020634536            3 
 2706000   0.82617617   -7.8154446    674.43906  0.020769865  0.020628241            1 
 2707000   0.81193977   -7.8209316    674.53385  0.020765111  0.020621977            1 
 2708000   0.83269574   -7.8302415    674.66369  0.020761438  0.020615735            2 
 2709000   0.81691379   -7.8338707    674.51169  0.020749098  0.020609443            2 
 2710000   0.82119501   -7.8368808    674.53837  0.020742262  0.020603121            6 
 2711000   0.80399613   -7.8454137    674.77089  0.020741759  0.020596811            2 
 2712000   0.83131036   -7.8458996    674.91909  0.020738664  0.020590486            5 
 2713000   0.81422032   -7.8638225    673.94502    0.0207011  0.020584162            1 
 2714000   0.81436755   -7.8401874    674.52762  0.020711362  0.020577865            2 
 2715000    0.8258536   -7.8514662    674.55371  0.020704534  0.020571557            2 
 2716000   0.81842876   -7.8511708    675.63784  0.020730174  0.020565217            3 
 2717000   0.82674986   -7.8553696     673.6855  0.020662664  0.020558859            3 
 2718000   0.82835969   -7.8229136    674.37427   0.02067618  0.020552511            1 
 2719000   0.82249517   -7.8182684    675.64532  0.020707531   0.02054623            2 
 2720000   0.80945426   -7.8577238    675.22949  0.020687178  0.020539976            3 
 2721000   0.80228669   -7.8364198    676.94815  0.020732211  0.020533721            3 
 2722000   0.80425618   -7.8288089    676.22964  0.020702597  0.020527469            3 
 2723000   0.79038809   -7.8527388    676.28594  0.020696717  0.020521214            1 
 2724000   0.81654111   -7.8245277    677.40527  0.020723362     0.020515            4 
 2725000    0.8072045   -7.8216977    677.87549  0.020730137  0.020508768            2 
 2726000   0.82157275   -7.8379384    678.25363  0.020734093  0.020502541            2 
 2727000   0.81093799   -7.8631505    675.59671  0.020645297  0.020496316            2 
 2728000   0.80615997   -7.8653532    674.93101  0.020617394  0.020490068            4 
 2729000   0.81553998   -7.8274529    676.02331  0.020643194    0.0204838            2 
 2730000   0.80702181   -7.8461325    674.86108  0.020600155  0.020477523            1 
 2731000    0.8353039   -7.8084348    677.54557  0.020674526  0.020471271            1 
 2732000    0.8010653    -7.849676    676.91809  0.020647819   0.02046501            4 
 2733000   0.79774713   -7.8510002    676.18275  0.020617842  0.020458743            1 
 2734000   0.82945943   -7.8104933    677.69807  0.020656488   0.02045247            2 
 2735000   0.82913207   -7.8277927    678.14213  0.020662466  0.020446227            5 
 2736000   0.82223702   -7.8173444    676.04636  0.020591081  0.020439978            3 
 2737000   0.81568196   -7.8501533     677.2673  0.020620731  0.020433701            3 
 2738000   0.82020206   -7.8501166    676.04673  0.020576051  0.020427408            2 
 2739000   0.80506191   -7.8455446    677.33895  0.020607854   0.02042112            2 
 2740000   0.80244266   -7.8469118    677.79032  0.020614061  0.020414865            2 
 2741000   0.80530334    -7.844403    677.56919  0.020599817   0.02040864            1 
 2742000   0.80370299   -7.8664178    677.16277  0.020579953  0.020402423            3 
 2743000   0.79708187   -7.8368887    676.98327  0.020566997   0.02039619            3 
 2744000   0.82470348   -7.8215931    676.97255  0.020559176  0.020389997            2 
 2745000   0.82822667   -7.8329052    678.54038  0.020599283  0.020383808            2 
 2746000   0.78294978   -7.8241676    678.49251  0.020590329  0.020377635            2 
 2747000   0.79211485   -7.8377617    677.09074  0.020540309  0.020371459            2 
 2748000   0.84206806   -7.8455208    679.02977  0.020591635  0.020365298            1 
 2749000   0.79201509   -7.8698123    677.09805  0.020525586  0.020359084            2 
 2750000   0.82560098   -7.8721423    677.80901  0.020539667  0.020352865            5 
 2751000   0.83051791   -7.8452536    678.50142  0.020553175  0.020346675            6 
 2752000   0.80015981     -7.86696    678.90361  0.020557886  0.020340485            2 
 2753000    0.8033642   -7.8686718    678.83358  0.020548298  0.020334276            1 
 2754000   0.80504892   -7.8472705    678.58366  0.020533275  0.020328071            5 
 2755000   0.81939624   -7.8552823    678.70917  0.020529618  0.020321877            2 
 2756000   0.82703691   -7.8451513    680.77908  0.020584757  0.020315687            2 
 2757000   0.81731009   -7.8663405    677.41264  0.020475536  0.020309514            3 
 2758000   0.80116629   -7.8292882       678.12  0.020489485  0.020303344            2 
 2759000   0.79784732   -7.8443891    677.19024  0.020453976  0.020297191            3 
 2760000   0.79074724   -7.8481199    677.17112  0.020445988  0.020291024            2 
 2761000    0.7990698   -7.8435564    678.10287  0.020466705  0.020284842            4 
 2762000   0.80446554   -7.8623534    678.19407  0.020462047  0.020278639            5 
 2763000   0.80390798   -7.8579261    677.92001  0.020446375  0.020272409            2 
 2764000   0.82095889   -7.8508096    677.53842  0.020427473  0.020266244            2 
 2765000   0.80541413   -7.8523939    679.17557  0.020469426  0.020260076            1 
 2766000   0.82131917   -7.8386977    679.36546  0.020467747  0.020253893            2 
 2767000   0.81873929   -7.8438328    679.93431  0.020477482  0.020247716            1 
 2768000   0.81495667   -7.8200368    678.81936  0.020436517  0.020241581            2 
 2769000   0.82260824   -7.8384602    679.00274  0.020434656  0.020235402            2 
 2770000   0.81369057   -7.8182727    679.36682  0.020438232  0.020229242            3 
 2771000   0.78654055   -7.8612007    679.12526  0.020423591  0.020223067            4 
 2772000   0.78510097    -7.866072     678.4815   0.02039687  0.020216875            1 
 2773000   0.81068645   -7.8607932    678.56916  0.020392149  0.020210672            1 
 2774000   0.82602652    -7.844782    679.49728   0.02041268   0.02020446            4 
 2775000   0.80571573   -7.8507929    678.24918  0.020367843  0.020198267            2 
 2776000    0.8175843   -7.8772679    676.99292  0.020322794  0.020192026            1 
 2777000   0.82357224   -7.8547526    678.18754  0.020351324   0.02018577            2 
 2778000   0.80468028    -7.864074    679.09466   0.02037121  0.020179518            3 
 2779000    0.8064447   -7.8624881    676.90561  0.020298237  0.020173283            2 
 2780000   0.82089029   -7.8833416    678.00034  0.020323751  0.020167027            2 
 2781000   0.80511369   -7.8824615    677.38319   0.02029795  0.020160783            4 
 2782000   0.80548216   -7.8402984    678.02018  0.020309735  0.020154504            4 
 2783000   0.80606566   -7.8566122    678.85664  0.020327484  0.020148261            2 
 2784000    0.7977038   -7.8610558    677.89607  0.020291429  0.020141999            6 
 2785000   0.82354378   -7.8722008    678.85127  0.020312725  0.020135743            2 
 2786000   0.78768683   -7.8686125    677.31265  0.020259412  0.020129508            4 
 2787000   0.79458444   -7.8811642    678.83544  0.020297675  0.020123274            4 
 2788000   0.80286123   -7.8840467    678.93266  0.020293301  0.020117069            2 
 2789000   0.82399109   -7.8735405    677.33595  0.020238316  0.020110819            2 
 2790000   0.80523779   -7.8938451    679.30388  0.020289841  0.020104579            2 
 2791000   0.81253098   -7.8608929    678.99544  0.020273362  0.020098378            3 
 2792000   0.80250156   -7.8610431    678.96646  0.020265236  0.020092199            2 
 2793000   0.79738607   -7.8619898    679.20965  0.020265236  0.020085998            2 
 2794000   0.80500835   -7.8332626    679.82142  0.020276229  0.020079767            2 
 2795000   0.80799876   -7.8764553    678.40489  0.020226741  0.020073532            2 
 2796000   0.80791123   -7.8474474    678.77676   0.02023059  0.020067287            6 
 2797000   0.80419688   -7.9026088    679.67796  0.020250207  0.020061049            2 
 2798000   0.80125252   -7.8889621      678.483   0.02020738  0.020054787            6 
 2799000   0.81533621   -7.9181659    677.14723  0.020160392  0.020048521            2 
 2800000   0.80186518   -7.8578383    679.64333   0.02022748  0.020042298            3 
 2801000   0.80061772   -7.8623467     678.9239  0.020198854  0.020036109            3 
 2802000   0.82064614   -7.8508626    679.09691  0.020196791  0.020029928            3 
 2803000   0.82068314   -7.8707245    678.86794  0.020182778  0.020023734            2 
 2804000    0.8119928   -7.8839249    679.04893   0.02018096  0.020017502            3 
 2805000   0.80126101   -7.8614419    679.47915  0.020186546  0.020011285            3 
 2806000   0.82165847   -7.8851507    678.44304  0.020148581   0.02000505            3 
 2807000   0.80769981   -7.8918937    678.99445  0.020157774  0.019998819            2 
 2808000   0.79081608   -7.8318197    680.28085  0.020188772  0.019992603            3 
 2809000   0.80068337   -7.8734873    679.06553   0.02014553  0.019986387            3 
 2810000   0.80131404   -7.8751238    679.85532  0.020161783  0.019980166            2 
 2811000   0.80566253   -7.8831515    678.88216  0.020125761  0.019973896            3 
 2812000   0.81303878   -7.8983027     678.6051  0.020110393  0.019967616            2 
 2813000   0.81348574   -7.8968152    681.05469  0.020175811  0.019961333            5 
 2814000   0.79787993     -7.85239    680.52199  0.020152866  0.019955116            3 
 2815000   0.79732646   -7.8867072    679.95041  0.020128787  0.019948894            2 
 2816000   0.82791072   -7.8797842     680.9971  0.020152613  0.019942659            2 
 2817000    0.8019837    -7.895369    680.26878  0.020123914  0.019936456            5 
 2818000   0.78445296   -7.8757234    679.32226  0.020088782  0.019930245            2 
 2819000    0.7888272   -7.8960585    680.05464  0.020103306  0.019924042            5 
 2820000   0.79149858   -7.8726531    681.41873  0.020136487  0.019917873            1 
 2821000   0.79479776     -7.88432    681.77072  0.020139747   0.01991169            4 
 2822000   0.80333722   -7.8893322    680.38451  0.020091676  0.019905486            2 
 2823000   0.78736596    -7.884766    681.53628  0.020118558  0.019899318            4 
 2824000   0.78648967     -7.88442    681.31724   0.02010497  0.019893147            3 
 2825000   0.79196111   -7.8937047     680.0306    0.0200599  0.019886977            3 
 2826000   0.78717053   -7.8510096    682.35221  0.020121261  0.019880833            1 
 2827000     0.792985   -7.8597073     683.1185  0.020136732  0.019874691            3 
 2828000   0.81006298   -7.8929668    680.29762  0.020046488  0.019868537            3 
 2829000   0.81178419   -7.8687373    683.96035  0.020147294   0.01986238            2 
 2830000   0.79956476   -7.8553925    681.17508  0.020058159  0.019856217            3 
 2831000   0.80381475   -7.8772226    680.87917  0.020042363  0.019850058            3 
 2832000   0.79541446   -7.8971729    681.01107  0.020039168  0.019843897            3 
 2833000   0.79138703   -7.8931561    680.09047  0.020005014   0.01983775            3 
 2834000   0.79433305   -7.8819387    681.04602  0.020026053  0.019831618            2 
 2835000   0.80845739   -7.8697183    683.61241  0.020094427   0.01982547            2 
 2836000   0.80087419   -7.8920536    681.66185  0.020030026   0.01981932            4 
 2837000   0.80380086   -7.8789879    682.89697  0.020059246  0.019813162            4 
 2838000   0.79933896   -7.8761602    681.62985  0.020014971  0.019807031            2 
 2839000   0.77361688   -7.8943735    682.43293  0.020031494  0.019800888            2 
 2840000   0.78302992   -7.8532602    683.62344  0.020059373  0.019794784            2 
 2841000   0.78851283   -7.8631749    684.17256  0.020068419  0.019788686            2 
 2842000   0.82593867   -7.8756715    682.51238  0.020012678  0.019782588            4 
 2843000     0.787404   -7.8583886    683.20263  0.020025871   0.01977647            3 
 2844000   0.78562277   -7.8617094     683.7387  0.020034538  0.019770399            4 
 2845000   0.77837244   -7.8742015    684.26647  0.020042954  0.019764326            2 
 2846000   0.80151768   -7.8844749    681.50906  0.019955173  0.019758245            4 
 2847000   0.81026091   -7.8748135    683.23665  0.019998731  0.019752182            1 
 2848000   0.80409575   -7.8825558    682.40198  0.019967287  0.019746135            4 
 2849000   0.78099317    -7.900419    682.27869  0.019956672  0.019740075            2 
 2850000   0.79840477   -7.9060141     683.8313  0.019995067  0.019733997            5 
 2851000    0.7877953   -7.8810359    683.65451  0.019982886  0.019727921            1 
 2852000    0.7937897   -7.8658405    683.40032  0.019968452  0.019721842            1 
 2853000   0.80047387    -7.883817    682.14063  0.019924659  0.019715785            4 
 2854000   0.79946361   -7.9088046    683.84654  0.019967488  0.019709721            1 
 2855000   0.80721462   -7.9235359    683.41621  0.019947934  0.019703621            2 
 2856000   0.78046862   -7.9063824    682.70168    0.0199201  0.019697528            2 
 2857000   0.79026998   -7.8991956    684.18929  0.019956519  0.019691445            2 
 2858000   0.78719318   -7.8596514    684.04913  0.019945449  0.019685404            3 
 2859000   0.78479166    -7.879642    682.86162   0.01990386  0.019679338            3 
 2860000   0.78918563   -7.8826052    684.50545  0.019944798  0.019673274            1 
 2861000   0.79278722   -7.8687172    685.63197  0.019970639  0.019667239            3 
 2862000   0.79663542   -7.8742183    684.59228  0.019933388  0.019661245            4 
 2863000    0.7916935   -7.8880702    685.57544  0.019955042   0.01965523            3 
 2864000   0.80435181   -7.8889753    684.76524  0.019924501  0.019649212            2 
 2865000   0.78244151   -7.8871313    685.42583  0.019936761  0.019643186            5 
 2866000   0.76671425   -7.8831333    684.31172   0.01989741  0.019637131            3 
 2867000   0.79272084   -7.8936371    684.59179   0.01989861  0.019631107            1 
 2868000   0.79434577   -7.8481222    684.88814  0.019900283  0.019625096            1 
 2869000   0.78809437   -7.8679862    684.60066  0.019884997  0.019619073            1 
 2870000   0.79375303   -7.9049707    683.87521  0.019857004  0.019613026            2 
 2871000   0.80223112   -7.8874831    685.17731  0.019887882  0.019606971            2 
 2872000   0.79244666   -7.8797719    685.43061  0.019888307  0.019600937            4 
 2873000   0.78426092   -7.9003532    683.67803   0.01983055  0.019594904            1 
 2874000   0.78825022   -7.9035945    683.49802   0.01981843  0.019588847            8 
 2875000   0.79607356    -7.913886    684.84961  0.019850713  0.019582758            2 
 2876000   0.78493212   -7.8777165    685.18906  0.019853647  0.019576703            2 
 2877000   0.79945481   -7.8503644    685.35507  0.019851555  0.019570677            1 
 2878000   0.77939259   -7.8756461    684.83156  0.019829498   0.01956466            4 
 2879000    0.7769971    -7.932741    683.21688  0.019775874  0.019558602            2 
 2880000   0.79170919   -7.8874315     684.3605  0.019802098  0.019552532            2 
 2881000   0.78461458   -7.9162492    685.18152  0.019818973  0.019546499            2 
 2882000   0.78831082   -7.8987934    684.42437  0.019790203  0.019540484            5 
 2883000   0.78961723   -7.8952845    684.63122  0.019789317  0.019534486            1 
 2884000   0.80070207   -7.8827577    686.60968  0.019839623   0.01952849            2 
 2885000   0.80179837   -7.8818735    684.52185  0.019772439  0.019522497            3 
 2886000   0.79887245   -7.8928523    686.24205  0.019815259  0.019516482            2 
 2887000   0.79753941   -7.9045315    684.26539  0.019751339  0.019510452            5 
 2888000   0.79013274   -7.9090866    685.64104  0.019784194  0.019504438            2 
 2889000   0.79926258   -7.9001292    685.77292   0.01978115  0.019498417            2 
 2890000   0.79183566   -7.8936553    686.77025  0.019803064  0.019492403            2 
 2891000   0.78854542   -7.8961046    684.82609  0.019740173  0.019486399            3 
 2892000   0.78096464   -7.8772828    685.66972  0.019757657  0.019480422            1 
 2893000   0.78752069   -7.8896152    687.46767  0.019802618  0.019474428            2 
 2894000   0.79719122   -7.9087552    685.62935   0.01974284  0.019468432            2 
 2895000   0.79277055   -7.8877084    685.64571  0.019736491  0.019462436            3 
 2896000   0.81261731   -7.8951739    685.57209  0.019727558  0.019456427            3 
 2897000   0.79612197   -7.9346177    685.65557  0.019723149  0.019450423            3 
 2898000   0.78464888   -7.9183675    685.15846  0.019702049  0.019444427            8 
 2899000   0.79684601   -7.9281515    686.46952   0.01973294  0.019438398            3 
 2900000   0.78981957   -7.9100981    686.80882  0.019735886  0.019432384            2 
 2901000   0.80771434   -7.8900631    686.24315  0.019712833  0.019426397            3 
 2902000   0.79107082   -7.9133577    685.91258  0.019696548  0.019420394            3 
 2903000   0.79296943   -7.9364924     686.5053  0.019706778  0.019414391            1 
 2904000   0.80052905   -7.9128969    686.84865  0.019709844  0.019408411            2 
 2905000   0.77120901   -7.9143397    685.07219    0.0196521  0.019402426            3 
 2906000   0.77468671   -7.9064669    686.43916  0.019684536   0.01939644            3 
 2907000   0.78998311   -7.9185035    686.22434  0.019671607  0.019390452            2 
 2908000   0.79339162   -7.9210482     686.8178  0.019681849   0.01938447            1 
 2909000    0.8020081   -7.8741974    685.93954  0.019649924  0.019378513            3 
 2910000   0.78611855   -7.9033403    687.92396  0.019699999  0.019372576            5 
 2911000   0.76913753   -7.9157974    686.36527  0.019648611  0.019366638            2 
 2912000    0.7755722   -7.9255901    686.37589  0.019642167    0.0193607            2 
 2913000   0.77638295   -7.9008875     688.3425  0.019691684  0.019354738            2 
 2914000   0.77953966   -7.8924054    686.96373  0.019645497  0.019348765            1 
 2915000    0.7741362   -7.9199871    686.74833  0.019632599  0.019342776            2 
 2916000   0.79465169   -7.9095165    686.95191  0.019631685  0.019336794            7 
 2917000   0.77343817   -7.9074072    685.86518  0.019593909  0.019330803            5 
 2918000   0.79734694   -7.9154962     685.9016  0.019588234  0.019324782            3 
 2919000    0.7907722   -7.9179371    688.00402  0.019641544  0.019318793            3 
 2920000   0.78797088   -7.9291356    685.93832  0.019575865  0.019312795            2 
 2921000   0.79046008   -7.9349167    684.60179  0.019531034  0.019306792            3 
 2922000   0.77757672    -7.936785    685.46203  0.019548883  0.019300818            1 
 2923000   0.79756123    -7.914013     686.6678  0.019576571  0.019294836            4 
 2924000   0.78283133   -7.9533906    687.36047  0.019589617  0.019288842            2 
 2925000   0.79205973   -7.9316479     684.9525  0.019514316  0.019282851            2 
 2926000   0.80205725   -7.9132008    687.40786  0.019577576   0.01927688            2 
 2927000   0.80219924   -7.8788971    686.68797  0.019550392  0.019270904            3 
 2928000   0.76704318   -7.8945273    687.42589  0.019564717  0.019264935            3 
 2929000   0.78377699   -7.9316171    687.52975  0.019560992  0.019258971            5 
 2930000   0.78100127    -7.942769    686.16696  0.019515556  0.019252985            2 
 2931000   0.78839493    -7.922461    688.23114  0.019567586  0.019247006            1 
 2932000   0.78450421   -7.9142201    686.87234  0.019522292  0.019241057            4 
 2933000   0.79492325   -7.9310793    689.11556  0.019579372  0.019235094            4 
 2934000    0.7903615   -7.9325644    686.66194  0.019503009  0.019229115            5 
 2935000   0.79048472   -7.9467178    687.38662   0.01951694  0.019223149            2 
 2936000   0.77485541    -7.943683    687.53741  0.019514572  0.019217176            2 
 2937000   0.78048257   -7.9370038    687.85472  0.019516931  0.019211209            2 
 2938000   0.77534061   -7.9333266    685.95055  0.019456278  0.019205221            4 
 2939000   0.78324518   -7.9602469    687.75798  0.019500907  0.019199234            3 
 2940000   0.77089031   -7.9175979    687.75163  0.019494094   0.01919324            5 
 2941000   0.79547975   -7.9345996    687.87694  0.019491016  0.019187256            2 
 2942000   0.78317683   -7.9204912    686.02555   0.01943195  0.019181291            2 
 2943000   0.79679832   -7.9535006    686.83433  0.019448248  0.019175312            2 
 2944000    0.7849741   -7.9482619     686.6114  0.019435332  0.019169308            2 
 2945000   0.78877571   -7.9597695    685.80571  0.019405934  0.019163307            3 
 2946000   0.78777185    -7.930458    686.33238  0.019414245  0.019157299            4 
 2947000   0.76958676   -7.9361568    686.81401  0.019421276  0.019151307            3 
 2948000   0.78181523   -7.9293362    688.04532  0.019449494  0.019145346            1 
 2949000   0.78399023   -7.9633174    687.99588  0.019441502  0.019139363            2 
 2950000   0.77028728   -7.9322902    687.66071  0.019425444  0.019133389            2 
 2951000   0.78475649   -7.9155801    687.57269  0.019416375  0.019127411            4 
 2952000   0.76378158    -7.947516    688.14841   0.01942605  0.019121405            2 
 2953000   0.81326261   -7.9700939    687.87157   0.01941166  0.019115402            5 
 2954000   0.77906817    -7.967912    687.63079  0.019398296  0.019109412            2 
 2955000   0.77715925   -7.9429774    687.73144   0.01939457  0.019103421            2 
 2956000   0.77352459   -7.9573165    687.21997   0.01937359   0.01909745            2 
 2957000   0.77054514   -7.9600304    686.86598  0.019357062  0.019091467            3 
 2958000   0.77886091   -7.9167601    688.62782  0.019400153  0.019085503            2 
 2959000   0.77965491   -7.9386966    687.55377  0.019363348  0.019079552            1 
 2960000   0.76638535   -7.9240953    688.33219  0.019378722  0.019073605            1 
 2961000    0.7798868   -7.9154945    689.34634  0.019400719  0.019067705            5 
 2962000   0.77194196   -7.9166337     687.8771  0.019352833  0.019061797            1 
 2963000    0.7783403   -7.9232929    688.74475  0.019370704  0.019055881            3 
 2964000   0.76631846   -7.9391637     690.0464  0.019400765  0.019049953            2 
 2965000   0.76957289   -7.9653152    686.85967  0.019304656  0.019043991            1 
 2966000   0.76266903   -7.9578914     688.5434  0.019345454  0.019038016            2 
 2967000   0.78773729   -7.9521576    687.00083  0.019295608   0.01903208            2 
 2968000   0.76804168   -7.9435839    688.36954  0.019327537  0.019026138            1 
 2969000   0.77515923   -7.9468587    688.01283  0.019311015  0.019020198            1 
 2970000   0.77986661   -7.9403346    688.98685  0.019331842  0.019014278            2 
 2971000   0.77101129   -7.9356354    688.58414   0.01931404  0.019008382            3 
 2972000   0.77790098   -7.9348492    689.73618  0.019339844  0.019002459            1 
 2973000   0.78290616    -7.956296    687.74383  0.019277493  0.018996534            2 
 2974000   0.76891772   -7.9460705    688.35235  0.019288062  0.018990609            3 
 2975000   0.76115667   -7.9472051    688.49905  0.019285688  0.018984674            5 
 2976000   0.77518614   -7.9461524    688.06404  0.019267026  0.018978786            3 
 2977000   0.76482521   -7.9397238    689.82378  0.019309813   0.01897286            2 
 2978000   0.78073856   -7.9488454    688.13863  0.019256174   0.01896694            2 
 2979000   0.77877855   -7.9395393    688.76305  0.019267177  0.018961037            1 
 2980000   0.76249348   -7.9434895    687.89299  0.019236381  0.018955131            2 
 2981000    0.7773902    -7.939422    689.93883  0.019287119   0.01894923            2 
 2982000   0.77196146   -7.9580557     688.9795  0.019253842  0.018943317            3 
 2983000   0.79143801   -7.9632811    688.93924  0.019246263  0.018937418            3 
 2984000   0.79247519    -7.935918    688.70701  0.019233328  0.018931524            2 
 2985000   0.77864874   -7.9367465    690.30312  0.019271444  0.018925643            3 
 2986000   0.78114467   -7.9220036    690.38014   0.01926714  0.018919778            1 
 2987000   0.77538396   -7.9475438    689.32824  0.019231342  0.018913902            1 
 2988000    0.7696891   -7.9341519    688.76989  0.019209334  0.018908022            1 
 2989000   0.75426555   -7.9654621    689.73569  0.019229834  0.018902126            2 
 2990000   0.78734521   -7.9691863    688.59445  0.019191596   0.01889622            3 
 2991000   0.77044842   -7.9687542    688.51976  0.019183098  0.018890312            1 
 2992000   0.78055308   -7.9681502    689.03458  0.019191025  0.018884392            2 
 2993000   0.76642157   -7.9751166    689.25327  0.019190702   0.01887848            4 
 2994000   0.77576552   -7.9354043    689.63216  0.019194838  0.018872576            3 
 2995000   0.77250483   -7.9626116    689.02373  0.019171501  0.018866675            1 
 2996000   0.75566804   -7.9447685    690.60207  0.019209003  0.018860774            4 
 2997000     0.764265   -7.9369796    691.37385  0.019224053  0.018854916            2 
 2998000   0.78401159    -7.924237    689.34996  0.019161384  0.018849053            2 
 2999000   0.78739456   -7.9624885    688.07094  0.019119455  0.018843164            2 
 3000000   0.76218295   -7.9562731    689.67192  0.019157553  0.018837254            2 
 3001000   0.77661207   -7.9788079     688.0543  0.019106251   0.01883136            3 
 3002000   0.76477541   -7.9749209    689.34351  0.019135674  0.018825496            2 
 3003000   0.78543268    -7.937844    691.87167  0.019199458  0.018819632            3 
 3004000   0.76878584    -7.966515    689.14396  0.019117398  0.018813759            3 
 3005000   0.77992577   -7.9406395    690.15667   0.01913912  0.018807925            2 
 3006000   0.76872126   -7.9584093    689.56457  0.019116339  0.018802074            1 
 3007000   0.77396683   -7.9171057     692.2735  0.019185054  0.018796256            3 
 3008000   0.76840726   -7.9456599    690.87672   0.01913998  0.018790458            2 
 3009000   0.74500351   -7.9737549    691.96557  0.019163775  0.018784648            3 
 3010000    0.7703623   -7.9372378    691.49293  0.019144323  0.018778828            4 
 3011000   0.76206227   -7.9968616     690.2634  0.019103935  0.018772994            3 
 3012000   0.75212449   -7.9407837    692.56416  0.019161248  0.018767164            2 
 3013000   0.77019873   -7.9603902    691.19363  0.019116983   0.01876135            1 
 3014000   0.78243111   -7.9674587    690.77648  0.019099106  0.018755508            1 
 3015000   0.75435764   -7.9518436     691.0245  0.019099627  0.018749675            3 
 3016000   0.76717583   -7.9674311    691.56349  0.019108187  0.018743861            1 
 3017000   0.76884172    -7.955151    691.51419  0.019100491  0.018738022            4 
 3018000   0.77254521   -7.9672522    690.41567   0.01906383  0.018732168            2 
 3019000   0.76675801   -7.9565072    692.36098  0.019111212  0.018726357            2 
 3020000   0.76694814   -7.9419756    692.30671  0.019103386  0.018720546            2 
 3021000    0.7932995   -7.9856062    691.79253  0.019082879   0.01871474            2 
 3022000   0.76977824   -7.9387839    692.17737  0.019087177  0.018708932            1 
 3023000   0.75650263   -7.9814884    690.51459  0.019035026  0.018703121            3 
 3024000   0.76295279   -7.9615035     691.2204  0.019048181  0.018697331            2 
 3025000   0.77014334   -7.9814422    690.70366  0.019027649  0.018691536            2 
 3026000   0.74692497   -7.9580931    691.28912  0.019037484  0.018685732            2 
 3027000   0.76613269   -7.9471906    692.64288  0.019068464  0.018679911            2 
 3028000   0.76350214   -7.9712091    690.72173  0.019009295  0.018674103            2 
 3029000   0.77542492   -7.9829635    691.15297  0.019014883  0.018668302            8 
 3030000   0.74922425    -7.923455    691.35433  0.019014145  0.018662522            2 
 3031000   0.77271229   -7.9449011    693.55645  0.019068417  0.018656785            3 
 3032000   0.75334575   -7.9417677    692.86185  0.019043037  0.018651005            4 
 3033000   0.77457378   -7.9718592    693.40256  0.019051614  0.018645213            2 
 3034000   0.75489377   -8.0045081    691.65917   0.01899745  0.018639407            3 
 3035000    0.7680225   -7.9620165     692.5831  0.019016559  0.018633612            1 
 3036000   0.76673428   -7.9695721    690.28072  0.018947099  0.018627806            2 
 3037000   0.77002266   -7.9702197    691.54053  0.018975429  0.018621993            1 
 3038000   0.75852434   -7.9552126    694.07096  0.019038593  0.018616183            2 
 3039000   0.76640842   -7.9632642    693.81013  0.019025176  0.018610403            1 
 3040000   0.77331436   -7.9643304    692.84225  0.018992386  0.018604601            2 
 3041000   0.76749914   -7.9732261    692.43219  0.018974904  0.018598796            2 
 3042000   0.75221256   -7.9782767    692.31746  0.018965523     0.018593            2 
 3043000   0.77212432   -7.9905877    691.65794   0.01894123  0.018587195            3 
 3044000   0.75876358   -8.0075629     689.5654  0.018877721   0.01858136            2 
 3045000   0.77942678   -7.9820685    693.16247  0.018969964  0.018575532            1 
 3046000   0.77164241   -8.0099934    690.78201  0.018898611  0.018569715            2 
 3047000   0.76252073   -8.0040795    692.77351  0.018946874  0.018563889            2 
 3048000   0.78057325   -7.9631413    693.61698  0.018963719  0.018558079            1 
 3049000   0.77313049   -7.9868922    691.52902  0.018900432  0.018552275            3 
 3050000   0.76597129   -7.9617404    692.22262  0.018913186  0.018546506            2 
 3051000   0.76913338   -7.9707543    693.31491  0.018936822  0.018540731            3 
 3052000   0.78696884   -7.9806396    692.76413  0.018915578  0.018534973            2 
 3053000   0.77030941   -7.9759426    692.67459  0.018906938  0.018529208            2 
 3054000   0.76777021   -7.9557724    693.23106  0.018915932  0.018523439            2 
 3055000   0.75453508   -7.9418416    692.49247  0.018889593    0.0185177            3 
 3056000   0.76350305   -7.9630045    692.52104  0.018884191  0.018511958            3 
 3057000   0.76263422   -7.9832664    692.49665  0.018877349  0.018506175            1 
 3058000    0.7530908   -7.9965281    693.45095  0.018897181  0.018500393            3 
 3059000   0.75750486   -7.9777483    691.89457  0.018848604   0.01849461            2 
 3060000   0.77257613   -7.9987952    690.79067  0.018812382  0.018488816            2 
 3061000   0.73628139   -7.9881604    692.62358  0.018856136  0.018483034            2 
 3062000   0.77372268   -7.9835828    693.88047  0.018884184  0.018477258            2 
 3063000     0.766768   -7.9889872     692.6107  0.018843473  0.018471467            2 
 3064000    0.7797229   -7.9763613    692.30857  0.018829106  0.018465714            3 
 3065000   0.75955918   -7.9750875    692.43138  0.018826302   0.01845996            4 
 3066000   0.75113566   -7.9733829    694.05605   0.01886432  0.018454223            2 
 3067000   0.76282104   -7.9729046    692.92208  0.018827358  0.018448498            3 
 3068000   0.75297541   -7.9874731    693.23495   0.01882972  0.018442761            2 
 3069000   0.76734441   -7.9701116    695.39612  0.018882267  0.018437016            3 
 3070000   0.74764972   -7.9733906    692.93888  0.018809416  0.018431265            4 
 3071000   0.76197409   -7.9877997    693.68088  0.018823426  0.018425509            3 
 3072000   0.75528046   -7.9840858    693.22666  0.018804977   0.01841977            1 
 3073000   0.75943944   -8.0025448    691.37739  0.018748709     0.018414            2 
 3074000   0.75291779   -7.9918931    691.68768  0.018751021  0.018408216            3 
 3075000   0.75923399   -8.0126316     693.6236  0.018797387  0.018402451            3 
 3076000   0.75407103   -7.9753781    693.78784  0.018795726  0.018396654            1 
 3077000   0.75695858   -7.9952776    693.33561   0.01877737  0.018390859            1 
 3078000   0.75217338   -8.0103468      692.372  0.018745181  0.018385071            2 
 3079000   0.73679413   -7.9975743    691.92539  0.018727005  0.018379286            2 
 3080000   0.75450095   -7.9848635    691.05549  0.018697389  0.018373514            1 
 3081000   0.76260041   -7.9628692    693.34333    0.0187532  0.018367763            2 
 3082000   0.76905992   -7.9684731    692.66906  0.018728885  0.018362005            2 
 3083000   0.75751685   -7.9721143    693.66136  0.018749631  0.018356272            5 
 3084000   0.76014034   -7.9615592    695.41945  0.018791057  0.018350546            5 
 3085000   0.74475568   -7.9807938    693.42008  0.018730958   0.01834482            2 
 3086000   0.75562906   -7.9883534    693.22123  0.018719519  0.018339075            4 
 3087000   0.75419971   -7.9810086    692.52932  0.018694777  0.018333327            1 
 3088000   0.76006078   -7.9877969    693.50151  0.018714959    0.0183276            1 
 3089000   0.74761606   -7.9853008    693.51926  0.018709379  0.018321877            3 
 3090000   0.74160182   -7.9675862    694.46638  0.018728867  0.018316163            2 
 3091000   0.74863176   -7.9905708    693.59015  0.018699185  0.018310452            6 
 3092000   0.76254426   -7.9706834    694.12148  0.018707457  0.018304715            3 
 3093000   0.76399389   -7.9404697    693.54655  0.018685919  0.018298987            2 
 3094000    0.7626927   -7.9875137    693.10452  0.018667974  0.018293244            2 
 3095000   0.75986692   -7.9905686    692.59538  0.018648233  0.018287494            2 
 3096000   0.76124396   -8.0010936    693.18442  0.018658065  0.018281737            5 
 3097000   0.76695327   -7.9990324    693.45006  0.018659188  0.018275985            3 
 3098000   0.74780739   -7.9798254    692.78159  0.018635184  0.018270224            3 
 3099000   0.75755192   -8.0009989    693.65073  0.018652542  0.018264456            3 
 3100000   0.74084242   -8.0020219    693.36849  0.018638938  0.018258692            7 
 3101000   0.75090725   -7.9981664    693.00683  0.018623208  0.018252917            7 
 3102000   0.74798134   -8.0160354    693.42698  0.018628492  0.018247116            4 
 3103000   0.74092563   -7.9852592    692.27683    0.0185916  0.018241342            2 
 3104000   0.76783253   -7.9578491    695.36083  0.018668407  0.018235597            5 
 3105000   0.74119955   -7.9773995    694.36011  0.018635537  0.018229856            3 
 3106000   0.75231516    -8.019011    694.47929  0.018632735  0.018224114            3 
 3107000   0.74594976   -8.0216346    694.11853  0.018617062  0.018218376            2 
 3108000    0.7437688   -7.9901532    693.03747  0.018582086  0.018212636            3 
 3109000   0.75708945   -8.0093313    694.54585  0.018616539  0.018206852            3 
 3110000   0.76218316   -8.0131143    692.69397  0.018560932  0.018201101            2 
 3111000   0.77125571   -8.0010343    693.15913  0.018567426  0.018195357            4 
 3112000   0.77375052   -8.0074654    692.62842  0.018547248  0.018189571            2 
 3113000   0.75189836   -7.9677029    692.96722  0.018550359  0.018183807            1 
 3114000   0.75186318   -7.9922005    692.73176  0.018538101  0.018178058            2 
 3115000   0.74395992    -8.021545    692.79176  0.018533755  0.018172293            2 
 3116000   0.75096451    -8.036264     693.2538  0.018540164  0.018166512            3 
 3117000   0.76998657   -7.9774393     694.7656  0.018574634   0.01816072            3 
 3118000   0.74613355   -8.0268748    690.87607  0.018464723  0.018154918            3 
 3119000   0.74042781   -8.0251435    693.19942  0.018520878  0.018149135            2 
 3120000   0.73416708   -8.0227167    692.47311  0.018495542   0.01814335            3 
 3121000   0.73777657   -8.0119413    692.85948  0.018499933  0.018137552            1 
 3122000   0.75563304   -8.0008777    692.34557   0.01848029  0.018131755            4 
 3123000   0.75854784   -8.0132949    692.59008  0.018480897  0.018125956            3 
 3124000   0.74410703   -7.9731472    694.11146  0.018515564  0.018120169            2 
 3125000   0.74416806   -7.9744895     693.7605   0.01850028  0.018114374            2 
 3126000   0.74295383   -7.9796457    694.10364  0.018503509  0.018108616            1 
 3127000   0.75111395   -7.9968968    693.23807  0.018474525   0.01810284            3 
 3128000   0.75820163   -8.0026833    692.89577  0.018459499   0.01809705            2 
 3129000   0.72550962   -7.9809654    692.78707  0.018450705  0.018091265            2 
 3130000   0.74891008   -7.9899869    692.12354  0.018427144  0.018085476            3 
 3131000   0.75829071   -7.9840757    692.18425  0.018422875  0.018079707            1 
 3132000   0.75840361   -7.9850664    693.72392  0.018457959  0.018073957            2 
 3133000   0.74576085   -8.0008076    694.36332  0.018469074  0.018068187            4 
 3134000   0.75704164    -8.017575    692.88196  0.018423792  0.018062414            2 
 3135000   0.76202431   -8.0018024     694.1534  0.018451712  0.018056648            2 
 3136000   0.75068923   -7.9859517    694.16977  0.018446263  0.018050912            3 
 3137000   0.74326769   -8.0120074    692.56292  0.018397697   0.01804517            2 
 3138000   0.75289849   -7.9987433    692.00168   0.01837693  0.018039413            2 
 3139000     0.761004   -8.0013158    692.08623   0.01837332   0.01803364            2 
 3140000   0.74748513   -8.0050847    693.64221  0.018408764  0.018027853            3 
 3141000   0.76507965   -8.0237099    692.80712  0.018380747  0.018022061            1 
 3142000   0.73977628   -8.0371789     694.1325  0.018410049  0.018016309            2 
 3143000   0.75051176   -7.9983515    694.15958   0.01840491  0.018010549            3 
 3144000   0.75133904   -8.0116172    692.37546  0.018351767  0.018004781            2 
 3145000   0.74749132   -8.0175354     692.8311  0.018358005  0.017999018            2 
 3146000   0.76058774   -7.9936208    694.46905  0.018395556  0.017993267            2 
 3147000   0.73075024   -8.0084257    693.80315  0.018372078  0.017987512            1 
 3148000   0.73560685   -8.0463495      694.178  0.018376165  0.017981727            2 
 3149000   0.74754749   -8.0365091    694.13177  0.018369106  0.017975955            2 
 3150000   0.76290797   -8.0334819    691.75413  0.018300374  0.017970207            4 
 3151000   0.75570493   -8.0308739    692.80046  0.018322238  0.017964422            5 
 3152000   0.75492858   -8.0308176    693.65518  0.018339022  0.017958632            1 
 3153000   0.76120011   -8.0460477    693.16876   0.01832035  0.017952851            1 
 3154000   0.76250035   -8.0336599    693.21816  0.018315847  0.017947079            4 
 3155000   0.73277853   -8.0668277    692.40869  0.018288661  0.017941289            4 
 3156000   0.73936849   -8.0368329    691.93631  0.018270393  0.017935504            6 
 3157000   0.73970603   -7.9979188     695.2863  0.018353033  0.017929762            1 
 3158000   0.75107875    -8.011339    692.60391  0.018276438  0.017924014            1 
 3159000    0.7275723   -8.0078988    693.83599  0.018303155  0.017918271            2 
 3160000   0.74699302     -8.01384    693.76754  0.018295557   0.01791253            3 
 3161000   0.74968985   -8.0355972    692.79225  0.018264058  0.017906781            5 
 3162000   0.75057422    -8.027339    693.40923  0.018274542     0.017901            7 
 3163000   0.74634247   -8.0379405    693.32331  0.018266501  0.017895219            2 
 3164000   0.73817043   -8.0281812    694.09601  0.018281079   0.01788947            3 
 3165000   0.74889912   -8.0551476    693.87268  0.018269423  0.017883723            2 
 3166000   0.75734878   -8.0208404    693.30192  0.018248629  0.017877974            1 
 3167000   0.74984776    -8.044127    693.40389   0.01824555  0.017872238            2 
 3168000   0.74619829   -8.0297203    691.96964  0.018202063  0.017866489            3 
 3169000   0.75169717   -8.0663964     693.3052   0.01823144   0.01786073            3 
 3170000   0.75162264   -8.0565071    693.79174  0.018238479  0.017854968            1 
 3171000   0.74139912   -8.0285663    693.15016  0.018215867  0.017849213            2 
 3172000    0.7244523   -8.0351117    693.54921  0.018220608  0.017843472            3 
 3173000   0.75098663   -8.0386989    691.18478  0.018152768  0.017837726            3 
 3174000   0.74479024   -8.0327828    693.95037  0.018219659  0.017831989            2 
 3175000   0.75795399   -7.9990743    695.11579  0.018244509  0.017826269            2 
 3176000    0.7403481   -8.0139498    694.85463  0.018231912  0.017820583            2 
 3177000    0.7501381   -8.0139243    696.27705  0.018263484  0.017814908            1 
 3178000   0.76665872   -8.0095829    695.33427  0.018233015  0.017809241            2 
 3179000   0.74721182   -8.0196317    693.40291  0.018176652  0.017803556            2 
 3180000   0.73064409   -8.0166835    692.67949  0.018151978  0.017797893            3 
 3181000   0.75003637   -8.0380205    695.22965  0.018213079  0.017792234            2 
 3182000    0.7522705   -7.9965736    696.15401  0.018231563   0.01778656            2 
 3183000   0.74240516   -8.0152857    695.71351  0.018214303  0.017780907            2 
 3184000   0.73646496   -7.9823657    697.17697  0.018246885  0.017775265            3 
 3185000   0.74408753   -7.9917013    694.75747  0.018177851   0.01776962            1 
 3186000   0.74702901   -8.0148072    694.90532  0.018176013  0.017763976            3 
 3187000   0.74268785   -8.0031856    695.04704  0.018174015  0.017758338            2 
 3188000    0.7298471   -7.9903192    695.02647  0.018167777  0.017752701            3 
 3189000   0.73950114    -8.010698    695.07448  0.018163334  0.017747046            2 
 3190000    0.7422024    -8.051486    693.86167  0.018125958  0.017741375            2 
 3191000   0.73720344   -8.0326374     695.8574  0.018172396  0.017735731            6 
 3192000   0.75535198   -8.0245729    696.48647  0.018183126  0.017730089            3 
 3193000   0.75646669   -8.0129285    697.22959  0.018196826  0.017724451            2 
 3194000   0.74171226   -8.0119942    696.04623  0.018160254  0.017718822            2 
 3195000   0.73708955   -8.0199789    695.29043  0.018134857  0.017713183            3 
 3196000   0.74316796   -8.0104712    695.27171  0.018128695  0.017707531            1 
 3197000   0.76842437   -8.0081172    695.21344  0.018121506  0.017701871            2 
 3198000   0.73968944   -8.0208741    696.51905  0.018149861  0.017696239            2 
 3199000   0.73331185   -8.0368421    695.51765  0.018118101  0.017690603            2 
 3200000   0.75373673   -8.0457328    694.47252  0.018085222  0.017684958            2 
 3201000   0.75249648   -8.0292234    695.45107  0.018105047  0.017679313            2 
 3202000    0.7460102   -8.0327295     696.0809  0.018115784  0.017673654            6 
 3203000   0.75390392   -8.0438779     695.4775   0.01809443  0.017668018            1 
 3204000   0.74163454   -8.0339849    697.34426  0.018137335  0.017662405            3 
 3205000   0.73328665   -8.0371316    696.13829   0.01810032  0.017656768           12 
 3206000      0.74582   -8.0272787    695.96314  0.018090121  0.017651131            3 
 3207000   0.72251191   -8.0261363    696.63057  0.018101823  0.017645488            2 
 3208000   0.73469644   -8.0607573    694.71604  0.018046447  0.017639876            2 
 3209000   0.74475166   -8.0434412     696.2228  0.018079952   0.01763425            3 
 3210000   0.73365145   -8.0369084     695.3931   0.01805278  0.017628623            3 
 3211000    0.7202451   -8.0304044    695.30086  0.018044764  0.017622993            2 
 3212000    0.7264606   -8.0472316    695.58665  0.018046561  0.017617363            3 
 3213000   0.71824621   -8.0458575    696.01833  0.018052141  0.017611729            2 
 3214000   0.73566671    -8.049303    695.93318  0.018044316  0.017606107            2 
 3215000   0.74116739   -8.0351368     695.6129  0.018030402  0.017600467            2 
 3216000   0.73846816    -8.032897    696.22635  0.018040691  0.017594847            2 
 3217000   0.73125664   -8.0269886     696.2425  0.018035501  0.017589247            4 
 3218000    0.7302682   -8.0114763    696.13133  0.018027018  0.017583632            2 
 3219000   0.71969581   -8.0627153    696.25093  0.018024514  0.017577984            2 
 3220000   0.74047747   -8.0437333     696.7558  0.018031982  0.017572354            2 
 3221000   0.73740698   -8.0299673    695.49373  0.017993732   0.01756672            4 
 3222000   0.73984953   -8.0471744    695.26439  0.017982216  0.017561095            3 
 3223000   0.73359455   -8.0361157    695.45005  0.017981437  0.017555469            2 
 3224000   0.74520017   -8.0549683    695.72698  0.017983018  0.017549814            5 
 3225000   0.74102067    -8.064616    694.74505  0.017952069  0.017544165            3 
 3226000   0.75230563   -8.0677379    695.53537  0.017966919  0.017538535            2 
 3227000   0.73106363   -8.0291311    696.10911  0.017976168  0.017532912            3 
 3228000   0.71567177   -8.0502586     695.8234  0.017963223   0.01752727            5 
 3229000   0.72183645   -8.0749006    695.35766   0.01794564  0.017521646            2 
 3230000   0.73596463   -8.0886341    693.67282  0.017896616  0.017516001            1 
 3231000    0.7328534   -8.0585347    697.32172  0.017985188  0.017510369            2 
 3232000   0.75711152   -8.0619546    696.00995  0.017945801  0.017504744            2 
 3233000   0.75014031    -8.077297    696.86448  0.017962277  0.017499116            3 
 3234000   0.72897772   -8.0379731     696.7551  0.017953904  0.017493534            2 
 3235000   0.72774871   -8.0454565    696.19519  0.017933931   0.01748795            1 
 3236000   0.75308339   -8.0413168    694.20555  0.017877152  0.017482358            2 
 3237000   0.73509256   -8.0539019    696.67959   0.01793532  0.017476773            2 
 3238000   0.73587191   -8.0486215    695.79414  0.017906994  0.017471175            4 
 3239000   0.74844648   -8.0418616    697.02975  0.017933255  0.017465585            3 
 3240000   0.73952698   -8.0558145     695.2585  0.017882163  0.017459998            4 
 3241000   0.74044296   -8.0605039    696.05934  0.017897237  0.017454404            2 
 3242000   0.73079212   -8.0245337    697.96323  0.017940655  0.017448831            1 
 3243000   0.74230789   -8.0552903    696.96732  0.017909531  0.017443244            2 
 3244000   0.72333269   -8.0212379    697.64255  0.017921356  0.017437676            2 
 3245000    0.7439529   -8.0585954    697.34136  0.017908098  0.017432107            1 
 3246000   0.73526747   -8.0596691    696.01391  0.017868502  0.017426537            2 
 3247000   0.73193442    -8.105595    696.17344  0.017867094  0.017420952            3 
 3248000   0.73205252   -8.0639297    696.82902  0.017878413  0.017415369            2 
 3249000   0.74079394   -8.0558304    695.54735  0.017840037  0.017409783            2 
 3250000   0.74034808    -8.040808    695.73647  0.017839397   0.01740419            2 
 3251000   0.72212124    -8.071946    696.07706   0.01784264  0.017398622            1 
 3252000   0.73909353    -8.030136    696.32799  0.017843583  0.017393057            2 
 3253000   0.73881571   -8.0819446    697.74648  0.017874436  0.017387492            2 
 3254000   0.73625923   -8.0635243    697.70087  0.017867775   0.01738192            2 
 3255000   0.72688698   -8.0683717    696.51956  0.017832042  0.017376366            2 
 3256000     0.730055   -8.0868804    696.23603  0.017819309  0.017370795            3 
 3257000   0.72754397   -8.0873497    695.82106   0.01780322  0.017365224            1 
 3258000   0.73098825   -8.0610628    696.54036  0.017816154  0.017359676            2 
 3259000   0.73782946   -8.0522506     698.3873  0.017857914  0.017354129            2 
 3260000   0.73624116   -8.0539262    697.73788  0.017835835  0.017348569            5 
 3261000   0.73330285    -8.060734    698.02652  0.017837742  0.017343029            1 
 3262000   0.71539898   -8.0709509    696.21442   0.01778598  0.017337487            1 
 3263000   0.72037951   -8.0577388    698.18084   0.01783075  0.017331941            4 
 3264000   0.75448957   -8.0561064    698.02858    0.0178214  0.017326409            1 
 3265000   0.74829425   -8.0591935    697.37957  0.017799377  0.017320887            1 
 3266000   0.71732653   -8.0697449    697.35104  0.017793199  0.017315343            3 
 3267000   0.73449882   -8.0594539    696.73189  0.017771959  0.017309809            3 
 3268000   0.72884116   -8.0842566    697.52207  0.017786671  0.017304287            3 
 3269000   0.73449023   -8.0468067    696.75899  0.017761777  0.017298751            2 
 3270000   0.71341849   -8.0483684    697.61189  0.017778081  0.017293208            2 
 3271000   0.73002272   -8.0633968    699.77985  0.017827878  0.017287699            2 
 3272000   0.71265696   -8.0249477    699.56927  0.017817066   0.01728219            1 
 3273000   0.74030681   -8.0564701    698.36437  0.017780944  0.017276698            3 
 3274000   0.74210647   -8.0666816    696.98862  0.017740496  0.017271176            4 
 3275000   0.72672543   -8.0616263    697.53735  0.017749042  0.017265669            3 
 3276000   0.70754022   -8.0477942    697.82044  0.017750825  0.017260164            3 
 3277000    0.7276205   -8.0516247    697.28431  0.017731775  0.017254661            2 
 3278000   0.70268696   -8.0547328    697.91742   0.01774246  0.017249163            4 
 3279000   0.74196336   -8.0419083    698.69484  0.017756807  0.017243663            1 
 3280000   0.73139448   -8.0548214    698.60003  0.017748985   0.01723817            3 
 3281000   0.71862482   -8.0252879    697.57305  0.017717491  0.017232667            2 
 3282000   0.73486791   -8.0579382    698.62857  0.017738893  0.017227163            1 
 3283000   0.72303777   -8.0722673    697.69857  0.017709884  0.017221674            4 
 3284000   0.72360609   -8.0388807    698.77155  0.017731718  0.017216161            2 
 3285000   0.71090021   -8.0839043    696.87981  0.017678331  0.017210648            3 
 3286000   0.72532131   -8.0674097    698.61256  0.017716894  0.017205147            2 
 3287000   0.72372584   -8.0847782    699.38728  0.017731145  0.017199639            2 
 3288000   0.71825609    -8.081968    698.30261  0.017698262  0.017194142            3 
 3289000   0.74016498   -8.0760862    697.18659  0.017664604  0.017188633            4 
 3290000   0.72365043   -8.0898534    697.39899  0.017664615  0.017183119            3 
 3291000   0.70724176   -8.0921019    697.72479  0.017667497  0.017177613            4 
 3292000    0.7167416   -8.0753659    697.48047  0.017655946  0.017172101            2 
 3293000   0.72945039   -8.0652117    697.72008  0.017656647  0.017166598            8 
 3294000   0.72456541   -8.0658312    697.95095  0.017657128  0.017161111            1 
 3295000   0.72717133   -8.0816268    697.90239  0.017650541  0.017155631            5 
 3296000   0.70908159   -8.0651787    697.44466  0.017633613  0.017150143            2 
 3297000   0.72374992   -8.0622144    698.43548  0.017653308  0.017144673            1 
 3298000   0.71502375    -8.053341    698.17524   0.01764138  0.017139213            3 
 3299000   0.71890506   -8.0551276    699.33158  0.017665241  0.017133761            2 
 3300000   0.71969289   -8.0271559    700.00813  0.017676973  0.017128311            4 
 3301000   0.72357407   -8.0835053    699.52848  0.017659509  0.017122877            2 
 3302000   0.72367434   -8.0706233     698.4629  0.017627269  0.017117417            2 
 3303000   0.71816749   -8.0512558    700.12315   0.01766382  0.017111945            3 
 3304000     0.730354   -8.0501469    699.65392  0.017646638  0.017106497            2 
 3305000   0.72491607   -8.0736837    697.38416  0.017584069  0.017101045            5 
 3306000   0.73673026   -8.0912209    697.92975  0.017592502  0.017095579            3 
 3307000   0.72382358   -8.0901029    698.41947  0.017599523  0.017090114            3 
 3308000   0.74474591   -8.0976784    697.90505  0.017581244  0.017084643            2 
 3309000   0.72272097    -8.064421    697.63103   0.01756903  0.017079159            4 
 3310000   0.73094675   -8.0974031    696.30182  0.017530257  0.017073688            2 
 3311000   0.72821137   -8.0924251    698.74917  0.017586559  0.017068202            4 
 3312000   0.71782284   -8.0932153    697.56344  0.017551415  0.017062706            2 
 3313000   0.73162378   -8.0918779    697.84423   0.01755318  0.017057214            3 
 3314000   0.73400124   -8.0909435    697.29655  0.017534112  0.017051712            4 
 3315000   0.70514468   -8.0480142    697.81284  0.017541801  0.017046234            2 
 3316000   0.72261807   -8.0665933    699.20942  0.017571608  0.017040764            6 
 3317000   0.71662831   -8.0667013    700.39449  0.017596083  0.017035315            3 
 3318000   0.73309571   -8.0913864    697.66401  0.017522202  0.017029855            2 
 3319000   0.72885094   -8.0646512    698.34541  0.017534032  0.017024404            2 
 3320000   0.73009045   -8.0733375    698.29075  0.017527378  0.017018967            2 
 3321000   0.71703524   -8.0930534    698.74332  0.017533457  0.017013534            3 
 3322000   0.73108011   -8.0845298    698.30599  0.017517208  0.017008099            3 
 3323000   0.72143154   -8.0952394    697.73827    0.0174977  0.017002646            2 
 3324000   0.71104879   -8.0908453    698.11922  0.017501986  0.016997185            1 
 3325000   0.72394229   -8.0815441    699.97021  0.017543113  0.016991747            3 
 3326000   0.71098315    -8.076484    698.48078  0.017500521  0.016986314            2 
 3327000   0.71753316   -8.1037166    697.92363  0.017481305  0.016980841            2 
 3328000   0.70923057   -8.1355274    696.43971  0.017438895  0.016975359            3 
 3329000   0.71120571   -8.0880745    698.99435  0.017497606  0.016969875            1 
 3330000   0.71427767   -8.0959808    697.61036  0.017457717  0.016964412            4 
 3331000   0.71971395   -8.1052938    698.09976  0.017464719  0.016958951            5 
 3332000   0.72824751   -8.1136922    699.11727  0.017484926  0.016953473            1 
 3333000   0.71876564   -8.1113061     697.5351  0.017440121  0.016947969            5 
 3334000   0.70339737   -8.0973472    698.05659  0.017447925   0.01694248            2 
 3335000   0.69941241   -8.1133767    698.25644  0.017447687  0.016937006            2 
 3336000   0.70963477   -8.0966791    698.62734  0.017451722  0.016931543            1 
 3337000    0.7134804   -8.1176736    697.19535  0.017410732  0.016926081            3 
 3338000   0.73131263   -8.1225333     696.8398   0.01739664  0.016920608            8 
 3339000   0.70937785   -8.1066029    698.25054  0.017426638  0.016915141            5 
 3340000   0.71870411   -8.1051325    699.00676  0.017440288  0.016909678            3 
 3341000    0.7097738   -8.1052319    698.86189  0.017431455  0.016904206            4 
 3342000   0.72553033   -8.0923931    699.29737  0.017437098  0.016898767            5 
 3343000   0.72955095   -8.0842298      699.358  0.017433393  0.016893355            1 
 3344000   0.72229229   -8.0729705     699.7838  0.017438791  0.016887938            2 
 3345000   0.74463902   -8.1122785     697.5242  0.017377284  0.016882499            2 
 3346000   0.73417877   -8.1141319     699.1435   0.01741242  0.016877066            2 
 3347000   0.72252685    -8.114531    698.11904  0.017381711  0.016871632            5 
 3348000   0.71229846   -8.0765524    698.75729  0.017392406  0.016866206            1 
 3349000   0.70699491   -8.0915482    698.02123  0.017368897  0.016860797            3 
 3350000   0.73751864   -8.0781051    701.11582  0.017440692  0.016855417            5 
 3351000   0.72412272    -8.064276    699.56816     0.017397  0.016850035            3 
 3352000   0.71488982    -8.056844    701.04482  0.017428521  0.016844674            2 
 3353000   0.71809919   -8.0680198    698.93333  0.017370845  0.016839296            3 
 3354000   0.70710724   -8.0827878     699.9357  0.017390571  0.016833931            3 
 3355000   0.71540936   -8.1119509    699.99684  0.017386906  0.016828552            2 
 3356000   0.70955813   -8.0884795     699.9782  0.017381262  0.016823171            6 
 3357000   0.69823727   -8.1046667    699.55829  0.017365661  0.016817798            1 
 3358000   0.70205517   -8.1084171     699.8933  0.017368803  0.016812417            3 
 3359000   0.71733002   -8.0891036    699.61757  0.017356792  0.016807042            2 
 3360000   0.71311588   -8.1006324    700.73668  0.017379382  0.016801656            1 
 3361000   0.71443543   -8.0585987    700.56351  0.017369917  0.016796297            1 
 3362000   0.71102671   -8.1033678    698.41333  0.017311455  0.016790945            2 
 3363000   0.73661672   -8.0916846    700.92361   0.01736851  0.016785592            3 
 3364000    0.7123482   -8.0676801    701.27259  0.017371992  0.016780233            2 
 3365000   0.70259243    -8.050422    700.25626  0.017341661   0.01677488            2 
 3366000   0.72944451   -8.0766537     699.4123  0.017315614  0.016769532            3 
 3367000   0.71011801   -8.0785229    701.66561  0.017366241  0.016764188            1 
 3368000   0.72480024   -8.0803257    700.13895  0.017323311  0.016758856            4 
 3369000    0.7090837   -8.0746478    699.65505    0.0173062  0.016753516            1 
 3370000   0.70459973   -8.0851162    700.24349  0.017315615  0.016748176            3 
 3371000    0.7155723    -8.105439    700.05546  0.017305831  0.016742831            1 
 3372000   0.71065176   -8.0671233    699.81973  0.017294873  0.016737502            1 
 3373000   0.72414808   -8.0904564     699.6085  0.017284527  0.016732169            5 
 3374000   0.70894376   -8.0852839     701.7202   0.01733156  0.016726834            3 
 3375000   0.69483468   -8.0884005    701.16231   0.01731265  0.016721499            3 
 3376000   0.70285809   -8.0997681    700.30028  0.017286243   0.01671615            7 
 3377000   0.70673427   -8.1160074    700.19405  0.017278503  0.016710796            1 
 3378000    0.7115136    -8.090716    700.61559  0.017283787  0.016705449            5 
 3379000   0.73324194   -8.0854777    700.45784  0.017274781    0.0167001            1 
 3380000   0.72154714   -8.1154284    700.47279  0.017270039  0.016694765            4 
 3381000   0.72259718   -8.1324178    699.87657  0.017250236  0.016689432            5 
 3382000   0.72152649   -8.0851291     700.7736  0.017267238  0.016684091            2 
 3383000   0.72510702   -8.0959335    699.55255  0.017232056  0.016678778            3 
 3384000   0.70250907   -8.0996979    699.28912  0.017220477  0.016673467            4 
 3385000   0.70605312   -8.1147925    699.63361   0.01722387  0.016668143            3 
 3386000   0.72756743   -8.0771613    700.48501  0.017239738  0.016662827            1 
 3387000   0.71038846   -8.1251661    701.82566  0.017267633   0.01665753            3 
 3388000   0.71735644   -8.1072002    701.85957   0.01726337  0.016652224            2 
 3389000   0.70593389   -8.1004418      701.435  0.017247836  0.016646917            2 
 3390000   0.70477482   -8.0765853    701.68973   0.01724901  0.016641607            5 
 3391000   0.71886054   -8.0889715    700.97813  0.017226436  0.016636302            5 
 3392000    0.7102967   -8.1217914    700.47731  0.017209054  0.016630997            6 
 3393000   0.72045041   -8.0805052    701.52987  0.017229833  0.016625708            1 
 3394000   0.69900813   -8.0852136    701.49471  0.017223893   0.01662043            3 
 3395000   0.71167633   -8.0978868    701.41966  0.017216977  0.016615135            2 
 3396000   0.69803067   -8.1332311    701.36961   0.01721068  0.016609858            2 
 3397000   0.70142931   -8.0900475    700.32955  0.017180099  0.016604563            2 
 3398000    0.6991156   -8.0998038    700.95635  0.017190415  0.016599288            4 
 3399000   0.71460223   -8.0995767    701.60731  0.017201317  0.016593971            2 
 3400000   0.71465985   -8.1106553    700.48071  0.017168645  0.016588664            2 
 3401000   0.71431706   -8.1099257     701.0916  0.017178565  0.016583352            2 
 3402000   0.71122926   -8.1182553    699.90699  0.017144498  0.016578038            6 
 3403000   0.69256764   -8.0951876    699.64479  0.017133039  0.016572735            3 
 3404000    0.7063807   -8.1071584    701.36508   0.01717012  0.016567425            3 
 3405000   0.68847466   -8.1139584    700.86806  0.017152914  0.016562121            1 
 3406000   0.69743899   -8.1253795    701.43602  0.017161774  0.016556798            2 
 3407000   0.70662305   -8.1150726    700.95845  0.017145055  0.016551481            1 
 3408000   0.70479964    -8.119853    700.40025  0.017126375  0.016546179            2 
 3409000   0.68981085   -8.1296926    699.09634  0.017089477  0.016540862            2 
 3410000   0.69256021   -8.1203763    700.47353  0.017118121  0.016535546            2 
 3411000   0.70611677   -8.1241678    700.64348  0.017117255  0.016530241            2 
 3412000   0.69393962   -8.1348938    699.62885  0.017087457  0.016524932            1 
 3413000   0.69986383   -8.1194968    699.45545  0.017078217  0.016519635            2 
 3414000   0.70631567   -8.0946239    701.79513  0.017130325  0.016514342            5 
 3415000   0.69132574   -8.1252056    700.04327  0.017082559  0.016509039            2 
 3416000     0.702349   -8.1241227    700.12493   0.01707955  0.016503742            2 
 3417000   0.71384007    -8.110774    700.89893  0.017093428   0.01649844            3 
 3418000   0.71424047   -8.1675783    700.02113  0.017067026  0.016493122            1 
 3419000   0.70552067   -8.1123203    699.88802   0.01705879    0.0164878            3 
 3420000    0.7009799   -8.1116932    700.50779  0.017068903  0.016482498            2 
 3421000   0.72454731   -8.1269779    700.30723  0.017059028  0.016477184            2 
 3422000   0.70787489   -8.1245654    700.18382  0.017051038  0.016471876            1 
 3423000   0.70702432   -8.1367635    700.77336  0.017060409  0.016466583            4 
 3424000   0.69084507   -8.1332455    700.65781  0.017052614  0.016461287            3 
 3425000   0.69234245   -8.1199781    701.90672  0.017078022  0.016455997            2 
 3426000   0.70615638   -8.1153044    700.87605  0.017047968  0.016450725            4 
 3427000   0.69453683   -8.1291699    701.47228  0.017057492  0.016445438            2 
 3428000    0.6979193   -8.1323205    700.51755  0.017029306  0.016440132            2 
 3429000   0.69105838   -8.1312114    698.73635  0.016981052  0.016434826            2 
 3430000   0.69654282   -8.1203158    700.69466   0.01702368  0.016429523            4 
 3431000   0.70600986   -8.1413428    700.52094  0.017014499  0.016424222            2 
 3432000   0.69063582   -8.1216763    700.88328  0.017018339  0.016418927            1 
 3433000   0.69799304   -8.1386764    701.57459  0.017030163  0.016413645            2 
 3434000   0.70482532   -8.1586904    700.46181    0.0169982  0.016408356            4 
 3435000   0.71478832   -8.1349336    701.14372  0.017009794  0.016403076            3 
 3436000   0.68646601   -8.1014042    701.50508  0.017013608  0.016397824            2 
 3437000   0.71004269   -8.1161018    699.99368  0.016972012  0.016392556            5 
 3438000   0.69069647    -8.147075    701.67297   0.01700778  0.016387282            2 
 3439000   0.69928084   -8.1522713     701.5742  0.017000441  0.016382018            2 
 3440000    0.7161716   -8.1349168    698.41708  0.016919018  0.016376735            1 
 3441000   0.70655722   -8.1539221     701.1677  0.016980715   0.01637146            1 
 3442000   0.70524253   -8.1171356    699.04733  0.016924446  0.016366182            3 
 3443000   0.71404078   -8.1489365    700.45951  0.016953711  0.016360885            2 
 3444000   0.70906717   -8.1562101     698.9491  0.016912241  0.016355604            3 
 3445000   0.69160813   -8.1441851    700.71991  0.016950167  0.016350322            3 
 3446000   0.69012023   -8.1375334    701.06238   0.01695353  0.016345042            6 
 3447000   0.68751891   -8.1382368     699.6783  0.016915151  0.016339763            3 
 3448000   0.69900809    -8.132497    700.03753  0.016918927  0.016334499            3 
 3449000   0.71483355    -8.150724    699.18027  0.016893309  0.016329231            4 
 3450000   0.70295154   -8.1516007    699.66041   0.01690001  0.016323959            2 
 3451000   0.70318222   -8.1235917    701.02085  0.016927964  0.016318692            2 
 3452000   0.71287111   -8.1286822    700.92794  0.016920817  0.016313424            2 
 3453000    0.7159026   -8.1406107    701.67255  0.016933887  0.016308171            3 
 3454000   0.69639514   -8.1539028    699.55866  0.016877984  0.016302912            3 
 3455000   0.68446096   -8.1318427       700.92  0.016905933   0.01629765            1 
 3456000   0.70161008    -8.121197    700.99074  0.016902747  0.016292397            2 
 3457000   0.69605674   -8.1577942    700.07402   0.01687576  0.016287142            4 
 3458000   0.69624316   -8.1329839    698.94394  0.016843646  0.016281882            6 
 3459000   0.69130914   -8.1398554    701.30107  0.016895564  0.016276618            4 
 3460000   0.68572663   -8.1175046    698.94038  0.016833824  0.016271364            2 
 3461000   0.70528605   -8.1236566    701.48605  0.016890254  0.016266117            2 
 3462000   0.69156205   -8.1517368    701.42689  0.016883952  0.016260876            2 
 3463000   0.69897751   -8.1316457    700.23022   0.01685028  0.016255639            2 
 3464000   0.70235869    -8.129418    700.68815  0.016856432  0.016250411            4 
 3465000   0.70887407   -8.1424473    699.52065  0.016823488  0.016245166            2 
 3466000   0.71077715   -8.1272502    701.23721  0.016859906  0.016239927            7 
 3467000   0.68828056   -8.1396698    700.54998  0.016838525  0.016234702            2 
 3468000   0.70456141   -8.1324364    702.53067  0.016881264  0.016229491            2 
 3469000   0.71319888   -8.1477385    699.59992  0.016805994   0.01622426            2 
 3470000   0.67972079   -8.1241838    700.35262  0.016819227  0.016219037            2 
 3471000   0.70352395   -8.1196212    701.04994  0.016831123  0.016213806            2 
 3472000   0.69725559   -8.1161643    701.29044  0.016832048   0.01620857            2 
 3473000   0.71242648   -8.1670659    699.83711  0.016792329  0.016203319            2 
 3474000   0.70876619   -8.1428679    699.22211  0.016772743  0.016198086            3 
 3475000   0.67620271   -8.1487221    700.82385  0.016806327  0.016192856            4 
 3476000   0.68324265    -8.114903     703.0969  0.016855986   0.01618763            3 
 3477000   0.69838935   -8.1368242    700.32755  0.016784765  0.016182408            3 
 3478000   0.69817645   -8.1480091    698.72091  0.016741444  0.016177165            1 
 3479000   0.70885408   -8.1522628    701.87244  0.016812121   0.01617191            3 
 3480000   0.70325042   -8.1550304    699.77282  0.016757012  0.016166654            2 
 3481000   0.69683012   -8.1556619    699.93909  0.016756179  0.016161397            2 
 3482000   0.68604247   -8.1122292    699.71685  0.016746047  0.016156143            3 
 3483000   0.68862384   -8.1435424    699.39767  0.016733603  0.016150891            2 
 3484000   0.69830645   -8.1566248    699.73173   0.01673679  0.016145645            4 
 3485000   0.69291001   -8.1437824    701.30266  0.016769552  0.016140392            3 
 3486000   0.70686643    -8.166876    699.48837  0.016721371  0.016135141            3 
 3487000   0.70232066   -8.1298962    700.20231  0.016733637  0.016129902            3 
 3488000   0.70815556   -8.1571976     700.5039  0.016736045  0.016124668            2 
 3489000   0.70300085    -8.148821    701.41027  0.016752896  0.016119421            2 
 3490000   0.67923641   -8.1454727    701.45029  0.016749052  0.016114181            2 
 3491000   0.70642526   -8.1769412       699.21  0.016690776  0.016108935            4 
 3492000   0.69133336    -8.164371    699.46647  0.016692117  0.016103679            3 
 3493000   0.71765958    -8.148577    700.37185  0.016708938  0.016098429            4 
 3494000   0.68309968   -8.1556065    700.13405  0.016698484  0.016093186            2 
 3495000   0.69034417     -8.15387    700.56636  0.016704014  0.016087938            3 
 3496000   0.69294263   -8.1591497    700.28996  0.016692648    0.0160827            1 
 3497000   0.67775664   -8.1278693    700.45457  0.016691797  0.016077483            2 
 3498000   0.68012305   -8.1404225    700.79352    0.0166951  0.016072239            3 
 3499000   0.67456434   -8.1571717    700.99976  0.016695241  0.016067005            2 
 3500000   0.67095915   -8.1586713    700.33244  0.016674582  0.016061763            2 
 3501000   0.67447179   -8.1560714    700.51589  0.016674186  0.016056513            3 
 3502000   0.69644135   -8.1539529    700.51022   0.01666929  0.016051276            1 
 3503000   0.69179833   -8.1742838    699.25908  0.016634767  0.016046036            2 
 3504000   0.69108517   -8.1458105    699.57293  0.016637484  0.016040787            1 
 3505000    0.6952459   -8.1626045    700.49705  0.016654709  0.016035525            3 
 3506000   0.69335206   -8.1674234     699.3664  0.016623084  0.016030258            3 
 3507000   0.70550874   -8.1812648    699.39099  0.016618928  0.016024986            3 
 3508000   0.69674611   -8.1815359    699.64598  0.016620248   0.01601972            3 
 3509000   0.68297594   -8.1716094    698.41027  0.016586166  0.016014446            3 
 3510000   0.68378415   -8.1842272    698.13933  0.016575008   0.01600918            3 
 3511000    0.7009196   -8.1667245    698.53653  0.016579715   0.01600392            3 
 3512000    0.6975298   -8.1801131    698.73642  0.016579737   0.01599867            2 
 3513000   0.69387093   -8.1545444    699.41981  0.016591228  0.015993413            7 
 3514000   0.70062967   -8.1576084    701.31184  0.016631375  0.015988168            6 
 3515000   0.68183571   -8.1926381    698.73974  0.016565665  0.015982912            3 
 3516000   0.71131835   -8.1835989    700.99826  0.016614483  0.015977657            3 
 3517000   0.68672774   -8.1944476    700.87651  0.016606874  0.015972407            3 
 3518000   0.68732031   -8.1961135    698.09085  0.016536168   0.01596715            3 
 3519000   0.68272139   -8.2065355    697.95276  0.016528198   0.01596189            2 
 3520000   0.67924626   -8.1756293    700.51099  0.016584067  0.015956643            2 
 3521000   0.69029245   -8.1740782    698.48623  0.016531436  0.015951381            3 
 3522000   0.69288657   -8.1635068    697.28029  0.016498209  0.015946127            1 
 3523000   0.69766228   -8.2068421    698.11051  0.016513164  0.015940876            1 
 3524000   0.68335896    -8.172574    699.06417  0.016531029  0.015935615            3 
 3525000   0.67992582   -8.1763264    698.75294  0.016518982  0.015930371            3 
 3526000   0.68879752   -8.1980674    698.49267  0.016508146  0.015925118            3 
 3527000   0.67898526    -8.173085    698.99706  0.016515383  0.015919864            1 
 3528000   0.70019534   -8.1505053    698.96223  0.016509879  0.015914632            1 
 3529000   0.70510354   -8.1757015    698.29092  0.016489348  0.015909394            2 
 3530000   0.69420334   -8.1566836    699.81049   0.01652055  0.015904163            1 
 3531000   0.68849298   -8.1728873    699.11045   0.01649935  0.015898923            2 
 3532000   0.70112075   -8.1595415    699.48379  0.016503487  0.015893681            2 
 3533000   0.69473834   -8.1643261    696.52491  0.016429024  0.015888437            2 
 3534000   0.67869414   -8.1685594    699.19228  0.016487273  0.015883205            4 
 3535000   0.68358305   -8.1604984    698.72503  0.016471594  0.015877965            3 
 3536000   0.68349464   -8.1660079    699.27315  0.016479854   0.01587273            1 
 3537000   0.68013057   -8.1919936    698.99803  0.016468712   0.01586749            1 
 3538000   0.69960368    -8.156442    699.86183  0.016484403  0.015862267            3 
 3539000   0.69248583   -8.1513969    700.38028  0.016491954  0.015857055            2 
 3540000   0.67393074   -8.1663284    699.09357  0.016457005  0.015851833            3 
 3541000   0.68299205   -8.1536046    699.70012  0.016466632  0.015846622            3 
 3542000    0.6905995   -8.1610278    700.23114  0.016474476  0.015841402            3 
 3543000   0.69012167   -8.1686332    699.93383  0.016462833  0.015836179            3 
 3544000   0.67965933   -8.1985149    698.47423  0.016423867  0.015830949            2 
 3545000   0.69104992    -8.163991    698.87017  0.016428542  0.015825723            2 
 3546000   0.66730776   -8.1819793    700.24789  0.016456286   0.01582051            2 
 3547000   0.68516931   -8.1837593    699.94716  0.016444581  0.015815293            4 
 3548000   0.69094361   -8.1798658    699.16532  0.016421583  0.015810079            2 
 3549000   0.69030961   -8.1796008    699.51538  0.016425176  0.015804884            3 
 3550000    0.6864261    -8.168736    699.55824  0.016421555  0.015799685            2 
 3551000   0.67242532   -8.1799532    700.38381  0.016436305  0.015794491            2 
 3552000   0.68326857   -8.1831724    698.52437  0.016388053  0.015789292            2 
 3553000   0.68926545   -8.1865732     699.8156  0.016413725  0.015784091            1 
 3554000   0.69455836   -8.2021943    700.81717  0.016432592  0.015778892            2 
 3555000   0.68222638   -8.1874488     699.5192  0.016397543  0.015773695            2 
 3556000   0.67195635   -8.1945108    700.05778  0.016405554  0.015768492            1 
 3557000   0.67661261   -8.1735547    699.90269  0.016397308  0.015763294            2 
 3558000   0.68702092   -8.1755113    700.00887  0.016395186  0.015758096            2 
 3559000   0.68468727    -8.179685    699.80831  0.016385883  0.015752922            1 
 3560000    0.6864677   -8.1697163    699.69552   0.01637864  0.015747755            3 
 3561000   0.66884958   -8.1586868    700.47926  0.016392382  0.015742577            3 
 3562000   0.68298418   -8.1667776    698.80969   0.01634872  0.015737391            3 
 3563000   0.68028017    -8.176065     700.1264  0.016374928  0.015732215            3 
 3564000   0.68491693   -8.1663653    699.69557  0.016360259  0.015727041            2 
 3565000    0.6846311   -8.2018623    698.99861  0.016339378  0.015721866            2 
 3566000    0.6855807   -8.1973673    698.13605  0.016314639  0.015716676            4 
 3567000   0.69442657   -8.2017202    697.59582  0.016297445  0.015711478            1 
 3568000   0.67577604   -8.2192393     699.0447  0.016326717  0.015706282            1 
 3569000   0.68316904   -8.1987388    699.11758  0.016323844  0.015701101            2 
 3570000   0.68083238    -8.187175    698.68686  0.016309217  0.015695926            3 
 3571000   0.68803474    -8.175783    699.23441  0.016317428   0.01569075            2 
 3572000   0.68465134   -8.1882469    698.13172  0.016287134  0.015685587            2 
 3573000   0.67504233   -8.1981594    699.29779  0.016309772  0.015680417            2 
 3574000   0.67787372   -8.1935893    698.49384  0.016286463   0.01567524            1 
 3575000   0.67518013     -8.17365    699.76451  0.016311527  0.015670085            2 
 3576000   0.68466626   -8.1817378    700.26673  0.016318669  0.015664934            2 
 3577000   0.67565308   -8.1924408    699.36804   0.01629317  0.015659775            3 
 3578000   0.69446708   -8.1577027    699.79566  0.016298576  0.015654622            2 
 3579000    0.6678455   -8.1773568    699.61657  0.016289852  0.015649482            2 
 3580000   0.67808254    -8.187808    700.56286  0.016307329  0.015644335            1 
 3581000   0.68547482   -8.1973081    700.41822  0.016299409  0.015639186            2 
 3582000   0.68514208   -8.1949164    699.78294   0.01628008  0.015634036            9 
 3583000   0.66759557   -8.2033456    700.28814  0.016287286  0.015628903            4 
 3584000   0.68150936   -8.1832302    700.17071  0.016280011   0.01562376            3 
 3585000   0.67506313   -8.1858988    700.45954  0.016282184  0.015618639            3 
 3586000   0.67384493   -8.1963492     699.8334  0.016263093  0.015613497            6 
 3587000   0.67396616   -8.1937931    699.85471  0.016259054  0.015608363            2 
 3588000   0.68597745    -8.208663     700.5079  0.016269693  0.015603221            8 
 3589000   0.68903614   -8.1839265    701.17858  0.016280732   0.01559808            5 
 3590000   0.66429982   -8.1850673    701.23113  0.016277417  0.015592949            2 
 3591000    0.6806466   -8.2113506    699.81036  0.016239914   0.01558781            5 
 3592000   0.67592602   -8.2271945    701.36524  0.016271465  0.015582677            2 
 3593000    0.6734802   -8.2020134     699.6333  0.016226767  0.015577546            3 
 3594000    0.6885719   -8.1950025    699.94286   0.01622943  0.015572412            4 
 3595000   0.66901271   -8.2006303    699.94425  0.016224948  0.015567284            2 
 3596000   0.67890117    -8.210855    698.68182   0.01619118  0.015562172            2 
 3597000   0.68914132   -8.2201237    699.60002  0.016207952  0.015557051            1 
 3598000   0.67560082   -8.2042033    698.86268  0.016186369  0.015551933            2 
 3599000   0.67226549   -8.2155896    699.43297  0.016195077  0.015546824            1 
 3600000   0.66121445   -8.2249309    701.12736    0.0162298  0.015541717            4 
 3601000   0.67584523    -8.218011    701.21136  0.016227237  0.015536617            2 
 3602000   0.67166758   -8.2038603    701.50501  0.016229526  0.015531527            2 
 3603000   0.66751081   -8.1852525    700.45001   0.01620062  0.015526433            3 
 3604000   0.67834041   -8.1996829    700.89443  0.016206401  0.015521345            1 
 3605000   0.65763972   -8.2092946    698.64273  0.016149855  0.015516257            3 
 3606000   0.67998987   -8.1971088    701.03374  0.016200632  0.015511164            3 
 3607000   0.66957911   -8.1933042    700.55294  0.016185032  0.015506076            2 
 3608000   0.67433997   -8.1979083    700.83229  0.016186999  0.015500991            2 
 3609000   0.67426501   -8.2087335    700.47557  0.016174277  0.015495911            3 
 3610000   0.67531577   -8.1907628    701.34442  0.016189853  0.015490841            3 
 3611000   0.67524027   -8.1718476    700.94704  0.016176199  0.015485778            4 
 3612000   0.66712985   -8.2156312    699.69116  0.016142745  0.015480723            2 
 3613000   0.66780316   -8.2046453     700.5859  0.016158915  0.015475653            2 
 3614000   0.68145634   -8.1976879    700.93803  0.016162563  0.015470606            2 
 3615000   0.67916735   -8.2032166    700.81397  0.016155232  0.015465533            2 
 3616000   0.65949063   -8.2091236    701.16503  0.016158855  0.015460461            2 
 3617000   0.68039868   -8.2041431    701.70305  0.016166783  0.015455394            6 
 3618000   0.66984174   -8.2132014    701.42719  0.016155961  0.015450326            2 
 3619000   0.68173363   -8.2280209    700.64871  0.016133571  0.015445256            1 
 3620000   0.67074533   -8.2260029    700.25777  0.016120114  0.015440181            2 
 3621000   0.67591553   -8.2241133    700.77321  0.016127525  0.015435112            1 
 3622000   0.67583197   -8.2267015    700.11281  0.016107878  0.015430032            1 
 3623000   0.66250565   -8.2237938    700.89838  0.016121501  0.015424965            3 
 3624000   0.68300489    -8.230763    699.11203  0.016075976  0.015419902            3 
 3625000    0.6829865   -8.2100316    699.02376  0.016069512  0.015414836            2 
 3626000   0.66789702   -8.2237715    698.83207  0.016060674  0.015409776            4 
 3627000   0.67106199   -8.2098603    701.48374  0.016117171  0.015404713            1 
 3628000   0.66103911   -8.2080074    700.85932  0.016098386  0.015399647            5 
 3629000   0.66967887   -8.1987939     703.0314  0.016143827  0.015394586            3 
 3630000   0.66079557   -8.2402591    700.14975  0.016073227  0.015389517            1 
 3631000   0.67216914   -8.2072423    700.13068  0.016068362  0.015384445            3 
 3632000   0.66419695   -8.2181753    700.23889  0.016066421  0.015379369            2 
 3633000   0.67180631   -8.2345149    700.66634  0.016071803  0.015374316            2 
 3634000   0.66776535   -8.2299682    701.58011  0.016088335  0.015369254            2 
 3635000   0.67348741   -8.2335557    700.66894   0.01606302  0.015364195            6 
 3636000   0.66932885   -8.2155517      700.957  0.016065204  0.015359137            2 
 3637000   0.67582273   -8.2294108    701.07801   0.01606356  0.015354097            1 
 3638000   0.67357464   -8.2161415    699.95389  0.016033395  0.015349055            2 
 3639000   0.67519176   -8.2432078    700.46917  0.016040789  0.015344011            2 
 3640000   0.65979191   -8.2061491    702.18227  0.016075601  0.015338964            1 
 3641000   0.66521021   -8.2415273    700.36281  0.016029543  0.015333915            3 
 3642000   0.66818234   -8.2266938    701.33714  0.016047436  0.015328861            2 
 3643000   0.67373897   -8.2373662    701.09996  0.016037605  0.015323813            3 
 3644000   0.69010886   -8.2453614    700.50525  0.016019604  0.015318766            2 
 3645000   0.66781258   -8.2203516    700.25315  0.016009446  0.015313727            2 
 3646000   0.66785772   -8.2048306    700.48008  0.016010241  0.015308695            2 
 3647000   0.67984908   -8.2168477    701.41522  0.016027219  0.015303666            1 
 3648000   0.66377499   -8.1939796    700.62178  0.016004701  0.015298641            4 
 3649000   0.65435778   -8.2129391    701.53769  0.016021232  0.015293622            3 
 3650000    0.6829926   -8.2246104    701.52968  0.016016659  0.015288604            2 
 3651000   0.67141302   -8.2165213    700.09189  0.015979455  0.015283608            3 
 3652000   0.66134904   -8.2383158    699.69492  0.015966021  0.015278585            3 
 3653000   0.66675508   -8.2361061    700.71213  0.015984855  0.015273557            2 
 3654000   0.67644797   -8.2277371    700.21499  0.015969143  0.015268532            3 
 3655000   0.67979478   -8.2380905    700.00753  0.015960044  0.015263506            3 
 3656000   0.67703542   -8.2074778     700.2872  0.015962053  0.015258481            1 
 3657000   0.66750198   -8.2270374    701.28577  0.015980443  0.015253465            2 
 3658000   0.65547286   -8.2222101    700.00279  0.015946847  0.015248442            3 
 3659000   0.67975336   -8.2386682    701.11592   0.01596784  0.015243419            2 
 3660000   0.66537849   -8.2244571      701.199  0.015965369  0.015238395            2 
 3661000   0.66396424   -8.2433054    699.68912  0.015926639  0.015233375            2 
 3662000   0.68029827   -8.2340872    701.45196  0.015962406  0.015228366            4 
 3663000   0.65001035   -8.2495088    698.26726  0.015885596  0.015223345            4 
 3664000   0.66787421   -8.2419766    699.46617  0.015908528  0.015218314            7 
 3665000   0.67694106   -8.2505621    698.76215   0.01588818  0.015213293            3 
 3666000   0.65918903   -8.2679505    700.90677  0.015932596  0.015208279            1 
 3667000   0.66931325   -8.2322376    699.96248  0.015906792  0.015203256            3 
 3668000   0.66781285   -8.2336576    700.37953   0.01591193  0.015198243            3 
 3669000   0.67617488   -8.2331174    701.44489  0.015931791  0.015193241            3 
 3670000   0.66052391   -8.2194002    699.98221  0.015894237  0.015188242            2 
 3671000   0.67700042   -8.2330829    700.98869  0.015912755  0.015183245            1 
 3672000   0.66321329   -8.2550618    700.22043  0.015890987  0.015178251            2 
 3673000   0.66283582   -8.2180588    702.67371   0.01594232   0.01517326            3 
 3674000   0.65167899   -8.2386232    699.39641  0.015863646  0.015168266            3 
 3675000   0.65721649   -8.2265467      700.912  0.015893696  0.015163275            2 
 3676000   0.67666833   -8.2230424    702.85573  0.015933436  0.015158299            2 
 3677000   0.68150205   -8.2305738    700.93302  0.015885527  0.015153323            2 
 3678000   0.65310848   -8.2402253    700.63697  0.015874501  0.015148338            2 
 3679000   0.67267685   -8.2429877    699.73013  0.015849645  0.015143346            4 
 3680000   0.66252503   -8.2477683    698.95113  0.015827698  0.015138349            2 
 3681000    0.6743801   -8.2483382    701.17249  0.015873687  0.015133347            2 
 3682000   0.66169719   -8.2325569    699.72791  0.015836681  0.015128357            2 
 3683000   0.66905029   -8.2467631    699.31805  0.015823107  0.015123347            3 
 3684000    0.6549915   -8.2495695    699.53212  0.015823654  0.015118344            2 
 3685000   0.66049473   -8.2426855    700.06178  0.015831338   0.01511335            2 
 3686000   0.66370018   -8.2268275    700.69083  0.015841265  0.015108353            2 
 3687000   0.65704571   -8.2276681     699.6302  0.015812996  0.015103356            4 
 3688000   0.67261313   -8.2210374    700.45698   0.01582739  0.015098366            2 
 3689000   0.64289487   -8.2328687    699.61942  0.015804179  0.015093382            2 
 3690000    0.6573777   -8.2120006    701.74816  0.015847971  0.015088387            3 
 3691000   0.65961955   -8.2408606    702.07566  0.015851072  0.015083404            3 
 3692000   0.66325018   -8.2103445    701.10193    0.0158248  0.015078431            1 
 3693000   0.66028033   -8.2490216      699.512  0.015784638  0.015073438            5 
 3694000   0.66738788   -8.2483137    700.37859  0.015799914  0.015068444            3 
 3695000   0.64774378   -8.2481317    701.46449  0.015820128  0.015063459            3 
 3696000   0.66001441   -8.2315676    700.97546  0.015804822  0.015058477            2 
 3697000   0.65365467   -8.2642735    700.43714  0.015788413  0.015053494            1 
 3698000   0.65040899   -8.2425601    700.33176  0.015781769  0.015048512            2 
 3699000   0.65795697   -8.2291234    701.13066    0.0157955   0.01504353            1 
 3700000   0.65600925   -8.2681005    701.08311   0.01579016  0.015038558            2 
 3701000   0.65816932   -8.2585221    699.94844  0.015760345  0.015033587            1 
 3702000   0.64694908   -8.2578539    700.83779  0.015776107  0.015028607            1 
 3703000   0.65763767   -8.2504469    700.59628  0.015766412  0.015023618            3 
 3704000   0.66149294   -8.2477785    699.71931  0.015742425  0.015018642            5 
 3705000   0.65847216    -8.243666    700.46636  0.015754979  0.015013671            3 
 3706000   0.65317398   -8.2713264    699.17964  0.015721794  0.015008705            2 
 3707000   0.65788207     -8.24144    700.71652  0.015752102  0.015003726            3 
 3708000   0.65548442   -8.2417144    697.78231  0.015681911  0.014998756            2 
 3709000   0.66612087   -8.2668028    699.35618  0.015713044  0.014993791            2 
 3710000   0.64772149    -8.250923    699.15175  0.015704217  0.014988821            2 
 3711000   0.66835443   -8.2699974    700.86578  0.015738475  0.014983848            3 
 3712000   0.66353896   -8.2625955    700.52454  0.015726575  0.014978878            2 
 3713000   0.66785686   -8.2549744    698.63094   0.01567984  0.014973904            3 
 3714000   0.67097126   -8.2526998    700.01382  0.015706646  0.014968924            4 
 3715000   0.65696505   -8.2645947    699.94428  0.015700859  0.014963944            3 
 3716000   0.66081278   -8.2686327    699.64363  0.015689891  0.014958969            1 
 3717000   0.66172729    -8.275995    698.60147  0.015662305  0.014953988            2 
 3718000   0.63725645   -8.2668981    699.95806  0.015688499  0.014949011            3 
 3719000   0.64727133   -8.2728897    699.48948  0.015673781   0.01494404            2 
 3720000   0.65075391   -8.2442304    700.79532   0.01569882  0.014939071            2 
 3721000   0.65714426   -8.2527823    698.78637   0.01564961  0.014934096            5 
 3722000   0.65498108    -8.243594    699.15421  0.015653641  0.014929126            2 
 3723000   0.66077092   -8.2598655     700.2321  0.015673563  0.014924161            5 
 3724000   0.65485594    -8.278906    699.46358  0.015652157  0.014919203            2 
 3725000   0.64199092   -8.2641661    699.91244  0.015657996  0.014914249            4 
 3726000   0.64744507    -8.260761    699.38481  0.015641994  0.014909294            5 
 3727000   0.64066697   -8.2641581    699.54672  0.015641417   0.01490434            1 
 3728000   0.65207305   -8.2992794    697.50508  0.015591583  0.014899373            3 
 3729000   0.66078674   -8.2381981    699.27061  0.015626857  0.014894401            2 
 3730000   0.68090906   -8.2628096    702.00936  0.015683855  0.014889446            3 
 3731000   0.65079265   -8.2497243    700.31241  0.015641749  0.014884491            2 
 3732000   0.66501491   -8.2512289    699.64548  0.015622666  0.014879544            3 
 3733000     0.667832   -8.2591833    700.17736  0.015630355  0.014874601            2 
 3734000   0.66561451   -8.2665132    697.90298   0.01557541   0.01486964            3 
 3735000   0.64634429   -8.2600201    698.90559   0.01559361  0.014864684            2 
 3736000   0.65436267   -8.2526643    699.58119  0.015604506  0.014859718            6 
 3737000    0.6573375   -8.2774415    698.85641  0.015584168  0.014854752            2 
 3738000   0.66806582   -8.2600334    697.89897  0.015558654  0.014849787            3 
 3739000   0.65825484   -8.2722767    698.71779  0.015572742  0.014844837            4 
 3740000   0.65005413   -8.2522038    698.87924  0.015572176  0.014839889            1 
 3741000   0.63120794   -8.2601199     699.6158   0.01558442   0.01483494            1 
 3742000   0.64380643   -8.2791726    698.66602  0.015559104  0.014830002            4 
 3743000   0.64909207   -8.2660725    698.98154  0.015561972  0.014825058            3 
 3744000   0.64089837   -8.2513271    699.32449  0.015565449  0.014820119            1 
 3745000   0.64729541   -8.2783441    698.30097  0.015538517  0.014815178            2 
 3746000   0.63427666    -8.260237    699.23327  0.015555109  0.014810236            1 
 3747000    0.6540728   -8.2781265     699.3408  0.015553349  0.014805307            2 
 3748000   0.64801225   -8.2618491    699.90761  0.015561802  0.014800372            4 
 3749000   0.66106323    -8.266328    699.08823  0.015539438  0.014795446            3 
 3750000   0.64930976   -8.2682617    699.04108  0.015534246  0.014790519            2 
 3751000   0.66690051   -8.2403788    699.22261  0.015534138  0.014785607            2 
 3752000   0.65154864   -8.2639918    699.54904  0.015537248  0.014780686            2 
 3753000   0.64876353   -8.2617575    700.15626  0.015546591  0.014775759            1 
 3754000   0.63396975   -8.2516533     700.6302   0.01555297  0.014770837            2 
 3755000   0.64987649   -8.2698299    699.06949  0.015514192   0.01476592            3 
 3756000   0.65729818   -8.2890991    699.39095  0.015517194  0.014761001            2 
 3757000   0.65391883   -8.2666801    699.63691  0.015518519  0.014756081            3 
 3758000    0.6517722    -8.273375    697.28326  0.015462198  0.014751166            2 
 3759000   0.65828463   -8.2709877      700.766  0.015535293  0.014746263            2 
 3760000   0.66253488   -8.2528942    699.85528  0.015510977  0.014741371            5 
 3761000   0.64566139   -8.2492422    699.90479   0.01550795  0.014736477            2 
 3762000    0.6574312   -8.2662738    699.38051  0.015492214  0.014731574           10 
 3763000   0.65098891   -8.2773611    700.05376  0.015503007  0.014726673            3 
 3764000   0.66439089   -8.2645208    697.63023  0.015445232  0.014721783            2 
 3765000   0.64260152    -8.275442    700.26882  0.015499531  0.014716882            2 
 3766000   0.64863709   -8.2651256    700.35695  0.015497366  0.014711994            2 
 3767000   0.64812542   -8.2807383    700.55156  0.015497557  0.014707107            2 
 3768000   0.64007275    -8.255986    700.13762  0.015484289  0.014702218            2 
 3769000   0.65440576   -8.2815064      701.154  0.015502653  0.014697321            2 
 3770000   0.64662201   -8.2624588    699.91318  0.015471114  0.014692432            4 
 3771000   0.63948195   -8.2651396    699.31898   0.01545388  0.014687543            2 
 3772000   0.65151248   -8.2534125    699.42565   0.01545214  0.014682667            4 
 3773000   0.64307142   -8.2741044    699.38391  0.015447122  0.014677779            2 
 3774000   0.63588832   -8.2741532    700.27149  0.015462628  0.014672881            1 
 3775000   0.65224969   -8.2584829    699.88823  0.015450071  0.014667975            1 
 3776000    0.6557477   -8.2737712    697.22987  0.015387312  0.014663077            7 
 3777000   0.63638759   -8.2542337    699.60419  0.015435623  0.014658187            3 
 3778000    0.6427992   -8.2760185    698.58617  0.015409083  0.014653292            3 
 3779000   0.64066766   -8.2678411    699.09014  0.015416118  0.014648399            1 
 3780000    0.6431418   -8.2671593     698.6109  0.015401475  0.014643501            2 
 3781000   0.64572769   -8.2896923    698.19035  0.015388133  0.014638606            3 
 3782000   0.65243437   -8.2845031    697.42893  0.015367286  0.014633701            1 
 3783000   0.66054205   -8.2921982    698.49893  0.015386795  0.014628802            1 
 3784000   0.64555816   -8.3043961    699.66261  0.015408356  0.014623919            1 
 3785000   0.64368985   -8.2818631    699.13548  0.015392679   0.01461903            4 
 3786000    0.6247108   -8.2708655    700.25135  0.015413175  0.014614159            2 
 3787000   0.66121394   -8.2666111    699.33918  0.015389032  0.014609288            3 
 3788000   0.63262295   -8.2968773    699.77647   0.01539459  0.014604425            2 
 3789000   0.64594132   -8.2810191    698.45007  0.015361355  0.014599551            2 
 3790000    0.6465727    -8.286274    698.81727  0.015365375  0.014594675            1 
 3791000   0.64000191   -8.2827536    698.08057  0.015345128  0.014589798            3 
 3792000   0.65211341   -8.3044128    698.81843  0.015357297  0.014584917            1 
 3793000   0.64033868   -8.2902244    701.03451  0.015401936  0.014580042            3 
 3794000   0.64537812   -8.2883421    699.40538  0.015362093  0.014575163            2 
 3795000   0.64345749   -8.3107823    697.76277  0.015321976  0.014570279            1 
 3796000   0.65573501   -8.3077332    698.53091  0.015334802  0.014565403            2 
 3797000   0.63300874   -8.2972822     697.6086  0.015310522  0.014560524            2 
 3798000   0.64371617   -8.2947565    698.77585  0.015332101   0.01455565            4 
 3799000    0.6429441   -8.2798333     700.1168   0.01535748   0.01455078            3 
 3800000   0.64713941    -8.307489     698.0282  0.015307636  0.014545898            2 
 3801000   0.62353782   -8.2928247    698.47096  0.015313316  0.014541024            2 
 3802000   0.64756587   -8.3191581    697.35063  0.015284732  0.014536149            3 
 3803000   0.63732511   -8.2899878    699.62027  0.015330447   0.01453127            4 
 3804000   0.64343875   -8.3058943    697.33153  0.015276278  0.014526398            2 
 3805000   0.64325885    -8.301451    698.06616  0.015288352  0.014521529            2 
 3806000   0.63384806   -8.3215091    699.74514  0.015321097  0.014516665            2 
 3807000   0.64378542   -8.3273746     699.4698  0.015311045  0.014511802            3 
 3808000   0.64900055   -8.3246022    698.64897  0.015289062  0.014506932            2 
 3809000   0.64543046   -8.3025756    698.14684  0.015274062  0.014502063            3 
 3810000   0.63534992   -8.3101482    698.47964  0.015277332  0.014497202            2 
 3811000   0.63848034   -8.3067431     698.3143  0.015269708  0.014492339            3 
 3812000   0.63568815   -8.3055997    697.86546  0.015255891  0.014487471            2 
 3813000   0.63794132   -8.2838529    698.74203  0.015271047  0.014482612            2 
 3814000    0.6460717    -8.307072    698.86994  0.015269838  0.014477769            2 
 3815000   0.63285114    -8.298757    698.54805  0.015258804  0.014472916            2 
 3816000   0.64158244    -8.256757    699.06472  0.015266088  0.014468063            2 
 3817000   0.64194284   -8.2990377    698.05295      0.01524  0.014463226            4 
 3818000    0.6447018   -8.2918599    699.71833  0.015272358  0.014458381            2 
 3819000    0.6370487   -8.3033092     698.0801  0.015232611  0.014453538            1 
 3820000   0.64797184   -8.3101907    699.67162  0.015263342  0.014448693            2 
 3821000   0.63343322    -8.274467    698.93732  0.015243333  0.014443857            2 
 3822000   0.64213359   -8.2527823    698.50803  0.015229985  0.014439018            2 
 3823000   0.65275054   -8.2914676    698.76048  0.015231504  0.014434189            3 
 3824000   0.64171316   -8.3093376    698.94199  0.015231476  0.014429357            1 
 3825000   0.64516077   -8.2765494    698.49269  0.015217706  0.014424521            2 
 3826000    0.6387028   -8.2939799    698.61388  0.015216368  0.014419685            2 
 3827000   0.64483679   -8.3137573    697.89602   0.01519676  0.014414847            3 
 3828000    0.6317452   -8.2812961    698.51939  0.015206361   0.01441001            1 
 3829000   0.64698852   -8.3029779    698.91547   0.01521101  0.014405188            3 
 3830000   0.64136182   -8.3023937    698.08301  0.015188925  0.014400364            2 
 3831000   0.64056186   -8.3015427    699.60518  0.015218071  0.014395546            3 
 3832000   0.63865848   -8.2912827    699.41084  0.015209874  0.014390725            1 
 3833000   0.63223754   -8.2924738    698.74123  0.015191348  0.014385906            2 
 3834000   0.64434495   -8.2770603    699.59194  0.015205876  0.014381089            2 
 3835000   0.64688188   -8.3215173    698.53635  0.015178973   0.01437628            4 
 3836000   0.62865024   -8.3046789    697.12977   0.01514446  0.014371463            1 
 3837000   0.63998703   -8.2980635    698.42019  0.015168539  0.014366637            1 
 3838000   0.63896036   -8.2616077    699.04424  0.015178136  0.014361826            3 
 3839000   0.64816144   -8.2784986    697.71393  0.015145306  0.014357014            1 
 3840000   0.62599324   -8.2982496     697.6904  0.015140851  0.014352192            3 
 3841000   0.62749283   -8.3144385    698.18693  0.015147681  0.014347371            1 
 3842000   0.65450039   -8.3162786    698.74979  0.015155947  0.014342542            3 
 3843000   0.64036343   -8.3354838    698.42137  0.015144882  0.014337722            1 
 3844000   0.64063486   -8.3094513    698.99142    0.0151533  0.014332906            1 
 3845000   0.63859957   -8.3029892    698.30591  0.015134502  0.014328081            1 
 3846000   0.63666673   -8.3283028    697.68922  0.015117204  0.014323257            3 
 3847000    0.6356175    -8.303599    697.98214   0.01511962  0.014318442            2 
 3848000   0.62245121   -8.2986252    697.42222  0.015103565  0.014313629            3 
 3849000   0.62718408   -8.3248601    698.13025   0.01511497  0.014308816            3 
 3850000   0.63136412   -8.2848193    698.86313  0.015126908  0.014304008            2 
 3851000   0.62809191   -8.3312222    697.67889  0.015097353  0.014299212            2 
 3852000   0.64120643   -8.3221097    697.89153  0.015098034  0.014294409            2 
 3853000   0.63586743   -8.3094108    697.34851  0.015082371  0.014289616            4 
 3854000   0.63309353   -8.3037609    697.94303  0.015091313  0.014284816            4 
 3855000   0.62873874   -8.2944006    698.33093  0.015095783  0.014280018            2 
 3856000   0.63589465   -8.3150871    698.59965  0.015097676  0.014275219            3 
 3857000   0.64993211   -8.3278083    697.47899  0.015069549  0.014270424            2 
 3858000   0.63050872   -8.3064509     698.2682   0.01508269  0.014265624            2 
 3859000    0.6382056   -8.3044932    698.26727  0.015078761  0.014260833            2 
 3860000   0.63381391   -8.3159383    697.14729  0.015050675   0.01425604            4 
 3861000   0.64302022   -8.3122585    697.67246  0.015058112  0.014251235            2 
 3862000   0.62807218   -8.3064648    697.40027   0.01504834  0.014246442            4 
 3863000   0.61939069   -8.3249309    697.88943  0.015054997  0.014241643            4 
 3864000   0.63352017   -8.3043489    698.62594  0.015066985  0.014236852            3 
 3865000   0.63338376   -8.3176003    697.29511  0.015034392  0.014232063            3 
 3866000   0.64647721   -8.3090395    699.29084  0.015073522  0.014227282            6 
 3867000   0.63143048   -8.3245865    698.53642  0.015053366    0.0142225            2 
 3868000   0.62066746   -8.2965938    698.55817  0.015049943  0.014217724            6 
 3869000   0.62499202     -8.33252    698.36304  0.015041851  0.014212946            3 
 3870000   0.62811349   -8.2950285    697.68106  0.015023279  0.014208163            2 
 3871000   0.63751496   -8.3158782    698.22829  0.015031178  0.014203389            2 
 3872000   0.63042605   -8.3252028    697.41623  0.015009819  0.014198622            2 
 3873000   0.64667864   -8.3275429    699.40557  0.015048747  0.014193847            3 
 3874000   0.63971647   -8.3104895    696.58864  0.014984268  0.014189071            4 
 3875000    0.6280837   -8.3049743    697.53343  0.015000719    0.0141843            4 
 3876000   0.63437845    -8.334159    697.12713  0.014988113  0.014179524            3 
 3877000   0.63271526   -8.3131173    698.72363  0.015018563  0.014174745            2 
 3878000   0.63324281   -8.3156694    697.29382  0.014983966  0.014169982            3 
 3879000   0.62214627   -8.3190304    698.07178  0.014996816  0.014165218            3 
 3880000   0.63273363   -8.3321345    699.21447  0.015017493   0.01416046            3 
 3881000   0.63051589   -8.3260314     697.7984  0.014983217  0.014155699            2 
 3882000   0.62773477   -8.3074664    697.91444  0.014981849  0.014150947            1 
 3883000   0.63559833   -8.3142023    698.56301  0.014991909  0.014146184            5 
 3884000    0.6306281   -8.3372627    697.88252  0.014973449  0.014141418            2 
 3885000   0.63512186   -8.3475837    697.04016  0.014951526  0.014136652            2 
 3886000   0.62572741   -8.3322983    697.57698  0.014959191   0.01413188            2 
 3887000   0.63351028   -8.3391393    696.94652  0.014941826  0.014127104            2 
 3888000    0.6413048   -8.3273572    696.11517  0.014920164  0.014122329            1 
 3889000   0.62097455   -8.3460392    697.81578  0.014952768  0.014117566            3 
 3890000   0.64376432    -8.328076    696.16837  0.014913633    0.0141128            2 
 3891000   0.61913091   -8.3379569    696.26951  0.014911966  0.014108033            3 
 3892000   0.64516322   -8.3168167    697.23294  0.014928763  0.014103268            3 
 3893000   0.63832394   -8.3307838    696.99948  0.014919931  0.014098502            3 
 3894000   0.64344711   -8.3318575    697.03688    0.0149169  0.014093734            3 
 3895000   0.62862691   -8.3371918    697.55064  0.014924062  0.014088976            5 
 3896000   0.62709857   -8.3434186    696.47103  0.014897139  0.014084221            4 
 3897000   0.62747786   -8.3575841    698.09775  0.014928102  0.014079469            3 
 3898000   0.63369986   -8.3258277    698.15575  0.014925512  0.014074715            5 
 3899000   0.63290859   -8.3348109    698.39532  0.014926804  0.014069967            5 
 3900000    0.6292575   -8.3364602    698.69047  0.014929284  0.014065218            3 
 3901000   0.63325147   -8.3399817    697.82719  0.014907015  0.014060469            4 
 3902000   0.62060937   -8.3248007    697.48252  0.014895834  0.014055731           10 
 3903000   0.63464541   -8.3267519    697.89268  0.014900775  0.014050988            4 
 3904000   0.63510458   -8.3342051    698.23616   0.01490429   0.01404625            2 
 3905000   0.62254893   -8.3310248    696.63665  0.014866339  0.014041507            2 
 3906000   0.63231428   -8.3256314    699.40126  0.014921515  0.014036776            4 
 3907000   0.62913695   -8.3471328    696.55878  0.014857068  0.014032036            4 
 3908000   0.63152795   -8.3231994    696.55739  0.014853237  0.014027294            5 
 3909000   0.63335622    -8.327833    697.23921  0.014863972  0.014022557            2 
 3910000   0.63389268   -8.3260241    698.88851  0.014895322  0.014017833            5 
 3911000   0.62729263   -8.3182606    698.35682  0.014880184  0.014013109            3 
 3912000   0.62747466   -8.3438267    696.05703  0.014827391  0.014008373            5 
 3913000   0.63365437   -8.3244933    696.72303  0.014837785  0.014003643            5 
 3914000   0.60622898   -8.3098307    697.51645  0.014850887  0.013998916            6 
 3915000   0.63631577   -8.3345246     696.6167  0.014827942   0.01399419            2 
 3916000   0.63812852   -8.3435963    696.54214  0.014822569  0.013989462            3 
 3917000   0.62983994   -8.3307105    697.79234  0.014845382  0.013984736            2 
 3918000   0.60001146   -8.3628673    695.97723  0.014802987  0.013980017            3 
 3919000   0.64644245   -8.3464974    697.48763  0.014831327  0.013975293            4 
 3920000   0.62731098   -8.3375174    699.14093   0.01486269  0.013970583            3 
 3921000   0.62841671   -8.3311597     697.6632  0.014827493  0.013965872            3 
 3922000   0.62114035    -8.354548    697.84231  0.014827518   0.01396116            5 
 3923000   0.61741622   -8.3421911     697.9003   0.01482497  0.013956452            7 
 3924000   0.61990915   -8.3470944    697.40145  0.014810598  0.013951744            4 
 3925000   0.62541654   -8.3323478    696.59142  0.014789627  0.013947029            4 
 3926000   0.62083422   -8.3782749    696.99371  0.014794399  0.013942318            3 
 3927000   0.63225604   -8.3499469    697.48979  0.014801159  0.013937606            3 
 3928000   0.61666971   -8.3584633    697.10112  0.014789144  0.013932889            3 
 3929000   0.61365106   -8.3558779    696.29528  0.014768289  0.013928178            8 
 3930000   0.62669729   -8.3460618    696.80117  0.014775258  0.013923467            1 
 3931000    0.6321125    -8.369376    695.12355  0.014735936  0.013918761            2 
 3932000   0.60718724   -8.3624377    695.99947  0.014750752  0.013914049            2 
 3933000   0.62111552   -8.3398612    696.20175  0.014751287  0.013909339            4 
 3934000   0.62280148   -8.3613445    696.10961  0.014745586  0.013904636            3 
 3935000   0.62932143   -8.3473127    696.90104  0.014758599  0.013899935            6 
 3936000   0.63767546   -8.3430727    697.80019  0.014773886  0.013895238            4 
 3937000   0.62953898    -8.331395    698.93667  0.014794189  0.013890539            4 
 3938000   0.61580076   -8.3396815    698.30703  0.014777108  0.013885852            2 
 3939000   0.61246617   -8.3626903    698.30505  0.014773315  0.013881163            4 
 3940000   0.62597816   -8.3388537    696.87082   0.01473923  0.013876479            4 
 3941000   0.63111779   -8.3280551    696.01271  0.014717346  0.013871795            3 
 3942000   0.63317532   -8.3650874    697.08245  0.014736226  0.013867108            8 
 3943000   0.62558445   -8.3339771    697.91541  0.014750093  0.013862419            7 
 3944000   0.63037928   -8.3741935    696.91127  0.014725137  0.013857734            1 
 3945000   0.61897952   -8.3376395    696.72151  0.014717396   0.01385305            2 
 3946000   0.62116304   -8.3321084    697.41199  0.014728248  0.013848363            3 
 3947000   0.61525282   -8.3626907    696.13573   0.01469757   0.01384368            1 
 3948000   0.61711626   -8.3569407    695.84318  0.014687673  0.013838994            1 
 3949000   0.60478946   -8.3424111     697.3599   0.01471596  0.013834312            1 
 3950000   0.61359636   -8.3701583     697.5149  0.014715504  0.013829631            2 
 3951000   0.61584935    -8.343818    696.04276   0.01468073  0.013824947            2 
 3952000   0.62679557   -8.3549738    696.34737  0.014683438  0.013820271            3 
 3953000   0.62487426   -8.3633511     697.8278  0.014710933  0.013815595            1 
 3954000   0.62243418   -8.3386072    697.25442  0.014695128  0.013810926            2 
 3955000   0.62701941   -8.3327586    696.83317  0.014682536   0.01380626            2 
 3956000    0.6113786   -8.3419907    697.60086  0.014694996  0.013801597            2 
 3957000   0.59605085   -8.3298262    697.86634  0.014696874  0.013796935            4 
 3958000   0.62205686   -8.3434176    696.90224  0.014672862  0.013792279            3 
 3959000   0.61851504   -8.3406005     696.5897  0.014662577  0.013787621            3 
 3960000   0.61099858   -8.3608661    697.25662  0.014672909  0.013782969            3 
 3961000   0.61835173   -8.3334606    696.84733  0.014660593  0.013778312            4 
 3962000    0.6179889   -8.3536406    698.19848  0.014685312  0.013773667            3 
 3963000   0.61865833   -8.3383606     697.5622  0.014668227  0.013769019            1 
 3964000   0.61972419   -8.3334849    698.53504  0.014684978  0.013764375            2 
 3965000   0.61550094   -8.3408412    698.21007  0.014674445  0.013759737            3 
 3966000   0.63138109   -8.3556202    696.77399   0.01464057  0.013755091            1 
 3967000     0.611372    -8.332309    697.26737  0.014647243  0.013750451            4 
 3968000   0.62253326    -8.332627    698.25847  0.014664366  0.013745817            3 
 3969000   0.61902065   -8.3169847    697.49637  0.014644671  0.013741187            2 
 3970000   0.60593365   -8.3335954    697.97671  0.014651065  0.013736558            3 
 3971000   0.62177966   -8.3278228    697.86761  0.014645085  0.013731929            3 
 3972000   0.62181707   -8.3342196     698.2929  0.014650321  0.013727307            3 
 3973000   0.61655313    -8.356011    696.73847  0.014614029  0.013722681            6 
 3974000   0.62837436    -8.353022    698.00074  0.014636821  0.013718054            5 
 3975000   0.61020833    -8.355742    697.36546  0.014619821  0.013713427            2 
 3976000   0.61189424   -8.3487251    697.10417  0.014610668  0.013708801            2 
 3977000   0.60783401   -8.3358874    697.00712   0.01460496   0.01370418            1 
 3978000   0.60660197   -8.3216362    697.98776  0.014621832  0.013699571            1 
 3979000   0.61779072   -8.3313171    697.58002  0.014609618  0.013694958            4 
 3980000   0.60571151   -8.3302637    696.81657  0.014589962  0.013690348            2 
 3981000   0.62906349   -8.3599716    696.10218  0.014571343   0.01368574            2 
 3982000   0.60342434   -8.3411673    696.79627  0.014582209  0.013681128            2 
 3983000   0.61346488    -8.336518    695.76501  0.014556972  0.013676521            2 
 3984000   0.61476327   -8.3342375    696.53907  0.014569509  0.013671914            2 
 3985000   0.60856426   -8.3511786    697.59494  0.014587933  0.013667299            2 
 3986000   0.63129696   -8.3553198    696.74434   0.01456649  0.013662698            2 
 3987000   0.60993439   -8.3390857    697.80658  0.014585038  0.013658091            3 
 3988000   0.62254023   -8.3371382    698.28805  0.014591442  0.013653489            1 
 3989000   0.61497339   -8.3422207    696.44695  0.014549322  0.013648887            2 
 3990000    0.6294525   -8.3412074    697.62029  0.014570182  0.013644285            2 
 3991000   0.60920748   -8.3465388    697.04754  0.014554572  0.013639685            2 
 3992000   0.62580276   -8.3491002    696.46861   0.01453884  0.013635088            3 
 3993000   0.61970336   -8.3476513    697.24191  0.014551338   0.01363049            2 
 3994000   0.61016641   -8.3425276    697.01388  0.014542937  0.013625902            2 
 3995000   0.60857986   -8.3591908    697.54436  0.014550362  0.013621312            3 
 3996000   0.61326256   -8.3432303    697.13833  0.014538253  0.013616724            2 
 3997000   0.61535337   -8.3398397    697.64362  0.014545151  0.013612144            1 
 3998000   0.61504149   -8.3522587    696.75446  0.014522979  0.013607564            1 
 3999000   0.61684148   -8.3539042    697.45403  0.014533926  0.013602983            2 
 4000000   0.61866709   -8.3416508    697.03181  0.014521496   0.01359841            2 
 4001000   0.61105714   -8.3563331    696.96597  0.014516495  0.013593828            3 
 4002000   0.61251909   -8.3434336    698.05542  0.014535554  0.013589256            2 
 4003000   0.60794244   -8.3725433    696.16336  0.014492534  0.013584679            2 
 4004000   0.61287402   -8.3433337    696.34773  0.014492752  0.013580104            2 
 4005000   0.61697992   -8.3357932    697.30404  0.014509031   0.01357553            3 
 4006000    0.6057738   -8.3385665    698.50506  0.014530393  0.013570959            1 
 4007000   0.61637226   -8.3516475     696.5305  0.014485702  0.013566393            1 
 4008000   0.61508597   -8.3305996    696.97486  0.014491327  0.013561828            4 
 4009000   0.60174195   -8.3595368    697.06491  0.014489584  0.013557259            3 
 4010000   0.60436198   -8.3338564     697.5458  0.014495964  0.013552694            2 
 4011000   0.61070558     -8.34568     695.7924  0.014455921  0.013548126            2 
 4012000   0.59768302   -8.3398675    697.88529   0.01449579  0.013543565            4 
 4013000   0.60820028   -8.3534154    697.23571  0.014478688  0.013539008            6 
 4014000   0.60416658   -8.3332313    698.27535  0.014496665  0.013534448            2 
 4015000   0.61141535    -8.377745    697.61529  0.014479354  0.013529891            1 
 4016000   0.61187536   -8.3575467    697.28003  0.014468792  0.013525333            2 
 4017000   0.62069814   -8.3648211     696.9726  0.014458813  0.013520777            2 
 4018000   0.60520001   -8.3557556    696.55877  0.014446631  0.013516227            1 
 4019000   0.59922327   -8.3482395    696.88601  0.014449822  0.013511668            2 
 4020000   0.59359043   -8.3499015    696.72259   0.01444284  0.013507122            4 
 4021000   0.61425717    -8.371614     697.3998  0.014453283  0.013502574            3 
 4022000   0.59972852   -8.3595598    697.95002  0.014461089  0.013498028            2 
 4023000   0.60300557   -8.3706599    696.97835  0.014437367  0.013493475            4 
 4024000   0.61126689    -8.350202    696.90255   0.01443221  0.013488925            1 
 4025000   0.60449701   -8.3645025    697.49605  0.014440912  0.013484383            5 
 4026000   0.61264919   -8.3411482    696.05749  0.014407549  0.013479841            2 
 4027000    0.5991926   -8.3583291    696.79781  0.014419291  0.013475304            3 
 4028000    0.5872408   -8.3611758    697.38095  0.014427775  0.013470774            2 
 4029000   0.61497621   -8.3512616    695.50283  0.014385349  0.013466234            2 
 4030000   0.61635733   -8.3593949    698.11348  0.014435763  0.013461698            1 
 4031000   0.59976317   -8.3708526    697.35809  0.014416565  0.013457161            4 
 4032000   0.59815684   -8.3571812    697.30927  0.014411981  0.013452625            1 
 4033000   0.60961215   -8.3659979    696.45739  0.014390805  0.013448108            1 
 4034000   0.60137651    -8.338761    696.70843  0.014392423  0.013443589            3 
 4035000   0.59670283   -8.3388906    697.49753  0.014405153  0.013439074            3 
 4036000   0.60923865   -8.3572265    696.19996  0.014374793  0.013434563            2 
 4037000   0.60704459   -8.3848442    696.42351  0.014375847  0.013430046            2 
 4038000   0.60319939   -8.3659081    696.47753  0.014373401  0.013425523            2 
 4039000   0.60971687   -8.3673046    696.52418  0.014370805  0.013421006            5 
 4040000   0.61647307   -8.3390015    696.70492  0.014370976  0.013416492            2 
 4041000    0.6138102   -8.3558584    698.43828  0.014403165  0.013411984            3 
 4042000    0.6036692   -8.3638886    697.67813   0.01438393  0.013407481            2 
 4043000   0.60161398   -8.3718858    696.84803  0.014363262  0.013402975            3 
 4044000   0.60952081   -8.3704473    696.42241   0.01435094  0.013398469            1 
 4045000   0.60383426   -8.3723479    697.20744  0.014363565  0.013393965            2 
 4046000   0.59935341   -8.3543561    697.44599  0.014364928  0.013389464            2 
 4047000   0.61956239   -8.3558621    696.68083  0.014345623  0.013384962            2 
 4048000   0.59987186   -8.3739172    696.91985     0.014347  0.013380452            2 
 4049000   0.61682272   -8.3724079    696.98388  0.014344774  0.013375954            1 
 4050000   0.60818874   -8.3768133    697.31411  0.014348027  0.013371451            2 
 4051000   0.59806791   -8.3626079     696.9145  0.014336265  0.013366952            2 
 4052000   0.60566061   -8.3625556    696.86658  0.014331741  0.013362459            3 
 4053000   0.61550693   -8.3566397    696.57837  0.014322279  0.013357967            2 
 4054000   0.61181865   -8.3696664    696.96178  0.014326628  0.013353472            2 
 4055000   0.59378791   -8.3643905    697.54361  0.014335052  0.013348977            3 
 4056000   0.60766971   -8.3797243    697.15853  0.014323605  0.013344486            2 
 4057000   0.59795497   -8.3751494    698.26244   0.01434275  0.013339991            4 
 4058000   0.59442342   -8.3654401    696.52195  0.014303474  0.013335498            3 
 4059000   0.59165264   -8.3762024    697.09648  0.014311745  0.013331005            2 
 4060000   0.59532779   -8.3729376    696.41391   0.01429421   0.01332651            3 
 4061000   0.59545766   -8.3656885    696.09464  0.014284139   0.01332202            3 
 4062000   0.60496306    -8.400684    696.04441  0.014279592   0.01331753            2 
 4063000   0.60001535   -8.3895432    694.79053   0.01425036  0.013313031            2 
 4064000   0.60422067   -8.3863138    696.19506  0.014275653  0.013308536            1 
 4065000   0.59805907   -8.3682627    695.81208   0.01426429  0.013304049            2 
 4066000   0.60085865   -8.3633173    696.12286  0.014267151  0.013299562            2 
 4067000   0.61178747   -8.3759903    695.58541  0.014252631  0.013295076            4 
 4068000   0.61335197    -8.378029    696.74697  0.014272922  0.013290598            4 
 4069000   0.59179752   -8.4010134    695.64267  0.014246798  0.013286112            2 
 4070000   0.60557346    -8.387625    696.43804  0.014259583   0.01328163            3 
 4071000   0.61135165   -8.3878239    696.59377  0.014259268  0.013277145            3 
 4072000   0.59578386   -8.3849888    696.67114   0.01425735  0.013272674            2 
 4073000   0.59231102   -8.3641823    697.38898  0.014268536  0.013268207            2 
 4074000   0.59598474   -8.3947249    696.64872  0.014249892   0.01326374            2 
 4075000    0.5911614   -8.3772189    697.37654  0.014261279  0.013259274            2 
 4076000   0.60819633   -8.3856082    695.46085  0.014218614  0.013254806            2 
 4077000   0.59893517   -8.3768064    697.11166  0.014248869  0.013250335            2 
 4078000   0.59542018   -8.3842111    697.26232  0.014248454  0.013245872            1 
 4079000   0.57980287   -8.3939995    695.69345  0.014212909  0.013241413            2 
 4080000   0.61513763   -8.3654867    696.12106  0.014218159  0.013236961            3 
 4081000   0.58548687   -8.3866522    696.02361  0.014212685  0.013232503            1 
 4082000   0.58525436   -8.3890052    696.88007  0.014226688  0.013228055            1 
 4083000   0.60368274   -8.3848555    695.98439  0.014204923  0.013223598            1 
 4084000   0.59112086   -8.3825215    696.61781  0.014214369  0.013219143            1 
 4085000   0.59906097   -8.3675158    696.99292  0.014218542  0.013214686            2 
 4086000   0.60079119   -8.3956864     695.7805  0.014190335  0.013210231            1 
 4087000    0.5962057   -8.3785855    696.64519  0.014204494  0.013205776            4 
 4088000   0.60264109   -8.3767895    695.93058  0.014186452  0.013201324            3 
 4089000   0.61075385   -8.3848616     695.7653  0.014179614  0.013196881            2 
 4090000   0.60975774   -8.3807702    696.39811   0.01418904  0.013192438            3 
 4091000   0.59741012   -8.3808034    696.17449  0.014181017  0.013187994            2 
 4092000   0.60005924   -8.3719026    696.93897   0.01419312  0.013183556            2 
 4093000   0.61048468   -8.3899059    695.62507  0.014162902  0.013179117            2 
 4094000   0.58993209   -8.3692042    695.49691  0.014156833  0.013174677            2 
 4095000   0.59106327   -8.3923106    695.26717  0.014148701  0.013170239            1 
 4096000   0.59202183   -8.4082476    697.58174  0.014192337  0.013165799            2 
 4097000   0.60636393    -8.371915    695.60467  0.014148659  0.013161359            1 
 4098000   0.60618526   -8.3978179    695.55319  0.014144159  0.013156921            2 
 4099000   0.59816769   -8.3804821    696.54011  0.014160773  0.013152482            3 
 4100000   0.58917024    -8.377391    696.58413  0.014158214   0.01314804            2 
 4101000   0.59200346   -8.3621006    696.39292  0.014150876  0.013143602            3 
 4102000   0.58998196   -8.3858422    695.66044  0.014132546  0.013139173            1 
 4103000   0.58844314   -8.3986401    694.85165  0.014112675  0.013134738            2 
 4104000     0.596003   -8.3858855    694.78161  0.014107814  0.013130299            6 
 4105000   0.58562794   -8.3872413    695.71485  0.014123322  0.013125868            2 
 4106000   0.58782355   -8.3908321    696.01804  0.014126036  0.013121441            2 
 4107000   0.59069997   -8.4202664    695.17322  0.014105454  0.013117007            3 
 4108000   0.60320041   -8.4244001    695.26591  0.014103901  0.013112572            2 
 4109000   0.60255504   -8.4155921    696.39295  0.014123326  0.013108138            2 
 4110000   0.60978175   -8.4069507    695.62641  0.014104347   0.01310371            2 
 4111000   0.59457508   -8.3934611    695.40857  0.014096501  0.013099283            3 
 4112000   0.57902089   -8.4032485     694.5745  0.014076169  0.013094861            2 
 4113000   0.59800721   -8.3910442    696.69067  0.014115623  0.013090441            2 
 4114000   0.60429338   -8.3954634     695.9812   0.01409782  0.013086025            1 
 4115000   0.59620907   -8.3774639     697.4239  0.014123611  0.013081606            2 
 4116000    0.5847776   -8.4088601    696.17776   0.01409495  0.013077186            2 
 4117000   0.59724793   -8.4197958    695.65146  0.014080873  0.013072771            3 
 4118000   0.58101419    -8.397885    695.23076   0.01406894  0.013068359            3 
 4119000   0.58696834   -8.3904973    696.13136  0.014083745  0.013063953            1 
 4120000   0.59536397   -8.3837954    694.54677  0.014048276  0.013059544            3 
 4121000   0.57970887   -8.4091768    696.46369   0.01408363  0.013055132            1 
 4122000   0.59366973    -8.398215    694.96299  0.014049874  0.013050729            1 
 4123000   0.59068645   -8.3934517    696.54621  0.014078466  0.013046324            4 
 4124000   0.57282529   -8.4056325    696.32873  0.014070658  0.013041915            2 
 4125000   0.58700409   -8.3939315    695.44189  0.014049331  0.013037508            2 
 4126000   0.59793766   -8.4056525    695.26095  0.014042272  0.013033103            2 
 4127000   0.58108584    -8.403279    695.38703  0.014041415  0.013028702            3 
 4128000   0.61511414   -8.4109944    695.39342  0.014038142  0.013024302            3 
 4129000   0.60245138   -8.3940785    695.58062  0.014038521  0.013019908            3 
 4130000   0.59308898   -8.3991068    696.19405  0.014047499  0.013015515            1 
 4131000   0.59612216   -8.4025014    696.84796   0.01405729  0.013011124            1 
 4132000   0.58786777   -8.3892274    696.16562  0.014040126  0.013006738            2 
 4133000   0.58275819   -8.3993021    696.77718   0.01404906  0.013002364            2 
 4134000   0.59699766   -8.4086477    695.91187  0.014028219  0.012997988            3 
 4135000   0.58518248    -8.393827    695.62752  0.014019095  0.012993614            2 
 4136000   0.59608995     -8.41746    695.63901  0.014015938  0.012989231            1 
 4137000   0.58602564   -8.3933279    695.76446  0.014015076  0.012984847            2 
 4138000   0.59009405    -8.390953     696.3176  0.014022829  0.012980467            1 
 4139000   0.59226109   -8.3961286    695.47758  0.014002528  0.012976093            3 
 4140000   0.61035255   -8.3991803    694.87369  0.013986991  0.012971716            1 
 4141000   0.59203926   -8.4013504    695.98334  0.014005943  0.012967346            2 
 4142000   0.59289993   -8.4053666    695.47529   0.01399234  0.012962971            1 
 4143000   0.59403128   -8.4020183    694.19983  0.013963308  0.012958595            1 
 4144000   0.57671214   -8.4178981     696.4521   0.01400523  0.012954219            2 
 4145000   0.58468824   -8.4074954    695.30687  0.013978827  0.012949839            1 
 4146000   0.58970666   -8.4035016     696.4824  0.013999083  0.012945466            1 
 4147000   0.57892108   -8.3996076    695.12825  0.013968496  0.012941089            1 
 4148000    0.5884616   -8.3985539    695.63827  0.013975375  0.012936714            2 
 4149000   0.59231922   -8.4073151    695.23321  0.013963871  0.012932338            1 
 4150000   0.60551368   -8.4066112    695.05229  0.013956873  0.012927964            2 
 4151000   0.59349713   -8.3790212    695.72927  0.013967102  0.012923598            4 
 4152000   0.59016718   -8.4026036    694.06762  0.013930387  0.012919229            3 
 4153000   0.58699753   -8.3937386    695.82628  0.013962322  0.012914873            2 
 4154000   0.59682203   -8.3975964    695.11959  0.013944784   0.01291051            1 
 4155000   0.58758564    -8.413447     694.6921  0.013932854  0.012906151            3 
 4156000   0.59559554   -8.4163765    695.36767  0.013943048  0.012901795            1 
 4157000   0.58232039   -8.4001213    695.59714  0.013944294   0.01289744            1 
 4158000   0.57633289   -8.4072727     695.2484  0.013933951  0.012893089            3 
 4159000   0.58593797    -8.386369    695.40715  0.013933781  0.012888737            1 
 4160000   0.58713668   -8.3961465    694.44337  0.013911125  0.012884377            2 
 4161000   0.59459515   -8.4253809    695.23942  0.013923725  0.012880026            3 
 4162000   0.59266059   -8.4191493    693.84538  0.013892467  0.012875676            4 
 4163000   0.58606164   -8.3988697    694.78497  0.013907938  0.012871327            2 
 4164000   0.58906899   -8.4057826    694.66836  0.013902265  0.012866976            2 
 4165000   0.57928159   -8.3911217     694.4559  0.013894676  0.012862629            3 
 4166000   0.58178454   -8.4265366     694.6688  0.013895599  0.012858289            1 
 4167000    0.5756144   -8.4208896    694.21727  0.013883235  0.012853946            2 
 4168000   0.58342601   -8.4231483    693.78269  0.013871215  0.012849604            4 
 4169000   0.58605525    -8.423115    693.95895  0.013871411  0.012845262            3 
 4170000   0.58669014   -8.4072297    695.89687  0.013906812  0.012840919            2 
 4171000    0.5898295   -8.4117922    695.20554  0.013889665  0.012836577            1 
 4172000   0.58508628   -8.3995194     694.6036  0.013874313  0.012832236            1 
 4173000   0.59111715   -8.3994819    695.07055  0.013880313  0.012827897            1 
 4174000   0.59098944   -8.4017244    694.29261  0.013861456  0.012823562            2 
 4175000   0.58327786   -8.4165885    694.73989  0.013867064   0.01281923            2 
 4176000   0.58703333   -8.4195101    696.24322  0.013893743  0.012814902            1 
 4177000   0.57805083   -8.4138863     695.3784  0.013873162   0.01281057            3 
 4178000   0.58694144   -8.4217806    695.34029  0.013869082  0.012806251            4 
 4179000   0.58825699   -8.4073048    695.56843  0.013870312  0.012801927            2 
 4180000   0.56719731   -8.4262042    695.51803  0.013865989  0.012797606            3 
 4181000   0.57807314    -8.411475    693.83669  0.013829162  0.012793291            2 
 4182000   0.58561086   -8.4169093    695.13277  0.013851681  0.012788973            2 
 4183000   0.58880555   -8.4019421    694.84632  0.013842663  0.012784653            3 
 4184000   0.57371781   -8.4333488    694.51222    0.0138327  0.012780329            1 
 4185000   0.59041624   -8.4367965     694.8952  0.013837021  0.012776003            2 
 4186000   0.58149906   -8.4205764    695.04143  0.013836627  0.012771683            2 
 4187000   0.59557415   -8.4103426    693.77923  0.013808201  0.012767362            4 
 4188000   0.59764212   -8.4276762    694.87782  0.013826763  0.012763047            2 
 4189000   0.58744502   -8.4139136    694.21186  0.013810215   0.01275874            2 
 4190000   0.57876047   -8.4273414    694.37218  0.013810107  0.012754424            3 
 4191000   0.58100057   -8.3979051    695.00335  0.013819362  0.012750113            4 
 4192000   0.59228528   -8.4013678     692.9769  0.013775781    0.0127458            3 
 4193000   0.59616449   -8.4255693    694.48234  0.013802415  0.012741493            3 
 4194000   0.57594057   -8.4405096    695.18293  0.013813045  0.012737185            2 
 4195000   0.57223417   -8.4288445    693.92972  0.013784857  0.012732878            4 
 4196000   0.57817613   -8.4198725    694.08046  0.013784566  0.012728572            6 
 4197000   0.59624739    -8.422375    695.39623  0.013807407  0.012724275            1 
 4198000   0.56684952   -8.4518984    694.75641  0.013791417  0.012719974            2 
 4199000   0.57584892   -8.4349739    694.49712  0.013782986  0.012715673            3 
 4200000   0.55803385   -8.4083912    693.82244  0.013766318  0.012711377            2 
 4201000   0.58724965   -8.4136572    695.19156    0.0137902  0.012707083            1 
 4202000   0.60328629   -8.4135049    695.10497  0.013785201  0.012702787            1 
 4203000   0.58277559    -8.441953    694.97096  0.013779264  0.012698494            6 
 4204000   0.58993052   -8.4238076    694.63609  0.013769348  0.012694201            3 
 4205000   0.57945733   -8.4218647    694.63594  0.013766071  0.012689912            3 
 4206000   0.57987441   -8.4189472    694.47818  0.013759672  0.012685626            4 
 4207000   0.57458522   -8.4224111    694.68645  0.013760527  0.012681344            2 
 4208000   0.58458537    -8.414971     696.0003  0.013783276  0.012677062            3 
 4209000      0.57813   -8.4278513    694.25879  0.013745521  0.012672781            2 
 4210000   0.58463012   -8.4333317    694.15075  0.013740118  0.012668503            2 
 4211000   0.58778517   -8.4355281    694.28963  0.013739603  0.012664226            2 
 4212000   0.59223678   -8.4267806    694.58537  0.013742192  0.012659951            3 
 4213000   0.58064898   -8.4439322    694.79408  0.013743059  0.012655675            2 
 4214000   0.57869825   -8.4272108    693.88133  0.013721747  0.012651395            4 
 4215000   0.57191998   -8.4302718    694.67791  0.013734241  0.012647125            3 
 4216000   0.58843544   -8.4269526    694.21119  0.013721758  0.012642852            4 
 4217000    0.5725331   -8.4491098    694.58699  0.013725931  0.012638579            2 
 4218000   0.58424164   -8.4413426    693.58702   0.01370292   0.01263431            3 
 4219000   0.57000255   -8.4292394    694.24843  0.013712737  0.012630041            1 
 4220000   0.58623413   -8.4300363    693.66931  0.013698051   0.01262578            2 
 4221000   0.58780014   -8.4284669    693.78364  0.013697063  0.012621517            2 
 4222000   0.57767705   -8.4475931    695.12366  0.013720268  0.012617261            3 
 4223000   0.57250661   -8.4294607    694.80519  0.013710735  0.012613002            3 
 4224000   0.57819757   -8.4354091     693.6957    0.0136856  0.012608743            3 
 4225000   0.58337603   -8.4303219    695.83929  0.013724641  0.012604485            5 
 4226000    0.5762635   -8.4266504    694.20782  0.013689222  0.012600235            1 
 4227000   0.58245368   -8.4376809    693.82253  0.013678388  0.012595987            2 
 4228000   0.57265449   -8.4348358    694.31748  0.013684908  0.012591742            4 
 4229000   0.58060433   -8.4396844    694.63138  0.013687857  0.012587488            1 
 4230000   0.58253616   -8.4230611    694.93143  0.013690532  0.012583238            2 
 4231000   0.57564987   -8.4453082    694.46621  0.013678134  0.012578985            3 
 4232000   0.57886592   -8.4563682    694.60581  0.013677651  0.012574738            3 
 4233000   0.56512005   -8.4426706     694.4015  0.013670397  0.012570496            1 
 4234000   0.56295003    -8.420388     694.1207  0.013661642  0.012566248            1 
 4235000    0.5730362    -8.424406    694.37005  0.013663322     0.012562            3 
 4236000   0.56720485   -8.4315635    694.70741  0.013666734   0.01255776            4 
 4237000   0.57529524   -8.4412869     693.9581  0.013648771   0.01255352            4 
 4238000   0.57721626   -8.4587138    693.69341  0.013640346  0.012549283            2 
 4239000   0.57991658   -8.4348833    694.17739  0.013646642  0.012545047            3 
 4240000    0.5751761   -8.4279964    692.76953  0.013615753  0.012540814            4 
 4241000   0.57405924   -8.4294771    694.63056  0.013649111  0.012536579            6 
 4242000   0.57413351   -8.4372832    695.10841  0.013655281  0.012532342            2 
 4243000   0.57237828   -8.4427047    695.21211  0.013654099  0.012528111            3 
 4244000   0.57672659   -8.4391911    693.40266  0.013615352  0.012523884            3 
 4245000   0.58279768   -8.4348623    694.61629   0.01363597  0.012519658            3 
 4246000   0.56329337   -8.4384267    693.99517  0.013620568  0.012515436            2 
 4247000   0.56669997   -8.4299928    694.36984  0.013624712   0.01251121            5 
 4248000   0.56732647    -8.448256     693.7524  0.013609393  0.012506982            2 
 4249000   0.57141358   -8.4308591    694.32512  0.013617422  0.012502756            2 
 4250000   0.57514494   -8.4526668    694.37245  0.013615146  0.012498534            2 
 4251000   0.57665957    -8.457652    694.74871  0.013619319  0.012494313            5 
 4252000   0.56253083   -8.4435128    693.97983  0.013601047  0.012490103            2 
 4253000   0.56427413   -8.4493358    692.88754  0.013576447  0.012485885            1 
 4254000   0.58314978   -8.4264631    693.44025  0.013584083  0.012481669            3 
 4255000   0.57675178   -8.4407065    693.04107  0.013573072  0.012477456            4 
 4256000   0.56336554   -8.4293349    693.48095  0.013578496  0.012473241            1 
 4257000   0.57195422   -8.4316054    693.46059  0.013574908  0.012469032            4 
 4258000   0.57253486   -8.4252121    693.52273  0.013572936  0.012464821            2 
 4259000   0.56897272   -8.4219766     692.8937  0.013557441  0.012460615            3 
 4260000   0.57497996   -8.4402214      694.599  0.013587617  0.012456413            2 
 4261000   0.56396655   -8.4493972    693.77293  0.013568273  0.012452209            3 
 4262000    0.5713943   -8.4484162    694.85623  0.013586271  0.012448007            1 
 4263000   0.58316364   -8.4463746     693.5807   0.01355815  0.012443806            3 
 4264000   0.57577354   -8.4624859    693.08316  0.013545246  0.012439606            1 
 4265000   0.57225751   -8.4347526    694.11125  0.013562158  0.012435409            3 
 4266000   0.57012576   -8.4350581    694.59165  0.013568363  0.012431221            4 
 4267000   0.56504346    -8.450324    693.46727  0.013543225  0.012427028            2 
 4268000   0.57422567   -8.4617155    695.18124  0.013573517  0.012422842            4 
 4269000    0.5712088   -8.4529721    694.57417  0.013558487  0.012418651            2 
 4270000   0.56849246   -8.4568902    694.35161  0.013550968  0.012414462            2 
 4271000   0.57270899   -8.4531002    694.27084  0.013546219  0.012410273            2 
 4272000    0.5695103   -8.4422278    694.71114  0.013551637  0.012406088            2 
 4273000   0.56571088   -8.4492905    693.82129  0.013531112  0.012401901            3 
 4274000   0.55768772   -8.4352216    694.42938  0.013539802  0.012397717            3 
 4275000    0.5792532   -8.4552465    693.89948  0.013526306  0.012393531            2 
 4276000   0.57080007   -8.4668296    694.60077   0.01353681  0.012389347            2 
 4277000   0.57766943   -8.4576312    694.18365  0.013525517   0.01238517            3 
 4278000   0.56139667   -8.4559829     695.3155  0.013544404  0.012380996            3 
 4279000   0.57145913   -8.4289685    694.07286  0.013517038  0.012376821            6 
 4280000   0.55725423   -8.4415241    694.44364  0.013521099  0.012372655            1 
 4281000   0.57509852   -8.4611669    693.48709   0.01349932  0.012368483            3 
 4282000   0.56515822   -8.4559691    693.94131  0.013505008   0.01236431            3 
 4283000   0.54556887    -8.443394    693.83371  0.013499761  0.012360139            4 
 4284000   0.57371055   -8.4548234    693.28716  0.013485978  0.012355973            3 
 4285000   0.56689459     -8.44195    693.85743  0.013493921  0.012351808            3 
 4286000   0.57318998    -8.443122    694.65231  0.013506228  0.012347649            3 
 4287000   0.56074196   -8.4596699    694.67553  0.013503529   0.01234349            4 
 4288000   0.55010802   -8.4507802    693.51525  0.013477831  0.012339327            3 
 4289000   0.56054213   -8.4380866    694.41074  0.013492087  0.012335175            4 
 4290000   0.57788625   -8.4755255    694.41635  0.013489051  0.012331021            3 
 4291000    0.5587573    -8.436667    694.07695  0.013479316  0.012326868            2 
 4292000   0.56865304   -8.4361719    693.59604  0.013466838  0.012322725            1 
 4293000   0.55889262    -8.455569    694.01609  0.013471855  0.012318577            3 
 4294000   0.56293286   -8.4633413    693.63512  0.013461324  0.012314431            2 
 4295000   0.55718768   -8.4492056    694.33888  0.013471845  0.012310288            2 
 4296000   0.56140454    -8.452681    696.36385  0.013507989  0.012306146            2 
 4297000   0.55793614   -8.4420054    694.49712  0.013468643  0.012302004            2 
 4298000   0.55923848   -8.4566525    694.02528  0.013456361  0.012297864            2 
 4299000   0.55587639   -8.4661533    694.60764   0.01346452  0.012293723            3 
 4300000   0.57104964   -8.4645726    694.18519  0.013453201  0.012289586            3 
 4301000    0.5750261   -8.4565255    696.01371  0.013485502  0.012285455            4 
 4302000   0.54812912   -8.4683252    693.62476  0.013436091  0.012281321            4 
 4303000   0.55348134   -8.4638192    693.78742  0.013436119   0.01227719            2 
 4304000   0.56246565   -8.4545121    693.74386  0.013432153  0.012273057            3 
 4305000     0.557369   -8.4549465    693.87712  0.013431613  0.012268928            7 
 4306000    0.5566109   -8.4576038    693.22449  0.013415863  0.012264796            3 
 4307000   0.57696816   -8.4475316    694.41481  0.013435779  0.012260664            2 
 4308000   0.56696188   -8.4432212    694.38037  0.013431994  0.012256539            2 
 4309000   0.55825318   -8.4602491    692.85804  0.013399436  0.012252414            2 
 4310000   0.56468029    -8.444656    693.98478  0.013418113  0.012248286            2 
 4311000   0.58111205   -8.4645452    693.59185  0.013407405  0.012244165            3 
 4312000    0.5653311   -8.4490316    692.26535  0.013378659   0.01224004            2 
 4313000   0.56001908   -8.4602804    693.92404  0.013407606  0.012235916            3 
 4314000   0.56168525   -8.4594039    693.71073  0.013400377  0.012231793            5 
 4315000   0.56574148   -8.4736426    693.50349  0.013393269  0.012227678            2 
 4316000   0.55903258   -8.4567123    693.93745  0.013398545  0.012223569            2 
 4317000   0.56706131   -8.4522921     694.0865  0.013398319  0.012219457            3 
 4318000   0.56838107   -8.4521335    694.69941  0.013407044  0.012215344            4 
 4319000   0.56231303    -8.467453    692.59899  0.013363413  0.012211232            2 
 4320000   0.56142474   -8.4551234    694.20992  0.013391395  0.012207119            2 
 4321000   0.56815879   -8.4549568     693.4069  0.013372809  0.012203011            1 
 4322000   0.56649317   -8.4699905    693.10639  0.013363921  0.012198902            2 
 4323000   0.56143441   -8.4677539    692.85667  0.013356016  0.012194795            3 
 4324000   0.55697686   -8.4498175    693.08356    0.0133573  0.012190689            2 
 4325000   0.55796793   -8.4568282    693.84517  0.013368886  0.012186583            3 
 4326000   0.54711834   -8.4461164    693.51081  0.013359355  0.012182477            2 
 4327000   0.55046423   -8.4614748    694.20782  0.013369691  0.012178374            3 
 4328000   0.57591501   -8.4673473    694.36701  0.013369667  0.012174274            2 
 4329000   0.55891862   -8.4657659    694.58485  0.013370772  0.012170171            3 
 4330000   0.55515741    -8.456717    694.20844   0.01336044  0.012166075            1 
 4331000   0.56069567   -8.4680994    693.72001  0.013347957  0.012161976            2 
 4332000   0.55457253   -8.4764958    693.22264  0.013335308  0.012157882            3 
 4333000   0.56075899   -8.4722659    693.20698  0.013331929  0.012153787            3 
 4334000    0.5729645   -8.4762202    693.73112  0.013338931  0.012149695            3 
 4335000   0.55861144   -8.4715321    692.82387  0.013318413    0.0121456            2 
 4336000   0.56130929   -8.4677769    693.61794  0.013330603  0.012141509            4 
 4337000   0.55479593   -8.4745238    693.43048  0.013323927  0.012137422            3 
 4338000     0.545563    -8.465349    692.69126  0.013306655  0.012133334            7 
 4339000   0.55781134   -8.4662981    694.46352  0.013337626  0.012129248            3 
 4340000   0.56060984     -8.48104    693.16228  0.013309568  0.012125166            2 
 4341000   0.57290014   -8.4674974    693.13544  0.013305986  0.012121086            3 
 4342000   0.55401639   -8.4639311     693.5449   0.01331078  0.012117004            2 
 4343000   0.55627084   -8.4542587    694.29522  0.013322113  0.012112933            3 
 4344000   0.55692694   -8.4712546    693.55523   0.01330485  0.012108859            3 
 4345000   0.55585083   -8.4893283    693.13294  0.013293689  0.012104791            4 
 4346000   0.56706281   -8.4798232    693.60398  0.013299662  0.012100712            3 
 4347000   0.55163092   -8.4680697    693.98285  0.013303866   0.01209664            3 
 4348000   0.54986724   -8.4726885    693.25973  0.013286947  0.012092572            3 
 4349000   0.56068103     -8.45317    692.68681  0.013272913    0.0120885            2 
 4350000   0.55449496   -8.4621631     693.2612  0.013280866  0.012084433            5 
 4351000     0.551184   -8.4611742    692.62865  0.013265699  0.012080366            3 
 4352000   0.55567979   -8.4637661    692.84215  0.013266739  0.012076299            3 
 4353000   0.55310396   -8.4774006    693.95111   0.01328492  0.012072229            2 
 4354000   0.56293593   -8.4798334    694.07916   0.01328432  0.012068167            3 
 4355000   0.55142127   -8.4735123    694.05411  0.013280791  0.012064102            2 
 4356000   0.55583485   -8.4828591    691.98291  0.013238118  0.012060038            2 
 4357000   0.56015679   -8.4752822    692.62752  0.013247409  0.012055979            2 
 4358000   0.54960707   -8.4956188    693.63595  0.013263652   0.01205192            2 
 4359000   0.55588088   -8.4708934    692.45507  0.013238034  0.012047863            4 
 4360000   0.55221814   -8.4781515    692.21296   0.01323037  0.012043809            3 
 4361000   0.56644822   -8.4764492    692.79791  0.013238514  0.012039759            4 
 4362000    0.5631271   -8.4677659    693.30065  0.013245083  0.012035707            3 
 4363000   0.55359533   -8.4746241     692.4683   0.01322615  0.012031657            3 
 4364000   0.56247195   -8.4862276    693.50021  0.013242824   0.01202761            3 
 4365000    0.5378521   -8.4664279    693.78759  0.013245277  0.012023566            6 
 4366000   0.56511659   -8.4799552    692.53814  0.013218395  0.012019521            2 
 4367000   0.55614337    -8.488284     692.8248  0.013220838  0.012015473            2 
 4368000   0.56236655   -8.4720477    693.02498   0.01322163  0.012011429            2 
 4369000   0.55733431   -8.4809413    693.41987  0.013226136  0.012007389            1 
 4370000   0.53882558   -8.4811699    693.66455  0.013227776  0.012003346            2 
 4371000   0.54091995   -8.4723148    691.72046  0.013187685  0.011999308            2 
 4372000   0.54604704    -8.481352    692.51228  0.013199761  0.011995265            2 
 4373000   0.56168201    -8.461034    693.04067  0.013206812   0.01199122            3 
 4374000   0.57326612   -8.4913548    692.51358  0.013193751  0.011987184            4 
 4375000   0.54976183   -8.5044316    691.78879  0.013176929  0.011983142            3 
 4376000   0.56939741   -8.4937774    692.03373  0.013178583  0.011979102            2 
 4377000   0.54451666   -8.5066265    693.40144  0.013201611  0.011975065            3 
 4378000    0.5578179   -8.4955546    693.14988  0.013193808   0.01197103            3 
 4379000   0.55016839    -8.493976    693.20242  0.013191794  0.011966998            2 
 4380000   0.54918874   -8.4797387    693.07141   0.01318629   0.01196297            1 
 4381000   0.54612399   -8.4805277    692.23592  0.013167388  0.011958942            2 
 4382000   0.54817188   -8.4962145    693.45678    0.0131876  0.011954918            3 
 4383000    0.5574795   -8.4654659    693.88059  0.013192649  0.011950901            1 
 4384000    0.5448255    -8.471678    691.18273  0.013138358  0.011946877            3 
 4385000    0.5535371   -8.4816372    693.74616  0.013184078  0.011942861            2 
 4386000   0.55477738   -8.4989818    692.75054  0.013162155  0.011938845            2 
 4387000   0.55376518   -8.4834461      692.444  0.013153332  0.011934825            2 
 4388000   0.55563219   -8.4988945    693.12721  0.013163309  0.011930812            2 
 4389000   0.55647706   -8.4837469    693.24599  0.013162565  0.011926802            3 
 4390000   0.55716597   -8.4822467    692.35128  0.013142583  0.011922791            3 
 4391000   0.55422286   -8.4796891    692.54291  0.013143227  0.011918777            6 
 4392000   0.54475294   -8.4792644    692.30273  0.013135677  0.011914768            3 
 4393000   0.56084803   -8.4827396    692.68422  0.013139924  0.011910759            4 
 4394000   0.54925693   -8.4866082     692.1664  0.013127113  0.011906754            3 
 4395000   0.54666988   -8.4806386    691.88241  0.013118741  0.011902746            5 
 4396000   0.55380267   -8.4817613    692.21223  0.013122009   0.01189874            2 
 4397000   0.54473415   -8.4885266    693.68602  0.013146957  0.011894732            3 
 4398000   0.54263963   -8.5010431    692.15613  0.013114979  0.011890728            3 
 4399000    0.5502409   -8.4775492    692.67192  0.013121769  0.011886726            5 
 4400000   0.55222191   -8.5125598    693.58181  0.013136019  0.011882728            2 
 4401000   0.54885924    -8.513566    692.69565  0.013116255  0.011878723            7 
 4402000   0.53931316   -8.4882692    693.43728  0.013127315  0.011874728            2 
 4403000   0.53923591   -8.5066122    691.21767  0.013082324  0.011870733            3 
 4404000   0.55494423   -8.5113094    691.31413  0.013081179  0.011866741            3 
 4405000   0.54470368   -8.4934285    692.41531  0.013099041  0.011862745            3 
 4406000   0.54819509   -8.4933893    691.84441   0.01308527  0.011858758            4 
 4407000   0.55161929    -8.499017     692.8948  0.013102163  0.011854768            4 
 4408000   0.55498913   -8.5009632    692.67872  0.013095106   0.01185078            3 
 4409000   0.55059361   -8.4978491    692.88445  0.013096024  0.011846796            3 
 4410000   0.54909434    -8.498028    693.29635  0.013100838  0.011842815            2 
 4411000   0.54358213   -8.4826144    693.33638  0.013098624  0.011838832            2 
 4412000   0.54698538   -8.5042513    692.41779  0.013078305  0.011834851            3 
 4413000   0.55094492   -8.4829115    691.74595  0.013062655  0.011830878            2 
 4414000   0.54176127   -8.4975215    692.45282  0.013073041  0.011826904            3 
 4415000   0.55021417   -8.4985914    691.73888  0.013056604  0.011822929            3 
 4416000   0.55064593   -8.4932937    692.52782  0.013068535  0.011818958            6 
 4417000   0.54482228   -8.5053118    692.19486  0.013059295  0.011814988            2 
 4418000   0.53839297    -8.507023    691.94914  0.013051704  0.011811018            5 
 4419000   0.54633745   -8.5125563    693.24502  0.013073188  0.011807049            2 
 4420000   0.53890448   -8.4780912    692.71839  0.013060301   0.01180309            5 
 4421000   0.54301637   -8.4910398    691.70555  0.013038256  0.011799121            4 
 4422000   0.54400801   -8.5078636    692.56264  0.013051459  0.011795158            3 
 4423000   0.55531762   -8.4892846    691.91519   0.01303631  0.011791197            2 
 4424000   0.54566976   -8.4995099    692.98662  0.013053545  0.011787235            4 
 4425000   0.53880894   -8.5124779    691.01537  0.013013472  0.011783279            3 
 4426000     0.537563   -8.4816564    691.72571  0.013023906  0.011779322            2 
 4427000   0.53198184   -8.4945427    693.62947    0.0130568  0.011775368            3 
 4428000   0.52659886   -8.4955322    691.94096  0.013022075  0.011771413            2 
 4429000   0.54072957   -8.4787734    692.99002  0.013038873  0.011767467            3 
 4430000   0.55250603   -8.5331599    693.12639  0.013038495  0.011763518            2 
 4431000   0.53410184   -8.5048979    691.72943   0.01300928  0.011759572            2 
 4432000   0.54097371   -8.5034232    692.08531  0.013013036  0.011755623            2 
 4433000   0.55101991   -8.5038199    692.51355  0.013018151  0.011751675            2 
 4434000   0.55123413   -8.5132815    692.37774  0.013012662  0.011747726            4 
 4435000   0.53479847   -8.5121281    692.03716  0.013003329  0.011743783            2 
 4436000   0.54089684   -8.5191279    691.38041   0.01298806  0.011739842            2 
 4437000   0.53678364    -8.503703    692.92866  0.013014211  0.011735904            4 
 4438000   0.53158665   -8.5056003    691.64351  0.012987147  0.011731965            2 
 4439000    0.5428788   -8.4960667    692.98266  0.013009361  0.011728032            4 
 4440000   0.52540305   -8.4904115    692.42243  0.012995917  0.011724099            4 
 4441000   0.53424939   -8.5112806     693.1369  0.013006397  0.011720167            3 
 4442000   0.54760641   -8.4960358    691.65697  0.012975705  0.011716237            1 
 4443000     0.541146   -8.5030808    691.73232  0.012974198  0.011712311            3 
 4444000   0.54062051   -8.5019494    691.32692  0.012963676  0.011708386            7 
 4445000   0.53814881   -8.4938821    691.79965  0.012969622  0.011704458            4 
 4446000   0.54309387   -8.5114192      691.675  0.012964369  0.011700535            5 
 4447000   0.53368364   -8.4942993    692.32109  0.012973561  0.011696611            4 
 4448000   0.54039001   -8.4995322    692.28835  0.012970031  0.011692686            2 
 4449000   0.53449481   -8.4818064    692.60283  0.012973006  0.011688767            3 
 4450000   0.52684512   -8.5134042    692.36765  0.012965686  0.011684846            4 
 4451000   0.55011968   -8.5103891    692.48622  0.012964993  0.011680927            3 
 4452000   0.53971091   -8.5054701    691.83361  0.012949865   0.01167701            2 
 4453000   0.54059391   -8.4835609    691.71461   0.01294473  0.011673097            1 
 4454000   0.54486656   -8.4961002     692.9534  0.012965002  0.011669187            3 
 4455000   0.55059851   -8.5083727    692.19453  0.012947896  0.011665276            3 
 4456000   0.53107242   -8.5086543    693.25806   0.01296488  0.011661365            3 
 4457000   0.53846796    -8.509426     692.0582  0.012939537  0.011657463            3 
 4458000   0.54275191   -8.5155917    693.08547  0.012955837  0.011653561            3 
 4459000    0.5332207    -8.514244     691.7618  0.012928194  0.011649654            4 
 4460000   0.53958979   -8.5046347    691.07837  0.012912526  0.011645754            3 
 4461000    0.5346503   -8.4921178     692.7594  0.012941033  0.011641852            5 
 4462000     0.535074   -8.5147393    693.25276  0.012947347  0.011637954            2 
 4463000   0.53779565   -8.5036604    692.21918  0.012925147  0.011634059            2 
 4464000   0.52451294    -8.495577    691.75719  0.012913627  0.011630167            4 
 4465000   0.52915101   -8.5140335    692.35888  0.012921965  0.011626276            3 
 4466000   0.52937977   -8.4988403    692.47257  0.012921193  0.011622381            3 
 4467000   0.54310915   -8.5196371    693.30468  0.012933824  0.011618489            3 
 4468000   0.53944625   -8.5028661    691.91066  0.012904929    0.0116146            5 
 4469000    0.5480302    -8.479944    692.53217   0.01291363  0.011610715            6 
 4470000   0.53993032   -8.5109928    691.50854  0.012891658  0.011606829            2 
 4471000   0.53807899    -8.513695    691.88712  0.012895831  0.011602946            4 
 4472000   0.54992374    -8.497661     692.3522  0.012901614  0.011599063            6 
 4473000   0.53656708   -8.5258195    691.89807  0.012890269  0.011595185            3 
 4474000   0.54398605   -8.5013336    692.54037  0.012899351  0.011591307            4 
 4475000   0.54615753   -8.5012852    691.35871  0.012874464  0.011587429            2 
 4476000   0.53658264   -8.5060749    693.63669  0.012913999  0.011583555            3 
 4477000   0.54054519   -8.5221734    691.57397  0.012872719   0.01157968            2 
 4478000   0.53856787   -8.5043316    692.15741  0.012880702  0.011575805            3 
 4479000   0.53540188   -8.5221545    691.54406  0.012866415  0.011571931            2 
 4480000    0.5347144    -8.510073    691.92502  0.012870629  0.011568058            1 
 4481000   0.53778622   -8.5103333    692.92493  0.012886352  0.011564194            6 
 4482000   0.54275223   -8.5054761    693.23612  0.012889263  0.011560328            2 
 4483000   0.53554603   -8.5109171    692.19117  0.012866963  0.011556463            2 
 4484000   0.53124402    -8.516259    692.19946  0.012864248  0.011552598            2 
 4485000    0.5366463   -8.5109539    692.13201  0.012860127  0.011548736            3 
 4486000   0.53850998   -8.5038386    692.28179  0.012860042  0.011544873            4 
 4487000   0.54282443   -8.5338211    693.43447  0.012878584  0.011541013            3 
 4488000   0.53041157   -8.5082225     692.9786   0.01286725  0.011537154            5 
 4489000   0.53553855   -8.5134402    691.61479  0.012839066  0.011533298            2 
 4490000   0.52844805   -8.5158087     692.1748    0.0128466  0.011529445            3 
 4491000   0.53473348   -8.4962697    692.51126  0.012849983  0.011525593            3 
 4492000   0.53129674   -8.5373244    692.06107   0.01283877  0.011521739            3 
 4493000   0.53203759    -8.511408    690.87963     0.012814  0.011517886            3 
 4494000   0.54046951   -8.5201684     692.7914  0.012846599  0.011514036            2 
 4495000   0.52825874   -8.5209882    691.17034  0.012813688  0.011510186            6 
 4496000   0.52792863   -8.5204231    692.10271   0.01282812  0.011506338            3 
 4497000   0.52597875   -8.5214346     691.1926  0.012808402   0.01150249            3 
 4498000   0.53714638   -8.5284617    691.14924  0.012804751  0.011498645            3 
 4499000    0.5426207   -8.5376345    691.22519  0.012803312  0.011494799            5 
 4500000   0.52319583   -8.5086797    691.81252  0.012811343  0.011490958            2 
 4501000   0.51945658   -8.5248237     691.5366  0.012803388  0.011487116            3 
 4502000   0.52458356   -8.5333246     690.5277  0.012781869  0.011483276            6 
 4503000   0.52531466   -8.5199168    691.48817  0.012796805  0.011479437            3 
 4504000   0.52965031   -8.5246243    691.69405  0.012797773  0.011475596            2 
 4505000    0.5325595   -8.5317012    692.66922  0.012812971  0.011471759            3 
 4506000   0.53310964   -8.5369555    691.71228   0.01279243  0.011467929            8 
 4507000   0.53655364   -8.5252437    692.07754  0.012796345  0.011464096            3 
 4508000   0.53342377   -8.5118055    691.52982  0.012783382  0.011460263            2 
 4509000   0.52829838   -8.5208788     692.5852  0.012800052  0.011456435            6 
 4510000   0.52954724   -8.5273358    691.42208  0.012775722  0.011452611            3 
 4511000   0.51541558    -8.531249    692.04914  0.012784474  0.011448786            4 
 4512000   0.53538096   -8.5128815    690.75299  0.012757701  0.011444961            2 
 4513000   0.53075207   -8.5135858    691.56812  0.012769926  0.011441141            4 
 4514000   0.53121568   -8.5201085     691.9773  0.012774651  0.011437323            2 
 4515000   0.53304399   -8.5281272    692.06063   0.01277336  0.011433504            6 
 4516000   0.52956508   -8.5199781    692.62042  0.012780861  0.011429687            3 
 4517000   0.52706013   -8.5340293    692.35824  0.012773195  0.011425873            3 
 4518000   0.52646284   -8.5186596    691.69184  0.012758076  0.011422059            2 
 4519000   0.51324469   -8.5327216    692.30881   0.01276663  0.011418246            1 
 4520000   0.53977428   -8.5285366     692.1545  0.012760961  0.011414433            2 
 4521000   0.52353574    -8.522598    691.35399  0.012743383  0.011410625            4 
 4522000   0.53265012   -8.5158683    691.19343  0.012737606  0.011406816            3 
 4523000   0.52401339   -8.5441572    692.38576  0.012756757  0.011403014            4 
 4524000   0.52985687   -8.5255303    690.55956  0.012720298  0.011399208            2 
 4525000   0.53354076   -8.5273785    691.69766  0.012738447  0.011395408            3 
 4526000   0.52270482   -8.5214082    690.94226  0.012721724  0.011391606            2 
 4527000   0.52903411    -8.545872    691.21467  0.012723928  0.011387807            2 
 4528000   0.52403778   -8.5253599    692.42321   0.01274336  0.011384009            3 
 4529000    0.5298718   -8.5228523    692.38676  0.012739876  0.011380211            3 
 4530000   0.53194572   -8.5115774     691.6153  0.012722872  0.011376414            5 
 4531000   0.52072236   -8.5225376    691.14741  0.012711458  0.011372622            4 
 4532000   0.52981046   -8.5214295    692.36849  0.012731106  0.011368832            3 
 4533000   0.54134548     -8.53556    691.29793  0.012708617  0.011365037            2 
 4534000   0.54279366   -8.5253683    691.78751  0.012714812  0.011361251            3 
 4535000   0.51378703   -8.5446128     691.3177  0.012703376  0.011357461            5 
 4536000   0.51883895   -8.5327198    690.54791  0.012686433   0.01135367            4 
 4537000   0.52511905   -8.5227356    691.80796  0.012706781  0.011349885            3 
 4538000   0.52122662   -8.5475055    691.61796  0.012700491  0.011346098            6 
 4539000   0.55121134   -8.5332085    690.98038  0.012685988  0.011342316            2 
 4540000   0.52174568   -8.5155213    691.04925  0.012684458  0.011338533            3 
 4541000   0.53382054   -8.5335008    691.57412  0.012691296  0.011334755            4 
 4542000   0.52811358   -8.5390627    690.10455   0.01266154  0.011330975            3 
 4543000   0.53830984   -8.5302329     691.0818  0.012676678    0.0113272            4 
 4544000   0.52865379   -8.5386423    691.38678  0.012679482  0.011323426            2 
 4545000   0.51881438   -8.5253853    692.78515  0.012702331  0.011319657            3 
 4546000   0.52511623   -8.5358309    691.86936   0.01268275  0.011315887            2 
 4547000   0.52225573   -8.5242211    691.62722  0.012675523  0.011312117            2 
 4548000   0.51591382    -8.510532    691.19569  0.012664829  0.011308348            5 
 4549000   0.52643477   -8.5289635    690.55494  0.012650307  0.011304584            2 
 4550000   0.53641661   -8.5324398    691.09645  0.012657444  0.011300822            2 
 4551000   0.51734659   -8.5240984    691.38306  0.012659911  0.011297058            3 
 4552000    0.5280381   -8.5239202    691.58739   0.01266087  0.011293295            3 
 4553000   0.51787219   -8.5352459    691.03671  0.012648011  0.011289536            2 
 4554000   0.51567623   -8.5377089    691.55206  0.012654664  0.011285778            4 
 4555000   0.51845074   -8.5286249    691.10597  0.012643724  0.011282018            3 
 4556000   0.51048921   -8.5350237    691.86166  0.012654771  0.011278262            6 
 4557000   0.53743464   -8.5349433    691.20367  0.012639962  0.011274504            9 
 4558000   0.53774438    -8.530224    690.13038  0.012617566  0.011270747            2 
 4559000   0.51240177   -8.5300982    691.04393  0.012631497  0.011266989            6 
 4560000   0.52498218    -8.538149     691.1102  0.012629938  0.011263233            2 
 4561000   0.52528679   -8.5407037     690.6457  0.012618682  0.011259486            3 
 4562000   0.53001478   -8.5219879    690.96567  0.012621761  0.011255736            2 
 4563000     0.523232   -8.5364534    691.31435  0.012625363  0.011251989            1 
 4564000   0.53052005    -8.520564    691.90821  0.012633439  0.011248239            2 
 4565000   0.51830881   -8.5335106     691.3107  0.012619764  0.011244493            3 
 4566000    0.5223709     -8.54855    692.47251  0.012638205  0.011240747            2 
 4567000    0.5231386   -8.5307505    691.53166   0.01261827  0.011237002            3 
 4568000   0.52093189     -8.53903    691.28096  0.012610934  0.011233264            3 
 4569000   0.51911004   -8.5494621    690.64189  0.012596518  0.011229525            2 
 4570000   0.51346213   -8.5406684    691.53311  0.012610013  0.011225787            2 
 4571000   0.51541822   -8.5328387    690.70047  0.012592075  0.011222052            1 
 4572000   0.51234748   -8.5308226    691.66853  0.012606965  0.011218316            2 
 4573000   0.51211096   -8.5593906    690.33373  0.012579884  0.011214579            5 
 4574000   0.51805672   -8.5270404    690.70449  0.012583889  0.011210845            2 
 4575000   0.51325269   -8.5586686    690.70066  0.012581069  0.011207113            3 
 4576000   0.52989418   -8.5268636    691.11298  0.012585828  0.011203381            4 
 4577000   0.51706397   -8.5297438    692.04683  0.012600081  0.011199651            1 
 4578000   0.52342619   -8.5525809    690.18033  0.012563353  0.011195925            5 
 4579000   0.51487461   -8.5377366    691.63081  0.012587006  0.011192197            3 
 4580000   0.52428145   -8.5375567    691.53862   0.01258258  0.011188473            2 
 4581000   0.50760059    -8.534516    690.78026  0.012566038  0.011184747            3 
 4582000   0.52965225   -8.5356592    690.95766  0.012566522  0.011181023            3 
 4583000   0.50584279    -8.534112    691.30606  0.012570115  0.011177305            2 
 4584000   0.51038595    -8.559808     690.7335  0.012556964  0.011173585            2 
 4585000   0.52074488   -8.5396396    691.88312   0.01257512  0.011169866            5 
 4586000   0.52718344   -8.5304303    690.48836  0.012547034  0.011166151            2 
 4587000   0.51126682    -8.537509    691.75085  0.012567234  0.011162438            6 
 4588000    0.5135547   -8.5417368    692.03181  0.012569598  0.011158725            1 
 4589000   0.51592477   -8.5472019     690.5687   0.01254029   0.01115501            3 
 4590000   0.52228236   -8.5387069    690.60519  0.012538221  0.011151297            4 
 4591000   0.50978569   -8.5458083    690.70766   0.01253735  0.011147588            3 
 4592000   0.51909073    -8.550723    690.46315  0.012530182   0.01114388            3 
 4593000     0.519439   -8.5318746    690.37894  0.012525926  0.011140173            1 
 4594000    0.5308482   -8.5566381    690.57432  0.012526744  0.011136467            2 
 4595000   0.51157955    -8.544169    689.19487     0.012499  0.011132764            3 
 4596000   0.51215833   -8.5545061    690.61185  0.012521973  0.011129059            2 
 4597000    0.5269257   -8.5432265    689.79651  0.012504469  0.011125354            3 
 4598000   0.51613973   -8.5551998     690.9144   0.01252201  0.011121653            2 
 4599000   0.51598759   -8.5409663    691.57831  0.012531317  0.011117956            4 
 4600000   0.51691082   -8.5604472    690.64718  0.012511724  0.011114258            2 
 4601000   0.51482989   -8.5559801    691.27854   0.01252044  0.011110561            6 
 4602000    0.5173131   -8.5580541     690.1176  0.012496697  0.011106866            1 
 4603000   0.51462543   -8.5563838    689.97184  0.012491343  0.011103173            2 
 4604000   0.53031794   -8.5571296    690.97136  0.012506722  0.011099481            2 
 4605000   0.50438374   -8.5365691    691.75701  0.012518223   0.01109579            3 
 4606000   0.51279609   -8.5567929    690.84555  0.012499015  0.011092104            3 
 4607000   0.52039327    -8.551193    689.95135  0.012480127  0.011088418            1 
 4608000   0.51461844    -8.541271    690.74804  0.012491827  0.011084733            3 
 4609000    0.5035806   -8.5533741     690.6634  0.012487586  0.011081051            1 
 4610000   0.51546248   -8.5628577    689.89024  0.012470901  0.011077368            2 
 4611000   0.51994169   -8.5506481    690.80352  0.012484702   0.01107369            4 
 4612000   0.51692143   -8.5473509    691.14527   0.01248817  0.011070015            1 
 4613000    0.5047882   -8.5614863    690.05657  0.012465795   0.01106634            3 
 4614000   0.51980415    -8.545549    690.72238  0.012475119  0.011062665            1 
 4615000   0.52302433   -8.5456065    690.77613  0.012473386  0.011058991            2 
 4616000   0.52431038    -8.554624    691.45115   0.01248287  0.011055321            2 
 4617000   0.51408519   -8.5510925    690.47096  0.012462475   0.01105165            2 
 4618000   0.50610645   -8.5416744    690.22285  0.012455299  0.011047982            2 
 4619000    0.5211656   -8.5511298    692.79435  0.012498996  0.011044312            2 
 4620000   0.50796747   -8.5446184    690.82068   0.01246069  0.011040646            2 
 4621000   0.51736851    -8.546155    691.99461  0.012479164   0.01103698            2 
 4622000   0.51211696   -8.5569059    691.35957  0.012465015  0.011033318            1 
 4623000   0.50604047   -8.5604808    690.77172  0.012451722  0.011029656            1 
 4624000    0.5253277   -8.5386009    690.30444  0.012440608  0.011025998            1 
 4625000   0.51397387   -8.5433431    689.65719  0.012426256  0.011022336            3 
 4626000   0.52619885   -8.5451361    691.12812  0.012450067  0.011018679            3 
 4627000   0.51510631   -8.5540182    690.62124  0.012438247  0.011015022            4 
 4628000   0.50713141    -8.559655    690.38701  0.012431342  0.011011365            4 
 4629000    0.5169136   -8.5281627    691.72345  0.012452716   0.01100771            3 
 4630000   0.50242036   -8.5627489    690.26908   0.01242385  0.011004059            1 
 4631000   0.51108806   -8.5563968    690.74487  0.012429728  0.011000405            2 
 4632000   0.50393022   -8.5585135    690.44973  0.012421735  0.010996755            2 
 4633000   0.50162166   -8.5723577    691.03142  0.012429517  0.010993109            1 
 4634000   0.51222976    -8.565231    690.20548  0.012411982  0.010989461            2 
 4635000   0.51307179   -8.5520823    690.61838  0.012416727  0.010985819            4 
 4636000   0.51786204   -8.5578682    691.26608  0.012425692  0.010982174            3 
 4637000   0.51449506   -8.5540192    690.24032  0.012404578  0.010978531            1 
 4638000   0.51170683   -8.5501163    690.15099  0.012400298  0.010974891            3 
 4639000   0.50864236   -8.5615175    691.12078  0.012415046  0.010971251            1 
 4640000   0.52204448    -8.562567    690.18549  0.012395573  0.010967614            2 
 4641000   0.51009507   -8.5707166    690.54979  0.012399443  0.010963975            3 
 4642000    0.5233861     -8.56561    690.58626  0.012397427  0.010960338            3 
 4643000    0.5238287    -8.553306    689.57867  0.012376672  0.010956702            6 
 4644000   0.50801492   -8.5436812    690.88854  0.012397512  0.010953067            3 
 4645000    0.5158545   -8.5640182    690.30986  0.012384461  0.010949435            2 
 4646000   0.51645837   -8.5627158    690.01544  0.012376514  0.010945806            2 
 4647000   0.50495766   -8.5657168     691.1662  0.012394488  0.010942175            3 
 4648000   0.50649316   -8.5741678    690.37859    0.0123777  0.010938547            2 
 4649000   0.51597485   -8.5636644    689.90465  0.012366542   0.01093492            2 
 4650000   0.50216644   -8.5619867    691.36436  0.012390042  0.010931294            4 
 4651000   0.51742216   -8.5454774    690.33453  0.012368927  0.010927671            4 
 4652000   0.50050061   -8.5575761    690.30129  0.012365672  0.010924053            2 
 4653000   0.49950925   -8.5695918    690.78328  0.012371647  0.010920435            5 
 4654000   0.51612951   -8.5673562    690.75436  0.012368471   0.01091682            3 
 4655000   0.50874132   -8.5529225     690.6468  0.012363888  0.010913203            2 
 4656000   0.49343433   -8.5665828    691.39304  0.012374589  0.010909589            2 
 4657000   0.51348725   -8.5523442    691.51225  0.012374065  0.010905977            2 
 4658000   0.50605939   -8.5490046    689.66691  0.012338395  0.010902364            3 
 4659000   0.51283777   -8.5742078    689.62159  0.012334936  0.010898753            2 
 4660000   0.49316792   -8.5577479    690.51852  0.012348328  0.010895143            2 
 4661000   0.50403768   -8.5600121    691.50846  0.012363378  0.010891532            2 
 4662000    0.5015634   -8.5529412    690.58575  0.012344233  0.010887923            2 
 4663000   0.50174469   -8.5588148    691.00976  0.012349163  0.010884317            2 
 4664000   0.50046399   -8.5675746    691.18141  0.012349582  0.010880711            3 
 4665000   0.49883408   -8.5651309    690.08419  0.012327335   0.01087711            2 
 4666000   0.51456736   -8.5634223    690.10247  0.012325019  0.010873509            4 
 4667000   0.49868587   -8.5794252    689.27971  0.012307687  0.010869904            6 
 4668000   0.50443317   -8.5624622    690.98182  0.012335437  0.010866302            3 
 4669000   0.51276401   -8.5588887    690.17151  0.012318332  0.010862702            4 
 4670000   0.49379834   -8.5789403    689.73262  0.012307863  0.010859107            4 
 4671000   0.50760984    -8.554242     691.7482  0.012341187   0.01085551            1 
 4672000    0.5010141    -8.562054    689.78382  0.012303507  0.010851922            3 
 4673000   0.50021931   -8.5671076    691.53252  0.012332059  0.010848332            5 
 4674000   0.50451908   -8.5526948    689.55995  0.012294251  0.010844744            2 
 4675000   0.51031824   -8.5576901    690.06489  0.012300622  0.010841155            3 
 4676000   0.50443399   -8.5473606    689.69048  0.012291319  0.010837567            3 
 4677000   0.49532289   -8.5873457    691.01587  0.012312306  0.010833982            4 
 4678000   0.49829714   -8.5649644    689.54356  0.012283447  0.010830396            2 
 4679000   0.50910721   -8.5742514    689.66538  0.012282991  0.010826811            3 
 4680000   0.50347421   -8.5693879    690.53699  0.012295887  0.010823231            3 
 4681000   0.49489255   -8.5681229    690.32299   0.01228945  0.010819648            4 
 4682000   0.50497008   -8.5711077    689.96046  0.012280373   0.01081607            4 
 4683000    0.5005228   -8.5764062    690.10004  0.012280234  0.010812492            2 
 4684000   0.51439137   -8.5816638    690.00556  0.012275932  0.010808917            3 
 4685000   0.49928271   -8.5733571    690.46069  0.012281407   0.01080534            2 
 4686000    0.4914117   -8.5704392    690.19563  0.012274072  0.010801768            4 
 4687000   0.51814583   -8.5729412    689.46247  0.012258418  0.010798196            3 
 4688000   0.51000347   -8.5612919    688.81286  0.012244256  0.010794622            2 
 4689000   0.51290228   -8.5707439    689.72913  0.012257929  0.010791053            5 
 4690000   0.50501915   -8.5756264    690.25013  0.012264572  0.010787482            2 
 4691000   0.50204324   -8.5456076    689.60436  0.012250486  0.010783916            2 
 4692000   0.50500035   -8.5762476    690.32132  0.012260609  0.010780352            4 
 4693000    0.4900425   -8.5514661    690.03348  0.012252885  0.010776788            2 
 4694000   0.48534659   -8.5483785    689.68273  0.012244048  0.010773228            7 
 4695000   0.49444199   -8.5731878     689.7136  0.012241988  0.010769667            2 
 4696000   0.49768275   -8.5876071    691.04887  0.012263076  0.010766108            2 
 4697000   0.49893348   -8.5693056    690.06921  0.012243084  0.010762551            3 
 4698000    0.4943243   -8.5619053    689.95518  0.012238456  0.010758998            3 
 4699000   0.49312309   -8.5725711    689.23466  0.012223073  0.010755442            3 
 4700000   0.49964078   -8.5698995    690.07178  0.012235315   0.01075189            3 
 4701000   0.50094473   -8.5642904    690.07502   0.01223277   0.01074834            2 
 4702000   0.49933039   -8.5558943    691.07337  0.012247862  0.010744789            3 
 4703000   0.49680835   -8.5778113    689.85517  0.012223672  0.010741243            1 
 4704000   0.50048751   -8.5704122    689.37312  0.012212534  0.010737697            2 
 4705000   0.50410423   -8.5985394    689.24483  0.012207666   0.01073415            2 
 4706000    0.4926062   -8.5755599    689.58125  0.012211029  0.010730603            1 
 4707000   0.50122124   -8.5589851    690.90043   0.01223179  0.010727061            4 
 4708000   0.50304633   -8.5762348    688.75894  0.012191287  0.010723517            5 
 4709000   0.49635579     -8.57766    689.31881  0.012198606  0.010719978            2 
 4710000   0.48907657   -8.5811083    689.33854  0.012196365  0.010716436            2 
 4711000   0.49987121   -8.5962421    689.89619   0.01220364  0.010712899            5 
 4712000   0.49321993   -8.5637102    690.09875  0.012204633  0.010709364            6 
 4713000   0.49468439   -8.5585568    690.78324  0.012214146   0.01070583            4 
 4714000   0.50022869    -8.580348     689.9045  0.012196021  0.010702297            5 
 4715000   0.48811742   -8.5852154    690.49875  0.012203937  0.010698768            2 
 4716000   0.50178191   -8.5654209    689.92225  0.012191162  0.010695238            2 
 4717000   0.49278705     -8.59085    689.27984  0.012177228  0.010691713            5 
 4718000   0.50033373    -8.579687    688.64262  0.012163392  0.010688184            2 
 4719000   0.50335111   -8.5845917    690.12432   0.01218698  0.010684662            5 
 4720000   0.48633677    -8.586524    690.10099  0.012183986  0.010681134            6 
 4721000   0.49325502   -8.5902426    689.90846  0.012178007  0.010677614            3 
 4722000   0.49400918   -8.5672438    689.48218  0.012167905  0.010674092            2 
 4723000   0.50028033   -8.5709658     688.8501  0.012154176  0.010670576            2 
 4724000   0.49767203   -8.5704009     690.3152  0.012177449  0.010667059            1 
 4725000   0.49297983   -8.5723073    689.18549  0.012154947  0.010663543            4 
 4726000   0.50129173    -8.589391    689.71585  0.012161727  0.010660026            3 
 4727000   0.49963599    -8.589646    689.34631  0.012152639   0.01065651            2 
 4728000   0.49018992   -8.5811511    689.91588  0.012160108  0.010652997            3 
 4729000   0.48777272   -8.5849499    690.69078  0.012171192  0.010649484            2 
 4730000   0.49444227   -8.5882764    689.01756   0.01213914  0.010645974            7 
 4731000   0.49849593   -8.5855827    689.75537   0.01214957  0.010642464            2 
 4732000   0.48913525   -8.5936489    689.79336  0.012147671  0.010638956            1 
 4733000   0.49848339   -8.5909712    690.64996  0.012160187  0.010635448            4 
 4734000   0.50151289   -8.5763403    689.70242  0.012140938  0.010631941            2 
 4735000   0.47724299   -8.5815323    689.64862  0.012137427  0.010628433            3 
 4736000   0.49069494   -8.5954044    689.66836  0.012135212  0.010624929            2 
 4737000    0.5022539   -8.5968874     690.4672  0.012146703  0.010621427            3 
 4738000    0.4844256   -8.5825559    689.22244  0.012122246  0.010617924            2 
 4739000   0.50989566   -8.5872386    688.13256  0.012100523  0.010614423            2 
 4740000   0.48462712   -8.5859672    689.77916  0.012126919  0.010610925            2 
 4741000   0.49235095    -8.580455    689.50351  0.012119516  0.010607426            2 
 4742000   0.48977797   -8.5867176    689.42603  0.012115599  0.010603926            2 
 4743000   0.50205043   -8.5870472    689.35099  0.012111726   0.01060043            4 
 4744000   0.50064648   -8.5901279    689.50453   0.01211187   0.01059694            4 
 4745000   0.48568385   -8.5896782    689.76178  0.012113835  0.010593448            3 
 4746000   0.49297353   -8.5988073    689.99204  0.012115326  0.010589956            3 
 4747000   0.47141172   -8.5983898    689.49047  0.012103969  0.010586465            3 
 4748000   0.48762734   -8.5953041    690.22427  0.012114298  0.010582976            3 
 4749000   0.49696557   -8.5699946    688.89708  0.012088459  0.010579488            2 
 4750000   0.48978704   -8.5783119    689.42535  0.012095182  0.010576004            3 
 4751000   0.49084292   -8.5852694     688.6663  0.012079322   0.01057252            2 
 4752000   0.50016858   -8.5739222    690.12726    0.0121024   0.01056904            2 
 4753000   0.47557689   -8.5816619    688.92843  0.012078835  0.010565561            5 
 4754000   0.49938669    -8.573868    689.00198  0.012077583  0.010562079            1 
 4755000    0.4960597   -8.6182286     689.8792  0.012090417  0.010558601            2 
 4756000   0.49038425   -8.5848165    688.64488  0.012066248  0.010555122            1 
 4757000   0.47724348   -8.5931686    689.76474  0.012083329   0.01055165            3 
 4758000   0.48080121   -8.5974238    688.44404  0.012057658  0.010548178            4 
 4759000   0.49365649   -8.5997749     688.6378  0.012058517  0.010544705            2 
 4760000    0.4942986    -8.593256    690.18529  0.012083076  0.010541233            3 
 4761000   0.49276938   -8.5829524    690.21186  0.012081003  0.010537766            2 
 4762000   0.48818043   -8.6094151    689.49149   0.01206586  0.010534299            2 
 4763000   0.49777626   -8.5835839    689.27403  0.012059522  0.010530832            2 
 4764000   0.49078979     -8.58652    689.33703  0.012058092  0.010527369            2 
 4765000   0.49548892   -8.5849602     689.6063  0.012060271  0.010523904            1 
 4766000   0.48434895   -8.5982282    689.83202  0.012061687  0.010520442            5 
 4767000   0.48320286    -8.581901    690.35168  0.012068241  0.010516983            2 
 4768000   0.48347718   -8.5761089    690.61799  0.012070365  0.010513523            3 
 4769000   0.48820075   -8.5806376    689.55435  0.012049248  0.010510068            2 
 4770000   0.49011982   -8.5917818    689.46651  0.012045187  0.010506613            5 
 4771000   0.48051363    -8.581155    688.41823  0.012024353  0.010503161            3 
 4772000   0.49893794   -8.5922861    689.58088  0.012042136   0.01049971            4 
 4773000   0.48091529   -8.5900522    689.20885  0.012033118   0.01049626            2 
 4774000   0.47484516   -8.5806125    689.30033  0.012032194  0.010492812            4 
 4775000   0.48575784   -8.5855979     690.7331  0.012054679  0.010489366            4 
 4776000   0.49380581   -8.5854092    689.43071   0.01202943  0.010485919            4 
 4777000   0.48828937   -8.5820698    688.95916  0.012018686  0.010482474            2 
 4778000   0.47385912   -8.5889244    689.41248  0.012024077  0.010479028            2 
 4779000    0.4797684   -8.5899572     690.6349  0.012042877  0.010475585            3 
 4780000   0.48403938   -8.5861489    689.09978  0.012013594  0.010472143            3 
 4781000   0.49122978     -8.58613    688.98223  0.012009033  0.010468704            3 
 4782000   0.48436821   -8.6003106    689.02898  0.012007336  0.010465265            3 
 4783000   0.48730825   -8.5827321    690.39829  0.012028683  0.010461833           11 
 4784000   0.50175648   -8.5894603    688.98946  0.012001628  0.010458399            5 
 4785000   0.47751336   -8.6089673    689.56905  0.012009214  0.010454963            4 
 4786000   0.48110892   -8.5907321    689.96599  0.012013616   0.01045153            3 
 4787000   0.48184215   -8.5909586    689.69562    0.0120064  0.010448098            7 
 4788000   0.48674104   -8.5912727    690.48645  0.012017656  0.010444669            2 
 4789000    0.4917168    -8.591714    688.76131  0.011985128  0.010441239            3 
 4790000   0.48585714   -8.6063125    688.09602  0.011971051   0.01043781            4 
 4791000   0.49165262   -8.6007666    689.15218  0.011986923  0.010434384            5 
 4792000   0.47108285   -8.6107845     688.7244  0.011976982  0.010430959            3 
 4793000   0.48201819      -8.5834    689.40322  0.011986286  0.010427536            3 
 4794000   0.48315118   -8.5974831    688.42742  0.011966823  0.010424113            4 
 4795000    0.4985164    -8.601305    689.84904  0.011989034   0.01042069            3 
 4796000   0.47722997   -8.6038922    689.02839  0.011972275  0.010417268            4 
 4797000   0.48300852   -8.5884096     690.8751  0.012001861  0.010413848            3 
 4798000    0.4993352   -8.5852757    688.83247  0.011963882  0.010410428            3 
 4799000   0.48848692   -8.6096839    688.59496  0.011957265  0.010407011            4 
 4800000   0.49491111   -8.5797708     688.9168  0.011960361  0.010403594            3 
 4801000   0.48824104   -8.5938469    689.21515  0.011963048  0.010400181            5 
 4802000   0.48540317   -8.5991769    689.73355  0.011969553  0.010396769            4 
 4803000   0.49557346   -8.6061165     689.1473   0.01195689  0.010393355            2 
 4804000   0.49025744   -8.6123051    689.40205   0.01195882  0.010389945            2 
 4805000   0.47769268   -8.5902552    688.88255  0.011947321  0.010386535            4 
 4806000    0.4772649   -8.5931184    688.25991  0.011934039  0.010383128            4 
 4807000   0.48243552   -8.6029596     690.0042  0.011961795  0.010379721            5 
 4808000   0.48407433   -8.5966506     688.4523  0.011932409  0.010376314            3 
 4809000   0.48836149   -8.6051298    689.48885   0.01194789   0.01037291            5 
 4810000   0.48676143   -8.6005277    689.09676  0.011938613  0.010369508            3 
 4811000   0.48151394   -8.5888326    688.78576  0.011930745  0.010366108            3 
 4812000   0.49011398   -8.5961735    688.41964  0.011921925  0.010362708            5 
 4813000   0.49977581   -8.5864932    689.37439  0.011935979   0.01035931            2 
 4814000   0.47986341   -8.5916971    688.84673  0.011924365  0.010355914            1 
 4815000    0.4887167   -8.6118202    689.47479  0.011932759  0.010352524            2 
 4816000   0.47614035   -8.6075814    690.49751  0.011947977  0.010349129            4 
 4817000   0.47148861    -8.590674    688.76592  0.011915541  0.010345738            2 
 4818000   0.47824187    -8.607183    689.11093  0.011919035  0.010342349            4 
 4819000   0.47090706   -8.6075277    688.58565  0.011907478  0.010338963            3 
 4820000   0.47530856    -8.607056    689.16245   0.01191498  0.010335577            4 
 4821000   0.47707321   -8.6063807    689.67301  0.011921334   0.01033219            2 
 4822000   0.48801945   -8.6071086    689.34041  0.011913114  0.010328807            4 
 4823000   0.47878663   -8.5842334    689.39255  0.011911545  0.010325424            5 
 4824000   0.47976328   -8.5988298    689.24325  0.011906496  0.010322044            3 
 4825000   0.48327141   -8.6016325    689.47778  0.011908079  0.010318667            2 
 4826000   0.46981266   -8.5819537    688.51805  0.011889039  0.010315289            2 
 4827000   0.48909255   -8.5929136    689.60931  0.011905416  0.010311913            3 
 4828000   0.48058779   -8.6064369    689.91172   0.01190817  0.010308538            3 
 4829000   0.49304655   -8.5994434    687.76636  0.011868682  0.010305161            2 
 4830000   0.47576647   -8.6127268    688.80181  0.011884089  0.010301791            3 
 4831000   0.48131364   -8.5968252    689.19963  0.011888491  0.010298421            5 
 4832000   0.48216335   -8.5862466    689.38935  0.011889303  0.010295053            2 
 4833000   0.47289514   -8.5998115    689.16229  0.011882928  0.010291686            2 
 4834000   0.47881314   -8.6053692    688.84596  0.011875017  0.010288321            4 
 4835000   0.47769779    -8.613604    688.74953  0.011870898  0.010284954            3 
 4836000   0.47204324    -8.606578    688.85733  0.011870301  0.010281591            5 
 4837000   0.48141867   -8.6056218    688.92665  0.011869042  0.010278227            4 
 4838000   0.47878868   -8.6140195    688.80638  0.011864517  0.010274866            2 
 4839000   0.47933724   -8.5924002    688.89047  0.011863513  0.010271505            2 
 4840000   0.47623429   -8.6201492    688.61462  0.011856312  0.010268147            2 
 4841000   0.48768531   -8.5973895    689.97039  0.011877201  0.010264792            2 
 4842000   0.47048308   -8.5978276    688.90602   0.01185643  0.010261439            2 
 4843000   0.48375714   -8.6048563    689.07598  0.011856907  0.010258084            2 
 4844000   0.48312717   -8.6158115    689.26538  0.011857717  0.010254732            4 
 4845000   0.47126694   -8.5960587    688.54098   0.01184281  0.010251378            5 
 4846000   0.46743447   -8.6122183    689.18934  0.011851516  0.010248027            2 
 4847000   0.48567323   -8.5993693    689.16192  0.011848599  0.010244677            2 
 4848000   0.47221929   -8.6009408    688.22863  0.011830113  0.010241329            6 
 4849000   0.48320529   -8.6248708     689.3741  0.011847359  0.010237981            2 
 4850000   0.48135893   -8.6148377     687.8194  0.011818203  0.010234636            2 
 4851000   0.46393729   -8.6082455    687.89363  0.011817042  0.010231287            5 
 4852000   0.47289186   -8.6049214    689.06109  0.011834657  0.010227947            5 
 4853000   0.47959448   -8.6013356    689.14572  0.011833672  0.010224607            1 
 4854000   0.47718413   -8.6072171    688.74298   0.01182432  0.010221269            3 
 4855000   0.47226369   -8.6159929    688.30519   0.01181437  0.010217932            2 
 4856000   0.47761858   -8.6004965    689.02172  0.011824233  0.010214593            4 
 4857000   0.48448459   -8.6192228    689.02137  0.011821793  0.010211256            3 
 4858000   0.48141557   -8.6124363    689.52571  0.011828011  0.010207924            2 
 4859000   0.47783787   -8.6088274    688.44149  0.011806982  0.010204591            3 
 4860000   0.47413187   -8.6029955     689.7231  0.011826528   0.01020126            2 
 4861000   0.46535581   -8.6135222     689.3346  0.011817435   0.01019793            4 
 4862000   0.47895743   -8.6260414    688.54192  0.011801418  0.010194601            2 
 4863000    0.4792899   -8.6204351    688.78491  0.011803155  0.010191272            2 
 4864000   0.47381089   -8.6049319     688.7237   0.01179968  0.010187944            1 
 4865000   0.46731105   -8.6245978    687.98269  0.011784561  0.010184618            2 
 4866000    0.4658631   -8.6109039    688.63643  0.011793335  0.010181291            3 
 4867000   0.46373833   -8.6290014    689.20828  0.011800703  0.010177966            5 
 4868000   0.46741152   -8.6132211    688.16122  0.011780355  0.010174642            3 
 4869000   0.46666057   -8.6090855    688.03154  0.011775716  0.010171319            2 
 4870000   0.46670284   -8.6171997    688.26134   0.01177723  0.010167999            1 
 4871000   0.47258803   -8.6200994    688.56687  0.011780039  0.010164682            3 
 4872000   0.46621294   -8.6221428    687.72649  0.011763247  0.010161368            2 
 4873000   0.47014497   -8.6178135    689.00895  0.011782765   0.01015805            3 
 4874000   0.46208033   -8.6210737    688.64274  0.011774086  0.010154733            2 
 4875000   0.46697136   -8.6210361    687.55577   0.01175309  0.010151419            2 
 4876000   0.47237337   -8.6234201    688.10655  0.011760093  0.010148103            4 
 4877000   0.47244396   -8.6131706    690.27373  0.011794712  0.010144791            3 
 4878000    0.4762541   -8.6169295    688.09303   0.01175504  0.010141482            2 
 4879000   0.47098762   -8.6257761    687.40579  0.011740893  0.010138175            2 
 4880000   0.47365363   -8.6130863    687.74547  0.011744287  0.010134867            4 
 4881000   0.47095036   -8.6214786    688.59378  0.011756364  0.010131562            1 
 4882000   0.47707397    -8.614422    687.95922  0.011743125  0.010128256            2 
 4883000   0.48325316   -8.6212019    688.21232  0.011745039  0.010124952            2 
 4884000   0.48244712   -8.6273914    687.89732   0.01173726  0.010121652            3 
 4885000   0.47059622   -8.6155266    687.81308   0.01173342  0.010118353            2 
 4886000   0.47017957   -8.6241831    688.99302  0.011751143  0.010115055            2 
 4887000   0.47312352   -8.6230611    688.91236  0.011747363  0.010111755            3 
 4888000   0.48007469   -8.6244308    687.38909   0.01171899  0.010108459            1 
 4889000   0.46815051   -8.6165019    688.63214  0.011737781  0.010105163            2 
 4890000   0.46071828   -8.6219213    687.41933  0.011714713  0.010101869            2 
 4891000    0.4699592   -8.6141965    688.31107  0.011727511  0.010098575            1 
 4892000   0.46763845   -8.6133889    688.96161  0.011736195  0.010095284            2 
 4893000   0.46396575   -8.6176532    688.03811  0.011718069  0.010091995            4 
 4894000   0.46578339    -8.615646     688.0522  0.011715914  0.010088707            7 
 4895000   0.46181318   -8.6168417    688.66626  0.011723975   0.01008542            3 
 4896000    0.4700818   -8.6067816    688.00868  0.011710387  0.010082134            3 
 4897000   0.46256114   -8.6268136    688.01775   0.01170815  0.010078851            1 
 4898000   0.46853641   -8.6263732    688.19184  0.011708722  0.010075566            3 
 4899000   0.45959997   -8.6193383     687.9087  0.011701516  0.010072281            2 
 4900000   0.46291879   -8.6225202    689.30332  0.011722846  0.010068998            5 
 4901000      0.46775   -8.6335185    687.73704  0.011693822  0.010065716            2 
 4902000    0.4646698    -8.626196    687.82716  0.011692968  0.010062435            2 
 4903000   0.47524808   -8.6168761    688.59099  0.011703566  0.010059158            5 
 4904000   0.46920246   -8.6215836    687.74377  0.011686782  0.010055884            2 
 4905000   0.46585326   -8.6217796    688.05043   0.01168961  0.010052611            1 
 4906000   0.45865548   -8.6282228    688.84298  0.011700689  0.010049337            2 
 4907000   0.45711963   -8.6278852    688.69206  0.011695742  0.010046064            3 
 4908000   0.47044311   -8.6235054     687.1031   0.01166638  0.010042794            2 
 4909000   0.45165236    -8.626795    687.43542  0.011669645  0.010039522            2 
 4910000   0.46553008   -8.6302795    688.56678  0.011686469  0.010036254            2 
 4911000     0.465109   -8.6215143    688.10773    0.0116763  0.010032989            2 
 4912000   0.47691379   -8.6349362    688.72908  0.011684465  0.010029726            3 
 4913000   0.46324777     -8.61251    688.23178  0.011673651   0.01002646            4 
 4914000   0.46484337    -8.622221    687.88242  0.011665351  0.010023197            2 
 4915000   0.46477091   -8.6151629    686.44415  0.011638592  0.010019935            2 
 4916000   0.47173786   -8.6228645    688.21774  0.011666289  0.010016679            1 
 4917000   0.45841179   -8.6217071    688.27018  0.011664805  0.010013421            4 
 4918000   0.46021752   -8.6370601    688.18278  0.011660953  0.010010166            1 
 4919000   0.46378738   -8.6300871    689.11793  0.011674425  0.010006912            4 
 4920000   0.47041287   -8.6143815    688.36141  0.011659238   0.01000366            3 
 4921000   0.46854314   -8.6265617     688.0583  0.011651736  0.010000405            3 
 4922000   0.46364643   -8.6291687    689.31718  0.011670682 0.0099971528            2 
 4923000   0.45876319   -8.6321365    687.71601  0.011641208 0.0099939027            1 
 4924000   0.46453036   -8.6468062    687.83493  0.011640857 0.0099906529            3 
 4925000   0.46651452   -8.6118642    687.73794  0.011636852 0.0099874051            4 
 4926000    0.4612151   -8.6226158    687.50075  0.011630477 0.0099841583            3 
 4927000   0.46348959   -8.6354405    688.01841  0.011636872 0.0099809155            3 
 4928000   0.46077051   -8.6205933    688.12011   0.01163623 0.0099776686            2 
 4929000   0.47400854   -8.6298526    688.01758  0.011632136 0.0099744247            3 
 4930000   0.45723166   -8.6280615    688.12102  0.011631525 0.0099711844            4 
 4931000   0.46492057   -8.6358344    687.81633  0.011624017 0.0099679434            4 
 4932000   0.45878947   -8.6274359    687.26508  0.011612346  0.009964701            3 
 4933000   0.46808821   -8.6296471    688.25913  0.011626784  0.009961463            3 
 4934000   0.45980203    -8.631408    688.00457  0.011620129 0.0099582257            4 
 4935000   0.46279798   -8.6264447     687.6522  0.011611824 0.0099549916            2 
 4936000   0.44704415   -8.6318529     687.3286  0.011604008 0.0099517597            2 
 4937000   0.46967223   -8.6329124    688.04364  0.011613727 0.0099485287            2 
 4938000   0.46689936   -8.6273546    687.43815  0.011601157 0.0099452988            4 
 4939000   0.44990993   -8.6422296    688.68769  0.011619891 0.0099420702            4 
 4940000   0.45451576   -8.6386753     687.7934  0.011602453 0.0099388396            3 
 4941000   0.45190844   -8.6265514    688.78624  0.011616849 0.0099356125            4 
 4942000   0.45470699   -8.6256092    687.69785  0.011596146 0.0099323849            3 
 4943000   0.46389979   -8.6338585     687.9719   0.01159842 0.0099291615            2 
 4944000   0.44948129   -8.6254996    688.04109  0.011597241  0.009925937            4 
 4945000   0.45093622   -8.6388334    688.18184  0.011597267 0.0099227129            1 
 4946000   0.45632207   -8.6338365    687.32041  0.011580409 0.0099194909            1 
 4947000   0.44968904   -8.6281599    688.74761  0.011602109 0.0099162688            2 
 4948000   0.46276561    -8.638578     689.1076  0.011605827  0.009913051            2 
 4949000   0.45780018   -8.6336976    686.97955  0.011567649 0.0099098304            2 
 4950000   0.45442831   -8.6426742    687.45706  0.011573351 0.0099066127            2 
 4951000   0.46223985   -8.6381489    687.47171   0.01157126 0.0099033971            2 
 4952000    0.4598153   -8.6427307    687.78015  0.011574114 0.0099001835            2 
 4953000   0.45465095   -8.6259604    688.50034  0.011583894 0.0098969696            1 
 4954000    0.4615747   -8.6325324    688.72463  0.011585329  0.009893758            2 
 4955000   0.45105722   -8.6460035    688.26009  0.011575178 0.0098905469            4 
 4956000   0.45354641   -8.6424968    688.17472  0.011571407 0.0098873348            2 
 4957000   0.44712562   -8.6285785    688.05585  0.011567074 0.0098841266            2 
 4958000   0.46081332    -8.625575    686.60359  0.011540332 0.0098809205            3 
 4959000    0.4496381   -8.6496683    687.63594  0.011555353 0.0098777145            2 
 4960000   0.46397996   -8.6450497    687.14773  0.011544821  0.009874511            1 
 4961000   0.46680211   -8.6412671    687.15745  0.011542657 0.0098713094            4 
 4962000   0.45409302   -8.6405095    687.60616  0.011547867 0.0098681062            2 
 4963000   0.45774961   -8.6283998    687.24985  0.011539557 0.0098649043            3 
 4964000   0.46495408   -8.6458591    688.69769  0.011561538 0.0098617043            1 
 4965000   0.45274012   -8.6457324    687.92823  0.011546294 0.0098585086            2 
 4966000   0.44247762   -8.6455976    688.64954  0.011556074 0.0098553133            2 
 4967000    0.4590441   -8.6303972    687.53895  0.011535114 0.0098521187            2 
 4968000   0.45382875   -8.6366951    686.19519  0.011510252 0.0098489245            3 
 4969000    0.4653142   -8.6412993    687.75117  0.011534031 0.0098457322            2 
 4970000   0.45733305   -8.6408322    687.55854   0.01152848 0.0098425428            2 
 4971000   0.45764247   -8.6310305    686.91083  0.011515303 0.0098393508            2 
 4972000   0.45605024   -8.6348396     688.2757  0.011535863 0.0098361637            3 
 4973000   0.45803537   -8.6642329    686.91673   0.01151077 0.0098329757            2 
 4974000   0.46733203   -8.6395033    687.03166  0.011510382 0.0098297895            3 
 4975000   0.45584621   -8.6462272    687.30857  0.011512706 0.0098266034            5 
 4976000   0.45605516    -8.648942    688.70988   0.01153386 0.0098234199            3 
 4977000   0.46572609    -8.626219    686.93153  0.011501767 0.0098202365            3 
 4978000   0.45462806   -8.6444872    687.99812  0.011517312  0.009817052            4 
 4979000   0.45637985   -8.6495576      688.903  0.011530143 0.0098138709            5 
 4980000   0.45597603   -8.6514082    687.51318  0.011504571  0.009810692            3 
 4981000     0.447353   -8.6430049    687.85294  0.011507946 0.0098075157            1 
 4982000   0.45989945   -8.6590358    687.38413  0.011497794 0.0098043402            2 
 4983000   0.44846505    -8.657865    687.21195  0.011492607 0.0098011632            2 
 4984000   0.45796973   -8.6405901    686.67381  0.011481304 0.0097979908            2 
 4985000   0.44901846    -8.649177    687.11669  0.011486404  0.009794818            4 
 4986000   0.45925328   -8.6372596    686.96491  0.011481564 0.0097916461            2 
 4987000   0.44559899   -8.6486252    687.64566  0.011490637 0.0097884771            1 
 4988000   0.45605331   -8.6526221    687.67973  0.011488902 0.0097853079            5 
 4989000   0.45932925   -8.6574446     687.6587  0.011486248  0.009782142            4 
 4990000   0.46367605   -8.6366503     686.8473  0.011470396 0.0097789758            4 
 4991000   0.44895312   -8.6472585    686.69922  0.011465625 0.0097758124            3 
 4992000   0.45469966   -8.6523247    685.80405  0.011448385  0.009772648            2 
 4993000   0.44943881   -8.6405023    687.02295  0.011466436 0.0097694875            3 
 4994000   0.44697346   -8.6467453    687.13357  0.011465985 0.0097663259            4 
 4995000   0.45338458   -8.6483223     687.1403  0.011463802 0.0097631658            1 
 4996000   0.44785216    -8.658884    687.51928  0.011467829 0.0097600072            4 
 4997000    0.4542653   -8.6474823    687.68285  0.011468262 0.0097568515            2 
 4998000   0.44091659   -8.6542071    687.09706    0.0114562  0.009753696            2 
 4999000    0.4557912   -8.6373711    687.51785  0.011460923 0.0097505402            3 
 5000000   0.45154063   -8.6496399    687.10841  0.011451807 0.0097473858            3 
 5001000   0.44746121     -8.64808    687.04984  0.011448541 0.0097442334            2 
 5002000   0.45989368    -8.646829    686.69684  0.011440371 0.0097410826            2 
 5003000   0.45897618   -8.6410526    686.48258  0.011434516 0.0097379304            4 
 5004000    0.4503556   -8.6505754    687.67672  0.011452117 0.0097347818            4 
 5005000   0.46048137   -8.6494929    686.03079  0.011422424 0.0097316334            2 
 5006000   0.45281408   -8.6517182    687.63659  0.011446874  0.009728487            2 
 5007000   0.45131381   -8.6474651    687.13278  0.011436202 0.0097253448            1 
 5008000   0.44312224   -8.6558977     687.4454  0.011439121 0.0097222029            2 
 5009000   0.45360444   -8.6574853    687.27957  0.011434078 0.0097190614            2 
 5010000   0.44970024   -8.6454477    687.60767  0.011437253 0.0097159189            3 
 5011000   0.44930161   -8.6366404    687.84549  0.011438926 0.0097127793            2 
 5012000   0.45966261   -8.6461149     687.8058  0.011435984 0.0097096457            2 
Loop time of 11965.4 on 48 procs for 5000000 steps with 4000 atoms

Performance: 72208.391 tau/day, 417.873 timesteps/s
99.4% CPU use with 48 MPI tasks x no OpenMP threads

MPI task timing breakdown:
Section |  min time  |  avg time  |  max time  |%varavg| %total
---------------------------------------------------------------
Pair    | 765.36     | 821.76     | 871.41     |  98.1 |  6.87
Neigh   | 77.479     | 81.313     | 85.168     |  20.4 |  0.68
Comm    | 757.45     | 804.28     | 878.46     | 109.0 |  6.72
Output  | 14.326     | 14.33      | 14.414     |   0.3 |  0.12
Modify  | 10115      | 10140      | 10166      |  13.0 | 84.74
Other   |            | 103.9      |            |       |  0.87

Nlocal:        83.3333 ave          92 max          75 min
Histogram: 1 2 12 2 7 10 5 6 1 2
Nghost:        2045.04 ave        2070 max        2021 min
Histogram: 4 3 4 5 9 7 6 4 3 3
Neighs:        13292.2 ave       15329 max       11757 min
Histogram: 1 6 10 6 8 8 4 2 1 2
FullNghs:      26583.8 ave       29630 max       23728 min
Histogram: 1 1 7 9 8 8 6 5 1 2

Total # of neighbors = 1276020
Ave neighs/atom = 319.00500
Neighbor list builds = 267827
Dangerous builds = 0

#clear
#
#next RN
#
#jump SELF
Total wall time: 3:19:28
