
units lj                  # Use reduced LJ style units
atom_style atomic         # Uncharged point particles
atom_modify map hash      # Needed for indexing of clusters etc
                          # Used to be able to find where atoms are in relation to each other.

lattice fcc 1.0 spacing 1 1 1
Lattice spacing in x,y,z = 1.5874011 1.5874011 1.5874011
region box block 0 10 0 10 0 10 units lattice
create_box 2 box
Created orthogonal box = (0.0000000 0.0000000 0.0000000) to (15.874011 15.874011 15.874011)
  3 by 4 by 4 MPI processor grid
create_atoms 1 box
Created 4000 atoms
  using lattice units in orthogonal box = (0.0000000 0.0000000 0.0000000) to (15.874011 15.874011 15.874011)
  create_atoms CPU = 0.003 seconds
set type 1 type/fraction 2 0.89 78393
Setting atom values ...
  3550 settings made for type/fraction
mass 1 1.0
mass 2 1.0
pair_style lj/cut  3.5
pair_modify tail  yes
pair_coeff 1  1  1.0  1.0   # Intearaction between 1 and 1 set with epsilon = 1 and sigma = 1
pair_coeff 1  2  1.5  0.8
pair_coeff 2  2  0.5  0.88

write_data data.0
System init for write_data ...
Neighbor list info ...
  update every 1 steps, delay 10 steps, check yes
  max neighbors/atom: 2000, page size: 100000
  master list distance cutoff = 3.8
  ghost atom cutoff = 3.8
  binsize = 1.9, bins = 9 9 9
  1 neighbor lists, perpetual/occasional/extra = 1 0 0
  (1) pair lj/cut, perpetual
      attributes: half, newton on
      pair build: half/bin/atomonly/newton
      stencil: half/bin/3d
      bin: standard
WARNING: Not all mixed pair coeffs generated from mixing. Use write_data with 'pair ij' option to store all pair coeffs. (../write_data.cpp:312)


#############################
#   M E L T   S Y S T E M   #
#############################

velocity all create 2.4 2750902 mom yes dist gaussian # Assign velocities
                                                    # Temperature 2.4, random number seed, zero linear momentum
                                                                                # Gaussian distribution

timestep 0.002   # simulation timestep
thermo 1000       # output thermodynamic data every 1000 steps bf 100

# Define a fix  in this case with index 1 applied to all
# particles in the simulation. This fix is for simulations
# in the anisotropic NPT ensemble. Note that we use the MTK
# correction.
fix 1 all npt temp 2.4 2.4 0.1 iso 5.68 5.68 0.5 mtk yes tchain 5 pchain 5 # Use NPT ensemble
                                                                         # Set temperature and pressure and damping
                                                                         # Numbers of thermostats in chain and in barostat
run 10000          # run for 10000 steps
Per MPI rank memory allocation (min/avg/max) = 3.642 | 3.644 | 3.648 Mbytes
Step Temp E_pair E_mol TotEng Press Volume 
       0          2.4   -3.2438273            0   0.35527274   -2.6679874         4000 
    1000    2.3940858    -2.333125            0    1.2571059      5.43696    4008.9867 
    2000    2.4220419   -2.3504172            0    1.2817374    5.7265342    3934.8338 
    3000    2.3532158    -2.327331            0    1.2016102    5.5109685     3986.304 
    4000    2.3849774   -2.3112406            0    1.2653312    5.7409701    3982.0995 
    5000    2.3976359   -2.3518027            0     1.243752    5.4160986    3987.9694 
    6000      2.39787   -2.2706625            0    1.3252433    5.9080871    3975.2517 
    7000    2.4154459   -2.2770869            0    1.3451761    5.9440498    3981.4657 
    8000    2.3870925   -2.2405643            0    1.3391793    5.6773647    4031.2289 
    9000    2.4115903   -2.3161533            0    1.3003277     5.483334    4012.8735 
   10000    2.3831586   -2.3424002            0     1.231444     5.500541    3984.3539 
Loop time of 2.48502 on 48 procs for 10000 steps with 4000 atoms

Performance: 695367.236 tau/day, 4024.116 timesteps/s
99.6% CPU use with 48 MPI tasks x no OpenMP threads

MPI task timing breakdown:
Section |  min time  |  avg time  |  max time  |%varavg| %total
---------------------------------------------------------------
Pair    | 1.0826     | 1.1613     | 1.2359     |   2.8 | 46.73
Neigh   | 0.2058     | 0.21561    | 0.2232     |   0.8 |  8.68
Comm    | 0.74924    | 0.83963    | 0.93324    |   3.6 | 33.79
Output  | 0.00025173 | 0.00025558 | 0.00031752 |   0.0 |  0.01
Modify  | 0.22316    | 0.25267    | 0.27304    |   2.5 | 10.17
Other   |            | 0.01558    |            |       |  0.63

Nlocal:        83.3333 ave          91 max          72 min
Histogram: 2 1 2 5 5 7 11 6 6 3
Nghost:        1653.65 ave        1697 max        1609 min
Histogram: 3 2 8 6 4 5 7 6 3 4
Neighs:        9588.46 ave       11015 max        7566 min
Histogram: 1 0 3 3 8 11 11 3 5 3

Total # of neighbors = 460246
Ave neighs/atom = 115.06150
Neighbor list builds = 901
Dangerous builds = 173

# Equilibrate just above the melting temperature to avoid step fn in T

fix 1 all npt temp 1.25 1.25 0.1 iso 5.68 5.68 0.5 mtk yes tchain 5 pchain 5
run 2000
Per MPI rank memory allocation (min/avg/max) = 3.643 | 3.645 | 3.649 Mbytes
Step Temp E_pair E_mol TotEng Press Volume 
   10000    2.3831586   -2.3424002            0     1.231444     5.500541    3984.3539 
   11000    1.2695878    -3.495277            0   -1.5913714    5.6988753    3062.0347 
   12000    1.2573535   -3.4459774            0   -1.5604186    5.8926452    3072.7849 
Loop time of 0.610539 on 48 procs for 2000 steps with 4000 atoms

Performance: 566057.318 tau/day, 3275.795 timesteps/s
99.6% CPU use with 48 MPI tasks x no OpenMP threads

MPI task timing breakdown:
Section |  min time  |  avg time  |  max time  |%varavg| %total
---------------------------------------------------------------
Pair    | 0.2722     | 0.29737    | 0.32907    |   2.3 | 48.71
Neigh   | 0.03894    | 0.04195    | 0.045091   |   0.6 |  6.87
Comm    | 0.18872    | 0.22059    | 0.24979    |   2.9 | 36.13
Output  | 5.447e-05  | 5.6173e-05 | 6.9814e-05 |   0.0 |  0.01
Modify  | 0.04257    | 0.045596   | 0.049252   |   0.8 |  7.47
Other   |            | 0.004973   |            |       |  0.81

Nlocal:        83.3333 ave          93 max          76 min
Histogram: 2 6 8 8 4 10 3 2 3 2
Nghost:        1956.46 ave        1979 max        1939 min
Histogram: 2 3 5 9 7 10 10 1 0 1
Neighs:        12424.7 ave       14386 max       11183 min
Histogram: 2 6 7 12 11 4 2 2 1 1

Total # of neighbors = 596387
Ave neighs/atom = 149.09675
Neighbor list builds = 142
Dangerous builds = 13

#############################
# L I N E A R  Q U E N C H  #
#############################

# Define solid atoms. This closely follows ten Wolde  Ruiz-Montero and Frenkel  Faraday Discuss  1996  104  93-110
# Compute components of the per-atom q6 vector
compute q6 all orientorder/atom degrees 1 6 components 6 nnn NULL cutoff 1.3 # compute the Q6 parameter.
                                                                             # Use all neighbours within 1.3 unit cell.

# get number of connections
compute coord_number all coord/atom orientorder q6 0.5

# An atom is solid if it has 8 or more connections (of a possible 14)
variable is_solid atom c_coord_number>=8
group solid dynamic all var is_solid    # Must be dynamic to update
dynamic group solid defined

# do clustering
compute cluster solid cluster/atom 1.3 # Create a cluster where all atoms within are solid and max 1.3 units from another member

# define chunks one chunk per cluster
compute clus_chunks solid chunk/atom c_cluster nchunk every compress yes  # Says which atoms are in which chunk

# count the size of each chunk
compute size_chunks solid property/chunk clus_chunks count


# Find the maximum entry in the vector of chunk sizes
variable max_n equal max(c_size_chunks)


# Thermo style which includes this variable
# thermo_style custom step temp pe vol v_max_n

thermo ${N}  # Print the thermo information every 100 steps
thermo 1000  

# Reset the npt fix at a lower temperature (below freezing)
fix 1  all npt temp  ${temp} ${temp}  0.1  iso  5.68  5.68  0.5  mtk yes tchain  5  pchain  5
fix 1  all npt temp  0.45 ${temp}  0.1  iso  5.68  5.68  0.5  mtk yes tchain  5  pchain  5
fix 1  all npt temp  0.45 0.45  0.1  iso  5.68  5.68  0.5  mtk yes tchain  5  pchain  5

dump dmp2 all dcd ${N} traj.dcd
dump dmp2 all dcd 1000 traj.dcd


compute msd all msd com yes
variable twopoint equal c_msd[4]/6/(step*dt+1.0e-6)
fix 9 all vector 10 c_msd[4]
variable fit equal slope(f_9)/6/(10*dt)
thermo_style custom step temp pe c_msd[4] v_twopoint v_fit v_max_n

fix 1 all npt temp 1.25 ${temp} 0.1 iso 5.68 5.68 0.5 mtk yes tchain 5 pchain 5
fix 1 all npt temp 1.25 0.45 0.1 iso 5.68 5.68 0.5 mtk yes tchain 5 pchain 5
run 5000000 # 5000000  # Run for this many steps
Neighbor list info ...
  update every 1 steps, delay 10 steps, check yes
  max neighbors/atom: 2000, page size: 100000
  master list distance cutoff = 3.8
  ghost atom cutoff = 3.8
  binsize = 1.9, bins = 8 8 8
  4 neighbor lists, perpetual/occasional/extra = 1 3 0
  (1) pair lj/cut, perpetual
      attributes: half, newton on
      pair build: half/bin/atomonly/newton
      stencil: half/bin/3d
      bin: standard
  (2) compute orientorder/atom, occasional
      attributes: full, newton on
      pair build: full/bin/atomonly
      stencil: full/bin/3d
      bin: standard
  (3) compute coord/atom, occasional
      attributes: full, newton on
      pair build: full/bin/atomonly
      stencil: full/bin/3d
      bin: standard
  (4) compute cluster/atom, occasional
      attributes: full, newton on
      pair build: full/bin/atomonly
      stencil: full/bin/3d
      bin: standard
Per MPI rank memory allocation (min/avg/max) = 9.823 | 9.830 | 9.834 Mbytes
Step Temp PotEng c_msd[4] v_twopoint v_fit v_max_n 
   12000    1.2573535   -3.4459774 1.132607e-30 7.8653264e-33 8.3333333e+20            2 
   13000    1.2536366   -3.4452864   0.96727279 0.0062004664  0.082625322            3 
   14000    1.2658901   -3.4964176    2.0275566  0.012068789  0.084981805            1 
   15000    1.2474486    -3.471311    3.0968432  0.017204684  0.087965683            1 
   16000     1.242056   -3.4609753    4.0793311  0.021246515  0.086452735            2 
   17000    1.2309838   -3.4870097    5.1287208  0.025140787  0.086142599            3 
   18000    1.2366275   -3.4467436    6.2257267  0.028822808  0.086277351            1 
   19000    1.2357237    -3.448375    7.2145723   0.03164286   0.08654844            3 
   20000    1.1890192   -3.4943862     8.261434  0.034422641  0.086659359            1 
   21000    1.2593775   -3.4548777    9.4660973  0.037563877  0.087020068            4 
   22000    1.2454184   -3.4635209    10.547209  0.039951549  0.087759694            1 
   23000    1.2217787   -3.4718751    11.617867  0.042093719  0.088213861            3 
   24000    1.2377113   -3.4426012    12.576847  0.043669608  0.088349455            2 
   25000    1.2452098   -3.4785624    13.455363  0.044851209  0.087989114            2 
   26000    1.2597588   -3.4361258    14.468173  0.046372348  0.087495428            2 
   27000    1.2508674   -3.4648365    15.498516  0.047834924  0.087218638            1 
   28000    1.2400416   -3.4479922     16.46008  0.048988333   0.08689512            2 
   29000    1.2267421   -3.4481088    17.437286  0.050107143  0.086584596            1 
   30000    1.2306471   -3.4897008    18.411562  0.051143226  0.086259271            2 
   31000     1.273988   -3.4783716    19.307784  0.051902644   0.08591067            1 
   32000    1.2675435   -3.4497851    20.518105  0.053432564  0.085606771            1 
   33000    1.2334359   -3.4732111    21.455776  0.054181251  0.085483849            5 
   34000     1.261507   -3.4736761    22.426531  0.054966987  0.085368458            2 
   35000    1.2372508   -3.4572667    23.620529  0.056239354  0.085312083            1 
   36000    1.2444933   -3.4497894    24.770284  0.057338619  0.085334225            4 
   37000     1.261212   -3.4232612    25.843755  0.058206654  0.085349452            1 
   38000    1.2071228   -3.4566037    26.398347  0.057891111  0.085264488            1 
   39000    1.2538775    -3.446358    27.580713  0.058933146  0.085152966            3 
   40000    1.2391051   -3.4389519    28.847032  0.060097983  0.085181823            2 
   41000     1.276753   -3.4916521    29.939415  0.060852468  0.085292506            1 
   42000    1.2556019   -3.4422059    31.310614  0.062124234  0.085534778            1 
   43000    1.2634512   -3.4756069    32.228298  0.062457941  0.085739809            2 
   44000    1.2347741   -3.4863804    33.139905  0.062764971   0.08591933            2 
   45000    1.2103406   -3.4674972    34.310941  0.063538778  0.086033115            2 
   46000    1.2181846   -3.5142424    35.137255  0.063654447  0.086121942            3 
   47000     1.249902    -3.525243    35.988179  0.063808827  0.086145096            2 
   48000    1.2288919    -3.479674    37.158511  0.064511304  0.086155017            4 
   49000    1.2029952   -3.4629446    38.271107  0.065086916  0.086146747            2 
   50000    1.2505243   -3.4294645    39.018737  0.065031227  0.086079841            1 
   51000    1.2358407   -3.4774373    40.054086  0.065447852  0.085986965            1 
   52000    1.2764774   -3.4671008    40.988614  0.065686881  0.085894475            2 
   53000    1.2023648   -3.4729662    41.865609  0.065826428   0.08578991            2 
   54000    1.2251028   -3.4875931    42.845837  0.066120119  0.085647234            2 
   55000    1.2456563   -3.4750908    43.904808  0.066522435  0.085548061            5 
   56000    1.2555352   -3.4518376     44.97984  0.066934285  0.085493504            3 
   57000     1.228166   -3.5048618    46.115286  0.067420008  0.085435785            1 
   58000    1.2572418   -3.4547722    46.994639  0.067521033  0.085358236            3 
   59000    1.3005971   -3.4935568    48.053972  0.067872842  0.085313457            2 
   60000    1.2277883   -3.4741888    49.121593  0.068224434  0.085292683            2 
   61000    1.2458942   -3.4528108    49.997739  0.068302922  0.085290099            3 
   62000    1.2155514   -3.4520188    51.525984  0.069255354  0.085324087            2 
   63000    1.2686013      -3.4481    52.290284  0.069167041  0.085313912            1 
   64000    1.2474546   -3.4789936    53.303007  0.069404956  0.085330935            3 
   65000    1.2108844   -3.4632313    53.981318  0.069206818  0.085283796            2 
   66000    1.2197349     -3.47591    55.329037  0.069859895  0.085242544            2 
   67000    1.2519425   -3.4835446    56.173977   0.06986813  0.085198137            4 
   68000    1.2344978   -3.4775568    56.833843  0.069649316  0.085126579            3 
   69000    1.2388396   -3.4757261     57.97616  0.070019516  0.085056387            2 
   70000    1.2543585   -3.4767632     58.93775  0.070163987  0.085017409            2 
   71000    1.2493226   -3.4711056    59.959658  0.070375185  0.084958673            2 
   72000     1.257109   -3.4719027    60.865657  0.070446362  0.084887164            1 
   73000    1.2278797   -3.4387376    62.367303   0.07119555   0.08484467            4 
   74000    1.2029865   -3.4985927    63.141343  0.071105115  0.084823536            2 
   75000    1.2192533   -3.4600236    64.349528  0.071499475  0.084791661            2 
   76000    1.2509033    -3.472904    65.242765  0.071538119  0.084748555            2 
   77000    1.2630172   -3.4487048    66.407402  0.071869482  0.084724561            3 
   78000     1.235266   -3.4695119     66.85664  0.071428034  0.084706487            1 
   79000    1.2433388   -3.4682633    67.973648   0.07170216  0.084675697            2 
   80000    1.2633413   -3.4768341    68.931014  0.071803139  0.084650268            3 
   81000    1.2469056   -3.5137092    70.445667  0.072474965  0.084652031            3 
   82000    1.2618189   -3.4785141    71.553547  0.072717019  0.084664119            1 
   83000    1.2597148   -3.4609696    72.840158  0.073132688  0.084692163            1 
   84000    1.2400369   -3.4805197     73.86927  0.073283006  0.084727903            1 
   85000    1.2185883   -3.4903412    74.932256  0.073462995   0.08477241            1 
   86000    1.2318573   -3.4758395    76.077106  0.073718125  0.084813388            2 
   87000     1.235428   -3.4856622     77.56063  0.074291791   0.08488738            1 
   88000    1.2456616   -3.4885272    78.445425   0.07428544  0.084947289            1 
   89000    1.2255081   -3.4671278    79.578468  0.074511673  0.084991522            2 
   90000    1.2498323   -3.5075759    79.704271  0.073800251  0.085024773            1 
   91000    1.2232863   -3.4951682    80.615836  0.073824025  0.085037113            1 
   92000    1.2302124   -3.4839212    81.511771  0.073833125  0.085029308            1 
   93000    1.2437703   -3.5017247    82.428127  0.073860329  0.085015912            2 
   94000    1.2517175   -3.4839286    83.329093  0.073873309   0.08499599            3 
   95000    1.2158843   -3.4744046    84.753829  0.074345464   0.08497205            2 
   96000    1.2182322   -3.4801909    86.017158  0.074667671  0.084965241       -1e+20 
   97000    1.2526126   -3.4854166    86.479895  0.074295442  0.084962876            2 
   98000    1.2470979    -3.463706    87.916331  0.074758785  0.084948742            3 
   99000    1.2147197   -3.4843586    88.668172  0.074636508  0.084957864            2 
  100000    1.2338963   -3.4721951    90.250419  0.075208682  0.084960031            1 
  101000    1.2231527   -3.4461774    91.310417  0.075338628  0.084976019            1 
  102000     1.187677   -3.5076837    92.098799  0.075244117  0.084999574            2 
  103000    1.2335207   -3.5121456    93.152273  0.075365916  0.085021391            2 
  104000    1.2323808   -3.4615565     94.69653  0.075878629  0.085053994            3 
  105000    1.2245901   -3.4779325    95.988987  0.076181735  0.085081238            1 
  106000    1.2462447   -3.4566016    97.081131  0.076321644  0.085112271            1 
  107000    1.2606841    -3.496677    97.722654  0.076107986  0.085139983            2 
  108000    1.2364959   -3.4917993    98.349532  0.075886984  0.085168128            2 
  109000     1.232444   -3.4997506    98.919402  0.075626454   0.08517174            1 
  110000    1.2341349   -3.5052189    100.55048  0.076174606  0.085184335            2 
  111000    1.2561773   -3.4851611    101.60679   0.07628137  0.085203242            1 
  112000    1.2583069   -3.4989228    102.94405  0.076595272  0.085235135            2 
  113000    1.2277442   -3.4888992    104.12159  0.076785836  0.085250456            1 
  114000    1.2078104   -3.4558516    104.99133  0.076748046  0.085267508            2 
  115000    1.2263976   -3.4807365    105.91645  0.076751048  0.085277383            2 
  116000    1.2251487   -3.5065892     106.8716  0.076775572  0.085282064            3 
  117000    1.2507771   -3.4800077    108.11199  0.077002841  0.085302183            3 
  118000    1.2273531   -3.4698455    109.80043  0.077542676  0.085337142            1 
  119000    1.2337645   -3.4951491    109.84439  0.076921843  0.085363737            1 
  120000    1.2274681   -3.4858423    110.98985  0.077076286  0.085387312            1 
  121000    1.2302855   -3.4804006    111.81293  0.077006153  0.085405713            1 
  122000     1.219331   -3.5276456    112.76898  0.077027993  0.085427884            1 
  123000    1.2234277    -3.523278    115.21255  0.078057284  0.085461845            6 
  124000     1.222923   -3.4691232    116.58205  0.078348155  0.085517329            2 
  125000     1.228933   -3.4751266     117.7725  0.078515002  0.085572509            2 
  126000    1.2382502   -3.4577196    118.71109  0.078512625  0.085642925            2 
  127000    1.2312143   -3.4715835    119.71739  0.078554715  0.085707644            2 
  128000    1.2365856    -3.520522     120.5858   0.07850638  0.085765425            3 
  129000    1.2306004     -3.48379    121.88446  0.078736729  0.085824551            2 
  130000     1.212349   -3.4793042    123.10968  0.078916459  0.085885853            2 
  131000    1.2271175   -3.5206001    123.31639  0.078445541  0.085935689            3 
  132000    1.2302994   -3.4512807    124.70099  0.078725372   0.08596867            3 
  133000    1.2204657   -3.4786536    125.47603  0.078619068  0.086005115            1 
  134000    1.2207035   -3.5010468    126.64514  0.078759417  0.086039734            2 
  135000    1.2680196   -3.4976809    127.31589  0.078590058  0.086069791            1 
  136000    1.2256909   -3.4940502    127.73955  0.078271781  0.086088021            2 
  137000    1.2066227   -3.5063523    128.77406  0.078329718  0.086099122            1 
  138000    1.2537067   -3.4775918    130.63601  0.078886477  0.086107324            3 
  139000     1.217787   -3.4971886    130.92252  0.078490719   0.08612057            2 
  140000    1.2217942   -3.5088773     131.3675  0.078194941  0.086120511            4 
  141000    1.2235393   -3.4842963    133.10628  0.078668013  0.086118846            2 
  142000    1.2283468   -3.4825218    134.06903   0.07867901   0.08612107            2 
  143000    1.2366304   -3.4803455    133.85844  0.078006082  0.086120485            2 
  144000    1.1993718   -3.4644322    135.29954  0.078298344  0.086103268            2 
  145000    1.2328804   -3.4701844     135.8443  0.078071436  0.086073934            2 
  146000    1.2422168   -3.4806746    137.02155  0.078208646  0.086049381            1 
  147000    1.2520716   -3.4864916    138.31332  0.078408909  0.086027212            3 
  148000    1.2159242    -3.497559    138.95039  0.078237831  0.086007713            5 
  149000     1.248097   -3.5170203    140.72003  0.078702476  0.085989668            1 
  150000    1.2411795   -3.5306078    142.01636  0.078897977  0.085983248            3 
  151000    1.2150473   -3.4956799    143.29044   0.07907861  0.085978737            2 
  152000    1.1881969   -3.5174283    143.79221  0.078833449  0.085969589            2 
  153000    1.2227879   -3.4826891    145.09114  0.079025677   0.08596337            1 
  154000    1.2275658   -3.4945138    144.76837  0.078337861  0.085953465            6 
  155000    1.2522215   -3.4772444    147.05988  0.079064451   0.08593529            1 
  156000    1.2245391   -3.4856308    147.96611  0.079041725  0.085920325            1 
  157000    1.2380267   -3.5077022    148.54506  0.078845576  0.085910621            2 
  158000    1.2029948   -3.4817426    150.71538  0.079491236   0.08590482            1 
  159000    1.2258629   -3.5006747    151.56576  0.079436982  0.085912841            2 
  160000    1.2099573   -3.4779145    151.65561  0.078987294  0.085911223            2 
  161000    1.2126604   -3.4935205    152.63077  0.079001434  0.085905913            1 
  162000    1.2424623   -3.4568149    154.08169  0.079260128  0.085891524            2 
  163000    1.2119592   -3.4593568    155.46342  0.079480274  0.085884074            2 
  164000    1.2178602   -3.4833792      156.057  0.079297254  0.085871371            2 
  165000    1.2077635   -3.4974025    157.09639  0.079341613  0.085854932            2 
  166000    1.2095918   -3.5207054    156.92386  0.078777037  0.085839425            4 
  167000    1.2127098   -3.5031709    158.96616  0.079324429   0.08582353            1 
  168000    1.2499136   -3.4999228    160.00925  0.079369667  0.085811266            1 
  169000    1.2305016   -3.4820145     161.5424  0.079656015  0.085802396            2 
  170000    1.2547294   -3.4724282    162.00624  0.079414823  0.085796053            2 
  171000    1.2332058   -3.4976533    163.04518  0.079456714  0.085781353            1 
  172000    1.2269678    -3.476471     163.9154  0.079416377  0.085767256            2 
  173000    1.2443783   -3.5184998    165.31002  0.079629104  0.085758959            2 
  174000    1.2310605   -3.4839817    166.96326  0.079963245  0.085755017            4 
  175000    1.2453884   -3.4842904    167.26748   0.07965118  0.085756431            2 
  176000    1.2249188   -3.4841552    168.14609  0.079614627  0.085748729            2 
  177000    1.2013803    -3.506992    169.67127  0.079882894  0.085749215            1 
  178000    1.2313803   -3.5161412    170.01931  0.079597056  0.085748079            3 
  179000     1.213964   -3.5027682    171.11095  0.079660592  0.085739274            2 
  180000    1.2293298   -3.4772653    172.43099  0.079829163  0.085733564            2 
  181000    1.2189341   -3.4616318    173.81027  0.080023142  0.085726555            3 
  182000    1.2319714   -3.4745541    175.19656  0.080218204  0.085727216            1 
  183000    1.2449317   -3.4716119     175.3349  0.079842851  0.085723158            5 
  184000    1.2202905   -3.5169802     175.8455  0.079640173  0.085712021            1 
  185000    1.2234585   -3.4765228    177.89246  0.080131736  0.085703833            3 
  186000    1.2421662   -3.5048214    178.95803  0.080178327  0.085698647            2 
  187000    1.2397497   -3.4750306     180.5124  0.080442248  0.085698002            1 
  188000     1.232842   -3.4867249    181.76482  0.080569512  0.085700968            2 
  189000    1.2368726   -3.5064108    182.52098  0.080476624  0.085709161            1 
  190000    1.2299063   -3.4927832    182.41005  0.080004409  0.085717658            3 
  191000    1.1842739   -3.4930838    183.45891  0.080043155   0.08571527            2 
  192000    1.2231849   -3.4856172    184.31618   0.07999834  0.085708656            2 
  193000    1.2325662   -3.4895905    185.36107  0.080035004  0.085694625            2 
  194000    1.2449697   -3.5244601    185.43306  0.079653376  0.085672631            1 
  195000    1.2268455   -3.5223084    186.84147   0.07984678  0.085648089            3 
  196000    1.2214068   -3.4986445    186.95653  0.079488319  0.085619957            3 
  197000    1.2228423   -3.5012758    188.90557  0.079909294  0.085593101            2 
  198000      1.19779   -3.5039103    188.28107  0.079242874  0.085565678            2 
  199000    1.2218709   -3.4925637    190.63658  0.079831064  0.085544408            1 
  200000    1.2198612   -3.4897515    192.46101  0.080192085  0.085531842            1 
  201000    1.2211096   -3.5323325    192.94894  0.079995415   0.08552534            4 
  202000     1.231474   -3.5140216    193.80657  0.079953206  0.085513872            2 
  203000    1.1749412   -3.5058555    195.43523  0.080227925  0.085500775            5 
  204000    1.2165397   -3.5162274    195.21628  0.079745212   0.08548431            1 
  205000    1.2544394   -3.5046284    196.54628  0.079896862  0.085469349            2 
  206000    1.2457919   -3.5055542    198.46066  0.080283438  0.085455605            1 
  207000    1.2148603    -3.484107    200.24629  0.080614449  0.085444182            1 
  208000    1.2148971   -3.5173946    200.03057  0.080140453   0.08543314            3 
  209000    1.1847343   -3.5133136     200.3678  0.079891467  0.085416205            5 
  210000    1.2169514    -3.499499    201.51263  0.079965328  0.085396561            2 
  211000    1.2256397   -3.5018948    202.13912  0.079833777  0.085374668            1 
  212000    1.2135022   -3.4435491    203.26508  0.079899795   0.08535476            1 
  213000    1.2200786   -3.4802353    205.37658  0.080350775  0.085337718            1 
  214000    1.2292335   -3.4918441    206.08576  0.080251465  0.085323778            1 
  215000    1.2191199    -3.495365    207.66575  0.080490602   0.08531251            1 
  216000    1.1875798   -3.4744233    208.19374  0.080321657  0.085296922            5 
  217000    1.2258627   -3.5650242    208.23381  0.079966901  0.085283614            2 
  218000    1.2347821   -3.4814943    209.55072  0.080103485  0.085268641            2 
  219000     1.251999   -3.4993515    210.87836  0.080242908  0.085255168            2 
  220000    1.2168836   -3.4958561    212.37572  0.080445349  0.085243757            1 
  221000     1.206349    -3.498561    213.49641  0.080503926  0.085236338            6 
  222000    1.2162323   -3.5074846    214.22345  0.080414208  0.085225259            1 
  223000    1.2024546   -3.5088274    214.73659  0.080245364  0.085216041            1 
  224000    1.2061644   -3.4742971    216.09603  0.080392869  0.085200761            1 
  225000     1.205712   -3.5079765    216.71964  0.080266534  0.085183006            1 
  226000    1.1988528   -3.5032348    217.06772  0.080039718  0.085160456            3 
  227000    1.2281851   -3.5258826    217.62768  0.079892688  0.085135305            2 
  228000    1.1950561   -3.4944463    219.21877  0.080123818  0.085112644            1 
  229000    1.2315078   -3.4990237    220.41003  0.080207436  0.085097022            2 
  230000    1.2018248   -3.5173517    221.11689  0.080114814  0.085082634            2 
  231000    1.2018842   -3.5057927    223.37125  0.080581261  0.085066163            3 
  232000    1.2075351   -3.5219743      223.781  0.080381107  0.085053795            3 
  233000     1.215917    -3.500746    223.60946   0.07997477  0.085038337            2 
  234000    1.1920814   -3.4986211    225.51498  0.080311602    0.0850251            3 
  235000    1.2102925   -3.5318676    225.84801  0.080087948  0.085008119            2 
  236000    1.2525812    -3.524332    225.64747   0.07967778  0.084984307            1 
  237000    1.1765424   -3.5079965    227.75298   0.08008192  0.084962259            2 
  238000    1.2029478   -3.5062217    229.70612  0.080429314  0.084941999            2 
  239000    1.2209837   -3.4915691    230.46683  0.080358029    0.0849273            1 
  240000    1.2306865   -3.5268111    230.52122   0.08004209  0.084911434            2 
  241000    1.2161165   -3.5251523    232.27022  0.080314738  0.084894014            3 
  242000    1.2238698   -3.5047969    232.87678  0.080191729  0.084876107            1 
  243000    1.2190645   -3.4912366    234.15262  0.080299254  0.084860833            1 
  244000    1.2084915   -3.4964587    237.04228  0.080957061  0.084841939            2 
  245000    1.1929449   -3.4791834    236.03589  0.080284318  0.084827332            2 
  246000      1.20438   -3.5213443    236.57745  0.080141412  0.084812979            2 
  247000     1.221168   -3.5101318    237.98019  0.080290212   0.08479683            2 
  248000    1.2375416   -3.4648913    238.65521  0.080193281  0.084780836            2 
  249000     1.245135   -3.5472109     240.2508  0.080405221  0.084765887            5 
  250000    1.2137181   -3.5069019    241.06139  0.080353797  0.084748365            1 
  251000    1.2353128   -3.4910991    242.62307  0.080552148  0.084736339            1 
  252000    1.2132183   -3.5205965    242.08483  0.080054507  0.084722605            2 
  253000    1.2017048    -3.510175    242.96498  0.080027991  0.084701802            2 
  254000    1.2207238   -3.5263071    243.99974  0.080052408  0.084678666            1 
  255000     1.234844   -3.4927103    244.28493  0.079831677  0.084650151            4 
  256000    1.1918446   -3.5270457    245.92077  0.080052335  0.084624663            2 
  257000    1.2029584   -3.5552515    246.91213  0.080062298  0.084601916            2 
  258000    1.1961086    -3.524686    246.97102     0.079771  0.084574732            3 
  259000    1.2175717   -3.5498609    247.63756  0.079677465  0.084546505            1 
  260000    1.1897831   -3.5026685    250.30038   0.08022448  0.084525797            2 
  261000    1.1971839   -3.5142735    250.93957  0.080121191  0.084503662            3 
  262000     1.229465   -3.5234221    252.60413  0.080344825  0.084478186            2 
  263000     1.192585   -3.5075207    251.88751  0.079812266  0.084453936            5 
  264000    1.2170459   -3.5445327     253.2078  0.079926704  0.084430566            3 
  265000    1.2067543   -3.4673104    254.08331   0.07990041   0.08440426            2 
  266000    1.2196417   -3.5361461    254.45911  0.079717766  0.084378764            3 
  267000     1.204402    -3.520237    256.85902  0.080168234  0.084352617            2 
  268000    1.2091517   -3.5053095    257.42745   0.08004585  0.084326723            3 
  269000    1.2131635   -3.5263024     257.8896  0.079891449  0.084302786            1 
  270000    1.1970175    -3.485236    259.71345  0.080158473  0.084278157            4 
  271000    1.2258774   -3.5359254    260.99409  0.080256484  0.084257269            4 
  272000    1.2251267   -3.4901401    262.89205  0.080542907  0.084238113            2 
  273000    1.2129087   -3.5264806    263.11797   0.08031684  0.084220532            1 
  274000    1.1853255   -3.5059831    266.07504  0.080923067  0.084207544            3 
  275000    1.2437462   -3.5166023    265.43693  0.080435433  0.084200728            3 
  276000    1.2456716   -3.5249746    267.12603  0.080653995  0.084193691            2 
  277000    1.1948695   -3.5282865    268.87032   0.08088758  0.084186349            1 
  278000    1.1860514    -3.480394     269.9764  0.080928176  0.084177245            1 
  279000    1.2123311   -3.4968014     270.6982  0.080853702  0.084170492            2 
  280000     1.202703   -3.5041477    270.08893   0.08038361  0.084160983            2 
  281000    1.2066977   -3.4694378    272.19296  0.080721518  0.084147804            3 
  282000    1.1962219   -3.5170144    272.16151  0.080425977  0.084135588            2 
  283000    1.1975869   -3.5491482    272.32996  0.080191391  0.084120345            1 
  284000    1.1997516   -3.4711583    274.85549  0.080650086  0.084106475            2 
  285000    1.2284695   -3.4876883    277.29219  0.081079587  0.084096862            2 
  286000    1.1753972   -3.5392803     275.6539  0.080318735  0.084087056            2 
  287000    1.2134662   -3.5027108    277.57222  0.080595883  0.084076998            1 
  288000    1.1994113   -3.4861874    279.13265  0.080767548  0.084068025            1 
  289000    1.2174652   -3.5019892     279.2849  0.080531978  0.084060663            2 
  290000    1.2105843   -3.5159448    281.75509  0.080964107   0.08405424            2 
  291000    1.2052387   -3.5604459    281.52334  0.080619513  0.084046429            1 
  292000    1.2170761   -3.5479885    282.36205  0.080582776  0.084042433            1 
  293000    1.1900821   -3.5399348    283.37472  0.080595767  0.084036244            4 
  294000    1.2148385   -3.5240312     286.1947  0.081120948  0.084032408            1 
  295000    1.2086943   -3.5485814    286.92933  0.081053482  0.084026714            1 
  296000    1.2096806    -3.521572    287.01798  0.080804612  0.084026292            3 
  297000    1.1968561     -3.53546    288.29412  0.080890607  0.084022825            3 
  298000    1.1754219   -3.5058877    289.81757  0.081045182  0.084025118            2 
  299000    1.1744149   -3.5406662    292.34866   0.08147956  0.084031299            2 
  300000    1.1952879   -3.5050427    293.24922  0.081458117  0.084035071            1 
  301000    1.1811261   -3.5219994    293.50287  0.081257715  0.084038818            2 
  302000    1.2522428    -3.489901    294.74379  0.081331069   0.08404407            5 
  303000    1.1789005   -3.5211097    296.77709  0.081621862  0.084050653            2 
  304000    1.1998667   -3.4697608    299.38319  0.082067761  0.084060512            1 
  305000    1.1962119   -3.5234792    299.36469  0.081793632   0.08407406            1 
  306000    1.1782848   -3.5012113    302.02855  0.082251784  0.084088829            1 
  307000    1.2282399    -3.561723    300.77758  0.081644295  0.084104225            1 
  308000    1.2016993   -3.5147749     303.1695   0.08202638  0.084118691            6 
  309000    1.1983919   -3.4967898    305.15927  0.082297536  0.084133502            2 
  310000    1.1878473   -3.5497731    305.76324   0.08219442  0.084146261            3 
  311000     1.204466   -3.5138355     304.6914  0.081642927  0.084158715            1 
  312000    1.1993312   -3.4996623    307.77958  0.082206083  0.084174173            2 
  313000    1.1988989   -3.5289098    307.74994  0.081935552  0.084190279            2 
  314000    1.2388797   -3.5224917    307.70821  0.081663538  0.084204452            2 
  315000    1.1854711   -3.5008726    309.69596  0.081930149  0.084217868            2 
  316000    1.2018938   -3.5297229    311.25377  0.082081689  0.084231177            3 
  317000    1.1897334   -3.4979556    311.44967  0.081874257  0.084243486            2 
  318000    1.1930146   -3.5286145    312.38212  0.081861143  0.084252649            1 
  319000    1.2165879   -3.5206619    313.03489   0.08177505  0.084261674            2 
  320000    1.1850078   -3.5340846    313.98101  0.081765889  0.084270839            3 
  321000    1.2196624   -3.5231601    316.27864  0.082107642  0.084277205            4 
  322000    1.1935228   -3.5443034    317.49312  0.082166956  0.084287285            4 
  323000    1.1853078   -3.5360563    318.20746  0.082096867  0.084298786            1 
  324000    1.2160545    -3.547139    316.60018  0.081430089  0.084307446            3 
  325000    1.1962799   -3.4975083    319.34918  0.081884405  0.084314042            1 
  326000    1.1945471   -3.5382304    321.37057   0.08214994  0.084322413            3 
  327000     1.217506   -3.5116159    322.36748  0.082152772  0.084333694            2 
  328000    1.1867045   -3.5304862    323.61636  0.082219604  0.084348055            1 
  329000    1.2065962   -3.5328615    325.18986  0.082368253  0.084361189            2 
  330000     1.194718   -3.4994104     326.8735  0.082543814  0.084376971            3 
  331000    1.2114458   -3.5452788    326.33103  0.082157863  0.084389051            2 
  332000    1.1763118   -3.5580067    326.36017  0.081917714  0.084401111            2 
  333000     1.173728   -3.5399235    327.07335  0.081850188  0.084409925            2 
  334000    1.2143674    -3.532004    329.40556  0.082187015  0.084418444            2 
  335000    1.2115892   -3.5265131     331.3659  0.082429329  0.084428832            3 
  336000    1.1839127   -3.5406879    333.70115  0.082763181  0.084437102            2 
  337000    1.2050403   -3.5128752    332.22189  0.082151802  0.084446677            2 
  338000    1.1940236   -3.5135041    334.38088  0.082441045  0.084457028            2 
  339000    1.2186077   -3.5241078    334.07644  0.082123017   0.08446886            1 
  340000    1.2230646   -3.5061167    336.22385  0.082407805  0.084480387            2 
  341000     1.181142   -3.5353808    337.67284  0.082520245  0.084491183            3 
  342000    1.1936313   -3.5339135    337.28654  0.082184829  0.084502819            2 
  343000    1.1913184   -3.5181254    337.43584  0.081981497  0.084512988            1 
  344000    1.1985618   -3.5461519    338.74653  0.082060689  0.084522638            1 
  345000    1.2438505   -3.5312762    341.20981  0.082417828  0.084533801            2 
  346000    1.1633857   -3.5158569    342.95486  0.082599918  0.084545757            2 
  347000    1.1871009   -3.5405645    343.59882  0.082516528  0.084557269            2 
  348000    1.1955633   -3.5316448    345.19733  0.082662197  0.084569051            1 
  349000    1.1850865   -3.5116126     346.7905  0.082805755   0.08458137            2 
  350000    1.2045343   -3.5183873      346.434  0.082484285  0.084590189            1 
  351000    1.1706551    -3.538149    347.03072  0.082390958  0.084598485            4 
  352000    1.1870129   -3.5271605    349.30727   0.08269585  0.084604383            1 
  353000    1.2050643   -3.5553558    348.49224  0.082269179  0.084611634            5 
  354000    1.1877371   -3.5313792    349.06272  0.082171073  0.084616998            3 
  355000    1.2149831   -3.5361604    349.72566  0.082095225   0.08462131            6 
  356000    1.2041935   -3.5251435    350.37641   0.08201695  0.084623781            3 
  357000    1.2026466   -3.5120147    351.73744  0.082104912   0.08462697            1 
  358000    1.2114064   -3.5530834    352.25101  0.081995115  0.084629053            2 
  359000    1.1853668   -3.5517169    352.70111  0.081871195  0.084631131            1 
  360000    1.1875608   -3.5455759    353.13554  0.081744337  0.084630255            2 
  361000    1.2040026   -3.5640352    354.65151  0.081867847  0.084628248            1 
  362000    1.1941476   -3.5217347    354.73283  0.081660412  0.084623744            2 
  363000    1.2026336   -3.5109206     357.1403  0.081988132  0.084620915            3 
  364000    1.2141352   -3.5246049    357.38698  0.081819363  0.084619648            3 
  365000    1.1750759   -3.5126647    358.58718  0.081869218  0.084619031            2 
  366000    1.1981459   -3.5584955    358.37464  0.081597141  0.084617284            2 
  367000    1.2207525   -3.5591684    358.64576  0.081436367  0.084612754            2 
  368000    1.2321349    -3.531666     362.0644   0.08198922  0.084608371            1 
  369000    1.1987512   -3.5379644    361.72394  0.081690139  0.084602032            7 
  370000    1.1766835   -3.5256326    362.75634  0.081701878  0.084597228            5 
  371000    1.2060325   -3.5284669    364.23644  0.081814115  0.084591059            2 
  372000    1.1620536   -3.5080767    365.30091  0.081832642  0.084586136            2 
  373000    1.1832175   -3.5108313    365.38472  0.081631975  0.084580717            1 
  374000    1.1659341    -3.534868    367.57421  0.081901562  0.084575151            1 
  375000     1.188935   -3.5393996    367.23706  0.081608235  0.084570862            4 
  376000    1.1748981   -3.5784032    368.78367   0.08173397  0.084564605            2 
  377000    1.2040299   -3.5110746    370.93488  0.081992679   0.08456176            2 
  378000    1.1708011   -3.5423943    371.22269  0.081839218  0.084560245            1 
  379000    1.1912324   -3.5220753    372.90779  0.081993796  0.084558667            3 
  380000    1.1928899   -3.5602145    373.11595  0.081823673  0.084557084            3 
  381000    1.1782569   -3.5357033    373.08917  0.081603055  0.084555594            1 
  382000    1.1773717   -3.5308497     375.5218  0.081920114  0.084553358            1 
  383000    1.2007734    -3.556518    377.01525  0.082031169  0.084548939            2 
  384000    1.1931139   -3.5397693    377.17182  0.081851522  0.084546284            2 
  385000     1.179212   -3.5226553    378.21793  0.081865352  0.084545497            1 
  386000    1.1694612   -3.5319684    382.18782  0.082510323  0.084545061            2 
  387000    1.1939022   -3.5428729    382.20208  0.082300189  0.084546406            1 
  388000    1.1902952   -3.5519668    380.98804  0.081827327  0.084544073            2 
  389000    1.1985223    -3.543146    382.87566   0.08202135  0.084539612            2 
  390000    1.1626376   -3.5517187    381.49238  0.081515465  0.084534646            1 
  391000    1.1896442    -3.530973     384.4043    0.0819276  0.084529885            2 
  392000    1.1861927   -3.5360779    386.99643   0.08226965  0.084525088            2 
  393000    1.1876755   -3.5019729    386.79446  0.082017485  0.084520601            2 
  394000    1.1978813   -3.5512662    385.58987  0.081554541  0.084515571            1 
  395000    1.2267626   -3.5272517    387.46994  0.081744713  0.084511402            1 
  396000    1.1854127   -3.5407087    388.64054  0.081784626  0.084505444            2 
  397000    1.1810798   -3.5134551    390.36342  0.081940264  0.084498412            1 
  398000    1.2096876   -3.5497778    390.44663  0.081751808  0.084490689            3 
  399000    1.1913122   -3.5342366    391.31804  0.081728914  0.084484569            2 
  400000    1.1983187   -3.5389399    392.13875  0.081695573  0.084478535            2 
  401000    1.2115945   -3.5259371    393.31414  0.081736105  0.084470987            2 
  402000    1.2123559   -3.5319286    393.18124  0.081505233   0.08446176            2 
  403000    1.1856591   -3.5416827    395.19486  0.081719368  0.084453822            3 
  404000    1.2057578   -3.5170366    396.01373     0.081686  0.084445035            2 
  405000    1.2002839   -3.5185831    395.53273  0.081385335  0.084433412            4 
  406000    1.2255181   -3.5757391    394.84639  0.081044005  0.084422136            2 
  407000    1.1989129   -3.5243627    398.79785  0.081653941   0.08440908            2 
  408000    1.2082295   -3.5267425    399.59014  0.081615633  0.084398936            2 
  409000    1.2096578   -3.5666854    398.31172  0.081155608  0.084386063            1 
  410000    1.1867314   -3.5458824     399.4113  0.081181159  0.084372585            1 
  411000    1.1581203   -3.5484264    402.26206   0.08156165   0.08436229            1 
  412000    1.1864964   -3.5436834     402.0638  0.081323584  0.084350821            1 
  413000    1.2027691   -3.5514789     404.4777  0.081613741  0.084339055            3 
  414000    1.2014889   -3.5556556    403.85605  0.081291475  0.084328917            3 
  415000    1.1929653   -3.5561636    403.45018  0.081014093  0.084317935            3 
  416000    1.1823526   -3.5467353    406.06239  0.081342626  0.084302099            5 
  417000    1.1912714   -3.5340907    407.15414  0.081365736  0.084286826            3 
  418000    1.1734997    -3.525975    409.00951  0.081540971  0.084271616            2 
  419000    1.2082955   -3.5622292    408.95594  0.081335707  0.084257144            4 
  420000    1.2147857   -3.5438054    410.26257  0.081401303  0.084244138            3 
  421000    1.2051369   -3.5715068    408.20097  0.080799875  0.084228135            2 
  422000    1.1766489   -3.5393601    410.49908   0.08106222  0.084212313            1 
  423000    1.1688786   -3.5233112    409.92964    0.0807584  0.084196047            2 
  424000    1.1854086   -3.5461555     411.8143  0.080938345  0.084180349            1 
  425000    1.1813869   -3.5645896    412.52278   0.08088682  0.084163554            3 
  426000    1.1876388   -3.5285473    413.78064  0.080943004   0.08414655            3 
  427000    1.1718121   -3.5517677     415.0319  0.080997638  0.084130011            2 
  428000    1.1817732    -3.543503    416.32116  0.081059416  0.084114645            2 
  429000    1.1757987   -3.5517254     416.5044  0.080906061   0.08409603            3 
  430000    1.1891714   -3.5124222    416.39323  0.080696363  0.084078784            1 
  431000    1.1788496   -3.5502454    415.60931  0.080357562  0.084058043            2 
  432000    1.1643331   -3.5479829    418.54144  0.080737161  0.084037136            2 
  433000    1.2000561   -3.5636338    419.25686  0.080688387  0.084018735            3 
  434000    1.2062341   -3.5263156    421.42497  0.080918773  0.084000186            3 
  435000    1.1495494   -3.5317146    421.08866  0.080668326  0.083981857            1 
  436000    1.1743411   -3.5373324    420.60609  0.080391073  0.083961351            1 
  437000    1.1796274   -3.5575727    420.91143  0.080265338  0.083941525            2 
  438000    1.1761978   -3.5692252    423.39567  0.080554732  0.083921116            1 
  439000    1.1556627   -3.5575076    423.44299  0.080380218  0.083898427            1 
  440000    1.2004197   -3.5387125    426.35376  0.080748817  0.083877428            1 
  441000    1.1501831   -3.5774831    425.07225  0.080323555   0.08385639            1 
  442000    1.1942003   -3.5722022    427.80543  0.080657133  0.083835048            1 
  443000    1.1778067   -3.5394811    425.93181  0.080122612  0.083812974            2 
  444000    1.1840837   -3.5655765    427.09703  0.080160853  0.083792789            1 
  445000    1.1630344   -3.5609797     428.2322  0.080193296  0.083771869            2 
  446000    1.1770097   -3.5818856    431.82543   0.08068487   0.08375146            2 
  447000    1.1569501   -3.5747481    433.14827  0.080750983  0.083732231            2 
  448000     1.184844   -3.5823222    431.23278  0.080214432  0.083710559            2 
  449000    1.2175673    -3.584607    432.66917  0.080302371  0.083690143            5 
  450000    1.1980477   -3.5422473    434.35239  0.080435628  0.083668593            1 
  451000    1.1829699   -3.5503878    435.63196  0.080493711  0.083648036            2 
  452000    1.1896706   -3.5387044    434.70308  0.080144374  0.083627709            1 
  453000    1.1723438    -3.537874     437.1905  0.080425037  0.083605872            1 
  454000     1.197021   -3.5175863    438.97537  0.080575509   0.08358702            2 
  455000    1.1577795    -3.584795    439.73537  0.080537614  0.083565538            3 
  456000    1.1682256   -3.5509665    440.59347  0.080517813  0.083545781            1 
  457000    1.1750429    -3.541736    442.48583  0.080686694  0.083525432            2 
  458000    1.1760678   -3.5521551    443.19777   0.08064006  0.083506392            3 
  459000    1.1849249   -3.5802496    442.23341   0.08028929  0.083488451            1 
  460000    1.1686526   -3.5336672    445.18644  0.080649718  0.083468397            2 
  461000     1.186881   -3.5454002    444.05478  0.080270207  0.083450504            3 
  462000    1.1732129   -3.5493858    445.02958  0.080272291  0.083432173            2 
  463000    1.1690879   -3.5409098    447.28163  0.080504254  0.083412859            1 
  464000    1.1788041   -3.5501835    447.60818    0.0803894  0.083396804            2 
  465000    1.1743172   -3.6017456    448.83582  0.080436526  0.083379661            4 
  466000    1.1643692   -3.5198731    451.67174  0.080771054  0.083362905            3 
  467000    1.1997547   -3.5512799    452.73773  0.080788317  0.083346244            5 
  468000    1.1629146   -3.5389677    451.15707  0.080334236  0.083330352            1 
  469000    1.1784799   -3.5546834     452.4488  0.080392465  0.083313384            2 
  470000     1.181875   -3.5463532    453.02624  0.080323801   0.08329525            1 
  471000     1.176334   -3.5560501    454.20692  0.080362158  0.083277812            1 
  472000     1.166025   -3.5677142    454.36945  0.080220596  0.083259555            1 
  473000    1.1657555   -3.5643009    455.32198  0.080218813  0.083241368            2 
  474000    1.1755257   -3.5749093    457.49982  0.080432457  0.083226518            1 
  475000     1.185426   -3.5470022    459.07474  0.080539428  0.083210025            1 
  476000    1.1545716   -3.5825149    458.59903  0.080286945  0.083194298            1 
  477000    1.1613238   -3.5351769    462.70356  0.080835702  0.083179566            2 
  478000    1.1804119   -3.5857804    460.12934  0.080217807  0.083163307            2 
  479000    1.1688009   -3.5666836    460.00365  0.080028471  0.083147228            2 
  480000    1.1736667    -3.576067     461.8655  0.080184983   0.08313044            3 
  481000    1.1849101   -3.5443038     465.2288  0.080600971  0.083113365            2 
  482000    1.1507286   -3.5487592    464.22242  0.080259754  0.083096413            2 
  483000    1.1884025   -3.5445191    466.67948  0.080517509  0.083080428            3 
  484000    1.1831359   -3.5615807     467.8373  0.080550499   0.08306424            2 
  485000    1.1717454   -3.5452593    469.74535  0.080712259   0.08304775            2 
  486000     1.177531   -3.5360153    469.48941    0.0805023  0.083031493            1 
  487000    1.1895752   -3.5609059    471.14573  0.080620418  0.083016578            1 
  488000    1.1828834   -3.5753741    469.77417  0.080220998  0.082999699            1 
  489000    1.1690565   -3.5543446    472.47071  0.080516481  0.082984662            3 
  490000    1.1757854   -3.5933829    471.84642  0.080245989  0.082968425            4 
  491000    1.1902926   -3.5501569    472.51455  0.080195952  0.082951398            2 
  492000    1.1711778   -3.5465925     473.2847  0.080163398  0.082934188            3 
  493000    1.1704944   -3.5724023    475.11035   0.08030939  0.082915922            7 
  494000    1.1588666   -3.5857412     476.2401  0.080337399  0.082901615            1 
  495000     1.161392    -3.584433    476.29556  0.080184437  0.082886745            2 
  496000    1.1841489   -3.5396663    477.24134  0.080181677  0.082871706            2 
  497000    1.1773062   -3.5609703    479.39887  0.080382105  0.082856228            3 
  498000     1.190271    -3.574343    480.12938  0.080342935  0.082842323            1 
  499000    1.1537493   -3.5819033    480.12435  0.080181088  0.082828078            1 
  500000    1.1602232   -3.5573976    482.56891  0.080428151  0.082813573            2 
  501000     1.128016   -3.5420813    481.81634  0.080142438  0.082798895            6 
  502000    1.1795736   -3.5387149    484.46045  0.080421721  0.082785691            3 
  503000    1.1648631   -3.5555237    484.40878  0.080253277  0.082771494            1 
  504000    1.1541261   -3.5663236    487.70472  0.080639008  0.082754882            1 
  505000    1.1578763   -3.5668194    485.60493  0.080132827  0.082738792            3 
  506000    1.1647591   -3.5596822    486.65958  0.080148153  0.082722149            2 
  507000    1.1709427   -3.5767147    486.83187  0.080018388  0.082706062            2 
  508000    1.1850069   -3.5716073    486.44578  0.079797536  0.082688727            4 
  509000    1.1722602   -3.5750738     489.1823  0.080088786   0.08267164            2 
  510000    1.1746607   -3.5727365     488.8439  0.079876454  0.082654074            1 
  511000    1.1728002   -3.5489396    492.14356  0.080258245   0.08263852            2 
  512000    1.1663417   -3.5730326    493.57505  0.080334481  0.082624284            2 
  513000     1.186061   -3.5601355    493.99781  0.080246558  0.082608811            2 
  514000    1.1705397    -3.554705    496.08422  0.080428699  0.082595711            2 
  515000    1.1862617   -3.5593237    495.66631  0.080204905  0.082581439            2 
  516000    1.1715026   -3.5618894      495.531  0.080027616   0.08256658            2 
  517000    1.2030639   -3.5810157     497.1866  0.080139683  0.082550082            2 
  518000    1.1437609   -3.5723271    495.55527  0.079722534  0.082533188            1 
  519000     1.172325    -3.580105    497.35862  0.079858481   0.08251591            4 
  520000    1.1625072   -3.5483873    498.53238  0.079893009  0.082500561            4 
  521000    1.1658387   -3.5711759    498.63634  0.079756292  0.082484438            2 
  522000    1.1708906   -3.5495613     501.0664  0.079991443  0.082467547            1 
  523000    1.1954729   -3.5752215    501.61276  0.079925552  0.082450669            2 
  524000    1.1769488    -3.581499    499.61633  0.079455523  0.082433008            2 
  525000    1.1601477   -3.6035025    502.92372  0.079829163  0.082415431            2 
  526000    1.1540377   -3.5306928    504.33034  0.079900244  0.082398903            2 
  527000     1.146257   -3.5761474    504.29776  0.079743479  0.082382801            2 
  528000    1.1320298    -3.552207    508.95131  0.080326912   0.08236706            1 
  529000     1.159543   -3.5477033    506.53109  0.079793808  0.082349138            3 
  530000    1.1585975   -3.5919228    504.97696  0.079398894  0.082331875            3 
  531000     1.179591   -3.5727331    510.39921  0.080100316  0.082316217            2 
  532000    1.1769143   -3.5640611    510.45066  0.079957809  0.082301797            5 
  533000    1.1624438   -3.5600604    514.02505  0.080366643  0.082288961            1 
  534000    1.1658308   -3.5739944    511.50254  0.079822494  0.082274425            3 
  535000    1.1547821    -3.549025    514.09477  0.080077067  0.082258743            2 
  536000    1.1937098   -3.5486964    513.94944  0.079905074  0.082244087            4 
  537000    1.1617125   -3.6144463      513.819  0.079736033  0.082228653            2 
  538000    1.1770251   -3.5597059    515.47359  0.079844112  0.082212704            3 
  539000    1.1727965    -3.567299    514.27993  0.079511431  0.082197651            2 
  540000    1.1393413   -3.5571754    514.60034  0.079413632  0.082180426            3 
  541000     1.195469   -3.5823317    517.13454    0.0796572  0.082163741            4 
  542000    1.1643766   -3.5923666    519.19818  0.079827518  0.082147778            2 
  543000    1.1517212   -3.5912892    518.77962   0.07961627  0.082131799            1 
  544000    1.1734285   -3.5955915    518.94717  0.079495583  0.082115163            3 
  545000    1.1730121   -3.5853045    519.12006  0.079376155  0.082098973            4 
  546000    1.1615512   -3.5347641    522.10368  0.079686154  0.082082139            3 
  547000    1.1594319   -3.5491075    521.76895   0.07948948  0.082065394            2 
  548000    1.1490892   -3.5851225    522.97579  0.079527948  0.082049452            3 
  549000    1.1563949   -3.5480912    523.12903  0.079406349  0.082032797            1 
  550000     1.152161   -3.5894093     524.5194  0.079472637  0.082014801            1 
  551000    1.1573584   -3.5556722    524.43491  0.079315625   0.08199597            5 
  552000     1.143696   -3.5675015    528.19422  0.079739466  0.081978418            1 
  553000    1.1505125   -3.5704448    526.39059  0.079323477  0.081960792            2 
  554000    1.1336835   -3.5524494    528.53778  0.079503276  0.081942258            2 
  555000    1.1808418   -3.5612641    529.62605  0.079523431  0.081924766            2 
  556000    1.1602473   -3.5536156    530.17192  0.079462218  0.081906549            2 
  557000    1.1639757   -3.5732459    530.10555  0.079309628  0.081887779            2 
  558000    1.1441821   -3.5457102    529.41606  0.079064525  0.081868239            2 
  559000    1.1422268   -3.5866955    532.00165  0.079308534  0.081848066            1 
  560000     1.151153   -3.5770108    531.73693  0.079127519  0.081829026            3 
  561000    1.1507777   -3.5509415    536.14045  0.079640589  0.081809661            2 
  562000    1.1553544   -3.5282096     538.3182  0.079821796  0.081791943            4 
  563000    1.1652625   -3.5871017    536.62029  0.079428698  0.081775543            2 
  564000    1.1581294   -3.5990297    538.23201  0.079526007  0.081757721            1 
  565000    1.1861461   -3.5528371    538.21435  0.079382647  0.081741065            4 
  566000    1.1421606   -3.5998728    539.73935  0.079466924  0.081724935            3 
  567000    1.1596788   -3.5725805    539.54525  0.079298244  0.081707545            1 
  568000    1.1826284   -3.5960068    540.77771  0.079339452  0.081692156            1 
  569000    1.1540794   -3.5629104    544.52015  0.079748118  0.081676851            2 
  570000    1.1606809   -3.6109295    541.04911  0.079100746  0.081661276            2 
  571000    1.1611577   -3.5651512    544.57163  0.079476303  0.081646158            1 
  572000     1.160308    -3.599558     545.3044  0.079444113  0.081630666            1 
  573000    1.1783303   -3.5851729    547.18976  0.079579662  0.081616053            3 
  574000    1.1774265   -3.6125155    548.71078  0.079661843  0.081600793            3 
  575000    1.1599349   -3.5810398    549.03537  0.079570344  0.081585621            2 
  576000    1.1600338   -3.5875843    547.74187  0.079245062  0.081569598            3 
  577000    1.1608973   -3.5749293    547.96113  0.079139389  0.081552093            2 
  578000    1.1680384   -3.5899236    550.65879  0.079391406  0.081536031            3 
  579000    1.1639039     -3.60237      549.408  0.079074266  0.081518524            3 
  580000    1.1704744   -3.5766125    553.09526  0.079467709  0.081502012            1 
  581000    1.1550676   -3.5577404    553.31334  0.079362211  0.081484966            2 
  582000     1.154592   -3.5898415    552.69109  0.079136754  0.081468628            2 
  583000    1.1686546   -3.5779999     554.3621  0.079239866  0.081453001            3 
  584000    1.1537779   -3.5741638    556.34273  0.079386806   0.08143781            2 
  585000    1.1666263   -3.5613869    555.07795  0.079070933  0.081422404            2 
  586000    1.1517264   -3.6025477    558.54004  0.079428333  0.081408034            2 
  587000    1.1636896   -3.5612418    559.55309  0.079436838  0.081392317            2 
  588000    1.1639109   -3.5589539    561.33801  0.079554707   0.08137805           10 
  589000    1.1637049   -3.5734481    561.36609  0.079423612   0.08136377            1 
  590000    1.1640415   -3.5882318    561.57499  0.079318502  0.081350144            2 
  591000    1.1560038   -3.5730715    562.59022  0.079327443  0.081335346            2 
  592000    1.1722457    -3.569866    562.99234  0.079250048  0.081321711            2 
  593000     1.163381   -3.5818865    562.54401  0.079053402  0.081307519            2 
  594000    1.1495545   -3.5805191     562.4713  0.078910115   0.08129157            1 
  595000    1.1677209   -3.5850795    562.87433   0.07883394   0.08127536            3 
  596000    1.1401714   -3.5827893    566.35008  0.079187651  0.081260098            1 
  597000    1.1589862   -3.6018036    567.24977  0.079180593  0.081245534            4 
  598000    1.1733944   -3.5780299    566.57091  0.078953582  0.081229447            3 
  599000    1.1455747   -3.6144041    567.97358  0.079016914  0.081212861            2 
  600000    1.1287761   -3.6095635    568.44235  0.078950326  0.081195298            2 
  601000    1.1530331   -3.5764302    569.81667  0.079009522  0.081178913            2 
  602000    1.1606601   -3.6284499    568.51541  0.078698147  0.081162399            1 
  603000    1.1830085   -3.6375342    569.64929  0.078724335  0.081147464            5 
  604000    1.1582569   -3.6179865    570.67858  0.078736007  0.081131093            3 
  605000    1.1489684   -3.5617983    572.56247  0.078865354  0.081114529            1 
  606000    1.1641378   -3.5955212    570.27416  0.078420539  0.081098157            7 
  607000    1.1481299   -3.6396072    574.03709  0.078807948  0.081082289            1 
  608000    1.1383995   -3.5789126    576.38397  0.078999996  0.081066812            2 
  609000    1.1488632   -3.6220377    573.84811  0.078523278  0.081050998            1 
  610000    1.1548097    -3.578866    578.20339  0.078989535  0.081034437            2 
  611000    1.1646389    -3.605267    578.67789  0.078924971   0.08101832            3 
  612000    1.1435199   -3.5783093    579.47945  0.078905154  0.081002475            2 
  613000    1.1648693   -3.5919222    581.36859  0.079033251  0.080986014            5 
  614000    1.1626936   -3.5930032      580.346  0.078765743  0.080969957            2 
  615000    1.1557303   -3.5756648    582.14926  0.078882013  0.080953897            1 
  616000    1.1670339    -3.617942    582.40766  0.078788914  0.080938572            3 
  617000    1.1433091   -3.6010659    585.02835  0.079015174  0.080923392            2 
  618000    1.1657499   -3.5913005    587.23897  0.079185406   0.08091065            2 
  619000    1.1548177    -3.578539    585.16847  0.078778738  0.080897352            1 
  620000    1.1625674   -3.6094557    587.59475   0.07897779  0.080884118            4 
  621000    1.1750876      -3.5727    589.31912  0.079082007  0.080871911            6 
  622000    1.1273851   -3.5967001    592.64354   0.07940026  0.080860355            1 
  623000    1.1350892   -3.6074617    589.98794  0.078917595  0.080847307            3 
  624000    1.1542452    -3.588956    592.24789  0.079092934  0.080834545            2 
  625000    1.1653112   -3.6388195    589.06483  0.078541977  0.080821498            1 
  626000    1.1385591   -3.5771306    594.97561  0.079203356  0.080807733            3 
  627000    1.1501729   -3.5721618    598.34525  0.079524887  0.080795923            5 
  628000    1.1434851   -3.5935216    597.86243  0.079334186  0.080783965            3 
  629000    1.1247234    -3.596535    596.50635  0.079028399  0.080771892            3 
  630000    1.1496088   -3.5761076    599.55955  0.079306818  0.080759766            2 
  631000    1.1732913   -3.5895065    597.85209  0.078955638  0.080747855            2 
  632000    1.1615805   -3.6051926    600.25016  0.079146909  0.080736518            2 
  633000    1.1671081    -3.613133    601.07323  0.079130231  0.080725795            4 
  634000    1.1447779   -3.5751701    603.41928  0.079313785  0.080716498            2 
  635000    1.1672883   -3.5832619    603.51877  0.079201938  0.080706531            3 
  636000    1.1528778   -3.5829696    604.57444  0.079215728  0.080695829            1 
  637000    1.1377744   -3.5983424    603.72722  0.078980536  0.080684384            2 
  638000    1.1566594   -3.6175965    605.65039   0.07910794  0.080672962            6 
  639000      1.16194   -3.5606628    607.14736  0.079179363  0.080660863            3 
  640000    1.1651976    -3.616972    608.72825  0.079261491  0.080648647            2 
  641000    1.1430306   -3.5718732    608.60758  0.079122151  0.080636465            2 
  642000     1.140378    -3.605431    608.40786  0.078972983  0.080623345            1 
  643000    1.1562451   -3.5950267    607.97391  0.078793924  0.080610123            2 
  644000    1.1299465   -3.5989291    611.35848  0.079109535  0.080595501            7 
  645000    1.1633982   -3.6011919    610.63962  0.078894007  0.080581435            2 
  646000    1.1837489   -3.5671288    608.11696   0.07844646  0.080566149            2 
  647000    1.1568094   -3.6103332     610.0131  0.078569435  0.080550948            4 
  648000    1.1301006   -3.5859283    613.67067  0.078918553  0.080536975            3 
  649000    1.1512774   -3.5976585    615.00594  0.078968405  0.080522744            3 
  650000    1.1275076    -3.610911    615.38041  0.078894925  0.080508781            2 
  651000    1.1700015   -3.6070236    609.75496   0.07805363  0.080493016            1 
  652000    1.1461593   -3.5874085    616.21749  0.078759904  0.080478455            2 
  653000    1.1403278   -3.5724195    618.82592  0.078972169  0.080463123            3 
  654000    1.1364478   -3.5990566    616.73623  0.078585146  0.080448977            7 
  655000    1.1376149   -3.6026039    618.23075  0.078655312  0.080434049            3 
  656000    1.1244164   -3.5568608    618.82039  0.078610313  0.080419816            1 
  657000    1.1302881   -3.6111008    618.50195  0.078450272   0.08040576            2 
  658000    1.1627371   -3.6245675    620.62988  0.078600542  0.080390718            2 
  659000    1.1636827   -3.6192789    618.79455  0.078249185  0.080375491            4 
  660000    1.1236524   -3.6137856    621.10054  0.078421785  0.080359145            3 
  661000    1.1616947   -3.6160276    621.02507   0.07829363  0.080342679            2 
  662000     1.166408   -3.5788428    623.59154  0.078498431  0.080327867            5 
  663000    1.1697914    -3.588958    625.47669  0.078616979   0.08031359            2 
  664000     1.146355   -3.5944813    623.90465  0.078301286  0.080298757            3 
  665000    1.1420356   -3.6097648    625.58189   0.07839372  0.080282664            2 
  666000    1.1715659   -3.5848845     627.5047  0.078516604   0.08026626            2 
  667000    1.1564633   -3.6233502    625.69052  0.078172229  0.080250382            2 
  668000     1.138276   -3.6025547    625.83819  0.078073627   0.08023227            2 
  669000    1.1460577   -3.6226883    627.27793  0.078136264  0.080214517            2 
  670000    1.1285973   -3.6525447    628.49782   0.07817137  0.080196071            4 
  671000    1.1660631   -3.6068558    626.25331  0.077776119  0.080178218            2 
  672000    1.1301357   -3.5819197    629.47109  0.078059411  0.080159906            1 
  673000    1.1357049   -3.6104135    629.59323  0.077958548  0.080142733            2 
  674000    1.1663786   -3.6200286    634.68645  0.078472608   0.08012524            2 
  675000    1.1693708   -3.6183956    633.64899  0.078228271  0.080107948            2 
  676000    1.1795506   -3.5923561    633.00665  0.078033365  0.080090448            8 
  677000    1.1421905   -3.6133659    633.32724  0.077957563  0.080074036            1 
  678000     1.167757   -3.5988082    636.61586  0.078246787  0.080057151            4 
  679000    1.1485031   -3.6090177     635.5476  0.078000442  0.080039128            4 
  680000    1.1474908   -3.6292507    636.54197  0.078007594  0.080021554            1 
  681000     1.140714   -3.5857261    637.23636  0.077978017   0.08000375            2 
  682000    1.1573959   -3.6077489    634.19719  0.077492325  0.079986133            6 
  683000    1.1577077   -3.6609606    636.18243  0.077621087  0.079966782            2 
  684000    1.1206267   -3.5725797    637.40478  0.077656527  0.079948558            2 
  685000    1.1098782   -3.6475956    638.54694   0.07768211  0.079929956            2 
  686000    1.1437988   -3.5996256    641.34144  0.077908339  0.079911639            1 
  687000    1.1146388   -3.6222013    640.95143  0.077747627  0.079893195            2 
  688000    1.1491739   -3.6342786    639.44985  0.077452744  0.079874349            5 
  689000     1.155325   -3.5945373    642.03257  0.077652706   0.07985608            2 
  690000    1.1805502   -3.6069805    642.04682  0.077541887  0.079837618            6 
  691000    1.1224124   -3.5694692    644.23401  0.077693441  0.079820505            2 
  692000    1.1599407   -3.6276139    643.50204   0.07749302  0.079802925            1 
  693000    1.1416946   -3.5899528    647.49093  0.077860862  0.079785144            1 
  694000    1.1575116   -3.5901715    646.51886  0.077631948  0.079768553            2 
  695000    1.1104541   -3.6344598    647.19619  0.077601461    0.0797507            3 
  696000    1.1175658   -3.5806207    651.53424  0.078009368   0.07973322            1 
  697000    1.1362541   -3.6012157    651.23005  0.077861077  0.079714995            2 
  698000    1.1482722   -3.6398943     652.7089  0.077926087   0.07969681            2 
  699000    1.1468595   -3.6296991    650.56562  0.077559087  0.079678679            1 
  700000     1.130961   -3.6152639    652.73078  0.077706045  0.079660643            3 
  701000    1.1558595   -3.6294361    651.41042  0.077438233  0.079642695            2 
  702000    1.1295157   -3.5969678    652.75838  0.077487937  0.079625732            1 
  703000    1.1495103   -3.5758744    655.04032  0.077648212   0.07960955            1 
  704000     1.172983   -3.6277045    656.59194  0.077721584  0.079592287            4 
  705000    1.1470513   -3.6365293    655.48834  0.077480891  0.079574338            2 
  706000      1.10862   -3.6120901    656.94916  0.077543574  0.079555653            2 
  707000    1.1551265   -3.6021493    657.39975  0.077487005  0.079538445            2 
  708000    1.1358234   -3.6009669    658.82616  0.077545452  0.079520134            2 
  709000    1.1431717   -3.6369701    655.78322  0.077078423  0.079503043            2 
  710000    1.1607245   -3.6158476    660.50451  0.077524003  0.079485149            5 
  711000    1.1112367   -3.5949418    661.10011  0.077484776  0.079468234            2 
  712000    1.1213108   -3.6044417    661.09542    0.0773754  0.079451275            3 
  713000    1.1395052   -3.5965222    661.99171  0.077371635  0.079433005            1 
  714000    1.1231177   -3.6081644    663.61384  0.077452596  0.079415088            2 
  715000    1.1261732   -3.6179626    666.17345  0.077642593  0.079398603            1 
  716000    1.1395182   -3.5959041    668.96289   0.07785881  0.079383165            2 
  717000    1.1560997   -3.6191827    668.00332  0.077638694  0.079367627            1 
  718000    1.1210477   -3.6271348    669.27783  0.077678485  0.079352705            3 
  719000    1.1503109   -3.6084982    670.83213  0.077750594  0.079337313            3 
  720000    1.1350066   -3.5838726     672.8233  0.077873068  0.079321535            2 
  721000    1.1399573   -3.6244768    669.45176  0.077375377  0.079306463            3 
  722000    1.1169739   -3.6116476    674.00372  0.077793597  0.079291446            2 
  723000    1.1360843   -3.6248968    674.28627  0.077718565  0.079277747            2 
  724000    1.1274173    -3.627792    676.78468  0.077898789  0.079264264            4 
  725000    1.1381574   -3.6217284     676.5018  0.077758828  0.079250411            5 
  726000    1.1229356   -3.5875002    677.81971  0.077802997  0.079236633            6 
  727000    1.1450284   -3.6203025    678.39582  0.077762015  0.079223126            2 
  728000     1.146944   -3.6103422    680.20003  0.077861725  0.079209973            2 
  729000    1.1529705   -3.6529374    679.20611  0.077641302   0.07919711            1 
  730000    1.1243694   -3.6486828    681.78768  0.077829643  0.079182869            1 
  731000    1.1165316   -3.6209924    680.37827  0.077562502  0.079169749            2 
  732000    1.1583736   -3.6541935    682.61591  0.077711283  0.079156804            1 
  733000    1.1577468   -3.6140627    683.34521  0.077688178  0.079144212            1 
  734000    1.1091262   -3.6010456    685.48777  0.077825587  0.079131834            1 
  735000    1.1244112   -3.5975556    686.09266  0.077788284  0.079119794            5 
  736000    1.1208381     -3.58228    687.52273  0.077844512   0.07910788            2 
  737000    1.1355801   -3.6364183     686.0911  0.077577013  0.079096067            3 
  738000    1.1479067   -3.6477104      687.057  0.077580963  0.079083372            1 
  739000    1.1422708   -3.6283802    689.74024  0.077778556  0.079071037            2 
  740000    1.1489863   -3.6092303    692.67125  0.078003519  0.079058359            3 
  741000    1.1432911    -3.603162    690.07788  0.077606599  0.079047185            1 
  742000    1.1422905   -3.6127065    691.53123  0.077665233  0.079034587            3 
  743000    1.1271686   -3.5962681    693.27222  0.077755969  0.079022019            2 
  744000    1.1332951   -3.5969896    695.12589  0.077859083   0.07900893            1 
  745000      1.13188   -3.5903613    694.10928  0.077640859  0.078997146            3 
  746000    1.1484952   -3.6070171    694.82701  0.077616958   0.07898578            2 
  747000    1.1304513   -3.5922143    696.19626  0.077665804  0.078973996            1 
  748000    1.1108726   -3.6145514    697.84391  0.077745534   0.07896109            2 
  749000    1.1321838   -3.6160028    696.12758  0.077450776  0.078947437            4 
  750000    1.1311748   -3.6170439    698.61072  0.077623414   0.07893387            2 
  751000      1.12957   -3.6257966    697.77875  0.077427735  0.078920064            2 
  752000    1.1282183   -3.6580962    696.59505  0.077193601  0.078905807            2 
  753000    1.1302282   -3.6072092    698.42167  0.077293235   0.07889157            1 
  754000    1.1432657   -3.6493998    700.73518  0.077446417  0.078877684            2 
  755000    1.1124881   -3.6063693     703.4358   0.07764192  0.078863569            7 
  756000    1.0990387   -3.6346678    703.74053   0.07757281  0.078850131            1 
  757000    1.1377738   -3.6353339    703.82406  0.077479531  0.078836616            3 
  758000     1.130966   -3.6464093    702.47595  0.077229106  0.078821789            2 
  759000    1.1132767    -3.651056    702.03165  0.077078574  0.078807953            2 
  760000    1.1260418   -3.6173064    707.80101   0.07760976   0.07879479            1 
  761000    1.0941502   -3.6304691    707.27776  0.077450478  0.078781615            3 
  762000    1.1480864   -3.6229754    706.13164  0.077223495  0.078768788            3 
  763000    1.1295047   -3.6353841    709.05238  0.077441282  0.078755369            4 
  764000    1.1172249   -3.6407626    708.75019  0.077306958  0.078741435            3 
  765000    1.1288005   -3.6615478    708.66589   0.07719672   0.07872754            1 
  766000    1.1430234   -3.6425385    708.05503  0.077029486  0.078712665            3 
  767000    1.1273779   -3.6381382    707.72167  0.076892837  0.078697372            2 
  768000     1.138763   -3.5775851    714.29346    0.0775058   0.07868348            2 
  769000    1.1365818   -3.6164616    710.73297  0.077019177  0.078669582            1 
  770000     1.095683   -3.6426433    713.30832   0.07719787  0.078654416            1 
  771000    1.0998258   -3.6335865    712.42286  0.077002038  0.078639538            5 
  772000    1.1293086   -3.6419753    711.90625   0.07684653  0.078625007            1 
  773000    1.1561089   -3.6058206    717.29448  0.077327995  0.078610051            1 
  774000    1.1006848    -3.628598    716.51419  0.077144078  0.078596223            1 
  775000    1.1253597    -3.611657    718.29157  0.077235653  0.078581621            2 
  776000    1.1309402   -3.6318767     716.9355  0.076990496  0.078566797            2 
  777000    1.1209486   -3.6254772    717.64831  0.076967858  0.078552383            2 
  778000     1.132389   -3.6237564    716.76953    0.0767748  0.078537625            4 
  779000    1.1242615   -3.6308293     718.7509    0.0768882  0.078522236            2 
  780000    1.1331372   -3.6394187    717.48034  0.076653882  0.078506514            1 
  781000    1.1381154   -3.6103723    722.77068  0.077120218  0.078491891            3 
  782000    1.1241662   -3.6199944    722.33018  0.076974656  0.078476654            1 
  783000     1.128913   -3.6399938    723.64639  0.077016431  0.078460833            3 
  784000    1.1454397   -3.6338002    723.71528  0.076925519  0.078446181            1 
  785000    1.1163775   -3.6429237    721.80073  0.076624281  0.078431455            5 
  786000    1.1039851   -3.6308452    727.95535   0.07717932  0.078417816            6 
  787000    1.1260003   -3.6190845    730.64013  0.077365537  0.078404816            1 
  788000    1.1326295   -3.6135409    729.97293  0.077196799  0.078392124            2 
  789000    1.1066486   -3.6400683    731.31347  0.077240544  0.078379679            1 
  790000    1.1212004   -3.6380799    728.67187  0.076864121  0.078366943            2 
  791000    1.1455967   -3.6284897    730.35483  0.076944251  0.078354447            2 
  792000     1.149099   -3.6399346    731.34825  0.076951625  0.078341609            2 
  793000    1.1174523   -3.6484784    732.84192  0.077011551  0.078329101            6 
  794000    1.1081939   -3.6476537     733.0583  0.076937269   0.07831598            1 
  795000    1.1158101   -3.6292624    735.65143  0.077112309  0.078303122            2 
  796000    1.1124495   -3.6424988    732.27312  0.076661758  0.078289397            2 
  797000    1.1530171   -3.6276586     735.3133  0.076883448  0.078276685            6 
  798000    1.1130369    -3.635809    735.95063  0.076853658  0.078263436            2 
  799000    1.1199839   -3.6044186    740.04949  0.077184969  0.078249887            2 
  800000    1.1462122   -3.6584021    740.05963  0.077089545  0.078236476            4 
  801000    1.1134834   -3.6126692    738.71428  0.076853338  0.078223098            2 
  802000    1.1278453   -3.6269618    738.87838  0.076774561  0.078209859            1 
  803000    1.1432512    -3.622544    740.59504  0.076857102  0.078196738            1 
  804000    1.1410208   -3.6071481    742.22567  0.076930521  0.078183038            1 
  805000    1.1308926   -3.6129374    741.28356  0.076737428  0.078169037            3 
  806000    1.1165795    -3.657586    742.25317   0.07674247  0.078155002            3 
  807000    1.1299638   -3.6377189    742.27332  0.076649454  0.078140445            2 
  808000     1.143356   -3.6393963    743.42031  0.076672887  0.078126293            1 
  809000    1.1065011   -3.6276349    744.81981  0.076722271  0.078112664            3 
  810000     1.131395   -3.6272757    748.43415  0.076999398  0.078099345            2 
  811000     1.130115   -3.6395979    747.56586  0.076815234  0.078084581            4 
  812000      1.14629   -3.6327894    748.28011  0.076793935  0.078070615            2 
  813000    1.1414545   -3.6362207    748.91722  0.076764783   0.07805657            1 
  814000    1.1067206   -3.6349364    751.58244  0.076943329  0.078042778            5 
  815000     1.122804   -3.6350398    753.80432  0.077076106  0.078029617            3 
  816000    1.1166486   -3.6142872    751.39898  0.076736007  0.078015208            2 
  817000    1.1177698   -3.6467439    752.55695  0.076760195  0.078001655            2 
  818000    1.1047784   -3.6514893    750.94677   0.07650232  0.077987791            3 
  819000    1.0941276    -3.622561    753.84107  0.076703406  0.077973853            3 
  820000    1.1337395   -3.6553347    753.15117  0.076539753  0.077959834            2 
  821000    1.1220202   -3.6370332    756.80297  0.076817192  0.077945357            3 
  822000    1.1375591   -3.6366018    755.97086  0.076639382  0.077930912            3 
  823000    1.0972987   -3.6569423    753.55611  0.076301753  0.077916671            2 
  824000    1.1240704   -3.6355434    756.84496  0.076541764  0.077901413            3 
  825000    1.1243006   -3.6340522    756.49819  0.076413959  0.077886532            2 
  826000    1.1316446   -3.6505126    757.39606  0.076412032  0.077871047            2 
  827000    1.1294295   -3.6421751    759.45309  0.076526913  0.077855809            3 
  828000    1.0996417   -3.6112073    761.16203  0.076606484  0.077840304            3 
  829000    1.1322719   -3.6350613    764.13829  0.076813258   0.07782599            3 
  830000    1.0933978   -3.6302081    762.02829  0.076508864  0.077810819            2 
  831000    1.1267977   -3.6423181    763.36452  0.076550794  0.077796349            1 
  832000    1.1336688   -3.6487468    759.03309  0.076024949   0.07778133            3 
  833000    1.1270269   -3.6341838    763.10132  0.076340668  0.077766005            1 
  834000    1.1129178   -3.6460481    764.60777  0.076399657  0.077750271            2 
  835000    1.1317111   -3.6216086    769.16436   0.07676291   0.07773509            2 
  836000    1.1271894   -3.6431491    765.65886  0.076321657  0.077720585            2 
  837000    1.1206179   -3.6282482    764.22283  0.076087498  0.077705429            2 
  838000    1.1066466   -3.6318701    767.39763  0.076312414  0.077690281            1 
  839000    1.0992684   -3.6137236    769.69938  0.076450078  0.077675425            4 
  840000    1.1039911   -3.6730714    766.24158   0.07601603  0.077660261            4 
  841000    1.1107048   -3.6418046    769.86954   0.07628513  0.077644348            1 
  842000    1.1124236   -3.6327904    770.12047  0.076219366  0.077629608            2 
  843000    1.1007493     -3.64533    769.33837  0.076051638  0.077613198            2 
  844000    1.1001877   -3.6647625    769.10949  0.075938931  0.077596869            1 
  845000    1.1191514   -3.6573402    766.74774  0.075616148  0.077580276            1 
  846000    1.1217829   -3.6610297    769.78884  0.075826324  0.077563642            3 
  847000    1.1004182   -3.6623715    771.70578  0.075925401   0.07754589            3 
  848000    1.1235078   -3.6691544    772.36973  0.075901113  0.077528622            2 
  849000    1.1039167   -3.6373741    771.64472   0.07574055  0.077511684            5 
  850000    1.1064364   -3.6553039    774.98273  0.075978699  0.077493702            2 
  851000    1.1189045   -3.6817786    768.12726  0.075218102  0.077476241            4 
  852000     1.093769   -3.6483495    773.82274  0.075686887   0.07745799            1 
  853000    1.1168517   -3.6005832    773.03709  0.075521404  0.077439861            2 
  854000    1.1408975   -3.6641033    771.07964  0.075241963   0.07742168            2 
  855000    1.1086058   -3.6329278    774.96598  0.075532746  0.077403033            2 
  856000    1.1294246   -3.6172972    776.26848  0.075571309  0.077383866            1 
  857000    1.1057392   -3.6375084    777.49811  0.075602694  0.077365207            3 
  858000    1.1057465   -3.6449926    778.63427  0.075624929  0.077347178            1 
  859000    1.1135307   -3.6635678    775.43788  0.075226802  0.077328576            3 
  860000    1.1424315   -3.6082966    782.36699  0.075810755  0.077310281            1 
  861000    1.1176969   -3.6089625    785.27428  0.076004092  0.077293506            1 
  862000    1.1026955   -3.6423337    782.20374  0.075619077  0.077276006            3 
  863000    1.1171976   -3.6191617    784.62923  0.075765666  0.077258059            5 
  864000    1.1139002   -3.6023297     783.4902  0.075568114  0.077240134            1 
  865000    1.1145801   -3.6265933    782.22897  0.075359246  0.077222324            4 
  866000    1.1135474   -3.6339968    782.79108  0.075326316  0.077203632            1 
  867000    1.0879846   -3.6324452    786.21306  0.075568345  0.077185676            3 
  868000    1.1290005   -3.6239889    783.52693    0.0752234  0.077167412            2 
  869000    1.1049628   -3.6330874    788.39862  0.075604011  0.077149163            1 
  870000    1.0983714   -3.6781765    783.95239  0.075091225  0.077131355            2 
  871000    1.1044378   -3.6306618    788.42233  0.075432676  0.077112372            1 
  872000    1.1115382   -3.6723663    786.04718  0.075119187  0.077094013            5 
  873000    1.0888126   -3.6178022    787.89071  0.075209117  0.077075055            2 
  874000    1.1036769   -3.6589554    788.67599   0.07519794   0.07705663            1 
  875000     1.144283   -3.6300136    793.33407  0.075555626   0.07703801            2 
  876000    1.0931677   -3.6481465     790.6269  0.075211844  0.077019483            2 
  877000    1.1039555   -3.6541237    791.94512  0.075251342  0.077001074            2 
  878000    1.1095387   -3.6379294    788.21575   0.07481167  0.076981653            2 
  879000    1.0941412   -3.6407685    793.19887  0.075198983  0.076962793            4 
  880000    1.1065567   -3.6750403    786.86664  0.074513886  0.076942303            6 
  881000    1.1024783   -3.6332332    792.85875  0.074996098  0.076922384            1 
  882000     1.115569   -3.6317289    792.85257  0.074910485  0.076901853           10 
  883000    1.1425698   -3.6618823    793.93478  0.074927782  0.076881936            2 
  884000    1.1151239   -3.6572836    794.41518  0.074888308   0.07686088            1 
  885000    1.1268084    -3.637495    796.62454  0.075011727  0.076840051            2 
  886000    1.1416571   -3.6655624    795.05403  0.074779348  0.076819534            1 
  887000    1.1208734   -3.6547994    794.59333  0.074651759  0.076798807            4 
  888000    1.1132852   -3.6615169    795.26022  0.074630276  0.076778164            2 
  889000     1.124219   -3.6557554    797.06127  0.074715155  0.076758135            2 
  890000    1.0797654   -3.6608041    799.28038  0.074838987  0.076738391            1 
  891000    1.1027762   -3.6461246    800.27505  0.074848022  0.076719835            2 
  892000    1.1131391   -3.6460835    799.82758  0.074722308  0.076701232            2 
  893000    1.0799287   -3.6776001    801.31517  0.074777451    0.0766817            4 
  894000    1.1033457   -3.6125264    804.99408  0.075036734  0.076662974            6 
  895000      1.14518   -3.6468363    801.75679  0.074651471  0.076643794            2 
  896000    1.0944231   -3.6256286    806.36476  0.074996722  0.076625349            4 
  897000    1.1254648   -3.6145275    808.41096  0.075103211  0.076606164            2 
  898000     1.084045   -3.6698957    806.23642  0.074817782  0.076587337            2 
  899000    1.1112694   -3.6391043    807.11716  0.074816199  0.076568289            4 
  900000    1.0907544   -3.6769403    804.33621  0.074475575  0.076549231            3 
  901000    1.1095024   -3.6571743    806.99659  0.074638975  0.076529904            1 
  902000      1.08964   -3.6640028     805.5944  0.074426682  0.076511052            2 
  903000    1.1177404   -3.6291874    810.65507  0.074811283  0.076492926            1 
  904000    1.0979367   -3.6453085     812.1715  0.074868317  0.076473942            3 
  905000    1.0909241    -3.650092    808.44034   0.07444202  0.076455185            1 
  906000    1.1172614   -3.6556521    810.85917  0.074582337  0.076435332            1 
  907000     1.101487   -3.6455841    811.43763  0.074553255  0.076416757            2 
  908000    1.1056295   -3.6882748    813.90801  0.074697872  0.076397642            3 
  909000     1.118432   -3.6865544    812.78468  0.074512714  0.076378173            2 
  910000     1.094831   -3.6471154    816.82626  0.074800939  0.076359014            5 
  911000    1.1089787    -3.636481    817.34551  0.074766329  0.076340489            1 
  912000    1.1090004   -3.6171526    818.03226    0.0747471  0.076322925            1 
  913000    1.0947803   -3.6784709    816.94016  0.074565549  0.076305275            1 
  914000    1.1034001   -3.6254449    819.42077  0.074710136  0.076286993            1 
  915000    1.1067446   -3.6485974    816.71193  0.074381779  0.076268467            3 
  916000     1.093715    -3.675422    818.71617  0.074482912  0.076250376            3 
  917000    1.1281757   -3.6567049    823.20468  0.074809586  0.076232805            2 
  918000    1.1191294   -3.6637575    817.95644  0.074251674   0.07621534            2 
  919000    1.1118588   -3.6280984    824.16524  0.074733881  0.076197841            2 
  920000    1.1051075   -3.6514004    823.84656  0.074623782  0.076180274            2 
  921000    1.1225639   -3.6651838    825.40434  0.074683708  0.076162701            2 
  922000    1.1165416   -3.6551106    824.34933  0.074507351  0.076144698            4 
  923000     1.100692   -3.6446922    828.39283  0.074791697  0.076127012            1 
  924000    1.0945355   -3.6797299    824.65432  0.074373586  0.076110039            2 
  925000    1.1087539   -3.6526306    825.20721  0.074342992  0.076093251            2 
  926000    1.0976472   -3.6837492    826.42102  0.074371942  0.076076136            4 
  927000    1.0912335   -3.6516359    832.32871   0.07482279  0.076059168            5 
  928000    1.1070892   -3.6389999    831.66717  0.074682756  0.076043699            2 
  929000    1.1147675   -3.6600463    830.10492  0.074462228  0.076026787            1 
  930000    1.0638988   -3.6409048    837.44584   0.07503995   0.07601089            2 
  931000    1.1064749   -3.6640236    832.45194  0.074512347  0.075994745            2 
  932000    1.1157779   -3.6535076    838.13253  0.074940319  0.075979558            1 
  933000    1.0852516   -3.6665012    835.93564  0.074663776  0.075963682            3 
  934000    1.0898281   -3.6769462    836.53386  0.074637211    0.0759477            1 
  935000    1.0992206   -3.6634733    837.78174  0.074668604   0.07593131            1 
  936000    1.1098927    -3.653219    840.33519  0.074816167  0.075915954            1 
  937000    1.1123459   -3.6704523    839.69718  0.074679578  0.075899935            2 
  938000    1.1005222   -3.6648861    840.11405  0.074636998  0.075884063            4 
  939000    1.1266911   -3.6341239    843.74055  0.074879353  0.075868952            3 
  940000    1.0854636   -3.6663774    840.71799  0.074531737  0.075852686            2 
  941000     1.088729   -3.6627721    839.41249  0.074336919  0.075836588            2 
  942000    1.0952955   -3.6331451    841.80805  0.074469927  0.075820682            2 
  943000     1.110367   -3.6742655    845.32045  0.074701347  0.075804879            2 
  944000     1.107118   -3.6586227    845.74741  0.074659906  0.075789641            2 
  945000     1.135574   -3.6504643     844.4474  0.074466261  0.075773207            1 
  946000    1.1028571   -3.6188725    848.04032  0.074704045  0.075756705            2 
  947000      1.07925   -3.6579518    846.92095  0.074526659  0.075740583            3 
  948000    1.0883067   -3.6719116    843.73633  0.074168102  0.075723925            2 
  949000    1.0823308   -3.6531337    850.54578  0.074687897  0.075706803            1 
  950000    1.0948968   -3.6656281    844.31937  0.074063103  0.075689547            2 
  951000    1.0833672   -3.6690435    849.54338  0.074442988  0.075671724            3 
  952000     1.102861   -3.6258826    847.79099  0.074211396  0.075654516            3 
  953000    1.0968601   -3.6612813    849.61691  0.074293189  0.075637817            2 
  954000     1.113117   -3.7074835    845.10455  0.073821152  0.075620811            3 
  955000    1.0947221   -3.6747835    846.71724  0.073884576  0.075603258            4 
  956000     1.097457   -3.6810085    851.20111  0.074198144  0.075586019            3 
  957000    1.0957739   -3.6736663    851.12539  0.074114019   0.07556853            1 
  958000    1.0955589   -3.6572262    853.12892  0.074210936  0.075551296            5 
  959000    1.1094379     -3.65619    853.43991  0.074160576  0.075535001            4 
  960000    1.0972843   -3.6800045    854.54429  0.074179192  0.075518751            2 
  961000    1.1104635   -3.6720014    856.46105  0.074268214   0.07550261            2 
  962000    1.1060021    -3.662525    855.49108  0.074106989  0.075486017            2 
  963000    1.1026588   -3.6560581    857.87433   0.07423627  0.075469797            3 
  964000    1.1123345   -3.6754458    856.19871  0.074014411  0.075453714            3 
  965000    1.1015481   -3.6190075    859.56953  0.074228802  0.075437582            4 
  966000     1.082102   -3.6520136    859.92746  0.074182838  0.075420944            3 
  967000    1.0810114    -3.715888    858.46055  0.073979709  0.075403609            2 
  968000    1.0923255   -3.6867683    858.23892  0.073884205   0.07538648            2 
  969000    1.1114157   -3.6632907    859.61187  0.073926029  0.075370181            3 
  970000    1.0837818   -3.6606412    865.54139  0.074359226  0.075353465            2 
  971000    1.0839456   -3.6820309    861.26941  0.073916015  0.075337406            2 
  972000     1.086573   -3.6505716    867.08434  0.074338507  0.075321299            1 
  973000    1.1006664   -3.6550114    863.11687  0.073922308   0.07530544            1 
  974000    1.0889315    -3.666575    865.34738  0.074037251  0.075289726            4 
  975000    1.0788817   -3.6791458    864.89048  0.073922263  0.075273032            1 
  976000    1.0799572   -3.6774729    864.35023  0.073800396  0.075256617            4 
  977000    1.0892629    -3.668769    868.15453  0.074049346  0.075240012            5 
  978000    1.0731735    -3.658562    865.46053  0.073744081  0.075223511            4 
  979000    1.0769149   -3.6568822    867.88187  0.073874861  0.075207108            2 
  980000    1.0922657   -3.7101834    865.75332   0.07361848  0.075190467            2 
  981000    1.0913628   -3.6685862    869.22415  0.073838273  0.075173759            1 
  982000    1.1044688   -3.6800703    871.07459  0.073920111  0.075158021            3 
  983000    1.0894492   -3.6641492    872.84551  0.073995041  0.075142526            2 
  984000    1.0667752   -3.6616933    873.94638  0.074013074  0.075126812            1 
  985000    1.0999422   -3.6791067    874.68099  0.074000083  0.075111511            3 
  986000    1.0966986   -3.7057307    874.00409  0.073867824  0.075096162            2 
  987000    1.0803482   -3.6898983    873.63142  0.073761518  0.075080407            3 
  988000    1.1034879   -3.6707052    878.41405  0.074090254  0.075064541            1 
  989000    1.1116431   -3.6891505    877.11532  0.073905908  0.075048665            4 
  990000    1.1030062   -3.6746653    876.07422  0.073743621  0.075032782            3 
  991000    1.0778495   -3.6629056    880.90665  0.074075567  0.075016444            3 
  992000    1.0988357   -3.6674192    878.74466  0.073819276  0.075000503            2 
  993000    1.0750623   -3.6792715    877.49894  0.073640394  0.074983828            1 
  994000    1.0696595   -3.6961933    877.54989  0.073570581  0.074966785            2 
  995000    1.1207788   -3.6881278    876.78329  0.073432436   0.07494979            3 
  996000    1.0904833   -3.6921355     878.3982  0.073493825   0.07493302            2 
  997000    1.1113244   -3.6852989    878.31782  0.073413392  0.074915877            1 
  998000    1.0738292   -3.6818953    877.03005  0.073232302  0.074898601            3 
  999000    1.0868112   -3.6714395    881.28594  0.073514009  0.074881276            2 
 1000000    1.0873535   -3.6753263    883.65214  0.073637678  0.074864766            2 
 1001000     1.093211   -3.6633934    881.27829  0.073366491  0.074847872            2 
 1002000     1.104608   -3.6448418    886.43665  0.073722276  0.074831834            2 
 1003000     1.084745   -3.6549706    887.44981  0.073732952  0.074815424            3 
 1004000    1.1075895   -3.6801438    887.61309  0.073673065  0.074798449            2 
 1005000    1.0877377   -3.6622065    884.53336  0.073344391  0.074782043            2 
 1006000    1.0917586   -3.6760535    882.46992  0.073100557  0.074765017            2 
 1007000    1.0947854   -3.6912556    885.80988   0.07330436  0.074747871            5 
 1008000    1.1112713   -3.7155772    886.44614  0.073284238  0.074730797            2 
 1009000    1.0871585   -3.7023711    888.42366  0.073374931  0.074714293            4 
 1010000    1.0688907   -3.7010291    887.30984  0.073210383  0.074697233            4 
 1011000    1.1083981   -3.6800406    887.24843  0.073132907  0.074680986            1 
 1012000    1.0900717   -3.6879594    891.28394  0.073392946   0.07466485            1 
 1013000     1.112236   -3.6576973    895.85922  0.073696876  0.074648585            2 
 1014000    1.0930273   -3.6912081    891.52098  0.073267668  0.074632466            2 
 1015000    1.0438669   -3.6710451    895.73662  0.073541595  0.074616287            4 
 1016000     1.075293   -3.6824915    895.66176  0.073463071  0.074601068            4 
 1017000    1.0964223   -3.6309398    900.30861    0.0737716  0.074585447            2 
 1018000    1.0781072   -3.6650221    897.43724  0.073464083  0.074569706            2 
 1019000    1.0801773   -3.6603879     895.1101  0.073201676  0.074553912            3 
 1020000    1.1327347   -3.6602729    900.32199  0.073555718  0.074538001            1 
 1021000    1.0794916   -3.6813471    897.17042  0.073226447  0.074522029            2 
 1022000    1.0820189   -3.6758535    902.07491  0.073554706  0.074505978            5 
 1023000    1.0866285   -3.6948723    901.16931  0.073409035  0.074490935            2 
 1024000    1.0823416   -3.7087365     897.2562  0.073018897  0.074475297            2 
 1025000    1.0968284   -3.6651698    901.21802  0.073269758  0.074459678            1 
 1026000    1.0601125   -3.6915184    900.36997  0.073129465  0.074444516            1 
 1027000     1.091807   -3.6891195    900.37714   0.07305884  0.074428753            3 
 1028000    1.0770913   -3.6902139    900.40614  0.072990122  0.074413075            2 
 1029000    1.0972149   -3.7090816    900.64618  0.072938628  0.074397223            3 
 1030000    1.0875044   -3.6776302    905.93383  0.073295617  0.074380812            3 
 1031000    1.0661382   -3.7003188    904.04313  0.073071705  0.074364927            3 
 1032000    1.0888928    -3.693967    901.83072  0.072822248  0.074348524            3 
 1033000    1.0699858   -3.6807301    905.45395  0.073044043  0.074332559            3 
 1034000    1.1063031   -3.6995877    905.50874  0.072977816  0.074316239            3 
 1035000    1.1049636   -3.6699734    909.22432  0.073206467  0.074299215            2 
 1036000    1.0750661   -3.6703618    912.40337   0.07339152  0.074283419            2 
 1037000    1.0828815   -3.6920866    907.04923  0.072890488  0.074267501            1 
 1038000    1.0795591   -3.7000685    909.84513  0.073044728  0.074252235            2 
 1039000    1.0740274   -3.6824889    911.65328  0.073119448  0.074236366            2 
 1040000    1.0942497   -3.6846796     909.9674  0.072914054   0.07422056            3 
 1041000     1.102407   -3.6879758    911.79815  0.072990566  0.074205133            2 
 1042000    1.0867126   -3.7178271    914.90874  0.073169285  0.074190027            5 
 1043000    1.0720657    -3.687199    913.76671  0.073007887  0.074174767            3 
 1044000    1.0692546   -3.6938903    913.18658  0.072891649  0.074159534            4 
 1045000    1.0893446   -3.7043912    919.31827  0.073310867  0.074143728            1 
 1046000    1.0852438   -3.6905254    920.05799  0.073299713   0.07412858            3 
 1047000    1.0977738   -3.6932305    922.39207  0.073415479  0.074114005            3 
 1048000    1.0671042   -3.7207405    918.87997  0.073066155   0.07409944            1 
 1049000    1.0905838   -3.6908117    926.32695  0.073588095  0.074085117            2 
 1050000     1.076199   -3.7120504    918.42555  0.072890917  0.074070829            2 
 1051000    1.0913453   -3.7111284    922.23421   0.07312355  0.074055971            5 
 1052000    1.0894794   -3.6734481    923.98892  0.073193039  0.074041281            2 
 1053000    1.0801229   -3.6814674    923.61851  0.073094215  0.074026957            2 
 1054000    1.0885549   -3.7271646    924.67874  0.073108693  0.074012213            3 
 1055000    1.0534969   -3.6737199    927.84539  0.073289525  0.073997932            3 
 1056000     1.080049   -3.6906381    928.99051  0.073310489   0.07398402            3 
 1057000     1.096101     -3.68664     925.1117  0.072935328  0.073970125            3 
 1058000    1.0682914   -3.6789222    926.90975  0.073008015  0.073956214            5 
 1059000    1.0971101   -3.6907225    931.27051  0.073282225  0.073942227            2 
 1060000    1.0692916   -3.7047776    928.35739  0.072984072  0.073928126            2 
 1061000    1.0818353   -3.6896961    929.92815  0.073038655  0.073913263            2 
 1062000    1.0941161    -3.681588    935.67575  0.073420885  0.073899774            2 
 1063000    1.0605924    -3.677976    932.95711  0.073138688  0.073885815            4 
 1064000    1.0959702   -3.6972761    928.53844  0.072723876  0.073871909            2 
 1065000    1.0849458   -3.6598898    935.32042  0.073186261  0.073858385            3 
 1066000    1.0955156   -3.7009529    937.13389  0.073259372  0.073844972            4 
 1067000    1.0840442   -3.6836732    937.92014   0.07325212  0.073831072            1 
 1068000    1.1012346   -3.6909216    938.25721  0.073209832  0.073817081            2 
 1069000    1.0921912   -3.6799887    936.09686  0.072972939  0.073803368            3 
 1070000    1.0888191   -3.6641769    942.61575  0.073412442  0.073789895            4 
 1071000    1.0835188   -3.6946544    942.89877  0.073365917  0.073776792            2 
 1072000    1.0473837   -3.7491252    937.26484  0.072859518  0.073763014            4 
 1073000    1.0697548   -3.6774415    939.74406  0.072984161  0.073749721            2 
 1074000    1.0642879   -3.6941108    944.52847  0.073287435  0.073736754            2 
 1075000     1.059118   -3.6876831    943.05082  0.073104714  0.073723621            3 
 1076000    1.1199931   -3.6974753    947.60145  0.073389208  0.073710794            2 
 1077000    1.0834934   -3.7168565    940.97742  0.072808528  0.073697839            2 
 1078000    1.0767625   -3.6737703    943.31231  0.072921483  0.073685301            2 
 1079000    1.0703895   -3.6730197    945.88148  0.073052323  0.073671838            6 
 1080000    1.0575834   -3.6870343    947.26153  0.073091167  0.073658518            4 
 1081000    1.0694098    -3.721903    946.77347  0.072985929  0.073645609            2 
 1082000    1.0819159   -3.7075974     949.1342  0.073100292  0.073632179            3 
 1083000     1.088316   -3.6969282    953.39632  0.073360751  0.073619342            6 
 1084000    1.0728146    -3.696178     950.1454  0.073043158  0.073606108            2 
 1085000    1.0908384   -3.7170114    945.34453  0.072607106  0.073592585            3 
 1086000    1.0941515   -3.6745338    947.85813  0.072733128  0.073578956            2 
 1087000    1.0965075   -3.7147307    945.65595  0.072497389  0.073564973            3 
 1088000    1.0661963   -3.6990255    952.47873  0.072953334  0.073550983            1 
 1089000    1.0702944    -3.689076    951.38271  0.072802473  0.073536663            3 
 1090000    1.0856534   -3.6815275    954.97831  0.073010574  0.073522501            4 
 1091000    1.0844193   -3.6951215    954.27373  0.072889836  0.073508536            2 
 1092000    1.0739504     -3.71402     954.8798  0.072869337  0.073494564            2 
 1093000    1.0707116   -3.7186239    952.69132  0.072635812  0.073480273            3 
 1094000    1.0844769   -3.7045074    953.06726  0.072598055  0.073466208            4 
 1095000    1.0895722   -3.6730329    957.72036  0.072885872  0.073452341            3 
 1096000    1.0625431    -3.688501     954.5407  0.072577608  0.073438443            5 
 1097000    1.0894864    -3.702233    956.72817  0.072677618  0.073424049            4 
 1098000    1.0829976   -3.6978124    958.97205  0.072781728  0.073409949            3 
 1099000    1.0794152   -3.6936208    957.51631  0.072605119  0.073395541            3 
 1100000    1.0665212   -3.6921423    960.75654  0.072784587  0.073381248            2 
 1101000    1.0767123   -3.6921894    953.49852  0.072169128  0.073366582            2 
 1102000    1.0651573   -3.7162778    956.86607  0.072358293  0.073351675            1 
 1103000    1.0676936    -3.676276    962.45808  0.072715177  0.073336494            2 
 1104000    1.0838437    -3.693203    961.45819  0.072573837  0.073321917            3 
 1105000    1.0746062   -3.6992269    961.17854   0.07248707  0.073307239            2 
 1106000    1.0605247   -3.7129193    961.23497  0.072425782  0.073292635            1 
 1107000    1.1008717   -3.7098178    963.71508  0.072547055  0.073278789            2 
 1108000    1.0739403   -3.7048323    964.06061  0.072507567  0.073264847            2 
 1109000    1.0814484   -3.6854162    965.15229  0.072524217  0.073250885            2 
 1110000     1.079856   -3.7236941    962.65643  0.072271504  0.073236852            5 
 1111000    1.0744709   -3.6546631    973.75854  0.073039195  0.073223448            2 
 1112000    1.0725529   -3.6971984    971.39372  0.072796292  0.073210078            2 
 1113000     1.072579   -3.6814813    967.78932  0.072461015   0.07319679            1 
 1114000    1.0675337   -3.7222131     966.5549  0.072303628  0.073183409            2 
 1115000    1.0624743   -3.7273587     970.6235  0.072542862  0.073170111            2 
 1116000    1.0480947    -3.704849    969.29748  0.072378844  0.073157035            2 
 1117000    1.0807432    -3.691651    973.14934  0.072601413  0.073144276            4 
 1118000    1.0722641   -3.7225773    971.54885  0.072417178  0.073131211            4 
 1119000    1.0586981   -3.6855259    980.18443  0.072995563  0.073118836            3 
 1120000    1.0736148   -3.7508683     973.5264     0.072435  0.073106051            3 
 1121000    1.1008868   -3.7292163    978.63319  0.072750014  0.073093251            2 
 1122000    1.0412392   -3.6978232    975.95348  0.072486147  0.073081074            1 
 1123000    1.0831366   -3.6768868     981.8204  0.072856961  0.073068682            1 
 1124000    1.0606465   -3.7084348    980.52589  0.072696166   0.07305627            2 
 1125000    1.0714857   -3.7237906    980.32882   0.07261695  0.073043347            3 
 1126000    1.0646241   -3.7248651    983.20415  0.072765257  0.073031188            3 
 1127000    1.0504248   -3.6971836    979.56342  0.072431486  0.073018781            1 
 1128000    1.0505831   -3.7096716    981.89185  0.072539291  0.073006126            4 
 1129000    1.0551786   -3.7406469     983.3228  0.072580661  0.072993556            1 
 1130000    1.0748609   -3.6946467    982.39281  0.072447847  0.072981565            1 
 1131000    1.0624197   -3.7168662    985.28732  0.072597062  0.072969626            3 
 1132000    1.0697362   -3.7130046    983.77859  0.072421863  0.072957694            3 
 1133000    1.0882233    -3.727057     981.1408  0.072163931  0.072945547            2 
 1134000    1.0716196    -3.707703    985.21011  0.072399332  0.072932818            2 
 1135000    1.0654586   -3.7091443    990.52367  0.072725673  0.072920208            3 
 1136000    1.0738672   -3.7096798    985.46887   0.07229085  0.072907064            2 
 1137000    1.0854925   -3.7075913    984.94493  0.072188869   0.07289482            2 
 1138000    1.0753101   -3.7405711     989.4132  0.072452636   0.07288164            2 
 1139000    1.0746145   -3.7159845    987.61996  0.072257826  0.072868441            1 
 1140000    1.0645146   -3.7142606    987.25118  0.072167484  0.072855397            2 
 1141000    1.0580776   -3.7071707    990.19411  0.072319172  0.072841698            1 
 1142000    1.0474718   -3.7358176    989.20877  0.072183944   0.07282814            5 
 1143000    1.0892737   -3.7279793    988.45141  0.072065574  0.072814573            3 
 1144000    1.0548817   -3.7039099    990.67116  0.072164275   0.07280084            4 
 1145000    1.0614481   -3.7158179    991.31509  0.072148114  0.072787015            3 
 1146000    1.0724946   -3.7278645    990.91977  0.072056411  0.072773794            2 
 1147000    1.0444224   -3.7506512    993.07903  0.072150467  0.072759894            4 
 1148000    1.0629649   -3.6870806    990.83922   0.07192503  0.072746022            2 
 1149000     1.050991   -3.7396701    988.20126   0.07167111  0.072732185            2 
 1150000    1.0644314   -3.7051774     992.8855  0.071948224  0.072717668            3 
 1151000    1.0545234   -3.7443231    991.57711  0.071790986  0.072703548            4 
 1152000    1.0662081   -3.7324586    995.07197   0.07198148  0.072689077            3 
 1153000    1.0710559    -3.716329    995.39595  0.071942466  0.072674858            2 
 1154000    1.0924474   -3.6950187    994.45679  0.071812304  0.072660234            1 
 1155000    1.0907115   -3.7086557    997.43585  0.071965069  0.072646544            2 
 1156000    1.0594295   -3.7140356    995.91863  0.071793442  0.072632454            2 
 1157000    1.0495733   -3.7462944    996.73317  0.071790058  0.072618552            2 
 1158000    1.0882606   -3.7521792    998.65878  0.071866636  0.072604971            3 
 1159000    1.0477886   -3.7265925    1002.4765   0.07207913  0.072591669            1 
 1160000    1.0659152   -3.7199534    1001.4783  0.071945279  0.072578018            3 
 1161000    1.0626133   -3.7116544    1001.7097  0.071899922  0.072564331            2 
 1162000    1.0531211     -3.71883    1003.3673  0.071956919  0.072550572            4 
 1163000    1.0675374   -3.7221783    1005.7203  0.072063649  0.072536783            3 
 1164000    1.0773759   -3.6953597    1005.7564  0.072004324  0.072523195            1 
 1165000     1.088569   -3.6982759    1006.7223  0.072011613  0.072509973            2 
 1166000    1.0628894   -3.7023409    1005.6155  0.071870747   0.07249669            2 
 1167000    1.0552668    -3.714624    1006.9464  0.071904201   0.07248406            3 
 1168000    1.0837323   -3.7269172    1011.5585  0.072171696  0.072471016            3 
 1169000    1.0921627    -3.740921    1010.9371  0.072065664  0.072458156            3 
 1170000    1.0784467   -3.7301289    1009.9081  0.071930777  0.072445145            1 
 1171000     1.069625   -3.7060385    1012.5297  0.072055913  0.072432073            2 
 1172000     1.057666   -3.6886406    1013.5126  0.072064317  0.072419319            2 
 1173000    1.0522882   -3.7038226    1012.5688  0.071935837  0.072406932            3 
 1174000    1.0618631   -3.6947626    1015.9715  0.072116095  0.072394312            2 
 1175000     1.076337    -3.698639    1018.6362  0.072243705  0.072381931            5 
 1176000    1.0693344   -3.7143806    1011.8479  0.071701241   0.07236885            2 
 1177000    1.0575841   -3.7529009    1014.8852  0.071855368  0.072355495            2 
 1178000    1.0731542   -3.7617447    1016.6458  0.071918917  0.072342113            5 
 1179000    1.0600769   -3.7362451    1014.2493  0.071688531  0.072328745            2 
 1180000    1.0657414   -3.7057414    1013.7053   0.07158936  0.072315745            3 
 1181000    1.0670447   -3.7368799    1009.9603  0.071264483  0.072302045            3 
 1182000    1.0689461   -3.7071717    1017.4989  0.071735679  0.072288654            1 
 1183000    1.0481207   -3.7058377    1021.8527  0.071981736  0.072275713            2 
 1184000    1.0647744   -3.7327765    1018.2465  0.071667126  0.072262567            3 
 1185000    1.0461881   -3.6799984    1019.9032   0.07172315  0.072249635            2 
 1186000    1.0619098   -3.7273186    1016.5019  0.071423686  0.072235963            2 
 1187000    1.0607921   -3.7574861    1020.2881  0.071629321  0.072222633            4 
 1188000    1.0475672   -3.7307005    1021.7137  0.071669033  0.072209392            2 
 1189000    1.0430324   -3.7030616    1024.7678  0.071822805  0.072196113            2 
 1190000    1.0622068   -3.7159905    1022.8862  0.071630684  0.072182969            2 
 1191000    1.0738088   -3.7120434    1025.9544   0.07178522  0.072169945            4 
 1192000    1.0887427    -3.726216    1021.1837  0.071391475  0.072156363            2 
 1193000    1.0742868   -3.7519645     1025.957  0.071665059  0.072143015            3 
 1194000    1.0710717   -3.7233942    1026.6277  0.071651847  0.072130406            3 
 1195000    1.0549759    -3.722053    1026.9344  0.071613276  0.072117284            2 
 1196000    1.0582872    -3.726545    1030.1269   0.07177584  0.072104193            4 
 1197000    1.0746897   -3.6772023     1031.391  0.071803885  0.072091938            1 
 1198000    1.0561858   -3.7178884    1029.1649    0.0715891  0.072079465            3 
 1199000    1.0569364   -3.7112399    1029.2367  0.071534382  0.072067342            2 
 1200000    1.0530679   -3.7462174    1031.1774  0.071609542  0.072055219            3 
 1201000    1.0558146    -3.713077    1030.6416   0.07151274  0.072043049            2 
 1202000    1.0572668   -3.7322243    1032.2226  0.071562854  0.072030155            3 
 1203000    1.0484305   -3.7380792    1032.2875   0.07150786  0.072017151            3 
 1204000    1.0415595   -3.7364164    1036.7515  0.071757442  0.072004407            2 
 1205000     1.074088   -3.7500879    1033.0608  0.071442652  0.071991861            3 
 1206000    1.0779553   -3.7116402    1037.2212  0.071670897  0.071979531            4 
 1207000    1.0351087    -3.731355    1037.7449  0.071647675  0.071966719            2 
 1208000    1.0608665   -3.7507639    1038.3998  0.071633543  0.071954018            2 
 1209000    1.0721126   -3.7007784    1040.4617  0.071716415  0.071941443            4 
 1210000    1.0534316   -3.7511584    1034.2934  0.071232326  0.071928643            3 
 1211000    1.0627043   -3.7283721    1039.6152  0.071539719  0.071916489            3 
 1212000    1.0618598   -3.7292135    1038.7697  0.071422562  0.071904021            2 
 1213000    1.0553019   -3.7561053    1040.6542  0.071493144  0.071891578            1 
 1214000    1.0546608   -3.7279551    1043.9179  0.071658283  0.071879361            3 
 1215000    1.0537535   -3.7031195    1041.4204  0.071428008  0.071866882            2 
 1216000    1.0466515   -3.7390876    1044.7509  0.071597512  0.071854715            2 
 1217000    1.0584716   -3.7330448    1042.7101  0.071398941  0.071842696            2 
 1218000    1.0632576   -3.7490908    1044.9474  0.071493392  0.071830382            2 
 1219000    1.0699098   -3.7484513    1045.1816  0.071450754   0.07181806            2 
 1220000    1.0135409   -3.7307281    1045.1267  0.071388439  0.071805572            4 
 1221000     1.064014    -3.746279    1048.5825  0.071565826  0.071792928            1 
 1222000    1.0418668   -3.7227179    1049.7127  0.071584334  0.071780802            2 
 1223000    1.0648724   -3.7343505    1047.7276  0.071390542  0.071768244            2 
 1224000     1.073027   -3.7065396    1050.8861  0.071547259  0.071756165            4 
 1225000    1.0586899   -3.7095111    1054.8364  0.071757581  0.071744595            3 
 1226000    1.0501004   -3.7191652    1053.4259  0.071603177  0.071732591            3 
 1227000    1.0355254   -3.7253214    1053.3894  0.071542337  0.071720657            4 
 1228000    1.0607612    -3.700708    1054.2469   0.07154227  0.071708916            1 
 1229000    1.0647165    -3.734591    1050.5161   0.07123109  0.071697271            3 
 1230000    1.0714866    -3.753929    1053.7389  0.071391525  0.071685868            5 
 1231000    1.0590896    -3.739547    1053.9225   0.07134596   0.07167427            1 
 1232000    1.0662902    -3.712096    1052.4657   0.07118951  0.071662516            2 
 1233000    1.0609936   -3.6901774    1059.2626  0.071591148  0.071650918            7 
 1234000    1.0684015   -3.7137759    1057.6935  0.071427166  0.071639619            3 
 1235000    1.0509455   -3.7454292     1054.564  0.071158165  0.071627505            3 
 1236000     1.044146   -3.7501199     1055.177  0.071141923  0.071614801            3 
 1237000    1.0699835   -3.7696458    1061.5989  0.071517034  0.071602378            2 
 1238000    1.0331845   -3.7558843    1054.7015  0.070994987  0.071589411            4 
 1239000    1.0567114   -3.7362798    1057.8099  0.071146755  0.071576914            1 
 1240000    1.0720767   -3.7270544    1057.6161  0.071076354  0.071564459            5 
 1241000    1.0638472   -3.7364753    1060.2554  0.071196306  0.071551757            7 
 1242000        1.075   -3.7484257    1063.8843  0.071382465   0.07153934            2 
 1243000    1.0734683   -3.7252721    1065.3128  0.071420813  0.071526769            3 
 1244000    1.0452842   -3.7490533    1057.9761  0.070871927   0.07151393            2 
 1245000    1.0357263   -3.7190366    1059.8817   0.07094255  0.071501195            4 
 1246000    1.0778514   -3.7083528    1061.3561  0.070984226  0.071488466            2 
 1247000    1.0774521   -3.7344003    1061.6652  0.070947953  0.071476119            3 
 1248000    1.0403148   -3.7716697    1060.8732  0.070838218  0.071463378            4 
 1249000    1.0354142    -3.717108    1066.2814  0.071142343  0.071450852            3 
 1250000    1.0576508   -3.7254834    1065.6728  0.071044855  0.071438512            2 
 1251000    1.0659999   -3.7252529    1065.6087  0.070983792  0.071426051            4 
 1252000    1.0614763   -3.7439744    1069.8659  0.071210457   0.07141386            3 
 1253000    1.0621334   -3.7247391     1071.401  0.071255716  0.071401561            3 
 1254000    1.0583492   -3.7529353    1067.9627  0.070970411  0.071388867            2 
 1255000    1.0317694   -3.7292149    1065.2785  0.070735622  0.071376112            4 
 1256000    1.0552834   -3.7490734    1071.8809  0.071117366  0.071363217            1 
 1257000    1.0567668   -3.7458349    1067.7944  0.070789867   0.07135051            2 
 1258000     1.056168   -3.7694294    1069.7027  0.070860007    0.0713376            4 
 1259000    1.0764476   -3.7243643    1073.4784  0.071053641  0.071325393            2 
 1260000    1.0529237   -3.7779055    1065.9063  0.070496446  0.071313256            4 
 1261000     1.065989   -3.7221824    1077.9571  0.071236924  0.071300775            2 
 1262000    1.0381944   -3.7621575    1072.0447   0.07079006  0.071288088            3 
 1263000    1.0877151   -3.7566825    1072.5794  0.070769292  0.071275706            1 
 1264000    1.0445116   -3.7329781    1079.1624  0.071147307  0.071263373            3 
 1265000    1.0431708   -3.7392962     1077.806  0.071001716   0.07125077            1 
 1266000    1.0495659     -3.73415    1072.8565  0.070619833  0.071238194            2 
 1267000    1.0381326   -3.7690927    1074.5732  0.070677007  0.071225783            1 
 1268000    1.0673541   -3.7015812     1086.333  0.071394126  0.071213365            1 
 1269000    1.0399431   -3.7467858    1077.0885  0.070730789  0.071201154            5 
 1270000    1.0532769   -3.7213995    1082.0197  0.070998666  0.071189345            2 
 1271000     1.044304   -3.7276583    1081.4591   0.07090605  0.071176631            3 
 1272000    1.0616239   -3.7689861    1080.5179   0.07078865  0.071163709            2 
 1273000    1.0699527   -3.7622231    1081.9723  0.070828244  0.071151285            1 
 1274000    1.0303129   -3.7613969    1080.8257  0.070697655  0.071138804            4 
 1275000    1.0283863   -3.7700233    1081.0387  0.070656124  0.071126397            2 
 1276000    1.0344723   -3.7602128    1078.9468  0.070464133  0.071113581            2 
 1277000    1.0681861   -3.7289431    1084.7398  0.070786988  0.071100833            2 
 1278000    1.0262769   -3.7353193    1081.3748  0.070512183  0.071088391            1 
 1279000    1.0385606   -3.7483776    1084.2616  0.070645137  0.071076418            2 
 1280000    1.0531109   -3.7760569    1083.8189  0.070561126  0.071064124            4 
 1281000    1.0691652   -3.7274975    1087.5758  0.070750442  0.071051835            4 
 1282000    1.0248245   -3.7527048     1087.781  0.070708593  0.071039159            4 
 1283000     1.038059   -3.7499517    1090.8026  0.070849739    0.0710266            2 
 1284000    1.0588047   -3.7439179    1090.9278  0.070802687  0.071014268            2 
 1285000    1.0331873   -3.7406065    1090.0556  0.070691027  0.071002118            2 
 1286000    1.0478283   -3.7284921    1094.4668  0.070921906    0.0709901            3 
 1287000    1.0454549   -3.7686806    1091.0532  0.070645767  0.070977828            4 
 1288000    1.0395352   -3.7329199    1091.8557  0.070642838  0.070965598            2 
 1289000    1.0383405   -3.7051862    1092.5948  0.070635815  0.070953503            3 
 1290000    1.0379979    -3.751722    1090.8932  0.070471139  0.070941623            3 
 1291000    1.0343489   -3.7566232    1090.9325  0.070419089  0.070929549            2 
 1292000    1.0315793   -3.7571874    1094.2605  0.070579238  0.070917614            4 
 1293000    1.0538065   -3.7285718    1096.1566  0.070646852  0.070905635            2 
 1294000    1.0422301    -3.759174    1090.9479  0.070256821  0.070893256            5 
 1295000     1.024954   -3.7554499     1096.618  0.070567442  0.070880833            2 
 1296000    1.0644709   -3.7631461    1097.0503  0.070540788  0.070868473            3 
 1297000    1.0433421   -3.7350218    1095.6228  0.070394678  0.070855856            6 
 1298000    1.0754494    -3.752814    1098.6879  0.070537233  0.070843782            2 
 1299000    1.0373725   -3.7169029    1102.6522  0.070737245    0.0708316            4 
 1300000     1.050365   -3.7362634    1102.5114  0.070673811  0.070819781            4 
 1301000    1.0469853   -3.7420458    1100.4898  0.070489995  0.070807442            2 
 1302000    1.0370409   -3.7045741    1104.7135  0.070706188  0.070795439            3 
 1303000    1.0494291   -3.7155775    1100.7997  0.070401621  0.070783853            2 
 1304000    1.0339164   -3.7578933    1101.5523  0.070395725  0.070772186            4 
 1305000    1.0446439   -3.7603911    1103.8593  0.070489099  0.070759999            5 
 1306000    1.0516455   -3.7459124    1101.1287  0.070260893  0.070748438            3 
 1307000    1.0520827   -3.7763902    1101.9696  0.070260752  0.070736837            3 
 1308000    1.0450865   -3.7581844    1103.0203  0.070273974  0.070724722            2 
 1309000    1.0534934   -3.7578212     1106.714  0.070455435  0.070712927            2 
 1310000    1.0538799   -3.7647055    1106.8988  0.070413413  0.070701018            4 
 1311000    1.0334357   -3.7295182    1111.9387   0.07068006  0.070689132            1 
 1312000     1.036958   -3.7486955    1113.0923  0.070699458  0.070677399            4 
 1313000    1.0475004   -3.7514753    1109.3253  0.070406532  0.070666097            5 
 1314000    1.0319892   -3.7461443    1109.3803  0.070356438  0.070654562            4 
 1315000    1.0258926    -3.722659    1115.7343  0.070705593   0.07064317            3 
 1316000    1.0470364   -3.7343071    1116.3896  0.070693361  0.070632002            1 
 1317000    1.0464019   -3.7601184    1117.3553   0.07070079  0.070620358            3 
 1318000    1.0282471   -3.7491977    1112.8976  0.070365299  0.070609199            1 
 1319000    1.0686844    -3.756989    1116.7403  0.070554729   0.07059817            5 
 1320000    1.0332893    -3.801563      1114.87  0.070383206  0.070586688            2 
 1321000     1.039004    -3.769555    1114.7258  0.070320831  0.070574665            2 
 1322000     1.065459   -3.7678687    1116.3741  0.070371538  0.070563118            5 
 1323000    1.0520747   -3.7488216     1121.674  0.070652181  0.070551616            5 
 1324000    1.0289077   -3.7690051    1115.9736   0.07024003  0.070539578            3 
 1325000    1.0535592    -3.756308    1116.8387  0.070241431  0.070527573            3 
 1326000    1.0325128   -3.7788815    1117.2257  0.070212776  0.070515602            3 
 1327000    1.0261074   -3.7636378    1119.2545  0.070287269  0.070503344            2 
 1328000    1.0512528   -3.7564084    1115.6757   0.07000977  0.070490963            2 
 1329000    1.0412561   -3.7672627    1118.8657  0.070157117  0.070478361            2 
 1330000    1.0189975   -3.7419373    1116.7248  0.069970227  0.070465859            1 
 1331000    1.0495252   -3.7473058    1116.6784  0.069914749  0.070452767            5 
 1332000    1.0353973   -3.7745574    1119.8596  0.070061288  0.070440068            4 
 1333000    1.0383799   -3.7735712    1118.2424  0.069907628  0.070427263            4 
 1334000    1.0361337   -3.7669346    1120.5554  0.069999712  0.070414178            2 
 1335000    1.0706587   -3.7473093    1118.3474  0.069809451  0.070401329            3 
 1336000    1.0380621   -3.7743108    1115.9927  0.069610326  0.070388319            2 
 1337000    1.0490574   -3.7352101    1115.5406  0.069530082  0.070375625            4 
 1338000    1.0404416   -3.7448045    1128.7393  0.070300156  0.070363023            1 
 1339000    1.0371179   -3.7581996    1126.0988  0.070083323  0.070350694            2 
 1340000    1.0624444   -3.7628435    1127.0687  0.070091337  0.070338286            3 
 1341000    1.0426349   -3.7381299    1127.8729  0.070089044  0.070325663            2 
 1342000    1.0318829   -3.7540458    1126.5732  0.069956113   0.07031307            4 
 1343000    1.0413876    -3.788426    1121.3807  0.069581826  0.070300437            3 
 1344000    1.0245386   -3.7419551    1131.6714  0.070168116  0.070288118            2 
 1345000    1.0172272   -3.7583301    1133.5566  0.070232751  0.070275786            4 
 1346000    1.0491994   -3.7705476    1126.1485   0.06972192  0.070263676            1 
 1347000    1.0307192   -3.7506396    1133.8988  0.070149641  0.070251103            2 
 1348000     1.053728   -3.7723397    1131.0889  0.069923892  0.070238621            2 
 1349000    1.0349641   -3.8026838    1124.8895    0.0694891  0.070225751            3 
 1350000    1.0381781   -3.7730097    1126.5059  0.069537398  0.070212502            1 
 1351000    1.0312153   -3.7881646    1130.1598  0.069711312  0.070199432            3 
 1352000    1.0566412    -3.769479    1131.6684  0.069752738  0.070186023            1 
 1353000    1.0592964   -3.7501375    1136.0778  0.069972763   0.07017301            2 
 1354000    1.0757471   -3.7475027    1127.2598  0.069378373  0.070159668            1 
 1355000    1.0339539   -3.7580647    1129.9799  0.069494456  0.070146421            3 
 1356000    1.0169253   -3.7569695    1134.3738  0.069713239   0.07013331            3 
 1357000    1.0504171   -3.7725834    1130.8708  0.069446745  0.070119683            4 
 1358000    1.0297724   -3.7847118    1131.4648   0.06943206  0.070106258            1 
 1359000    1.0242815   -3.7704048    1134.9751  0.069596219  0.070092725            3 
 1360000    1.0329239   -3.7727657    1138.1737  0.069741034  0.070079725            2 
 1361000    1.0289753   -3.7924051    1134.2815  0.069451478  0.070066684            3 
 1362000    1.0232359   -3.7405688    1137.9689  0.069626098  0.070054064            5 
 1363000    1.0430365   -3.7880946    1136.6523  0.069494518  0.070041229            3 
 1364000    1.0583567   -3.7741893    1136.4127  0.069428931  0.070028375            5 
 1365000    1.0557721   -3.7780536     1138.465  0.069503358  0.070015247            2 
 1366000    1.0254679   -3.7462146    1149.1826   0.07010631  0.070002885            2 
 1367000    1.0210076   -3.7542933    1142.5297   0.06964946  0.069989697            2 
 1368000    1.0340832   -3.7752235     1139.747  0.069429036  0.069976638            4 
 1369000    1.0245226   -3.7804558    1144.7547  0.069683148  0.069963586            3 
 1370000     1.055507    -3.765157    1141.4482  0.069431159  0.069950415            2 
 1371000    1.0241559   -3.7792249    1139.6608  0.069271872  0.069937412            2 
 1372000    1.0428212   -3.7581747    1146.4961  0.069636549  0.069924431            2 
 1373000    1.0225139   -3.7352552    1145.8081   0.06954407  0.069911468            3 
 1374000    1.0221506   -3.7721724    1142.0515  0.069265617  0.069898454            2 
 1375000     1.051449   -3.7684823    1143.3014  0.069290993  0.069885071            3 
 1376000    1.0498737   -3.7864289     1144.043  0.069285549   0.06987157            2 
 1377000    1.0580656   -3.7869606    1144.5051  0.069263199  0.069858057            1 
 1378000    1.0249406   -3.7559497    1143.8358   0.06917246   0.06984453            4 
 1379000    1.0157871   -3.7731606    1146.3741  0.069275688  0.069830812            3 
 1380000    1.0556422   -3.7839052    1148.6738  0.069364362  0.069817394            5 
 1381000    1.0198306   -3.7769442    1145.9004  0.069146775  0.069803899            3 
 1382000    1.0072878   -3.7914023    1145.5371  0.069074839  0.069790562            4 
 1383000    1.0278143   -3.8060457    1148.1709  0.069183595  0.069777267            2 
 1384000    1.0254529   -3.7680574    1151.3552  0.069325338   0.06976385            2 
 1385000    1.0331266   -3.7749168    1146.9748  0.069011723  0.069750388            1 
 1386000    1.0316312   -3.7583785    1153.4046  0.069348523  0.069736774            6 
 1387000    1.0227162   -3.7705122    1154.2618  0.069350025   0.06972314            2 
 1388000    1.0276256   -3.7612453    1153.3511  0.069245385  0.069709612            3 
 1389000    1.0285359   -3.7615651     1153.137  0.069182683  0.069695852            5 
 1390000    1.0109419   -3.7915444    1148.4184  0.068850024  0.069682152            3 
 1391000    1.0268176   -3.7748967    1155.1036   0.06920103  0.069668541            3 
 1392000    1.0332326   -3.7446374    1157.4976  0.069294637  0.069655133            7 
 1393000    1.0389487   -3.7763668    1150.7559  0.068841581  0.069641336            3 
 1394000    1.0340275   -3.7499935    1152.6871  0.068907643  0.069627902            3 
 1395000    1.0226598   -3.7533728     1151.223   0.06877079  0.069613992            3 
 1396000    1.0112354   -3.7615891     1152.493   0.06879734  0.069600418            3 
 1397000    1.0285521   -3.7689896    1155.1764  0.068908158  0.069587017            2 
 1398000     1.042281   -3.7813176    1157.2611  0.068983134  0.069572916            3 
 1399000    1.0218385   -3.7540009    1157.1708  0.068928446  0.069559017            3 
 1400000    1.0216728   -3.7803801    1153.4876  0.068659978  0.069544887            2 
 1401000      1.03473   -3.7857639    1155.6734  0.068740985  0.069530532            2 
 1402000    1.0536815   -3.7769402     1155.336  0.068671899  0.069516759            2 
 1403000    1.0361195   -3.7981267    1154.4605  0.068570952  0.069502794            4 
 1404000     1.041062   -3.7618365    1162.9659  0.069026942  0.069488625            3 
 1405000    1.0172157     -3.78132    1160.2798  0.068818495  0.069474756            4 
 1406000    1.0314799   -3.7802068    1163.7013  0.068972336  0.069460827            3 
 1407000    1.0323142   -3.7643703     1160.814  0.068752311  0.069446934            2 
 1408000    1.0225172   -3.7587062    1160.8363  0.068704802  0.069433444            2 
 1409000    1.0376179   -3.7659745    1162.7329   0.06876821  0.069419861            3 
 1410000    1.0348071   -3.7857787    1164.5875  0.068829046  0.069405843            3 
 1411000    1.0171695   -3.7962359    1162.6473  0.068665678  0.069391897            4 
 1412000    1.0140793   -3.7596748    1169.3924   0.06901513  0.069377805            4 
 1413000    1.0113758   -3.7689209    1165.5376  0.068738948  0.069363673            5 
 1414000    1.0115785    -3.777778    1161.6145  0.068459128  0.069349368            2 
 1415000    1.0344852   -3.7528907    1166.7053   0.06871056  0.069335282            1 
 1416000    1.0327233   -3.7636056    1166.1316  0.068628274  0.069321186            2 
 1417000    1.0231261    -3.769312    1167.1149  0.068637669  0.069307147            2 
 1418000    1.0148792    -3.824524     1164.592  0.068440997  0.069293041            2 
 1419000    1.0125878   -3.7685606    1168.8629  0.068643584  0.069279064            3 
 1420000    1.0330404   -3.7721274    1171.0135   0.06872145  0.069265299            5 
 1421000    1.0309465    -3.787774    1171.2861  0.068689076   0.06925106            4 
 1422000    1.0235957   -3.7629928    1171.5254  0.068654795   0.06923693            5 
 1423000    1.0055584    -3.796864    1165.3137  0.068242781  0.069223021            3 
 1424000     1.017129   -3.8210295    1171.7725  0.068572828  0.069208815            2 
 1425000    1.0495608   -3.8016326    1170.0224   0.06842236  0.069194701            5 
 1426000    1.0364389   -3.7718043    1174.1276  0.068614283  0.069181207            2 
 1427000    1.0074435   -3.8042881    1172.2997  0.068459453  0.069167396            4 
 1428000    1.0007467   -3.7693641    1176.7675   0.06867224  0.069153951            3 
 1429000    1.0232513   -3.8148445    1173.5016  0.068433732  0.069140484            3 
 1430000     1.040499   -3.8130749    1177.8029  0.068636533  0.069126816            2 
 1431000    1.0249412   -3.7966719    1179.1682  0.068668078  0.069112836            4 
 1432000    1.0383044    -3.812232    1178.6726  0.068591285  0.069099154            2 
 1433000    1.0167273   -3.7772456    1180.9439  0.068675501  0.069085617            3 
 1434000    1.0139332   -3.7773364    1178.3878  0.068479065  0.069071625            6 
 1435000    1.0300523   -3.7773705    1180.1955  0.068536325  0.069058502            2 
 1436000    1.0305547   -3.7989411    1182.1759  0.068603523   0.06904474            2 
 1437000     1.024649   -3.7649028    1183.5272  0.068634148  0.069031212            4 
 1438000    1.0241657   -3.7763035    1186.1514  0.068738488  0.069017795            7 
 1439000   0.98639269   -3.7628159    1187.3317  0.068759076  0.069003855            3 
 1440000   0.99349577   -3.8105288    1181.5086  0.068374341  0.068990046            5 
 1441000    1.0247635   -3.7742283    1186.2432  0.068600697  0.068976085            4 
 1442000    1.0084051   -3.7973628     1181.583  0.068283805   0.06896196            2 
 1443000    1.0432455     -3.79684    1176.2058  0.067925953  0.068947626            3 
 1444000    1.0282619   -3.7962014    1184.7854  0.068374043   0.06893366            2 
 1445000    1.0168484   -3.8067079    1184.8383  0.068329774  0.068919829            4 
 1446000    1.0312751   -3.7577593    1187.0448  0.068409684  0.068906292            3 
 1447000    1.0112556   -3.7743168     1185.849  0.068293539  0.068892508            2 
 1448000    1.0026195   -3.8052667    1181.6653  0.068005597  0.068879138            7 
 1449000    1.0382408   -3.7517585    1188.7117  0.068363909  0.068865449            4 
 1450000    1.0084295   -3.7650259    1190.0556  0.068393998  0.068851636            5 
 1451000    1.0180695     -3.80116    1189.6497  0.068323552     0.068838            1 
 1452000    1.0145973   -3.8022464    1189.4235  0.068263516  0.068824375            2 
 1453000    1.0033752   -3.7836691    1189.1405  0.068200305  0.068811052            5 
 1454000    1.0248393   -3.7781715    1191.9176  0.068312562  0.068797546            4 
 1455000    1.0566429   -3.8016695    1188.0844  0.068046069  0.068784202            3 
 1456000   0.99333875    -3.805973    1194.3244  0.068356476  0.068770812            5 
 1457000    1.0183896   -3.7690536    1194.6321  0.068327163  0.068757148            4 
 1458000    1.0119714   -3.7802645    1190.6406   0.06805216  0.068743872            2 
 1459000    1.0326702   -3.8024982    1195.3558  0.068274832  0.068730497            2 
 1460000    1.0189959   -3.8169209    1193.2393  0.068107267  0.068716901            1 
 1461000    1.0174445   -3.8251177     1191.142   0.06794102  0.068703313            4 
 1462000    1.0285452   -3.7926858    1199.7499  0.068385198  0.068689619            5 
 1463000     1.052446   -3.7773334    1197.2769  0.068197589  0.068676075            2 
 1464000    1.0068555   -3.7619992    1202.7539  0.068462767  0.068662843            3 
 1465000    1.0360771   -3.7971272    1200.7896  0.068304303  0.068649716            3 
 1466000    1.0230752   -3.7942641    1193.9057  0.067866398  0.068636118            3 
 1467000   0.99424843   -3.7928046    1200.1186  0.068173066  0.068622659            5 
 1468000    1.0222353   -3.8230151    1201.0217  0.068177887  0.068609191            1 
 1469000    1.0076655    -3.767345    1203.4862  0.068271285  0.068595702            2 
 1470000    1.0183512    -3.784068    1204.5472  0.068284991  0.068582705            4 
 1471000    1.0165334   -3.8087354    1196.6398  0.067790605  0.068569575            4 
 1472000   0.98762704   -3.8004007    1197.3078   0.06778237  0.068555721            2 
 1473000    1.0383636   -3.8004581    1198.3776  0.067796877  0.068542087            1 
 1474000    1.0026697   -3.7866801    1200.1384   0.06785043  0.068528005            2 
 1475000    1.0386087   -3.8071731    1201.2293  0.067866061  0.068513967            2 
 1476000   0.98264105   -3.7948403    1207.1184  0.068152572  0.068500144            1 
 1477000    1.0355947   -3.8270255     1202.815   0.06786363  0.068486599            2 
 1478000    1.0128246    -3.804439     1203.768  0.067871445  0.068472473            3 
 1479000    1.0260429   -3.7844524    1205.3516  0.067914783  0.068459034            2 
 1480000     1.008479   -3.7808419    1206.1295  0.067912695  0.068445489            3 
 1481000     1.035865   -3.7967505    1203.7674   0.06773393  0.068431983            2 
 1482000    1.0428036   -3.8021394      1205.25  0.067771595  0.068418436            4 
 1483000   0.99881001   -3.7688405    1213.1768  0.068171321  0.068404867            3 
 1484000     1.006172   -3.7813728    1210.7547  0.067989371  0.068391163            2 
 1485000    1.0197418    -3.796653     1211.311  0.067974801  0.068377411            3 
 1486000   0.99500278   -3.7991345    1215.2929  0.068152362  0.068364442            2 
 1487000    1.0203051   -3.7942525    1211.5245  0.067895345  0.068351322            4 
 1488000   0.99726498   -3.7930068    1210.0512  0.067767202  0.068338015            3 
 1489000   0.99828263   -3.7854125    1214.9967   0.06799847  0.068324769            3 
 1490000    1.0140489   -3.7952651    1216.4615  0.068034759  0.068311848            2 
 1491000    1.0213025   -3.7855456    1216.3115  0.067980744  0.068298957            2 
 1492000    1.0129816   -3.7778363    1214.4823  0.067833013  0.068285743            6 
 1493000    1.0050162   -3.8154095    1214.8382  0.067807443  0.068272178            2 
 1494000    1.0003121   -3.7991987    1220.8802  0.068099077  0.068258956            6 
 1495000   0.99301651   -3.7955008     1220.045  0.068006967   0.06824611            5 
 1496000   0.99623768   -3.7725356    1221.9636  0.068068384  0.068232988            4 
 1497000    1.0346702   -3.8200818     1222.569  0.068056615  0.068220674            2 
 1498000    1.0180842   -3.8270133    1218.5767  0.067789091  0.068207678            3 
 1499000     1.014783   -3.7890013    1221.9612  0.067932023  0.068195027            4 
 1500000    1.0255724    -3.774526    1227.7824  0.068210133  0.068183037            3 
 1501000   0.99622411   -3.7858889    1224.9021  0.068004779  0.068170771            4 
 1502000    1.0159936   -3.7885087    1224.1332  0.067916846  0.068158571            2 
 1503000    1.0289339   -3.8061254    1228.4634  0.068111745  0.068146482            5 
 1504000    1.0222374   -3.8202149    1221.2098  0.067664551  0.068133915            4 
 1505000    1.0063986   -3.7997014    1225.7833  0.067872828   0.06812143            1 
 1506000    1.0170481   -3.8138916    1225.4222   0.06780778  0.068109287            3 
 1507000    1.0267384   -3.7967318    1224.7605  0.067726194  0.068096645            2 
 1508000    1.0193158   -3.8063882     1224.419  0.067662414  0.068083668            1 
 1509000    1.0169262   -3.8159856    1225.9644  0.067702918  0.068070833            5 
 1510000    1.0087925   -3.8169634    1226.0969   0.06766539  0.068057738            2 
 1511000    1.0052906   -3.7823346    1229.5707  0.067812196  0.068044863            3 
 1512000    1.0245578   -3.7767159    1231.7621  0.067888121   0.06803225            1 
 1513000    1.0179563   -3.7861199    1231.5871  0.067833613   0.06801974            2 
 1514000    1.0216426   -3.7780899    1237.1511   0.06809506    0.0680073            3 
 1515000    1.0214801   -3.8391382    1229.6394  0.067636931  0.067994851            3 
 1516000    1.0036411    -3.803563    1233.5806  0.067808961  0.067982599            3 
 1517000   0.99203638   -3.8042607     1232.909  0.067727366  0.067970048            3 
 1518000    0.9847315   -3.8157764    1233.9274  0.067738659  0.067957847            6 
 1519000   0.97558171   -3.8257369    1233.6346  0.067677999  0.067945611            3 
 1520000   0.99093315   -3.7805625    1238.0365   0.06787481  0.067933194            2 
 1521000    1.0087917   -3.8025287    1233.7445   0.06759503  0.067920852            3 
 1522000   0.99461012   -3.8274272    1232.4123  0.067477678  0.067908556            3 
 1523000    1.0085997   -3.8032558    1237.4082  0.067706731  0.067895859            3 
 1524000    1.0231024   -3.8033723    1238.6132  0.067728195  0.067883329            2 
 1525000    1.0225885   -3.7981735    1236.8405  0.067586911  0.067870838            4 
 1526000    1.0048459   -3.7910236    1242.9719   0.06787745  0.067858548            2 
 1527000    1.0181669   -3.7671707    1244.2916  0.067905018  0.067846203            2 
 1528000   0.99825171   -3.7905512    1237.8725  0.067510499  0.067833815            2 
 1529000    1.0206638   -3.7746463    1244.3463  0.067819177  0.067821348            2 
 1530000    1.0114399   -3.7884701    1243.5193   0.06772981  0.067809423            4 
 1531000    1.0212218   -3.7825384    1241.2644  0.067562834  0.067797021            7 
 1532000   0.99584812   -3.8098841    1245.8529  0.067768324   0.06778488            3 
 1533000   0.99845948   -3.8316741    1238.3587  0.067316738   0.06777231            3 
 1534000    1.0007859   -3.7817826    1239.0103  0.067308251  0.067759714            3 
 1535000    1.0061902   -3.8564331    1244.6703  0.067571678  0.067747885            2 
 1536000    1.0191334    -3.822181    1242.0098  0.067383345  0.067735864            3 
 1537000    1.0159185   -3.8152665    1246.5202   0.06758405  0.067723411            4 
 1538000    1.0234674    -3.825364    1246.2874   0.06752749  0.067711186            4 
 1539000   0.99984646   -3.7979782    1247.3941   0.06754354  0.067698862            3 
 1540000    1.0099604   -3.8405644    1246.8341  0.067469376  0.067686481            4 
 1541000    1.0179828   -3.8018191    1247.7321  0.067474158  0.067674069            2 
 1542000    1.0249172   -3.7980184    1243.0665   0.06717826  0.067662068            5 
 1543000    1.0145817    -3.839632    1247.1348  0.067354439  0.067649614            4 
 1544000    1.0004577    -3.825127      1248.13   0.06736453  0.067637302            3 
 1545000    1.0150897   -3.7974247      1249.37  0.067387809   0.06762493            2 
 1546000    1.0086703   -3.8176903    1245.4569  0.067133295  0.067612814            4 
 1547000    1.0177861   -3.7957355    1254.2387  0.067562954  0.067600696            3 
 1548000    0.9940701   -3.8253441    1252.8236   0.06744313  0.067588791            3 
 1549000   0.98247273   -3.8152129    1250.7892  0.067290144   0.06757724            2 
 1550000    1.0142057   -3.7987878    1253.5259  0.067393865  0.067565355            2 
 1551000    1.0059749   -3.8217152    1255.9039  0.067478181  0.067553681            2 
 1552000   0.98307895   -3.8173794    1250.9693  0.067169745   0.06754157            4 
 1553000    1.0005637   -3.8106225    1256.4498  0.067420575  0.067529929            3 
 1554000   0.98732595   -3.8269722    1253.8293  0.067236665  0.067518238            3 
 1555000    1.0002502   -3.8435803    1261.3089  0.067594262  0.067506449            5 
 1556000    1.0105085   -3.8197249    1258.1906  0.067383816  0.067494918            3 
 1557000   0.98900598   -3.7819985    1261.8272  0.067535173  0.067483111            3 
 1558000    1.0168434   -3.8347395    1257.9908  0.067286626  0.067471479            2 
 1559000   0.99686835   -3.8171979    1266.9148  0.067720482  0.067459772            2 
 1560000   0.99864059   -3.8145322    1262.2148  0.067426005  0.067448042            3 
 1561000   0.99857753   -3.8152689    1265.8654  0.067577696  0.067436043            3 
 1562000    1.0210158   -3.7912966    1257.5322  0.067089854  0.067423985            3 
 1563000   0.98862796   -3.8112312    1264.0454  0.067394187  0.067411828            2 
 1564000     1.025574   -3.8089627    1263.5283  0.067323545   0.06740003            2 
 1565000   0.99973408    -3.830392      1264.29  0.067321088  0.067388139            3 
 1566000   0.98726722   -3.8554197      1261.72  0.067141336  0.067376211            2 
 1567000     1.011134   -3.8191411    1259.0316  0.066955521  0.067364449            3 
 1568000    1.0120452   -3.8104609    1265.2501  0.067243309  0.067352515            5 
 1569000   0.99617141   -3.8055477     1271.975  0.067557626  0.067340743            6 
 1570000   0.99533238   -3.8153722    1265.5618  0.067174194  0.067328829            3 
 1571000   0.99924929   -3.8101805    1264.3548  0.067067412  0.067316754            1 
 1572000   0.96970248   -3.8127437    1266.1295  0.067118827  0.067304709            3 
 1573000    0.9815668   -3.8299924    1269.2835  0.067243244  0.067292579            4 
 1574000    1.0028533   -3.8091233    1267.5361  0.067108012  0.067280777            3 
 1575000    1.0084293   -3.8161932    1268.8931    0.0671372  0.067268635            5 
 1576000   0.98658047   -3.8510581    1269.0395  0.067102343  0.067256634            8 
 1577000    0.9893149   -3.8262832    1269.9197  0.067106307  0.067245045            2 
 1578000    1.0112935   -3.8177564    1272.8778  0.067219996  0.067233272            2 
 1579000    1.0130437   -3.8175824    1274.9887  0.067288828  0.067221284            5 
 1580000    0.9880462   -3.8211213     1269.346   0.06694863  0.067209608            3 
 1581000    1.0052132   -3.8593943    1269.4994  0.066914369  0.067197554            2 
 1582000    1.0028601   -3.8037047    1277.3754  0.067286947  0.067185819            3 
 1583000    1.0113723   -3.8079731     1280.477  0.067407715  0.067173956            2 
 1584000   0.98758109   -3.8418551    1272.3805  0.066939207  0.067162001            2 
 1585000    1.0231938   -3.8436792     1271.164  0.066833016  0.067149679            6 
 1586000   0.99985806   -3.8156136    1277.5631  0.067127106  0.067137467            4 
 1587000     1.016656   -3.8246234    1276.1721  0.067011769  0.067125351            3 
 1588000   0.98385584   -3.8410552    1276.8437  0.067004814    0.0671131            2 
 1589000    0.9903026   -3.8408362    1276.3039  0.066934335  0.067100824            4 
 1590000    1.0101043   -3.8202226    1275.1316  0.066830796  0.067088458            1 
 1591000    1.0086108   -3.8272393    1278.7569  0.066978676  0.067076282            4 
 1592000    0.9933212   -3.8298228    1278.2779  0.066911533  0.067064094            4 
 1593000   0.99115916   -3.8108915    1281.5107  0.067038644  0.067052204            2 
 1594000   0.99791555   -3.8488618    1280.7289  0.066955713  0.067040456            2 
 1595000    1.0094788   -3.7997836    1284.8124  0.067127086  0.067028684            2 
 1596000   0.99155506   -3.8081048    1285.3296  0.067112031  0.067016805            3 
 1597000     1.005558   -3.8182678    1279.6761     0.066775  0.067004992            2 
 1598000    1.0239843    -3.796735    1278.1883  0.066655628   0.06699285            4 
 1599000    1.0036254   -3.8273331    1283.9609  0.066914786   0.06698096            2 
 1600000   0.98632872   -3.8096119    1279.7411  0.066653181  0.066968496            3 
 1601000   0.98948041   -3.8320435    1279.5937   0.06660388  0.066956178            2 
 1602000   0.99747704   -3.8225035    1280.9508  0.066632897  0.066943886            5 
 1603000   0.99317627   -3.8216264    1280.6074  0.066573477  0.066931577            6 
 1604000    0.9995742    -3.827759    1280.6385  0.066533586  0.066919081            7 
 1605000   0.99498284   -3.8434703    1283.9188  0.066662453  0.066907065            4 
 1606000   0.97393172   -3.8306301    1286.4425  0.066751895  0.066894732            2 
 1607000    1.0102823   -3.8433558    1284.5679  0.066613144  0.066882391            1 
 1608000   0.99991034   -3.8313507    1285.8012  0.066635633  0.066869753            5 
 1609000    1.0228201   -3.8193727     1287.384  0.066676199  0.066857686            4 
 1610000   0.98419582   -3.8318821    1287.1062  0.066620406    0.0668454            3 
 1611000   0.99343104   -3.8484933    1287.3275    0.0665905   0.06683363            3 
 1612000   0.99517092   -3.8449944    1290.5695  0.066716785  0.066821611            2 
 1613000    1.0011131   -3.8098869    1291.9175  0.066745068  0.066809675            2 
 1614000   0.99536983   -3.8168076    1291.1729  0.066665269  0.066798045            2 
 1615000   0.98662979   -3.8250645    1291.5467  0.066643274  0.066786106            3 
 1616000   0.99189918   -3.8339052    1296.6304  0.066864193  0.066774143            4 
 1617000   0.99776191   -3.8353826    1288.5115  0.066404428  0.066762238            2 
 1618000    1.0071738   -3.8249485    1290.4765   0.06646459  0.066750397            2 
 1619000   0.99040792   -3.8267382    1297.4773  0.066783883  0.066738521            1 
 1620000   0.99388248   -3.8265768    1298.6995  0.066805532  0.066726632            3 
 1621000    1.0058948   -3.8356387    1297.8016  0.066718156  0.066714523            3 
 1622000   0.99508302   -3.8343597     1297.929  0.066683571  0.066702735            2 
 1623000   0.99217554    -3.847161    1298.7385  0.066684049  0.066690542            5 
 1624000   0.98110257   -3.8487384    1295.5201  0.066477839  0.066678673            2 
 1625000    1.0040681   -3.8066669    1300.4053  0.066687453  0.066666947            4 
 1626000    1.0072716    -3.842323    1292.4598  0.066239228  0.066655074            3 
 1627000    1.0151173   -3.8275789    1295.2498  0.066341417  0.066643426            3 
 1628000   0.98027266   -3.8333582    1299.2444  0.066505139  0.066631842            2 
 1629000    1.0029853   -3.8117487    1303.1895  0.066666132   0.06661999            4 
 1630000   0.97414944   -3.8315213    1304.0611  0.066669791  0.066608144            3 
 1631000    1.0093864   -3.8184408    1302.1617  0.066531868  0.066595862            2 
 1632000    1.0028693   -3.8199426    1302.4106  0.066503809  0.066584003            2 
 1633000   0.98918331   -3.8681817    1302.3861  0.066461833  0.066572056            1 
 1634000   0.99455992   -3.8362898    1303.9832  0.066502609  0.066560251            3 
 1635000   0.99283959   -3.8395978    1303.9013  0.066457764  0.066548161            2 
 1636000   0.98229001   -3.8086891    1302.6779  0.066354822  0.066536093            3 
 1637000    1.0047223   -3.8333173    1308.8616  0.066629079   0.06652406            3 
 1638000   0.98463861   -3.8219029    1303.6931  0.066325453  0.066512076            2 
 1639000   0.98178209   -3.8325471    1306.3329  0.066419205  0.066499541            2 
 1640000    1.0016392   -3.8265658    1304.4268  0.066281848   0.06648737            2 
 1641000   0.99427569   -3.8106378    1311.0522  0.066577907    0.0664753            2 
 1642000   0.97669733   -3.8218547    1305.0897  0.066234758  0.066462956            3 
 1643000    1.0010819   -3.8374485    1309.0826  0.066396969  0.066450256            3 
 1644000    1.0140998   -3.8553303    1301.5879  0.065976676  0.066437972            5 
 1645000   0.97387874    -3.840725    1305.8248  0.066151204  0.066425665            1 
 1646000    1.0010329   -3.8383473    1305.3388  0.066086409  0.066413397            3 
 1647000   0.98558015    -3.844377    1310.1182  0.066288107  0.066401217            2 
 1648000   0.98523594   -3.8254301    1310.4945  0.066266912  0.066389077            2 
 1649000   0.99184096   -3.7832622    1311.2781  0.066266327  0.066377242            3 
 1650000   0.99810974   -3.8328872    1313.1734  0.066321891  0.066365355            2 
 1651000   0.98445539   -3.8304442    1313.1446  0.066280264  0.066353148            2 
 1652000   0.96424335   -3.8185821     1317.768  0.066473367  0.066341442            2 
 1653000   0.99271644    -3.831731    1315.1821  0.066302787  0.066329758            3 
 1654000    1.0129556   -3.8575622    1312.9399  0.066149735  0.066318147            3 
 1655000   0.99958292    -3.857574    1312.1302  0.066068993  0.066306246            4 
 1656000    1.0077553   -3.8256674    1315.6748  0.066207468  0.066294575            4 
 1657000    1.0198387   -3.8406695    1319.5724  0.066363528  0.066282889            3 
 1658000   0.96128794   -3.8308035    1317.9587  0.066242394  0.066271066            2 
 1659000   0.98169956    -3.861505    1312.7844  0.065942556  0.066259113            3 
 1660000   0.97930917   -3.8545384    1316.8076  0.066104797  0.066247437            2 
 1661000   0.98274453   -3.8166638    1319.1115  0.066180591  0.066235824            2 
 1662000   0.97553169   -3.8688993    1319.2094  0.066145678  0.066223781            2 
 1663000    1.0003434   -3.7993241    1318.7511  0.066082938  0.066212035            3 
 1664000   0.97767565   -3.8335218     1315.889  0.065899889  0.066200113            5 
 1665000   0.97888273   -3.8126972    1322.9844  0.066215434  0.066188338            1 
 1666000   0.97849946   -3.8694418    1311.8405   0.06561827  0.066176218            2 
 1667000   0.99575397   -3.8294038    1323.1509  0.066144318  0.066163809            2 
 1668000    0.9754445   -3.8185318     1325.152  0.066204636  0.066151824            3 
 1669000   0.96790214   -3.8375943    1327.1309  0.066263776  0.066139945            2 
 1670000   0.98865201   -3.8610647    1321.1047  0.065923386  0.066127901            4 
 1671000   0.97164056   -3.8205623    1330.0787  0.066331474  0.066115965            2 
 1672000   0.99267017   -3.8277642    1327.6007  0.066168295  0.066104142            3 
 1673000   0.99057607   -3.8104752    1327.1711  0.066107345  0.066092475            3 
 1674000   0.99508709   -3.8647433    1326.3464  0.066026801  0.066080428            3 
 1675000   0.97152937    -3.828533    1322.8452  0.065813194   0.06606889            2 
 1676000   0.98338452   -3.8803172    1324.7958  0.065870913  0.066057015            4 
 1677000   0.97199677    -3.866345    1325.1002  0.065846758   0.06604476            6 
 1678000   0.99286312   -3.8306266    1333.3384  0.066216648  0.066032921            2 
 1679000   0.98480839   -3.8695423     1328.007  0.065912596  0.066021094            5 
 1680000   0.98257968   -3.8087858     1336.618  0.066300495   0.06600938            2 
 1681000   0.95537672   -3.8766408    1328.1951  0.065843503  0.065997577            2 
 1682000   0.95948504    -3.839054    1329.0994  0.065849158  0.065985851            3 
 1683000    1.0069719   -3.8550713    1330.0009  0.065854671  0.065974208            6 
 1684000   0.99480572   -3.8179231    1331.3421  0.065881933  0.065962389            2 
 1685000   0.97237957    -3.820906    1337.6708  0.066155827  0.065950881            2 
 1686000   0.97905095   -3.8565066    1335.4781   0.06600821  0.065939119            2 
 1687000   0.99563925   -3.8284634    1337.6018  0.066073985  0.065927544            3 
 1688000   0.97776909   -3.8389179    1336.0512  0.065958296  0.065916298            3 
 1689000   0.98373005   -3.8536933    1337.8083  0.066005933  0.065904851            2 
 1690000   0.96910921   -3.8493895    1337.4151  0.065947491  0.065893366            4 
 1691000   0.95778769   -3.8257735    1338.1293  0.065943689  0.065881796            6 
 1692000   0.97639187   -3.8445508    1336.7225  0.065835427  0.065870521            2 
 1693000     0.973989   -3.8450068    1339.6513  0.065940701  0.065859286            2 
 1694000   0.98068556   -3.8489271    1343.7716  0.066104465  0.065848004            2 
 1695000   0.97741447   -3.8653715     1340.748  0.065916814  0.065836705            3 
 1696000    1.0012607   -3.8687762    1339.7553   0.06582917  0.065825626            8 
 1697000   0.98640724   -3.8538271    1348.7751  0.066233309  0.065814663            2 
 1698000   0.95575995   -3.8499981    1339.5772  0.065742894  0.065803516            4 
 1699000   0.99214067   -3.8604919    1343.3709  0.065890276  0.065792433            2 
 1700000   0.98397665   -3.8730572      1342.81  0.065824019  0.065781509            3 
 1701000   0.99311134   -3.8461515    1342.8365  0.065786621  0.065770257            2 
 1702000   0.99323652    -3.861952    1346.2221  0.065913733  0.065759066            4 
 1703000   0.98125341   -3.8681491    1347.1209   0.06591901  0.065747939            3 
 1704000   0.97296733   -3.8547247    1346.8815  0.065868617  0.065737061            2 
 1705000   0.98733534   -3.8533119    1342.4935  0.065615518  0.065726005            5 
 1706000   0.97756447   -3.8296417    1348.7484  0.065882591  0.065714779            2 
 1707000   0.97971145   -3.8781326    1349.4393  0.065877722  0.065703723            2 
 1708000   0.98980605   -3.8575774     1347.483  0.065743705  0.065692414            1 
 1709000   0.96625384   -3.8666929    1349.0182  0.065780094  0.065681116            3 
 1710000   0.96841158   -3.8691423      1345.13  0.065552146  0.065669713            3 
 1711000   0.96021621   -3.8579544    1344.8214    0.0654988  0.065658366            4 
 1712000   0.97794078   -3.8419102    1356.8571  0.066046395   0.06564735            2 
 1713000   0.95725205   -3.8653193    1349.3508  0.065642673  0.065636258            4 
 1714000   0.98048697   -3.8506311      1350.18  0.065644689  0.065625131            2 
 1715000   0.98543355    -3.830612    1349.6954  0.065582866  0.065613926            2 
 1716000   0.99255465   -3.8463788    1351.7313  0.065643516  0.065602845            2 
 1717000   0.97636597   -3.8450983    1358.4576  0.065931741  0.065591767            4 
 1718000   0.98754745   -3.8830872    1355.1633   0.06573357  0.065580574            3 
 1719000   0.97587751   -3.8318335    1357.5747  0.065812232  0.065569478            2 
 1720000   0.97546824   -3.8558634    1353.9109   0.06559646  0.065558177            4 
 1721000   0.97528421    -3.896472    1351.7034  0.065451452  0.065547027            6 
 1722000   0.97893426   -3.8566853    1358.3247  0.065733869  0.065536017            4 
 1723000   0.99388897   -3.9064185    1353.1313  0.065444541  0.065524856            3 
 1724000   0.98600731   -3.8669137    1352.4734  0.065374779  0.065513302            4 
 1725000   0.98696344   -3.8554846    1356.3835  0.065525773   0.06550186            2 
 1726000   0.96877963    -3.859233    1362.9674  0.065805686  0.065490755            1 
 1727000    0.9816423    -3.866964    1362.1985  0.065730483  0.065479516            2 
 1728000   0.96515496    -3.858232    1355.5003  0.065369418  0.065468575            2 
 1729000   0.96569142   -3.8832994    1359.2646  0.065513041  0.065457418            3 
 1730000   0.97688319   -3.8918902    1362.9826  0.065654269  0.065446339            4 
 1731000   0.98712836   -3.8648812    1362.5332  0.065594707  0.065435401            4 
 1732000   0.97311168   -3.8795409    1361.7106  0.065517252   0.06542438            1 
 1733000   0.97925075   -3.8548212    1362.2474   0.06550526  0.065413203            3 
 1734000   0.97267066   -3.8465653    1366.8419   0.06568829  0.065402427            3 
 1735000   0.96051541   -3.8777531    1364.5842   0.06554199  0.065391405            5 
 1736000   0.96588153   -3.8554832    1365.7776  0.065561518  0.065380208            7 
 1737000   0.97589052    -3.926414    1364.3387  0.065454743  0.065369547            3 
 1738000   0.96731838   -3.8889164     1366.168  0.065504792  0.065358626            3 
 1739000   0.99444755   -3.8562701    1371.2642  0.065711337  0.065347759            3 
 1740000   0.98834231   -3.8730456    1361.5382  0.065207769  0.065337253            3 
 1741000   0.99695991    -3.845661    1367.0825  0.065435692  0.065326343            2 
 1742000   0.95058535    -3.854799    1374.6622  0.065760725  0.065315629            3 
 1743000   0.95307678   -3.8665738    1368.7708  0.065441325   0.06530479            4 
 1744000   0.98522625   -3.8671308    1366.0919    0.0652758  0.065293817            4 
 1745000   0.97860888   -3.8384843    1370.9664  0.065471176  0.065283203            1 
 1746000   0.94933488   -3.8941364    1370.2725  0.065400559  0.065272473            3 
 1747000   0.98031611   -3.8668809    1370.7456  0.065385691  0.065261466            3 
 1748000   0.96936101   -3.8358998    1373.6404   0.06548629  0.065250414            3 
 1749000   0.95751891   -3.8487566    1375.5367  0.065539198  0.065239232            7 
 1750000   0.98917016   -3.8591419    1375.7992  0.065514249  0.065228517            2 
 1751000   0.96216603   -3.8792284    1372.7618  0.065332276  0.065217989            4 
 1752000   0.95156428   -3.8231336    1379.7985  0.065629684  0.065207327            3 
 1753000   0.98187694   -3.8508591      1378.62  0.065536223  0.065196739            3 
 1754000   0.98576971   -3.8668057     1374.902  0.065322215  0.065186139            4 
 1755000   0.96013698   -3.8642648    1375.7365  0.065324619  0.065175333            4 
 1756000   0.97817381   -3.8625333    1378.3183  0.065409941  0.065164458            4 
 1757000   0.98004601   -3.8716313    1377.7875  0.065347539  0.065153207            6 
 1758000   0.97882932   -3.8501181    1380.2159  0.065425481  0.065142784            4 
 1759000   0.94836227   -3.8414657    1383.1029  0.065525058  0.065132218            4 
 1760000   0.97771285   -3.8572847    1372.4552  0.064983675  0.065121312            3 
 1761000   0.95157644   -3.8463674    1386.0016  0.065587812  0.065110869            5 
 1762000   0.95598406   -3.8684297    1382.3631  0.065378505  0.065100481            3 
 1763000   0.97190283   -3.8341726    1383.3493  0.065388034   0.06509018            2 
 1764000   0.99037117   -3.9097872    1381.3034  0.065254318  0.065079353            3 
 1765000   0.96878203    -3.865494    1388.8491  0.065573613   0.06506861            3 
 1766000   0.96275256   -3.8541736    1388.2432   0.06550789  0.065057813            2 
 1767000   0.95240993   -3.8636783    1385.1316  0.065324073  0.065047428            6 
 1768000   0.98225214    -3.884175     1392.118   0.06561642  0.065036736            4 
 1769000   0.98707202   -3.8868829    1383.6956   0.06518257  0.065026227            1 
 1770000   0.97256192   -3.8374774    1388.4547  0.065369805  0.065016023            4 
 1771000    1.0136672   -3.8735495     1388.249  0.065323218  0.065005494            5 
 1772000   0.98397401   -3.8502846    1387.2549  0.065239604  0.064994973            5 
 1773000   0.95041218   -3.8426087    1391.3159  0.065393679  0.064984482            3 
 1774000   0.93815346   -3.8527705    1393.9098  0.065478663  0.064973962            2 
 1775000   0.94535125   -3.8703912    1383.2286  0.064940309    0.0649632            4 
 1776000   0.99275142   -3.8787195    1389.1739   0.06518271   0.06495255            2 
 1777000   0.96444007    -3.876743    1390.6045  0.065213115  0.064941943            2 
 1778000   0.96094167   -3.8999477     1388.327  0.065069694   0.06493131            5 
 1779000   0.98268014   -3.8709458    1395.7913  0.065382766  0.064920718            2 
 1780000   0.96870418    -3.879846    1389.5629  0.065054442  0.064910128            2 
 1781000   0.98302637   -3.8810144    1394.0413  0.065227462  0.064899343            3 
 1782000   0.95341706   -3.8802271    1394.7552  0.065224241  0.064888523            5 
 1783000   0.96392344   -3.8765895    1395.5933   0.06522683  0.064877929            3 
 1784000   0.95340355   -3.8884609    1393.2575   0.06508116  0.064867231            2 
 1785000   0.95842664   -3.8637667    1394.4393  0.065099875  0.064856755            2 
 1786000   0.98247646   -3.8334118    1402.1757  0.065424399  0.064846615            2 
 1787000   0.97320715   -3.8479525    1398.5003   0.06521639  0.064836197            2 
 1788000   0.96412896   -3.8587204    1394.6174  0.064998945  0.064825604            1 
 1789000   0.97283558   -3.8815569    1396.2438  0.065038376  0.064814819            4 
 1790000   0.97731283    -3.868986    1397.2135  0.065047184  0.064804166            7 
 1791000   0.97784578    -3.839573     1398.586  0.065074726    0.0647933            4 
 1792000   0.98796961   -3.8571107    1398.4864  0.065033781  0.064782544            2 
 1793000    0.9621543   -3.8958115    1402.2108  0.065170607  0.064771788            3 
 1794000   0.96685799   -3.8663861    1401.4714  0.065099935  0.064761049            4 
 1795000   0.96406767   -3.8813749    1396.9027  0.064851565  0.064750231            4 
 1796000   0.99538904   -3.8615544    1395.3786  0.064744737  0.064739247            2 
 1797000   0.94852999   -3.8548637    1402.6465  0.065045748  0.064728352            2 
 1798000   0.93914221   -3.8897167    1399.8874  0.064881692  0.064717854            2 
 1799000   0.97575129   -3.8863027    1401.1434  0.064903807  0.064707121           16 
 1800000   0.95624717   -3.8668995    1400.4078  0.064833695   0.06469628            3 
 1801000   0.97018454   -3.8817144    1404.2244  0.064974291  0.064685399            3 
 1802000   0.96569941   -3.8476116    1403.8198  0.064919527  0.064674596            1 
 1803000   0.98017129   -3.8500357    1409.2375  0.065133921   0.06466392            3 
 1804000   0.94485002   -3.8792032    1403.2606  0.064821721  0.064653622            6 
 1805000   0.94597377   -3.8696717     1406.304  0.064926316   0.06464279            2 
 1806000   0.95715922    -3.928206    1399.5007  0.064576446  0.064632272            4 
 1807000   0.97744607   -3.8761864    1411.0936  0.065075338  0.064621674            5 
 1808000   0.95223325   -3.8710161    1405.0592  0.064761209  0.064611029            3 
 1809000   0.96719747   -3.9006708    1409.9499  0.064950703  0.064600292            3 
 1810000   0.97385052   -3.8928228    1407.6242  0.064807743  0.064589378            3 
 1811000   0.98178724   -3.8744649    1407.4207  0.064762596  0.064578705            3 
 1812000   0.97818487   -3.8636731    1408.2062   0.06476298   0.06456792            5 
 1813000   0.94085221   -3.8570428    1415.3756  0.065056792  0.064557462            7 
 1814000   0.94604905   -3.8531022    1414.4592  0.064978834  0.064546912            3 
 1815000   0.97980943   -3.8901076    1411.5915  0.064811364  0.064536727            4 
 1816000   0.94120747   -3.8780978    1411.2702  0.064760932  0.064526089            4 
 1817000   0.96628104   -3.8705093    1413.4575  0.064825603  0.064515655            3 
 1818000   0.95657249   -3.8551342    1414.7786  0.064850503  0.064505346            2 
 1819000   0.95773187   -3.9013597    1413.0905  0.064737516  0.064495249            3 
 1820000   0.95059827   -3.8819197    1413.5377   0.06472242  0.064484721            4 
 1821000   0.97448812   -3.8931071    1417.5365  0.064869877  0.064474535            3 
 1822000   0.94760243   -3.9049812     1418.395  0.064873535  0.064464367            2 
 1823000    0.9702128   -3.8698768    1417.3648  0.064790859  0.064453808            3 
 1824000   0.95584829   -3.8725327    1413.9411  0.064598918  0.064443551            3 
 1825000   0.95709502   -3.9004337    1421.0577  0.064888479  0.064433214            3 
 1826000   0.97923438   -3.8752793    1414.3484  0.064546753  0.064423056            2 
 1827000   0.98615593   -3.8813277    1428.8623  0.065173431  0.064412955            4 
 1828000   0.94024225   -3.8898594      1422.88  0.064865063  0.064402792            3 
 1829000   0.95233661   -3.8471503    1427.3879  0.065034988   0.06439263            2 
 1830000   0.96344582   -3.8609052    1419.2241   0.06462769  0.064382293            3 
 1831000   0.95677611   -3.8836588    1419.6061  0.064609782  0.064371764            1 
 1832000   0.95390826    -3.879728     1423.683  0.064759964  0.064361533            3 
 1833000   0.94858027   -3.8938897    1417.3742  0.064437815  0.064350832            1 
 1834000   0.95526811    -3.900158     1420.644  0.064551254  0.064340267            4 
 1835000   0.96546072   -3.8870032    1419.9704  0.064485484  0.064329541            2 
 1836000   0.96264189   -3.8708572    1428.1735   0.06482269  0.064318898            2 
 1837000   0.95673425   -3.8930894    1425.4676  0.064664651  0.064308374            3 
 1838000   0.94264148    -3.872057    1423.0564  0.064520149  0.064297541            4 
 1839000   0.96167106   -3.9016478    1421.0288  0.064393183  0.064286979            3 
 1840000   0.95128042   -3.9151394    1421.5384  0.064381266  0.064276065            3 
 1841000   0.94551489    -3.871686    1425.2961  0.064516393  0.064265267            4 
 1842000    0.9460013   -3.8788965    1422.9796  0.064376563  0.064254177            5 
 1843000   0.96027342   -3.8927951    1422.2656  0.064309349  0.064243098            8 
 1844000   0.93441732   -3.8849183    1419.0788  0.064130461  0.064232052            2 
 1845000   0.95379669   -3.8790668    1425.4321  0.064382661   0.06422116            3 
 1846000   0.94914782   -3.8779521    1424.5878  0.064309668  0.064210175            2 
 1847000   0.96114983   -3.9012787    1425.0994  0.064297933  0.064199127            5 
 1848000    0.9355324   -3.8639575    1423.5176  0.064191813  0.064188215            3 
 1849000   0.95751995   -3.9235757     1423.378  0.064150803  0.064177284            3 
 1850000   0.96795708   -3.8638965    1429.6268  0.064397605  0.064166614            3 
 1851000   0.98279501   -3.8742204     1431.076  0.064428059  0.064155997            3 
 1852000    0.9537021   -3.8764147    1438.6012  0.064731874  0.064145451            3 
 1853000   0.94629826   -3.9051221    1424.8979  0.064080676  0.064134588            3 
 1854000   0.95801294   -3.8611594    1433.9778  0.064454233  0.064124031            2 
 1855000   0.95203487   -3.8955318    1434.7951  0.064456206  0.064113399            4 
 1856000   0.94715756   -3.8674683    1437.0603  0.064523183  0.064103148            4 
 1857000   0.96105902   -3.9023485    1435.3061  0.064409714  0.064092398            3 
 1858000   0.97218857   -3.9288754    1436.0989  0.064410608  0.064081863            3 
 1859000   0.98946493   -3.8907739    1434.2572    0.0642934  0.064071323            5 
 1860000   0.95996449   -3.8999725    1437.6251  0.064409727   0.06406117            3 
 1861000   0.95801928   -3.8852963     1432.608  0.064150455  0.064050328            9 
 1862000   0.97792275   -3.8800737     1434.195  0.064187029  0.064039735            2 
 1863000   0.95324506   -3.8472386    1441.6879  0.064487737  0.064029147            2 
 1864000   0.95839842    -3.933063    1427.8652  0.063835176  0.064018153            7 
 1865000   0.95018192   -3.9040327    1441.7936  0.064423306  0.064006904            3 
 1866000   0.94238067   -3.8770994    1437.4856  0.064196393  0.063996008            4 
 1867000   0.95665926    -3.886994    1432.9841  0.063961083  0.063984695            4 
 1868000   0.95726372   -3.8675179    1437.7971  0.064141557  0.063973877            4 
 1869000    0.9379579   -3.9037792    1432.3664  0.063865096  0.063962996            2 
 1870000   0.96891991   -3.8702944     1431.968   0.06381319  0.063951827            2 
 1871000   0.94342422    -3.881129    1437.2618  0.064014868  0.063941102            3 
 1872000   0.96293971   -3.9110559    1440.1732  0.064110273   0.06393026            4 
 1873000   0.98047116   -3.9021121    1439.2435  0.064034681  0.063919267            3 
 1874000   0.95827363   -3.8785737    1441.7929  0.064113877  0.063908421            3 
 1875000   0.96658252   -3.8647124    1441.0084  0.064044819  0.063897602            3 
 1876000   0.95217861   -3.9009457    1442.3502  0.064070281  0.063886777            7 
 1877000   0.95376386   -3.8895257    1446.9253  0.064239267  0.063875856            3 
 1878000   0.94316738   -3.8970857     1442.604  0.064013313   0.06386512            8 
 1879000   0.96025965   -3.8828954    1440.2212  0.063873566  0.063854172            3 
 1880000   0.93378941   -3.8840868    1444.5386  0.064030967  0.063843073            2 
 1881000   0.96889482   -3.9065452    1437.8563  0.063700881  0.063831981            3 
 1882000   0.94738867   -3.8734205    1443.6565  0.063923863   0.06382109            2 
 1883000   0.93431065   -3.8865906    1441.4097  0.063790481  0.063810127            4 
 1884000   0.95769893   -3.8852609    1449.7184  0.064124134  0.063799391            5 
 1885000   0.95409915   -3.8927451    1448.6055  0.064040915  0.063788835            2 
 1886000   0.96839183   -3.9237366     1440.657  0.063655752  0.063777847            2 
 1887000   0.94882516   -3.8690387    1450.7738  0.064068795  0.063767299            3 
 1888000   0.93705335   -3.9060757    1452.1941  0.064097551  0.063756453            3 
 1889000   0.93807065   -3.8952042    1452.0588  0.064057648  0.063745596            2 
 1890000   0.95343072   -3.8844557    1447.9216   0.06384134  0.063735035            3 
 1891000   0.93598428   -3.9316125    1444.8352  0.063671566   0.06372421            1 
 1892000   0.94377445   -3.9188526    1447.1476  0.063739766  0.063713117           10 
 1893000   0.93563611   -3.8742654    1453.6267  0.063991316  0.063702523            5 
 1894000   0.95076402   -3.8991062    1454.2373  0.063984393  0.063691857            4 
 1895000   0.94688677   -3.9096431      1452.73  0.063884344  0.063681224            3 
 1896000   0.95478367   -3.8756999     1450.543  0.063754526  0.063670356            3 
 1897000   0.93525637   -3.8894623    1457.7968  0.064039572  0.063659785            2 
 1898000   0.95975433   -3.8592052    1457.6631  0.063999962  0.063649165            2 
 1899000    0.9530181   -3.8782307    1458.5934  0.064007083    0.0636385            4 
 1900000   0.93558626   -3.9017046    1454.2442  0.063782639  0.063627647            5 
 1901000   0.93943065   -3.8835688    1460.8165  0.064037197  0.063616867            5 
 1902000   0.93591132    -3.888765    1460.6367  0.063995651   0.06360627            4 
 1903000   0.93876559   -3.8759168    1457.7773  0.063836805  0.063595531            2 
 1904000    0.9613049   -3.9043624     1453.954  0.063635941  0.063584761            3 
 1905000   0.92826058   -3.8884879    1462.9466  0.063995913  0.063574126            3 
 1906000   0.94770984   -3.9249444    1460.0603  0.063836144  0.063563705            3 
 1907000   0.93881557   -3.9081838    1464.9101  0.064014598   0.06355337            2 
 1908000   0.94929367   -3.9122776    1460.5729  0.063791619  0.063543134            3 
 1909000   0.94723941   -3.9169104    1459.4003  0.063707017  0.063532682            4 
 1910000   0.92962503   -3.9062169    1467.8715  0.064043257  0.063522154            3 
 1911000   0.94744105     -3.90588    1463.1539  0.063804025  0.063511717            3 
 1912000   0.96722748    -3.893415    1464.2052  0.063816476  0.063501233            2 
 1913000   0.94831054   -3.8766968    1464.7716  0.063807789  0.063490775            3 
 1914000    0.9214821   -3.8621497    1467.6571  0.063900083  0.063479992            3 
 1915000   0.95132564   -3.9174145    1461.4737  0.063597637  0.063469391            6 
 1916000   0.93875326   -3.9024718    1467.0863  0.063808555  0.063458527            1 
 1917000   0.95891765   -3.8766785    1469.0638  0.063861233  0.063447654            6 
 1918000   0.94313607   -3.9088822    1468.4217  0.063800041  0.063437054            4 
 1919000   0.96508445   -3.9202825    1462.8774  0.063526029  0.063426183            3 
 1920000    0.9558041    -3.878519    1466.2386  0.063638828  0.063415356            2 
 1921000   0.94827411    -3.905285    1466.5218  0.063617986  0.063404313            2 
 1922000   0.94607972   -3.8942695    1463.3049  0.063445407  0.063393223            4 
 1923000   0.94076455   -3.8935382     1466.538  0.063552521  0.063382172            3 
 1924000    0.9133605   -3.9221693    1463.6188  0.063393052  0.063371331            3 
 1925000   0.93860063   -3.9114158    1472.2715  0.063734698  0.063360372            3 
 1926000    0.9436715   -3.9281707     1464.841  0.063380104  0.063349683            4 
 1927000   0.92307608   -3.8916456     1467.587  0.063465966  0.063338753            4 
 1928000   0.96605285   -3.9071566    1470.6792  0.063566702  0.063328206            3 
 1929000   0.92539509   -3.9000465    1470.6656  0.063533162  0.063317582            6 
 1930000   0.93755907   -3.9095139    1469.1469  0.063434668  0.063306754            2 
 1931000   0.95142062   -3.9185511    1467.4181  0.063327208  0.063295962            2 
 1932000   0.90222551    -3.936418    1471.8912  0.063487369  0.063285078            5 
 1933000   0.94252621   -3.8984913     1472.449  0.063478573  0.063274184            3 
 1934000   0.95238034   -3.9117546     1469.535   0.06332019  0.063263403            9 
 1935000   0.94379494   -3.9249281    1469.7372  0.063296176  0.063252302            6 
 1936000    0.9675985   -3.8974433    1471.2113  0.063326933  0.063241221            2 
 1937000   0.93894825   -3.9104013    1473.7914  0.063405242  0.063230123            3 
 1938000   0.92653116    -3.892474    1479.0926  0.063600472  0.063219068            3 
 1939000   0.95840504   -3.8839066    1476.6807  0.063464014  0.063207911            3 
 1940000   0.94662331   -3.9188349    1469.9927  0.063144015  0.063196801            3 
 1941000   0.95180175   -3.9163465     1472.806  0.063232268  0.063185794            2 
 1942000   0.95167277   -3.8738472    1469.9225  0.063075973  0.063174842            1 
 1943000   0.94597901   -3.9224004     1475.352  0.063276379   0.06316369            1 
 1944000   0.92415707   -3.9316768    1474.4005  0.063203039  0.063152535            3 
 1945000   0.94814166   -3.9106374    1475.2877  0.063208555  0.063141679            4 
 1946000   0.93596575   -3.8853506    1474.1965  0.063129348  0.063130555            4 
 1947000    0.9116572   -3.9074364    1478.6253  0.063286477   0.06311979            5 
 1948000   0.93745178   -3.8884269    1475.7286  0.063130072  0.063108915            2 
 1949000   0.93956965   -3.9159475    1480.4455  0.063299364  0.063098162            3 
 1950000   0.96465402    -3.926848    1481.4345  0.063309168  0.063087061            4 
 1951000   0.93743689   -3.9243307    1478.2278  0.063139749  0.063076231            3 
 1952000    0.9426362   -3.9053131    1482.1863  0.063276397  0.063065073            5 
 1953000   0.93110309   -3.9336002    1482.5086  0.063257749  0.063053935            3 
 1954000   0.93739006     -3.90215    1485.0048  0.063331831  0.063042839            4 
 1955000   0.93576763    -3.972782    1476.1199  0.062920712  0.063031653            4 
 1956000   0.94071229   -3.9216214     1483.143  0.063187754  0.063020496            2 
 1957000   0.95476869   -3.9124251    1482.1876  0.063114786  0.063009502            2 
 1958000    0.9434651   -3.9296157    1485.0109  0.063202711  0.062998614            2 
 1959000   0.96166309   -3.9282689    1485.7743  0.063202924  0.062987544            3 
 1960000   0.93987927   -3.9041348     1483.622  0.063079167  0.062976457            2 
 1961000    0.9376511   -3.9057201    1480.4157  0.062910747  0.062965312            4 
 1962000   0.95204636   -3.9020468    1487.3166  0.063171787  0.062954055            3 
 1963000   0.91812454     -3.91529    1483.1592  0.062963119  0.062943018            3 
 1964000   0.94195366   -3.9234177    1487.1199  0.063099115  0.062932019            2 
 1965000   0.91760274   -3.9199872    1485.2478  0.062987607  0.062920989            5 
 1966000   0.94329297   -3.9120356    1490.3135  0.063170291  0.062909914            4 
 1967000    0.9294829    -3.925481    1486.4041  0.062972553  0.062899009            4 
 1968000   0.93725392   -3.8991306    1489.4174  0.063068148  0.062888171            6 
 1969000   0.92336863    -3.933141    1488.6146   0.06300214  0.062877106            3 
 1970000   0.95059117   -3.9285983    1490.5224  0.063050863  0.062865958            3 
 1971000   0.93139848    -3.910061    1487.8407  0.062905494  0.062854827            6 
 1972000   0.91156746   -3.9357996    1486.4877  0.062816418  0.062843872            3 
 1973000    0.9366923    -3.926917    1495.6643  0.063172168  0.062832876            5 
 1974000   0.92885813   -3.8741084    1498.3635  0.063254117  0.062821916            5 
 1975000   0.94762417   -3.9270689    1494.4558  0.063057206  0.062811011            2 
 1976000   0.92351049   -3.9268771    1488.5789   0.06277745  0.062799946            1 
 1977000   0.94171355   -3.9109795    1493.8561  0.062968139   0.06278899            2 
 1978000   0.91854126   -3.9421543    1491.7442   0.06284733  0.062777929            5 
 1979000   0.94253418   -3.9273332    1495.7706  0.062985118  0.062766942            4 
 1980000   0.94449402   -3.9146201    1495.5855  0.062945517  0.062756058            6 
 1981000   0.95117503   -3.9229179    1488.4856  0.062615079  0.062745107            1 
 1982000   0.93307748   -3.9307938    1493.8593  0.062809422  0.062733974            3 
 1983000   0.93916735   -3.9439094     1492.148  0.062705832  0.062722985            4 
 1984000   0.94043037   -3.9345591    1490.3179  0.062597356  0.062712054            3 
 1985000     0.944944   -3.9288153    1495.5931  0.062787283  0.062700833            3 
 1986000   0.94237509   -3.9344361     1492.152  0.062611279  0.062689549            2 
 1987000   0.95878111   -3.9287994    1496.3054  0.062753959  0.062678346            3 
 1988000   0.91102138   -3.9190662    1498.1398  0.062799287  0.062667264            3 
 1989000   0.94215123   -3.8937578    1500.9516   0.06288552  0.062656134            4 
 1990000   0.93186513   -3.9337656    1498.9352  0.062769481  0.062644974            5 
 1991000   0.94235562   -3.9093967     1498.648  0.062725933  0.062633576            5 
 1992000   0.93735293   -3.9094293    1503.0488  0.062878546  0.062622402            4 
 1993000   0.92404347   -3.8956372    1506.8602  0.063006363  0.062611367            5 
 1994000   0.92761015   -3.9176636     1511.171  0.063154922  0.062600527            3 
 1995000   0.92285461   -3.9107495    1502.3865   0.06275633  0.062589501            2 
 1996000   0.90935357   -3.9390286    1495.4096    0.0624336  0.062578469            5 
 1997000   0.89658029   -3.9037741    1504.8478  0.062796185  0.062567566            3 
 1998000   0.91664009   -3.9195122    1503.5336  0.062709943  0.062556571            3 
 1999000   0.92309872   -3.9250486    1504.8049  0.062731569  0.062545608            3 
 2000000   0.93704172   -3.9189052    1505.2123  0.062717178  0.062534553            2 
 2001000   0.93469803   -3.9373501    1505.1767  0.062684353  0.062523543            6 
 2002000   0.93398104    -3.928526    1504.0192  0.062604861  0.062512605            6 
 2003000   0.91017324   -3.9156607    1503.3699  0.062546593  0.062501617            3 
 2004000    0.9423792   -3.9559418    1506.7825   0.06265729  0.062490557            3 
 2005000   0.95525253   -3.9040766    1509.7697  0.062750196  0.062479477            6 
 2006000   0.92428842   -3.9473281    1509.4524  0.062705731  0.062468393            2 
 2007000   0.92193059    -3.906876    1510.9692   0.06273747  0.062457477            2 
 2008000    0.9387553   -3.9195312    1505.7109  0.062488002  0.062446516            5 
 2009000   0.92331032   -3.9234613    1510.3292  0.062648465    0.0624357            4 
 2010000   0.93205717   -3.9322923    1511.8038  0.062678434  0.062424561            3 
 2011000   0.95558314   -3.9354514    1510.3034  0.062585089  0.062413841            5 
 2012000   0.92833738   -3.9211221    1511.0596  0.062585304   0.06240291            5 
 2013000   0.92901119   -3.9380961    1513.1688  0.062641531    0.0623919            4 
 2014000   0.91616306   -3.9475405    1517.0531   0.06277115  0.062381059            3 
 2015000   0.90729761   -3.9499981    1510.9804  0.062488852  0.062370118            3 
 2016000   0.90054292   -3.9144699      1509.94  0.062414848  0.062359377            3 
 2017000   0.91371226   -3.9420958    1512.6145  0.062494401  0.062348294            3 
 2018000   0.92095629   -3.9540737    1508.0361  0.062274369  0.062337145            2 
 2019000   0.92412476    -3.915214    1513.1002  0.062452544  0.062325947            3 
 2020000   0.92604801   -3.8826074    1509.1234  0.062257564  0.062314622           10 
 2021000   0.93166011   -3.9424442    1515.3034  0.062481586  0.062303293            2 
 2022000   0.92118025   -3.9162821    1515.3069  0.062450828  0.062292088            3 
 2023000    0.9103582   -3.9274393    1511.9807  0.062282942  0.062280706            5 
 2024000   0.91883678   -3.9279025    1510.0384  0.062172199  0.062269361            3 
 2025000   0.93523591   -3.9463289    1514.8654  0.062340141  0.062258105            2 
 2026000   0.92544098   -3.9046687    1516.2442  0.062366082  0.062246817            4 
 2027000   0.92448861   -3.9357778    1521.5599  0.062553851  0.062235594            4 
 2028000   0.92700654   -3.9394133    1515.7652  0.062284896  0.062224404            3 
 2029000    0.9217633   -3.9453986    1513.3725  0.062155926  0.062213169            3 
 2030000   0.93690038   -3.9194473    1516.3409  0.062247164  0.062201759            3 
 2031000   0.92374005   -3.9265057    1518.3137   0.06229746  0.062190428            4 
 2032000   0.91781946    -3.935865    1513.9793  0.062089047  0.062179212            3 
 2033000   0.93220005    -3.944263    1512.1963  0.061985418  0.062167839            6 
 2034000   0.92980525   -3.9224751    1519.5943  0.062258043  0.062156459            3 
 2035000   0.91384281   -3.9353345    1516.4198  0.062097453  0.062145156            4 
 2036000   0.93044234   -3.9528968    1517.6239  0.062116235  0.062133597            4 
 2037000   0.93065569   -3.9495331    1514.4898  0.061957529  0.062122082            6 
 2038000   0.92474253   -3.9051803    1519.4192  0.062128689  0.062110314            3 
 2039000   0.91366214   -3.9455184     1520.496  0.062142227  0.062098913            8 
 2040000   0.93100124   -3.9481131    1517.0631  0.061971534  0.062087433            2 
 2041000   0.93375383   -3.9132694    1521.4854  0.062121728   0.06207619            3 
 2042000   0.91038316   -3.9238085    1526.5317  0.062297246  0.062064917            6 
 2043000   0.92732571   -3.9281269    1521.1063  0.062045451  0.062053789            3 
 2044000   0.92622776   -3.9555995    1524.4166  0.062150056  0.062042464            3 
 2045000   0.90976566   -3.9383261    1521.6027  0.062004998  0.062031199            2 
 2046000   0.92749668   -3.9439264    1527.5587  0.062217282  0.062020159            2 
 2047000   0.93628172    -3.947463    1525.7634  0.062113799  0.062008748            4 
 2048000   0.92747825   -3.9490124    1520.0396  0.061850569  0.061997537            2 
 2049000   0.90197913   -3.9452255    1521.7937  0.061891723  0.061986117            2 
 2050000   0.91349636   -3.9458208    1523.1861  0.061918133  0.061974627            2 
 2051000   0.91676598   -3.9459888    1524.5728  0.061944288  0.061963254            2 
 2052000    0.9075345   -3.9684635    1523.6459  0.061876459  0.061951815            4 
 2053000    0.9207641   -3.9330989    1527.9128  0.062019516  0.061940423            8 
 2054000   0.93828374   -3.9011883    1528.0903  0.061996525  0.061929076            7 
 2055000   0.93506116   -3.9379312    1529.2943  0.062015178  0.061917785            7 
 2056000   0.91693724   -3.9268267     1531.401  0.062070403   0.06190618            3 
 2057000    0.9280561   -3.9318064    1528.9636  0.061941485  0.061894943            3 
 2058000    0.8925871   -3.9299788    1528.2496  0.061882477  0.061883428            3 
 2059000    0.9351763   -3.9443664    1530.9659  0.061962355  0.061871947            4 
 2060000   0.91130301    -3.928762    1533.1748  0.062021635  0.061860348            9 
 2061000   0.93355736   -3.9320307     1531.622  0.061928758  0.061848794            5 
 2062000    0.8948559   -3.9374885    1532.2584  0.061924442  0.061837211            2 
 2063000   0.94662094   -3.9390359    1529.6841  0.061790441  0.061825577            2 
 2064000   0.92980288   -3.9433778    1529.9173  0.061769917  0.061813902            2 
 2065000   0.93613414   -3.9165367    1534.0211  0.061905615   0.06180245            6 
 2066000   0.92398534   -3.9415236    1533.8733  0.061869687  0.061791128            2 
 2067000    0.9268117    -3.974089    1530.8588  0.061718224  0.061779657            6 
 2068000   0.92271527   -3.9571386    1530.9302  0.061691257  0.061768125            6 
 2069000   0.91337885   -3.9128155    1533.5158  0.061765578  0.061756678            5 
 2070000   0.94634217   -3.9681751    1534.1509  0.061761308   0.06174516            3 
 2071000   0.93425982   -3.9804346    1531.9248  0.061641911  0.061733624            4 
 2072000   0.91777793   -3.9625418    1534.6311  0.061721004  0.061722263            3 
 2073000   0.91680956   -3.9335648    1541.8046  0.061979602  0.061711057            3 
 2074000   0.93973573   -3.9218793    1533.7166  0.061624744  0.061699796            5 
 2075000   0.93704834   -3.9573828    1535.0582  0.061648925  0.061688319            8 
 2076000   0.92249796   -3.9436043    1532.1789  0.061503649     0.061677            3 
 2077000   0.92297207   -3.9485123    1537.5027  0.061687638  0.061665457            5 
 2078000   0.91954934   -3.9446188    1538.1201  0.061682714  0.061654088            4 
 2079000   0.94352862   -3.9255268     1541.963  0.061807077  0.061642849            4 
 2080000   0.92794617   -3.9375936     1544.285  0.061870391  0.061631669            3 
 2081000   0.91006173   -3.9272765    1538.1028  0.061593097  0.061620405            3 
 2082000   0.91059297   -3.9396679    1537.7836  0.061550736  0.061609071            4 
 2083000   0.93117755   -3.9590693    1537.3018  0.061501911  0.061597535            3 
 2084000   0.93792585   -3.9429095    1540.1387  0.061585839  0.061586005            2 
 2085000   0.92207015   -3.9578976    1534.6698  0.061337721  0.061574419           13 
 2086000   0.91736806   -3.9288914    1545.9343  0.061758322  0.061563089            4 
 2087000   0.91402201   -3.9323525    1543.8663  0.061646156  0.061551629            6 
 2088000    0.9052596   -3.9841365    1537.5474  0.061364441  0.061540091            2 
 2089000   0.91205387   -3.9500833     1536.764  0.061303812  0.061528293            1 
 2090000   0.90734361   -3.9720895    1539.0861   0.06136707  0.061516716            8 
 2091000   0.92222687   -3.9500961    1546.6986  0.061641104  0.061505229            2 
 2092000   0.90280021   -3.9611092    1541.4854  0.061403976  0.061493721            5 
 2093000   0.89856274    -3.978477    1539.6104  0.061299984  0.061482075            3 
 2094000   0.89966895   -3.9265245    1547.7796  0.061595813  0.061470385            4 
 2095000   0.92287936   -3.9398765    1542.7927  0.061368045  0.061458689            9 
 2096000   0.92514439    -3.934879    1539.1608   0.06119437  0.061446969            2 
 2097000   0.92212778   -3.9450952    1545.9007  0.061433029  0.061435168            2 
 2098000   0.90140839   -3.9568277      1539.28  0.061140771  0.061423106            3 
 2099000   0.91459578   -3.9612244    1537.4665  0.061039642  0.061411032            4 
 2100000   0.92512568   -3.9406143    1538.2338  0.061041025  0.061398861            2 
 2101000   0.92390344    -3.940173    1536.4601  0.060941621  0.061386644            3 
 2102000   0.90713155   -3.9516262    1544.3823    0.0612267  0.061374515            3 
 2103000   0.91765518   -3.9575415    1540.4647  0.061042349  0.061362336            9 
 2104000   0.91114432   -3.9566962    1536.1018  0.060840532  0.061350063            5 
 2105000   0.91761345   -3.9901692    1537.7003  0.060874911  0.061337769            5 
 2106000   0.91648953   -3.9415965    1545.7012    0.0611626  0.061325579            4 
 2107000   0.92800206   -3.9599202    1542.3946  0.061002791  0.061313429            2 
 2108000   0.92471304   -3.9555913    1542.9525  0.060995908  0.061301314            6 
 2109000   0.92958262   -3.9140027    1542.4869  0.060948588  0.061289042            3 
 2110000   0.90769391   -3.9301012    1546.1514   0.06106443  0.061276875            3 
 2111000     0.907572   -3.9437786    1546.3908  0.061044954  0.061264436            3 
 2112000   0.92782039   -3.9606509    1541.9774  0.060841912  0.061252107            9 
 2113000   0.90423767   -3.9425998    1543.4474  0.060871092  0.061239609            4 
 2114000   0.90929292   -3.9693153    1545.1552  0.060909619  0.061227209            5 
 2115000   0.91247631   -3.9714679    1541.8392  0.060750166  0.061214534            2 
 2116000   0.90310068   -3.9623442    1542.7136   0.06075589  0.061201986            4 
 2117000   0.92291299   -3.9425565     1545.271  0.060827862  0.061189627            2 
 2118000   0.90432119   -3.9627629    1551.2467   0.06103426  0.061177272            4 
 2119000   0.90034778   -3.9614832    1544.5814  0.060743329  0.061164696            4 
 2120000   0.89982679   -3.9724233    1545.4997  0.060750775  0.061152423            2 
 2121000   0.90788194   -3.9253069    1553.2746  0.061027604  0.061140263            7 
 2122000   0.92009734   -3.9782136    1548.4401   0.06080899  0.061128073            3 
 2123000   0.90452715   -3.9277378    1555.3387  0.061051133  0.061115876            7 
 2124000   0.93084411   -3.9746275    1548.6231   0.06075891  0.061103787            3 
 2125000   0.90183702   -3.9467701    1550.9169  0.060820271   0.06109154            3 
 2126000   0.91121438   -3.9414384    1547.8749  0.060672426  0.061079375            4 
 2127000   0.91842045   -3.9473585    1558.8676  0.061074583  0.061067124            3 
 2128000   0.90253708   -3.9469577    1554.8671   0.06088922  0.061054734            2 
 2129000   0.91242063   -3.9790173    1551.0881  0.060712702  0.061042577            3 
 2130000   0.90547821   -3.9724789    1550.3661  0.060655952  0.061030378            3 
 2131000   0.90962672   -3.9680992    1553.0698  0.060733216  0.061018269            3 
 2132000   0.90147279   -3.9511329    1553.9389    0.0607387  0.061006231            3 
 2133000   0.91245333   -3.9664892    1556.0162  0.060791383  0.060994082            4 
 2134000   0.90933322   -3.9598091    1553.2039  0.060653072  0.060982019            3 
 2135000   0.91695051   -3.9090503    1562.4081  0.060983921  0.060970017            2 
 2136000   0.89123116   -3.9866708    1556.3074  0.060717362  0.060958184            3 
 2137000   0.90902126   -3.9823869    1552.2606  0.060531143  0.060946011            6 
 2138000   0.89825205   -3.9416078    1552.5316  0.060513394  0.060933885            3 
 2139000   0.90639549    -3.944845    1562.4536  0.060871654  0.060922055            4 
 2140000   0.91256717   -3.9505277    1566.3938  0.060996645  0.060910337            2 
 2141000   0.91776721   -3.9465714     1564.672  0.060901136  0.060898623            2 
 2142000   0.90556902   -3.9393389    1566.1537   0.06093035  0.060886767            3 
 2143000   0.90256471   -3.9636566    1555.1766  0.060475059  0.060874793            6 
 2144000   0.91388508    -3.975141    1561.2558  0.060683141  0.060862624            6 
 2145000   0.90686727   -3.9772446    1557.1916  0.060496953  0.060850304            7 
 2146000   0.91277701   -3.9825874    1556.1399  0.060427924  0.060838214            3 
 2147000   0.91214452   -3.9669852    1563.8618  0.060699496  0.060826099            2 
 2148000   0.90433871   -3.9561514    1562.1034  0.060603017  0.060813981            3 
 2149000   0.90219303   -3.9869862    1562.6541  0.060596173  0.060801962            3 
 2150000    0.9110331   -3.9800765    1567.4649  0.060754454  0.060790012            3 
 2151000   0.90825103   -3.9565881    1567.9954  0.060746763  0.060777988            3 
 2152000   0.91979475   -3.9504469    1564.8454  0.060596553  0.060766078            4 
 2153000   0.91355042   -3.9706351    1568.2858   0.06070157  0.060754553            3 
 2154000   0.92821501   -3.9731155     1563.564  0.060490713  0.060742647            2 
 2155000   0.91096636   -3.9486541     1569.816  0.060704407   0.06073082            3 
 2156000   0.89407238   -3.9721889     1568.576  0.060628325  0.060719057            4 
 2157000     0.877291   -3.9864933    1566.0719  0.060503473  0.060707271            4 
 2158000   0.90199109   -4.0074769    1570.9908  0.060665384  0.060695541            2 
 2159000   0.90073798   -3.9520562    1572.0198  0.060677002  0.060683969            4 
 2160000   0.90270873   -3.9781714    1575.8542  0.060796845   0.06067235            2 
 2161000   0.91125606    -3.940569      1571.55  0.060602732  0.060660713            4 
 2162000   0.90402563   -3.9369988    1573.3992  0.060645975  0.060648969            4 
 2163000   0.91033364   -3.9634469    1578.0489  0.060797075   0.06063752            2 
 2164000   0.90302073   -3.9676317    1571.9515  0.060534177  0.060625798            3 
 2165000   0.91189667   -3.9355911     1572.415  0.060524057  0.060614058            3 
 2166000   0.91610523   -3.9808644    1573.1705  0.060525179   0.06060243            3 
 2167000   0.90956939   -3.9719028     1573.149  0.060496424  0.060590717            5 
 2168000      0.90488    -3.960215    1574.4598  0.060518905  0.060579273            3 
 2169000   0.89276057   -3.9699718    1570.3422  0.060332804  0.060567733            5 
 2170000   0.90845018   -3.9639602    1585.6619  0.060893312  0.060556228            3 
 2171000    0.9156592   -3.9488342    1574.9294  0.060453301  0.060544747            4 
 2172000   0.90810318   -3.9555259    1580.4777   0.06063834  0.060533553            2 
 2173000   0.89100358   -3.9838323    1581.2437  0.060639812  0.060522147            3 
 2174000   0.90696388   -3.9832421    1575.3634  0.060386516  0.060510926            3 
 2175000   0.92075081   -3.9824323    1582.5189  0.060632909  0.060499813            5 
 2176000   0.90532369   -3.9691177     1579.925  0.060505707  0.060488688            2 
 2177000   0.91786589   -3.9774597    1583.3359   0.06060848  0.060477325            2 
 2178000   0.89231083   -4.0063242    1575.9324  0.060297383  0.060465927            4 
 2179000   0.90332246   -3.9708792    1584.0315  0.060579452  0.060454495            4 
 2180000   0.90822942   -3.9725663    1585.7392  0.060616941  0.060443244            4 
 2181000   0.89088072   -3.9653903    1582.3824  0.060460891  0.060432212            3 
 2182000   0.91828201   -3.9611195    1584.6214   0.06051869  0.060420908           10 
 2183000   0.89780274   -3.9753879    1581.6851  0.060378877  0.060409624            4 
 2184000    0.9116093   -3.9700798    1586.0487  0.060517731  0.060398308            3 
 2185000   0.89326053    -3.966491    1591.5333  0.060699209  0.060387118            4 
 2186000   0.88283616   -3.9729113    1589.0706  0.060577561  0.060375949            2 
 2187000   0.89121442   -3.9639905    1589.3011  0.060558644  0.060364551            4 
 2188000   0.90312744   -3.9716657    1587.5518  0.060464344  0.060353323            6 
 2189000   0.88799263   -3.9758583    1591.6935  0.060594392  0.060341937            6 
 2190000   0.90504721    -3.979757    1588.0146  0.060426734   0.06033079            3 
 2191000    0.9143666   -3.9833475    1588.1891  0.060405792  0.060319501            5 
 2192000   0.88472474   -3.9747491    1588.0377  0.060372479  0.060308157            3 
 2193000   0.92340077   -3.9694276     1583.927  0.060188744  0.060296918            3 
 2194000   0.89663634   -3.9699169    1594.2316  0.060552706  0.060285643            4 
 2195000   0.87745307   -3.9910981    1588.8092  0.060319255  0.060274369            2 
 2196000   0.92200178   -3.9640185    1590.9531  0.060373145  0.060263209            4 
 2197000   0.88820809   -3.9414099    1590.5641  0.060330909  0.060252161            2 
 2198000   0.90836852   -3.9580533    1595.0384  0.060473097  0.060241004            2 
 2199000   0.89598591   -3.9721099    1598.2195  0.060566147   0.06023016            3 
 2200000    0.9146355   -3.9836091    1595.7872  0.060446484  0.060219269            3 
 2201000   0.88473189   -3.9760944      1595.09  0.060392626   0.06020829            8 
 2202000   0.91406992    -3.956925    1597.7715  0.060466679  0.060197287            2 
 2203000    0.8871273   -3.9596365    1592.4199  0.060236793  0.060186224            4 
 2204000   0.92515456   -3.9747152    1594.7363  0.060297047  0.060175129           11 
 2205000   0.90984038   -4.0186048    1594.7992  0.060272078  0.060163906            5 
 2206000   0.87980147   -3.9593438    1598.0071  0.060365938   0.06015264            2 
 2207000   0.92495801   -3.9988125    1593.2027  0.060157179  0.060141623            3 
 2208000   0.89785304   -3.9875069    1588.7199  0.059960744  0.060130364            4 
 2209000   0.91176874   -3.9890316    1592.4366  0.060073813  0.060119229            3 
 2210000   0.89189416   -4.0041649    1597.1745  0.060225283  0.060107974            4 
 2211000   0.90452771   -3.9696087     1598.572  0.060250716  0.060096686            9 
 2212000   0.91961996   -3.9745122    1599.4456   0.06025639  0.060085637            3 
 2213000   0.91010567   -4.0006108    1597.0248  0.060138003  0.060074368            3 
 2214000   0.87143197   -3.9785836    1601.1074  0.060264505  0.060063153            2 
 2215000   0.90449733   -3.9836294    1606.6026  0.060444042  0.060051962            2 
 2216000   0.89534466   -3.9562102    1600.8153   0.06019913  0.060040963            2 
 2217000   0.92975359   -3.9757051    1596.0216  0.059991792  0.060029661            4 
 2218000    0.8944084   -3.9959941    1602.1695   0.06019573  0.060018433            3 
 2219000   0.89959365   -3.9753118    1611.9935  0.060537534  0.060007498            4 
 2220000   0.90844034   -3.9656385    1600.2443   0.06006923  0.059996434            4 
 2221000   0.91546712   -3.9695665    1601.9892  0.060107654  0.059985111            2 
 2222000   0.88864921   -3.9775798    1598.9888  0.059968075  0.059973858            3 
 2223000   0.89268921    -4.008631    1604.6373  0.060152846  0.059962569            3 
 2224000   0.87062731   -4.0180141    1603.4928  0.060082912  0.059951343            4 
 2225000   0.86729829   -3.9806637    1604.2717  0.060085081  0.059940048            8 
 2226000   0.89087812   -3.9890139    1608.6358  0.060221466  0.059928887            4 
 2227000   0.88997096   -3.9746848    1605.9502  0.060093931  0.059917454            5 
 2228000   0.89409487   -3.9843333    1605.3645  0.060045053  0.059906232            2 
 2229000   0.88988726   -3.9570698       1606.4  0.060056826  0.059894919            5 
 2230000   0.89549254    -3.967724    1604.5835  0.059962014  0.059883698            3 
 2231000    0.9007969   -3.9689514    1610.4867  0.060155636  0.059872559            4 
 2232000   0.88172864   -4.0065875    1608.2688  0.060045879  0.059861338            4 
 2233000   0.89686675   -3.9772675    1602.8896  0.059818241  0.059850219            2 
 2234000   0.88917555   -4.0115012    1600.2855  0.059694328  0.059839096            9 
 2235000   0.88684106   -3.9800218    1605.4902  0.059861677  0.059827831            4 
 2236000   0.88996965   -3.9562283    1609.6426  0.059989661   0.05981656            4 
 2237000   0.88520913    -3.985875    1602.8012  0.059707986  0.059805289            3 
 2238000   0.90809465   -3.9850587    1608.9445  0.059910058  0.059794034            3 
 2239000   0.87692808    -3.975395    1611.9519  0.059995231  0.059782985            2 
 2240000   0.88092869   -3.9798864    1609.3224  0.059870626  0.059771803            4 
 2241000     0.884142   -3.9732748    1604.5774  0.059667464  0.059760573            4 
 2242000   0.89438481   -3.9901383    1608.2327  0.059776712  0.059749344            2 
 2243000   0.89114273   -3.9704575    1612.7852  0.059919199  0.059737999            4 
 2244000   0.89602463   -3.9792937    1611.8167   0.05985653   0.05972643            4 
 2245000   0.89877596   -3.9976137    1610.6842  0.059787833  0.059714953            2 
 2246000   0.90390617   -3.9968023     1614.256  0.059893737  0.059703562            2 
 2247000    0.8920937   -4.0091139    1611.7389  0.059773733  0.059692234            4 
 2248000   0.89533817   -3.9846162    1609.9337  0.059680222  0.059680739            5 
 2249000   0.89190667   -3.9921016    1613.7532  0.059795211  0.059669483            4 
 2250000   0.89051117   -3.9897478    1611.2555   0.05967613  0.059658211            7 
 2251000   0.90090673   -3.9964744    1614.2582  0.059760779  0.059646877            3 
 2252000   0.89068832   -4.0081665    1616.2347  0.059807382  0.059635303            3 
 2253000    0.8873527   -3.9483963    1617.1879  0.059816092  0.059623846            3 
 2254000   0.87586809   -4.0218179    1613.4707  0.059652126  0.059612532            3 
 2255000   0.87836595   -3.9837819     1615.444  0.059698596  0.059601211           10 
 2256000    0.8854163   -3.9902351     1614.776  0.059647458  0.059589891            3 
 2257000   0.89318171   -3.9982118    1617.6467  0.059727022  0.059578483            3 
 2258000   0.89742735   -3.9855039    1622.2392  0.059870062  0.059567057            5 
 2259000   0.88598853    -3.988866    1616.0743  0.059616138  0.059555684            4 
 2260000   0.88774104   -3.9957642    1615.0371  0.059551514  0.059544384            4 
 2261000   0.91191569    -4.004363    1616.9865  0.059597027  0.059532969            3 
 2262000   0.88819774   -3.9889876    1615.7489  0.059525083  0.059521508            4 
 2263000   0.88200875   -4.0061514    1621.9109  0.059725691  0.059510196            4 
 2264000   0.90549783   -3.9798515    1619.9859  0.059628455   0.05949895            5 
 2265000   0.89419578   -4.0084301    1619.5891  0.059587531  0.059487647            5 
 2266000   0.89364415   -3.9904992    1620.0458  0.059578031  0.059476506            3 
 2267000   0.87797539   -4.0409595    1619.7786  0.059541929  0.059465173            6 
 2268000   0.88052192   -3.9817148    1623.0036  0.059634172  0.059453912            3 
 2269000   0.87898789   -4.0136337    1621.7492   0.05956182  0.059442621            6 
 2270000   0.90314099   -3.9785794    1623.2829  0.059591883  0.059431353            5 
 2271000   0.91039612   -4.0334001    1620.3293  0.059457262  0.059420019            3 
 2272000   0.87222605   -4.0082418    1618.5452  0.059365655  0.059408576            3 
 2273000   0.89027351   -4.0151004    1620.4124  0.059407992  0.059397425           12 
 2274000   0.90050337   -3.9782379    1618.4592  0.059310291  0.059386197            6 
 2275000   0.88838572   -4.0041891    1619.5852  0.059325466  0.059374717            3 
 2276000    0.8613896   -3.9878704    1624.1562  0.059466761  0.059363339            4 
 2277000   0.87495149   -4.0143842    1620.8095  0.059318162   0.05935211            4 
 2278000   0.89248072   -4.0080178    1623.3563  0.059385289  0.059340781            2 
 2279000   0.86628489   -3.9829729    1628.7401  0.059556096  0.059329653            3 
 2280000   0.89182515   -3.9803326    1627.2702   0.05947625   0.05931867            3 
 2281000   0.87967173   -3.9650738    1633.7767  0.059687883  0.059307606            6 
 2282000   0.89834416   -3.9995694    1631.5819  0.059581576  0.059296706            8 
 2283000   0.89190406   -3.9912349    1627.7128  0.059414249  0.059285574            3 
 2284000   0.87927322    -3.997145    1627.2286   0.05937057  0.059274466            4 
 2285000    0.8971863   -3.9741205    1630.5969  0.059467428  0.059263503            3 
 2286000    0.8913114   -4.0096416    1628.8339  0.059377147  0.059252524            1 
 2287000   0.88714616   -4.0111988    1631.0124  0.059430564  0.059241618            5 
 2288000   0.88512235   -4.0063471     1637.752  0.059650059  0.059230608            3 
 2289000   0.88508261   -3.9852622    1631.0871  0.059381358  0.059219699            4 
 2290000   0.87868333   -3.9830562    1631.8336  0.059382591  0.059208605            6 
 2291000   0.88064024   -4.0120321    1632.0319  0.059363885  0.059197684            1 
 2292000   0.87155371   -4.0249612    1626.8409  0.059149247  0.059186545            4 
 2293000   0.86947179   -4.0058325    1635.0545  0.059421955   0.05917527            2 
 2294000   0.86826723   -3.9993888    1633.3826  0.059335318  0.059164015            6 
 2295000   0.86786554   -3.9768279    1632.3657   0.05927254  0.059152925            2 
 2296000   0.88673386   -4.0074603    1635.0953  0.059345794  0.059141694            2 
 2297000   0.87677111   -4.0162013    1638.1018  0.059429029   0.05913041            5 
 2298000   0.90045815    -3.997875    1637.1093  0.059367179  0.059119253            7 
 2299000   0.89308135    -3.989543    1634.0081  0.059228945  0.059108124            4 
 2300000   0.89175566   -3.9932087    1635.3911  0.059253302  0.059097068            3 
 2301000   0.87771692    -3.977716    1637.2972  0.059296583   0.05908598            2 
 2302000   0.89748259   -4.0112947    1629.6872  0.058995338  0.059074868            2 
 2303000   0.88059065    -4.010318     1637.244  0.059243162  0.059064027            2 
 2304000   0.87499998   -3.9836824    1635.3005  0.059147154  0.059052898            3 
 2305000   0.90419077   -4.0024884    1638.2967  0.059229814  0.059041853            2 
 2306000   0.89478927   -4.0003951    1637.9724  0.059192413  0.059030767            3 
 2307000   0.89986341   -4.0004469     1638.678  0.059192241  0.059019709            4 
 2308000   0.87775625   -3.9954662    1637.4156  0.059121014  0.059008722            2 
 2309000    0.8847954   -3.9870719    1641.6124  0.059246874  0.058997622            2 
 2310000   0.88102424   -3.9975723    1645.0134  0.059343919  0.058986523            5 
 2311000   0.89049254   -4.0339847    1637.6814   0.05905385  0.058975748            3 
 2312000   0.90385678   -3.9756377    1647.8087  0.059393336  0.058964966            3 
 2313000    0.8858181   -4.0021715    1641.8888  0.059154374  0.058954122            4 
 2314000   0.89408415   -4.0024484    1640.1137  0.059064885  0.058943115            5 
 2315000   0.87686197   -4.0125254    1640.1516  0.059040734  0.058932128            2 
 2316000   0.86574094   -4.0225349    1644.2408  0.059162379  0.058921268            4 
 2317000   0.88698628   -4.0009559    1642.7125  0.059081876  0.058910304            2 
 2318000   0.88240106   -4.0111743    1645.6966  0.059163668  0.058899223            5 
 2319000   0.87044509   -4.0286035    1638.3885  0.058875541  0.058888199           12 
 2320000   0.84938043   -4.0373757    1641.6629  0.058967778  0.058877245            4 
 2321000   0.88278828   -4.0038025    1649.8584  0.059236623  0.058866071            3 
 2322000   0.87754789    -3.994654    1643.4268  0.058980288    0.0588552            5 
 2323000   0.87259384   -4.0286775    1642.8928  0.058935744  0.058844186            3 
 2324000   0.87819787   -3.9886339    1648.5216  0.059112221  0.058833196            2 
 2325000   0.88502475   -4.0057851    1653.9212  0.059280331  0.058822264            3 
 2326000   0.86913571    -4.014212    1643.3308  0.058875422  0.058811292            5 
 2327000   0.88049386   -3.9878188    1652.1516  0.059166009  0.058800413            2 
 2328000   0.88113459   -4.0000124    1651.7375   0.05912577  0.058789515            3 
 2329000   0.88396665   -3.9927752    1652.1256  0.059114268  0.058778578            4 
 2330000   0.87166285   -4.0006827    1649.7038  0.059002281  0.058767516            2 
 2331000   0.87185329   -4.0292797    1644.7764  0.058800815  0.058756458            3 
 2332000   0.86100095   -4.0299126     1649.446  0.058942466  0.058745313           11 
 2333000   0.86919681   -3.9960495    1648.5809    0.0588863  0.058734309            4 
 2334000   0.86063359   -4.0124756    1649.9764  0.058910898  0.058723286            4 
 2335000   0.87362932   -4.0016111    1651.0403  0.058923636  0.058712181            7 
 2336000   0.88124148   -3.9795693    1654.2092  0.059011457  0.058701016            5 
 2337000   0.87051826   -4.0119045    1646.0272  0.058694451  0.058690106            3 
 2338000   0.88031396   -4.0048355    1649.8058  0.058804029  0.058679199            3 
 2339000   0.89091045   -4.0229948    1646.3739  0.058656615  0.058668208            2 
 2340000   0.87238167   -4.0067125    1648.7512  0.058716211  0.058657328            4 
 2341000   0.85863691   -4.0188926     1653.746   0.05886893  0.058646417            3 
 2342000   0.88470386   -4.0412395     1649.521  0.058693461  0.058635318            5 
 2343000   0.87590162   -4.0160627    1650.3774  0.058698868  0.058624166            6 
 2344000   0.89083154   -4.0243237    1656.3176   0.05888501  0.058613267            2 
 2345000   0.89087043   -4.0170684    1656.4664  0.058865187  0.058602298            2 
 2346000   0.86149538    -4.040145    1646.3481   0.05848068  0.058591397            5 
 2347000   0.86344457   -4.0072046    1656.0176   0.05879909  0.058580263            4 
 2348000   0.87824918   -4.0218364    1652.7022  0.058656383  0.058569103            4 
 2349000   0.86720315   -4.0297831    1651.8813  0.058602288  0.058557939            3 
 2350000   0.86614639   -4.0478489    1653.2924  0.058627391  0.058546757            4 
 2351000   0.88745049   -4.0083437     1653.005  0.058592267  0.058535508            3 
 2352000   0.88134913   -4.0175469    1649.7755   0.05845293  0.058524139            5 
 2353000   0.88583689   -4.0318922    1653.2544  0.058551298  0.058512846            5 
 2354000   0.88096307   -4.0188418    1652.5191  0.058500393  0.058501659            9 
 2355000   0.90175125    -4.018956    1648.6483  0.058338579  0.058490344            3 
 2356000   0.88611275   -4.0217422     1652.664  0.058455858  0.058478962            5 
 2357000     0.884878   -3.9959696    1657.3983  0.058598439  0.058467545            4 
 2358000   0.87747587   -4.0364774    1649.8886  0.058308191  0.058456152            3 
 2359000   0.88279694   -4.0000445    1660.5147   0.05865885  0.058444847            6 
 2360000   0.87641232   -3.9945514    1657.0009  0.058509918  0.058433565            3 
 2361000   0.86361719   -4.0125987    1659.3639   0.05856854  0.058422196            2 
 2362000   0.86504589   -4.0182471    1660.7769  0.058593598  0.058411008            4 
 2363000   0.85878169   -4.0057061    1659.4735  0.058522835  0.058399637            4 
 2364000   0.87730634    -4.014048    1653.9618  0.058303786  0.058388258            6 
 2365000   0.86638947   -4.0074581    1660.2029  0.058499044    0.0583769            3 
 2366000   0.90598389    -4.026425    1655.2004  0.058298125  0.058365609            5 
 2367000   0.86529026   -3.9958434    1657.7074   0.05836176  0.058354306            3 
 2368000   0.87902325   -4.0167817    1658.2206  0.058355174  0.058343128            8 
 2369000   0.86286551   -3.9991659    1659.8872  0.058389165  0.058331914            3 
 2370000   0.85602315   -4.0332905    1654.6922  0.058181863  0.058320614            6 
 2371000   0.86841057   -3.9971019    1658.7399  0.058299588  0.058309182            4 
 2372000   0.87225071   -4.0270363    1657.3001  0.058224429  0.058297584            2 
 2373000   0.86420645   -4.0219517    1657.0893  0.058192489     0.058286            5 
 2374000   0.88312007   -3.9977109     1660.226  0.058278083  0.058274375            7 
 2375000   0.89150705    -4.009167    1666.0251  0.058457022   0.05826293            3 
 2376000   0.88184375   -4.0176949    1656.7792  0.058108136  0.058251457            3 
 2377000   0.88981083   -4.0153847    1668.2678  0.058486461  0.058239967            4 
 2378000   0.87405941   -4.0026245    1661.9993  0.058242197  0.058228488            2 
 2379000   0.86972797   -4.0250688    1665.2544  0.058331734  0.058216841            6 
 2380000   0.87263462   -3.9997601    1668.3653  0.058416151  0.058205395            2 
 2381000   0.85273849   -4.0049633    1661.5421   0.05815281   0.05819392            4 
 2382000    0.8773909   -4.0252424    1654.1588  0.057870095  0.058182508            7 
 2383000   0.87492069   -4.0156874    1665.7384   0.05825075  0.058171008            4 
 2384000   0.86962944    -4.008664     1668.207  0.058312603  0.058159522            3 
 2385000   0.86383523   -4.0192352    1655.8543  0.057856545  0.058148184            7 
 2386000    0.8609083   -4.0231751    1662.1613  0.058052573  0.058136903            8 
 2387000   0.86116406    -4.039958    1668.6671  0.058255379  0.058125471            3 
 2388000   0.87443766   -4.0443482     1660.903  0.057960043  0.058113768            7 
 2389000   0.87763338   -4.0150964    1663.0962  0.058012285  0.058102069            6 
 2390000   0.87474234   -4.0272503    1662.3653  0.057962529  0.058090604            6 
 2391000   0.88485827   -4.0285966    1665.6393  0.058052394  0.058079225            4 
 2392000   0.86991021   -4.0115227    1665.0537  0.058007725  0.058067649            7 
 2393000   0.85282969   -4.0239893    1668.6551  0.058108898  0.058055942            6 
 2394000   0.85715897   -4.0139319     1667.911  0.058058724  0.058044499           12 
 2395000   0.87746017   -4.0435917    1657.7411  0.057680623  0.058032902            5 
 2396000   0.86434784   -4.0304185    1667.6634  0.058001649  0.058021093            2 
 2397000   0.87944538   -4.0260449    1668.6993  0.058013465  0.058009409            4 
 2398000   0.87206669   -4.0344534    1666.7167  0.057920374  0.057997782            2 
 2399000   0.87596467    -4.030907    1668.6514  0.057963437  0.057986187            3 
 2400000   0.84489989   -4.0362912    1671.7822  0.058047993  0.057974566            3 
 2401000     0.877165   -4.0448322    1668.0453  0.057894117  0.057962883           10 
 2402000   0.87556578   -4.0449077    1661.7374  0.057651173  0.057951265            3 
 2403000    0.8745979   -4.0163693    1668.1248  0.057848688  0.057939761            3 
 2404000   0.85316459   -4.0333584    1669.4795  0.057871584   0.05792822            3 
 2405000   0.87048726   -4.0142957     1667.603  0.057782502  0.057916611            5 
 2406000   0.86829449   -4.0230243    1666.8036  0.057730797  0.057904844            3 
 2407000   0.88310167   -4.0444059    1668.3161  0.057759178  0.057893455            5 
 2408000    0.8784289   -4.0408688    1671.6606  0.057850935  0.057881765            2 
 2409000   0.87688279   -4.0305731    1673.3082  0.057883915  0.057870149            4 
 2410000   0.85840583   -4.0181563    1672.2626  0.057823743  0.057858281            7 
 2411000   0.86152079   -4.0326444    1671.4622  0.057772094  0.057846598            9 
 2412000   0.85396201   -4.0552648    1665.4896   0.05754179  0.057834687            5 
 2413000   0.86010931   -4.0269078    1679.6381  0.058006565   0.05782298            5 
 2414000   0.84907937   -4.0267655    1674.0288  0.057788899  0.057811239            3 
 2415000   0.87395414   -4.0587361    1669.2343  0.057599528  0.057799448            4 
 2416000   0.87441706   -4.0107657    1673.3657  0.057718187  0.057787706            3 
 2417000   0.84886267   -3.9909258    1675.8507  0.057779987  0.057775915            2 
 2418000   0.86500009   -4.0194541    1667.5197  0.057468971  0.057764166            1 
 2419000   0.86990794   -3.9975187    1675.4696  0.057719087  0.057752308            3 
 2420000   0.85557963   -4.0429356    1674.0751  0.057647215  0.057740495            5 
 2421000    0.8637251   -4.0328905    1669.9942  0.057482935  0.057728646            3 
 2422000   0.88536232   -4.0597952    1674.6874  0.057620678  0.057716823            4 
 2423000   0.85567136   -4.0586301    1671.4675  0.057486156  0.057704952            5 
 2424000   0.84953606   -4.0384469    1676.5186  0.057636089  0.057692933            5 
 2425000   0.86923777   -4.0175745     1675.868  0.057589964  0.057681027            8 
 2426000   0.87134374   -4.0562105    1678.5082   0.05765692  0.057669077            6 
 2427000   0.85161106   -4.0796196    1674.4304  0.057493147  0.057657141            5 
 2428000   0.85071874   -4.0549399    1674.5367  0.057473114  0.057645239            4 
 2429000   0.87030011   -4.0313106    1674.9088  0.057462219  0.057633548            4 
 2430000   0.85381331   -4.0413571    1675.5514  0.057460611  0.057621813            6 
 2431000   0.86201457   -4.0104082    1681.7256  0.057648623  0.057610085            3 
 2432000   0.86279031   -4.0311731    1680.5806  0.057585685  0.057598524            5 
 2433000   0.86889937   -4.0454391    1675.1263  0.057375199  0.057586847            2 
 2434000   0.86507814   -4.0156705     1684.134  0.057660026  0.057575233            3 
 2435000   0.86801351   -4.0222606    1681.3347  0.057540543  0.057563631            4 
 2436000   0.86479169   -4.0583708      1678.51  0.057420292   0.05755204            5 
 2437000   0.85707329   -4.0380401    1685.2682  0.057627829  0.057540354            2 
 2438000   0.86812264   -4.0022759    1688.7231  0.057722281  0.057528781            2 
 2439000   0.85276185   -4.0555515    1678.4279   0.05734686  0.057517252            5 
 2440000   0.86937812   -4.0625442    1679.8708  0.057372635  0.057505521            6 
 2441000   0.88147303   -4.0410172    1685.1983   0.05753101   0.05749394            5 
 2442000   0.85602551   -4.0500997    1679.3443  0.057307682  0.057482339            3 
 2443000    0.8785567   -4.0363944    1686.1719  0.057517119  0.057470736            3 
 2444000   0.87232611   -4.0482465    1682.2168  0.057358729  0.057459057            4 
 2445000    0.8359866   -4.0618391    1680.0546  0.057261575  0.057447471            5 
 2446000   0.86225018   -4.0409603    1687.1543  0.057480046  0.057436024            5 
 2447000   0.83813929   -4.0461096    1684.8715  0.057378814  0.057424593            3 
 2448000   0.86727288   -4.0502829    1688.4668  0.057477765  0.057413054            4 
 2449000   0.86685044   -4.0426705    1687.9031  0.057435112  0.057401691            3 
 2450000   0.85148948   -4.0344206    1685.0677  0.057315228  0.057390222            3 
 2451000   0.86988373   -4.0637078    1687.1472  0.057362545  0.057378816            8 
 2452000   0.86520618   -4.0390135    1692.7636   0.05753003    0.0573674            3 
 2453000   0.86110481   -4.0233417    1693.5377  0.057532874  0.057356023            7 
 2454000   0.85475088   -4.0599032    1688.9545  0.057353793   0.05734464            6 
 2455000   0.87585727   -4.0240569    1687.9918  0.057297752   0.05733325            4 
 2456000   0.85340702   -4.0252221    1691.4507  0.057391784  0.057321882            4 
 2457000     0.842243   -4.0718552    1692.7268  0.057411709  0.057310419            3 
 2458000   0.86961787   -4.0684696    1690.5872  0.057315812  0.057298909            3 
 2459000   0.86604514   -4.0518407    1688.0422  0.057206257  0.057287568            4 
 2460000    0.8339282   -4.0594857    1693.0062  0.057351158  0.057276117            3 
 2461000   0.84965114   -4.0147613    1687.2469  0.057132835  0.057264669            2 
 2462000   0.84566289   -4.0332185    1693.0994  0.057307725  0.057253423            5 
 2463000   0.87682033   -4.0419686    1697.8827  0.057446296  0.057242187            3 
 2464000     0.852339   -4.0271892    1689.6842  0.057145706  0.057230915            4 
 2465000   0.87462423   -4.0406323    1692.9426  0.057232677  0.057219646            3 
 2466000   0.87273563   -4.0466395    1696.2292  0.057320533  0.057208337            4 
 2467000    0.8624578   -4.0318823    1696.9365   0.05732119  0.057196905            3 
 2468000   0.86519387    -4.053048    1690.8694  0.057093106  0.057185431            8 
 2469000   0.85020685   -4.0637706    1694.8363  0.057203873  0.057174092           12 
 2470000   0.83818492    -4.048504    1688.4812  0.056966304  0.057162602            6 
 2471000   0.84925002   -4.0599765     1698.887  0.057294178  0.057151143           14 
 2472000   0.85309291   -4.0354553     1701.522  0.057359829  0.057139795            6 
 2473000    0.8408222   -4.0622359    1697.6523  0.057206239  0.057128553            8 
 2474000    0.8490857    -4.055199    1692.3043  0.057002973  0.057117317            4 
 2475000   0.87536002   -4.0324202    1699.5398  0.057223562  0.057106068            3 
 2476000   0.85485394   -4.0428953    1697.8829  0.057144685  0.057094628            6 
 2477000   0.84571678   -4.0409838    1702.5448  0.057278456  0.057083388            3 
 2478000   0.86264661   -4.0256131    1698.1336  0.057106995  0.057072023            2 
 2479000   0.85061701     -4.07722    1704.2446  0.057289384  0.057060694            3 
 2480000   0.85341551   -4.0149213     1709.438  0.057440794  0.057049456            3 
 2481000   0.86205305   -4.0556262    1697.8334  0.057027858  0.057038299            4 
 2482000   0.84485765   -4.0440016    1698.2019  0.057017253  0.057026979            4 
 2483000   0.85722981   -4.0618134     1699.425  0.057035339  0.057015536            3 
 2484000   0.85794453   -4.0381094    1704.9631   0.05719817  0.057004122            5 
 2485000   0.85296901   -4.0281723    1702.7993  0.057102592  0.056992869            2 
 2486000    0.8513022   -4.0674637     1699.224  0.056959773  0.056981665            3 
 2487000    0.8519554   -4.0514648    1702.2831  0.057039373  0.056970299            3 
 2488000   0.88435527   -4.0611545    1706.4066  0.057154562  0.056959128            2 
 2489000   0.84264194   -4.0600469    1704.3053  0.057061246  0.056947934            3 
 2490000   0.85016207   -4.0864939    1704.3315  0.057039208  0.056936748            7 
 2491000   0.85019376   -4.0631169    1709.4781  0.057188483  0.056925587            3 
 2492000   0.86458466   -4.0593962    1707.9709   0.05711513  0.056914589            5 
 2493000   0.85051492   -4.0532214    1709.8219  0.057154095    0.0569035            6 
 2494000    0.8532046   -4.0669065    1709.6005  0.057123779  0.056892392            5 
 2495000   0.86413337   -4.0779747      1708.28  0.057056779  0.056881102            5 
 2496000    0.8432325   -4.0736532    1714.0234  0.057225673  0.056870017            7 
 2497000   0.85638479   -4.0474134    1712.7869  0.057161491  0.056859097            3 
 2498000   0.85401077   -4.0686786    1707.7066  0.056969128  0.056848023            3 
 2499000   0.83800541   -4.0689359    1707.4315  0.056937157  0.056837025            4 
 2500000   0.85466852   -4.0518089    1709.6017  0.056986722  0.056826051            4 
 2501000   0.85642373   -4.0792956    1710.0393  0.056978517  0.056815008            7 
 2502000   0.85113746   -4.0459482    1712.5977  0.057040957  0.056803907            3 
 2503000    0.8436489   -4.0355004    1719.2924  0.057241058  0.056792898            3 
 2504000   0.84345809   -4.0546562    1711.1714  0.056947932  0.056781934            3 
 2505000   0.83360005   -4.0597441    1713.6824   0.05700873  0.056770953            3 
 2506000   0.85271966   -4.0452078    1712.2052  0.056936859  0.056759894            5 
 2507000   0.84659662   -4.0593061    1718.9557  0.057138536  0.056748786            4 
 2508000   0.86753659   -4.0767447    1709.3316  0.056795973  0.056737662            3 
 2509000   0.83688014   -4.0301164    1724.2698  0.057269489  0.056726728            4 
 2510000   0.82367772   -4.0756299    1707.6882  0.056696154  0.056715656            5 
 2511000   0.86470069   -4.0733734    1711.1398  0.056788125  0.056704546            6 
 2512000   0.85241309   -4.0841498    1707.5845  0.056647574  0.056693553            3 
 2513000   0.85283058   -4.0492885    1714.6474  0.056859246  0.056682512            7 
 2514000   0.84847367   -4.0464749    1716.4774  0.056897287  0.056671429            4 
 2515000   0.84162636   -4.0681021    1712.5135  0.056743323  0.056660358            1 
 2516000   0.84132223   -4.0501532    1717.7074  0.056892798   0.05664927            3 
 2517000   0.85674418   -4.0608777    1710.5066  0.056631789  0.056638073            5 
 2518000   0.86816774   -4.0465611    1720.1591  0.056928748  0.056627026            2 
 2519000    0.8389722   -4.0510352    1712.7668  0.056661598  0.056615918            2 
 2520000   0.85351767   -4.0721722    1711.3213  0.056591312  0.056604802            4 
 2521000   0.87483533   -4.0681145    1713.1196  0.056628309   0.05659366            3 
 2522000   0.84437522   -4.0584326    1713.7797  0.056627667  0.056582512            4 
 2523000   0.84872066    -4.057123    1718.1359  0.056749103  0.056571257            3 
 2524000   0.85499955   -4.0480874    1713.0844  0.056559838  0.056559981            3 
 2525000   0.84140021   -4.0594526    1719.2893  0.056742221  0.056548734            3 
 2526000   0.84764525   -4.0397394    1719.2203  0.056717483   0.05653756            6 
 2527000   0.84651291   -4.0642003    1717.2523  0.056630138  0.056526257            5 
 2528000   0.86582306   -4.0610114    1719.5656  0.056683994  0.056515137            2 
 2529000   0.84916111   -4.1004647    1720.4741  0.056691516  0.056503834            2 
 2530000   0.86218241   -4.0837533    1714.9575  0.056487402  0.056492406            7 
 2531000   0.85900784   -4.0522651    1718.3288  0.056576083  0.056481007            4 
 2532000    0.8427249   -4.0513416    1714.8494  0.056439226  0.056469616            3 
 2533000   0.84433186    -4.079918    1715.1418  0.056426564  0.056458191            6 
 2534000   0.84071354   -4.0674987    1718.9646  0.056530012  0.056446619            5 
 2535000    0.8229758   -4.0736574    1715.8505  0.056405342  0.056435155            3 
 2536000   0.84599158   -4.0770374    1718.8547  0.056481818  0.056423625            9 
 2537000   0.86657565   -4.0704375    1713.8042  0.056293661  0.056412133            3 
 2538000    0.8523484   -4.0675833    1717.3467  0.056387794  0.056400705            5 
 2539000   0.83472326   -4.0789982      1714.76  0.056280687  0.056389143            2 
 2540000   0.85257914   -4.0851402    1712.0807  0.056170625  0.056377673            6 
 2541000   0.86343851   -4.0557303    1717.0099  0.056310178  0.056366092            5 
 2542000    0.8449445   -4.1005263    1717.5552  0.056305901  0.056354441            3 
 2543000   0.81722883   -4.0621707     1714.793  0.056193244  0.056342826            4 
 2544000   0.84625517   -4.0492861    1721.9279  0.056404871  0.056331108            4 
 2545000   0.84347213   -4.0567188    1721.1988  0.056358835  0.056319478            5 
 2546000   0.86478053   -4.0615639    1719.8321  0.056291964  0.056307833           11 
 2547000   0.85613012   -4.0859162    1716.9536  0.056175684  0.056296286            5 
 2548000   0.84971589   -4.0620081    1724.1788  0.056389941   0.05628475            2 
 2549000   0.86251512   -4.0601616    1718.3729  0.056178006  0.056272956            6 
 2550000   0.82399858   -4.0790448    1715.9107  0.056075512  0.056261187            5 
 2551000   0.85068113   -4.0692083    1712.5604  0.055944086  0.056249542            6 
 2552000   0.85411705   -4.0604591     1718.671  0.056121701  0.056237965            7 
 2553000   0.83676615   -4.0804594    1722.8394  0.056235781  0.056226291            3 
 2554000   0.86050599   -4.1023857    1711.9583  0.055858729  0.056214669            8 
 2555000   0.83421732   -4.0709226    1726.8928  0.056323967  0.056203064            5 
 2556000   0.83870374   -4.0634643    1725.5082  0.056256789  0.056191368            4 
 2557000   0.83833678   -4.0778494    1718.6379  0.056010881  0.056179701            3 
 2558000   0.83971568   -4.0545876    1730.0311  0.056360147  0.056168152            3 
 2559000    0.8390518   -4.0783942    1723.9314   0.05613949   0.05615663            6 
 2560000   0.81720419   -4.0677633    1723.8802  0.056115893  0.056145137            5 
 2561000   0.82396968   -4.0706116    1731.6664  0.056347337  0.056133751            5 
 2562000    0.8323495    -4.062221    1724.0938  0.056079035   0.05612237            7 
 2563000   0.85621101    -4.081341    1720.7114  0.055947178  0.056110891            2 
 2564000   0.85273234   -4.0809151    1727.6664  0.056151404  0.056099313            3 
 2565000   0.84294622   -4.0674211    1729.4274  0.056186724  0.056087731            4 
 2566000   0.86548769   -4.0797472    1724.1039  0.055991943  0.056076154            5 
 2567000    0.8398472   -4.0649256    1728.9836   0.05612854  0.056064551            5 
 2568000   0.84532951   -4.0965846    1726.3419  0.056020959  0.056052905            2 
 2569000   0.84470431   -4.1098405    1724.1471  0.055927957  0.056041274            8 
 2570000   0.84346645   -4.0628462     1728.827  0.056057945  0.056029717            2 
 2571000   0.83515624   -4.0734574    1727.9993  0.056009313  0.056018079            3 
 2572000   0.85560714   -4.0465198    1731.1981  0.056091176  0.056006589            3 
 2573000   0.83933123   -4.0732712     1724.171  0.055841786  0.055994988            5 
 2574000   0.85297669   -4.0998227    1736.0992  0.056206269  0.055983433            3 
 2575000    0.8106352   -4.0980542    1728.6499  0.055943362  0.055971913            5 
 2576000   0.83073671   -4.0703363     1728.249  0.055908676  0.055960302           12 
 2577000   0.82933655   -4.0945193    1730.7081  0.055966502  0.055948734            8 
 2578000   0.84345049   -4.0731094    1729.0574  0.055891435  0.055937191            3 
 2579000   0.83570283   -4.0685957    1726.2219  0.055778141  0.055925595            6 
 2580000   0.84623464   -4.0871212    1724.9076  0.055714071  0.055914009            4 
 2581000   0.83456246   -4.0556941      1728.68  0.055814285  0.055902299            6 
 2582000   0.84055311   -4.0615632    1729.4958  0.055818995   0.05589077            3 
 2583000   0.82328958   -4.0772634    1729.2106  0.055788185  0.055879162            4 
 2584000   0.84208324   -4.1067526    1724.9836  0.055630275  0.055867416            9 
 2585000   0.83878197   -4.0778212    1729.2161    0.0557452  0.055855609            6 
 2586000   0.84171474   -4.1055907    1729.4718  0.055731883   0.05584407           10 
 2587000   0.82848334   -4.0630999    1732.9175  0.055821333  0.055832399            8 
 2588000   0.85467821    -4.094745    1734.6363   0.05585511  0.055820732            4 
 2589000   0.85171545   -4.0826094    1733.5286  0.055797881  0.055809051            9 
 2590000   0.83013389   -4.0609071    1734.1056  0.055794902  0.055797503            4 
 2591000   0.82643127   -4.0807012     1738.752  0.055922809  0.055785973            6 
 2592000   0.83039855    -4.078775    1735.6707   0.05580217  0.055774463            5 
 2593000   0.82343103   -4.0717032    1735.6273  0.055779255   0.05576285            5 
 2594000   0.82057214   -4.0898818    1730.6351  0.055597376  0.055751239            3 
 2595000   0.82137236    -4.074625    1733.0327  0.055652945  0.055739684            5 
 2596000   0.86055747   -4.0681102    1736.2615  0.055735154  0.055728088            4 
 2597000   0.84699719   -4.0974439    1730.4301  0.055526572  0.055716328            4 
 2598000   0.82884932    -4.085962     1735.547  0.055669328  0.055704773            5 
 2599000   0.82897767   -4.0966357    1737.3114  0.055704484  0.055693136            2 
 2600000   0.83816854   -4.0895856    1736.5941  0.055660067   0.05568141            2 
 2601000   0.85300141   -4.0896499    1736.8844  0.055647968  0.055669633            5 
 2602000   0.83107944    -4.068773     1741.645  0.055779047  0.055657971            5 
 2603000   0.84209237   -4.0784518    1735.8358  0.055571641  0.055646445            3 
 2604000   0.84430675   -4.0579384    1741.0206  0.055716223   0.05563478            3 
 2605000   0.83350922   -4.0834342    1730.8655  0.055369977   0.05562325            5 
 2606000   0.82038377   -4.1061276    1737.8262  0.055571317  0.055611558            6 
 2607000   0.83147125    -4.079686     1741.177   0.05565711  0.055600054            6 
 2608000    0.8425189   -4.0883992     1743.001  0.055694052  0.055588483            5 
 2609000   0.83458526   -4.0736638    1736.9204  0.055478484  0.055576884            7 
 2610000   0.82806234   -4.0955249    1736.6549  0.055448751  0.055565407            5 
 2611000    0.8330034   -4.0808661    1743.1923  0.055636165  0.055553961           12 
 2612000    0.8370167   -4.0994083    1738.7249  0.055472335  0.055542494            9 
 2613000   0.82881954   -4.0990408    1737.2089  0.055402757   0.05553094            4 
 2614000   0.83987979   -4.0760286    1746.3494   0.05567296  0.055519424            2 
 2615000   0.84575595   -4.0993021    1739.1633  0.055422666    0.0555081            3 
 2616000   0.83425983   -4.0731117    1743.9693  0.055554579  0.055496608            3 
 2617000   0.81830454   -4.0925343     1740.503  0.055422973  0.055485279            3 
 2618000   0.82653071   -4.0665192    1747.7365  0.055632051  0.055473969            5 
 2619000    0.8341449   -4.0892658    1743.6462  0.055480659  0.055462725            3 
 2620000   0.83885705   -4.0970773    1750.0462  0.055663048  0.055451373            5 
 2621000   0.81117838   -4.0949729    1743.5662  0.055435782  0.055439935            3 
 2622000   0.84173516   -4.1024635    1741.7205   0.05535598  0.055428587            4 
 2623000   0.81312635   -4.1036845    1744.0929  0.055410245  0.055417174            7 
 2624000   0.82550478   -4.0848341    1747.5101  0.055497652  0.055405826            2 
 2625000   0.82833435   -4.1354788    1746.6899  0.055450474  0.055394527            1 
 2626000   0.83179191   -4.0849811    1748.5104  0.055487128  0.055383227            4 
 2627000   0.81935781   -4.0877382    1748.1639  0.055455015  0.055371966            5 
 2628000   0.81691716   -4.0747529       1752.5  0.055571411   0.05536075            6 
 2629000   0.82548557   -4.0812029    1753.2135  0.055572889  0.055349419            4 
 2630000   0.85447284   -4.0870871    1748.1574  0.055391554  0.055338215           10 
 2631000   0.82659117   -4.0839988    1750.2375  0.055436382  0.055327128            2 
 2632000   0.82542766   -4.0810816    1754.9143  0.055563396  0.055315694            7 
 2633000   0.81853394   -4.0946298    1746.7937  0.055285279   0.05530443            2 
 2634000   0.84627044    -4.076213    1760.4445   0.05569617  0.055293227            9 
 2635000   0.82305261   -4.0937125    1752.9715  0.055438694  0.055281997            5 
 2636000   0.84471705   -4.1023348     1755.726  0.055504743  0.055270748            6 
 2637000   0.82516714   -4.1062063    1746.6844  0.055197964  0.055259453            3 
 2638000   0.83540806   -4.0901459     1758.249  0.055542361  0.055248214            6 
 2639000   0.82780946   -4.1259376    1753.4018   0.05536825  0.055237096           11 
 2640000   0.82113167   -4.1042731    1757.3982  0.055473428  0.055225867            7 
 2641000   0.82865708   -4.0981435    1753.3179  0.055323675  0.055214606            7 
 2642000   0.83271627   -4.1110395    1749.7372  0.055189794  0.055203295            4 
 2643000   0.83967981   -4.0927248    1751.8947  0.055236937  0.055192149            6 
 2644000   0.82271693    -4.120337    1747.7818  0.055086414  0.055180832            5 
 2645000   0.81704177   -4.0888129    1753.6243  0.055249662   0.05516944            2 
 2646000   0.82568234   -4.0911691    1754.8514  0.055267429  0.055158195            8 
 2647000   0.82031264   -4.0939321    1755.5256  0.055267774   0.05514683            5 
 2648000   0.82424395   -4.0968708    1756.7355  0.055284978  0.055135527           16 
 2649000   0.83558462   -4.1025329     1753.074  0.055148925  0.055124443            6 
 2650000    0.8218648   -4.0814445    1757.9713  0.055282115  0.055113228            4 
 2651000   0.83817988    -4.097303    1753.9267  0.055134123  0.055102085            5 
 2652000   0.84094444   -4.1192643    1756.4054  0.055191219  0.055090724            6 
 2653000   0.81526177    -4.088198    1759.6891  0.055273561  0.055079475            6 
 2654000   0.82717053   -4.1012513    1756.2768   0.05514559  0.055068312            3 
 2655000   0.81763939   -4.0883397    1758.9881  0.055209921  0.055057077            4 
 2656000    0.8237078   -4.1027335    1757.5348  0.055143535  0.055045777            6 
 2657000   0.83211874   -4.1060592    1755.1118  0.055046787  0.055034552            6 
 2658000   0.82901194    -4.105785    1759.3867  0.055160104  0.055023186            7 
 2659000   0.81636914   -4.1115804     1753.379  0.054951079  0.055012023            3 
 2660000   0.84331253    -4.123167    1757.0995  0.055046977  0.055000681            3 
 2661000   0.81094608   -4.1241725    1752.1254  0.054870518   0.05498943            7 
 2662000    0.8134232   -4.1192332    1755.6776  0.054961107  0.054978089            4 
 2663000   0.80325683   -4.1138035    1758.1161  0.055016777  0.054966815            8 
 2664000   0.82927068    -4.090433    1762.1723  0.055123006  0.054955468            3 
 2665000   0.79218083    -4.110392    1755.6019  0.054896871  0.054944143            3 
 2666000   0.82928922   -4.0755103    1757.9834  0.054950719  0.054932727            4 
 2667000   0.83207858   -4.1194465    1761.4413  0.055038162  0.054921358            6 
 2668000   0.83031533   -4.0990004    1763.5522  0.055083464  0.054909848            3 
 2669000   0.82465539   -4.1058305    1759.2687  0.054929083  0.054898435            3 
 2670000   0.81547992   -4.1044079    1757.6572  0.054858215  0.054886989            3 
 2671000   0.84142754   -4.0904244     1759.105  0.054882845  0.054875742            5 
 2672000    0.8215112   -4.1181463    1758.6505  0.054848131  0.054864373            5 
 2673000   0.81552577   -4.0755002    1757.2147  0.054782849  0.054853009            3 
 2674000   0.82264202   -4.0882834    1760.0227  0.054849871  0.054841583            3 
 2675000   0.82771749   -4.1179291    1758.4798  0.054781302  0.054830309            3 
 2676000   0.83749864    -4.088164    1759.5383  0.054793793  0.054818804            4 
 2677000    0.8182401   -4.1055451    1763.5491  0.054898178   0.05480745            3 
 2678000   0.81532251   -4.1091413    1758.4739   0.05471975  0.054796049            3 
 2679000   0.83422779   -4.1059931    1763.5691  0.054857816  0.054784571            4 
 2680000     0.823916   -4.0845603    1769.7875  0.055030706  0.054773223            3 
 2681000   0.82224164   -4.0902969    1771.6651   0.05506854  0.054761896            2 
 2682000   0.83718242   -4.1171244    1762.8686  0.054774689  0.054750634            6 
 2683000   0.82827441    -4.093306    1766.3349  0.054861936  0.054739352            3 
 2684000   0.85142633   -4.1293206    1765.6837  0.054821277  0.054727983            4 
 2685000   0.82616965   -4.1069551    1767.8471  0.054868005  0.054716716           13 
 2686000    0.8298254   -4.1227327    1768.1235  0.054856151  0.054705274            7 
 2687000   0.82223682   -4.1168412    1766.7628  0.054793538   0.05469407            6 
 2688000   0.82133909   -4.1122457    1768.7437  0.054834564  0.054682753            3 
 2689000   0.82471866   -4.1176156    1762.3915  0.054617316  0.054671322            8 
 2690000   0.83956919    -4.130194    1770.7175  0.054854941  0.054659958            5 
 2691000   0.82543008   -4.1446711    1768.0713  0.054752612  0.054648647            5 
 2692000   0.81977462   -4.0968807    1760.9529  0.054511915  0.054637273            2 
 2693000   0.82194501   -4.0949303    1772.9292  0.054862272  0.054625787            5 
 2694000   0.83215614   -4.1322803    1770.4284   0.05476455  0.054614336            4 
 2695000   0.81355199   -4.1032765    1766.3047  0.054616719  0.054602862            5 
 2696000   0.81957499   -4.1043483    1769.2914  0.054688779   0.05459131            4 
 2697000    0.8359897   -4.1049901     1774.152  0.054818689  0.054579885            4 
 2698000   0.81910724    -4.082379    1769.5179  0.054655236  0.054568495            3 
 2699000   0.80271612   -4.1109804    1768.2973  0.054597297  0.054557065            4 
 2700000   0.81870628   -4.1231397    1765.5266   0.05449156  0.054545553            4 
 2701000   0.82716694   -4.1173971    1763.6392  0.054413156  0.054534065            3 
 2702000   0.80345977   -4.1467361    1765.7729  0.054458824   0.05452243            4 
 2703000   0.80901715   -4.1325795     1770.264  0.054577136  0.054510918            3 
 2704000   0.79356458   -4.1244582    1765.4393  0.054408263  0.054499386            6 
 2705000   0.81658262   -4.1403519    1767.6804   0.05445719  0.054487909            8 
 2706000   0.80510175   -4.1164001    1769.3338  0.054487983  0.054476546            4 
 2707000   0.81204207   -4.1185949    1772.6017  0.054568455  0.054465054            3 
 2708000   0.82684141   -4.1099189    1768.0536  0.054408347  0.054453541            3 
 2709000   0.81716062   -4.1255662    1766.9084  0.054353033  0.054442055            8 
 2710000   0.79269808    -4.101196    1771.7296  0.054481231  0.054430775            2 
 2711000   0.81693727   -4.1213505    1762.8307   0.05418759  0.054419298            4 
 2712000   0.80676746    -4.125263    1768.8612  0.054352913  0.054407859            3 
 2713000   0.81783177   -4.0860877    1774.8351  0.054516374  0.054396531            3 
 2714000   0.83686776   -4.1199994    1775.5411  0.054517965  0.054385093            3 
 2715000   0.80242969   -4.1052481    1772.2614  0.054397219  0.054373643            2 
 2716000   0.83128178   -4.1060992    1771.7923  0.054362796   0.05436231            6 
 2717000   0.81059549   -4.1174741    1771.0168  0.054319005  0.054350922            5 
 2718000   0.80566504   -4.1381698    1775.3737    0.0544326  0.054339458            5 
 2719000   0.81275564   -4.1151113    1776.4279   0.05444489  0.054327929            4 
 2720000   0.81915803   -4.1291743    1776.1532  0.054416458  0.054316499            3 
 2721000   0.82314504   -4.1182363    1778.3321   0.05446319  0.054305021            9 
 2722000   0.81809745   -4.1310517     1772.359  0.054260318  0.054293481            4 
 2723000   0.80723235   -4.1324539    1774.6109  0.054309308  0.054281996            7 
 2724000   0.81093044   -4.1294903     1772.823  0.054234675  0.054270584            4 
 2725000   0.80726957   -4.1157382    1776.2859   0.05432067  0.054259323            6 
 2726000   0.81123254   -4.1424858    1776.5211  0.054307934  0.054247841            7 
 2727000   0.81569359     -4.09087    1774.0622  0.054212878  0.054236461            3 
 2728000   0.81120338   -4.1372922    1777.9182  0.054310794   0.05422514            3 
 2729000   0.79046983   -4.1321942    1779.3844  0.054335665  0.054213815            8 
 2730000   0.80557513   -4.1125022    1783.8966  0.054453499  0.054202557            7 
 2731000    0.8135008   -4.1250143    1782.7117  0.054397402  0.054191266            6 
 2732000   0.81275338   -4.0908075    1786.1294   0.05448174  0.054179958            4 
 2733000   0.81406225   -4.1168179    1779.3118  0.054253927  0.054168804            4 
 2734000   0.81802479   -4.1299816    1780.0325  0.054256051  0.054157572            3 
 2735000   0.81581057   -4.1072152    1782.8978  0.054323516  0.054146154           12 
 2736000   0.79745623   -4.1065922    1780.4728  0.054229801  0.054134886            5 
 2737000   0.80783218   -4.1378402    1783.9702  0.054316473  0.054123716            6 
 2738000   0.80809015   -4.1425871     1776.491  0.054068997  0.054112528            5 
 2739000   0.80644289   -4.0840006    1779.5017  0.054140857  0.054101178            4 
 2740000   0.82234888    -4.115807    1781.4092  0.054179112  0.054090031            3 
 2741000   0.81333228   -4.0984993    1785.7766  0.054292126  0.054078839            2 
 2742000   0.81724884     -4.13004    1781.4996  0.054142341  0.054067557           10 
 2743000   0.79853678   -4.1317086    1784.6387  0.054217969  0.054056215            6 
 2744000   0.81539419   -4.1225479    1784.1744   0.05418411  0.054044936            6 
 2745000   0.80792315   -4.1196636    1785.9251  0.054217519  0.054033472            5 
 2746000   0.80754817    -4.143192    1784.9172  0.054167188  0.054022176            3 
 2747000   0.81294526   -4.1153165    1788.5258  0.054256942  0.054010889            6 
 2748000   0.79976436   -4.1253175    1786.2636  0.054168596   0.05399971            6 
 2749000    0.8246051   -4.1078254    1785.9359  0.054138958  0.053988456            6 
 2750000   0.79930417   -4.1051811    1790.0874  0.054245074  0.053977251            3 
 2751000   0.82548776   -4.1251206    1782.4125  0.053992865  0.053966071            6 
 2752000   0.81683612   -4.1302209    1789.4218  0.054185494  0.053954853            6 
 2753000   0.83431671   -4.1177072    1784.8528  0.054027511  0.053943642            4 
 2754000   0.79746647   -4.1291022    1783.6627  0.053971881  0.053932509            4 
 2755000    0.8229836   -4.1293728    1790.8956  0.054171072   0.05392124            4 
 2756000   0.80540603   -4.1495588     1791.748  0.054177189  0.053910181            5 
 2757000   0.79926778   -4.1345603    1789.1431  0.054078801  0.053898975            3 
 2758000   0.79204966   -4.1407847    1787.1575  0.053999201  0.053887847            7 
 2759000   0.82712737   -4.1376533    1787.8824  0.054001521  0.053876633            5 
 2760000   0.81905441   -4.1399247    1794.8822  0.054193303  0.053865549            2 
 2761000   0.80461004   -4.1538129    1788.7584  0.053988846  0.053854492            2 
 2762000   0.79803338    -4.118147    1788.6481   0.05396597  0.053843388            4 
 2763000   0.82133873   -4.1199753    1790.7227  0.054009009  0.053832291            4 
 2764000   0.81740127   -4.1311364    1793.8558  0.054083931  0.053821258            3 
 2765000    0.8005992   -4.1233657    1797.5572  0.054175927   0.05381026            2 
 2766000    0.7931043   -4.1069296    1794.8616  0.054075125  0.053799276            3 
 2767000   0.82772564   -4.1526749    1794.8322    0.0540547  0.053788313            5 
 2768000   0.80473653   -4.1340538    1794.5593  0.054026954  0.053777139           10 
 2769000   0.81002709   -4.1301172    1793.4547  0.053974198  0.053766167            3 
 2770000   0.81321327    -4.150073    1791.5225  0.053896585  0.053755033            4 
 2771000   0.79968671   -4.1397082    1793.2879  0.053930226  0.053743941            6 
 2772000   0.82256241   -4.1465183    1791.3587  0.053852774  0.053732828            9 
 2773000   0.82244066   -4.1553596     1792.976  0.053881957  0.053721637            5 
 2774000   0.81592616   -4.1307614    1793.6184   0.05388183  0.053710481            4 
 2775000   0.80265549   -4.0944519     1795.361  0.053914744  0.053699401            4 
 2776000   0.82035659   -4.1179674    1799.0818  0.054007018  0.053688241            5 
 2777000   0.81826437   -4.1428468     1790.489  0.053729715   0.05367713            8 
 2778000   0.79516271   -4.1213428    1790.5219   0.05371136  0.053665824            5 
 2779000   0.81443315    -4.111852    1794.6474  0.053815742  0.053654699            5 
 2780000   0.81550836   -4.1476517    1793.8476  0.053772411  0.053643615            2 
 2781000   0.81219401   -4.1440537    1794.2517  0.053765183  0.053632427            6 
 2782000    0.8193902   -4.1342691    1797.6239  0.053846869  0.053621083            6 
 2783000   0.79643424    -4.131703    1794.4876  0.053733609  0.053609815            6 
 2784000   0.81645784   -4.1561209    1787.9647  0.053519058    0.0535985            7 
 2785000   0.80792763   -4.1210334    1794.8711  0.053706497  0.053587236           10 
 2786000   0.81895069   -4.1320226    1799.9571  0.053839347  0.053575943            6 
 2787000    0.8091412    -4.157289    1788.3382  0.053472616  0.053564682            5 
 2788000   0.80713837   -4.1293487    1796.3859  0.053693982   0.05355344            4 
 2789000   0.80230477   -4.1264183    1799.4346  0.053765823  0.053542221            3 
 2790000   0.80444786   -4.1455813    1795.8221  0.053638653  0.053530996            3 
 2791000   0.80216291    -4.121504    1792.8974   0.05353211  0.053519616            4 
 2792000   0.81539014    -4.150513    1790.6472  0.053445773  0.053508307            4 
 2793000   0.80461612   -4.1271668    1793.2331  0.053503792  0.053497045            8 
 2794000   0.81527679   -4.1346954    1795.1029   0.05354041  0.053485884            4 
 2795000    0.8057131   -4.1265595    1796.7831  0.053571351  0.053474729            6 
 2796000   0.82149685   -4.1140247    1801.8587  0.053703467  0.053463576            3 
 2797000   0.79561964   -4.1326322    1799.6113  0.053617306  0.053452543            5 
 2798000   0.79340853   -4.1318449    1795.4653  0.053474662  0.053441304            2 
 2799000   0.79116228   -4.1421692    1795.3472  0.053452041  0.053429928            8 
 2800000    0.8159939   -4.1583609    1800.4619  0.053585176  0.053418722            5 
 2801000   0.81833684   -4.1415711    1795.5211  0.053419051  0.053407379            4 
 2802000   0.78660704   -4.1449834    1791.2461  0.053272844  0.053396124            6 
 2803000   0.80120784   -4.1254616    1800.8901  0.053540555   0.05338498            5 
 2804000   0.80206244   -4.1577622    1800.1882  0.053500601  0.053373685            6 
 2805000   0.78771425   -4.1346348    1799.6346  0.053465081  0.053362452            3 
 2806000   0.81002109   -4.1174565    1800.7034  0.053477768  0.053351256            5 
 2807000   0.81185978   -4.1499533     1799.497    0.0534229   0.05334005            4 
 2808000   0.78933105   -4.1244023    1801.3073    0.0534576   0.05332876            3 
 2809000   0.82302408   -4.1540915     1798.754  0.053362822  0.053317471            4 
 2810000   0.80116703   -4.1344291    1803.6482  0.053488972  0.053306253            4 
 2811000   0.80682595   -4.1512769    1801.2662   0.05339933  0.053295086            5 
 2812000   0.82038877   -4.1458199    1799.7957  0.053336761  0.053283993            6 
 2813000   0.81060289   -4.1489674    1800.6385   0.05334277  0.053272688            7 
 2814000   0.81375716   -4.1304457    1802.7889  0.053387495  0.053261401            4 
 2815000   0.80890757    -4.128983     1806.569  0.053480432  0.053250216            5 
 2816000   0.81619769   -4.1304436    1806.2318  0.053451463  0.053239065           15 
 2817000    0.8075987   -4.1560494    1803.1502  0.053341327  0.053227882            3 
 2818000   0.80799095   -4.1515042    1809.5387  0.053511318  0.053216835           20 
 2819000   0.78349162   -4.1426277    1803.8817  0.053325108  0.053205836            6 
 2820000   0.79557503   -4.1221287    1810.0293  0.053487863  0.053194706            3 
 2821000   0.79628826   -4.1447801    1807.4941  0.053394011  0.053183588            3 
 2822000   0.82397504   -4.1418679    1804.0116  0.053272253  0.053172631            7 
 2823000   0.78476188   -4.1374696    1806.8342  0.053336704  0.053161601            9 
 2824000   0.79877562      -4.1571     1809.899  0.053408256  0.053150465            3 
 2825000   0.80737929   -4.1533765    1811.8009  0.053445454  0.053139472            3 
 2826000   0.81470693   -4.1335046    1814.5131   0.05350652  0.053128442            2 
 2827000    0.7926221   -4.1300014     1812.754  0.053435737  0.053117587            3 
 2828000   0.78982292   -4.1285807    1812.4658   0.05340835  0.053106748            6 
 2829000    0.8029555   -4.1539521    1807.1354  0.053232457  0.053095727           13 
 2830000   0.81645751   -4.1487605    1809.8219  0.053292754  0.053084747            5 
 2831000   0.78824834   -4.1292603    1815.7795  0.053449296  0.053073671            6 
 2832000   0.79237628   -4.1718063    1805.1318  0.053117107  0.053062648           13 
 2833000   0.78724882   -4.1451085    1801.3857  0.052988166  0.053051447            3 
 2834000   0.78163371   -4.1713432    1803.3224  0.053026418  0.053040233            4 
 2835000   0.77836364    -4.139837    1810.9486  0.053231882  0.053029159            7 
 2836000   0.79794018   -4.1377219    1810.1032  0.053188269  0.053018099            5 
 2837000   0.79594297   -4.1264316    1816.7328  0.053364258  0.053007043            8 
 2838000    0.8027389   -4.1625167    1806.6601  0.053049685  0.052995905            3 
 2839000   0.78440962   -4.1582928    1817.9006  0.053360943   0.05298493            7 
 2840000   0.78111822   -4.1505264    1816.1262  0.053290088  0.052973886            4 
 2841000   0.79694366   -4.1615856    1814.5603  0.053225398    0.0529628            3 
 2842000    0.8183181   -4.1613399    1814.9499  0.053218096  0.052951829            3 
 2843000   0.78812583   -4.1545629    1813.7031   0.05316283   0.05294067            7 
 2844000   0.80182663   -4.1479119     1818.642  0.053288855  0.052929605            3 
 2845000   0.78358002   -4.1448568    1820.3306  0.053319584  0.052918388           16 
 2846000   0.79677272    -4.175545    1808.7136  0.052960693  0.052907306           10 
 2847000   0.81296128   -4.1371759    1815.4877  0.053140373  0.052896023            6 
 2848000   0.80530542   -4.1481885    1817.4518  0.053179184  0.052884986            6 
 2849000   0.79180186    -4.132058    1823.1923  0.053328427  0.052873786            4 
 2850000   0.78959907   -4.1407155    1816.0811  0.053101787  0.052862679            4 
 2851000   0.80906255   -4.1518576     1819.625  0.053186748  0.052851648           10 
 2852000   0.78911832    -4.166454    1805.9894  0.052769676  0.052840521            8 
 2853000   0.77759348   -4.1723866    1810.7342  0.052889771  0.052829312            7 
 2854000    0.7706162   -4.1462983    1816.9123  0.053051633  0.052818086            4 
 2855000   0.78509033   -4.1842568    1814.7176  0.052968991  0.052806859            9 
 2856000   0.79598003   -4.1456624    1814.7859  0.052952435   0.05279574            8 
 2857000   0.79726516   -4.1431182    1817.8206  0.053022419  0.052784774            8 
 2858000   0.79741001   -4.1751036    1815.6455  0.052940445  0.052773645            9 
 2859000   0.79801104   -4.1352793    1817.9267   0.05298842  0.052762558            5 
 2860000   0.80775483   -4.1417031    1822.0543   0.05309016  0.052751569            5 
 2861000   0.79029487   -4.1649757    1820.7425  0.053033395  0.052740522            5 
 2862000   0.79771984   -4.1630716    1815.2823   0.05285588  0.052729389            5 
 2863000   0.81167628   -4.1846524    1816.4168  0.052870438  0.052718225            8 
 2864000   0.78258684   -4.1368925     1818.872  0.052923417  0.052707143            3 
 2865000   0.79707023   -4.1501389    1816.4209  0.052833651  0.052696188            4 
 2866000   0.80315383    -4.155516    1817.8499  0.052856766   0.05268513            7 
 2867000   0.78556808   -4.1387377    1822.7812  0.052981665  0.052674175            7 
 2868000   0.78301511   -4.1435425    1819.5233  0.052868529  0.052663149            5 
 2869000   0.80759506   -4.1987002    1809.2698  0.052552276  0.052652116            6 
 2870000   0.78107766   -4.1697889    1821.5936    0.0528918  0.052641035            6 
 2871000   0.79079231   -4.1608001    1818.6141  0.052786896  0.052630068            6 
 2872000   0.79074447   -4.1508088     1822.586  0.052883762  0.052619133            7 
 2873000   0.77901588   -4.1438384    1819.7459  0.052782977  0.052608292            5 
 2874000   0.80289136   -4.1583258    1826.3639  0.052956504  0.052597338            5 
 2875000   0.79180086   -4.1420009    1828.3067  0.052994398  0.052586404            4 
 2876000   0.80155789    -4.172439    1827.1827  0.052943404  0.052575524            5 
 2877000   0.78849458   -4.1595203    1830.8382  0.053030883    0.0525645            4 
 2878000   0.79244193   -4.1634972    1826.9676  0.052900383  0.052553698            5 
 2879000   0.77475864   -4.1675253    1831.2496  0.053005952  0.052542801            4 
 2880000   0.78968745   -4.1574724    1822.5571  0.052736026  0.052531831            6 
 2881000   0.79694093    -4.179429    1823.4073  0.052742315  0.052520811           13 
 2882000   0.77430457   -4.1633112    1822.4832  0.052697292  0.052509712            5 
 2883000    0.7735919   -4.1860498    1824.2045  0.052728769  0.052498605            6 
 2884000   0.79046382   -4.1823768    1821.1033  0.052620877  0.052487516            3 
 2885000   0.81483653   -4.1575372    1821.1979   0.05260537  0.052476595            5 
 2886000   0.79289315   -4.1843995    1821.2425   0.05258843  0.052465499            6 
 2887000   0.79526186   -4.1443858    1824.9147  0.052676213  0.052454468            3 
 2888000   0.78835148   -4.1605706      1827.06  0.052719875  0.052443534            4 
 2889000   0.77492935   -4.1558715    1831.3997  0.052826806  0.052432703            7 
 2890000   0.77064014   -4.1453254     1830.662  0.052787256   0.05242181            4 
 2891000   0.80850236   -4.1626195    1823.8005  0.052571211  0.052410798            3 
 2892000   0.78111395    -4.165651    1829.2471  0.052709979  0.052399917            4 
 2893000   0.80006441   -4.1831878    1823.8523  0.052536361  0.052389056            4 
 2894000   0.80139599   -4.1596419    1823.4303  0.052506055  0.052378188            7 
 2895000   0.79172861   -4.1656331    1824.3735   0.05251507  0.052367151            8 
 2896000   0.78702247     -4.18413     1829.281  0.052638152  0.052356239            4 
 2897000   0.79808647   -4.1888206    1830.1988   0.05264638  0.052345188           10 
 2898000   0.78803942   -4.1711059     1833.746  0.052730216  0.052334296            5 
 2899000   0.78532397   -4.1470712    1825.4418   0.05247332    0.0523233            4 
 2900000   0.82488345   -4.1711376    1827.4708  0.052513529  0.052312412            3 
 2901000     0.787095   -4.1717018    1821.7646  0.052331512  0.052301387            6 
 2902000   0.78619915   -4.1840136    1827.6559  0.052482654   0.05229028           12 
 2903000   0.78353933   -4.1404775    1836.9655  0.052731816  0.052279161            3 
 2904000   0.78751531   -4.1858299    1823.7708  0.052335021  0.052268164            6 
 2905000   0.77568747   -4.1769303    1833.5364  0.052597142  0.052257146            3 
 2906000   0.80529763   -4.1473815    1835.9821  0.052649176  0.052246197            3 
 2907000   0.79447918     -4.16476    1827.8181  0.052397034  0.052235134            3 
 2908000   0.78222563   -4.2050001    1827.0097  0.052355848  0.052224161            4 
 2909000   0.78426752    -4.189392    1825.2492   0.05228742  0.052213092           15 
 2910000   0.78046608   -4.1816895     1828.708  0.052368499  0.052201968            3 
 2911000   0.79045254   -4.1800456    1828.5756   0.05234672   0.05219082            4 
 2912000    0.7704447   -4.1902741    1826.0997   0.05225789  0.052179677           12 
 2913000   0.77115854   -4.1683304      1829.06  0.052324637  0.052168535            8 
 2914000   0.78090108   -4.1556852    1831.9885  0.052390428  0.052157393            3 
 2915000   0.78237809   -4.1781763    1829.8933  0.052312559  0.052146282            6 
 2916000    0.7704128   -4.1785826    1832.9779  0.052382771   0.05213507            4 
 2917000   0.78654608   -4.1555438    1831.5526  0.052324094  0.052123917            4 
 2918000   0.77419063   -4.1576866    1832.9512  0.052346104   0.05211288            7 
 2919000   0.78668527   -4.1731902    1830.5902  0.052260769  0.052101809            6 
 2920000   0.78238325   -4.1968432     1828.486   0.05218282  0.052090715           10 
 2921000   0.78203849   -4.1696309     1828.495  0.052165212  0.052079665            3 
 2922000   0.80047295   -4.1936392    1830.9027  0.052216024  0.052068671           10 
 2923000   0.78286578   -4.2077131    1824.4942  0.052015457  0.052057607            6 
 2924000   0.77684785   -4.1786043    1838.4229  0.052394634  0.052046509            5 
 2925000   0.77399304   -4.1752369    1831.0803  0.052167531   0.05203547            9 
 2926000   0.78361231   -4.1710989    1843.4203  0.052501147  0.052024375            3 
 2927000   0.77572021   -4.1592644    1834.6697  0.052234077  0.052013414            4 
 2928000    0.7992734   -4.1908465    1836.4378  0.052266559   0.05200234            8 
 2929000   0.76936327   -4.1888431    1830.4937  0.052079598  0.051991229            7 
 2930000   0.78533239   -4.1921658    1834.9085  0.052187386  0.051980043           10 
 2931000   0.77934973   -4.1796237    1828.6358  0.051991238  0.051968877           10 
 2932000   0.79112557   -4.2023015    1829.7484  0.052005128  0.051957812            4 
 2933000   0.76795555   -4.1700444    1834.5924  0.052125025   0.05194682            7 
 2934000    0.7763695   -4.1891032    1833.8811  0.052087058   0.05193574            3 
 2935000   0.78635337   -4.1969245    1829.9012  0.051956308  0.051924662            7 
 2936000   0.79390879   -4.1813585    1841.1388  0.052257573  0.051913633            5 
 2937000   0.77925013   -4.1890484    1831.8293  0.051975637  0.051902549            8 
 2938000   0.77484614   -4.2059868    1831.3595  0.051944619  0.051891483            3 
 2939000   0.76784516   -4.1689218    1842.4706  0.052241993  0.051880488            8 
 2940000   0.79271208   -4.1882783     1843.711  0.052259383  0.051869533            3 
 2941000   0.78025411   -4.1641713    1842.1111  0.052196279  0.051858587            9 
 2942000    0.7835141   -4.1454377    1836.9897  0.052033473  0.051847707            5 
 2943000   0.77677543   -4.2022567    1841.5735  0.052145586  0.051836743            5 
 2944000   0.79923136   -4.1745102    1843.8132   0.05219127  0.051825802            8 
 2945000   0.78814616   -4.2010071    1840.6183  0.052083142  0.051814814            8 
 2946000   0.77671603   -4.2049704    1832.0156  0.051822121  0.051803835            4 
 2947000   0.77348413   -4.1739793     1843.761  0.052136663  0.051792871            3 
 2948000   0.77339311   -4.1736072    1843.5604  0.052113308  0.051781855            3 
 2949000   0.77755901   -4.1996905    1839.0146   0.05196718  0.051770886           13 
 2950000   0.77290209   -4.1540498     1845.869  0.052143193  0.051760087           12 
 2951000   0.77941668   -4.1730484    1845.3522  0.052110928  0.051749217           16 
 2952000   0.78362557   -4.1726442    1844.6633  0.052073828  0.051738292            6 
 2953000   0.77397065   -4.1788756    1844.2498  0.052044525  0.051727355            4 
 2954000   0.77459312   -4.2011483    1840.4473  0.051919636  0.051716479           18 
 2955000   0.76297163   -4.1618273    1845.4695  0.052043698  0.051705564            6 
 2956000    0.7746707   -4.2006495    1841.5547  0.051915728  0.051694635            4 
 2957000   0.79085597   -4.1809677    1841.4676  0.051895718  0.051683709           11 
 2958000   0.75647815   -4.1868335    1848.4973  0.052076215  0.051672825           10 
 2959000   0.77490844   -4.1824297    1840.4672  0.051832465   0.05166195            8 
 2960000   0.75996377   -4.1648946     1835.893  0.051686176  0.051650976            4 
 2961000   0.77416097   -4.1910508    1846.9491   0.05197988  0.051640025            3 
 2962000   0.77489872   -4.1929999    1844.7845  0.051901432  0.051629091            6 
 2963000    0.7733646   -4.1705825    1844.9007  0.051887183  0.051618149            7 
 2964000   0.77988224   -4.1896954    1843.5907  0.051832847  0.051607416            3 
 2965000    0.7992848   -4.1727627    1845.7062  0.051874822  0.051596484            7 
 2966000   0.78693133   -4.2008519    1847.2279  0.051900088  0.051585517            5 
 2967000   0.80024487   -4.1812475    1848.9602  0.051931249  0.051574597            8 
 2968000   0.76777614   -4.1874646    1844.4842  0.051788077  0.051563809            4 
 2969000   0.77849903   -4.2030152    1837.5244  0.051575288  0.051552834           16 
 2970000   0.78288215    -4.204998     1843.547  0.051726909  0.051541933            7 
 2971000   0.76211862   -4.2020662    1843.7652  0.051715617  0.051531085            4 
 2972000   0.77540659   -4.2019312    1844.8052  0.051727379  0.051520205            3 
 2973000   0.78857241    -4.215959     1850.434  0.051867754  0.051509251            6 
 2974000   0.77659345   -4.1668312     1851.416  0.051877831  0.051498425            8 
 2975000    0.7748798   -4.2004873    1852.9213  0.051902558  0.051487726            4 
 2976000   0.75406884   -4.1882276    1852.5831  0.051875647  0.051476849            6 
 2977000   0.78102823   -4.1973024    1849.3406  0.051767456  0.051465954            4 
 2978000   0.76313354   -4.1895483    1849.6087  0.051757576  0.051455071            2 
 2979000   0.76547315   -4.1757426    1850.5919  0.051767704   0.05144417            6 
 2980000   0.78027676   -4.1927639    1853.0789  0.051819881  0.051433405            3 
 2981000   0.78194407   -4.2032419    1844.4536  0.051561378  0.051422644            9 
 2982000   0.76767679   -4.1749513    1853.7155  0.051802916  0.051411653            6 
 2983000    0.7843264     -4.17484    1854.8958  0.051818522  0.051400908            4 
 2984000   0.78154527   -4.1993992    1850.5231  0.051679042  0.051390039            4 
 2985000   0.77541682   -4.2085111    1846.0495  0.051536838  0.051379153            4 
 2986000   0.77198133   -4.1974637    1851.9321  0.051683749  0.051368223            6 
 2987000   0.77554736   -4.1967188    1847.6197  0.051546135  0.051357344            3 
 2988000   0.76466836   -4.2080115    1851.0607  0.051624852   0.05134643            3 
 2989000   0.77840807    -4.173763       1854.7  0.051709045  0.051335593            3 
 2990000   0.77040815   -4.1783311    1851.9094  0.051613974  0.051324827            6 
 2991000   0.78287055   -4.2084635    1854.3298  0.051664153  0.051314055            7 
 2992000   0.78760694    -4.222276    1857.5433  0.051736389  0.051303124           12 
 2993000   0.77211734   -4.2058747    1848.3468  0.051463048  0.051292162            4 
 2994000   0.77696896   -4.2034222    1852.4102  0.051558958  0.051281197            5 
 2995000   0.76362713   -4.2045211    1846.0027  0.051363459  0.051270229            3 
 2996000   0.75059211   -4.2133406    1854.6413  0.051586595  0.051259394            6 
 2997000   0.76434081   -4.1874078    1856.2215  0.051613323  0.051248503            5 
 2998000   0.77199477   -4.1956253    1856.5964  0.051606526  0.051237652            3 
 2999000   0.78722407   -4.1934871    1857.3574  0.051610463  0.051226845            5 
 3000000   0.76785362   -4.1831544    1856.5831  0.051571751  0.051216036            8 
 3001000   0.76997854   -4.1978257    1856.5059  0.051552424  0.051205175            3 
 3002000   0.77093954   -4.1874646    1856.5895  0.051537573  0.051194401            9 
 3003000   0.77396608   -4.1919086    1860.1314  0.051618697  0.051183592            6 
 3004000   0.76248579   -4.1733921    1858.2101  0.051548216  0.051172635            3 
 3005000   0.79469992   -4.2064762    1857.1075  0.051500486  0.051161835            4 
 3006000   0.77045496   -4.2102624    1858.9035  0.051533143  0.051150969            3 
 3007000   0.76471414    -4.176329    1854.9733  0.051407087  0.051140139            5 
 3008000   0.77446283   -4.1725717    1859.7127  0.051521295  0.051129286            7 
 3009000   0.77305325   -4.2118389    1852.0303  0.051291411  0.051118461            6 
 3010000   0.76806428    -4.194472    1854.1689  0.051333581  0.051107598            7 
 3011000   0.77326881   -4.1908935    1864.1086  0.051591625  0.051096784           10 
 3012000   0.75296514   -4.2019097    1862.1572  0.051520506  0.051085926            5 
 3013000   0.77122913   -4.1790984    1861.4581  0.051484071  0.051074979            7 
 3014000   0.78304635   -4.1478815    1855.8519  0.051311986  0.051064309            5 
 3015000   0.76113758   -4.1981045    1857.3473    0.0513363  0.051053469            6 
 3016000    0.7737604    -4.198335    1855.4794  0.051267668  0.051042609            5 
 3017000   0.78069878   -4.2005193    1863.0946  0.051461014  0.051031783            8 
 3018000   0.78824706   -4.2070042    1859.5498  0.051346085  0.051020972            6 
 3019000   0.76266637   -4.2167838    1854.8493  0.051199328   0.05101013            4 
 3020000    0.7692157   -4.2126638    1857.3085  0.051250233  0.050999277            5 
 3021000   0.76185828   -4.2041949    1863.4813  0.051403545   0.05098846           10 
 3022000    0.7697863   -4.1780759     1861.898  0.051342875  0.050977638            4 
 3023000   0.77290089   -4.2044823    1859.7041  0.051265413  0.050966725            4 
 3024000    0.7663651   -4.1907183    1858.9465  0.051227582  0.050955851            3 
 3025000   0.77172438   -4.1953596    1857.1214   0.05116037  0.050944936            2 
 3026000   0.76208036   -4.2058111    1861.2133  0.051256151  0.050934002            5 
 3027000   0.76571841   -4.1917811    1863.7387   0.05130874  0.050923161            5 
 3028000   0.75999725   -4.1957355    1861.0568  0.051217988  0.050912243            3 
 3029000   0.75992511   -4.1904068     1858.293  0.051125041  0.050901238           12 
 3030000   0.77871037   -4.1971169    1865.5677  0.051308242   0.05089048            6 
 3031000   0.77329113    -4.207993    1862.3914  0.051203986  0.050879557            5 
 3032000   0.75691763   -4.2269629    1856.6043  0.051028044  0.050868575            7 
 3033000   0.76744467   -4.2007843    1862.8381  0.051182494  0.050857725            5 
 3034000   0.76311696   -4.1843308    1869.0997  0.051337609  0.050846849            7 
 3035000   0.76782422   -4.2026376    1864.0754  0.051182739  0.050835973            6 
 3036000   0.75423533   -4.2196217    1864.9732  0.051190526  0.050825096            7 
 3037000   0.77955055   -4.2201129    1857.2442  0.050961589  0.050814234            3 
 3038000   0.75254577    -4.217052    1863.3169  0.051111391  0.050803315            4 
 3039000   0.75993442   -4.2220032    1865.6383   0.05115823  0.050792573            7 
 3040000   0.77655633   -4.2341249    1858.1758  0.050936836  0.050781782            4 
 3041000   0.75674318   -4.2192551    1856.0602  0.050862113   0.05077084            2 
 3042000   0.78204201   -4.2184898    1864.9169  0.051088015  0.050760021            7 
 3043000   0.76374924   -4.2016364    1865.3917   0.05108423  0.050749168            8 
 3044000   0.75575762   -4.2012433    1866.3966  0.051094958  0.050738393            5 
 3045000   0.76882559    -4.221076    1865.9934  0.051067144  0.050727569           13 
 3046000   0.77282088   -4.2058206    1867.0184   0.05107842  0.050716828            1 
 3047000   0.76368924   -4.2161447    1863.5072  0.050965626    0.0507061            5 
 3048000   0.77508993   -4.1996316    1868.8712  0.051095559  0.050695409            3 
 3049000   0.77604543   -4.2203643    1865.8051  0.050995001  0.050684759            4 
 3050000   0.75256942   -4.1969156    1865.8393  0.050979215  0.050674066            7 
 3051000   0.76311852   -4.1936238    1872.0021  0.051130834  0.050663404            4 
 3052000   0.75451658   -4.1766137    1875.4832  0.051209131  0.050652767            8 
 3053000   0.77874329   -4.2248768     1867.852  0.050984061  0.050642022            6 
 3054000   0.75604635   -4.2288664    1869.2063  0.051004319  0.050631273            6 
 3055000   0.77474161   -4.2266544    1872.5788  0.051079618  0.050620548            3 
 3056000   0.75358363   -4.2157111     1860.259  0.050726957  0.050609788            5 
 3057000   0.76517336   -4.1874183    1869.3459  0.050958072  0.050598949            6 
 3058000   0.76103405    -4.230729    1864.9909   0.05082273  0.050588096            6 
 3059000   0.76346093   -4.2083004    1864.1219  0.050782443  0.050577297            5 
 3060000   0.77200777   -4.2270295    1864.0596  0.050764151  0.050566623            4 
 3061000   0.76008831   -4.2129611    1866.5502   0.05081537  0.050555813            7 
 3062000   0.76012288   -4.2162889    1865.3845   0.05076705  0.050544978           16 
 3063000    0.7656736   -4.2228179     1866.776  0.050788333  0.050534207            5 
 3064000   0.76580577   -4.2218026    1867.4811  0.050790935    0.0505235            4 
 3065000   0.76166579   -4.2311346    1867.3882  0.050771838   0.05051275            4 
 3066000   0.75032665   -4.1942234    1875.1573  0.050966442  0.050501983            5 
 3067000   0.76006763   -4.2087991    1872.4188  0.050875416  0.050491235            5 
 3068000   0.75528607   -4.2172045    1868.8304  0.050761363  0.050480459            6 
 3069000   0.76389996   -4.2311222    1870.1293  0.050780094  0.050469673           10 
 3070000   0.75294871   -4.1935863    1878.1985  0.050982586  0.050458795            7 
 3071000   0.77371694   -4.2128903    1873.1678  0.050829474  0.050448017            9 
 3072000   0.76241978   -4.2261702     1870.448  0.050739149  0.050437172            6 
 3073000   0.77982658   -4.2437014    1871.9863  0.050764355   0.05042648            6 
 3074000    0.7485297   -4.2338344    1878.5893   0.05092684  0.050415778           10 
 3075000   0.74633374   -4.2240446    1874.8487  0.050808908  0.050405024            4 
 3076000   0.75730601   -4.2116687    1872.6832  0.050733723  0.050394259            5 
 3077000   0.75706233   -4.2331444    1865.2725  0.050516533  0.050383545            3 
 3078000   0.75381465   -4.2017794    1880.8065  0.050920687  0.050372695            3 
 3079000   0.76616115   -4.2122302    1872.5897   0.05068176  0.050361898           10 
 3080000   0.76024684   -4.1911686    1876.3026  0.050765764  0.050351139            3 
 3081000   0.75457445   -4.2477961     1861.827  0.050357758   0.05034033            4 
 3082000   0.74833235   -4.2081535    1872.1193  0.050619709  0.050329588            7 
 3083000   0.73687804   -4.2143137    1881.2837  0.050851002  0.050318829            6 
 3084000   0.75914604    -4.235751    1868.9335  0.050500797   0.05030805            7 
 3085000   0.74471946   -4.2510924    1874.4252  0.050632771  0.050297306            4 
 3086000   0.74999295   -4.2485929    1869.1352  0.050473514  0.050286443            7 
 3087000   0.74925741    -4.221909    1873.7438  0.050581573  0.050275558            5 
 3088000   0.75374701   -4.2230022    1875.9888  0.050625777  0.050264712            2 
 3089000   0.75224509    -4.219473    1874.6712  0.050573842  0.050253865            6 
 3090000   0.76303091    -4.228709    1873.3385  0.050521534  0.050243098            4 
 3091000   0.76013168   -4.1939055    1874.5372  0.050537506  0.050232362            6 
 3092000   0.76178626   -4.2303041    1879.4547  0.050653696  0.050221525            6 
 3093000   0.75515396   -4.2132601    1880.3694  0.050661962  0.050210746            5 
 3094000   0.75905985   -4.2497734    1873.2404  0.050453576   0.05019998            5 
 3095000   0.74566056   -4.1946138    1872.4581  0.050416211  0.050189301            7 
 3096000   0.75946571    -4.232618    1873.2321  0.050420761  0.050178506            4 
 3097000   0.76556866   -4.2390699    1881.5057  0.050627105  0.050167798            5 
 3098000   0.74514321   -4.2393284     1873.556  0.050396922  0.050157021            5 
 3099000   0.74114901    -4.248726    1880.3702  0.050563898  0.050146242            3 
 3100000   0.74657766   -4.1939933    1883.0514  0.050619662  0.050135459            3 
 3101000   0.76629514   -4.2021382    1874.4828  0.050373072  0.050124805            3 
 3102000   0.74437661   -4.2186004    1881.9559  0.050557595  0.050114135            8 
 3103000   0.76927969   -4.2429983     1879.213  0.050467639  0.050103445            5 
 3104000   0.75888201    -4.211973    1882.8544  0.050549141   0.05009275            7 
 3105000    0.7421071   -4.2484759    1878.8361  0.050425016  0.050081998            5 
 3106000    0.7459339   -4.2502872     1882.869  0.050516984  0.050071139            4 
 3107000   0.76496073   -4.2346664    1880.8783  0.050447331  0.050060317            3 
 3108000   0.76583829   -4.2248328    1878.6526  0.050371423   0.05004964            6 
 3109000   0.75577815   -4.2468071    1880.3313  0.050400216  0.050038947            8 
 3110000    0.7544725   -4.2504902    1875.5219  0.050255142  0.050028179            4 
 3111000   0.75673897   -4.2254921     1880.192  0.050364083  0.050017407            7 
 3112000   0.75851826   -4.2256545    1882.1557  0.050400484  0.050006623            5 
 3113000   0.76005758   -4.2377866    1883.3055  0.050415075  0.049995815            7 
 3114000   0.77284066   -4.2480026    1876.4442   0.05021527  0.049985004            5 
 3115000   0.74657131   -4.2462583    1883.5793   0.05039003  0.049974195            7 
 3116000   0.75586239    -4.220331    1882.2855  0.050339257  0.049963468            4 
 3117000   0.75887462   -4.2559288    1879.5183  0.050249126  0.049952685            7 
 3118000   0.73437834   -4.1961577     1882.556  0.050314197  0.049941914            3 
 3119000    0.7543969   -4.2341072    1881.5551  0.050271323  0.049931224            6 
 3120000   0.74412158    -4.244572    1881.4531  0.050252487  0.049920383           10 
 3121000   0.75818802   -4.2230088    1882.7069  0.050269864  0.049909586            6 
 3122000   0.76601321   -4.2571444    1878.6469  0.050145391  0.049898783            5 
 3123000   0.77210054   -4.2294579     1883.484  0.050258406  0.049887923            5 
 3124000   0.74375513   -4.2287902    1882.8366  0.050225048  0.049877044            5 
 3125000   0.74559349   -4.2601509    1873.9764  0.049972705  0.049866154            7 
 3126000   0.75551924   -4.2484907    1882.5214  0.050184511  0.049855353           12 
 3127000   0.72966359   -4.2264972    1882.5522  0.050169283  0.049844507            4 
 3128000   0.76627694   -4.2240249    1886.1739  0.050249732  0.049833806            5 
 3129000   0.74179609   -4.2293304    1893.0861   0.05041776  0.049823086            5 
 3130000   0.75440225    -4.252454    1881.0009  0.050079896  0.049812443            5 
 3131000   0.74842679   -4.2155381    1883.5368  0.050131397  0.049801603           10 
 3132000   0.74326425   -4.2268808    1883.9909  0.050127471  0.049790941            7 
 3133000   0.75767642   -4.2338563    1885.1535  0.050142396  0.049780202            4 
 3134000   0.75137742   -4.1981649    1881.1626  0.050020278  0.049769525            5 
 3135000   0.77509123   -4.2371144    1885.3123  0.050114628  0.049758736           12 
 3136000   0.75787833   -4.2496719    1887.9386  0.050168435  0.049747977            8 
 3137000   0.75004918   -4.2212815    1885.1882  0.050079381  0.049737227            9 
 3138000   0.75139233    -4.218487    1884.6917  0.050050236  0.049726511            6 
 3139000   0.74867517   -4.2608782    1882.9538  0.049988154  0.049715727            6 
 3140000    0.7605007   -4.2436202    1885.2867  0.050034147  0.049704904            6 
 3141000   0.73648357   -4.2367462    1882.3288  0.049939744  0.049694161            9 
 3142000   0.73828187   -4.2361022    1879.6071  0.049851662   0.04968321            6 
 3143000   0.73692067   -4.2427565    1880.7033  0.049864867  0.049672353            7 
 3144000   0.76674767     -4.24781    1884.2392  0.049942726  0.049661466            5 
 3145000    0.7295374   -4.2419332    1882.1233  0.049870782  0.049650651            5 
 3146000   0.76504755   -4.2315453    1877.1645  0.049723578  0.049639815            6 
 3147000    0.7530724     -4.20395    1883.2942  0.049870093  0.049628896            9 
 3148000   0.75280798   -4.2499385    1885.0866    0.0499017  0.049618135           14 
 3149000   0.74908064   -4.2332637    1887.2477  0.049943042  0.049607139            3 
 3150000   0.74458726   -4.2382911    1889.6252  0.049990085  0.049596194            3 
 3151000   0.74225634   -4.2563393    1887.4022   0.04991543  0.049585151            5 
 3152000   0.72629743   -4.2635048    1884.8611  0.049832412  0.049574134           10 
 3153000   0.73590221   -4.2335402    1885.0944  0.049822772   0.04956324            5 
 3154000   0.74589101   -4.2257715     1887.172  0.049861869  0.049552352            9 
 3155000   0.73732355   -4.2417357    1890.4474  0.049932578  0.049541409            3 
 3156000   0.74870033   -4.2384334    1887.9556   0.04985096  0.049530435            4 
 3157000   0.75103601   -4.2461157    1886.8752  0.049806651  0.049519443            4 
 3158000   0.74228775   -4.2193775     1888.953   0.04984571   0.04950852            3 
 3159000    0.7341312   -4.2359665    1885.1372  0.049729271  0.049497617            6 
 3160000   0.73359196   -4.2284997    1884.2798  0.049690923  0.049486765            2 
 3161000   0.74995009   -4.2376707    1886.3877  0.049730774  0.049475836            7 
 3162000   0.74709102    -4.252418     1887.569  0.049746179  0.049464811            4 
 3163000    0.7553068   -4.2599602    1883.9043    0.0496339  0.049453925            4 
 3164000   0.74601719   -4.2636784    1885.6389  0.049663898  0.049442893            8 
 3165000   0.72630306   -4.2671667    1884.3662  0.049614697   0.04943185            6 
 3166000    0.7754968    -4.241984    1885.5973   0.04963143  0.049420923           11 
 3167000   0.73329812   -4.2149293    1891.0151  0.049758316  0.049410012            7 
 3168000   0.74382745   -4.2667332    1882.8139  0.049526881  0.049399142            8 
 3169000   0.73820328   -4.2208866    1887.4684  0.049633649  0.049388295            5 
 3170000    0.7522112   -4.2487801    1878.8202  0.049390647  0.049377441           11 
 3171000   0.74915906   -4.2559976    1881.5211  0.049446051  0.049366405           10 
 3172000   0.75600244   -4.2603138    1885.5692  0.049536811  0.049355401            7 
 3173000   0.74831609   -4.2473591    1891.5477  0.049678214  0.049344457            6 
 3174000   0.75607737   -4.2550199    1893.3427  0.049709691  0.049333486            3 
 3175000   0.76289148    -4.263269    1891.0964  0.049635077  0.049322535            4 
 3176000   0.75155142   -4.2490491    1883.6961  0.049425276  0.049311554            7 
 3177000   0.74567636   -4.2318527    1887.1896  0.049501354  0.049300534           10 
 3178000   0.73828148   -4.2580114    1892.5787   0.04962709  0.049289573            3 
 3179000    0.7233725   -4.2436967     1891.755  0.049589886  0.049278786            8 
 3180000   0.73491688   -4.2633104    1893.0968  0.049609454  0.049267888            5 
 3181000   0.74302012   -4.2416262    1892.0221  0.049565705  0.049256881            7 
 3182000   0.73381196   -4.2325377    1890.9306  0.049521543  0.049245913            4 
 3183000   0.72432319   -4.2455187    1887.9148   0.04942703   0.04923504            7 
 3184000    0.7576559   -4.2704231    1888.6416  0.049430529  0.049224086            7 
 3185000   0.73374066   -4.2474715    1895.9608  0.049606511  0.049213222            7 
 3186000   0.73627301   -4.2505379    1887.1202  0.049359704  0.049202302            6 
 3187000   0.74716362   -4.2382725    1895.9678  0.049575562  0.049191488           10 
 3188000   0.72692849   -4.2757313    1887.0741  0.049327533  0.049180755            4 
 3189000   0.73437914   -4.2428424    1892.0162   0.04944121  0.049169785            4 
 3190000   0.74311538   -4.2470684    1891.2292  0.049405151  0.049158915            4 
 3191000   0.73970235   -4.2571962    1899.1052  0.049595351  0.049148058            4 
 3192000   0.74433607    -4.232253    1894.8669  0.049469164  0.049137216           11 
 3193000   0.73090035   -4.2501717    1888.6825  0.049292268   0.04912641            7 
 3194000   0.73823814   -4.2637837    1891.6443   0.04935411  0.049115453            8 
 3195000   0.72108751   -4.2570493    1893.8458  0.049396082  0.049104636           16 
 3196000   0.74296277    -4.216211    1890.9254  0.049304479  0.049093828            5 
 3197000   0.75094684    -4.261518    1889.0813   0.04924099  0.049082971            6 
 3198000   0.75084586   -4.2670161    1891.6138  0.049291583  0.049071981            7 
 3199000   0.75208222   -4.2357714    1889.9404  0.049232584  0.049061047            3 
 3200000   0.74072179   -4.2367939     1898.732  0.049446146  0.049050138            6 
 3201000   0.75182509   -4.2468402    1887.5132  0.049138633  0.049039233            5 
 3202000   0.73881154   -4.2515502     1889.142  0.049165678   0.04902834           10 
 3203000   0.74740363   -4.2782026    1886.2383  0.049074781  0.049017478           12 
 3204000   0.73673163   -4.2440492    1895.4064   0.04929792  0.049006721            7 
 3205000   0.74229274   -4.2463453    1894.2431   0.04925229  0.048995986            6 
 3206000   0.74550992   -4.2674653    1894.3616  0.049240009  0.048985207           10 
 3207000   0.72127684   -4.2582594    1897.3762  0.049302987  0.048974391           13 
 3208000   0.75296225   -4.2740422    1897.2778  0.049285063  0.048963543            3 
 3209000   0.74208789   -4.2620302    1897.4113  0.049273171  0.048952714            8 
 3210000   0.73435349   -4.2428613    1896.7763  0.049241338  0.048941843            9 
 3211000   0.73728098   -4.2475346    1899.7901  0.049304216  0.048931059            6 
 3212000   0.75161902   -4.2504348    1898.6049  0.049258118  0.048920266            3 
 3213000   0.73308564   -4.2885729    1894.0165  0.049123782  0.048909407           14 
 3214000   0.73301862    -4.268102    1900.3688    0.0492732  0.048898618            3 
 3215000   0.73144232   -4.2451086    1903.1022  0.049328724  0.048887781            2 
 3216000   0.74468899   -4.2781082    1890.7027  0.048992089  0.048876902            7 
 3217000   0.74067141   -4.2474808    1900.0592  0.049219232  0.048866044            4 
 3218000   0.72992229   -4.2689295    1893.5186   0.04903456   0.04885517            5 
 3219000   0.73132305   -4.2577681    1892.3454  0.048988955  0.048844345            5 
 3220000   0.74110052   -4.2725269    1893.6025  0.049006276  0.048833383            5 
 3221000   0.73251193   -4.2643757    1896.1243  0.049056304  0.048822408            2 
 3222000   0.73388115   -4.2499335    1903.8977  0.049242131   0.04881152            4 
 3223000   0.73432295   -4.2502948    1896.5538  0.049036969  0.048800677            8 
 3224000   0.73230779   -4.2771644    1895.3055  0.048989492   0.04878968            5 
 3225000    0.7523191   -4.2726685    1893.7022  0.048932874  0.048778761           13 
 3226000   0.74066543    -4.263933    1903.9805  0.049183213  0.048767902            4 
 3227000   0.73819093   -4.2644709    1901.2703  0.049097983  0.048757019            6 
 3228000      0.74349   -4.2776682     1898.896  0.049021479  0.048746105            7 
 3229000   0.74509493   -4.2361801    1903.9809  0.049137526  0.048735264           14 
 3230000   0.72982706   -4.2516375     1904.265  0.049129645  0.048724513            9 
 3231000   0.72652091   -4.2669137    1900.5781  0.049019347  0.048713741            6 
 3232000   0.72303048   -4.2715353    1901.8512  0.049037005   0.04870296            6 
 3233000   0.74498162   -4.2752041     1904.639  0.049093696  0.048692091            6 
 3234000   0.72812527   -4.2815945    1904.2097  0.049067453  0.048681241            5 
 3235000   0.74762445   -4.2890766    1901.7009  0.048987658  0.048670419            7 
 3236000   0.74018968   -4.2843868    1904.5361  0.049045533  0.048659559            5 
 3237000   0.74252865   -4.2712459    1900.9283  0.048937502  0.048648912            4 
 3238000   0.73792462   -4.2863883    1899.9164  0.048896344  0.048638108            5 
 3239000   0.72928814   -4.2423664    1901.0324  0.048909962  0.048627378            3 
 3240000   0.73069736   -4.2646924    1907.8368  0.049069877   0.04861669            5 
 3241000   0.72599808   -4.2750523    1901.5443  0.048892942  0.048605908            4 
 3242000   0.75220748   -4.2699374    1901.8491  0.048885695  0.048595231           17 
 3243000   0.73934505   -4.2745724     1907.755  0.049022381  0.048584425            4 
 3244000   0.72619974   -4.2827481    1895.2986  0.048687283  0.048573703           13 
 3245000     0.745741   -4.2518524     1907.252   0.04897925  0.048562966            4 
 3246000   0.73168589   -4.2201955    1912.0188  0.049086538  0.048552402            9 
 3247000    0.7412001   -4.2608417     1904.858   0.04888764  0.048541776            5 
 3248000   0.75016387   -4.2619788    1910.3011  0.049012241  0.048531157            6 
 3249000    0.7278725   -4.2622201    1905.6997  0.048879134  0.048520494            5 
 3250000   0.74167193   -4.2733271     1904.118  0.048823538  0.048509754            6 
 3251000   0.72852205   -4.2778916    1903.9996  0.048805487  0.048498955            2 
 3252000   0.75673389   -4.2552905    1901.6587  0.048730491  0.048488327            5 
 3253000   0.71859626   -4.2854604     1900.956  0.048697509  0.048477607            8 
 3254000   0.73076181   -4.2863708    1905.4511  0.048797662  0.048466806            6 
 3255000   0.72338507   -4.2705875    1908.6539  0.048864666  0.048456145            4 
 3256000   0.73649638   -4.2780328    1908.6838  0.048850424   0.04844545            4 
 3257000   0.71968104   -4.2839991    1910.5387  0.048882885  0.048434712            6 
 3258000   0.71573812   -4.2711982    1909.3511  0.048837505  0.048423987            3 
 3259000   0.72798449   -4.2741933    1903.9027  0.048683204  0.048413252            6 
 3260000   0.73650718   -4.2760206    1904.5193   0.04868403  0.048402504            6 
 3261000    0.7351121   -4.2612823    1911.0759  0.048836652  0.048391819            6 
 3262000   0.71737944   -4.2841775    1905.7437   0.04868546  0.048381078            6 
 3263000   0.72551169   -4.2701383    1911.4008  0.048815017  0.048370405           11 
 3264000   0.72861418   -4.2718917    1910.5487  0.048778306  0.048359673            6 
 3265000   0.72078551   -4.2639774    1912.9841  0.048825526   0.04834894            4 
 3266000   0.73409494   -4.2911415    1903.8313   0.04857704   0.04833828           12 
 3267000   0.72625104   -4.2787355     1909.755  0.048713268  0.048327506            6 
 3268000   0.72944714   -4.2867766    1909.9792  0.048704079  0.048316761            7 
 3269000   0.71504038    -4.282191    1916.6627  0.048859556  0.048306074            7 
 3270000   0.70724653   -4.2433895    1913.3511  0.048760222   0.04829541            6 
 3271000   0.73705052   -4.2594662     1908.857  0.048630822  0.048284707           14 
 3272000   0.71665949   -4.2748136    1910.5321  0.048658622   0.04827399            6 
 3273000   0.72386679   -4.2803795    1905.1302  0.048506218  0.048263185            3 
 3274000   0.73904914   -4.2721232    1910.8123  0.048636028  0.048252442            4 
 3275000   0.72919769   -4.2537406    1908.6441  0.048566006  0.048241677            8 
 3276000   0.72713321   -4.2754833    1908.4031  0.048545052  0.048231014            3 
 3277000   0.72784471   -4.2579824     1908.201  0.048525099  0.048220176            3 
 3278000   0.71820898   -4.2879623    1914.4313  0.048668684   0.04820939            9 
 3279000   0.72395718   -4.2746871    1910.5267  0.048554607  0.048198546            4 
 3280000   0.71791919   -4.3059067    1904.8607  0.048395851  0.048187641           10 
 3281000   0.73366647   -4.2782281    1912.4968  0.048575048   0.04817678            4 
 3282000   0.73659455   -4.2993601    1906.0361  0.048396203  0.048166012            4 
 3283000   0.72518909   -4.2809864    1905.7226  0.048373506   0.04815521           12 
 3284000   0.71698631    -4.296603    1906.1668  0.048370046  0.048144433           13 
 3285000   0.73158122   -4.2824134    1913.9683  0.048553229  0.048133668            5 
 3286000   0.73202472    -4.276229    1909.9957  0.048437709  0.048122882            3 
 3287000   0.72861998   -4.2522738    1911.4242  0.048459187  0.048112141            5 
 3288000   0.70715916   -4.3113505    1904.8251  0.048277198  0.048101303           10 
 3289000   0.72502634   -4.2772669    1908.8861  0.048365413  0.048090387            3 
 3290000   0.72973814   -4.2743849    1908.6768   0.04834541   0.04807953            3 
 3291000   0.74169102   -4.2948328    1909.2209  0.048344497  0.048068707            6 
 3292000   0.72770426   -4.2612095    1909.0713  0.048326024  0.048057847            8 
 3293000   0.72474422   -4.2576264    1912.4473  0.048396784   0.04804708            5 
 3294000    0.7085155   -4.2753714    1908.9532  0.048293696    0.0480362            6 
 3295000   0.73414558    -4.276497    1910.9209  0.048328805  0.048025437            6 
 3296000   0.71220509   -4.3148801    1904.7872  0.048159062  0.048014552            4 
 3297000   0.71512321   -4.3059461    1911.3051  0.048309197  0.048003585           21 
 3298000   0.72462273   -4.2817514    1913.2305    0.0483432   0.04799277           11 
 3299000   0.73583939   -4.2903098    1911.7464  0.048291058  0.047981889            7 
 3300000   0.71825461   -4.2866507    1908.6596  0.048198474  0.047971117            3 
 3301000   0.73836521   -4.2760361    1908.1976   0.04817221  0.047960388            5 
 3302000   0.72349252   -4.2815766    1911.6516  0.048244791  0.047949544            5 
 3303000   0.71401735   -4.2984941    1916.7393  0.048358545  0.047938609            6 
 3304000   0.71534068   -4.2887937     1912.139  0.048227879  0.047927782           11 
 3305000   0.73165229   -4.3121232    1906.6389  0.048074606  0.047916924            3 
 3306000   0.72172643   -4.2954761    1911.8528   0.04819149  0.047905998            7 
 3307000   0.72505258   -4.2763068    1911.7965  0.048175498  0.047895152            5 
 3308000    0.7124024   -4.2792769    1914.2544  0.048222853   0.04788439            5 
 3309000   0.71255793   -4.2978033    1904.8749  0.047972068  0.047873536           10 
 3310000   0.74114626   -4.2728438    1912.6152  0.048152446  0.047862694            6 
 3311000   0.71438175    -4.290143    1911.9383  0.048120867  0.047851849           16 
 3312000   0.72925523   -4.2845848    1914.4185  0.048168744   0.04784096            4 
 3313000   0.74290838   -4.2695355    1912.9913  0.048118304  0.047829994            8 
 3314000   0.72294987   -4.2893774     1912.458  0.048090374  0.047819147            8 
 3315000   0.71744442   -4.3044433    1910.1216  0.048017135  0.047808179            7 
 3316000     0.729772   -4.2961618    1911.7554  0.048043711  0.047797348            5 
 3317000   0.73701726   -4.3009498    1910.1936  0.047989991  0.047786346            7 
 3318000   0.74305418   -4.3060421    1913.0902  0.048048278  0.047775423           14 
 3319000   0.73088588   -4.3071641     1915.888  0.048104048  0.047764478           10 
 3320000   0.71429735   -4.2828718    1916.6143  0.048107788  0.047753708            8 
 3321000   0.72862249   -4.3073671    1913.9409   0.04802622    0.0477429            6 
 3322000   0.71697185   -4.2818259    1915.3649  0.048047484  0.047731965            9 
 3323000   0.73864149    -4.285819    1909.6122  0.047888759  0.047721067            9 
 3324000   0.72868636   -4.2764774    1921.5192  0.048172865  0.047710156            8 
 3325000   0.72643631   -4.3138448    1907.0624  0.047796051   0.04769928            8 
 3326000   0.72474712   -4.3032291    1912.3582  0.047914368  0.047688386            7 
 3327000   0.70886324    -4.287178    1913.7596  0.047935067  0.047677502            7 
 3328000   0.72427458   -4.2775504    1915.7982  0.047971709  0.047666637            9 
 3329000   0.73156426   -4.2938858    1916.1357  0.047965749  0.047655785            4 
 3330000   0.72310931   -4.2650205    1911.9006  0.047845361  0.047644938            5 
 3331000   0.70534023   -4.2732946    1907.3225  0.047716464  0.047634124           12 
 3332000   0.70285705   -4.2803781    1912.0933  0.047821461  0.047623247            8 
 3333000   0.71465164   -4.2966841    1919.5729  0.047994122  0.047612427            4 
 3334000   0.73747985   -4.2937965    1914.9949  0.047865299  0.047601561            8 
 3335000   0.71272501   -4.3020623    1910.0225    0.0477267  0.047590579            4 
 3336000   0.73378968   -4.2928656    1919.6358  0.047952534  0.047579633            5 
 3337000   0.71818458   -4.2950818    1910.8233  0.047718093  0.047568702            5 
 3338000   0.70839393   -4.2924421    1912.9304    0.0477564  0.047557848            5 
 3339000    0.7127885    -4.293794    1917.4554  0.047855032  0.047547035            6 
 3340000   0.72185877   -4.2777703    1912.0753  0.047706469  0.047536249            5 
 3341000   0.72935655   -4.3052428    1914.4343  0.047751029  0.047525376            5 
 3342000   0.71879208   -4.2843251     1919.167  0.047854753  0.047514458            4 
 3343000    0.7218519   -4.3018839    1912.0965  0.047664186  0.047503579            6 
 3344000   0.72135049   -4.3004895    1922.6518  0.047912974  0.047492624           18 
 3345000   0.73541897   -4.3052409    1918.2226  0.047788305  0.047481791           11 
 3346000   0.72469319   -4.3032592    1917.0419  0.047744619  0.047470841           11 
 3347000   0.73041482   -4.3106091    1922.3065   0.04786143  0.047459878            4 
 3348000   0.72484586   -4.3338096    1910.2193   0.04754628  0.047449004            4 
 3349000   0.71923518   -4.3213424    1917.0653   0.04770243  0.047438126            9 
 3350000   0.70783839   -4.3079809    1911.1707  0.047541559  0.047427246            3 
 3351000   0.71769254   -4.3016131     1921.194  0.047776635  0.047416446            5 
 3352000   0.71084491   -4.3041495    1921.9089  0.047780154  0.047405681            9 
 3353000   0.71106788   -4.2976025    1921.0831   0.04774538   0.04739485            8 
 3354000   0.71305152   -4.2905807    1918.9308  0.047677669  0.047384063            9 
 3355000   0.72264242   -4.2907671    1918.7441  0.047658821    0.0473733            7 
 3356000   0.71516911   -4.2978627    1920.2334  0.047681599  0.047362539            4 
 3357000   0.70512543   -4.3338028    1919.2351  0.047642616  0.047351697           10 
 3358000   0.71416161   -4.2958045    1921.0996  0.047674698  0.047340826            6 
 3359000   0.70530039   -4.3112248     1922.015  0.047683214  0.047330033            8 
 3360000   0.71888084   -4.3146939    1922.5815  0.047683073  0.047319367            3 
 3361000    0.7039864   -4.2851206    1927.5443  0.047791935  0.047308588            6 
 3362000    0.7118231   -4.2954611     1926.903  0.047761823  0.047297922            8 
 3363000   0.71556494   -4.3138858    1920.8502  0.047597635  0.047287231            5 
 3364000    0.7238442   -4.3104601    1926.9767  0.047735253  0.047276494            6 
 3365000   0.70940025   -4.2982234    1924.5554  0.047661104  0.047265771            6 
 3366000   0.70313118   -4.3125093    1924.9277  0.047656163  0.047255119            6 
 3367000   0.71578609    -4.321222    1924.0872  0.047621205  0.047244356           13 
 3368000   0.71689277   -4.3064018    1925.2858  0.047636723  0.047233594            5 
 3369000   0.71565428   -4.3207862    1922.5475   0.04755485  0.047222882            9 
 3370000   0.71138098   -4.3279254    1924.3899  0.047586299  0.047212136            8 
 3371000   0.71672025   -4.2935915    1928.8468  0.047682359  0.047201493            3 
 3372000    0.7140326   -4.3135536    1921.8673  0.047495732  0.047190785            6 
 3373000   0.71444745   -4.3197382    1924.9948  0.047558918  0.047180029            7 
 3374000   0.71233137   -4.2950979    1928.3268   0.04762712  0.047169307            5 
 3375000   0.70376338   -4.3179959    1923.4076  0.047491547  0.047158586            8 
 3376000   0.70958716   -4.3176409    1924.3594  0.047500973  0.047147857            5 
 3377000     0.689923   -4.2991542    1926.4595  0.047538729  0.047137218           10 
 3378000   0.71739782   -4.3308993    1919.4614  0.047352017  0.047126563            4 
 3379000   0.71234517   -4.3105671    1923.0786  0.047427211  0.047115918            8 
 3380000   0.69141446   -4.3124395    1926.7287  0.047503173  0.047105214            7 
 3381000   0.71138082   -4.3252425    1926.5676  0.047485151  0.047094492            5 
 3382000   0.70124614   -4.3365381    1925.1934  0.047437252  0.047083788            6 
 3383000   0.70940808   -4.3276346    1922.7183   0.04736226  0.047073113           12 
 3384000   0.70742186   -4.2993819    1927.3454   0.04746221  0.047062426           14 
 3385000   0.70008481   -4.3072079      1926.97  0.047438946  0.047051788            3 
 3386000   0.70850423   -4.3123841    1926.2811   0.04740798  0.047041167            4 
 3387000   0.69995462   -4.2899828    1927.1972  0.047416524  0.047030534            5 
 3388000   0.71021246   -4.3274513    1924.0625  0.047325425  0.047019855            4 
 3389000   0.69904121   -4.3233331    1924.1766  0.047314268  0.047009152           10 
 3390000   0.70492393    -4.322391    1918.2869  0.047155528  0.046998492           12 
 3391000   0.71244126   -4.3192585    1919.5609   0.04717293  0.046987866            5 
 3392000   0.71413857   -4.3136008    1926.7082  0.047334616  0.046977219            4 
 3393000    0.7300232   -4.3418974    1925.8586  0.047299798  0.046966552           10 
 3394000   0.70222377   -4.2995421    1927.3302  0.047321995  0.046955933            3 
 3395000   0.71731267   -4.2983822    1935.5667  0.047510229  0.046945326            4 
 3396000   0.70793142    -4.311683    1927.5475  0.047299458  0.046934705            5 
 3397000   0.71659084   -4.3353336     1928.308  0.047304189  0.046923984            8 
 3398000   0.68947725   -4.3117905    1929.1941  0.047312001  0.046913232            4 
 3399000   0.69713974   -4.2971342    1931.5257  0.047355244  0.046902607            5 
 3400000    0.7134995   -4.3266533    1931.2321  0.047334121  0.046892026            4 
 3401000    0.7082121   -4.3147165    1931.5811  0.047328753  0.046881421            5 
 3402000   0.71315558   -4.3330778    1929.0752  0.047253459  0.046870741            6 
 3403000   0.71646897   -4.3236705     1933.667  0.047352019   0.04686007            6 
 3404000   0.72313967   -4.3051062    1936.1117  0.047397956  0.046849434            8 
 3405000   0.71763469   -4.3101448    1926.1357  0.047139886  0.046838842           12 
 3406000   0.69167163   -4.2876447    1937.2435  0.047397814  0.046828311            3 
 3407000   0.70802403    -4.309182    1928.5632  0.047171587  0.046817734            3 
 3408000   0.70197773   -4.3207488    1930.6273  0.047208217  0.046807049            5 
 3409000   0.70598824   -4.3326695    1927.1128  0.047108458  0.046796385            7 
 3410000   0.70597822   -4.3380681       1931.3  0.047196969  0.046785638            7 
 3411000   0.71459848      -4.3228    1931.0447  0.047176897  0.046774944            6 
 3412000   0.71319633   -4.3059041     1930.683  0.047154236  0.046764337            4 
 3413000   0.71330967   -4.3250751    1928.9033  0.047096965  0.046753686            5 
 3414000   0.70902004   -4.3384393    1929.6965  0.047102532  0.046742955            6 
 3415000   0.71466189   -4.3329635    1932.1171  0.047147806  0.046732306            6 
 3416000   0.68461196   -4.3122649    1932.3363  0.047139352  0.046721596            5 
 3417000   0.70500284   -4.3030963    1934.6937  0.047183048  0.046710992           10 
 3418000    0.7180774   -4.3350351    1924.0742  0.046910333  0.046700318            6 
 3419000   0.69209455   -4.3123635    1935.4904  0.047174865  0.046689606           13 
 3420000   0.68083718    -4.315125    1931.1613  0.047055588  0.046678978            3 
 3421000   0.71249159   -4.3295279    1926.8006  0.046935609  0.046668304            7 
 3422000   0.70160098   -4.3279643    1927.2141  0.046931963  0.046657592            5 
 3423000   0.69709009   -4.3173038    1928.5995   0.04695198  0.046646923           10 
 3424000    0.7134946   -4.3201315    1935.5467  0.047107348  0.046636256           12 
 3425000    0.7068744   -4.3167491    1931.2997   0.04699026  0.046625463            8 
 3426000   0.70367009    -4.322735    1924.8767  0.046820312  0.046614766            7 
 3427000   0.70571331   -4.3303641    1930.5984  0.046945784  0.046604145            5 
 3428000   0.70573016   -4.3297191    1932.9455  0.046989146  0.046593411           14 
 3429000   0.70133647   -4.3356893    1933.8564   0.04699758  0.046582843           11 
 3430000   0.68668811   -4.3232198    1936.2375  0.047041728  0.046572233            5 
 3431000    0.7179864   -4.3249961     1937.018  0.047046974  0.046561604            5 
 3432000   0.70455656   -4.3013125    1934.3261  0.046967902  0.046551031            3 
 3433000   0.71404149   -4.3060089    1936.9852  0.047018768  0.046540441           12 
 3434000   0.70827902   -4.3118054    1935.9388  0.046979684  0.046529847           17 
 3435000   0.70096387   -4.2942184      1935.88   0.04696458  0.046519266            5 
 3436000   0.71108101   -4.3310907    1936.3183  0.046961541  0.046508614            6 
 3437000   0.68456095   -4.3376908    1932.3099   0.04685069  0.046497965            8 
 3438000   0.71483641   -4.3016086    1934.6961  0.046894903  0.046487313            6 
 3439000   0.70457929   -4.3389156    1935.5389  0.046901689  0.046476656            7 
 3440000    0.7013525   -4.3198036    1935.2662  0.046881449  0.046466057            4 
 3441000   0.68804523   -4.3078053    1937.2598  0.046916105  0.046455414           17 
 3442000   0.70341556   -4.3307331    1941.2127  0.046998177  0.046444777            8 
 3443000    0.7020836   -4.3273286    1930.7972  0.046732433  0.046434056            8 
 3444000   0.70317292   -4.3414017    1937.0214  0.046869468  0.046423339            4 
 3445000   0.70156104   -4.3380942    1930.2818  0.046692836  0.046412656            3 
 3446000   0.69608429   -4.3516815    1935.1706   0.04679751  0.046402016            5 
 3447000   0.70430169   -4.3342113    1935.7661   0.04679833  0.046391342            4 
 3448000   0.68629014   -4.3348655    1940.3779  0.046896218  0.046380779            3 
 3449000   0.69287344   -4.3501584    1932.3544  0.046688761  0.046370189            4 
 3450000   0.68884881    -4.342632    1934.7707  0.046733591  0.046359486            7 
 3451000   0.70514108   -4.2899204    1939.9717  0.046845641  0.046348868            8 
 3452000   0.69802766   -4.3400742    1939.7727  0.046827266  0.046338323            5 
 3453000   0.70231125   -4.3442512    1936.6491  0.046738321  0.046327741           14 
 3454000    0.6948214   -4.3333194    1935.7096  0.046702124  0.046317108            7 
 3455000    0.6990069   -4.3319309    1934.4142  0.046657361  0.046306448            7 
 3456000   0.72268574   -4.3418334    1938.7199  0.046747684  0.046295843            5 
 3457000   0.69749972   -4.3156784    1938.4214  0.046726964  0.046285331           12 
 3458000   0.70384161   -4.3262426    1938.7993  0.046722558  0.046274841            8 
 3459000   0.67610751   -4.3242938     1943.507  0.046822467  0.046264357            6 
 3460000    0.6868526   -4.3301873    1945.4714  0.046856248  0.046253813           17 
 3461000   0.69050414   -4.3239093    1943.1521  0.046786866  0.046243371            5 
 3462000   0.70761462   -4.3132439    1940.6135  0.046712244  0.046232974            5 
 3463000   0.70031052   -4.3326855     1943.601  0.046770647  0.046222426           11 
 3464000   0.71097471   -4.3346944    1946.6356  0.046830147  0.046211945            9 
 3465000   0.68615298   -4.3448971    1942.0992  0.046707531  0.046201473            9 
 3466000     0.690987   -4.3318799    1945.0734  0.046765565  0.046191041            5 
 3467000   0.69840898   -4.3563052    1943.6714  0.046718377  0.046180608           13 
 3468000   0.69310672   -4.3190059    1942.9479   0.04668752  0.046170115           10 
 3469000   0.69991531   -4.3335504    1943.9522  0.046698189  0.046159662            5 
 3470000    0.7035332   -4.3543782     1939.046  0.046566906  0.046149221           14 
 3471000   0.68751627   -4.3300865    1943.0492  0.046649601  0.046138736            4 
 3472000   0.69428411   -4.3539588    1943.0312  0.046635733  0.046128279            9 
 3473000   0.69391103   -4.3679816    1945.9519  0.046692387  0.046117798            3 
 3474000    0.6917478   -4.3257073    1945.5745  0.046669893  0.046107407            6 
 3475000   0.70044699   -4.3570174    1938.3368  0.046482896  0.046096951            9 
 3476000   0.67997367   -4.3333046    1946.5648  0.046666782  0.046086488            3 
 3477000     0.694157   -4.3376496    1942.9115  0.046565803  0.046075975           10 
 3478000   0.69856135   -4.3552388    1940.4943  0.046494496  0.046065447           12 
 3479000   0.68544747   -4.3531568    1944.3084  0.046572492  0.046054978           10 
 3480000   0.69864277   -4.3487339    1935.7187  0.046353416  0.046044519           16 
 3481000   0.70108026   -4.3593841    1940.8858  0.046463799   0.04603408            9 
 3482000   0.68561541   -4.3158938    1946.6338  0.046588018  0.046023612            4 
 3483000   0.69767111   -4.3251817    1939.5154  0.046404332  0.046013191            4 
 3484000   0.69732039   -4.3230948    1948.8503  0.046614291  0.046002837            5 
 3485000   0.69568128   -4.3253781    1942.6046  0.046451569  0.045992344            4 
 3486000   0.69397692    -4.315366    1948.8733  0.046588097  0.045981938            6 
 3487000   0.68401207   -4.3358699    1941.7314  0.046404057  0.045971544           13 
 3488000   0.68652734   -4.3493488    1938.9885  0.046325221  0.045961097            7 
 3489000   0.67910361   -4.3440036    1944.1354  0.046434876  0.045950687            5 
 3490000   0.69778301   -4.3449971    1946.0126  0.046466394  0.045940263            4 
 3491000   0.70132273   -4.3336792    1946.6386  0.046468027  0.045929832            6 
 3492000   0.70428654   -4.3604177    1944.4734   0.04640305  0.045919415            9 
 3493000   0.70420788   -4.3641013    1946.1869  0.046430645  0.045908961            4 
 3494000   0.68319835   -4.3539867     1946.892  0.046434173  0.045898586            9 
 3495000    0.6894831   -4.3347264     1943.289  0.046334979  0.045888189            5 
 3496000   0.69551038   -4.3569732    1951.2242  0.046510875  0.045877833            7 
 3497000   0.69096183    -4.347323    1945.1121  0.046351924  0.045867446            6 
 3498000   0.68585477   -4.3484354    1949.5287  0.046443888  0.045857083            7 
 3499000   0.70309203   -4.3328382    1943.4077  0.046284835  0.045846766            4 
 3500000   0.69773439   -4.3329331    1948.6884  0.046397343  0.045836429            3 
 3501000   0.69487636   -4.3632645    1946.9442  0.046342574  0.045826016           11 
 3502000   0.70208097   -4.3716152    1944.4191  0.046269253  0.045815643            5 
 3503000   0.69361449    -4.333542      1944.03  0.046246788  0.045805201            4 
 3504000   0.69124737   -4.3686293    1949.1177  0.046354587  0.045794764            7 
 3505000   0.69591894   -4.3766029    1938.1288  0.046080095  0.045784351            6 
 3506000   0.67830682   -4.3554524    1950.4516  0.046359851  0.045774027            9 
 3507000   0.69613673   -4.3746421     1959.761   0.04656784   0.04576364           11 
 3508000   0.69330186   -4.3390955    1950.4862  0.046334241  0.045753381           11 
 3509000   0.69453001   -4.3335663    1952.4415  0.046367471  0.045743081            4 
 3510000   0.68396608   -4.3502721    1944.2067  0.046158754  0.045732738           19 
 3511000   0.69342251   -4.3623555    1950.6218  0.046297869  0.045722386            5 
 3512000   0.69493554   -4.3481605    1948.4932  0.046234179  0.045712011            4 
 3513000   0.67795635    -4.336891    1951.3533  0.046288863  0.045701731            6 
 3514000   0.69497928   -4.3300879    1949.7138   0.04623681  0.045691381            9 
 3515000   0.70430001   -4.3388459    1949.7644  0.046224855  0.045681081           10 
 3516000   0.69749646   -4.3480638    1945.6222  0.046113534  0.045670803            6 
 3517000    0.6802545   -4.3714802    1951.3838  0.046236941  0.045660435            5 
 3518000   0.68730732   -4.3625676    1950.5713  0.046204551  0.045650047            5 
 3519000    0.6808001   -4.3416766    1952.1354  0.046228459  0.045639673            6 
 3520000   0.70113586   -4.3468966    1951.2158  0.046193556  0.045629276            3 
 3521000   0.68731327   -4.3611898     1949.715  0.046144917  0.045618843           15 
 3522000   0.69361328   -4.3536867    1943.2856  0.045979689  0.045608416            4 
 3523000      0.69676   -4.3568183    1941.9242  0.045934435   0.04559794            9 
 3524000   0.68613061   -4.3369495    1946.7813  0.046036259  0.045587464           10 
 3525000   0.68858108   -4.3506453    1944.3356  0.045965381  0.045577032            5 
 3526000    0.6945781   -4.3411474    1948.5391  0.046051689   0.04556654            7 
 3527000   0.68577064    -4.354086    1950.4201  0.046083075   0.04555611            5 
 3528000   0.67656338   -4.3499645    1941.9263  0.045869384  0.045545646            6 
 3529000   0.67531911   -4.3401815     1945.553  0.045942027  0.045535176           14 
 3530000   0.68831148   -4.3685704    1944.4344  0.045902607  0.045524707            4 
 3531000   0.68210923   -4.3478835    1945.3969  0.045912321  0.045514222            3 
 3532000   0.68424123   -4.3683189     1948.888  0.045981691  0.045503789           13 
 3533000   0.69458264   -4.3460021    1949.2597  0.045977443   0.04549338            7 
 3534000   0.67712463   -4.3404855    1949.8684  0.045978788  0.045482917            9 
 3535000   0.68582186   -4.3586864    1948.1251  0.045924684  0.045472417           12 
 3536000   0.67958089   -4.3596498    1955.2008   0.04607845   0.04546205            7 
 3537000   0.67845142   -4.3380738    1954.6273  0.046051911   0.04545167            3 
 3538000   0.69508892    -4.351434    1952.2309  0.045982451  0.045441217           11 
 3539000   0.67629741   -4.3600662    1948.9212  0.045891522  0.045430799            5 
 3540000   0.70713492   -4.3684202    1948.7177  0.045873769  0.045420311            9 
 3541000   0.67824549   -4.3517707    1949.4576  0.045878226   0.04540983           10 
 3542000   0.68412591   -4.3778189    1951.7005  0.045918044  0.045399342            9 
 3543000   0.66854081   -4.3417755    1954.7751  0.045977398  0.045388905            6 
 3544000   0.68403159    -4.361088    1949.0608  0.045830061  0.045378566            8 
 3545000    0.6839902   -4.3621095    1950.7418  0.045856648  0.045368071           11 
 3546000   0.68747618   -4.3395169    1954.0912  0.045922429  0.045357653            9 
 3547000    0.6827889   -4.3488427    1953.8411  0.045903607  0.045347281            7 
 3548000   0.68367491   -4.3537848     1951.542  0.045836668   0.04533683            8 
 3549000   0.68197252   -4.3653797    1956.4009  0.045937843  0.045326392            5 
 3550000   0.68988611   -4.3752398    1949.9904  0.045774422  0.045315973            5 
 3551000    0.6914229   -4.3613141    1956.7643  0.045920499  0.045305572            9 
 3552000   0.68448902   -4.3699721    1955.2047  0.045870981  0.045295274           19 
 3553000   0.68427212   -4.3571858    1953.8647  0.045826642  0.045284976           13 
 3554000   0.68369343   -4.3590792    1957.3659  0.045895842  0.045274625            3 
 3555000   0.68569249   -4.3461553    1951.2569   0.04573973  0.045264244            6 
 3556000   0.67380098   -4.3623461    1955.1312  0.045817661  0.045253854            7 
 3557000   0.67597711   -4.3661417    1951.0375  0.045708872  0.045243419            6 
 3558000   0.68562589   -4.3685261    1949.6617  0.045663803   0.04523296            7 
 3559000   0.68147442   -4.3684521    1956.0307  0.045800102  0.045222545            6 
 3560000   0.67749734   -4.3504849    1956.3395  0.045794464  0.045212169            5 
 3561000   0.67604589   -4.3665461    1954.6766  0.045742689  0.045201887            7 
 3562000   0.68619132   -4.3875865    1951.4499  0.045654358  0.045191482           10 
 3563000   0.68110956   -4.3547271    1953.9226  0.045699378  0.045181064            8 
 3564000   0.66962726   -4.3849414    1956.4191   0.04574493  0.045170635           11 
 3565000   0.67861927   -4.3560427     1951.263   0.04561157  0.045160218            7 
 3566000   0.68073378   -4.3534495    1955.5072  0.045697962  0.045149845            9 
 3567000     0.681158   -4.3871832    1957.3237  0.045727587  0.045139539            6 
 3568000   0.68094599    -4.350129      1963.11  0.045849917  0.045129301            7 
 3569000    0.6836254   -4.3582861    1962.0727   0.04581285  0.045119081            5 
 3570000   0.65847781   -4.3724231    1958.9254  0.045726549  0.045108821            5 
 3571000   0.66294909   -4.3534503    1957.1259  0.045671752  0.045098514            5 
 3572000   0.68004555   -4.3787331    1959.5849  0.045716333  0.045088243            5 
 3573000    0.6885138   -4.3559243    1957.6202  0.045657715  0.045077936            6 
 3574000   0.68208042   -4.3642916    1960.6304  0.045715127  0.045067599            4 
 3575000   0.67167919   -4.3813124    1953.9074  0.045545628  0.045057262           11 
 3576000   0.67685946   -4.3445492      1958.33  0.045635952  0.045046922            9 
 3577000   0.67756082   -4.3716824    1958.0341  0.045616301    0.0450366           11 
 3578000   0.68429147    -4.368451    1960.0349  0.045650152  0.045026263            3 
 3579000   0.68014591   -4.3435582    1960.2237  0.045641793  0.045016027           15 
 3580000    0.6675588   -4.3805706    1957.7527  0.045571525  0.045005737            5 
 3581000   0.67166057   -4.3794342    1959.5425  0.045600449  0.044995411           10 
 3582000   0.67544557   -4.3674677    1959.3065  0.045582228   0.04498516           16 
 3583000   0.67721928   -4.3662682    1958.8849  0.045559702  0.044974928           12 
 3584000   0.67703856   -4.3890743    1960.6977   0.04558914  0.044964704            3 
 3585000    0.6755392   -4.3763057    1954.5515  0.045433554  0.044954431            6 
 3586000   0.68104232   -4.3819584    1957.1744  0.045481837    0.0449441           11 
 3587000   0.68156297    -4.362963    1966.7809  0.045692337  0.044933827            5 
 3588000   0.67103507   -4.3612751    1961.4487  0.045555758  0.044923639            5 
 3589000   0.67409862   -4.3984587    1955.1079  0.045395836  0.044913319            8 
 3590000   0.67959289   -4.3480212    1968.9584  0.045704698  0.044903075            6 
 3591000   0.68677253   -4.3624196    1960.5704  0.045497318  0.044892871            9 
 3592000   0.67955026   -4.3494549    1963.4354  0.045551117  0.044882704            9 
 3593000   0.68530397   -4.3590742    1959.0869  0.045437586  0.044872494            8 
 3594000   0.67292773   -4.3591249    1964.7734  0.045556793  0.044862329            5 
 3595000   0.66525248   -4.3451736    1962.7905  0.045498158  0.044852172            9 
 3596000   0.68555431   -4.4000682    1956.6335  0.045342823  0.044841884            7 
 3597000    0.6770621   -4.3846157    1960.4782   0.04541929  0.044831584            9 
 3598000   0.70608106   -4.3427423    1967.4689  0.045568578  0.044821423            6 
 3599000   0.67053065   -4.3948196    1959.6231  0.045374249  0.044811224            6 
 3600000    0.6780384   -4.3870679    1966.6721  0.045524816  0.044800957            9 
 3601000    0.6844635   -4.3646369      1967.25  0.045525549  0.044790769            7 
 3602000   0.66328504   -4.3738501    1965.0943  0.045463037   0.04478065            7 
 3603000   0.67680871    -4.366078    1965.0174   0.04544864  0.044770499            6 
 3604000   0.69133921   -4.3990246    1967.9895  0.045504751   0.04476033            8 
 3605000   0.67849888   -4.3760822    1961.7267  0.045347358  0.044750122            9 
 3606000   0.68473357   -4.3786366    1959.0133  0.045272077   0.04473997            9 
 3607000    0.6723739   -4.3919565    1965.0207  0.045398316  0.044729773            9 
 3608000   0.67760475   -4.4054704    1962.5643  0.045328997  0.044719597            5 
 3609000   0.67104499   -4.3714696    1973.8223  0.045576391  0.044709438           13 
 3610000   0.69369954    -4.352105    1965.1003  0.045362427  0.044699281            8 
 3611000   0.65999424   -4.3516177    1966.7478  0.045387884  0.044689172            8 
 3612000   0.67859685   -4.3809456    1966.4605  0.045368689  0.044678956            9 
 3613000   0.67057359   -4.3735483    1963.0564  0.045277618  0.044668769           11 
 3614000   0.67847087   -4.3833471    1965.4045  0.045319232  0.044658626            3 
 3615000   0.68367088   -4.3798478    1963.2461  0.045256941  0.044648496           15 
 3616000   0.66745964   -4.3730332    1967.6333   0.04534553  0.044638359            6 
 3617000    0.6802584   -4.3739941    1963.5077  0.045237943  0.044628237            3 
 3618000   0.66590677   -4.3799418     1967.745  0.045323038  0.044618153           11 
 3619000   0.66683316   -4.4046428    1964.0695  0.045225879  0.044608026            9 
 3620000    0.6758689   -4.4113377    1958.4722  0.045084535   0.04459788            5 
 3621000   0.67728602   -4.3759675    1966.6976  0.045261382  0.044587702           14 
 3622000   0.66842922   -4.3832617    1969.5125  0.045313651  0.044577511            7 
 3623000   0.65933633     -4.33257    1970.5549  0.045325119  0.044567349            6 
 3624000   0.67220831   -4.3947874    1968.8852  0.045274219  0.044557295            5 
 3625000   0.67564461   -4.3752014    1967.5815  0.045231758  0.044547179            9 
 3626000   0.66599526   -4.3968471    1968.0164  0.045229279  0.044537072            5 
 3627000   0.68796011   -4.3699021    1968.6604  0.045231606  0.044526989            5 
 3628000   0.66591022   -4.3863893    1970.4846  0.045261039  0.044516938            8 
 3629000   0.66247222   -4.3786244    1968.3143   0.04519873  0.044506927           21 
 3630000   0.67080912   -4.3855893    1970.4211  0.045234643  0.044496843           12 
 3631000   0.66831478   -4.4050029    1964.3334  0.045082471  0.044486712            6 
 3632000   0.68412047   -4.3719937    1964.9046  0.045083162  0.044476542            7 
 3633000   0.67712271   -4.4151925    1968.2956  0.045148537  0.044466401            7 
 3634000   0.68464077   -4.3960989    1969.3038  0.045159233   0.04445619            7 
 3635000   0.67440264   -4.3974486    1971.8292  0.045204703  0.044446125            6 
 3636000   0.66317586    -4.377446    1974.3722  0.045250554  0.044436036            4 
 3637000   0.66578525   -4.3829069    1973.1422  0.045209931  0.044425972           13 
 3638000   0.65682944   -4.3926035    1970.0891  0.045127567  0.044415904            7 
 3639000    0.6765743   -4.3846654     1966.449  0.045031807  0.044405811            4 
 3640000   0.67949761   -4.4148386    1964.1447  0.044966684  0.044395701           15 
 3641000   0.66312425   -4.3917056    1965.5709  0.044986974  0.044385574            9 
 3642000   0.65953116   -4.3471096    1974.2929  0.045174192  0.044375601           10 
 3643000   0.65477112    -4.374619    1968.3842  0.045026631  0.044365673            5 
 3644000   0.66690346   -4.3823109    1980.5803  0.045293183  0.044355666            7 
 3645000   0.68115233   -4.3824351    1968.8815  0.045013294  0.044345612            9 
 3646000   0.68079792   -4.3887466    1969.4868  0.045014783  0.044335526            5 
 3647000   0.67207367   -4.4127611    1970.4472  0.045024386  0.044325484            8 
 3648000    0.6638204   -4.3783209    1974.8529  0.045112684   0.04431547            7 
 3649000   0.66572135    -4.403863    1972.2276  0.045040367  0.044305422            7 
 3650000   0.65161773   -4.3981458    1971.4126  0.045009421  0.044295382           10 
 3651000   0.67117012   -4.4034058    1968.9973  0.044941964  0.044285272            6 
 3652000   0.67255421    -4.404649    1973.7502  0.045038112  0.044275199            5 
 3653000   0.65248164   -4.3893102    1975.9248  0.045075391  0.044265133            5 
 3654000   0.66877704   -4.4152489    1974.6647  0.045034315  0.044255086            8 
 3655000   0.66850038   -4.3877216     1970.229  0.044920863  0.044245027            6 
 3656000   0.68393094   -4.3701011    1974.0924  0.044996636  0.044235026            8 
 3657000   0.66014825   -4.4128242    1971.3014  0.044920733  0.044224993            8 
 3658000   0.65337669   -4.3907771    1974.8359  0.044988971  0.044214878            6 
 3659000   0.66421852   -4.4209525    1972.6494  0.044926879  0.044204777           11 
 3660000   0.66904262   -4.3961277    1973.5926  0.044936078  0.044194668            5 
 3661000   0.64992013   -4.3965816    1974.7621  0.044950426  0.044184628            8 
 3662000   0.67058223   -4.3902964    1971.7567  0.044869758  0.044174599            6 
 3663000   0.68800234   -4.3891531    1972.2322  0.044868327  0.044164496           18 
 3664000   0.67471494   -4.3827285    1971.4026  0.044837213  0.044154406            4 
 3665000   0.66439904   -4.4126387     1964.817  0.044675239  0.044144331            6 
 3666000    0.6793912    -4.438681    1965.6681  0.044682399   0.04413415            8 
 3667000   0.65357724   -4.4129989    1967.8332  0.044719417  0.044123991            8 
 3668000    0.6574271   -4.3917692    1970.3078  0.044763446  0.044113925            4 
 3669000   0.66580284   -4.4025271    1971.9172  0.044787799  0.044103802           12 
 3670000    0.6702542    -4.402205    1973.0716  0.044801807  0.044093733            5 
 3671000   0.68567798   -4.4018495    1972.0657  0.044766768  0.044083637           17 
 3672000   0.66393487   -4.4073236    1975.7186  0.044837478  0.044073559            7 
 3673000   0.66229498   -4.4083001    1965.9559  0.044603772  0.044063434            6 
 3674000   0.66605039   -4.4085119    1975.3303  0.044804262  0.044053332            7 
 3675000   0.66832915   -4.4013018    1970.3764  0.044679738  0.044043281           13 
 3676000   0.66133786   -4.4169882    1975.2115  0.044777193  0.044033265            9 
 3677000   0.65599768   -4.3964209    1969.5665  0.044637081  0.044023209            9 
 3678000   0.66247332   -4.3962087    1975.0607  0.044749427  0.044013067            6 
 3679000    0.6509272   -4.4064023    1970.2475  0.044628239  0.044002953            5 
 3680000    0.6742744   -4.4093496    1974.8897  0.044721235  0.043992871            8 
 3681000   0.67957149   -4.3919174    1977.8675  0.044776499  0.043982841            5 
 3682000   0.66637902   -4.3884639    1974.0195  0.044677246  0.043972802            6 
 3683000   0.67576242   -4.4171167    1968.7992     0.044547  0.043962731            4 
 3684000   0.66667199   -4.3891269    1969.8491  0.044558656  0.043952637            7 
 3685000   0.67236693    -4.406865    1978.7902  0.044748762  0.043942574            4 
 3686000    0.6652949   -4.3918825    1975.5012  0.044662264  0.043932539            6 
 3687000   0.65883126   -4.4146015    1977.0947  0.044686165  0.043922546           14 
 3688000    0.6643948   -4.3983842    1976.1875  0.044653549  0.043912473            8 
 3689000   0.64468007   -4.4011809    1980.5028  0.044738927  0.043902433            3 
 3690000   0.64821536   -4.4191439    1971.9381  0.044533381  0.043892462            5 
 3691000   0.68213245   -4.4003168    1976.0505  0.044614164  0.043882469            5 
 3692000   0.66721553   -4.3756905    1981.8592   0.04473319  0.043872538            7 
 3693000   0.66416939   -4.4003943     1977.702  0.044627269  0.043862605            6 
 3694000   0.66225055   -4.3880713    1972.2462  0.044492109  0.043852744            4 
 3695000   0.67757132   -4.4126476    1975.9793  0.044564261  0.043842688            5 
 3696000   0.67218745   -4.4010856     1974.106  0.044509967  0.043832609            5 
 3697000   0.65776686   -4.4068617    1974.6166  0.044509435    0.0438226            8 
 3698000   0.67397974   -4.4203397    1978.0715  0.044575256  0.043812617            9 
 3699000   0.66107302   -4.4041472    1970.0793  0.044383151  0.043802568           27 
 3700000   0.66680891   -4.4099826    1975.3727  0.044490375  0.043792573           13 
 3701000   0.66354211   -4.4136586     1978.973  0.044559422  0.043782586            8 
 3702000   0.66081132   -4.4019353    1980.6403  0.044584917  0.043772564           10 
 3703000   0.65973247   -4.4038006    1981.8367    0.0445998  0.043762578            8 
 3704000   0.66821058   -4.4200766    1980.5108  0.044557929  0.043752564            8 
 3705000   0.66299143   -4.4229591    1975.3932  0.044430796  0.043742582           14 
 3706000    0.6565039   -4.4129757    1981.5508  0.044557266   0.04373258            8 
 3707000   0.66088854   -4.4010318    1980.7332  0.044526868  0.043722635            7 
 3708000   0.66972177   -4.4136713    1983.3393  0.044573428  0.043712716            5 
 3709000    0.6579321   -4.4136947    1976.5283  0.044408383  0.043702748            9 
 3710000   0.64993249   -4.4210029    1977.6845  0.044422384  0.043692858            5 
 3711000   0.65832347   -4.4053814    1981.6837  0.044500218  0.043682947            5 
 3712000   0.65324237   -4.4107651    1986.1701  0.044588948  0.043672968           12 
 3713000   0.66407687   -4.4089015    1985.9546  0.044572102  0.043663038            7 
 3714000   0.66194101   -4.4105409    1977.6189  0.044373068  0.043653173            6 
 3715000   0.66240738   -4.4074534    1976.9162  0.044345361  0.043643322           20 
 3716000     0.652571   -4.4069819    1982.6395  0.044461775  0.043633411           12 
 3717000   0.64624396   -4.4325793     1983.807  0.044475989  0.043623481           10 
 3718000   0.64969134   -4.4301035    1980.5954  0.044392044  0.043613543            6 
 3719000   0.65536654   -4.4035911    1978.8299  0.044340546  0.043603657            8 
 3720000   0.66452397   -4.4182193    1982.3461  0.044407395  0.043593871            6 
 3721000   0.67711403   -4.4018257    1984.5301  0.044444372  0.043583972            7 
 3722000   0.65768484   -4.4219359    1984.9403  0.044441614  0.043574069           10 
 3723000   0.65506907   -4.4144329    1982.4872   0.04437477  0.043564162            7 
 3724000   0.65046982   -4.4140577    1985.3249  0.044426354  0.043554308           10 
 3725000    0.6697093   -4.4185504    1987.4039  0.044460937  0.043544513            7 
 3726000   0.64962528   -4.4250219    1977.3832  0.044224889   0.04353467            9 
 3727000   0.64536638   -4.4199548    1982.6162  0.044330028  0.043524845            7 
 3728000   0.66714576   -4.4217799    1979.9783  0.044259171  0.043515023           10 
 3729000   0.64184014    -4.400952    1981.8408  0.044288925  0.043505196           10 
 3730000   0.64925943   -4.4156783    1982.5773  0.044293505   0.04349535            5 
 3731000   0.64455089   -4.4024204    1984.0935  0.044315498  0.043485534            4 
 3732000   0.64051683   -4.4118506    1979.4039  0.044198909  0.043475609           17 
 3733000   0.64237355   -4.4224919    1984.2126  0.044294415  0.043465793            9 
 3734000   0.66006653   -4.4329554    1986.1107  0.044324913  0.043455908            6 
 3735000   0.64805489   -4.4324629    1979.1214  0.044157105  0.043446048           12 
 3736000    0.6602288   -4.4223551    1982.1108  0.044211966  0.043436195            5 
 3737000   0.67203385   -4.4108202     1979.261  0.044136585  0.043426393           11 
 3738000   0.65980666   -4.4260918    1985.0814  0.044254535  0.043416544            3 
 3739000   0.63953476   -4.4181434    1988.4332  0.044317403  0.043406784            6 
 3740000   0.64791912   -4.4130981     1984.435  0.044216465  0.043396939            5 
 3741000   0.65060406   -4.4384193    1981.1345  0.044131127  0.043387127           21 
 3742000   0.65567558   -4.4174227    1989.4628  0.044304801  0.043377351           11 
 3743000   0.65055331   -4.4385156     1985.406  0.044202646  0.043367603            5 
 3744000   0.63868485   -4.4089658    1986.8621  0.044223248  0.043357845            9 
 3745000   0.66561778   -4.4242766     1981.308  0.044087849  0.043348036            5 
 3746000   0.65258536   -4.4269255    1983.7302  0.044129966  0.043338165           12 
 3747000   0.64862148   -4.4140495    1989.3152  0.044242398  0.043328342            4 
 3748000   0.65141452   -4.4428643    1982.0295  0.044068604  0.043318521           12 
 3749000   0.65453418   -4.4244969    1990.1605  0.044237586  0.043308681           10 
 3750000    0.6432401   -4.3855762    1993.2208  0.044293795  0.043298874           12 
 3751000   0.65430246   -4.4367902    1983.4886  0.044065773  0.043289085            8 
 3752000   0.63849782   -4.4407938    1987.4574  0.044142178  0.043279254           12 
 3753000   0.65407784   -4.4365432    1987.0049  0.044120369   0.04326947           14 
 3754000   0.65254518   -4.4166887    1987.0828  0.044110345  0.043259719           13 
 3755000   0.64993144    -4.427942    1990.4943  0.044174308  0.043249897            8 
 3756000   0.64839923   -4.4103426    1983.7419  0.044012733   0.04324009           11 
 3757000    0.6605325   -4.4351018     1984.893  0.044026551   0.04323029           12 
 3758000   0.65141574   -4.4285172    1985.3816  0.044025669  0.043220445            9 
 3759000   0.65909472   -4.4165128    1987.3778  0.044058211  0.043210698            4 
 3760000   0.65053974   -4.4119745    1992.3615  0.044156949  0.043200991           10 
 3761000   0.63989438   -4.4298184     1986.856  0.044023222  0.043191279            8 
 3762000   0.63108119   -4.4190214    1986.8356  0.044011066  0.043181449            5 
 3763000   0.64728931   -4.4019964    1990.7217  0.044085431  0.043171644           18 
 3764000   0.63978642     -4.42463    1981.3928  0.043867181  0.043161879            7 
 3765000   0.64941863   -4.4330658    1988.4986  0.044012807  0.043152038            5 
 3766000    0.6488077   -4.4286427    1991.4944  0.044067409  0.043142243           12 
 3767000   0.64368117   -4.4249235    1988.4475  0.043988309  0.043132434           19 
 3768000   0.65216542   -4.4360305    1986.3075  0.043929305  0.043122622           16 
 3769000   0.65736014    -4.424593    1983.4341  0.043854119  0.043112843           10 
 3770000   0.64838245   -4.4292887    1991.9921  0.044031656  0.043103013            7 
 3771000   0.66821569    -4.433916    1989.4678  0.043964196  0.043093266            7 
 3772000    0.6606294   -4.4254432    1987.7142  0.043913798   0.04308347            6 
 3773000   0.63983957   -4.4289701    1986.5575  0.043876613  0.043073721            7 
 3774000   0.64409202   -4.4156223    1992.0844  0.043987024   0.04306398           13 
 3775000   0.63931912   -4.4547254    1990.2965  0.043935904  0.043054285           11 
 3776000   0.64781639   -4.4312383    1992.0104  0.043962094  0.043044608           12 
 3777000   0.64761264   -4.4140455    1995.5232  0.044027959  0.043034865            7 
 3778000   0.64075586   -4.4192225     1986.429  0.043815709   0.04302519           13 
 3779000   0.63468996   -4.4341698    1989.3684  0.043868935  0.043015498            7 
 3780000   0.65330644   -4.4419822     1990.515  0.043882607  0.043005828           11 
 3781000   0.65539389   -4.4272826    1993.2819  0.043931983  0.042996064           10 
 3782000   0.64316587   -4.4223047    1994.0529  0.043937355  0.042986343            6 
 3783000   0.65667468   -4.4338925    1984.9233  0.043724629  0.042976551            8 
 3784000   0.63730016   -4.4169676    1988.7891  0.043798209  0.042966763            6 
 3785000   0.65523407   -4.4261884    1991.4155  0.043844463  0.042957021           10 
 3786000   0.64046362   -4.4407621    1989.9465  0.043800549  0.042947236            9 
 3787000   0.63130017   -4.4449796    1986.3845    0.0437106  0.042937428            9 
 3788000       0.6435   -4.4644603    1988.9284  0.043755024  0.042927613            8 
 3789000   0.66960826   -4.4337767    1988.3553  0.043730872   0.04291783           16 
 3790000    0.6461129   -4.4305447    1992.3857  0.043807952  0.042908089            8 
 3791000   0.64342801   -4.4451504    1985.7248  0.043649978  0.042898319           11 
 3792000    0.6441127   -4.4426469    1990.0009  0.043732439  0.042888541            7 
 3793000   0.65466865   -4.4381822     1993.394  0.043795456  0.042878826            8 
 3794000   0.63176007    -4.445232    1990.5745  0.043721984  0.042869031            5 
 3795000   0.65276995   -4.4370714    1983.3405  0.043551614  0.042859202           12 
 3796000     0.640095   -4.4283638     1993.351  0.043759901  0.042849444           15 
 3797000   0.64678189   -4.4630475    1988.2788  0.043637057  0.042839611            5 
 3798000    0.6431129     -4.45719    1990.7066  0.043678836  0.042829781           10 
 3799000    0.6558075   -4.4348758    1992.5919  0.043708693   0.04282001            8 
 3800000   0.63300349   -4.4428651    1988.8749  0.043615677  0.042810233           18 
 3801000   0.64545434    -4.435131    1985.0475   0.04352029  0.042800474           11 
 3802000   0.65367637   -4.4403508    1991.8736   0.04365846  0.042790703            6 
 3803000   0.64531341   -4.4382846    1994.4022  0.043702389  0.042780945            6 
 3804000    0.6510161   -4.4310013    1990.6402  0.043608487  0.042771173            6 
 3805000   0.66373892   -4.4295137    1990.8099  0.043600743  0.042761376            4 
 3806000   0.64873278   -4.4286187     1990.307  0.043578276  0.042751653            5 
 3807000   0.63106878   -4.4261568     1992.381  0.043612227  0.042741931           13 
 3808000   0.65291133   -4.4245648    1995.5177  0.043669417  0.042732196           22 
 3809000   0.64333738   -4.4313551    1992.7636  0.043597698  0.042722539            8 
 3810000   0.64152766   -4.4713122    1985.1205  0.043419083  0.042712747           10 
 3811000    0.6372223   -4.4273364    2001.8718  0.043773984  0.042702993           19 
 3812000   0.64396336   -4.4148674     1995.761  0.043628913  0.042693231            5 
 3813000    0.6486175   -4.4336492    1984.1704  0.043364159  0.042683454            9 
 3814000   0.63632744   -4.4204321    1994.6609  0.043581999  0.042673718            8 
 3815000   0.63480519   -4.4304693    2005.1472  0.043799633  0.042664002            6 
 3816000   0.65096325    -4.438857     1995.358   0.04357438  0.042654295            4 
 3817000   0.65611969   -4.4287275    1991.8715  0.043486845  0.042644504            7 
 3818000   0.66809553   -4.4603103    1990.6454  0.043448694  0.042634775           18 
 3819000   0.64522951   -4.4289714    1997.5766  0.043588562  0.042625065            7 
 3820000   0.64809898   -4.4251017    1999.4163  0.043617283  0.042615346           12 
 3821000   0.65235827   -4.4493229    1996.9477   0.04355203  0.042605649            7 
 3822000   0.63295486   -4.4641509    1987.0381   0.04332457  0.042595849            6 
 3823000   0.63105144   -4.4200639    1989.0893   0.04335795  0.042586111            7 
 3824000   0.64759003   -4.4325821    1996.2861  0.043503446  0.042576407           14 
 3825000    0.6394371   -4.4098105    1999.2122  0.043555821  0.042566703            6 
 3826000   0.63099707    -4.436775     1993.342  0.043416579  0.042557011           12 
 3827000   0.63427539   -4.4524455     1995.446   0.04345105  0.042547268            9 
 3828000   0.65431458   -4.4367135    1993.8251  0.043404413  0.042537569           14 
 3829000   0.64796477   -4.4513794    1994.0007  0.043396898  0.042527866            5 
 3830000   0.63793315   -4.4472502    1990.2881   0.04330479  0.042518151            4 
 3831000   0.63104869   -4.4546586    1994.9197  0.043394233  0.042508505            8 
 3832000   0.63414146   -4.4687783    1995.7649   0.04340129  0.042498744            9 
 3833000    0.6537875   -4.4584174    1991.6428  0.043300347  0.042489042           11 
 3834000   0.63929611   -4.4488054    1996.1597  0.043387229  0.042479266            6 
 3835000   0.63745797   -4.4381118    1995.2095   0.04335527  0.042469515           14 
 3836000   0.64126423   -4.4606904    1992.7251  0.043289996   0.04245984           15 
 3837000   0.65042229   -4.4591084    1991.5065  0.043252247  0.042450129           16 
 3838000   0.64486287   -4.4458245    1997.7121  0.043375719  0.042440438           10 
 3839000   0.64989622   -4.4676585    1996.4865  0.043337816  0.042430779           21 
 3840000   0.64523873    -4.455675    1993.0256  0.043251424  0.042421135            8 
 3841000   0.62745621   -4.4550714    1997.7934  0.043343604  0.042411405           13 
 3842000   0.63472044   -4.4604487    1997.9556  0.043335841  0.042401784           13 
 3843000    0.6390905   -4.4587653    1990.9215  0.043172034  0.042392105            6 
 3844000   0.62546356   -4.4811076    1996.4255  0.043280122  0.042382345           11 
 3845000   0.63184714   -4.4485515    1995.8072  0.043255466  0.042372659            8 
 3846000   0.63453064   -4.4700782    1992.9068  0.043181375  0.042363007           13 
 3847000   0.63072732   -4.4506202    1992.2246  0.043155372  0.042353267            6 
 3848000   0.63944944   -4.4495287    1997.2336  0.043252634  0.042343583           10 
 3849000   0.63145846   -4.4508027    1998.1035  0.043260229  0.042333932           12 
 3850000   0.63348221    -4.456602    1997.1105  0.043227501  0.042324271           10 
 3851000   0.63787133   -4.4465053    1998.6341  0.043249246  0.042314573           12 
 3852000   0.63639448   -4.4638063    1997.3075  0.043209318  0.042304874           10 
 3853000   0.64422985   -4.4364264    1997.3791  0.043199652   0.04229519            8 
 3854000   0.63341084    -4.455742    1996.5014  0.043169464  0.042285442            8 
 3855000   0.64072604   -4.4563627    1996.0606  0.043148737  0.042275692           20 
 3856000   0.64223641   -4.4529844    2001.6986  0.043259393  0.042266003           10 
 3857000   0.62876598   -4.4596118    2001.1496  0.043236316  0.042256327            8 
 3858000   0.63674797   -4.4641496    1995.5756  0.043104709  0.042246685            6 
 3859000   0.63080102   -4.4655939    2001.0554  0.043211873   0.04223697            7 
 3860000   0.61484571   -4.4707372    1997.8527  0.043131535  0.042227242            7 
 3861000   0.63767116   -4.4568025    2002.6798  0.043224549  0.042217573            5 
 3862000   0.62521577   -4.4574233    1999.6666  0.043148339  0.042207907           17 
 3863000   0.63082228   -4.4770326     1995.283  0.043042604  0.042198187           25 
 3864000   0.63129469   -4.4637686    2000.1487  0.043136402  0.042188446            4 
 3865000   0.62623676   -4.4635899    2000.2449  0.043127315  0.042178727           11 
 3866000   0.64590359   -4.4739764    1999.4818   0.04309971  0.042169039            6 
 3867000   0.63929134   -4.4683025    1996.3428   0.04302092  0.042159323           12 
 3868000   0.63356267    -4.454065     1999.752  0.043083247  0.042149593           10 
 3869000   0.63181726   -4.4504355     2001.399  0.043107587  0.042139871            9 
 3870000   0.62339773   -4.4759285    1996.6497  0.042994179  0.042130173            4 
 3871000   0.63026075   -4.4641365    2000.8227  0.043072908  0.042120465            7 
 3872000   0.62752842   -4.4606461    2004.4268  0.043139351  0.042110802           11 
 3873000   0.63410904   -4.4462516    2003.6193  0.043110837  0.042101171            8 
 3874000   0.63601341   -4.4550112    2001.7204  0.043058862  0.042091542            9 
 3875000   0.63803107   -4.4589918    1999.2229  0.042994041  0.042081876            7 
 3876000    0.6301825   -4.4644772    1994.9789  0.042891702  0.042072231            8 
 3877000   0.62993386   -4.4645625    1996.0873  0.042904464  0.042062491           13 
 3878000   0.62815844   -4.4621329    1997.7115  0.042928304  0.042052816           11 
 3879000   0.63416036   -4.4752746    1993.2607   0.04282162  0.042043119           10 
 3880000   0.63440979   -4.4667053     1997.095  0.042892935  0.042033408            8 
 3881000    0.6387813   -4.4536244    2000.4205  0.042953287  0.042023686            8 
 3882000   0.62631471   -4.4851421    1997.2201  0.042873521   0.04201392            8 
 3883000    0.6365391   -4.4590083    2002.1726  0.042968766  0.042004181            4 
 3884000   0.63975679   -4.4601088    2001.6359  0.042946187  0.041994453           21 
 3885000   0.64938949   -4.4695462    1997.3037  0.042842207  0.041984721            8 
 3886000    0.6312393   -4.4364103    1999.4268  0.042876712  0.041974974            4 
 3887000   0.62761951    -4.455937    1996.3403  0.042799509  0.041965224           11 
 3888000   0.61431097   -4.4891443    1992.0723  0.042697022  0.041955422           16 
 3889000   0.63881464   -4.4692079    1998.0104  0.042813284  0.041945656           10 
 3890000   0.62863243   -4.4857821    1993.7499  0.042711009  0.041935863            7 
 3891000   0.63301041   -4.4886172    1992.2695  0.042668326  0.041926027            9 
 3892000   0.62360475   -4.4807285     2001.142  0.042847336  0.041916235           10 
 3893000   0.63209991   -4.4600806    1997.8667   0.04276622  0.041906493           11 
 3894000   0.63125887   -4.4663431    1995.7622  0.042710199  0.041896695           18 
 3895000   0.62891535   -4.4853111    1995.7754  0.042699516   0.04188685           10 
 3896000   0.61816864   -4.4760186     1994.437  0.042659929  0.041877016            9 
 3897000   0.62981277   -4.4780105     1999.157  0.042749914  0.041867163           11 
 3898000   0.62352614   -4.4729583    1995.8185  0.042667576  0.041857402           10 
 3899000   0.63269884   -4.4824921     1992.641  0.042588719   0.04184757           15 
 3900000    0.6190627   -4.4630453    1999.5433  0.042725285  0.041837764            9 
 3901000   0.63330043   -4.4811334    1999.0643    0.0427041  0.041827963            8 
 3902000   0.61994213   -4.4838764    1996.4217  0.042636719  0.041818195            7 
 3903000   0.62458294   -4.4558071    1998.9835  0.042680492  0.041808425           15 
 3904000    0.6097261   -4.4711597    1998.0325   0.04264926  0.041798657            5 
 3905000   0.61442748   -4.4892214    1992.1123  0.042511999  0.041788884            7 
 3906000   0.63907125   -4.4579242    1997.0289  0.042606011  0.041779142            9 
 3907000   0.62696367   -4.4775473    1998.6311  0.042629279  0.041769377            5 
 3908000   0.63966879   -4.4641613    1995.4812  0.042551203  0.041759588            6 
 3909000   0.62996964   -4.4788433    1997.9942   0.04259389  0.041749835            6 
 3910000   0.62894443   -4.4950717    1997.9352   0.04258174  0.041740064           12 
 3911000   0.64185648   -4.4654479    1994.3398  0.042494243  0.041730275            8 
 3912000   0.61735786   -4.4527796     1999.573  0.042594857  0.041720545            6 
 3913000    0.6203074   -4.4614485    2001.3162  0.042621096  0.041710822           17 
 3914000   0.63178204   -4.4753895    1994.7588  0.042470593   0.04170111           11 
 3915000   0.64082121   -4.4719564    1999.5754  0.042562269  0.041691411            9 
 3916000   0.63370484   -4.4890709    2002.2517  0.042608353  0.041681693            7 
 3917000   0.62237096   -4.4757526    1998.8541  0.042525192   0.04167189           11 
 3918000   0.61786417    -4.469827    2000.7433  0.042554521  0.041662238            8 
 3919000   0.62183924   -4.4753824    1999.8643  0.042524971  0.041652608            9 
 3920000   0.62219752   -4.4563285    2000.5968  0.042529695  0.041642946           12 
 3921000   0.62976748   -4.4842848    1999.5738  0.042497106  0.041633224           25 
 3922000    0.6104595   -4.4774965    2002.0066   0.04253796  0.041623552            4 
 3923000   0.64353459   -4.4805027    2000.1333  0.042487324  0.041613879            3 
 3924000   0.61577495   -4.4919082    1999.6224  0.042465647   0.04160423            7 
 3925000   0.61872146      -4.4701    2002.5791  0.042517603  0.041594592            9 
 3926000   0.61063332   -4.4531878    2004.6811   0.04255139  0.041584965            8 
 3927000   0.61819894   -4.4716843    2002.7437  0.042499442  0.041575367           11 
 3928000   0.62725085   -4.4756201    2001.1342  0.042454476  0.041565739           12 
 3929000   0.63303098   -4.4621764    2009.9079   0.04262976  0.041556104            7 
 3930000     0.617827   -4.4768249    2003.3362  0.042479564  0.041546524            6 
 3931000   0.63531088   -4.4700272    2004.0369  0.042483611  0.041536935           18 
 3932000   0.60511162   -4.4786218    2004.6876  0.042486597  0.041527335           16 
 3933000   0.63458698   -4.4553499    2003.3055   0.04244651  0.041517727            7 
 3934000   0.62588507   -4.4855733    2005.7762  0.042488056  0.041508126            7 
 3935000    0.6175988   -4.4782341    2003.6999  0.042433288  0.041498458           14 
 3936000    0.6202823   -4.4959128    1999.7154  0.042338149  0.041488814           13 
 3937000     0.632902   -4.4745527    2000.6626  0.042347442  0.041479153            9 
 3938000   0.62772393   -4.4986631    2001.1749  0.042347531  0.041469489           13 
 3939000   0.62050234   -4.4920971    2006.0953  0.042440875   0.04145988           14 
 3940000   0.62034228   -4.4832852    1999.4917  0.042290434  0.041450284            8 
 3941000   0.62908047   -4.4692662     2005.604  0.042408949    0.0414407           21 
 3942000   0.63308256   -4.4875444    2005.3944  0.042393761  0.041431138            7 
 3943000   0.62517831   -4.4807865    2000.4173   0.04227782  0.041421621           10 
 3944000   0.61822688   -4.4975857     2007.537  0.042417534  0.041412034           19 
 3945000   0.60751193   -4.4888126    2004.3612  0.042339696  0.041402494            5 
 3946000   0.62378586   -4.5095485    2005.5415  0.042353892  0.041392897            8 
 3947000    0.6260863   -4.4932157     2004.273   0.04231638  0.041383278           11 
 3948000   0.61347846   -4.4981661    2006.4863  0.042352378  0.041373702            8 
 3949000   0.61395687   -4.4895954    2004.9091  0.042308371  0.041364104           19 
 3950000   0.62917543   -4.4783542    2005.0993  0.042301673  0.041354581            6 
 3951000     0.618526   -4.5029141    2003.4689  0.042256579   0.04134503            5 
 3952000   0.61657764   -4.4977153    1997.9982  0.042130529  0.041335373           12 
 3953000   0.61256394   -4.4839995    2006.3779  0.042296524  0.041325789            7 
 3954000   0.61461976   -4.4700437    2002.0696  0.042195027  0.041316209            8 
 3955000   0.61567422   -4.4820052    2002.1711  0.042186497   0.04130663           14 
 3956000   0.61403028   -4.4784985    2007.2346  0.042282495  0.041297036            4 
 3957000   0.61783977    -4.487808    2007.8594  0.042284968  0.041287437           12 
 3958000   0.60539936   -4.4785187    2004.4693  0.042202907  0.041277843            8 
 3959000   0.62239854     -4.49123    2005.8574  0.042221465   0.04126822           13 
 3960000   0.61658468   -4.4962438    2001.2833  0.042114548  0.041258518           20 
 3961000   0.61747906   -4.4993619    2001.2489  0.042103191  0.041248866            3 
 3962000   0.63868637   -4.4931067    2006.3858  0.042200609  0.041239241            9 
 3963000   0.62303196   -4.4850206      2008.55   0.04223547  0.041229634            5 
 3964000   0.60924451   -4.4702127    2004.1744  0.042132828  0.041220021            9 
 3965000   0.61951487   -4.4688923    2009.1705  0.042227206  0.041210414            6 
 3966000   0.62546481   -4.4651224    2008.8498  0.042209821  0.041200824           31 
 3967000   0.62184212   -4.5049925    2000.6303  0.042026517  0.041191225           14 
 3968000   0.61782308   -4.5139012    1999.1022  0.041983833  0.041181583           19 
 3969000   0.61100901   -4.4994787    2007.2623  0.042144585  0.041171951            9 
 3970000   0.61088316    -4.505571    1999.8792  0.041978992  0.041162278           28 
 3971000   0.60415776   -4.4926609    2006.3728  0.042104692  0.041152715            9 
 3972000   0.61897528   -4.4923599    2002.8281  0.042019723  0.041143112            8 
 3973000   0.59916825   -4.4976065    2007.1999  0.042100846    0.0411335            8 
 3974000   0.59700746   -4.4783063    2005.1582  0.042047438  0.041123904           12 
 3975000   0.61074686    -4.496548    2005.8012  0.042050339  0.041114312           10 
 3976000   0.61616634    -4.489874    2006.4006  0.042052327  0.041104648           10 
 3977000    0.6176611   -4.5083203     2012.223  0.042163754  0.041095046            7 
 3978000   0.60744824   -4.5196082    2010.3314  0.042113529  0.041085408            4 
 3979000    0.6210331   -4.4960476    2006.2393  0.042017242  0.041075833            6 
 3980000   0.61181465   -4.4940615    2000.1139  0.041878431  0.041066257            9 
 3981000   0.61436722   -4.4829452    2010.0262  0.042075404  0.041056679            7 
 3982000   0.61310981   -4.4758066    2006.9221  0.041999876  0.041047129            7 
 3983000   0.62224584    -4.501726     2001.183  0.041869257  0.041037599            9 
 3984000   0.61544105   -4.4920118    2007.9519  0.042000332  0.041028018            5 
 3985000   0.61242576   -4.5001631    2009.9677  0.042031946  0.041018402           14 
 3986000   0.60261809   -4.4937956    1999.8966   0.04181085  0.041008784            6 
 3987000   0.61569889   -4.5100527    2004.5018  0.041896618  0.040999154           10 
 3988000    0.6166019   -4.5108636    2005.8943  0.041915209  0.040989572           11 
 3989000   0.61003946   -4.5015786    2005.0816  0.041887724  0.040979931           13 
 3990000   0.60677118   -4.4958179    2011.2339  0.042005721  0.040970373           17 
 3991000   0.61248571   -4.5094968    1999.7809  0.041756053  0.040960755           19 
 3992000   0.61505051   -4.5077895     2004.497  0.041844041  0.040951079            6 
 3993000   0.61839734   -4.5256574     2004.559  0.041834857  0.040941426           24 
 3994000   0.60393987   -4.5221398    2003.4029   0.04180026  0.040931777           14 
 3995000   0.61230677   -4.5048124    1999.4595  0.041707541  0.040922153           13 
 3996000   0.61462664   -4.5091819    2003.3595  0.041778435  0.040912586            7 
 3997000   0.61667882   -4.5075587    1997.6875  0.041649727  0.040902932           10 
 3998000   0.61772009   -4.5042923    2010.0979  0.041897988  0.040893367            7 
 3999000   0.60985687   -4.5000116    2007.5955  0.041835364  0.040883828            9 
 4000000   0.60937864   -4.5047427    2003.7275  0.041744322  0.040874263           16 
 4001000   0.60869834   -4.4898973    2007.5961  0.041814465  0.040864681            5 
 4002000   0.60427774   -4.5133041    2007.3606  0.041799114  0.040855052           26 
 4003000   0.60575148   -4.5025292    2007.9963  0.041801905  0.040845478            6 
 4004000   0.60430064   -4.5015179    2007.5788  0.041782776  0.040835931            8 
 4005000   0.60857732   -4.5213178    2001.4691  0.041645217  0.040826381           14 
 4006000   0.61522743   -4.4957501    2003.9314  0.041686041  0.040816751           17 
 4007000   0.59311872   -4.4948012    2010.5885  0.041814086  0.040807147            9 
 4008000    0.6110312   -4.5175207    2007.3972    0.0417373  0.040797541           22 
 4009000    0.6200756   -4.5142671     2004.582  0.041668371  0.040787953            9 
 4010000    0.6178126   -4.5110593    2009.1109  0.041752098  0.040778362           11 
 4011000   0.59342926    -4.511036    2004.4209  0.041644248  0.040768808           18 
 4012000   0.59713721   -4.5129763    2004.4935  0.041635375  0.040759156           23 
 4013000   0.61060225   -4.5130449    2008.1772  0.041701495  0.040749524            9 
 4014000   0.62762127     -4.51017    2010.4709  0.041738724  0.040739896           11 
 4015000    0.6034018   -4.4962152    2008.2282   0.04168178  0.040730257           16 
 4016000   0.60188869   -4.5189743    2005.3803  0.041612306  0.040720628            8 
 4017000   0.60885618   -4.4997465    2006.9463  0.041634434   0.04071099           19 
 4018000   0.61356197   -4.5369713    2001.2753  0.041506456  0.040701345            9 
 4019000   0.61212417    -4.509772    2005.1802  0.041577097  0.040691729           12 
 4020000   0.61708547   -4.5079248    2011.0268  0.041687953  0.040682109            6 
 4021000   0.63697036   -4.5114335    2005.6323  0.041565786  0.040672499            8 
 4022000   0.60134608   -4.5142845    2002.3305  0.041487039  0.040662848           15 
 4023000   0.60204931    -4.517869    2002.9265  0.041489073  0.040653203            8 
 4024000    0.6205106   -4.5158308    2009.2603  0.041609931  0.040643555           13 
 4025000   0.61467216   -4.5096723    1997.7076  0.041360407  0.040633892            9 
 4026000   0.61680006   -4.4842334     2009.482  0.041593849  0.040624254            6 
 4027000   0.60466726   -4.5119103    2006.4423  0.041520617  0.040614735            8 
 4028000   0.60227499   -4.5218095    2006.8691  0.041519138  0.040605095           15 
 4029000   0.59827791   -4.5140564    2001.9151  0.041406369  0.040595424           15 
 4030000   0.60037747   -4.5206055      2004.41  0.041447684  0.040585741           10 
 4031000   0.61451603   -4.4998119    2007.0087  0.041491126  0.040576137           11 
 4032000   0.61486899   -4.5236493     2008.262  0.041506738  0.040566502           25 
 4033000   0.60976187   -4.5154975    2004.1934  0.041412378  0.040556861            8 
 4034000   0.61271391   -4.4975772    2004.5895  0.041410295  0.040547192            7 
 4035000   0.59919657    -4.497792    2007.1991  0.041453927  0.040537559            9 
 4036000   0.60788933   -4.4991317    2009.9596  0.041500652  0.040527937           10 
 4037000   0.58844346   -4.5434207    2003.9705  0.041366743  0.040518297           10 
 4038000   0.61359046   -4.5321045    2000.8771  0.041292659  0.040508653           17 
 4039000   0.59415461    -4.538514    2000.6332  0.041277404  0.040498939           13 
 4040000   0.60269077   -4.5169714    2009.3094   0.04144615  0.040489276           10 
 4041000   0.61092449   -4.5092119    2006.4623  0.041377182  0.040479708           10 
 4042000   0.57401675   -4.5216406    2006.1207  0.041359902  0.040470096           11 
 4043000   0.62315341   -4.5291691    2006.0088  0.041347366  0.040460506            9 
 4044000   0.59857822   -4.5046852    2005.7923  0.041332681  0.040450912            8 
 4045000    0.6008645   -4.5069894    2011.3723  0.041437419  0.040441293            8 
 4046000   0.60940819   -4.5029199    2007.1827  0.041340885  0.040431685            5 
 4047000   0.60604751   -4.5206575    2002.8604  0.041241668  0.040422031           10 
 4048000   0.61874917   -4.5053271    2009.9532  0.041377495  0.040412411           23 
 4049000   0.61351709   -4.5130996    2012.8583  0.041427066  0.040402802            6 
 4050000   0.59311829   -4.5311218    2005.0816  0.041256823  0.040393143           12 
 4051000    0.5962595   -4.5224124    2007.7422   0.04130137  0.040383464           10 
 4052000    0.6017221   -4.5312803    2002.4662  0.041182672  0.040373784           12 
 4053000   0.60281311   -4.5257415    2003.5859  0.041195532  0.040364112           10 
 4054000   0.59465643   -4.5272143    2009.8475  0.041314082  0.040354473           13 
 4055000   0.60131368   -4.5421374    2008.4954  0.041276108  0.040344872           11 
 4056000   0.60910947   -4.5217779    2004.9129  0.041192327  0.040335269            9 
 4057000   0.60327668   -4.5255342    2005.8594  0.041201614  0.040325596           11 
 4058000   0.62159869   -4.5018416    2007.5267    0.0412257   0.04031601            7 
 4059000   0.60863541   -4.5326571    2005.7996  0.041180085  0.040306406            6 
 4060000   0.61277738   -4.5151721    2012.2197  0.041301718  0.040296825            6 
 4061000   0.58716483   -4.5114754    2007.4265  0.041193189  0.040287222           10 
 4062000    0.5989144   -4.5236639     2005.887  0.041151464  0.040277649           15 
 4063000   0.59833081   -4.5133566    2007.0168  0.041164509  0.040268076            7 
 4064000   0.60879306   -4.5269587    2003.6273  0.041084877  0.040258432           11 
 4065000   0.60512996   -4.5225466    2003.4006  0.041070123  0.040248857           11 
 4066000   0.59865493   -4.5340362    2007.4244   0.04114249  0.040239264            7 
 4067000   0.59954894   -4.5380576    2006.0853  0.041104935  0.040229642            8 
 4068000   0.60755208   -4.5188218    2007.5226  0.041124274  0.040220071           12 
 4069000   0.60082641   -4.5169914    2010.0327  0.041165575  0.040210487            7 
 4070000   0.60439244   -4.5446813    2012.4282  0.041204508   0.04020094            7 
 4071000   0.60326193   -4.4984023    2016.9837  0.041287638  0.040191381            6 
 4072000   0.59300387   -4.5441602    2007.3073  0.041079471  0.040181817           15 
 4073000   0.59972707   -4.5324335    2006.3586  0.041049976  0.040172222            8 
 4074000   0.58703492   -4.5279612    2004.1971  0.040995687  0.040162685            8 
 4075000   0.59606618   -4.5223727     2004.871  0.040999407  0.040153131           13 
 4076000   0.60850112   -4.5188237    2011.6618  0.041128185  0.040143556            8 
 4077000   0.59786028   -4.5540003     2005.155  0.040985099  0.040133981           20 
 4078000   0.60631895   -4.5250911    2012.3084  0.041121227   0.04012433           11 
 4079000   0.59778404   -4.5359429    2008.9122  0.041041762  0.040114769            7 
 4080000   0.59559222   -4.5337679    2004.8295  0.040948315  0.040105142            6 
 4081000   0.60179598   -4.5270579    2010.0096  0.041044057  0.040095576           12 
 4082000   0.60484549   -4.5473068    2008.9989  0.041013369  0.040086042           12 
 4083000   0.59101852   -4.5251661    2006.6138  0.040954646  0.040076471            9 
 4084000   0.59276211   -4.5271714    2010.8059  0.041030156  0.040066962           11 
 4085000   0.59281389   -4.5163803    2011.2509   0.04102919  0.040057438            9 
 4086000   0.58637323   -4.5249884    2012.2889  0.041040319  0.040047898            9 
 4087000    0.6027221   -4.5258129    2010.2552  0.040988811  0.040038411           11 
 4088000   0.60819273   -4.5350701    2010.1817  0.040977285  0.040028887           11 
 4089000   0.58459171   -4.5295457    2014.2808  0.041050803  0.040019385            8 
 4090000   0.59291368   -4.5117114    2011.6282   0.04098672  0.040009872            9 
 4091000   0.58587383   -4.5290724    2013.3387  0.041011543  0.040000359           11 
 4092000   0.60492065    -4.533283    2011.2801  0.040959598  0.039990827           16 
 4093000   0.60967737     -4.53533    2011.4289   0.04095262   0.03998133           12 
 4094000   0.59026844   -4.5296974     2014.357  0.041002219  0.039971802           10 
 4095000    0.6050744   -4.5139774    2005.3754  0.040809429  0.039962309           18 
 4096000   0.59517018    -4.548679    2010.1649   0.04089691  0.039952767            9 
 4097000   0.59437712   -4.5170331    2015.6183   0.04099785  0.039943243           13 
 4098000   0.58739643   -4.5268415    2009.9767  0.040873124  0.039933761            4 
 4099000   0.58060044   -4.5169914      2011.18  0.040887615   0.03992425           15 
 4100000   0.59266549    -4.544918    2013.4467  0.040923714  0.039914785            8 
 4101000   0.58637185   -4.5106857    2011.9801  0.040883932    0.0399053            6 
 4102000   0.59967759   -4.5536149    2010.9676  0.040853396  0.039895766            9 
 4103000   0.59224482   -4.5394929    2009.2112  0.040807767  0.039886231            9 
 4104000    0.6062658   -4.5402868    2011.7352  0.040849074  0.039876714            5 
 4105000   0.59284498   -4.5617214    2005.8825   0.04072031  0.039867161           12 
 4106000   0.60096496   -4.5430713    2014.8981   0.04089337  0.039857598           11 
 4107000    0.5886915   -4.5369337    2007.5528  0.040734371  0.039848095           25 
 4108000   0.60195939   -4.5377738    2016.1975  0.040899819  0.039838561           10 
 4109000   0.58494003   -4.5434285    2016.9558  0.040905244  0.039829106            7 
 4110000    0.5912974   -4.5362898    2010.3323  0.040760995  0.039819582           26 
 4111000   0.59566198   -4.5445876    2016.0591  0.040867167  0.039810044           10 
 4112000   0.58993658   -4.5489732    2009.7729  0.040729834  0.039800521           11 
 4113000   0.60120942   -4.5235508    2013.2906  0.040791203  0.039791004            6 
 4114000   0.57690675   -4.5564671    2015.6959  0.040830009  0.039781494           16 
 4115000   0.59496872   -4.5425449    2008.0697  0.040665647  0.039771954            8 
 4116000    0.5945635   -4.5289624    2019.2237  0.040881594  0.039762468            5 
 4117000   0.59779049   -4.5258559    2012.8894   0.04074345  0.039752999            8 
 4118000   0.59281536    -4.564227    2011.0309  0.040695947  0.039743518           18 
 4119000   0.59631633   -4.5366266    2015.0014  0.040766395  0.039734081           13 
 4120000   0.58914523      -4.5457    2010.9176    0.0406739  0.039724657            5 
 4121000   0.59889552   -4.5317758    2013.3518  0.040713252    0.0397152            7 
 4122000   0.59747757   -4.5497026    2009.8926  0.040633442   0.03970565            9 
 4123000   0.59164186   -4.5555224     2008.421  0.040593843  0.039696136            8 
 4124000   0.60254929   -4.5325443    2009.3209  0.040602183  0.039686613           20 
 4125000   0.60270688    -4.557595    2010.2361   0.04061083  0.039677098            6 
 4126000   0.58597582    -4.542192    2014.3858  0.040684799  0.039667629            5 
 4127000   0.59891539   -4.5321112    2009.1031  0.040568271  0.039658111           20 
 4128000   0.60170795   -4.5597803    2013.4284   0.04064576  0.039648548            8 
 4129000   0.56529534   -4.5378834    2015.7998  0.040683778  0.039639047           13 
 4130000   0.58617429   -4.5544485    2006.7574  0.040491473  0.039629486            7 
 4131000   0.58860927   -4.5566516    2007.8059  0.040502822  0.039619947            7 
 4132000   0.58611003   -4.5478494    2010.0588  0.040538456  0.039610424           18 
 4133000   0.59819531   -4.5620065    2009.1831  0.040510991  0.039600921           14 
 4134000    0.6030321   -4.5257506    2014.0148  0.040598589  0.039591434           16 
 4135000   0.59103999   -4.5280274    2009.0048  0.040487802  0.039582069           17 
 4136000   0.59989158    -4.553855    2016.7404  0.040633873  0.039572629            8 
 4137000   0.59974154   -4.5509955    2007.9715  0.040447415  0.039563165           17 
 4138000   0.58941352   -4.5410435    2015.1657  0.040582521  0.039553684            6 
 4139000    0.5921691   -4.5416121    2014.8048   0.04056545  0.039544192            9 
 4140000   0.56601454   -4.5648773    2020.0218  0.040660664  0.039534722            7 
 4141000   0.57832581    -4.536149    2016.2646  0.040575236  0.039525287           10 
 4142000   0.58522227   -4.5525639    2018.0742  0.040601846  0.039515881           34 
 4143000   0.58322759   -4.5350418    2017.2801  0.040576074  0.039506468           10 
 4144000   0.59116126   -4.5488677    2016.9626  0.040559898  0.039497017           15 
 4145000   0.58247563   -4.5360511    2017.5471  0.040561864  0.039487588           10 
 4146000   0.58841376   -4.5562691    2014.4213  0.040489252  0.039478198            9 
 4147000   0.58912095   -4.5239925    2016.4172  0.040519597  0.039468776           10 
 4148000   0.58927857   -4.5439102    2019.4917  0.040571595  0.039459368           10 
 4149000   0.58666731   -4.5462042    2017.5217  0.040522248  0.039449966           13 
 4150000    0.5992137   -4.5405137    2019.0175   0.04054252  0.039440604            6 
 4151000   0.59337092   -4.5317048    2015.5532  0.040463205  0.039431172           18 
 4152000   0.59869345   -4.5492408    2014.2884  0.040428074  0.039421735            7 
 4153000   0.59073373   -4.5580194    2018.6461  0.040505782   0.03941234           10 
 4154000   0.59432943   -4.5528433      2012.98  0.040382362  0.039402867           19 
 4155000   0.58482928    -4.557008    2012.6998  0.040367023  0.039393412            8 
 4156000   0.59078107   -4.5377706    2011.1358  0.040325951   0.03938397           11 
 4157000   0.59403386   -4.5603877    2019.1607  0.040477121  0.039374559           10 
 4158000   0.58378021   -4.5648887    2018.3301   0.04045074  0.039365125           11 
 4159000   0.57794296    -4.565394    2017.5975  0.040426334  0.039355647           10 
 4160000   0.59402604   -4.5576574    2014.0779  0.040346111  0.039346237           16 
 4161000   0.59220449   -4.5462921    2020.2723  0.040460472  0.039336876            5 
 4162000   0.59422743    -4.569934    2014.8387  0.040341958  0.039327511            6 
 4163000   0.58722868   -4.5433309    2019.4057  0.040423686  0.039318162            8 
 4164000   0.57959538   -4.5566483    2015.7282  0.040340381   0.03930888            7 
 4165000   0.58347566   -4.5503745    2017.1135  0.040358414  0.039299527           17 
 4166000   0.60052857   -4.5540977    2014.8855   0.04030416  0.039290182           10 
 4167000   0.58895029    -4.543572    2016.0769  0.040318313  0.039280795           28 
 4168000   0.58094705   -4.5356501    2012.6333  0.040239789  0.039271455            6 
 4169000   0.59303142   -4.5637489    2016.2491  0.040302412  0.039262047           10 
 4170000   0.57517052   -4.5406262     2016.333  0.040294424  0.039252631           11 
 4171000    0.5837379   -4.5574125    2015.1165  0.040260459  0.039243265           17 
 4172000   0.58545177   -4.5661687    2013.9292  0.040227093  0.039233904           12 
 4173000   0.57765114   -4.5664326    2015.9322  0.040257454  0.039224478           14 
 4174000   0.57831859   -4.5410967     2015.776  0.040244689  0.039215077           27 
 4175000   0.58132694    -4.555062    2012.7536  0.040174722  0.039205658            8 
 4176000   0.58436945   -4.5690144     2018.469  0.040279154  0.039196275            8 
 4177000   0.57535779   -4.5474793    2016.2818  0.040225875  0.039186879           16 
 4178000   0.58974978   -4.5744742    2015.0852   0.04019238  0.039177463            7 
 4179000   0.59044085   -4.5637042    2011.7321  0.040115898  0.039168043           11 
 4180000   0.57065546    -4.550118    2019.4935  0.040261034  0.039158631            8 
 4181000    0.5738704    -4.556012    2010.9449  0.040081019   0.03914918            8 
 4182000   0.59276675    -4.565363    2017.0674  0.040193436  0.039139773           11 
 4183000   0.59470886   -4.5724147    2014.6561   0.04013579  0.039130378           22 
 4184000   0.58409244   -4.5659733    2011.9983  0.040073262  0.039120974           27 
 4185000   0.59181316   -4.5508856    2017.6209  0.040175645  0.039111552           11 
 4186000   0.56561755   -4.5674235    2012.9236  0.040072536  0.039102126           24 
 4187000   0.58717247   -4.5660742    2017.5872  0.040155784  0.039092706           14 
 4188000   0.57378491   -4.5607783    2012.5025   0.04004502  0.039083284           47 
 4189000   0.57891287   -4.5709763    2017.9847   0.04014452  0.039073781           15 
 4190000   0.58005912   -4.5588313    2013.6767  0.040049258  0.039064334           11 
 4191000   0.58633534   -4.5694889    2014.2058  0.040050222  0.039054914            9 
 4192000    0.5743045   -4.5590589    2017.5156  0.040106466  0.039045515            9 
 4193000   0.58690843   -4.5339715    2015.9182  0.040065152  0.039036175            9 
 4194000   0.58470419   -4.5331963    2017.3024  0.040083103  0.039026792           10 
 4195000   0.57775773   -4.5853236    2013.4116  0.039996258  0.039017353           19 
 4196000   0.57918122   -4.5667126    2018.5845   0.04008946  0.039007871           19 
 4197000   0.58867082    -4.572128    2016.3684  0.040035907  0.038998438           25 
 4198000   0.58085553   -4.5739312    2013.8067  0.039975519  0.038989005           20 
 4199000   0.57001701   -4.5672695    2017.7704  0.040044661  0.038979601           19 
 4200000   0.56597633   -4.5552025    2014.8518  0.039977219  0.038970164           20 
 4201000   0.57114614   -4.5604733    2011.8943  0.039909036  0.038960789           25 
 4202000     0.580873   -4.5759946    2016.2495   0.03998591  0.038951398           11 
 4203000   0.56360385   -4.5708627    2007.4218  0.039801368     0.038942           17 
 4204000   0.57777125   -4.5737029    2010.9738   0.03986231  0.038932551           19 
 4205000   0.56716472   -4.5719296     2015.232  0.039937218   0.03892311           18 
 4206000   0.58007341   -4.5908663    2013.3608  0.039890648  0.038913696           13 
 4207000   0.57036779   -4.5608534    2008.9661  0.039794115  0.038904261           11 
 4208000   0.57848636   -4.5682861    2014.0959  0.039886246  0.038894851            9 
 4209000   0.59100516   -4.5819428    2013.7929  0.039870772  0.038885424            7 
 4210000   0.57554084   -4.5561067    2013.2742  0.039851032  0.038875991            9 
 4211000   0.58282188   -4.5568422    2010.6064  0.039788776  0.038866571           15 
 4212000   0.56916887    -4.569877    2014.5499   0.03985735  0.038857115           18 
 4213000   0.56913443   -4.5930725    2010.6736  0.039771215  0.038847665           16 
 4214000   0.57656371   -4.5912616    2007.3549  0.039696149  0.038838219            8 
 4215000   0.58231283   -4.5562626    2020.1639  0.039939975  0.038828734           12 
 4216000   0.57113405   -4.5711325    2012.0779  0.039770673  0.038819334           16 
 4217000   0.56300688   -4.5607818    2013.8057  0.039795385  0.038809895           11 
 4218000   0.56803813   -4.5589216    2013.6448  0.039782771  0.038800514           13 
 4219000   0.58283799   -4.5778404    2014.0428  0.039781203  0.038791095           43 
 4220000   0.58866231   -4.5688903    2015.3424   0.03979744   0.03878165           17 
 4221000   0.58644709   -4.5548257    2013.4152  0.039749964  0.038772225            7 
 4222000   0.57908554   -4.5715858    2011.1737  0.039696307  0.038762819            9 
 4223000   0.57833059   -4.5645427    2012.4189  0.039711478    0.0387534           12 
 4224000   0.56167442   -4.5757307    2013.3545  0.039720535  0.038743964           20 
 4225000   0.56771293   -4.5739687    2014.0217  0.039724294  0.038734504            9 
 4226000   0.57391148   -4.5909003    2011.9467  0.039673977  0.038725057           17 
 4227000   0.56951586   -4.5669027    2012.7563  0.039680551  0.038715622           16 
 4228000   0.58100705   -4.5878207    2014.4384   0.03970432  0.038706216            6 
 4229000     0.570521   -4.5623295    2010.7321  0.039621899  0.038696811            4 
 4230000   0.56360582    -4.566555     2017.298  0.039741883  0.038687408           11 
 4231000   0.57762493   -4.5885099    2017.8033  0.039742442  0.038677988           24 
 4232000    0.5871862   -4.5854248    2013.4934  0.039648184  0.038668562           17 
 4233000   0.56402943   -4.5944774    2016.3655   0.03969536  0.038659122           14 
 4234000    0.5669821   -4.5863332    2014.3834  0.039646973  0.038649697           17 
 4235000   0.56706188   -4.5811025    2018.0509  0.039709777  0.038640251           20 
 4236000   0.56708556   -4.5776387    2013.3292  0.039607515  0.038630819            9 
 4237000   0.57855866   -4.5830881     2016.429  0.039659133  0.038621411           20 
 4238000   0.57573249   -4.5709978    2015.7746  0.039636909  0.038612001           13 
 4239000   0.57408044   -4.5750023    2013.2396  0.039577723  0.038602645            9 
 4240000   0.56533049   -4.5769842    2014.0967  0.039585234  0.038593259            7 
 4241000   0.56949208   -4.5883199    2012.3545  0.039541667  0.038583847            7 
 4242000   0.56407255   -4.6103171    2013.8542  0.039561807  0.038574391            8 
 4243000   0.56936335   -4.5900301    2013.8627  0.039552649  0.038564933           16 
 4244000   0.57294301   -4.5745772    2014.7159  0.039560082  0.038555477            9 
 4245000   0.56996506   -4.5873447    2014.9608  0.039555572  0.038546016           17 
 4246000    0.5587425   -4.5996831    2011.8101  0.039484418  0.038536576           13 
 4247000   0.57743325   -4.5755898    2013.6757  0.039511729   0.03852713           15 
 4248000   0.58453494   -4.5675867    2017.7445  0.039582245  0.038517796           10 
 4249000   0.57133392   -4.5850774    2018.8107   0.03959384   0.03850846            9 
 4250000   0.57992025   -4.5925938    2016.5369   0.03953994  0.038499083            8 
 4251000   0.57585271   -4.5652014     2019.505  0.039588822  0.038489719           17 
 4252000   0.55963522   -4.5700382    2016.5736  0.039522061  0.038480359           20 
 4253000   0.57454037   -4.6107409    2015.6714   0.03949509  0.038470995           14 
 4254000   0.55444123    -4.584565    2014.7555  0.039467863  0.038461612            8 
 4255000   0.56964941   -4.5814482    2020.8154   0.03957727  0.038452276           12 
 4256000   0.59039621   -4.5887666    2018.2854  0.039518432  0.038442915           27 
 4257000   0.57599397   -4.5807559    2014.6822  0.039438615  0.038433579            8 
 4258000    0.5586151   -4.5787051    2017.6875   0.03948817  0.038424255           11 
 4259000   0.56948059   -4.5794905    2017.4581  0.039474408  0.038414941           21 
 4260000   0.56544142   -4.5784022    2020.4832  0.039524319  0.038405639            8 
 4261000   0.57688336   -4.5831609    2012.6824  0.039362482  0.038396303            9 
 4262000   0.58184941    -4.595309    2014.3861  0.039386558  0.038386946           12 
 4263000   0.56776268   -4.5843959    2013.1815  0.039353771  0.038377629           13 
 4264000   0.57196776   -4.5758364    2017.6177   0.03943124  0.038368309           13 
 4265000   0.57478822   -4.5992343    2017.4183    0.0394181  0.038358993           15 
 4266000   0.55301975   -4.5792938    2019.2768  0.039445163  0.038349645           16 
 4267000   0.57096542   -4.5793742    2021.3777  0.039476948  0.038340304            7 
 4268000   0.56020304   -4.5928445    2016.4762  0.039371997  0.038330962           41 
 4269000   0.57722013   -4.5927109    2016.6151  0.039365485  0.038321593           28 
 4270000   0.57729461   -4.5873056     2022.728  0.039475565  0.038312283           14 
 4271000   0.56189909   -4.5740597    2016.1033  0.039337065  0.038303008           10 
 4272000   0.55163663   -4.6039785    2015.4172  0.039314475  0.038293676            9 
 4273000   0.57507958   -4.6006204    2022.2266  0.039438072  0.038284351            4 
 4274000   0.56626864   -4.5832359    2017.2538  0.039331886  0.038275033           18 
 4275000   0.56777887   -4.5828388    2022.6796  0.039428451  0.038265733           11 
 4276000   0.56976653   -4.5940763    2017.6212   0.03932065  0.038256415           21 
 4277000   0.57578642   -4.5917311    2014.4734  0.039250125  0.038247081            4 
 4278000     0.564012   -4.5794351    2020.4547  0.039357463  0.038237741           23 
 4279000   0.57212653     -4.58359    2019.7254  0.039334062  0.038228424            8 
 4280000   0.56320753   -4.5818936    2021.0866  0.039351376  0.038219112           24 
 4281000   0.55883607   -4.5740557    2019.2967  0.039307341   0.03820987           11 
 4282000   0.55705646   -4.5937762    2013.0445  0.039176484  0.038200573           11 
 4283000   0.56159682   -4.5869394    2012.4275  0.039155333  0.038191235           12 
 4284000   0.56352787   -4.5878204    2017.9224  0.039253082  0.038181933           10 
 4285000   0.57603301   -4.5911805    2017.6804  0.039239214  0.038172635           14 
 4286000   0.56443745   -4.5883989    2013.3581   0.03914602  0.038163362           11 
 4287000   0.57843792   -4.5989369    2014.8196  0.039165299  0.038154099           11 
 4288000   0.56893821   -4.5990181    2017.2341  0.039203088   0.03814479           14 
 4289000   0.55975708   -4.6093858    2016.7295  0.039184144  0.038135472           16 
 4290000   0.56519397   -4.6014834    2015.8788  0.039158486  0.038126156           13 
 4291000   0.57147403   -4.5924241    2011.8099  0.039070339  0.038116838            7 
 4292000   0.56054541   -4.5979976    2016.0958   0.03914445  0.038107488           16 
 4293000    0.5668665   -4.5799101    2013.7245  0.039089303   0.03809813           13 
 4294000   0.55847258   -4.5949632    2019.3635  0.039189635  0.038088833           24 
 4295000   0.56898201   -4.5957219    2020.2109  0.039196952  0.038079532           14 
 4296000   0.56640565   -4.5991973    2017.8243  0.039141532  0.038070198           13 
 4297000   0.56779234   -4.6099849    2022.0776   0.03921491  0.038060904            9 
 4298000   0.56733267   -4.6001255    2016.2996  0.039093756  0.038051634           16 
 4299000   0.56058747   -4.6263353    2014.3751  0.039047358  0.038042321           17 
 4300000   0.56500209   -4.5870963    2020.3236  0.039153558  0.038033044           26 
 4301000    0.5727249    -4.578811    2021.7604  0.039172294  0.038023798           20 
 4302000   0.57223827   -4.6005224    2019.8998  0.039127147  0.038014531           22 
 4303000    0.5588371    -4.606057     2016.043  0.039043362  0.038005275           24 
 4304000   0.56725343   -4.6172728    2020.2783  0.039116292  0.037995958           10 
 4305000   0.55056466   -4.6067204    2019.1822   0.03908599  0.037986699           11 
 4306000   0.57487354   -4.5930429    2019.6682  0.039086317  0.037977418            8 
 4307000   0.57990276   -4.5814685    2022.3381  0.039128901  0.037968182           16 
 4308000   0.55963818   -4.5924225    2016.3445  0.039003879  0.037958908           20 
 4309000   0.55889478   -4.6036956    2017.4878  0.039016937  0.037949623           10 
 4310000   0.55989221   -4.5904778    2024.0927  0.039135589   0.03794038           15 
 4311000   0.56456292   -4.6056068    2018.4466   0.03901737  0.037931137           10 
 4312000   0.54111064   -4.5971346    2019.9523  0.039037421   0.03792188           22 
 4313000   0.56098064   -4.5917384    2023.1434  0.039090025  0.037912666           12 
 4314000   0.58351209   -4.5800965    2021.7605  0.039054252   0.03790349            7 
 4315000   0.55896392   -4.5813687    2020.1625   0.03901434  0.037894295           12 
 4316000   0.56723206   -4.6073281    2023.7878  0.039075296  0.037885036           21 
 4317000   0.56771489   -4.6155925     2019.211  0.038977898  0.037875788           49 
 4318000   0.57232131   -4.6049796    2020.6246  0.038996153  0.037866522           30 
 4319000   0.57570221   -4.6141776      2014.75  0.038873775  0.037857252           27 
 4320000   0.56766005   -4.6127283     2022.683  0.039017805  0.037847999            7 
 4321000   0.54788955      -4.6293    2016.9863   0.03889891  0.037838701           14 
 4322000   0.55227189   -4.6153399    2016.1388   0.03887357  0.037829404           20 
 4323000    0.5727046   -4.5898828    2017.8965  0.038898459  0.037820112           14 
 4324000   0.55223007   -4.6269528    2021.5671  0.038960204  0.037810851           44 
 4325000   0.56467741   -4.6022015    2019.1184  0.038904015  0.037801563           23 
 4326000   0.55987866   -4.6045873    2012.8216  0.038773724  0.037792282           26 
 4327000    0.5511095   -4.5866443    2021.1551  0.038925258  0.037783014           35 
 4328000   0.55408879   -4.6091709      2021.68  0.038926371  0.037773794           20 
 4329000    0.5587653    -4.605551    2019.4344  0.038874152  0.037764558           12 
 4330000     0.561412   -4.6172991    2018.3808  0.038844897  0.037755336           12 
 4331000   0.54968116   -4.6185354    2020.0573  0.038868184  0.037746033           21 
 4332000   0.55699404   -4.6255897    2018.9003  0.038836956  0.037736806           15 
 4333000   0.56874399   -4.6126833     2017.452  0.038800138  0.037727569           32 
 4334000   0.56302042   -4.6076755    2018.7815   0.03881675  0.037718296            7 
 4335000   0.55239524   -4.6122174    2023.7662  0.038903619  0.037709022           13 
 4336000   0.55774597   -4.6002756    2024.5997  0.038910665  0.037699816           12 
 4337000   0.55667764   -4.6018077    2020.8751  0.038830127  0.037690619           12 
 4338000   0.56125288   -4.6278305    2019.0642  0.038786388  0.037681347           19 
 4339000   0.55340445   -4.6140115    2013.2575  0.038665927   0.03767206            9 
 4340000   0.56335638   -4.6138449    2019.3692  0.038774371  0.037662843           13 
 4341000   0.55058803      -4.6161    2016.1038  0.038702752  0.037653627           17 
 4342000   0.55060392   -4.6085045    2024.0107  0.038845591  0.037644393           14 
 4343000   0.55948501   -4.5931018     2022.737  0.038812207  0.037635177           14 
 4344000   0.54909894   -4.6115233    2016.0337  0.038674679  0.037625966           19 
 4345000   0.56919146   -4.6157583    2016.4226  0.038673237  0.037616737           17 
 4346000   0.56265287   -4.6181324    2018.5012  0.038704195  0.037607483            8 
 4347000   0.55230305   -4.6168481    2019.8805  0.038721733  0.037598242           10 
 4348000   0.56187195    -4.596684    2024.9044  0.038809116  0.037589018           20 
 4349000   0.55142973   -4.5972888    2019.6327  0.038699178  0.037579812           33 
 4350000   0.55170233   -4.6190244    2018.2576   0.03866394  0.037570593           19 
 4351000   0.54651651   -4.6264958     2016.175  0.038615165  0.037561325           13 
 4352000   0.55455709   -4.5993087    2017.4249  0.038630226  0.037552105           13 
 4353000   0.55179902   -4.6015776    2014.4648  0.038564683  0.037542873           16 
 4354000   0.55536149   -4.6221618    2013.7295  0.038541752   0.03753359           20 
 4355000   0.55604903   -4.6230724    2025.0024  0.038748611   0.03752434           13 
 4356000   0.55706752    -4.627867     2015.811  0.038563878  0.037515084           10 
 4357000   0.55877002   -4.6279898    2016.9066  0.038575982  0.037505806           12 
 4358000   0.54579621    -4.616607    2013.8158  0.038508027  0.037496545           17 
 4359000    0.5518632   -4.6313574    2018.8407  0.038595257  0.037487286           10 
 4360000   0.54924757   -4.6191668    2015.5442  0.038523398  0.037478046           10 
 4361000   0.56112473   -4.6166059    2019.9831  0.038599386  0.037468813           15 
 4362000   0.55661419   -4.6126414     2019.552  0.038582302  0.037459593           14 
 4363000   0.56471897   -4.6484328    2013.9638  0.038466724  0.037450363           14 
 4364000   0.54824125   -4.6204816    2021.5516  0.038602804  0.037441085           22 
 4365000   0.56794656   -4.6182156    2015.3271  0.038475126  0.037431828           16 
 4366000   0.55199259   -4.6118845    2016.9401  0.038497101  0.037422624           13 
 4367000   0.55343697    -4.628008    2021.3459  0.038572359  0.037413359           12 
 4368000   0.56006657   -4.6016681    2020.3292  0.038544132  0.037404138           11 
 4369000   0.55498586   -4.6145074    2017.3464  0.038478416    0.0373949            8 
 4370000   0.55860289    -4.604675    2015.0124  0.038425102  0.037385639           14 
 4371000   0.54708987   -4.5871359     2019.923  0.038509933  0.037376403            6 
 4372000   0.54523704   -4.6336956    2019.6873  0.038496632  0.037367162           16 
 4373000   0.54723267   -4.6290444    2016.5822  0.038428657  0.037357917           33 
 4374000   0.55465338   -4.6247946    2018.0365  0.038447578  0.037348667            9 
 4375000    0.5653795   -4.6329201    2018.6051  0.038449621  0.037339411           12 
 4376000   0.55837628   -4.6230549    2013.5653  0.038344861  0.037330199            6 
 4377000   0.54319438   -4.6214256    2022.2247  0.038500965  0.037320964            7 
 4378000   0.55153032   -4.6285251    2016.7995  0.038388905  0.037311728           14 
 4379000   0.53764302   -4.6444487    2018.6574  0.038415495  0.037302505           10 
 4380000   0.54086487   -4.6327386    2014.9585  0.038336349  0.037293239            6 
 4381000   0.54095412   -4.6436246    2018.5466   0.03839585  0.037283987           17 
 4382000   0.55679241   -4.6209505     2021.869  0.038450271  0.037274781           16 
 4383000    0.5561521   -4.6135136     2019.313  0.038392901  0.037265614           14 
 4384000   0.55079947   -4.6127331    2019.3269  0.038384407  0.037256417           13 
 4385000   0.55123152   -4.6226943    2021.2752   0.03841268  0.037247234           20 
 4386000   0.54744048   -4.6260254    2018.5189  0.038351552  0.037238028           18 
 4387000   0.55629703   -4.6381692    2020.8485  0.038387062  0.037228819           26 
 4388000   0.54283273   -4.6511563    2010.4167  0.038180202  0.037219583            9 
 4389000   0.54427384   -4.6177648    2016.6765  0.038290356  0.037210356           16 
 4390000   0.54573807   -4.6270586      2016.48  0.038277905   0.03720113           30 
 4391000   0.53643475   -4.6403659    2018.0505  0.038298992  0.037191916           33 
 4392000   0.55237384    -4.625142    2015.8269  0.038248082  0.037182689           16 
 4393000   0.55187359   -4.6409394    2016.3595  0.038249479  0.037173507           14 
 4394000   0.53868734   -4.6452309     2014.427  0.038204124  0.037164319           13 
 4395000   0.54044299   -4.6213734    2020.3971  0.038308629  0.037155121           18 
 4396000   0.55268824   -4.6222864    2018.6626  0.038267034  0.037145936           22 
 4397000   0.53456306    -4.614848    2015.6446  0.038201134  0.037136752           24 
 4398000   0.55093756   -4.6201567    2022.4735  0.038321841  0.037127575           12 
 4399000   0.54108011   -4.6251655    2025.4009  0.038368585  0.037118377            7 
 4400000   0.54137535   -4.6318369    2013.8709  0.038141495  0.037109187           13 
 4401000   0.54699958   -4.6303266    2013.5634  0.038127004  0.037099969            9 
 4402000   0.54390845   -4.6320005    2023.7354  0.038310908  0.037090765           19 
 4403000   0.54013801   -4.6325251     2017.974  0.038193164  0.037081583           22 
 4404000   0.54801299   -4.6298509    2021.4415  0.038250105   0.03707244            7 
 4405000   0.53372107   -4.6289927    2019.9437  0.038213086  0.037063282           10 
 4406000   0.54357192   -4.6298899     2018.676  0.038180436  0.037054141            9 
 4407000   0.55282312   -4.6231451    2020.0958   0.03819862  0.037044966           22 
 4408000   0.54109426   -4.6159193    2018.5999  0.038161673    0.0370358            9 
 4409000   0.55321467   -4.6207212    2020.5143  0.038189202  0.037026611            9 
 4410000   0.53713246   -4.6273694    2016.9883  0.038113913  0.037017416           15 
 4411000   0.54251842   -4.6243406    2014.8147  0.038064208  0.037008232           15 
 4412000   0.54211594   -4.6050534    2023.5656  0.038220867  0.036999094           16 
 4413000   0.53865005   -4.6119172    2020.8063    0.0381601  0.036989902           24 
 4414000    0.5474493    -4.620232    2018.5446  0.038108757  0.036980718           44 
 4415000   0.53997915   -4.6436026    2020.2506  0.038132326  0.036971549           13 
 4416000   0.52961563   -4.6446677    2014.0865  0.038007368  0.036962352           20 
 4417000   0.54421348   -4.6528621    2018.2765  0.038077814  0.036953116           11 
 4418000    0.5457172   -4.6509757    2020.1795   0.03810509  0.036943929           14 
 4419000   0.53740596   -4.6287415    2023.2774  0.038154888  0.036934775           19 
 4420000   0.54620007   -4.6554411    2017.7875  0.038042752  0.036925613           13 
 4421000   0.54042048   -4.6563023    2018.2791  0.038043411  0.036916438           12 
 4422000    0.5635268   -4.6437447    2019.9325  0.038065967  0.036907269           23 
 4423000   0.54912672   -4.6410775     2018.565  0.038031596  0.036898106           20 
 4424000   0.54408398    -4.615924    2015.5156  0.037965559  0.036888908           15 
 4425000   0.54475535   -4.6273309    2016.6856  0.037979014  0.036879745           27 
 4426000   0.55125631   -4.6588957    2020.8004  0.038047906  0.036870602           31 
 4427000    0.5438933   -4.6134596    2020.7756  0.038038845  0.036861503           33 
 4428000   0.53584442   -4.6402718    2021.9016  0.038051444  0.036852375           15 
 4429000   0.55404686   -4.6231234    2024.0655  0.038083569  0.036843265           13 
 4430000   0.54401842   -4.6386338    2021.1475  0.038020081  0.036834144           14 
 4431000   0.53935697   -4.6356599    2021.3659  0.038015608  0.036825021            8 
 4432000   0.54395657   -4.6238361    2019.7405  0.037976469  0.036815894           11 
 4433000   0.54518523   -4.6448241    2022.1913  0.038013974  0.036806768           10 
 4434000   0.53128307   -4.6380288     2018.757  0.037940855  0.036797625           15 
 4435000   0.53682174   -4.6501403    2020.8683  0.037971971  0.036788478           11 
 4436000   0.55237452   -4.6515463    2019.3282  0.037934479  0.036779382           17 
 4437000   0.53964105   -4.6605763    2021.1269  0.037959712   0.03677024           26 
 4438000   0.52879143   -4.6345605    2020.6429  0.037942071  0.036761115           25 
 4439000    0.5362126   -4.6494857    2018.2891  0.037889335  0.036751985           14 
 4440000   0.54353898   -4.6515015    2019.3561  0.037900827  0.036742837           24 
 4441000   0.52871105   -4.6566097    2017.0817  0.037849616    0.0367337           18 
 4442000   0.54118201    -4.634343    2020.9359    0.0379134  0.036724548           11 
 4443000   0.54478649   -4.6354722    2019.1722  0.037871787  0.036715418           15 
 4444000   0.54580376   -4.6322177    2024.4899  0.037962982  0.036706311           11 
 4445000   0.54970314   -4.6591301    2021.2168  0.037893079  0.036697223           19 
 4446000   0.54331958   -4.6635448    2019.9257  0.037860356  0.036688113           43 
 4447000   0.55913234   -4.6383903    2020.1453  0.037855957  0.036679037           53 
 4448000   0.54652414   -4.6499785    2019.5687  0.037836644  0.036669956           24 
 4449000   0.53696249   -4.6458657    2021.6701    0.0378675  0.036660848           23 
 4450000     0.540488   -4.6341365    2018.9944  0.037808883  0.036651761           16 
 4451000   0.53489994    -4.642936    2021.2935  0.037843433  0.036642717           13 
 4452000   0.53629929   -4.6607307    2022.0194  0.037848521  0.036633636            9 
 4453000   0.52722239   -4.6479541    2022.7518  0.037853727  0.036624512            9 
 4454000   0.54092263   -4.6381678     2018.592  0.037767401  0.036615378           13 
 4455000   0.54209244   -4.6514691     2022.414  0.037830416  0.036606239           13 
 4456000   0.53476241   -4.6622413    2024.5191  0.037861294  0.036597121           14 
 4457000   0.53492223   -4.6471109    2016.7133  0.037706852   0.03658801           34 
 4458000    0.5433266   -4.6758008     2017.539  0.037713829    0.0365789           32 
 4459000   0.53596597   -4.6729427    2017.9342  0.037712758  0.036569783           30 
 4460000   0.53709326   -4.6660861     2017.109  0.037688882  0.036560663           17 
 4461000   0.53548697    -4.678566    2018.4138  0.037704809  0.036551496           15 
 4462000   0.54016357   -4.6711317    2018.3354  0.037694894  0.036542382           12 
 4463000   0.54604013    -4.658307     2021.999  0.037754854  0.036533284           14 
 4464000   0.53883353   -4.6565552    2020.0042  0.037709158  0.036524202           22 
 4465000   0.53940131   -4.6670951    2018.6302  0.037675068  0.036515111           25 
 4466000   0.54317757    -4.654039    2022.7121  0.037742799  0.036506006           23 
 4467000   0.52878884   -4.6728183    2016.1533  0.037611993  0.036496886           36 
 4468000   0.54860712   -4.6606291    2020.3719  0.037682257  0.036487761           11 
 4469000   0.54772128   -4.6596206    2017.6004  0.037622145  0.036478683           13 
 4470000   0.54190666   -4.6675044    2014.8289   0.03756206  0.036469601           30 
 4471000   0.54267707   -4.6687123    2024.3484   0.03773109  0.036460451           17 
 4472000   0.55191178    -4.666308    2016.9746  0.037585246  0.036451315           22 
 4473000   0.53107812   -4.6434953    2022.2153  0.037674478  0.036442198           20 
 4474000    0.5343272   -4.6664137    2018.3396  0.037593868  0.036433116           57 
 4475000   0.53745419    -4.692824    2016.8786   0.03755826  0.036423987           29 
 4476000   0.53977493   -4.6593716    2020.3561  0.037614613  0.036414881           29 
 4477000   0.53087261   -4.6490642    2018.1091  0.037564386  0.036405724           37 
 4478000   0.52848319   -4.6676697    2016.1784  0.037520068   0.03639665           20 
 4479000   0.53549268   -4.6572232    2022.2618  0.037624874   0.03638754           25 
 4480000   0.54109352    -4.675655    2016.8814  0.037516395  0.036378414           25 
 4481000      0.53163   -4.6649107    2021.9161  0.037601653  0.036369299           12 
 4482000    0.5396292   -4.6438268    2022.9428  0.037612353  0.036360238           19 
 4483000     0.532532   -4.6519192    2018.6408  0.037523995   0.03635119           21 
 4484000   0.53497305   -4.6576986    2017.9975   0.03750367  0.036342143            8 
 4485000   0.53980022   -4.6369426     2021.373  0.037558027  0.036333107           12 
 4486000   0.53100654   -4.6544321    2021.1927  0.037546305  0.036324072           13 
 4487000   0.53031827   -4.6508823    2021.1596  0.037537323  0.036315013           13 
 4488000   0.54679251    -4.652932    2014.5107  0.037405502  0.036305972           19 
 4489000   0.52599528   -4.6363849    2020.3897  0.037506306  0.036296891            9 
 4490000   0.53494742   -4.6814023    2016.1162  0.037418638   0.03628781            8 
 4491000   0.52379916   -4.6567223    2019.6213  0.037475346  0.036278732           11 
 4492000   0.51066849   -4.6643718    2020.8448    0.0374897   0.03626965           19 
 4493000   0.53799966   -4.6634391    2019.4904  0.037456236   0.03626056           21 
 4494000   0.51874298   -4.6702993    2016.7352   0.03739681  0.036251478           28 
 4495000   0.52509976   -4.6426196    2019.9672  0.037448409  0.036242371           11 
 4496000   0.53407802   -4.6444638    2018.0959  0.037405395  0.036233263           16 
 4497000    0.5330747   -4.6400114     2022.936  0.037486768  0.036224229           15 
 4498000   0.53663655   -4.6321263    2021.2902  0.037447944  0.036215219           11 
 4499000   0.53010573   -4.6583013    2016.8749  0.037357838  0.036206177           16 
 4500000   0.53203491    -4.643912    2021.7659  0.037440109   0.03619708            7 
 4501000   0.54620982   -4.6808561    2014.0062  0.037288124  0.036187997           16 
 4502000   0.52469172   -4.6614747    2013.3667  0.037268004  0.036178868            8 
 4503000   0.53288427   -4.6707875    2016.5474  0.037318591  0.036169776           17 
 4504000   0.53361717   -4.6720905    2020.5563  0.037384479  0.036160668           30 
 4505000   0.53477625   -4.6630399    2017.9881  0.037328673  0.036151556           25 
 4506000   0.52742995    -4.658607    2021.2863  0.037381386  0.036142453           15 
 4507000   0.52383851   -4.6651713    2021.1201   0.03737002  0.036133323           20 
 4508000   0.54164909   -4.6622275    2018.6687  0.037316414  0.036124203           27 
 4509000   0.51223568   -4.6860885    2018.3491   0.03730223  0.036115087           18 
 4510000   0.51919844   -4.6605872     2018.376  0.037294457   0.03610598           36 
 4511000    0.5326766   -4.6551001    2015.6551  0.037235925  0.036096892           17 
 4512000   0.52885535   -4.6783787    2010.7212  0.037136547  0.036087784           15 
 4513000   0.53529561   -4.6653934    2018.4643  0.037271297   0.03607868           13 
 4514000   0.53990057   -4.6710773    2015.8013  0.037213876  0.036069576           16 
 4515000   0.52622258    -4.683223    2017.9003  0.037244377  0.036060438           14 
 4516000    0.5370063   -4.6660866    2014.9712  0.037182078  0.036051309           40 
 4517000   0.52421357   -4.6860333    2015.1603  0.037177335  0.036042168            9 
 4518000   0.52791597    -4.667027    2015.8564  0.037181946  0.036033068           17 
 4519000   0.52463018   -4.6763578    2014.9026   0.03715613  0.036023976           11 
 4520000   0.52228257   -4.6610719    2017.7627   0.03720064  0.036014931           22 
 4521000   0.52517129   -4.6475092    2017.8798  0.037194569  0.036005892           27 
 4522000   0.53202783   -4.6803043    2017.2545  0.037174821  0.035996814           16 
 4523000   0.52881007   -4.6785496    2019.5362  0.037208641  0.035987771           16 
 4524000   0.52978256   -4.6574886    2016.0771    0.0371367  0.035978688           13 
 4525000   0.53076616    -4.648691    2015.5515  0.037118811  0.035969622            9 
 4526000   0.51262795   -4.6690325    2015.8909  0.037116859  0.035960573            8 
 4527000    0.5299949   -4.6801058     2012.487  0.037046001    0.0359515            9 
 4528000   0.51329711   -4.6657258     2014.993  0.037083941  0.035942422           13 
 4529000   0.51409072    -4.672486    2018.1632  0.037134084  0.035933383           11 
 4530000   0.53778953   -4.6912297    2018.7897  0.037137412  0.035924304           29 
 4531000   0.51809689   -4.6850494    2016.5523  0.037088066  0.035915251           33 
 4532000   0.53268409   -4.6654724    2022.5555  0.037190268  0.035906209           59 
 4533000    0.5196914   -4.6760725    2020.6799  0.037147583  0.035897151           25 
 4534000   0.52578105   -4.6613978    2015.2795  0.037040131  0.035888081           16 
 4535000   0.51807715   -4.6679037    2022.6464  0.037167335  0.035879041           43 
 4536000   0.52166813   -4.6767722    2020.2295   0.03711474  0.035870017           22 
 4537000   0.52051053   -4.6683057    2017.2733  0.037052262   0.03586099           26 
 4538000   0.52279223   -4.6710372    2018.3239   0.03706339  0.035851975           23 
 4539000   0.53055256   -4.6566995    2017.6668  0.037043159  0.035842928           11 
 4540000   0.52851545   -4.6879589    2019.6562  0.037071516  0.035833901           17 
 4541000   0.52666172   -4.6746723    2018.8847  0.037049194  0.035824866           13 
 4542000   0.53235521   -4.6727297    2015.0031   0.03696982  0.035815852           32 
 4543000   0.52031321   -4.6744039    2015.0228  0.036962044  0.035806805           27 
 4544000   0.52645379   -4.6684443    2016.9178  0.036988662  0.035797749           48 
 4545000   0.51617826   -4.6859656    2019.4653  0.037027233  0.035788678           43 
 4546000   0.51984206   -4.6735689    2012.9729  0.036900075  0.035779602           38 
 4547000   0.52556678   -4.6917391    2017.3606  0.036972373  0.035770524           44 
 4548000   0.52853646   -4.6789652    2015.4533  0.036929297  0.035761482           12 
 4549000   0.52275476   -4.6643851    2018.2085  0.036971651  0.035752446           10 
 4550000   0.52377169   -4.6803249    2018.4596  0.036968125  0.035743384            8 
 4551000   0.51308615   -4.6745381    2014.7494  0.036892064  0.035734325            9 
 4552000   0.51899027    -4.686428    2014.2523  0.036874859  0.035725284           15 
 4553000   0.51966229   -4.6744964    2020.1069  0.036973916  0.035716273           20 
 4554000   0.51375111   -4.6883518    2017.8816  0.036925076  0.035707214            9 
 4555000   0.50919842   -4.6670272    2021.2041  0.036977755  0.035698175           27 
 4556000   0.51782093   -4.6917312    2014.8549  0.036853507  0.035689125           18 
 4557000   0.52439844   -4.6794934    2015.9325  0.036865124  0.035680088           16 
 4558000   0.52477903   -4.7046092    2012.3298   0.03679117  0.035671042           42 
 4559000   0.53193989    -4.680739    2019.7234  0.036918247  0.035661987           30 
 4560000   0.51557207   -4.6824544    2017.3224  0.036866273  0.035652971           27 
 4561000    0.5189783   -4.6903328    2018.5049  0.036879793  0.035643941           21 
 4562000   0.51944914   -4.6840288    2011.8974  0.036751012  0.035634923           27 
 4563000    0.5145642   -4.6812766    2016.1048  0.036819797  0.035625887           32 
 4564000   0.52118112   -4.6760224    2017.4889  0.036837002  0.035616897            8 
 4565000   0.53348255   -4.6996489    2018.4115  0.036845774  0.035607919           14 
 4566000   0.52313565   -4.7069722    2016.5813  0.036804302   0.03559886           28 
 4567000   0.51631947   -4.7070821    2014.6087   0.03676025  0.035589788           18 
 4568000   0.51001195   -4.6867451    2021.3239  0.036874707  0.035580746           19 
 4569000   0.51380605   -4.6993947    2012.8496  0.036712074  0.035571702           33 
 4570000   0.52841635   -4.6815951      2017.56  0.036789935  0.035562648           23 
 4571000   0.52124026   -4.6955933    2011.0055  0.036662391  0.035553606           14 
 4572000   0.52244206   -4.6932802     2011.787  0.036668617  0.035544537           19 
 4573000   0.50859457   -4.7042513    2017.0875  0.036757189  0.035535522           15 
 4574000   0.50937671   -4.7111635    2016.1407  0.036731903  0.035526494            7 
 4575000    0.5203155   -4.6989711    2018.5667  0.036768064  0.035517457           15 
 4576000   0.52438083   -4.6776957    2016.3459  0.036719585   0.03550844           16 
 4577000   0.51186406   -4.6920987    2015.4551  0.036695344  0.035499411           17 
 4578000   0.51794972   -4.6897824    2014.6041  0.036671838  0.035490388           37 
 4579000   0.51972568   -4.6770711    2015.5759  0.036681515  0.035481343           12 
 4580000   0.52081723   -4.6986449    2012.6583   0.03662042   0.03547232           20 
 4581000   0.52468848   -4.7066809    2015.2804  0.036660126  0.035463279           20 
 4582000   0.51781076   -4.7114616     2015.689  0.036659556  0.035454262           17 
 4583000    0.5140817   -4.7027562    2020.2684  0.036734825  0.035445238           17 
 4584000   0.52244938   -4.7057529    2016.9391  0.036666286  0.035436216           26 
 4585000   0.52810114   -4.7149844    2012.0078  0.036568663  0.035427198           16 
 4586000   0.51886573   -4.6992999    2010.6526  0.036536063   0.03541815            8 
 4587000    0.5128543   -4.7053404    2011.9147  0.036551026  0.035409095           27 
 4588000   0.51628765   -4.6835714    2012.9414  0.036561708  0.035400057            7 
 4589000   0.50541015   -4.7146492    2016.9302  0.036626175  0.035391046           22 
 4590000   0.51097074   -4.7075314    2014.7338   0.03657832  0.035382009           20 
 4591000   0.51895855   -4.7021293    2012.6914   0.03653328  0.035372968           39 
 4592000   0.52577885   -4.6842406    2015.1852   0.03657058  0.035363938           13 
 4593000   0.51760528   -4.6831528    2014.5475  0.036551046   0.03535492           33 
 4594000    0.5218174   -4.7154004      2013.64  0.036526629  0.035345888           12 
 4595000   0.51940811   -4.6836601    2017.4831  0.036588376  0.035336826           18 
 4596000   0.52784754   -4.6878013     2017.222  0.036575682  0.035327818           17 
 4597000   0.51478583   -4.6888461    2014.3457  0.036515585  0.035318781           22 
 4598000   0.51846513   -4.6850616    2010.4442  0.036436933  0.035309777           10 
 4599000   0.51364224   -4.6953162    2015.3423  0.036517763  0.035300759           10 
 4600000   0.51436621   -4.7024498    2012.7084  0.036462108   0.03529174           30 
 4601000   0.51407523   -4.6991469     2015.011  0.036495888  0.035282723           21 
 4602000   0.52298856   -4.7055483    2013.6549  0.036463401  0.035273691           11 
 4603000   0.51608262   -4.6931104    2011.8012  0.036421921  0.035264636           29 
 4604000   0.51337423    -4.719253    2014.3745  0.036460587  0.035255579           30 
 4605000   0.52831327   -4.7219152    2011.8906  0.036407721   0.03524652           16 
 4606000   0.50967144   -4.6946625     2017.011  0.036492456  0.035237461            8 
 4607000    0.5266412   -4.7063304    2013.7943   0.03642635  0.035228404           17 
 4608000   0.50813514   -4.6925637    2010.6826  0.036362172  0.035219359           11 
 4609000   0.50738611    -4.706676     2017.262   0.03647324  0.035210329           18 
 4610000   0.51138435   -4.6868286    2016.8095   0.03645715  0.035201324           16 
 4611000   0.51757979   -4.6983793    2013.2637  0.036385161  0.035192269           34 
 4612000   0.51016778   -4.6880269    2014.2566  0.036395213  0.035183257           37 
 4613000   0.51394999   -4.6965852    2013.6976  0.036377224  0.035174226           38 
 4614000   0.51428458   -4.7068462    2012.7322  0.036351904  0.035165229           23 
 4615000   0.52107001   -4.6928016     2011.415  0.036320241  0.035156226           10 
 4616000   0.51647101    -4.694842    2018.0352  0.036431889  0.035147243           51 
 4617000    0.5283991   -4.7032596    2015.1238   0.03637145  0.035138251           17 
 4618000   0.52257957   -4.7165502    2014.1085  0.036345252  0.035129241           24 
 4619000    0.5151618   -4.7088939    2020.3274  0.036449581  0.035120218           36 
 4620000   0.52666607   -4.6976605    2012.3949   0.03629861  0.035111197           23 
 4621000   0.49718499   -4.7226964    2011.0894  0.036267212  0.035102156           22 
 4622000   0.51850657    -4.718657    2013.1172  0.036295926   0.03509315           16 
 4623000   0.52039812    -4.718091    2011.3844  0.036256839  0.035084148           29 
 4624000   0.50657203   -4.7081231    2013.1079  0.036280059   0.03507515           12 
 4625000   0.51436165   -4.7290462    2011.4497  0.036242338  0.035066114           13 
 4626000   0.51298327   -4.7163562    2010.0618  0.036209501  0.035057079           33 
 4627000   0.51044446   -4.7313888    2009.5892  0.036193164  0.035048044           19 
 4628000   0.50877274   -4.7024285    2013.6628  0.036258694  0.035039011           16 
 4629000   0.50391035   -4.7028766    2012.9633  0.036238268  0.035030018           50 
 4630000   0.51123339   -4.7006068    2017.0899  0.036304714  0.035021034           29 
 4631000   0.50776571   -4.7147915    2014.2268  0.036245354  0.035012025           33 
 4632000   0.51286733   -4.7064663    2017.4794  0.036296046  0.035003047           18 
 4633000   0.51312147   -4.7089261    2014.2892   0.03623083  0.034994072           11 
 4634000   0.52785124   -4.7117648    2012.0627  0.036182972  0.034985093           28 
 4635000   0.50120364   -4.7003724    2014.8891  0.036225982   0.03497611           32 
 4636000   0.50731057   -4.7052473    2013.1919   0.03618766  0.034967104           64 
 4637000   0.51585134   -4.7160691    2012.2037  0.036162097  0.034958114           67 
 4638000   0.50691391   -4.7223809    2013.5368  0.036178251  0.034949095           59 
 4639000   0.50853408   -4.7168768    2011.0415  0.036125629  0.034940072          114 
 4640000   0.50533073   -4.7027144    2016.8437  0.036222049  0.034931065           69 
 4641000   0.51871742   -4.7116573    2017.2116  0.036220849  0.034922082           63 
 4642000   0.51876125   -4.7190683    2010.3688  0.036090206  0.034913065           24 
 4643000    0.5071183   -4.7299446    2016.2782  0.036188495  0.034904107           37 
 4644000   0.50861074   -4.7094268    2010.8501    0.0360833  0.034895123           35 
 4645000   0.51108969   -4.7289662    2012.2837  0.036101251  0.034886143           28 
 4646000   0.50903996   -4.7192645    2010.9834  0.036070157  0.034877178           22 
 4647000   0.50240198   -4.6947801    2012.2401  0.036084931  0.034868195           35 
 4648000   0.50982753   -4.6988451      2016.96   0.03616179  0.034859233           19 
 4649000   0.51249981   -4.7119242    2018.4085  0.036179975  0.034850271           12 
 4650000   0.50862159   -4.7124569    2011.0484  0.036040294  0.034841295           25 
 4651000   0.50557696   -4.7173531    2013.8144  0.036082103  0.034832317           25 
 4652000   0.50851573   -4.6924154    2013.1976    0.0360633  0.034823347           11 
 4653000   0.51849596   -4.6955505    2015.3068  0.036093323  0.034814403            5 
 4654000   0.51057536   -4.6983113     2015.538  0.036089707  0.034805443           32 
 4655000   0.49984012   -4.6999611    2014.6186  0.036065496  0.034796486           37 
 4656000   0.49221063   -4.6969368    2016.5496  0.036092311  0.034787547           21 
 4657000    0.5154018   -4.7116355    2013.4482  0.036029063  0.034778597           28 
 4658000   0.50383553   -4.7400096    2009.0342   0.03594236  0.034769625           41 
 4659000   0.50976002   -4.7115465    2012.7277   0.03600071  0.034760659           39 
 4660000     0.508224   -4.7054186    2016.3023  0.036056908  0.034751735           11 
 4661000   0.50569465   -4.7203957    2011.4288   0.03596204  0.034742798           25 
 4662000   0.50309022   -4.7192328    2015.4969  0.036027044  0.034733846           13 
 4663000   0.49951638   -4.7253452    2013.6779  0.035986808  0.034724911           20 
 4664000   0.51530973   -4.7180249    2012.8728  0.035964708  0.034715992           27 
 4665000   0.50241236   -4.7128095    2014.4259  0.035984743  0.034707075            7 
 4666000   0.51852138   -4.7241499     2012.983  0.035951261  0.034698157           14 
 4667000   0.50058101   -4.6953734    2018.5763  0.036043431  0.034689247           20 
 4668000   0.51653133   -4.7098928    2010.6192  0.035893659  0.034680352           17 
 4669000   0.49374091   -4.7116499    2015.1693  0.035967182  0.034671436           17 
 4670000   0.50005906   -4.7318012    2014.3014  0.035943994  0.034662501           22 
 4671000    0.5018133   -4.7207926    2012.1373  0.035897689  0.034653534           19 
 4672000   0.49877483   -4.7250038    2012.0901  0.035889164   0.03464456           35 
 4673000   0.50784306   -4.7209637    2013.0585  0.035898753  0.034635589           30 
 4674000   0.50387023   -4.7356217    2013.8942  0.035905973  0.034626614           46 
 4675000    0.5021865   -4.7409859    2014.7211  0.035913033   0.03461765           17 
 4676000   0.51197788   -4.7248823    2015.8996  0.035926355  0.034608714           17 
 4677000   0.49560014   -4.7000006    2015.8444   0.03591769  0.034599807           20 
 4678000   0.50861546   -4.7154367    2011.7515  0.035837101  0.034590911           17 
 4679000   0.50240229   -4.7290871    2011.6338  0.035827345   0.03458198            8 
 4680000   0.49311279   -4.7331661    2013.8873  0.035859816  0.034573064            9 
 4681000   0.49786155   -4.7266278    2009.7671  0.035778806  0.034564155           11 
 4682000   0.50800717   -4.7265704    2010.6584  0.035787028  0.034555229           16 
 4683000   0.50579802   -4.7260461    2005.1267   0.03568095  0.034546319           18 
 4684000   0.50189006   -4.7312874    2016.3814  0.035873566  0.034537394           13 
 4685000   0.50170715   -4.7270542    2011.0157  0.035770468  0.034528445           17 
 4686000   0.49406275   -4.7293526    2016.5108  0.035860557  0.034519499            8 
 4687000   0.49646428   -4.7424313    2011.8909  0.035770764  0.034510553           16 
 4688000   0.50205891   -4.7182909    2016.3701  0.035842756  0.034501595           33 
 4689000   0.49922871   -4.7402639    2009.2237  0.035708105  0.034492667           10 
 4690000    0.4881421   -4.7325651    2011.5933  0.035742596  0.034483712           17 
 4691000   0.49581202    -4.751071    2004.8908  0.035615911  0.034474746           12 
 4692000   0.51435931   -4.7335449    2010.1823  0.035702301   0.03446577           14 
 4693000    0.5066322   -4.7311003    2012.6064  0.035737736  0.034456817           25 
 4694000     0.497954   -4.7333745     2013.936  0.035753729  0.034447883           41 
 4695000   0.50728033   -4.7368783    2011.5898  0.035704469  0.034438969           38 
 4696000   0.49569875   -4.7361797    2014.2269  0.035743663  0.034430061           35 
 4697000   0.50509097     -4.73971    2006.2995  0.035595407  0.034421137           26 
 4698000   0.50409278   -4.7214784    2010.6506  0.035665011  0.034412195           29 
 4699000   0.49328481   -4.7421548    2013.7175  0.035711809  0.034403263           36 
 4700000   0.51006814   -4.7488569     2009.335  0.035626506  0.034394327           18 
 4701000   0.49616382   -4.7178035    2011.3007  0.035653774  0.034385401           18 
 4702000   0.49594753   -4.7472201    2008.0686  0.035588909  0.034376484           18 
 4703000   0.50357096   -4.7419631    2009.9176  0.035614105  0.034367544           23 
 4704000   0.49321046   -4.7401487    2017.3206  0.035737681  0.034358623           16 
 4705000   0.50705294   -4.7440832    2012.2025  0.035639435   0.03434974           32 
 4706000   0.50051718   -4.7325527    2012.3499  0.035634471  0.034340873           10 
 4707000   0.50910488   -4.7360609    2011.5969   0.03561357  0.034331987           26 
 4708000     0.497982   -4.7338029    2011.4029  0.035602572  0.034323122           11 
 4709000    0.5005563   -4.7261801    2013.0549  0.035624246  0.034314236           21 
 4710000   0.48682401   -4.7300123    2015.4964  0.035659879  0.034305354           28 
 4711000   0.49143975   -4.7264643    2011.3271   0.03557856  0.034296509           45 
 4712000   0.50611546   -4.7334052    2010.0027  0.035547586  0.034287639           24 
 4713000   0.50212817   -4.7381795    2011.1295  0.035559968  0.034278784           25 
 4714000    0.4872878   -4.7286073    2013.3522  0.035591716  0.034269904           30 
 4715000   0.50192461   -4.7617324    2011.5011  0.035551452  0.034261046           18 
 4716000   0.49807375   -4.7319217    2012.5443  0.035562346  0.034252171           55 
 4717000   0.49979396   -4.7252018    2011.4017  0.035534622  0.034243304           10 
 4718000   0.50841418   -4.7407225    2016.0902  0.035609902  0.034234455           18 
 4719000   0.49720608   -4.7553824    2011.3774  0.035519132  0.034225591            9 
 4720000   0.49614704   -4.7393065    2008.3126  0.035457496  0.034216739           22 
 4721000   0.50339788   -4.7299858    2014.8929  0.035566139  0.034207869           26 
 4722000   0.49496649   -4.7437405    2009.4599  0.035462726  0.034199029           15 
 4723000   0.49929251   -4.7296774    2015.5416  0.035562524  0.034190185           21 
 4724000    0.4953627   -4.7409518    2012.1603  0.035495348   0.03418132           20 
 4725000    0.4914114   -4.7467465    2012.1206  0.035487135  0.034172467           12 
 4726000    0.4948213   -4.7374246    2013.8281  0.035509735  0.034163639           17 
 4727000   0.49846533   -4.7292983    2009.8883  0.035432768  0.034154825           10 
 4728000   0.48836087    -4.729473    2011.2122  0.035448607  0.034145974           21 
 4729000   0.48537923   -4.7413931    2011.5198  0.035446532  0.034137115           12 
 4730000   0.49678095   -4.7364125    2012.1863   0.03545078  0.034128312           17 
 4731000   0.49489886   -4.7291769    2014.5384  0.035484718  0.034119519           22 
 4732000   0.49136958   -4.7441978    2017.9298  0.035536944   0.03411073           16 
 4733000    0.5031246   -4.7418799    2012.3201  0.035430665  0.034101911           17 
 4734000   0.50277145   -4.7303417      2016.74  0.035500986  0.034093102           16 
 4735000   0.49367586   -4.7454073    2013.4831  0.035436168  0.034084281           19 
 4736000   0.49456013    -4.728271    2012.4141  0.035409877  0.034075479           16 
 4737000   0.49032412   -4.7256544    2010.0675  0.035361119  0.034066701            8 
 4738000   0.48171549   -4.7318901    2013.9672  0.035422245  0.034057914           15 
 4739000   0.49568349   -4.7292774    2011.8792  0.035378055  0.034049109           12 
 4740000   0.49143087   -4.7520828    2011.9641  0.035372084  0.034040298           29 
 4741000   0.49012663   -4.7313402    2010.9322  0.035346485  0.034031495           21 
 4742000   0.49243698   -4.7521624    2015.8004  0.035424583  0.034022698           41 
 4743000   0.49818566    -4.734429    2011.9087  0.035348737  0.034013871           12 
 4744000   0.49817303   -4.7398984     2011.415  0.035332612  0.034005058           18 
 4745000   0.47713525   -4.7442857    2014.4995  0.035379338  0.033996247           20 
 4746000   0.48170376    -4.734893    2009.1684  0.035278277  0.033987438           46 
 4747000    0.4834179   -4.7394658    2011.9794  0.035320192  0.033978635           48 
 4748000   0.48367676   -4.7311111     2008.412   0.03525014   0.03396982           34 
 4749000   0.48603576   -4.7628423      2011.07  0.035289358  0.033960994           28 
 4750000   0.49772889   -4.7598811    2006.3042   0.03519832  0.033952166           33 
 4751000   0.49469926   -4.7575624    2014.0262  0.035326355  0.033943313           33 
 4752000   0.49010064   -4.7603153    2006.4056  0.035185283  0.033934443           55 
 4753000   0.49557956   -4.7282783    2012.8523  0.035290909  0.033925571           49 
 4754000   0.49171215   -4.7500246    2012.8616  0.035283649  0.033916705           54 
 4755000    0.4990092    -4.754982    2011.5427  0.035253114  0.033907848           45 
 4756000   0.49964027   -4.7363167    2015.7944  0.035320198  0.033899009           98 
 4757000   0.48052219    -4.758322    2010.0778   0.03521263  0.033890156           27 
 4758000   0.48596244   -4.7692915    2005.3582  0.035122569  0.033881304           24 
 4759000   0.48295626   -4.7558901    2003.0293  0.035074408  0.033872432           58 
 4760000   0.48875186    -4.760133    2011.3796  0.035213228  0.033863559           25 
 4761000   0.49457329   -4.7559475    2005.9904  0.035111504  0.033854692           34 
 4762000   0.48023145   -4.7466523    2008.0178  0.035139609  0.033845858           19 
 4763000   0.50283224   -4.7584022    2009.3949  0.035156324  0.033837004           16 
 4764000   0.49156291   -4.7545646    2009.6737  0.035153821  0.033828149           28 
 4765000    0.4884892   -4.7463037    2007.8882  0.035115219  0.033819309           68 
 4766000   0.48680801   -4.7553208    2009.0829  0.035128741   0.03381046           64 
 4767000   0.48569381    -4.757397    2009.7852  0.035133647  0.033801627           73 
 4768000   0.48705441   -4.7573381    2005.8034  0.035056687   0.03379282           27 
 4769000   0.50128074   -4.7670482    2005.9676  0.035052204  0.033783984          101 
 4770000   0.47767931   -4.7641739    2006.5277  0.035054641  0.033775148           72 
 4771000   0.49724044   -4.7647413     2005.317  0.035026148  0.033766309           46 
 4772000   0.49126294    -4.786202    2006.7154  0.035043228  0.033757473           66 
 4773000   0.49051901   -4.7605497    2005.4835  0.035014378  0.033748626           91 
 4774000   0.48849436   -4.7541048    2009.6353  0.035079515  0.033739809           72 
 4775000    0.4973341   -4.7459915    2005.8181  0.035005552  0.033730991           51 
 4776000   0.49241404     -4.77122    2012.3971  0.035113014  0.033722195          134 
 4777000   0.48477393   -4.7639397    2010.8678  0.035078987  0.033713383           68 
 4778000   0.48525288   -4.7587411    2000.9424  0.034898536  0.033704586           34 
 4779000   0.48223859   -4.7585725    2009.0117  0.035031939  0.033695797           37 
 4780000   0.47841366   -4.7664982    2008.8644  0.035022043  0.033687027           30 
 4781000   0.47692187   -4.7583601     2011.557   0.03506165  0.033678236           18 
 4782000   0.49783036    -4.770749    2005.1025   0.03494184  0.033669458           24 
 4783000   0.48549796    -4.758447    2005.8704  0.034947913  0.033660675           42 
 4784000   0.48084628   -4.7473176    2010.1643  0.035015403  0.033651911           41 
 4785000    0.4860692   -4.7607262    2011.4593  0.035030638  0.033643152           19 
 4786000   0.48306125   -4.7567226    2008.7256   0.03497572  0.033634373           45 
 4787000    0.4904269   -4.7606032    2011.0326  0.035008575  0.033625585           25 
 4788000   0.49425609   -4.7650266    2013.4693  0.035043673  0.033616809           32 
 4789000   0.48497422   -4.7704341    2009.7256  0.034971212  0.033608028           34 
 4790000   0.47859132   -4.7682678    2010.3653   0.03497504   0.03359926           20 
 4791000   0.48739584   -4.7403833    2007.9625  0.034925946  0.033590495           20 
 4792000   0.48959667   -4.7768552    2009.3937  0.034943547  0.033581722           22 
 4793000   0.48571837   -4.7614203    2011.8489  0.034978943  0.033572965           32 
 4794000   0.48764009   -4.7661198     2006.568  0.034879849  0.033564144           23 
 4795000   0.48918342   -4.7613425    2008.1744  0.034900494   0.03355536           18 
 4796000   0.48621581   -4.7587417    2010.9793  0.034941953  0.033546546           25 
 4797000   0.48867339   -4.7642133    2003.1403  0.034798491  0.033537764           19 
 4798000   0.48623971   -4.7654113    2006.7572  0.034854057  0.033528961           17 
 4799000   0.47852795    -4.769305     2007.523  0.034860093  0.033520183           26 
 4800000   0.49054907   -4.7605893    2011.0883  0.034914727  0.033511405           21 
 4801000   0.48216068   -4.7812841    2014.0151  0.034958257   0.03350263           17 
 4802000    0.4829089   -4.7810505    2001.3519  0.034731222  0.033493858           17 
 4803000   0.47946624   -4.7762105    2008.8005  0.034853225  0.033485098            8 
 4804000   0.48247341   -4.7762238    2010.0837   0.03486823  0.033476336           23 
 4805000   0.47768902   -4.7728231    2009.9753  0.034859092  0.033467579           14 
 4806000   0.49051668   -4.7555134    2010.0023  0.034852307   0.03345885           47 
 4807000   0.48724034   -4.7725269    2014.0248  0.034914791  0.033450102           21 
 4808000   0.48457517   -4.7764919    2005.5681  0.034760956  0.033441345           18 
 4809000   0.48667286   -4.7725478    2009.9221  0.034829176  0.033432587            9 
 4810000   0.48141368   -4.7670942    2013.8557  0.034890085  0.033423846           19 
 4811000   0.48750932   -4.7705526    2007.3492  0.034770131  0.033415106           17 
 4812000   0.47991056    -4.771069    2007.0407  0.034757563   0.03340635           17 
 4813000   0.48022125   -4.7642962    2007.8358  0.034764108  0.033397587           18 
 4814000   0.47954713   -4.7809352    2004.1068  0.034692335  0.033388812           16 
 4815000   0.49105074   -4.7713032    2006.2772  0.034722693  0.033380036           37 
 4816000   0.47781483    -4.771537    2005.4033  0.034700361  0.033371263           10 
 4817000   0.47242624   -4.7824908    2006.1482  0.034706044  0.033362512           39 
 4818000   0.48353101   -4.7985832     2004.817  0.034675816  0.033353742           21 
 4819000   0.47834887    -4.757993    2006.1611  0.034691863  0.033344975           55 
 4820000   0.48343822   -4.7642906     2010.838  0.034765526  0.033336212           24 
 4821000   0.48657014   -4.7764883    2009.0945  0.034728176  0.033327466           26 
 4822000   0.48394155   -4.7832769    2007.6666  0.034696299  0.033318724           21 
 4823000   0.47860346   -4.7692533    2003.0854  0.034609949  0.033309984           41 
 4824000   0.48422694   -4.7903603    2007.0604  0.034671441  0.033301226           61 
 4825000   0.47384087   -4.7995312    2005.4882  0.034637102  0.033292443           27 
 4826000   0.48998168    -4.783033    2007.9017  0.034671599  0.033283673           14 
 4827000   0.48002793    -4.782958    2004.5527    0.0346066  0.033274913           38 
 4828000   0.47491863   -4.7755766    2005.4813   0.03461546  0.033266133           42 
 4829000   0.48143273   -4.7728984    2006.0765  0.034618564  0.033257362           27 
 4830000   0.48099646   -4.7856807    2003.6582  0.034569673   0.03324861           31 
 4831000   0.46178116   -4.7833632    2005.2515      0.03459  0.033239839           31 
 4832000   0.48440931   -4.7627519    2010.6933  0.034676692  0.033231093           29 
 4833000   0.47511422   -4.7798067      2008.28  0.034627906   0.03322237           41 
 4834000   0.47772101   -4.7717977    2002.8922  0.034527862  0.033213627           39 
 4835000   0.46466287   -4.7805016    2005.6161  0.034567668  0.033204887           43 
 4836000   0.47650216   -4.7726661    2004.5224  0.034541673  0.033196139           17 
 4837000   0.48082914   -4.7673544    2007.6797  0.034588928   0.03318741           31 
 4838000   0.48137912   -4.7726197    2003.2455    0.0345054  0.033178692           20 
 4839000   0.47721945   -4.7813909    2004.8669  0.034526191  0.033169954           29 
 4840000   0.46987689   -4.7703737    2004.5337  0.034513322  0.033161219           13 
 4841000   0.47896301    -4.784105    2004.1856    0.0345002  0.033152462           35 
 4842000   0.47133854   -4.7982387    2005.2022   0.03451057  0.033143709           63 
 4843000    0.4822424   -4.7821486    2006.7521  0.034530113  0.033134958           54 
 4844000   0.46906602   -4.7653776    2007.1591  0.034529987  0.033126215           29 
 4845000    0.4780721   -4.7888584    2006.6154  0.034513509  0.033117479           22 
 4846000   0.46991842   -4.7973459    2006.2184   0.03449956  0.033108762           30 
 4847000   0.47460675   -4.8022447    2002.2345  0.034423948  0.033100014           18 
 4848000   0.46693582   -4.7876093    2006.6453  0.034492665  0.033091248           45 
 4849000   0.48350521   -4.7862174    2007.3146  0.034497054  0.033082523           27 
 4850000   0.48025119   -4.7767975    2006.5114   0.03447614  0.033073802           26 
 4851000   0.47022215   -4.7888663    2001.9922    0.0343914  0.033065064           49 
 4852000   0.47488127   -4.8021594    2003.1189  0.034403663  0.033056343           31 
 4853000   0.47235404   -4.7926315    2006.2186    0.0344498  0.033047631           36 
 4854000   0.47192749   -4.7846425    2004.0324   0.03440517  0.033038922           23 
 4855000   0.47302156   -4.7839667     2009.237  0.034487419  0.033030213           39 
 4856000   0.47728838   -4.7955657    2005.8248   0.03442176  0.033021485           37 
 4857000    0.4757223   -4.7904752    2001.6288   0.03434268  0.033012755           35 
 4858000   0.47760043   -4.7938098     2006.838   0.03442497  0.033004044           39 
 4859000   0.48030265   -4.7885029    2000.0703  0.034301816  0.032995352           43 
 4860000   0.46902961   -4.7865755    2004.8606  0.034376897  0.032986644           44 
 4861000    0.4757325    -4.782061    2005.2794  0.034377004  0.032977944           37 
 4862000   0.47714295   -4.7758341    2005.2939  0.034370182  0.032969239           27 
 4863000   0.47458929   -4.8067058    2002.9288  0.034322585  0.032960554           37 
 4864000    0.4801141   -4.8065363    2003.6206  0.034327382  0.032951848           23 
 4865000   0.47813227   -4.7883168    2004.7111  0.034339005  0.032943127           18 
 4866000   0.48175644   -4.7826506    2001.3364  0.034274154  0.032934426           26 
 4867000   0.47295625   -4.7891742    2002.8965  0.034293825  0.032925745           18 
 4868000   0.47926731   -4.7939839    2005.3417  0.034328638  0.032917068           24 
 4869000   0.47812834   -4.8150978    2003.2693  0.034286117  0.032908394           36 
 4870000   0.46871804   -4.7901902    2006.0522  0.034326698  0.032899709           26 
 4871000    0.4829261   -4.7820142    2007.0289   0.03433636  0.032891036           30 
 4872000   0.47250381   -4.7914962    2004.1716  0.034280439  0.032882377           19 
 4873000   0.47103627   -4.8025157    2007.6823   0.03433344  0.032873708           35 
 4874000     0.477033   -4.7785838    2004.5297  0.034272495  0.032865072           40 
 4875000   0.46513728   -4.7996959    2004.8114   0.03427028  0.032856426           21 
 4876000   0.47845586   -4.8035537    2000.5393  0.034190239  0.032847767           15 
 4877000   0.46694531    -4.785326    2008.6302  0.034321479   0.03283911           15 
 4878000   0.46677751   -4.8013527    2011.4639  0.034362852   0.03283043           32 
 4879000   0.46856422   -4.7917092    2000.5682   0.03416971  0.032821765           23 
 4880000   0.47228792   -4.7927741     2003.801  0.034217914  0.032813096           25 
 4881000   0.47136469   -4.7719528    2006.5324  0.034257536  0.032804462           56 
 4882000   0.45806579     -4.80695    2004.1749  0.034210277  0.032795839           18 
 4883000   0.46471062   -4.8002025    2004.0124  0.034200498  0.032787182           21 
 4884000   0.46907111    -4.795463    2003.4925  0.034184625  0.032778551           29 
 4885000   0.45805345   -4.7966916    2004.9149  0.034201891  0.032769901           12 
 4886000   0.46292908   -4.8041468    2004.7818  0.034192622  0.032761237           15 
 4887000   0.46984645   -4.7991112    2003.0256  0.034155678  0.032752571           42 
 4888000    0.4741668   -4.7840138    2005.4714  0.034190389  0.032743929           25 
 4889000   0.47014327   -4.7816908    2005.2276  0.034179239  0.032735293           28 
 4890000   0.46358388   -4.7780074    2004.9675  0.034167818  0.032726663           14 
 4891000   0.47461011   -4.7976453    2006.2559  0.034182782  0.032718046           19 
 4892000   0.47946412   -4.7811923    2004.7204  0.034149639  0.032709417           19 
 4893000   0.46809225   -4.8053281    2002.2191   0.03410006  0.032700776            9 
 4894000   0.46122516   -4.8103578    2005.6059  0.034150762  0.032692145           27 
 4895000   0.47357313   -4.7833376    2006.2431  0.034154632  0.032683514           20 
 4896000   0.46648333   -4.8123096    2007.8137  0.034174389  0.032674884           21 
 4897000   0.46569311   -4.8004128    2005.9014  0.034134868  0.032666273           20 
 4898000   0.46679395   -4.8060632     2006.871  0.034144395  0.032657643           27 
 4899000   0.46657264    -4.796397    2008.3035  0.034161793   0.03264905           21 
 4900000   0.46203612   -4.7898125    2004.1927   0.03408491  0.032640493           23 
 4901000   0.46414737   -4.8025732    2006.0225  0.034109068  0.032631908           35 
 4902000   0.46702978   -4.7969725    2007.4477  0.034126338  0.032623343           36 
 4903000   0.46754255   -4.7844217    2007.1124  0.034113678  0.032614738           35 
 4904000   0.47152198   -4.8030241    2008.6146  0.034132249  0.032606163           38 
 4905000   0.46488131   -4.7985241    2006.4258  0.034088104  0.032597575           25 
 4906000   0.47053867   -4.8074403    2001.1851  0.033992137  0.032588998           39 
 4907000   0.46054465   -4.8043486     2007.082  0.034085355  0.032580416           23 
 4908000   0.46502298   -4.8000124    2003.7993  0.034022672  0.032571811           15 
 4909000   0.46447749   -4.8000458    2004.6741  0.034030591  0.032563225           21 
 4910000   0.46322683   -4.8086571      2004.62  0.034022743  0.032554643           25 
 4911000   0.47146834   -4.8112828    2004.0433   0.03400603  0.032546048           27 
 4912000   0.47086366   -4.7976099    2006.1571  0.034034967  0.032537459           33 
 4913000   0.46573052   -4.8193813    2008.1368  0.034061618   0.03252886           38 
 4914000   0.46626846   -4.8022961    2004.9426  0.034000518  0.032520274           30 
 4915000   0.47363509   -4.8205414    2002.5056  0.033952282  0.032511707           31 
 4916000   0.47613324   -4.8051169    1999.0164  0.033886229  0.032503119           46 
 4917000   0.45707999   -4.7960969    2002.2962  0.033934923  0.032494557           35 
 4918000   0.46082762   -4.7937779    2010.4099  0.034065506  0.032486012           71 
 4919000   0.45867397   -4.8122211    2009.1534  0.034037293  0.032477482           23 
 4920000   0.46200972    -4.805888    2002.7869  0.033922542  0.032468944           55 
 4921000   0.46073188   -4.7997892    2010.2111  0.034041372  0.032460377           48 
 4922000   0.46030155   -4.8077985    2003.4699  0.033920322  0.032451824           44 
 4923000   0.45655211   -4.8078731     2007.648  0.033984155   0.03244328           43 
 4924000   0.46357179   -4.7921611    2003.9075  0.033913951  0.032434735           54 
 4925000    0.4566891   -4.8060659    2004.9455  0.033924628  0.032426192           79 
 4926000   0.46299849   -4.8022433    2004.8187  0.033915595  0.032417646           49 
 4927000   0.47259267   -4.7990628    2007.9432  0.033961558  0.032409079           58 
 4928000   0.46585656   -4.8162622    2005.7546  0.033917658  0.032400523           37 
 4929000   0.46572973   -4.8165355    2004.8405  0.033895321  0.032391981           57 
 4930000   0.46810868   -4.8090978    2004.1979  0.033877585  0.032383411           53 
 4931000   0.46392557   -4.8097626    2001.6846   0.03382824  0.032374837           57 
 4932000   0.45887041   -4.8206059    2001.3585  0.033815871  0.032366283           63 
 4933000   0.46762694   -4.8228676    2005.9979  0.033887389  0.032357749           76 
 4934000   0.47033419   -4.8132013    2002.2343  0.033816955  0.032349203           49 
 4935000   0.45047488   -4.8060437    1999.8661  0.033770114  0.032340665           65 
 4936000   0.46643258   -4.8344731    1999.3947  0.033755313  0.032332111           43 
 4937000   0.46010359    -4.817731    2002.8764  0.033807245  0.032323559           32 
 4938000   0.47387845   -4.7989622    2000.1867  0.033755007  0.032315019           58 
 4939000   0.46553602   -4.8196384    2003.4715  0.033803595  0.032306471           62 
 4940000   0.45398285   -4.8233223    2000.7908  0.033751531  0.032297929           49 
 4941000   0.45797794   -4.8164565    2004.8172  0.033812609   0.03228939           87 
 4942000   0.45026115   -4.8233221    2001.2969  0.033746407  0.032280826          100 
 4943000   0.45809185   -4.8098653    2001.0469  0.033735365   0.03227227           48 
 4944000    0.4548646   -4.8188595    2002.0751  0.033745871  0.032263725           19 
 4945000   0.46695951   -4.8093658    2003.7303  0.033766941  0.032255203           28 
 4946000   0.46325845    -4.806345    2001.2606  0.033718503   0.03224668           41 
 4947000   0.45475475   -4.8094404    2006.1774  0.033794512  0.032238159           29 
 4948000   0.45470525   -4.8015042    2003.6753  0.033745542  0.032229642           24 
 4949000   0.45454425   -4.8095387    2002.6727  0.033721841  0.032221107           18 
 4950000   0.46670308   -4.8073402    2005.8512  0.033768538  0.032212584           23 
 4951000   0.44209734    -4.808806    2002.6511  0.033707855  0.032204063           18 
 4952000   0.45289358   -4.8243839    1999.2635  0.033644041  0.032195526           27 
 4953000   0.45257619    -4.834811    2004.4635  0.033724738  0.032186955           13 
 4954000    0.4637654   -4.8160073    2003.7557  0.033706024  0.032178393           50 
 4955000   0.45015981   -4.8096728    2000.4275  0.033643248  0.032169865           25 
 4956000   0.45026328   -4.8194331    2005.8695  0.033727965  0.032161333           14 
 4957000   0.45610816   -4.8118252    2004.0059  0.033689831  0.032152808           20 
 4958000    0.4596908   -4.8218199    2001.5124  0.033641125  0.032144301           30 
 4959000   0.45994046   -4.8061319    1999.3017  0.033597191  0.032135801           42 
 4960000   0.46478189     -4.81419    1999.9831  0.033601867  0.032127263           18 
 4961000   0.45233535   -4.8277854    2000.6531  0.033606347  0.032118727           32 
 4962000    0.4617877    -4.832889    1994.9797  0.033504295  0.032110187           53 
 4963000    0.4534828   -4.8234938    2003.5184  0.033640917  0.032101643           50 
 4964000   0.46060714   -4.8175851    1999.4625  0.033566051  0.032093136           30 
 4965000   0.45701383     -4.82039    2003.5145    0.0336273  0.032084633           50 
 4966000   0.45656859   -4.8208938    2002.2265  0.033598914  0.032076123           41 
 4967000   0.46650947    -4.822957    1999.6646  0.033549168  0.032067593           85 
 4968000   0.46591781   -4.8167332     2003.516  0.033607018  0.032059053           72 
 4969000   0.46677309   -4.8149852    1999.8791  0.033539262  0.032050539           38 
 4970000   0.46396855    -4.849289    2004.2001  0.033604965  0.032042028           53 
 4971000   0.45193829   -4.8271247    1998.8942  0.033509257  0.032033483           27 
 4972000   0.44753013   -4.8218316    2001.1304  0.033539997  0.032024941          114 
 4973000   0.46294889   -4.8245036    2001.4337  0.033538336  0.032016444           89 
 4974000   0.45552381   -4.8302804    2001.1435  0.033526731  0.032007934           37 
 4975000   0.45195647   -4.8370574    2000.6448  0.033511638  0.031999408           42 
 4976000   0.44788892   -4.8249552    2002.6122  0.033537852  0.031990923           38 
 4977000   0.45417005   -4.8165762    2001.5841    0.0335139   0.03198242           44 
 4978000   0.44882639   -4.8339807    1997.5689  0.033439951  0.031973922           93 
 4979000   0.45844429   -4.8346248    2003.2511  0.033528337  0.031965419           54 
 4980000    0.4564809   -4.8221845     1999.009  0.033450619  0.031956936           42 
 4981000     0.452536    -4.838593    2002.3561  0.033499901  0.031948437           46 
 4982000   0.46374866     -4.83424    2002.3207  0.033492585  0.031939936           80 
 4983000   0.46306354   -4.8371297    2000.5286  0.033455893  0.031931435           65 
 4984000   0.45361056   -4.8396628    1999.2639  0.033428034  0.031922947           58 
 4985000   0.45555954   -4.8201533    1998.9183  0.033415552  0.031914475           60 
 4986000   0.44716992   -4.8368285    1997.9963   0.03339344  0.031905996           45 
 4987000   0.45448914   -4.8297606    2001.2495  0.033441106   0.03189752           50 
 4988000     0.446928   -4.8385802    1997.8387  0.033377418  0.031889023           94 
 4989000   0.45275862   -4.8349513    1998.4382  0.033380741  0.031880532           99 
 4990000   0.45615185   -4.8355721    1995.5385  0.033325626  0.031872024          107 
 4991000   0.45248108   -4.8340261    1999.7716  0.033389628  0.031863515           59 
 4992000   0.45544923   -4.8420567    2003.1484  0.033439309  0.031855025           85 
 4993000   0.45845955   -4.8496128    2002.0056   0.03341354  0.031846533          129 
 4994000    0.4537178   -4.8346743    2000.2571  0.033377671  0.031838062           76 
 4995000   0.44413903   -4.8210491    2000.5504  0.033375882   0.03182959           54 
 4996000     0.454498   -4.8316272     2001.573  0.033386258  0.031821137           69 
 4997000   0.45141441   -4.8229054    2004.7518   0.03343259  0.031812689           73 
 4998000   0.45555168   -4.8308709    1999.5046  0.033338412  0.031804254          125 
 4999000   0.45237764    -4.821695    2000.3762  0.033346273  0.031795792           70 
 5000000   0.45109226   -4.8404971    1997.6875  0.033294792  0.031787359           42 
 5001000   0.45063434   -4.8155548    1999.1993  0.033313326  0.031778921           69 
 5002000   0.44688272   -4.8323252    1998.1178  0.033288648   0.03177048           64 
 5003000   0.45570873   -4.8290627    1999.3052  0.033301772  0.031762033           23 
 5004000   0.44880258   -4.8261879    2000.5759  0.033316279    0.0317536           74 
 5005000   0.43662557   -4.8122376    2001.5455  0.033325766  0.031745152           58 
 5006000    0.4516511   -4.8411302    1998.0152   0.03326034  0.031736723           55 
 5007000   0.45109893   -4.8341438    1998.7829  0.033266475  0.031728275           57 
 5008000   0.45936997   -4.8289204    2003.3235  0.033335389  0.031719847           47 
 5009000    0.4464111   -4.8424619    2002.4064  0.033313476  0.031711432           19 
 5010000   0.45232937   -4.8265778    2001.3346  0.033288999  0.031703002           56 
 5011000   0.43854034   -4.8322725    2001.2484  0.033280922   0.03169458           15 
 5012000   0.44403863   -4.8420373     2000.127  0.033255636   0.03168617           17 
Loop time of 12438.2 on 48 procs for 5000000 steps with 4000 atoms

Performance: 69463.466 tau/day, 401.988 timesteps/s
99.4% CPU use with 48 MPI tasks x no OpenMP threads

MPI task timing breakdown:
Section |  min time  |  avg time  |  max time  |%varavg| %total
---------------------------------------------------------------
Pair    | 839.64     | 896.5      | 953.64     | 111.8 |  7.21
Neigh   | 83.219     | 87.173     | 90.618     |  22.8 |  0.70
Comm    | 801.08     | 859.51     | 921.91     | 115.4 |  6.91
Output  | 14.611     | 14.616     | 14.705     |   0.3 |  0.12
Modify  | 10450      | 10467      | 10496      |   9.6 | 84.16
Other   |            | 113        |            |       |  0.91

Nlocal:        83.3333 ave          90 max          79 min
Histogram: 4 5 8 10 10 3 4 2 1 1
Nghost:        2280.85 ave        2297 max        2263 min
Histogram: 5 0 4 8 3 8 7 6 3 4
Neighs:        15334.7 ave       17102 max       13656 min
Histogram: 1 1 6 10 6 9 10 3 0 2
FullNghs:      30668.7 ave       33565 max       28638 min
Histogram: 2 5 5 12 10 8 2 2 1 1

Total # of neighbors = 1472097
Ave neighs/atom = 368.02425
Neighbor list builds = 270004
Dangerous builds = 1

#clear
#
#next RN
#
#jump SELF
Total wall time: 3:27:21
