
units lj                  # Use reduced LJ style units
atom_style atomic         # Uncharged point particles
atom_modify map hash      # Needed for indexing of clusters etc
                          # Used to be able to find where atoms are in relation to each other.

lattice fcc 1.0 spacing 1 1 1
Lattice spacing in x,y,z = 1.5874011 1.5874011 1.5874011
region box block 0 10 0 10 0 10 units lattice
create_box 2 box
Created orthogonal box = (0.0000000 0.0000000 0.0000000) to (15.874011 15.874011 15.874011)
  3 by 4 by 4 MPI processor grid
create_atoms 1 box
Created 4000 atoms
  using lattice units in orthogonal box = (0.0000000 0.0000000 0.0000000) to (15.874011 15.874011 15.874011)
  create_atoms CPU = 0.008 seconds
set type 1 type/fraction 2 0.96 78393
Setting atom values ...
  3848 settings made for type/fraction
mass 1 1.0
mass 2 1.0
pair_style lj/cut  3.5
pair_modify tail  yes
pair_coeff 1  1  1.0  1.0   # Intearaction between 1 and 1 set with epsilon = 1 and sigma = 1
pair_coeff 1  2  1.5  0.8
pair_coeff 2  2  0.5  0.88

write_data data.0
System init for write_data ...
Neighbor list info ...
  update every 1 steps, delay 10 steps, check yes
  max neighbors/atom: 2000, page size: 100000
  master list distance cutoff = 3.8
  ghost atom cutoff = 3.8
  binsize = 1.9, bins = 9 9 9
  1 neighbor lists, perpetual/occasional/extra = 1 0 0
  (1) pair lj/cut, perpetual
      attributes: half, newton on
      pair build: half/bin/atomonly/newton
      stencil: half/bin/3d
      bin: standard
WARNING: Not all mixed pair coeffs generated from mixing. Use write_data with 'pair ij' option to store all pair coeffs. (../write_data.cpp:312)


#############################
#   M E L T   S Y S T E M   #
#############################

velocity all create 2.4 3143649 mom yes dist gaussian # Assign velocities
                                                    # Temperature 2.4, random number seed, zero linear momentum
                                                                                # Gaussian distribution

timestep 0.002   # simulation timestep
thermo 1000       # output thermodynamic data every 1000 steps bf 100

# Define a fix  in this case with index 1 applied to all
# particles in the simulation. This fix is for simulations
# in the anisotropic NPT ensemble. Note that we use the MTK
# correction.
fix 1 all npt temp 2.4 2.4 0.1 iso 5.68 5.68 0.5 mtk yes tchain 5 pchain 5 # Use NPT ensemble
                                                                         # Set temperature and pressure and damping
                                                                         # Numbers of thermostats in chain and in barostat
run 10000          # run for 10000 steps
Per MPI rank memory allocation (min/avg/max) = 3.642 | 3.644 | 3.648 Mbytes
Step Temp E_pair E_mol TotEng Press Volume 
       0          2.4   -2.8820212            0   0.71707882   -2.0430313         4000 
    1000    2.3788354    -1.718777            0     1.848584    5.7117292    4164.1384 
    2000    2.4813107   -1.7104736            0     2.010562    5.7280894    4178.0015 
    3000    2.3691192   -1.7607594            0     1.792031     5.554117    4158.8363 
    4000    2.4426398   -1.7374708            0    1.9255728    5.6550331    4157.4907 
    5000    2.4190701   -1.7345029            0     1.893195    5.9334539    4118.9618 
    6000    2.4375119   -1.7360727            0    1.9192811    5.6068572    4174.8795 
    7000    2.4087815   -1.6871808            0    1.9250882      5.69069    4204.1779 
    8000    2.3782987   -1.6845152            0     1.882041    5.7474832    4199.1098 
    9000    2.3511418    -1.715643            0     1.810188    5.7120823    4147.1425 
   10000    2.4074438   -1.7446563            0    1.8656066    5.6438499     4147.385 
Loop time of 2.41184 on 48 procs for 10000 steps with 4000 atoms

Performance: 716466.784 tau/day, 4146.220 timesteps/s
99.6% CPU use with 48 MPI tasks x no OpenMP threads

MPI task timing breakdown:
Section |  min time  |  avg time  |  max time  |%varavg| %total
---------------------------------------------------------------
Pair    | 1.0258     | 1.0993     | 1.1691     |   3.0 | 45.58
Neigh   | 0.20752    | 0.21174    | 0.22057    |   0.6 |  8.78
Comm    | 0.73641    | 0.81016    | 0.88688    |   4.0 | 33.59
Output  | 0.00024283 | 0.00024696 | 0.00032718 |   0.0 |  0.01
Modify  | 0.23019    | 0.27593    | 0.30491    |   3.2 | 11.44
Other   |            | 0.0145     |            |       |  0.60

Nlocal:        83.3333 ave          92 max          75 min
Histogram: 4 3 8 3 5 8 6 4 4 3
Nghost:        1606.42 ave        1625 max        1582 min
Histogram: 1 0 5 5 4 13 9 5 1 5
Neighs:        9208.94 ave       10227 max        7887 min
Histogram: 2 3 4 5 2 10 6 9 1 6

Total # of neighbors = 442029
Ave neighs/atom = 110.50725
Neighbor list builds = 914
Dangerous builds = 254

# Equilibrate just above the melting temperature to avoid step fn in T

fix 1 all npt temp 1.25 1.25 0.1 iso 5.68 5.68 0.5 mtk yes tchain 5 pchain 5
run 2000
Per MPI rank memory allocation (min/avg/max) = 3.643 | 3.645 | 3.649 Mbytes
Step Temp E_pair E_mol TotEng Press Volume 
   10000    2.4074438   -1.7446563            0    1.8656066    5.6438499     4147.385 
   11000    1.2527275   -2.6288219            0  -0.75020042    5.6672764    3252.2958 
   12000    1.2748708   -2.6280055            0  -0.71617733    5.5612453    3260.8525 
Loop time of 0.567516 on 48 procs for 2000 steps with 4000 atoms

Performance: 608969.523 tau/day, 3524.129 timesteps/s
99.7% CPU use with 48 MPI tasks x no OpenMP threads

MPI task timing breakdown:
Section |  min time  |  avg time  |  max time  |%varavg| %total
---------------------------------------------------------------
Pair    | 0.25459    | 0.27524    | 0.29975    |   2.0 | 48.50
Neigh   | 0.038537   | 0.040567   | 0.041826   |   0.4 |  7.15
Comm    | 0.18032    | 0.20527    | 0.23004    |   2.6 | 36.17
Output  | 4.9745e-05 | 5.0914e-05 | 6.4394e-05 |   0.0 |  0.01
Modify  | 0.038641   | 0.041894   | 0.04567    |   0.9 |  7.38
Other   |            | 0.004499   |            |       |  0.79

Nlocal:        83.3333 ave          89 max          76 min
Histogram: 3 2 4 4 5 5 11 6 1 7
Nghost:        1881.83 ave        1902 max        1862 min
Histogram: 3 0 3 12 9 3 9 3 4 2
Neighs:        11717.6 ave       13141 max       10278 min
Histogram: 2 3 5 6 7 9 7 6 1 2

Total # of neighbors = 562445
Ave neighs/atom = 140.61125
Neighbor list builds = 145
Dangerous builds = 19

#############################
# L I N E A R  Q U E N C H  #
#############################

# Define solid atoms. This closely follows ten Wolde  Ruiz-Montero and Frenkel  Faraday Discuss  1996  104  93-110
# Compute components of the per-atom q6 vector
compute q6 all orientorder/atom degrees 1 6 components 6 nnn NULL cutoff 1.3 # compute the Q6 parameter.
                                                                             # Use all neighbours within 1.3 unit cell.

# get number of connections
compute coord_number all coord/atom orientorder q6 0.5

# An atom is solid if it has 8 or more connections (of a possible 14)
variable is_solid atom c_coord_number>=8
group solid dynamic all var is_solid    # Must be dynamic to update
dynamic group solid defined

# do clustering
compute cluster solid cluster/atom 1.3 # Create a cluster where all atoms within are solid and max 1.3 units from another member

# define chunks one chunk per cluster
compute clus_chunks solid chunk/atom c_cluster nchunk every compress yes  # Says which atoms are in which chunk

# count the size of each chunk
compute size_chunks solid property/chunk clus_chunks count


# Find the maximum entry in the vector of chunk sizes
variable max_n equal max(c_size_chunks)


# Thermo style which includes this variable
# thermo_style custom step temp pe vol v_max_n

thermo ${N}  # Print the thermo information every 100 steps
thermo 1000  

# Reset the npt fix at a lower temperature (below freezing)
fix 1  all npt temp  ${temp} ${temp}  0.1  iso  5.68  5.68  0.5  mtk yes tchain  5  pchain  5
fix 1  all npt temp  0.45 ${temp}  0.1  iso  5.68  5.68  0.5  mtk yes tchain  5  pchain  5
fix 1  all npt temp  0.45 0.45  0.1  iso  5.68  5.68  0.5  mtk yes tchain  5  pchain  5

dump dmp2 all dcd ${N} traj.dcd
dump dmp2 all dcd 1000 traj.dcd


compute msd all msd com yes
variable twopoint equal c_msd[4]/6/(step*dt+1.0e-6)
fix 9 all vector 10 c_msd[4]
variable fit equal slope(f_9)/6/(10*dt)
thermo_style custom step temp pe c_msd[4] v_twopoint v_fit v_max_n

fix 1 all npt temp 1.25 ${temp} 0.1 iso 5.68 5.68 0.5 mtk yes tchain 5 pchain 5
fix 1 all npt temp 1.25 0.45 0.1 iso 5.68 5.68 0.5 mtk yes tchain 5 pchain 5
run 5000000 # 5000000  # Run for this many steps
Neighbor list info ...
  update every 1 steps, delay 10 steps, check yes
  max neighbors/atom: 2000, page size: 100000
  master list distance cutoff = 3.8
  ghost atom cutoff = 3.8
  binsize = 1.9, bins = 8 8 8
  4 neighbor lists, perpetual/occasional/extra = 1 3 0
  (1) pair lj/cut, perpetual
      attributes: half, newton on
      pair build: half/bin/atomonly/newton
      stencil: half/bin/3d
      bin: standard
  (2) compute orientorder/atom, occasional
      attributes: full, newton on
      pair build: full/bin/atomonly
      stencil: full/bin/3d
      bin: standard
  (3) compute coord/atom, occasional
      attributes: full, newton on
      pair build: full/bin/atomonly
      stencil: full/bin/3d
      bin: standard
  (4) compute cluster/atom, occasional
      attributes: full, newton on
      pair build: full/bin/atomonly
      stencil: full/bin/3d
      bin: standard
Per MPI rank memory allocation (min/avg/max) = 9.814 | 9.819 | 9.823 Mbytes
Step Temp PotEng c_msd[4] v_twopoint v_fit v_max_n 
   12000    1.2748708   -2.6280055            0            0 8.3333333e+20            2 
   13000    1.2613503   -2.6638623    1.1139825  0.007140913  0.095399056            2 
   14000    1.2480108   -2.6365253     2.345361  0.013960482  0.098652969            3 
   15000    1.2601475   -2.6459165    3.5280887  0.019600492  0.099991877            3 
   16000    1.2380337   -2.6232983    4.7838693  0.024915985   0.10009437            2 
   17000    1.2613822   -2.6143206    6.0332035  0.029574526   0.10091028            2 
   18000    1.2621023   -2.6466678     7.321765  0.033897059   0.10200375            2 
   19000    1.2319178    -2.643677     8.715024  0.038223788   0.10340623            2 
   20000    1.2774026   -2.6564979    9.9937408  0.041640586   0.10479509            2 
   21000    1.2516143   -2.6389503    11.299173  0.044837988   0.10563826            1 
   22000    1.2670799   -2.6414236    12.562775  0.047586268   0.10596005            1 
   23000    1.2538564   -2.6196927    13.988974  0.050684687    0.1063094            2 
   24000    1.2539689   -2.6149425    15.301988    0.0531319   0.10695475            1 
   25000    1.2574424   -2.6216114    16.692898  0.055642992   0.10759886            1 
   26000    1.2582985   -2.6183789    18.086657  0.057970054   0.10830424            1 
   27000    1.2194731   -2.6466838    19.559307  0.060368231   0.10879691            1 
   28000    1.2643121   -2.6097892    21.048237   0.06264356   0.10952259            1 
   29000    1.2399235   -2.6132674    22.488655  0.064622571   0.11021415            2 
   30000    1.2583217   -2.6025106    23.692199  0.065811663   0.11075792            1 
   31000     1.238743   -2.6293047    25.055141  0.067352529   0.11115442            2 
   32000    1.2508016   -2.6463029    26.194905  0.068215896   0.11130008            2 
   33000    1.2537933   -2.6405998    27.579535  0.069645289   0.11136669            2 
   34000    1.2621257   -2.6279455    29.183606  0.071528446   0.11156831            1 
   35000    1.2391787    -2.655343    30.775896  0.073275941   0.11188301            1 
   36000    1.2241251    -2.630327    31.798437  0.073607493   0.11216474       -1e+20 
   37000    1.2828456    -2.631448    33.209398   0.07479594   0.11224755            2 
   38000    1.2423829    -2.645377    34.412277  0.075465519   0.11223554            1 
   39000    1.2669365   -2.6005787     35.97092  0.076860939   0.11226769            2 
   40000    1.2442427   -2.6427278    36.707108  0.076473141   0.11225226            3 
   41000    1.2336488   -2.6450716    38.322522  0.077891303    0.1121789            2 
   42000    1.2112774   -2.6228117    39.728169   0.07882573   0.11212621            2 
   43000    1.2614301    -2.621654    41.037472  0.079529984   0.11209623            1 
   44000    1.2418541   -2.6108648    42.424632  0.080349682   0.11207072            2 
   45000     1.236513   -2.6279339     43.90241  0.081300759   0.11209702            3 
   46000    1.2584578   -2.6398451    45.165637  0.081821805   0.11212217            1 
   47000      1.23918    -2.646184    46.437494  0.082335982   0.11217954            2 
   48000    1.2576616   -2.6365389    48.154521  0.083601598   0.11219367            1 
   49000    1.2344685   -2.6382669    49.292497  0.083830776   0.11222871            2 
   50000    1.2708384   -2.6563839    50.588342  0.084313903   0.11224552            2 
   51000    1.2290943   -2.6380399    51.975635  0.084927508   0.11224274            1 
   52000    1.2453973   -2.6311564    53.150223  0.085176638   0.11219237            1 
   53000    1.2150785   -2.6344501    54.036543  0.084963118   0.11205979            1 
   54000     1.274195   -2.6256235    55.166777  0.085133914    0.1118655            1 
   55000    1.2344637    -2.640253    56.397426  0.085450645   0.11167366            1 
   56000    1.2373007   -2.6252509    57.731417  0.085909845   0.11150255            2 
   57000    1.2381257   -2.6438656     58.67996  0.085789414   0.11126666            4 
   58000     1.234754   -2.6244828    60.108889  0.086363345   0.11104319            1 
   59000    1.2647035   -2.6702597    61.553517  0.086939995   0.11088208       -1e+20 
   60000    1.2267832      -2.6559     62.28061  0.086500846   0.11063903            1 
   61000    1.2405798   -2.6180333    63.625604  0.086920223   0.11039089            1 
   62000    1.2638654   -2.6326341    64.324065  0.086457075   0.11014418            3 
   63000    1.2414801    -2.595643    66.134865   0.08747998   0.10992708            2 
   64000     1.237518   -2.6209647    67.269488  0.087590479   0.10970738            1 
   65000    1.2514099   -2.6169907    68.578678  0.087921382   0.10950549            2 
   66000    1.2175825   -2.6260324    69.790715  0.088119589   0.10926918            1 
   67000    1.2543836   -2.6386938    70.694373  0.087928324   0.10907468            1 
   68000    1.2543255   -2.6423445    71.979829  0.088210574   0.10891701            1 
   69000    1.2179084   -2.6401033    73.602227  0.088891578   0.10876673            2 
   70000    1.2573476    -2.621342    75.035297  0.089327734   0.10864071            1 
   71000    1.2512342   -2.6244949    76.504551  0.089794073   0.10856045            2 
   72000    1.2166588   -2.6544459    78.127743  0.090425627   0.10850908            1 
   73000    1.2434084   -2.6456276    79.334968  0.090565031   0.10847036            1 
   74000    1.2344456   -2.6364734    80.761571  0.090947715   0.10843813            1 
   75000    1.2203736   -2.6289919    81.703689  0.090781876   0.10840087       -1e+20 
   76000    1.2351031   -2.6621241    83.450905  0.091503185   0.10834904            3 
   77000    1.2205147   -2.6208516    85.050391  0.092045878   0.10833013            1 
   78000    1.2466769   -2.6376063    85.818433  0.091686359   0.10835323            2 
   79000    1.2297611   -2.6701915    87.190472  0.091973072   0.10838184            1 
   80000    1.2280953   -2.6224332    88.796014  0.092495847   0.10841407            1 
   81000    1.2326619   -2.6664965    90.148218   0.09274508   0.10843817            2 
   82000     1.224495   -2.6333767    91.606055  0.093095584   0.10847471            1 
   83000    1.2334098   -2.6256947    93.394545  0.093769623    0.1085274            3 
   84000    1.2398535   -2.6485457     94.50063  0.093750625   0.10858196            1 
   85000    1.2422492   -2.6548754    96.224894  0.094338131   0.10864466            1 
   86000    1.2445254   -2.6381465    97.152666  0.094140179   0.10871318            1 
   87000     1.240974   -2.6305689    98.826434  0.094661335   0.10877912            2 
   88000    1.2228518   -2.6177209    100.00351  0.094700293   0.10885126            2 
   89000    1.2431269   -2.6791137    101.02639  0.094593999   0.10889663            2 
   90000    1.2543115   -2.6646899    102.29185  0.094714673   0.10893976            1 
   91000    1.2369656   -2.6593778    103.46451   0.09474772   0.10898174            3 
   92000    1.2309219   -2.6317715    104.63796  0.094780763   0.10899818            4 
   93000    1.2358962   -2.6721103     105.7876  0.094791754   0.10898213            2 
   94000    1.2395632   -2.6473154    106.46395  0.094382934   0.10892942            1 
   95000    1.2600783   -2.6377393    108.29191  0.094992907   0.10888481            2 
   96000    1.2259432   -2.6086671    109.13497  0.094735217   0.10885226            2 
   97000    1.2416294   -2.6589329    110.78833   0.09517898   0.10883686            2 
   98000    1.2258181   -2.6274475    112.55959  0.095713939    0.1088225            1 
   99000    1.2522417    -2.653602    112.64692  0.094820639   0.10880659            1 
  100000    1.2306694   -2.6321294    114.03635   0.09503029   0.10877152            1 
  101000    1.2425322   -2.6703882     115.4904  0.095289112   0.10876017            1 
  102000    1.2322891   -2.6369201    117.12223    0.0956881   0.10871644            2 
  103000    1.2132623   -2.6395906    118.52398  0.095893186    0.1086873            2 
  104000    1.2208415   -2.6261509    119.42269  0.095691261   0.10866936            2 
  105000    1.2461999   -2.6518694    120.80724  0.095878762    0.1086539            1 
  106000    1.2188002   -2.6606029    122.17549  0.096049916   0.10863282            2 
  107000    1.2437351   -2.6384509    123.62806  0.096283538   0.10862005            1 
  108000    1.2323697    -2.640411    125.45101  0.096798622   0.10860871            1 
  109000    1.1853774   -2.6434833    126.49479  0.096708554   0.10859551            1 
  110000    1.2424053   -2.6467733    127.33343   0.09646472   0.10858674            2 
  111000    1.2347705   -2.6343119     128.4862   0.09646111   0.10856546            1 
  112000    1.2268602   -2.6108805    129.94315  0.096683889   0.10854518            2 
  113000    1.2364258   -2.6397513    130.91322  0.096543675   0.10850207            2 
  114000    1.2582412   -2.6720335     132.1432  0.096595902   0.10846054            3 
  115000    1.2289576   -2.6429057    133.32431   0.09661182   0.10842015            1 
  116000    1.2432958   -2.6542755    134.80674  0.096843919    0.1083822            3 
  117000    1.2382478   -2.6563351    135.30344  0.096369972   0.10833172            3 
  118000    1.2164828    -2.661742     136.5712   0.09644859    0.1082771            2 
  119000    1.2439382   -2.6798081    138.08859  0.096700695   0.10821953            3 
  120000    1.2192887   -2.6655048    138.55203  0.096216689   0.10816945            1 
  121000    1.2130379   -2.6529547     140.2437   0.09658657   0.10810614            1 
  122000    1.2309914   -2.6426599    141.25612  0.096486423   0.10804082            2 
  123000    1.2410404   -2.6449132    143.02517  0.096900522   0.10797795            1 
  124000    1.2527445   -2.6280179    143.90256  0.096708709   0.10790892            3 
  125000    1.2378359   -2.6421762     144.9893  0.096659532   0.10784446       -1e+20 
  126000    1.2597543   -2.6337362    146.34258  0.096787422   0.10778375            2 
  127000    1.2641147   -2.6509853    148.09762  0.097176916    0.1077374            2 
  128000    1.2385873   -2.6386665    149.99146   0.09765069   0.10769741            2 
  129000    1.2217621   -2.6800692    150.32516  0.097109278   0.10766017            1 
  130000    1.2036978   -2.6438083    152.15004  0.097532079   0.10762336            1 
  131000    1.2134927   -2.6404991     153.4139  0.097591539   0.10757878            1 
  132000    1.2204612   -2.6523545    154.02362  0.097237132   0.10753329            2 
  133000    1.2425086   -2.6573044    154.16723  0.096596008   0.10747445            1 
  134000    1.2219848   -2.6315189    157.06065  0.097674532    0.1074147            3 
  135000    1.2399843   -2.6442184    158.56837  0.097881709   0.10736608            2 
  136000    1.2422821   -2.6580887    158.62679  0.097197788   0.10730996            2 
  137000    1.2207234   -2.6482872    159.68636   0.09713282   0.10725707            3 
  138000    1.2256059   -2.6694321    160.97463  0.097206904    0.1072128            1 
  139000    1.2119087   -2.6378768    163.05726   0.09775615   0.10716474            1 
  140000    1.2419684   -2.6565423    163.66733  0.097421027   0.10712163            4 
  141000    1.2523655   -2.6523153    164.16527  0.097024389   0.10707348            1 
  142000    1.1877728    -2.641627    166.10949  0.097482094   0.10704209            2 
  143000    1.2025127   -2.6589568    167.97793  0.097889237   0.10699787            3 
  144000    1.2011475   -2.6679187     168.6555  0.097601565   0.10694701            1 
  145000    1.2478657   -2.6360995    169.81915  0.097597214   0.10689935            2 
  146000    1.2366594   -2.6323487    170.80216  0.097489819   0.10685086            1 
  147000    1.2435809   -2.6591483    172.04506  0.097531216   0.10678861            1 
  148000    1.2263533   -2.6417694    172.73384  0.097260047   0.10673866            1 
  149000    1.1967638   -2.6535019    174.16507  0.097407755   0.10668281            1 
  150000    1.2397945    -2.649888    176.68734  0.098159632   0.10664143            3 
  151000    1.2382592   -2.6568985    177.18325   0.09778325   0.10660073            1 
  152000    1.2271121   -2.6461814    177.65554  0.097398868   0.10656427            2 
  153000    1.2452964   -2.6862631    180.07844  0.098081938   0.10651992            1 
  154000    1.2108222   -2.6223388    181.33646   0.09812579   0.10647583            1 
  155000     1.243016   -2.6405073    181.80115  0.097742556   0.10642806            1 
  156000    1.2163478   -2.6598788    183.91517   0.09824528   0.10638769            4 
  157000    1.2055923    -2.634617    185.15596  0.098278108   0.10634623            1 
  158000    1.2236734   -2.6556713    185.62423  0.097903072   0.10631064            1 
  159000    1.2180846   -2.6294939    185.91638  0.097440453   0.10626988            3 
  160000    1.2076979   -2.6809766    187.23482  0.097518136   0.10622999            1 
  161000    1.2333836   -2.6436396     190.5937  0.098650985   0.10619377            1 
  162000    1.2537443   -2.6269132    192.38069   0.09896126   0.10616267            1 
  163000    1.2121774   -2.6735495    192.05636  0.098188324   0.10612416            1 
  164000    1.2193774   -2.6599016    193.76251  0.098456558   0.10609108            1 
  165000    1.2360278   -2.6766387    194.80738  0.098387565   0.10607211            1 
  166000    1.2233636   -2.6408289    195.95282   0.09836989   0.10605224            1 
  167000    1.2424206    -2.630557    198.02077  0.098812762   0.10603469            2 
  168000    1.2131128   -2.6473767    199.40495  0.098911184   0.10602292            2 
  169000    1.2568512   -2.6594055    200.52452  0.098877967   0.10601272            1 
  170000     1.233271   -2.6732838    202.59165  0.099309633   0.10599902            2 
  171000    1.2364352   -2.6250284    203.97747  0.099404226   0.10598899            1 
  172000    1.2253104   -2.6804472    203.83074  0.098755203      0.10598            1 
  173000    1.2410669   -2.6741289    205.70836  0.099088803   0.10596776            1 
  174000    1.2064015   -2.6797637     207.3267  0.099294398   0.10595054            1 
  175000    1.2039902   -2.6256199    207.35654  0.098741209   0.10593367            1 
  176000    1.2314405   -2.6368534    209.63431  0.099258668   0.10591761            5 
  177000      1.21218   -2.6517959    210.34417  0.099032096   0.10591298            3 
  178000    1.2102289   -2.6187971    212.24754  0.099366826   0.10590435            1 
  179000    1.2131163   -2.6637602    212.07814  0.098732842   0.10589292            2 
  180000    1.2354443   -2.6737724    213.34217  0.098769523   0.10587587            1 
  181000    1.2204248   -2.6290079    215.58591  0.099256865   0.10586299            1 
  182000    1.2060183   -2.6367454    217.48321  0.099580226   0.10584773            2 
  183000    1.2542445   -2.6758477    217.07879  0.098851908   0.10583182            2 
  184000    1.2261883   -2.6158709    217.98311  0.098724232   0.10580607            3 
  185000    1.2216132   -2.6782201    219.40461  0.098830905   0.10577221            3 
  186000    1.2182516   -2.6892219    218.18562  0.097753414   0.10572772            2 
  187000    1.1960908    -2.676455    220.80891  0.098399694   0.10568419            2 
  188000    1.2130676   -2.6620184    221.05226  0.097984156   0.10562857            2 
  189000    1.2195651   -2.6617539    221.54694  0.097683837   0.10556672            2 
  190000     1.195814   -2.6800087    222.42495  0.097554803   0.10550195            2 
  191000    1.2360224   -2.6757172    223.87141  0.097675136   0.10543738            1 
  192000    1.2147551   -2.6697567    225.61957  0.097925161   0.10536744            1 
  193000    1.2200598   -2.6516188    226.24915  0.097689616   0.10529598            1 
  194000    1.2209489    -2.650247    226.61147  0.097341696   0.10522015            2 
  195000     1.225393   -2.6633585    228.46945  0.097636517   0.10514727            1 
  196000    1.2320363   -2.6631412    229.32791  0.097503364   0.10507309            1 
  197000    1.2239947   -2.6341066    230.00914   0.09729659   0.10500601            1 
  198000    1.2106498   -2.6848448     233.2279  0.098159891   0.10493976            1 
  199000    1.2293786   -2.6522552    233.44194  0.097756256   0.10488135            3 
  200000     1.240868   -2.6539588    234.36971  0.097654047   0.10482155            1 
  201000    1.2345708   -2.6640969    237.10716  0.098303135   0.10476827            3 
  202000    1.2183817   -2.6416994    239.41728  0.098769505   0.10472651            2 
  203000    1.2190125   -2.6685212    239.41237   0.09828094   0.10468808            1 
  204000    1.2149401   -2.6597815    240.69517   0.09832319   0.10464784            1 
  205000    1.2044059   -2.6620422    242.19844  0.098454649   0.10461028            1 
  206000     1.214109   -2.6636797    242.25478  0.097999506    0.1045681            1 
  207000    1.2105661   -2.6508965    242.97718  0.097816901   0.10452756            2 
  208000     1.206418   -2.6461954    246.00932  0.098561425   0.10449347            1 
  209000    1.2239078   -2.6639681    246.44723  0.098264447   0.10445328            1 
  210000    1.2039463   -2.6658804    246.44196  0.097794429   0.10441204            1 
  211000     1.219653   -2.6255593    248.20433  0.098026986   0.10436079            3 
  212000    1.2135396   -2.6479051    248.78945  0.097794595   0.10431256            1 
  213000    1.2185625   -2.6643196    249.40223  0.097575207   0.10426372            3 
  214000    1.2171539   -2.6698987    251.54436   0.09795341   0.10421527            2 
  215000    1.2418057   -2.6488496    253.82541  0.098381943   0.10416626            1 
  216000    1.2346145   -2.6676411    252.49752  0.097414167    0.1041082            2 
  217000    1.2104127   -2.6537745    253.82134  0.097473631   0.10404683            5 
  218000    1.2431104   -2.6364033    255.78497   0.09777713   0.10398984            2 
  219000    1.2214802   -2.6971958    257.04592  0.097810473   0.10393788            4 
  220000     1.229335   -2.6755891    257.21071  0.097428297   0.10388989            2 
  221000     1.230892   -2.6410671    258.20516  0.097362427    0.1038354            3 
  222000    1.2027229   -2.6674762    258.84131  0.097162655   0.10377832            2 
  223000    1.2153183   -2.6738177    262.21325  0.097987014   0.10372433            3 
  224000    1.2521811   -2.6752124    261.45761  0.097268457   0.10366692            2 
  225000    1.2241696   -2.6614635    263.48879  0.097588441   0.10361134            1 
  226000    1.2067591   -2.6840945    264.17596  0.097410015   0.10356394            1 
  227000    1.2253865   -2.6713075    265.06199  0.097306164   0.10350928            2 
  228000     1.233594   -2.6868693     265.2977  0.096965532   0.10345621            1 
  229000    1.2139061   -2.6523556    267.73265  0.097428185   0.10339746            2 
  230000    1.2156913   -2.7008139    267.89109  0.097061989   0.10334026            1 
  231000     1.202016   -2.6766757    269.47818  0.097214349   0.10329115            5 
  232000    1.2306876   -2.6978064    270.99426  0.097339891   0.10324699            1 
  233000    1.2231692   -2.6986365    272.69355  0.097529881   0.10320927            2 
  234000    1.2161813   -2.6365249    274.84133  0.097877965   0.10316951            1 
  235000    1.2161098   -2.6677994    275.88214  0.097830547   0.10313151            1 
  236000    1.2328201   -2.6708136    277.37797    0.0979442   0.10309628            1 
  237000    1.2446886   -2.6733333    278.82122  0.098038403   0.10306095            2 
  238000    1.2270577   -2.7062278    279.17958  0.097751954   0.10302364            2 
  239000    1.2292051   -2.6714743    281.33749  0.098095361   0.10298644            1 
  240000    1.2165808    -2.691602    280.42551  0.097369969   0.10294527            1 
  241000    1.1838503   -2.6608646     282.9933  0.097853838   0.10290901            2 
  242000    1.1776868   -2.6544197    283.54527  0.097639555   0.10286757            3 
  243000     1.251927   -2.6857452    283.85486  0.097343915   0.10282795            1 
  244000    1.1938602   -2.6631541    286.81458  0.097955799   0.10279383            2 
  245000    1.2066485   -2.6732331     287.7421  0.097871462   0.10275398            2 
  246000    1.2297202   -2.6676053    287.95099  0.097544372   0.10271376            1 
  247000    1.2060102   -2.6525388    289.82972  0.097783306   0.10268015            2 
  248000    1.1867917   -2.6971615    290.17882  0.097506325   0.10264819            2 
  249000    1.1817175   -2.6838358    293.27918  0.098152336   0.10261392            1 
  250000    1.1963104   -2.6612681    295.20914  0.098403047   0.10258605            1 
  251000    1.2109881   -2.6780771    295.55499  0.098125825    0.1025616            2 
  252000     1.194089   -2.6472376    295.93752  0.097862935   0.10253716            3 
  253000    1.1741724   -2.6894436    297.73311  0.098067559   0.10251332            2 
  254000     1.210354   -2.6647908    298.83799  0.098043959   0.10249495            1 
  255000    1.1981273   -2.6935141    300.85493  0.098318606   0.10247571            2 
  256000    1.2069581   -2.6696339    301.88142  0.098268692   0.10245507            2 
  257000    1.2044117   -2.6754756    303.13252  0.098291996   0.10244152            2 
  258000    1.2118558   -2.6947216    303.25689  0.097951192   0.10241832            3 
  259000    1.2021962   -2.6937163    304.27445  0.097900403   0.10239914            2 
  260000    1.2289162   -2.6667884    306.07228  0.098100091   0.10238242            1 
  261000    1.1819255   -2.6810762    306.78895  0.097953048   0.10236467            2 
  262000    1.2056374   -2.6467793    309.36083  0.098397209   0.10234461            1 
  263000    1.1750586   -2.6903664    307.90184  0.097560787   0.10231742            1 
  264000     1.218396   -2.6942145    311.22062   0.09823883   0.10228661            2 
  265000    1.2298456   -2.6794037    310.22072  0.097553685   0.10225432            1 
  266000    1.1916964   -2.6432934    313.26863  0.098141803   0.10222734            1 
  267000    1.1942516    -2.669332    313.72255  0.097915902   0.10219886            2 
  268000    1.1862648   -2.6757562    313.73941  0.097555787   0.10216935            2 
  269000    1.1895999   -2.6601176    315.40707  0.097709748    0.1021389            2 
  270000    1.2060256   -2.7097099     316.1619  0.097580833   0.10211085            1 
  271000    1.2245906   -2.6728043    317.29199  0.097568263   0.10208092            2 
  272000    1.2146558   -2.6976552    317.23135  0.097190978   0.10205322            3 
  273000    1.2086886   -2.6850495    319.89249   0.09764728   0.10202257            1 
  274000    1.2168789   -2.6466297     321.9865  0.097927767   0.10199717            3 
  275000    1.2174014    -2.684379    323.22914  0.097948224   0.10196721            2 
  276000     1.208871   -2.6758748    324.89127  0.098095191   0.10194001            1 
  277000    1.2107707   -2.6823012    325.28913  0.097860749   0.10191544            1 
  278000    1.2232444   -2.6571552    327.92465  0.098298757   0.10189495            2 
  279000    1.1999816   -2.6602942     329.5467  0.098430913   0.10187746            2 
  280000     1.216022   -2.6723151    329.50137  0.098065884   0.10186068            2 
  281000    1.2137233   -2.6707612    332.75112  0.098680639   0.10184506            1 
  282000    1.1886406   -2.6468587    334.54853  0.098861858   0.10183804            1 
  283000    1.2147003   -2.6563486    333.39965  0.098174219   0.10183107            1 
  284000    1.2270358    -2.686871    336.00094  0.098591823   0.10182157       -1e+20 
  285000    1.2076809   -2.6494196    337.56665  0.098703697   0.10181348            2 
  286000    1.2146427   -2.6751331    338.26579  0.098562292   0.10180482            1 
  287000    1.1892972   -2.7018554    340.25819  0.098797384   0.10179782            2 
  288000    1.1915342   -2.6887347    342.05218  0.098973432   0.10178914            1 
  289000    1.1889336   -2.6690833    342.51496  0.098764406   0.10178181            1 
  290000    1.2265878   -2.6368974    343.57751   0.09872917   0.10177649            1 
  291000     1.196342   -2.6832223    346.28006  0.099163821    0.1017763            1 
  292000    1.2078684   -2.6928865    347.98094  0.099309628   0.10177531            1 
  293000    1.2151514   -2.6929673    348.65474  0.099162328    0.1017772            1 
  294000    1.1923998   -2.6597624     349.5873  0.099089372   0.10177886            3 
  295000    1.1813686   -2.6504891    351.03057  0.099161179   0.10177821            1 
  296000    1.1861764   -2.6917507     352.9011  0.099352786   0.10177832            1 
  297000    1.1792058   -2.7026731     353.3272  0.099137821    0.1017815            2 
  298000    1.2200102   -2.6663667    355.24649  0.099341858   0.10178485            1 
  299000    1.1988365   -2.6922356    357.37108  0.099601749    0.1017851            3 
  300000    1.1897749   -2.6923969    355.35013  0.098708368    0.1017814            4 
  301000    1.2022843   -2.6792122    359.66702  0.099575586   0.10178102            1 
  302000    1.2051019   -2.7137892     359.1784  0.099111037   0.10178112            2 
  303000    1.2100433   -2.6896642    361.12138  0.099318312   0.10177924            1 
  304000    1.1714753   -2.6962211    361.77612  0.099171086   0.10178117            2 
  305000    1.2247861   -2.6929963    362.43216  0.099025181   0.10178154            1 
  306000    1.1942037   -2.6988509    363.04743  0.098869126   0.10178155            4 
  307000    1.1974864   -2.6599492    365.42786  0.099193231   0.10178207            2 
  308000    1.1900138   -2.7096071    365.49537   0.09888944   0.10177826            2 
  309000    1.2009611   -2.6674201    365.95584  0.098693593   0.10177333            1 
  310000    1.2340639   -2.6956778    365.85745  0.098348777   0.10176928            3 
  311000    1.1937993   -2.7089082    367.97544  0.098600065   0.10176197            3 
  312000    1.1948018   -2.6966002    368.60249  0.098451519   0.10175495            1 
  313000    1.1834278   -2.6784567    371.65624   0.09895001   0.10174398            1 
  314000    1.1992161   -2.6726817    370.34792  0.098287664   0.10173132            3 
  315000    1.2053811   -2.6849764    372.60602   0.09857302   0.10171427            1 
  316000    1.2149578   -2.6464851    374.08247  0.098650441    0.1016965            1 
  317000    1.1986395   -2.6755441    374.33343  0.098405212   0.10167794            1 
  318000    1.2068339   -2.6791498    375.14031   0.09830721   0.10165834            2 
  319000    1.1964284   -2.7029501    376.08004  0.098244526   0.10163964            2 
  320000    1.1970696   -2.7090995    376.52417  0.098053169   0.10161995            2 
  321000    1.1906499   -2.6711452    379.98906  0.098647211   0.10159748            1 
  322000    1.1891267   -2.7255024    377.68201   0.09774379   0.10157632            1 
  323000    1.2401084   -2.6767993    382.73715  0.098745395   0.10155683            2 
  324000    1.2072176   -2.6891209    379.76421   0.09767598    0.1015386            3 
  325000    1.1635824   -2.6727868    382.65677   0.09811712    0.1015182            2 
  326000    1.2139235   -2.6982143    382.89414  0.097876826   0.10149449            1 
  327000    1.2194016   -2.6466243    384.10979  0.097887307   0.10147619            1 
  328000     1.184033   -2.6766611    387.18048  0.098369023   0.10145562            2 
  329000    1.2020543   -2.6751844    387.27831   0.09809481   0.10143759            3 
  330000    1.2140205   -2.6763138    388.28092  0.098050738   0.10142091            3 
  331000    1.1782618    -2.680696    388.75861  0.097874775    0.1014019            3 
  332000      1.15532   -2.6874245    389.11146  0.097668539   0.10137933            1 
  333000    1.1865696   -2.6838632     391.4127  0.097951126   0.10135742            3 
  334000    1.2149332   -2.6802313    392.72093  0.097984265   0.10133549            1 
  335000    1.2025514   -2.6910811    394.85653  0.098223018    0.1013173            2 
  336000    1.1795636   -2.7039848    394.18155   0.09776328    0.1012949            2 
  337000    1.2206298   -2.6858401    396.71829  0.098100468   0.10127784            2 
  338000    1.1839938   -2.6892254    398.45786  0.098239118   0.10125946            1 
  339000    1.2116794   -2.6758772    399.30119  0.098156636   0.10124356            2 
  340000    1.1868303   -2.6813185    399.62253  0.097946699   0.10122958            2 
  341000    1.2179977   -2.6692772    400.81397  0.097950628   0.10121005            2 
  342000    1.1956238   -2.6977493    400.93724  0.097694258    0.1011897            1 
  343000    1.2147386   -2.6795437    403.13644  0.097943742   0.10116597            1 
  344000    1.1873443   -2.6693081    403.68464  0.097791822   0.10114412            1 
  345000    1.1924551   -2.6949531    404.43562  0.097689764   0.10112191       -1e+20 
  346000     1.188384   -2.6928968    407.65065  0.098181756   0.10109914            2 
  347000    1.2095119   -2.7007322    407.57906  0.097881619   0.10107423            2 
  348000    1.1856759   -2.6496955    407.42469  0.097563383   0.10105033            4 
  349000    1.1967723   -2.6830349    407.42213  0.097283221   0.10102198            1 
  350000    1.2071682   -2.6839065    409.63482    0.0975321   0.10099076            2 
  351000    1.2135969   -2.6472852    411.25862  0.097639748   0.10095781            1 
  352000    1.2070658   -2.7043457    410.05338   0.09707703   0.10092578            2 
  353000    1.2024655   -2.6709469    414.29506  0.097803365   0.10089361            3 
  354000    1.2009643   -2.6970434     412.2458   0.09704468   0.10086438            3 
  355000    1.1843655   -2.6768679    415.62697  0.097565017   0.10083862            2 
  356000    1.1739586   -2.6689359    417.77136   0.09779292   0.10081415            2 
  357000    1.2195357   -2.6995734     417.1206  0.097367087    0.1007871            1 
  358000    1.1894139   -2.6972886    417.33227  0.097144383   0.10076102            4 
  359000    1.1935804   -2.6789778    419.42461  0.097359473   0.10073716            1 
  360000    1.1770397   -2.6689758    420.18927  0.097266035   0.10071224            1 
  361000    1.1757215   -2.7226703    420.76646  0.097129838   0.10068587            1 
  362000    1.2061737   -2.6947737    423.61521  0.097517314   0.10065973            2 
  363000    1.1586865    -2.694626    424.54272  0.097461597   0.10063574            1 
  364000    1.2034042   -2.6883075    425.94018  0.097513777   0.10061011            2 
  365000    1.2083583   -2.6919488    426.79047  0.097440746   0.10058709            2 
  366000    1.2047531   -2.6841672    428.41382  0.097544131   0.10056383            1 
  367000     1.208976   -2.6915678    429.99925  0.097638339   0.10054063            1 
  368000    1.1948659   -2.6766215    430.91658  0.097580747   0.10052444            2 
  369000    1.2089594   -2.7000962    433.22097  0.097836713   0.10050829            3 
  370000    1.1951684   -2.6884544    431.16151  0.097108448   0.10049097            3 
  371000    1.1988757   -2.6734719    435.62577  0.097849453   0.10047443            1 
  372000    1.2101312   -2.7069315    435.40838   0.09753772   0.10045989            1 
  373000    1.1919016   -2.6802305    438.09684  0.097876863   0.10044392            1 
  374000    1.1875607   -2.7082086    438.93107   0.09780104   0.10042684            1 
  375000    1.1729515   -2.6956537    440.48016  0.097884479   0.10041133            2 
  376000    1.2198938   -2.6736065    441.52474  0.097855661   0.10039693            2 
  377000    1.1911642   -2.6766225     441.7721  0.097650773   0.10038483            2 
  378000    1.2033245   -2.6637846    443.85287  0.097851162   0.10037107            2 
  379000    1.1835189   -2.7044907    442.56953  0.097310803   0.10035067            2 
  380000    1.1814358   -2.6860257    445.92222  0.097789961   0.10033079            1 
  381000    1.2047684   -2.6994441    445.39949  0.097418961   0.10030927            2 
  382000    1.1880448   -2.6693254    447.09883   0.09753465   0.10029074            2 
  383000     1.176803   -2.7324273    449.26254   0.09775077   0.10027155            2 
  384000    1.1965281   -2.6966461    450.42667  0.097748843   0.10025383            2 
  385000    1.2128264   -2.6992563    449.71618  0.097341165   0.10023656            3 
  386000    1.1802453   -2.7232911    451.29374  0.097429563   0.10021848            1 
  387000    1.2082697   -2.6835699    453.42934  0.097637671   0.10020047            2 
  388000    1.1928942   -2.6620487    452.16398  0.097114257   0.10017752            2 
  389000    1.1896762   -2.7072223    453.35372  0.097119477   0.10015468            2 
  390000    1.1794965   -2.6988815    455.38834    0.0973052   0.10013071            1 
  391000    1.1933848   -2.7088167    456.64683  0.097324559   0.10011109            6 
  392000    1.1975131   -2.6844949    459.37648  0.097656565   0.10009167            2 
  393000    1.1867003   -2.6660976    460.11392  0.097564445   0.10007254            1 
  394000    1.1846646   -2.7025943     460.6938  0.097439466   0.10005706            1 
  395000    1.1824255   -2.6937257    461.44876  0.097352059    0.1000423            4 
  396000    1.1693156   -2.7269574    464.32129  0.097710708   0.10002723            1 
  397000    1.1867224   -2.7000544    464.54101  0.097510707   0.10000995            1 
  398000    1.2086529   -2.6839359    465.45252  0.097456558  0.099997936            1 
  399000    1.1902625   -2.6870713    470.68688   0.09830553  0.099988535            2 
  400000    1.1973276   -2.7064778     467.3263  0.097359646  0.099978385            2 
  401000    1.1868673   -2.7204558    470.95638  0.097871235  0.099967568            4 
  402000    1.1779706   -2.6807197    472.59369  0.097967182  0.099956174            3 
  403000    1.2075809   -2.6899206    472.56741  0.097718653  0.099944155            2 
  404000    1.1862288    -2.708342    472.77191  0.097518959  0.099931689            1 
  405000    1.1892865   -2.7154193     474.1419  0.097560061  0.099918776            2 
  406000     1.197859    -2.689861    474.67106  0.097428378  0.099903631            1 
  407000    1.2022131   -2.7072952    475.52675  0.097364199  0.099886334            2 
  408000    1.2108561    -2.656149    478.93364  0.097821413  0.099870539            3 
  409000    1.1830145    -2.683127    479.94044  0.097787375  0.099855802            1 
  410000     1.186929   -2.6884557    480.05561  0.097572278  0.099843666            2 
  411000    1.1855091   -2.6824497    482.65627   0.09786218  0.099829339            1 
  412000    1.2058929   -2.7034331    480.95589  0.097280721   0.09981345            4 
  413000    1.1955097   -2.6796806    483.79055   0.09761714  0.099798347            2 
  414000    1.1883961   -2.6877695    484.00252  0.097424017  0.099781609            4 
  415000    1.1763751   -2.6742081    486.36358   0.09766337  0.099766897            2 
  416000    1.2026278   -2.6808961    484.73588   0.09710254  0.099754409            2 
  417000    1.1764978   -2.7171943     486.7674   0.09727566  0.099738878            1 
  418000    1.1719547     -2.69443    487.43297  0.097175633  0.099723844       -1e+20 
  419000    1.1693806   -2.7036326    489.65302  0.097385246   0.09970434            3 
  420000    1.1903744   -2.7160009    488.99004  0.097021833  0.099685981            1 
  421000    1.1829657   -2.7248525    491.29179   0.09724699  0.099665255            1 
  422000    1.1890296   -2.6587783    496.52912  0.098050775  0.099648433            2 
  423000    1.1941476    -2.739417    492.59483  0.097043899  0.099630162            2 
  424000    1.1905868   -2.7038699    495.35946  0.097358385  0.099612096            1 
  425000    1.2079843   -2.7123641    495.01541  0.097061846  0.099596129            2 
  426000    1.1917758   -2.7024456    497.49448  0.097318951  0.099582178            2 
  427000    1.1853591   -2.7335218    498.20685  0.097230065  0.099567103            1 
  428000    1.1783847   -2.7190647    499.06527  0.097170029  0.099549645            2 
  429000     1.174315   -2.6922952     500.4774  0.097217832  0.099532422            2 
  430000    1.2015214   -2.7003784    503.75185  0.097626328  0.099517678            2 
  431000    1.2043193   -2.7144982    502.39942  0.097138325  0.099502151            1 
  432000    1.1847419   -2.6935301    505.35356  0.097483325  0.099487915            2 
  433000    1.1561411   -2.6973224    501.38226  0.096493892   0.09947098            2 
  434000    1.1411843   -2.6950861    506.21579  0.097199653  0.099452942            1 
  435000    1.1869919   -2.6767746    505.78058  0.096892832  0.099435668            2 
  436000    1.1740494   -2.6999616    508.58567  0.097206741  0.099417918            1 
  437000    1.1708943   -2.6842914     509.8681  0.097228852  0.099398525            3 
  438000    1.1956054   -2.7043908     507.7133  0.096596899  0.099379186            4 
  439000    1.1896619   -2.7037714    511.07111  0.097014258  0.099359513            1 
  440000    1.1773521   -2.7013482    513.50811  0.097255324  0.099339043            1 
  441000    1.1683212   -2.7368051    508.50465  0.096089313  0.099319892            2 
  442000    1.2001386   -2.7078931    517.03303  0.097479832  0.099301244       -1e+20 
  443000    1.1772521   -2.6779536    518.47353  0.097530763  0.099284371            1 
  444000    1.1801754   -2.7006317    517.00625  0.097035708  0.099266805            3 
  445000    1.1981799   -2.6876491    519.32139  0.097251197  0.099251058            3 
  446000    1.1517063   -2.7111578    519.15014  0.097001147   0.09923184            1 
  447000    1.1743964   -2.6982945    519.17578  0.096788923  0.099210863            2 
  448000    1.1799323   -2.7193051    519.84243  0.096696881  0.099192808            1 
  449000    1.1835399   -2.7104646    520.27211  0.096561268   0.09917296            1 
  450000    1.1956328   -2.7301482    522.15092  0.096694615  0.099153936            1 
  451000    1.1864577   -2.7248076    523.47584  0.096725026  0.099131804            1 
  452000     1.183421   -2.7130168    520.67629  0.095994891  0.099109049            1 
  453000    1.2103607    -2.695585    524.88816  0.096557792  0.099083075            4 
  454000    1.2037397   -2.7405795    523.60954  0.096110415  0.099057643            1 
  455000    1.1676396   -2.7303032    525.85373  0.096310206  0.099030409            1 
  456000    1.1771535   -2.7077879    525.97575  0.096121299  0.099005399            1 
  457000     1.217918   -2.6905993    525.59805  0.095842095  0.098978388            1 
  458000    1.1896327   -2.6843732    529.50414  0.096343547   0.09895089            2 
  459000    1.1581558   -2.6975907    528.03373  0.095866691  0.098922423            1 
  460000    1.1728479   -2.6912836    529.85034  0.095987381  0.098894801            1 
  461000    1.1983332   -2.6953397    531.08366  0.096002108  0.098867209            1 
  462000    1.1707826    -2.695368    533.25928  0.096186738  0.098841094            1 
  463000    1.1821193   -2.7004132    534.73861  0.096245249  0.098816562            1 
  464000    1.2220598   -2.6805012    537.15063  0.096471019  0.098794451            1 
  465000    1.1762385    -2.703037    536.91451  0.096221238  0.098771893            2 
  466000    1.1890881   -2.7225709    537.39876  0.096101352  0.098748023            2 
  467000    1.1715352   -2.6923751    540.26224  0.096406537  0.098724554            3 
  468000    1.1877329   -2.6993273    540.61794  0.096263879  0.098703171            1 
  469000    1.1628577   -2.7227159    542.18291  0.096336693  0.098681545            1 
  470000    1.2054227   -2.7181397    543.91127  0.096438168  0.098660841            2 
  471000    1.1706554   -2.7056894    546.67885  0.096723081    0.0986396            2 
  472000     1.180254   -2.6832115    545.45075  0.096301332  0.098618452            2 
  473000    1.1798797   -2.7136937    544.93614  0.096007071  0.098598267            1 
  474000    1.1736058   -2.7068944     548.2128  0.096380591  0.098577669            1 
  475000    1.1682972   -2.7182432     548.9205  0.096301842   0.09855742            3 
  476000    1.1697873   -2.7088725    546.86884  0.095740343  0.098533842            2 
  477000    1.1523837   -2.7147614    549.97342  0.096082009  0.098512564            3 
  478000    1.1885894   -2.6978399    551.02204  0.096063814  0.098491407            2 
  479000    1.2176325   -2.7049979    552.98613  0.096204963  0.098469882            3 
  480000    1.1928394   -2.7038604    555.24813  0.096397245  0.098449161            2 
  481000    1.1679598    -2.725091    554.21469  0.096017791  0.098427888            2 
  482000    1.1842214   -2.7134003    555.95668  0.096119758  0.098405768            3 
  483000    1.1520504    -2.689208    557.07718  0.096114075  0.098382344            2 
  484000    1.1458401    -2.702668    557.72425  0.096026902  0.098359129            1 
  485000    1.2046034   -2.7029264    558.87563   0.09602674  0.098336638            1 
  486000    1.1585426   -2.6985856    560.49688  0.096107148  0.098314887            2 
  487000    1.1622031   -2.7059475    560.50205  0.095910686  0.098293271            1 
  488000    1.1679331   -2.6996054    562.55466  0.096064661  0.098270601            1 
  489000    1.1865742   -2.7108958    561.96072  0.095766993  0.098249157            2 
  490000    1.1823731   -2.7142829    563.36773  0.095810838  0.098226784            2 
  491000    1.1821891   -2.7282316    563.60611  0.095656162   0.09820365            3 
  492000    1.1771943   -2.7240175    566.67039  0.095980757  0.098180568            2 
  493000    1.1719769    -2.718327    565.78955  0.095637179  0.098159926            2 
  494000    1.1888874   -2.6945446    568.96496  0.095979244    0.0981401            2 
  495000    1.1888457   -2.7167173    570.29442  0.096009161  0.098119758            2 
  496000    1.1787613   -2.6749902    573.64625  0.096378738  0.098101855            2 
  497000    1.1470924       -2.698     572.6973  0.096025705  0.098086913            2 
  498000    1.1751519   -2.6871375    575.39325  0.096284011   0.09806809            2 
  499000    1.1968155   -2.7129868    574.91965  0.096011966  0.098048648            2 
  500000    1.1399654   -2.7312065    575.30071  0.095883451  0.098030667            1 
  501000    1.1398481   -2.7134367    577.78689  0.096105604  0.098011606            1 
  502000    1.1808329   -2.7143045    575.98606  0.095615216  0.097990764            2 
  503000    1.1479047   -2.7105081    576.23654  0.095466624  0.097968449            1 
  504000    1.1553478   -2.6527051    580.59062  0.095997127  0.097946353            1 
  505000    1.1564275   -2.7243289    579.27745  0.095590338  0.097924485            2 
  506000    1.1525228   -2.7368943    579.47275  0.095433588   0.09790343            2 
  507000    1.1497422   -2.7097294    582.01711  0.095663561  0.097879956            3 
  508000    1.1593934   -2.7168098    581.79303  0.095438489  0.097857446            2 
  509000    1.1777587    -2.722186    582.93707   0.09543829  0.097836944            3 
  510000    1.1768145   -2.6858606     586.6809  0.095862891  0.097816717            2 
  511000     1.155392    -2.707871    586.44462  0.095636762  0.097796085            2 
  512000    1.1630887   -2.7245609      588.639  0.095807128  0.097772438            1 
  513000    1.1588025   -2.6827463    588.77723  0.095642825  0.097751611            2 
  514000    1.1773691   -2.7605964    586.26698   0.09504977  0.097729863            2 
  515000     1.147937   -2.6979431    591.71418  0.095746632  0.097710015            1 
  516000    1.1740844   -2.7164081    595.07542  0.096103911  0.097692943            2 
  517000    1.1708361   -2.6988368    594.23941  0.095783271  0.097676525            1 
  518000    1.1843462   -2.7332919    595.37728  0.095781416  0.097659567            3 
  519000    1.1834604   -2.7060938    595.97559  0.095692933  0.097642013            1 
  520000    1.1797197   -2.6997299    597.13294  0.095694381  0.097622594            2 
  521000    1.1633419   -2.7408116    597.63148  0.095590448   0.09760456            3 
  522000    1.1739783   -2.7405561    597.14827  0.095330183  0.097585671            2 
  523000    1.1613054   -2.7052851    600.06953  0.095613374  0.097563837            1 
  524000    1.1564466   -2.7191048    602.98891  0.095895182  0.097545573            1 
  525000    1.1563411   -2.6978376    604.21819  0.095907649  0.097525571            2 
  526000    1.1849955   -2.7413498    601.03123   0.09522041   0.09750626            1 
  527000    1.1812216   -2.7150638    604.20926  0.095542261  0.097484777            2 
  528000    1.1349327     -2.69207     604.8694  0.095465498  0.097464129            2 
  529000    1.1605738   -2.7286481    604.32396  0.095199111  0.097442613            1 
  530000    1.1650635   -2.7560056    605.24513  0.095164329  0.097419516            1 
  531000     1.159393    -2.692975     607.2713  0.095303091   0.09739654            1 
  532000    1.1946527   -2.7182858    607.78413   0.09520428  0.097373481            1 
  533000    1.1823391    -2.720745     608.4266  0.095126109  0.097352038            1 
  534000    1.1811727   -2.7213673     608.9433  0.095028604  0.097330359            1 
  535000    1.1931762   -2.7046483     609.9495   0.09500771  0.097308226            1 
  536000    1.1592316   -2.7336814    610.61006  0.094933157  0.097283316            4 
  537000    1.2031016   -2.7279609    609.78279  0.094627993    0.0972602            1 
  538000    1.1534993   -2.7451548    613.09377  0.094964958  0.097237554            2 
  539000    1.1793074    -2.704546    617.19691  0.095423146  0.097215605            2 
  540000    1.1650736   -2.6980907    617.33592  0.095267889  0.097194206            2 
  541000    1.1818531   -2.7095621    615.73737  0.094845559  0.097172563            1 
  542000     1.167696   -2.7185595    619.86037  0.095304485  0.097151176            2 
  543000    1.1815178   -2.7193981    621.96168  0.095451455  0.097132358            2 
  544000    1.1788799   -2.7293682    622.22137  0.095315773  0.097110406            2 
  545000    1.1980217   -2.7127756    621.27709  0.094996496   0.09708813            4 
  546000    1.1636262   -2.7306269    623.77435  0.095203655  0.097067372            1 
  547000    1.1839313   -2.7541795    623.41639  0.094975075  0.097047696            2 
  548000    1.1498888   -2.7281315    623.89429  0.094874436  0.097026589            3 
  549000     1.150598   -2.7280873    624.92946  0.094858752  0.097006055            1 
  550000    1.1675751   -2.7146792    625.35074  0.094750113  0.096983377            1 
  551000     1.160264    -2.688311    630.68997  0.095385657  0.096961469            1 
  552000    1.1433642    -2.755858    628.45667  0.094875706  0.096939829            2 
  553000     1.174213   -2.7400955    629.03079  0.094790655   0.09691885            3 
  554000    1.1572384   -2.7331535    631.38486  0.094973655  0.096897505            1 
  555000    1.1496228   -2.7293731    631.15733  0.094768368  0.096876218            3 
  556000    1.1595182    -2.723694    634.15832   0.09504771  0.096854619            2 
  557000     1.140464   -2.7162658    635.63777  0.095098409  0.096834932            1 
  558000    1.1560283   -2.7302314    637.30728  0.095177311  0.096813089            6 
  559000     1.172113   -2.7194738    636.62342  0.094905101  0.096794325            2 
  560000    1.1609428   -2.7138442    638.42199  0.095003273  0.096773493            1 
  561000    1.1591926   -2.7145356    641.63652  0.095311426  0.096753146            1 
  562000    1.1510103   -2.7440099    642.08958  0.095209013  0.096735217            1 
  563000    1.1675267   -2.7746245    640.09784  0.094745092    0.0967145            2 
  564000    1.1722414    -2.729447     642.2823  0.094899867  0.096695273            1 
  565000    1.1686532   -2.7215851    643.59141  0.094924987   0.09667633            2 
  566000    1.1827425   -2.7117405    645.78612  0.095080406  0.096658683            2 
  567000    1.1373451   -2.7449795    648.95372  0.095378266  0.096642916            3 
  568000    1.1452924   -2.7184555    647.47909  0.094993997  0.096627556            3 
  569000    1.1534503   -2.7303882    650.58505  0.095281935  0.096612553            2 
  570000     1.135477   -2.7105224    650.44737  0.095094644  0.096597592            1 
  571000    1.1640987   -2.7611194    651.33707   0.09505795  0.096581851            2 
  572000    1.1923966   -2.7368235    654.32938  0.095327706  0.096565879            2 
  573000    1.1796738   -2.7293919    652.19474  0.094850892  0.096550812            1 
  574000    1.1712684   -2.7350956      656.455  0.095304153  0.096535815            3 
  575000    1.1577931   -2.7295696    656.85167  0.095195894  0.096521174            2 
  576000    1.1763127   -2.7345113    659.32173  0.095387982  0.096507114            3 
  577000     1.165822   -2.7163849     660.0755  0.095331528  0.096494121            1 
  578000    1.1580101   -2.7099497    660.80792  0.095272192  0.096481113            1 
  579000    1.1450945   -2.7259555    663.77702  0.095534977  0.096469164            1 
  580000    1.1414201    -2.715716    663.33127  0.095306217  0.096456193            1 
  581000    1.1538974   -2.7499758    663.97177  0.095234046  0.096443517            3 
  582000    1.1590795   -2.7599693    664.18415  0.095100823  0.096428111            2 
  583000    1.1491771   -2.7315498     666.1742  0.095222156  0.096413287            3 
  584000    1.1616236    -2.719643    665.12878  0.094909928  0.096399575            4 
  585000     1.175025   -2.7430467    667.37634  0.095067854  0.096385003            4 
  586000    1.1223308   -2.7360487    666.09537  0.094723459  0.096369256            2 
  587000    1.1130764     -2.75151    667.79592   0.09480351  0.096352851            3 
  588000    1.1802052   -2.7239841    670.95478  0.095089963  0.096337236            1 
  589000    1.1511006   -2.7447799    672.94016  0.095209416  0.096323017            2 
  590000    1.1606968   -2.7190467     674.2679  0.095235579  0.096307909            1 
  591000    1.1389233   -2.7020848    674.50277  0.095107554  0.096292443            2 
  592000    1.1702011   -2.7361607    673.82292  0.094851199  0.096276076            3 
  593000    1.1704984   -2.7517244    679.24136  0.095452692  0.096263269            2 
  594000    1.1617687   -2.7296697     677.4593   0.09504199  0.096249325            2 
  595000    1.1477455   -2.6987563    680.18993  0.095264696  0.096236746            2 
  596000    1.1552287   -2.7069864    681.63614  0.095307067  0.096222978            3 
  597000    1.1818976   -2.7410669    679.47103  0.094845202  0.096207871            6 
  598000    1.1580819   -2.7509049    679.36381  0.094671657  0.096193186            1 
  599000    1.1826456   -2.7369207    678.93257  0.094453613  0.096177814            1 
  600000    1.1630066   -2.7511592    681.55794  0.094660825  0.096164609            2 
  601000    1.1404631   -2.7512452     685.4442   0.09504218  0.096151916            1 
  602000    1.1456486   -2.7427362    685.96901   0.09495695  0.096139964            2 
  603000    1.1758479    -2.746494    691.66188  0.095586219  0.096128364            2 
  604000     1.147394   -2.7362622    689.57377  0.095139869  0.096117259            2 
  605000    1.1513671   -2.7416054    688.47406  0.094831137  0.096104485            2 
  606000     1.139584   -2.7456208    689.20642   0.09477536  0.096091599            3 
  607000    1.1494736   -2.7158616    694.16027  0.095299323   0.09607809            1 
  608000    1.1358528   -2.7092671    695.99246  0.095393704  0.096068701       -1e+20 
  609000    1.1569282   -2.7286679    695.80983  0.095212073   0.09605729            2 
  610000    1.1652606    -2.734724    698.06385  0.095363914  0.096047316            2 
  611000     1.145093   -2.7195028    699.14911  0.095355852  0.096036845            1 
  612000    1.1399793   -2.7438744    696.63213  0.094857317  0.096025457            1 
  613000    1.1569267   -2.7361281    701.88355   0.09541647  0.096013746            1 
  614000    1.1935067   -2.7325013    702.50532  0.095345456  0.096003544            2 
  615000    1.1446746     -2.73372    703.14272  0.095276791   0.09599486            2 
  616000    1.1771652   -2.7358549    704.44469  0.095298253  0.095985459            2 
  617000     1.164423   -2.7499684    703.22953  0.094979677  0.095976666            2 
  618000    1.1567265    -2.732758    708.21506  0.095498255  0.095967588            3 
  619000    1.1195615    -2.739936     708.3198  0.095358078  0.095958924            2 
  620000     1.146563   -2.7187918    712.08381   0.09571019   0.09595208            1 
  621000    1.1567863   -2.7439499     713.3964  0.095732206  0.095944016            4 
  622000    1.1485528   -2.7153832    713.33277  0.095569771  0.095936188            5 
  623000    1.1617265   -2.7362837    713.77193  0.095475111  0.095930051            1 
  624000     1.162853   -2.7312388    716.46018  0.095681114  0.095923704            1 
  625000    1.1627946   -2.7486937    715.96658   0.09546221  0.095916247            4 
  626000    1.1593287    -2.730772    721.78103  0.096083736  0.095908539            1 
  627000    1.1351545   -2.7564835    719.91938  0.095683065  0.095902331            1 
  628000     1.150077    -2.730728    718.25137  0.095309364  0.095894822            3 
  629000    1.1717987   -2.7213635    719.13446  0.095274836  0.095886131            2 
  630000     1.153252   -2.7161938    720.97008  0.095366412  0.095877356            2 
  631000    1.1861043    -2.720039    719.55661  0.095028606  0.095869104            1 
  632000    1.1582616   -2.7347944    724.16198  0.095485493  0.095861142            2 
  633000    1.1617109    -2.710741    724.01539  0.095315349  0.095852551            2 
  634000    1.1498789   -2.7195687    725.22061  0.095323424  0.095845046            2 
  635000    1.1318724   -2.7328112    726.21038    0.0953032  0.095837801            1 
  636000    1.1278934   -2.7699293     721.7061  0.094563168  0.095828986            3 
  637000    1.1284922   -2.7482785    727.24082  0.095138778  0.095818957            2 
  638000    1.1516849   -2.7483756    727.30306  0.094997787  0.095810809            2 
  639000    1.1501984   -2.7213914    730.03375  0.095205236  0.095803278            1 
  640000    1.1390192   -2.7822297    729.97887  0.095049332  0.095793622            1 
  641000     1.161852   -2.7337198     734.6461  0.095507813  0.095785264            1 
  642000    1.1273635   -2.7556962    735.16331  0.095426182  0.095777901            2 
  643000    1.1449667   -2.7633076     735.7065  0.095348172  0.095770425            3 
  644000     1.133331   -2.7328476    736.58568  0.095313882  0.095762732            1 
  645000    1.1270331   -2.7825425    736.87059  0.095202919  0.095754161            2 
  646000    1.1651267   -2.7348339    737.80636  0.095176259    0.0957451            2 
  647000    1.1512341   -2.7322154    743.29647  0.095736279  0.095737895            2 
  648000    1.1577927    -2.744425    738.70442  0.094997996  0.095730144            2 
  649000    1.1416444   -2.7477058    742.22552  0.095303739  0.095721161            3 
  650000    1.1533265   -2.7747668    740.26658  0.094905971  0.095713048            1 
  651000    1.1445674   -2.7289316    742.50349   0.09504653  0.095703536            1 
  652000    1.1871001   -2.7323968    747.29117  0.095512675  0.095695726            3 
  653000    1.1285583   -2.7140717     742.4283  0.094745827  0.095686673            1 
  654000    1.1645904    -2.740399    749.36309  0.095484593  0.095676509            5 
  655000    1.1433391   -2.7438288    746.34057  0.094954271  0.095667863            3 
  656000    1.1414768   -2.7385707    744.42268  0.094565889  0.095658312            1 
  657000    1.1625188   -2.7103547    751.36077  0.095301974  0.095649783            1 
  658000    1.1543816   -2.7309401    752.02968  0.095241854   0.09564165            1 
  659000    1.1311083   -2.7526175      754.857  0.095454855  0.095632465            3 
  660000    1.1479156   -2.7397621    750.65277   0.09477939  0.095622433            2 
  661000    1.1322935   -2.7127379    753.65341  0.095014298  0.095612939            4 
  662000    1.1622102   -2.7522596    753.98634  0.094912682  0.095602668            2 
  663000    1.1485985   -2.7385709    755.03994  0.094901953  0.095592611            2 
  664000    1.1396017   -2.7184557    761.45984  0.095564739  0.095582524            2 
  665000    1.1787671   -2.7305184    759.41194  0.095164404  0.095573896            1 
  666000    1.1544263   -2.7338127    761.24408  0.095250761  0.095565561            2 
  667000    1.1472414   -2.7704564    756.78551  0.094550913  0.095557074            3 
  668000    1.1492833   -2.7465641    758.30008  0.094598313  0.095547325            2 
  669000    1.1526799   -2.7338762    764.26582  0.095200028  0.095538394            1 
  670000    1.1732344   -2.7291519    760.79407  0.094626128   0.09552831            2 
  671000    1.1550929   -2.7443279    762.11253  0.094648849  0.095518687            2 
  672000    1.1648546   -2.7340311    762.19136  0.094517778  0.095507312            1 
  673000    1.1269215   -2.7636679    765.56529  0.094795108  0.095496483            1 
  674000    1.1423359   -2.7365112    765.41526  0.094635913  0.095486616            2 
  675000    1.1527853   -2.7910145    766.50537  0.094630292  0.095476632            2 
  676000     1.122649   -2.7570643    768.54679  0.094741961  0.095465582            3 
  677000    1.1285139   -2.7329737    770.01229  0.094782409  0.095455287            1 
  678000    1.1377061   -2.7549258    773.21466  0.095036216    0.0954471            1 
  679000    1.1450538    -2.728177    772.99285  0.094869029  0.095438297            1 
  680000    1.1607615   -2.7695632    773.42253  0.094782172  0.095429496            1 
  681000    1.1619438   -2.7341095    775.22972  0.094864136  0.095421662            2 
  682000    1.1263441   -2.7286839    777.79006  0.095037886  0.095413377            4 
  683000    1.1276152   -2.7574755    778.40589  0.094973876  0.095406803            2 
  684000     1.130444   -2.7597284    776.77086  0.094635825  0.095399011            1 
  685000    1.1270977   -2.7429266    781.29838  0.095048464   0.09539135            5 
  686000     1.132411   -2.7531051    782.34773  0.095037382  0.095385002            3 
  687000    1.1455279   -2.7503543    784.12534   0.09511467  0.095377686            2 
  688000     1.128088   -2.7285208    783.62424  0.094915727  0.095369972            2 
  689000    1.1314251   -2.7564997    780.40812  0.094388984  0.095362486            1 
  690000    1.1466579   -2.7540266    782.93019  0.094556786  0.095356037            1 
  691000    1.1254866   -2.7544292     785.1976  0.094693391  0.095348268            3 
  692000    1.1535044   -2.7310405    789.39956  0.095062568   0.09533932            3 
  693000    1.1540833   -2.7283806    786.90399  0.094625299  0.095331359            1 
  694000     1.147256   -2.7764918     785.4745  0.094317303  0.095323031            3 
  695000    1.1156172   -2.7396398     790.0979  0.094735959  0.095314982            3 
  696000    1.1355979   -2.7533271    789.36752  0.094512395  0.095306545            2 
  697000    1.1350376   -2.7431105    790.41204  0.094501678  0.095299759            3 
  698000     1.133849   -2.7445047     793.4778  0.094732306   0.09528888            4 
  699000    1.1183186   -2.7767755    793.99943  0.094658968  0.095280248            2 
  700000    1.1376981   -2.7208547     797.1585  0.094899822  0.095272571            2 
  701000    1.1400172   -2.7392561    796.03011  0.094630303  0.095262976            2 
  702000    1.1440881   -2.7149333    799.16808  0.094868005  0.095253146            2 
  703000    1.1400086   -2.7352094    801.11117  0.094963391  0.095242458            1 
  704000    1.1266797    -2.737479    799.80659  0.094674076  0.095233177            2 
  705000    1.1359073   -2.7512372    799.55963  0.094510595  0.095223059            2 
  706000    1.1376526   -2.7446688    799.13523  0.094326633  0.095212362            1 
  707000    1.1663862   -2.7454355    805.30208  0.094920095  0.095202692            1 
  708000    1.1314923   -2.7572466    801.05469  0.094286099  0.095192058            1 
  709000    1.1667752   -2.7497616     802.5983  0.094334544  0.095181209            1 
  710000    1.1389872   -2.7461961    805.08069  0.094493038  0.095170062            1 
  711000    1.1318086   -2.7506371     803.7133  0.094199871  0.095157312            2 
  712000    1.1712257    -2.750477    802.02139  0.093869544  0.095145161            2 
  713000    1.1450142   -2.7788377    804.85853  0.094069487  0.095132988            2 
  714000    1.1363821   -2.7757188    806.43807   0.09412209  0.095121249            1 
  715000    1.1551186   -2.7446597    807.47382  0.094111167  0.095109142            4 
  716000    1.1372061   -2.7169397    812.63571  0.094580506  0.095098773            1 
  717000     1.134051   -2.7974761    804.81225  0.093539313  0.095085686            1 
  718000    1.1321832   -2.7594271    810.39449  0.094056928  0.095074365            1 
  719000    1.1500363   -2.7288711    812.96633  0.094224192  0.095061999            3 
  720000    1.1296544   -2.7481708     815.9807   0.09444221  0.095050458            1 
  721000     1.110119   -2.7692949    816.02662   0.09431653  0.095039305            1 
  722000    1.0993451   -2.7667704      815.964   0.09417867  0.095028011            2 
  723000    1.1449293   -2.7587598     815.0893  0.093947591   0.09501598            1 
  724000      1.15014   -2.7541356    817.49355  0.094094561  0.095004367            1 
  725000    1.1306068   -2.7359598    818.25602  0.094052416  0.094992945            2 
  726000     1.115344   -2.7462567    821.80202  0.094329892  0.094981934            2 
  727000    1.1452978   -2.7586369    823.56619   0.09440236  0.094971643            1 
  728000    1.1342261   -2.7698364    823.72455  0.094290813  0.094960647            2 
  729000    1.1302948   -2.7646669    821.97558  0.093961544  0.094949671            1 
  730000    1.1304891   -2.7713025    824.94946  0.094172313  0.094937957            3 
  731000    1.1481291   -2.7382001    824.21696  0.093959982  0.094927169            1 
  732000       1.1406   -2.7622661    824.97769  0.093918225  0.094916133            2 
  733000    1.1457216   -2.7845096    828.58504   0.09420021  0.094904892            1 
  734000    1.1320547   -2.7220642    830.17712  0.094252625  0.094893236            4 
  735000     1.119545   -2.7464117    829.18426  0.094011821  0.094882868            3 
  736000    1.1440716   -2.7418021    832.40737  0.094249023  0.094870931            1 
  737000     1.168768   -2.7560726    831.00699  0.093962799  0.094858941            2 
  738000    1.1259383   -2.7655133    829.97958  0.093719465  0.094847656            1 
  739000    1.1258926   -2.7613149    831.70297  0.093786983  0.094835811            2 
  740000    1.1223155   -2.7718458    834.05442  0.093925048  0.094824403            2 
  741000    1.1536769   -2.7196635    837.89762  0.094230502   0.09481301            1 
  742000    1.1326861   -2.7421806    833.71289  0.093633523  0.094801332            2 
  743000    1.1293192   -2.7660098    836.50959  0.093821174  0.094790183            2 
  744000    1.1311737   -2.7726147    838.09889  0.093873083  0.094778525            2 
  745000    1.1499998   -2.7398264    835.40985  0.093446292  0.094768003            3 
  746000    1.1011335   -2.7646313    839.89592  0.093822153  0.094756158            2 
  747000     1.119628   -2.7521636    842.22865  0.093956788   0.09474452            1 
  748000    1.1264809   -2.7343929    844.92918  0.094132039  0.094732461            6 
  749000    1.1407465   -2.7310393    842.83299   0.09377314  0.094719868            2 
  750000    1.1709721   -2.7891636    842.63109  0.093625677  0.094706465            2 
  751000    1.1249476   -2.7630913    840.12132  0.093222517  0.094692188            2 
  752000    1.1165893   -2.7279957    845.28524  0.093670793  0.094677559            2 
  753000    1.1182176   -2.7784161    843.84061  0.093386521  0.094661247            3 
  754000    1.1351069   -2.7374645    845.41234  0.093436377  0.094646002            2 
  755000    1.1235578    -2.760612    842.65482  0.093008258  0.094629374            1 
  756000    1.1339766   -2.7675698    846.27104  0.093283845  0.094613492            1 
  757000    1.1043205   -2.7691913    847.32803  0.093276974  0.094597504            2 
  758000    1.1061467   -2.7628179    849.77799  0.093423261  0.094581857            1 
  759000     1.166738   -2.7555341    848.18173  0.093124916  0.094565523            3 
  760000    1.1291665   -2.8000399    845.54483  0.092713248  0.094550488            2 
  761000    1.0874693   -2.7696471    846.70356  0.092718305  0.094534017            1 
  762000    1.1390334   -2.7700582    855.05968  0.093510464  0.094517859            2 
  763000    1.0983949   -2.7694328    852.02691  0.093056674  0.094501035            2 
  764000    1.1230973   -2.7482094    853.88389  0.093137423  0.094483727            2 
  765000    1.1486642   -2.7577709     857.2151  0.093378551  0.094467418            2 
  766000    1.1345905    -2.752112    856.35259  0.093162814  0.094450141            4 
  767000    1.1401667   -2.7681528    856.49602  0.093056934  0.094433491            2 
  768000    1.1395908   -2.7573743    853.23534  0.092581959  0.094415822            1 
  769000    1.1051165   -2.7860864    855.02367  0.092655361  0.094397889            3 
  770000    1.1380647   -2.7788515    858.10194  0.092868176  0.094380383            2 
  771000    1.1476711   -2.7685366     860.0386  0.092957047  0.094363505            1 
  772000    1.0995884   -2.7582696    861.70834  0.093016876  0.094346035            1 
  773000    1.1251321   -2.7361241    863.23498  0.093061123  0.094328714            3 
  774000    1.1319025   -2.7478895    862.04095  0.092812333  0.094312047            2 
  775000    1.1124746   -2.7644234     866.0391  0.093122484  0.094295437            1 
  776000    1.1119133   -2.7712839    865.32662  0.092925969  0.094278234            2 
  777000     1.119277   -2.7738898    868.13866  0.093107964  0.094261043            3 
  778000    1.1401718   -2.7639064    868.28897  0.093004388  0.094243662            1 
  779000    1.1186993   -2.7810638    871.05674  0.093181081  0.094225243            2 
  780000    1.1351547   -2.7782987    865.40747  0.092458062  0.094208758            1 
  781000    1.1239949   -2.7888175    866.90204  0.092499151  0.094192418            1 
  782000    1.1111498   -2.7692768    869.41752  0.092648925  0.094174377            5 
  783000    1.1306777    -2.744067    870.95064  0.092693768  0.094156825            1 
  784000    1.1224876   -2.7666895    871.35333  0.092618338  0.094141449            1 
  785000    1.1251079   -2.7544632    875.07919   0.09289588   0.09412526            3 
  786000    1.1310747   -2.7636034    874.69239  0.092736683  0.094108556            2 
  787000    1.1082959   -2.7548108    874.25354  0.092572378   0.09409281            2 
  788000    1.1060526   -2.7504362    875.54893  0.092591892  0.094076433            1 
  789000    1.1257489   -2.7676281    880.64482  0.093012761  0.094060805            3 
  790000    1.1218635    -2.770361    882.70686  0.093112538  0.094045548            1 
  791000    1.1227277   -2.7729581    882.31334  0.092953365  0.094030205            1 
  792000    1.1358551   -2.7442623    887.26041  0.093356525   0.09401484            1 
  793000    1.1302294   -2.7827143    879.48948  0.092422181  0.093998657            3 
  794000    1.1146495    -2.761362    883.23728  0.092699127  0.093983175            1 
  795000    1.1396207   -2.8023194    881.81795  0.092433747   0.09396749            1 
  796000    1.0963747   -2.7862235    884.39909  0.092587844  0.093952161            1 
  797000    1.1214114   -2.7888351    884.38183  0.092469869  0.093935377            2 
  798000    1.1108907   -2.7843414    887.23839  0.092652296  0.093920213            2 
  799000    1.1289111   -2.7782081    888.20444  0.092637092  0.093906174            2 
  800000    1.1573789   -2.7838203    891.17388  0.092830613  0.093890916            2 
  801000    1.1093159   -2.7753735    889.98692  0.092591232  0.093875612            4 
  802000    1.1351873   -2.7712331    894.49493  0.092944194  0.093861704            4 
  803000    1.1209913   -2.7741422    896.50092  0.093036625  0.093848674            1 
  804000     1.144651   -2.7416856    899.17095  0.093197652  0.093835385            1 
  805000    1.1230873   -2.8064973    898.33958  0.092995815  0.093821748            1 
  806000    1.1122398   -2.7683575    901.08833  0.093164632  0.093808231            2 
  807000    1.1198426   -2.7798918     902.1037  0.093154038   0.09379574            1 
  808000    1.1420628   -2.7532676    901.54419  0.092981042   0.09378287            3 
  809000    1.1222611   -2.7887847    902.66517  0.092981579  0.093770229            1 
  810000    1.1228363   -2.7747858    899.96603  0.092589098   0.09375839            1 
  811000    1.1213807   -2.7908656    903.87891  0.092876995   0.09374482            1 
  812000    1.1498218   -2.7833149     907.1325  0.093096521  0.093731426            3 
  813000    1.1196221   -2.7868389    906.17135  0.092883492   0.09371851            1 
  814000    1.1359076   -2.7728644    906.50724  0.092803771  0.093704745            1 
  815000    1.1423084   -2.7736399    908.15127  0.092858003  0.093691524            1 
  816000    1.1166753   -2.7721275    907.47508  0.092675151  0.093678428            1 
  817000    1.1385836   -2.7897594    907.96434  0.092611621  0.093664735            2 
  818000    1.1405016   -2.7523437    913.03454  0.093014929  0.093652286            2 
  819000    1.1306629   -2.7654067    912.17158  0.092813551  0.093639462            4 
  820000     1.094481   -2.7807759    912.41815  0.092725421  0.093626421            2 
  821000    1.1365082   -2.7716133    910.16528  0.092383809   0.09361332            6 
  822000    1.1323897   -2.7613589    916.50431  0.092914062  0.093600973            3 
  823000    1.1146566   -2.7794932    912.92811  0.092439055  0.093588218            2 
  824000    1.1108671   -2.7759546       917.05  0.092743729  0.093574236            1 
  825000    1.1309545   -2.7915408     917.0412  0.092630424  0.093560793            2 
  826000    1.0982538   -2.7822523    920.06549  0.092823395  0.093547055            6 
  827000    1.1455321   -2.7633876     921.1592  0.092821363   0.09353276            1 
  828000    1.1187705   -2.7929466    915.13588  0.092103048   0.09351873            3 
  829000    1.0907698   -2.7648623    920.48076  0.092529228  0.093504236            3 
  830000    1.1208589    -2.781706    925.00988  0.092872478   0.09349113            3 
  831000    1.1182712   -2.7444457     921.9394  0.092452808  0.093476352            1 
  832000    1.1023801   -2.7679959    921.14699  0.092262319  0.093461672            2 
  833000    1.1397272   -2.7457308    925.90339   0.09262739  0.093447397            2 
  834000    1.1320636   -2.7555041    927.25613  0.092651492  0.093433841            2 
  835000    1.1181801   -2.7618016    929.35626  0.092750126   0.09341971            1 
  836000     1.114028   -2.7917196     929.3023  0.092633802  0.093406815            2 
  837000    1.1114161   -2.7716438    928.77456  0.092470585  0.093394903            3 
  838000    1.1072737   -2.7805996     932.7798  0.092758532  0.093382571            2 
  839000    1.1148544   -2.7958562    931.29004  0.092500004  0.093369957            1 
  840000    1.0957956   -2.7720819    939.22886  0.093177466  0.093357158            3 
  841000    1.0936011   -2.7565745    932.35294  0.092385349  0.093346043            1 
  842000    1.1250847   -2.7947401    935.03325    0.0925409  0.093334935            2 
  843000    1.1097811   -2.7863753    937.40253  0.092665335  0.093323484            1 
  844000    1.0962121   -2.7821941    942.03983  0.093013411  0.093312605            3 
  845000    1.0965398   -2.7635681    944.75322  0.093170929  0.093302842            1 
  846000    1.1231065   -2.7946637    938.67474  0.092462051  0.093291907            3 
  847000    1.1121207   -2.7818126    940.50636  0.092533093  0.093280092            6 
  848000    1.1249081   -2.7831511     947.7734  0.093138109  0.093269688            3 
  849000    1.1045496   -2.7859568    941.23015  0.092386155   0.09325759            4 
  850000    1.1142642   -2.7626997    944.56329  0.092604244  0.093245601            4 
  851000    1.1165025    -2.788618    946.48884  0.092683983  0.093234359            1 
  852000    1.1061741   -2.7551135      947.746  0.092698161  0.093223165            2 
  853000     1.110876   -2.7855741    946.87825  0.092504714  0.093211866            2 
  854000    1.1108485   -2.7944482     946.5422  0.092363602  0.093201015            3 
  855000    1.1158929   -2.7420113     948.3396  0.092430761  0.093190422            1 
  856000    1.1161461     -2.78856    950.22348   0.09250618  0.093179814            1 
  857000    1.0999254   -2.7551334    947.47188  0.092130676  0.093167781            2 
  858000    1.0917013   -2.7839751    951.91966  0.092455289   0.09315681            3 
  859000    1.1217941   -2.7966189    949.47054  0.092110064  0.093144659            3 
  860000    1.1243219   -2.7845952    946.53024  0.091718046   0.09313106            2 
  861000    1.1257572   -2.7851662    954.98376   0.09242971  0.093118102            2 
  862000    1.0855055   -2.8040355    955.44116  0.092366701   0.09310534            4 
  863000    1.1061199   -2.7922707     952.3177  0.091958063  0.093091986            2 
  864000    1.1251525   -2.7780035    956.98505  0.092301799  0.093079249            1 
  865000    1.0887764   -2.7755522    959.26462  0.092414703  0.093065904            2 
  866000    1.1488876   -2.8058773    955.01269  0.091898835  0.093051562            2 
  867000    1.1199358   -2.7959365    962.20172  0.092483826  0.093038224            1 
  868000    1.1062225    -2.791416    961.82352  0.092340968  0.093024189            2 
  869000    1.1212851   -2.7822599    959.00535  0.091964456  0.093010934            1 
  870000    1.1119017   -2.7720803    966.49787  0.092576424  0.092998342            4 
  871000    1.1108588   -2.7412192    963.58889  0.092191819  0.092985409            1 
  872000     1.115634    -2.789742    965.09665  0.092230185  0.092972507            1 
  873000    1.1098852   -2.7908575    965.67173  0.092179432  0.092959536            2 
  874000    1.1134258   -2.7824459    965.44975  0.092052798  0.092946405            1 
  875000    1.1166739   -2.7883146    962.30199  0.091647809  0.092933173            1 
  876000     1.100384   -2.8028553    966.79795  0.091970886   0.09292103            4 
  877000    1.1170865   -2.7969614    970.73169  0.092239804  0.092908808            2 
  878000    1.1139067   -2.8215532    966.98849  0.091779469  0.092896749            2 
  879000    1.0983663    -2.798527    974.61203  0.092397804   0.09288427            2 
  880000    1.1146854   -2.7566213    972.89742  0.092130437  0.092871458            1 
  881000     1.095645    -2.798089    973.36341   0.09206994  0.092859171            2 
  882000    1.1010956   -2.7659725    974.91021  0.092111697  0.092846893            6 
  883000    1.1150501   -2.7853621    978.43706  0.092340229  0.092834479            2 
  884000    1.1045081   -2.7811131    974.08833  0.091825823  0.092822407            2 
  885000    1.1079274   -2.7615448     978.7809  0.092163926   0.09281036            3 
  886000    1.1200938   -2.7692006    981.78689  0.092342634  0.092797701            4 
  887000    1.0865168   -2.7955811    977.60831  0.091845951   0.09278545            3 
  888000    1.1062107   -2.8033409    977.73813  0.091754704  0.092772751            4 
  889000    1.0943541   -2.7886849    987.22775  0.092541034  0.092760233            2 
  890000    1.1122887   -2.8027906    981.87419  0.091935785  0.092747972            2 
  891000    1.1254727   -2.8352279    978.12955  0.091482375  0.092734167            1 
  892000     1.077819    -2.784124    984.10732  0.091938278  0.092720736            1 
  893000    1.1331305   -2.7894311    977.74719  0.091241806  0.092706791            1 
  894000    1.1104605   -2.7924088    987.24577  0.092025146  0.092692399            3 
  895000    1.0960256    -2.779679    984.26012  0.091644331  0.092678403            3 
  896000    1.1384214   -2.7967871    988.36964   0.09192426  0.092663711            1 
  897000    1.1284497   -2.7568666    988.05799  0.091792827  0.092649755            2 
  898000    1.1306742   -2.7764825    990.08069  0.091878312  0.092635278            2 
  899000    1.0847293   -2.7934256    989.69669  0.091740516  0.092621409            1 
  900000    1.0882013   -2.7718667    988.90465  0.091565245  0.092606795            1 
  901000    1.1140527   -2.8085308    989.09593   0.09148131  0.092591699            3 
  902000    1.1104299   -2.7646638    993.14789  0.091754239  0.092577156            1 
  903000     1.091946   -2.7791311    999.47258  0.092236303  0.092562374            2 
  904000     1.113545   -2.7958226     994.4142  0.091667976  0.092548422            2 
  905000    1.1088532   -2.7827793    996.05927  0.091718164  0.092534579            2 
  906000    1.1259448   -2.7809249    999.55013  0.091938018  0.092521148            1 
  907000    1.1069504   -2.7850843    1000.7592  0.091947742  0.092507905            4 
  908000    1.0915279   -2.8067034    998.41875  0.091631676  0.092494771            3 
  909000    1.1161348   -2.7818655    997.16968  0.091416362  0.092482119            2 
  910000    1.1314513   -2.8054041    1001.8974  0.091748843  0.092469434            2 
  911000     1.082989   -2.7528853    1009.1896  0.092315188  0.092456892            2 
  912000    1.0962189   -2.7883397    1003.0246  0.091650641  0.092443798            1 
  913000    1.0975883    -2.809302    997.65715  0.091060346  0.092431075            5 
  914000    1.1152397   -2.7884779    1007.2716  0.091837305  0.092418293            2 
  915000    1.1241154   -2.7942363    1004.5541  0.091489441  0.092404294            2 
  916000    1.0990287   -2.7611446    1007.4843   0.09165614  0.092390834            3 
  917000     1.122569   -2.7931184    1009.2096  0.091712974    0.0923779            2 
  918000     1.086271   -2.7984583     1010.528  0.091732749  0.092365726            1 
  919000    1.0912411   -2.7906844    1008.3558  0.091435962  0.092352733            1 
  920000     1.096359   -2.7852724    1011.4242  0.091614513  0.092340977            2 
  921000    1.1128637   -2.7904918    1011.7941  0.091548508  0.092329435            1 
  922000    1.1285381   -2.8030935    1012.4708  0.091510377   0.09231819            1 
  923000    1.0906143   -2.7673973    1017.1749  0.091835945  0.092306615            2 
  924000    1.1228097   -2.7592156    1015.9236  0.091623705  0.092295366            1 
  925000     1.074908   -2.7703449    1020.1112   0.09190191   0.09228441            1 
  926000    1.0808128   -2.8032396    1018.6834   0.09167417  0.092273406            1 
  927000    1.1211172   -2.8058103    1020.3536  0.091725418  0.092262258            3 
  928000    1.0632434   -2.8025119    1023.4189  0.091901841  0.092252007            1 
  929000    1.0896862   -2.7990607    1020.7729  0.091565563  0.092241349            1 
  930000    1.0880083    -2.789586     1025.145  0.091858871  0.092230602            1 
  931000     1.137049   -2.7659852    1033.6172  0.092518546   0.09221984            1 
  932000    1.1140729    -2.806984    1020.2386  0.091223047  0.092208212            4 
  933000    1.1112326   -2.7780117    1026.0563  0.091644902  0.092196202            5 
  934000    1.1198115   -2.8029095    1030.4568  0.091939399   0.09218455            2 
  935000    1.0958816   -2.8017663    1030.7132  0.091863919  0.092173148            3 
  936000    1.1235618   -2.7982076    1025.3645  0.091289574  0.092161307            1 
  937000    1.0931434   -2.7970069    1031.0672  0.091699322  0.092149358            2 
  938000    1.0939122   -2.8052855    1026.4022  0.091187114  0.092136888            2 
  939000    1.0973766   -2.7823987    1029.9841  0.091407892  0.092124778            3 
  940000    1.0937819   -2.7848566     1032.147  0.091502396  0.092111054            2 
  941000    1.0766066   -2.7947009    1029.4079  0.091162581  0.092097773            3 
  942000    1.1041876    -2.817686    1028.5957  0.090993959  0.092084596            1 
  943000    1.0977564   -2.8059625    1034.3576  0.091406643  0.092071769            1 
  944000    1.1017583    -2.796797    1031.3798  0.091046948  0.092057448            1 
  945000    1.0993436   -2.7903549    1035.9112   0.09135019  0.092044151            2 
  946000    1.1024972   -2.7984659     1033.786  0.091066423  0.092030726            2 
  947000    1.1276884   -2.8026251    1035.0543   0.09108186  0.092016116            2 
  948000    1.1114375   -2.7935539    1038.1451  0.091257479  0.092001221            2 
  949000    1.1201119   -2.7915249      1045.28  0.091787844  0.091987125            3 
  950000    1.1110793   -2.7901066    1042.8387  0.091477081  0.091975173            1 
  951000    1.0801767   -2.7947879    1043.2091  0.091413344  0.091962192            2 
  952000    1.1080094   -2.7828679    1045.8653  0.091549836  0.091949931            4 
  953000    1.1054592   -2.7823614    1048.6867   0.09170048  0.091936743            3 
  954000    1.0990765   -2.8239963    1043.0515  0.091112115  0.091924242            2 
  955000    1.1256993   -2.7928259    1046.1401  0.091286223  0.091911661            1 
  956000    1.1164227    -2.815256    1041.9758  0.090827739  0.091898773            1 
  957000    1.0836198    -2.803301    1044.9211  0.090989302  0.091885221            4 
  958000    1.1033983   -2.8226713    1046.4056  0.091023448    0.0918729            1 
  959000    1.1056801    -2.812163    1047.7868  0.091048554  0.091860451            2 
  960000    1.1191991   -2.8109756    1048.0911   0.09098013  0.091847193            2 
  961000    1.0718991   -2.8204449    1051.8916   0.09121502  0.091833818            2 
  962000    1.0871728   -2.7806993    1049.4964  0.090912715  0.091820147            1 
  963000    1.0929764   -2.8189637    1049.1828   0.09079117   0.09180622            2 
  964000    1.0872015   -2.7834942    1056.2344  0.091306571  0.091793349            3 
  965000    1.1083103   -2.7971408    1059.6545  0.091507297  0.091781439            4 
  966000    1.0965039    -2.802081     1055.314  0.091038131  0.091769056            1 
  967000    1.0841752   -2.8073313    1060.3427  0.091377346  0.091756865            1 
  968000    1.0993146   -2.8021656    1060.2427  0.091274335  0.091744469            2 
  969000    1.1201192   -2.8128895    1063.3893  0.091450749  0.091732461            2 
  970000    1.1155258   -2.7836902    1057.1357   0.09081922  0.091719865            2 
  971000    1.1088343   -2.7859741    1058.3402  0.090829059   0.09170714            3 
  972000    1.1318848   -2.8111007    1061.0512  0.090968035   0.09169469            1 
  973000    1.1117706   -2.8056118    1067.4499  0.091422571  0.091682252            2 
  974000    1.1220494   -2.8132236    1062.8579  0.090935819  0.091668972            2 
  975000    1.0928676   -2.7813138     1058.552  0.090474529  0.091655568            2 
  976000    1.1005696   -2.8151237    1062.6762  0.090733968  0.091642579            3 
  977000    1.1185276   -2.7857466    1068.6241  0.091148422  0.091629721            2 
  978000    1.0985147   -2.7962702    1067.5814  0.090966374  0.091616796            4 
  979000    1.1003042   -2.7973261    1068.1951  0.090925695  0.091603699            2 
  980000    1.0921396   -2.8274349     1065.956  0.090642516  0.091590263            3 
  981000     1.087586   -2.8365088    1066.6979  0.090613144  0.091575873            2 
  982000    1.1131576   -2.8037127    1069.8699  0.090790049   0.09156268            1 
  983000    1.0755829   -2.8236905    1074.3941  0.091081221  0.091550149            2 
  984000    1.1218982   -2.8315511    1072.1216  0.090796205  0.091537042            2 
  985000    1.0984038   -2.7990687    1075.4009  0.090981465  0.091524217            3 
  986000    1.0641076   -2.8268232    1073.9757  0.090768734   0.09151138            3 
  987000    1.1047898   -2.7830988    1078.7835  0.091082697  0.091498866            2 
  988000    1.1011823   -2.8074319    1076.2214  0.090774409  0.091486686            2 
  989000    1.1111143   -2.8143056     1072.852  0.090398721  0.091474263            2 
  990000    1.0997319   -2.7686418    1081.6637  0.091049134  0.091461421            2 
  991000     1.122458   -2.7796367    1088.7545  0.091553525  0.091448905            1 
  992000    1.0926524   -2.7758934    1082.7221  0.090954477   0.09143617            2 
  993000    1.0926091   -2.7799122    1085.6135  0.091105528  0.091421997            2 
  994000    1.0815134   -2.7792115    1086.5294  0.091090664  0.091408708            2 
  995000    1.1002689   -2.7951569    1081.1047   0.09054478  0.091395618            1 
  996000    1.0772262   -2.8049168    1087.2772  0.090970311   0.09138301            1 
  997000    1.1044099   -2.8050033    1085.3687  0.090719554  0.091369664            2 
  998000    1.0952958   -2.7660982    1082.9343  0.090425372  0.091355795            3 
  999000    1.0932116   -2.8123712    1082.7417  0.090318797  0.091342246            3 
 1000000    1.1003305   -2.8178663    1085.0111  0.090417595  0.091328336            1 
 1001000    1.0717089   -2.8270466    1087.0577  0.090497644   0.09131488            1 
 1002000    1.0907438   -2.8157145    1086.8214  0.090387674  0.091300724            2 
 1003000    1.1019355   -2.7971942    1089.6283  0.090530765  0.091286535            2 
 1004000    1.1025522   -2.8267421    1092.0912   0.09064502  0.091272358            4 
 1005000      1.08476   -2.7888857    1090.3999  0.090414583  0.091257835            3 
 1006000    1.0817186   -2.8137946     1095.494  0.090746685  0.091243603            2 
 1007000    1.0891202   -2.7909466    1092.9542   0.09044639  0.091229587            4 
 1008000    1.1012646   -2.8088546     1090.896  0.090186505  0.091214953            1 
 1009000    1.0983633   -2.8006559    1094.8101  0.090420392  0.091199802            1 
 1010000    1.0912183   -2.8119222    1097.6956   0.09056894  0.091185863            1 
 1011000    1.1034268   -2.8049142    1093.2661  0.090114248   0.09117154            1 
 1012000    1.0790543    -2.792771    1094.7195  0.090144888  0.091156797            2 
 1013000    1.1018518   -2.7952819    1096.6496  0.090214677  0.091143458            1 
 1014000    1.0893611   -2.8239314    1099.3645  0.090348827  0.091128936            1 
 1015000    1.0963876   -2.8182307    1097.9969   0.09014753  0.091113595            4 
 1016000    1.0733724   -2.7917511    1098.8491  0.090128697  0.091098887            2 
 1017000    1.0964979   -2.8064516    1097.6108  0.089938611  0.091084871            2 
 1018000    1.0736399   -2.8291049    1104.8576  0.090443481  0.091070306            2 
 1019000    1.1111101   -2.8028759    1099.1722  0.089889781  0.091055853            1 
 1020000    1.0800374    -2.837949    1099.1099  0.089796558  0.091041462            2 
 1021000    1.0602526    -2.798914    1108.8063  0.090500025  0.091026802            2 
 1022000    1.0921639   -2.7904827    1110.7625  0.090570981   0.09101315            1 
 1023000    1.0863056    -2.814232    1103.5121  0.089891827  0.090998911            2 
 1024000    1.0791339   -2.8255096    1107.0369  0.090090893  0.090984209            1 
 1025000    1.0942022   -2.7827038    1109.6629  0.090216493  0.090970024            3 
 1026000    1.0891467   -2.8021947    1112.3615  0.090347746  0.090955669            4 
 1027000    1.0970138   -2.8148731    1115.1171  0.090483378  0.090941614            2 
 1028000    1.0875065   -2.8235444    1111.5837  0.090108922  0.090928352            1 
 1029000    1.0837024   -2.8176363     1108.541   0.08977494  0.090914054            3 
 1030000     1.082955   -2.8051228    1117.1143  0.090381419  0.090899631            4 
 1031000    1.0930856   -2.8150289    1109.0997  0.089645952  0.090885653            2 
 1032000    1.0719983   -2.8246944    1116.5198   0.09015825  0.090872191            3 
 1033000    1.0665085   -2.8009203    1117.5348  0.090152859   0.09085792            3 
 1034000     1.083021   -2.8291864    1115.1671  0.089874849  0.090843468            4 
 1035000    1.0921721    -2.804256    1120.5567  0.090221956  0.090829673            1 
 1036000    1.0831308     -2.83356    1117.8235   0.08991502  0.090815875            4 
 1037000    1.0809745   -2.8041466    1121.7407  0.090143099  0.090801807            2 
 1038000    1.0651957   -2.7956228    1122.6493  0.090129199  0.090788465            2 
 1039000    1.1074953   -2.8259246    1121.1622   0.08992318  0.090775126            1 
 1040000     1.084401   -2.7952815    1127.5427  0.090347974  0.090761423            2 
 1041000    1.0841701   -2.8445801    1119.9977  0.089657193  0.090747397            3 
 1042000    1.0958081    -2.807231    1124.4645  0.089928381  0.090732784            3 
 1043000    1.0909529   -2.8343871    1123.1407  0.089736397  0.090718855            1 
 1044000    1.0717047   -2.8098445    1121.6387  0.089530545  0.090703921            1 
 1045000    1.0688201   -2.8359471    1122.9545  0.089549798  0.090689168            1 
 1046000    1.0781078   -2.8048053    1125.1365  0.089638029  0.090675221            1 
 1047000    1.0912953   -2.8004097    1132.9873  0.090177278   0.09066109            1 
 1048000    1.0820886   -2.8339841    1131.0339  0.089935898  0.090646661            1 
 1049000     1.116949   -2.8120167    1131.5057  0.089887648  0.090632579            3 
 1050000    1.0825136    -2.795941    1136.5687  0.090203861  0.090618881            2 
 1051000    1.0648216   -2.8290262    1133.2085  0.089851612  0.090605483            3 
 1052000    1.0900795   -2.8427347    1136.9661  0.090063851  0.090592537            2 
 1053000    1.0892306   -2.8246695    1138.1603  0.090072835  0.090579413            2 
 1054000    1.0892645   -2.8171841    1134.9421  0.089732926  0.090566462            3 
 1055000    1.0929494   -2.8211635    1135.1404  0.089663538  0.090553161            2 
 1056000    1.1034427   -2.8238354    1135.2736   0.08958914  0.090540071            1 
 1057000     1.084735   -2.7998137    1141.6902  0.090010268  0.090527565            1 
 1058000    1.0758668   -2.8330188    1142.1495   0.08996137  0.090514768            2 
 1059000    1.0868353   -2.8156353    1143.4996  0.089982655  0.090502574            1 
 1060000    1.0826964   -2.8318102    1141.0927  0.089708542  0.090489995            2 
 1061000    1.0717915    -2.807305    1146.7887   0.09007137  0.090477429            3 
 1062000    1.0959339   -2.8319996    1148.3071  0.090105708  0.090465177            2 
 1063000    1.0926308   -2.8389199    1147.1837  0.089932874   0.09045208            3 
 1064000    1.0912163   -2.8231132    1145.9846  0.089754431  0.090439452            3 
 1065000    1.0814034   -2.8303942    1151.8105  0.090126015  0.090426415            5 
 1066000     1.104092   -2.7956325    1156.0215  0.090370661  0.090414529            2 
 1067000    1.0929491   -2.8278038    1152.4689  0.090008508  0.090403494            2 
 1068000    1.0777336   -2.8281305    1152.4674  0.089924109  0.090392239            2 
 1069000    1.0750719   -2.8345881    1152.5627  0.089847418  0.090380118            6 
 1070000    1.0845927   -2.8293204     1155.084  0.089959813  0.090368048            2 
 1071000    1.0563679   -2.8415638    1157.4545  0.090060259  0.090356112            2 
 1072000    1.0912144   -2.8078645    1155.5877  0.089831136  0.090343857            1 
 1073000     1.102566   -2.8259399    1155.0664  0.089706931  0.090331124            4 
 1074000    1.0917629   -2.8198677    1159.3648  0.089956925  0.090318958            3 
 1075000    1.0986233   -2.8344936    1156.2171  0.089629234  0.090306595            1 
 1076000    1.0823079   -2.8003741    1166.0852   0.09031019  0.090295475            1 
 1077000    1.0721803   -2.8372891    1161.6406  0.089882436  0.090284333            3 
 1078000    1.0806924   -2.8152318    1163.2846  0.089926141  0.090272583            3 
 1079000    1.0870743   -2.8272434    1161.3927  0.089696684   0.09026073            2 
 1080000    1.0713993   -2.8302556    1165.4486  0.089926591  0.090250208            3 
 1081000    1.0734657   -2.8150543     1166.129  0.089895855  0.090238966            3 
 1082000     1.082629   -2.8099349    1166.4471  0.089837265  0.090227376            1 
 1083000    1.0965171   -2.8320668    1169.9843  0.090026491  0.090216119            2 
 1084000    1.0677108   -2.8075704    1168.5545  0.089833527  0.090204339            1 
 1085000    1.0806576   -2.8211487    1165.5754  0.089521922  0.090193212            2 
 1086000    1.0644586   -2.8457867    1167.5696   0.08959251  0.090181737            3 
 1087000    1.0831986   -2.8204721    1168.7154  0.089597933  0.090170447            2 
 1088000    1.0796575   -2.8104624    1175.7823  0.090056858  0.090159459            3 
 1089000    1.0780704   -2.8427231    1165.8169  0.089211578  0.090147926            2 
 1090000     1.095733   -2.8253774    1172.8373  0.089666463  0.090135811            2 
 1091000    1.0853841   -2.8292038    1177.5261  0.089942413  0.090123862            1 
 1092000    1.0942036   -2.8173915    1172.2706   0.08945899  0.090111052            2 
 1093000    1.0685521   -2.8124299    1178.9746  0.089888273  0.090098317            1 
 1094000    1.0883813    -2.814728    1179.0111  0.089808891  0.090086655            5 
 1095000    1.0970331   -2.8231477    1175.6096  0.089468009  0.090074382            2 
 1096000    1.0453374   -2.8516083    1176.1291  0.089425872  0.090062099            4 
 1097000    1.0662931   -2.8198679    1178.0029  0.089486696   0.09004976            3 
 1098000    1.0804076   -2.8301805    1184.1613  0.089872596  0.090037656            2 
 1099000    1.0954677   -2.8107242    1191.1229   0.09031869  0.090026037            1 
 1100000    1.1035694   -2.8158322     1184.245   0.08971553  0.090013769            5 
 1101000    1.0778902   -2.8029885    1185.8958  0.089758992  0.090001029            2 
 1102000    1.0743476    -2.858039    1176.7701  0.088987456  0.089988425            2 
 1103000    1.0992838   -2.8126045    1183.4362  0.089410409  0.089976088            1 
 1104000    1.0777678   -2.8199314    1184.0821   0.08937818  0.089963465            1 
 1105000    1.0920759   -2.8120815    1182.3022  0.089163062   0.08995112            3 
 1106000    1.0741863   -2.8434026    1186.4241  0.089393013  0.089937447            3 
 1107000    1.0604905   -2.8152102    1186.4879  0.089317063  0.089924933            1 
 1108000    1.0629773   -2.8160919    1188.4704   0.08938556  0.089911742            2 
 1109000    1.0891835   -2.8121816    1187.0451  0.089197859  0.089898364            2 
 1110000    1.0566031   -2.8249453    1193.5581  0.089606468  0.089885611            2 
 1111000    1.0770579    -2.839153    1188.3146  0.089132507  0.089872861            4 
 1112000    1.0681279   -2.8239701    1190.4379   0.08921147  0.089860173            1 
 1113000    1.0808387   -2.8470845    1185.4127  0.088755071  0.089847348            4 
 1114000    1.1055534   -2.8129934    1197.2395  0.089560108  0.089834247            2 
 1115000     1.084343   -2.8342523    1192.6875  0.089139572  0.089821208            2 
 1116000    1.0759116   -2.8630109    1193.3557  0.089109597  0.089808615            2 
 1117000    1.0672509    -2.830847      1195.91  0.089220385  0.089796222            3 
 1118000    1.0703878   -2.8327879     1203.931  0.089738447  0.089784193            2 
 1119000    1.0720505   -2.8394601     1196.015   0.08906874  0.089772101            2 
 1120000    1.0768573    -2.861887    1206.2808  0.089753037  0.089759803            2 
 1121000    1.0605807   -2.8134031    1209.1722  0.089887912  0.089747912            2 
 1122000    1.0720863   -2.8258901    1204.8425  0.089486223  0.089736445            3 
 1123000    1.0770696   -2.8337743    1202.0964   0.08920276  0.089724232            3 
 1124000    1.0666087   -2.8138252    1205.1004  0.089346117  0.089711981            1 
 1125000    1.0539303   -2.8332027    1204.9598  0.089256285  0.089700419            7 
 1126000    1.0784815   -2.8242897    1204.8007   0.08916524  0.089687812            2 
 1127000    1.0907897   -2.8252085    1208.5314  0.089361978  0.089675767            2 
 1128000    1.0693644   -2.8301986    1207.5343  0.089209097  0.089663169            1 
 1129000    1.0631972   -2.8043142    1208.8759  0.089229105  0.089650634            1 
 1130000    1.0979682   -2.8307539    1207.9834  0.089084321   0.08963793            2 
 1131000    1.0572308   -2.8565725    1207.2275  0.088949859   0.08962493            3 
 1132000    1.0623723   -2.8282364     1208.957  0.088998605   0.08961178            2 
 1133000     1.085284   -2.8269493    1213.4026   0.08924703  0.089598774            1 
 1134000    1.0747893   -2.8470437    1215.3789  0.089313561  0.089585201            1 
 1135000    1.0380888   -2.8371216    1214.1106  0.089141746   0.08957272            3 
 1136000    1.0763552   -2.8414641    1213.0661  0.088986658  0.089560144            2 
 1137000    1.0506603    -2.821925    1216.0006  0.089123471  0.089547735            2 
 1138000    1.0417338   -2.8242118    1218.5882  0.089234637  0.089535471            1 
 1139000    1.0473829   -2.8104053    1219.9544   0.08925625  0.089522706            1 
 1140000    1.0484301   -2.8357317    1222.0354  0.089330071  0.089509928            2 
 1141000    1.0639063    -2.814384    1217.3373  0.088908656  0.089496668            3 
 1142000    1.0621464    -2.861472    1218.1052  0.088886836  0.089483297            3 
 1143000    1.0617741    -2.846929    1219.2495  0.088892499  0.089470354            1 
 1144000    1.0844897   -2.8420845    1224.7745  0.089217254  0.089457013            2 
 1145000    1.0901767   -2.8414466     1217.185  0.088586976  0.089443431            3 
 1146000    1.0625585   -2.8149573    1218.0065  0.088569411  0.089429604            2 
 1147000     1.063428   -2.8230876    1221.6045  0.088753594  0.089415695            1 
 1148000    1.0645804   -2.8533564    1221.3895  0.088660678  0.089402332            3 
 1149000    1.0520541   -2.8514994    1226.1068  0.088925643  0.089388262            3 
 1150000     1.060433   -2.8449842    1220.6424  0.088452347  0.089374056            1 
 1151000    1.0521453     -2.84013    1228.1132  0.088916394  0.089360145            3 
 1152000    1.0626297   -2.8162566    1223.9979  0.088541517  0.089346251            2 
 1153000    1.0720344   -2.8325582    1227.6508  0.088728738  0.089332423            1 
 1154000    1.0763938   -2.8403186    1223.8286  0.088375839  0.089318725            1 
 1155000    1.0503277   -2.8417636    1227.0044  0.088528454  0.089304309            2 
 1156000    1.0589284   -2.8400308    1232.8509  0.088873334   0.08929061            3 
 1157000    1.0749491   -2.8522301    1234.2578  0.088897854  0.089277199            2 
 1158000    1.0633552    -2.827561    1231.3287  0.088610294  0.089264386            3 
 1159000    1.0526611   -2.8501526    1237.2379  0.088958721  0.089251603            4 
 1160000    1.0647765   -2.8510035    1233.4096  0.088607013  0.089238052            4 
 1161000    1.0857338    -2.827958    1235.7124  0.088695983   0.08922521            2 
 1162000     1.077525   -2.8420218    1238.8593  0.088845335  0.089212727            2 
 1163000    1.0470687   -2.8551651    1240.8268  0.088909917  0.089200686            5 
 1164000    1.0811102   -2.8227697    1238.5595   0.08867121  0.089188026            2 
 1165000    1.0886061   -2.8042976    1237.6899  0.088532895  0.089175243            3 
 1166000    1.0889756   -2.8675069    1241.4111  0.088722922  0.089162139            2 
 1167000    1.0621683   -2.8405655    1240.0182   0.08854743  0.089148886            3 
 1168000    1.0675409   -2.8389105    1245.3695  0.088853414  0.089135941            1 
 1169000    1.0749799   -2.8246306      1249.02   0.08903764  0.089123817            1 
 1170000    1.0549394   -2.8051855    1244.5285   0.08864163  0.089111364            1 
 1171000    1.0783862   -2.8289425    1244.1556  0.088539399  0.089097931            3 
 1172000     1.077426   -2.8633633    1244.4178  0.088482495  0.089084577            4 
 1173000    1.0557811   -2.8321694    1245.3732  0.088474935  0.089071379           10 
 1174000    1.0454815   -2.8436212    1242.0606  0.088164438  0.089057654            1 
 1175000    1.0809086   -2.8462708    1248.5303  0.088548251  0.089044655            4 
 1176000    1.0889016   -2.8551429     1247.335  0.088388251  0.089031714            4 
 1177000    1.0354132   -2.8633223    1248.5233  0.088397285  0.089018626            3 
 1178000    1.0467264   -2.8421484    1247.3069  0.088236201   0.08900533            3 
 1179000    1.0643444   -2.8214229    1254.8759  0.088696345  0.088991529            2 
 1180000    1.0617811   -2.8321123    1250.4611  0.088309402  0.088978287            1 
 1181000    1.0716777   -2.8232232    1250.8837   0.08826444  0.088964706            1 
 1182000    1.0505308   -2.8671786    1250.8844  0.088189822  0.088949957            2 
 1183000    1.0775521   -2.8396905    1249.4705  0.088015672  0.088935291            2 
 1184000    1.0477882   -2.8801915    1244.2584  0.087574497  0.088920818            3 
 1185000    1.0669386   -2.8230954    1254.9587   0.08825307   0.08890651            2 
 1186000    1.0390699   -2.8345738    1258.4124  0.088421329  0.088892614            1 
 1187000    1.0719891    -2.825575    1262.3873    0.0886259  0.088878949            2 
 1188000    1.0718044   -2.8602669    1255.5768   0.08807357  0.088864233            3 
 1189000    1.0547416   -2.8741299    1251.3298  0.087701834  0.088850152            2 
 1190000    1.0661489   -2.8317298    1253.4955  0.087779795  0.088835557            2 
 1191000    1.0583657   -2.8460274     1258.841  0.088080117  0.088820943            4 
 1192000    1.0797429   -2.8668032    1255.7222  0.087788185  0.088806392            2 
 1193000    1.0605832   -2.8609226    1256.6668  0.087780579  0.088792203            4 
 1194000    1.0674587   -2.8238539    1267.2856  0.088448183  0.088778297            1 
 1195000    1.0546482   -2.8461132    1254.3324  0.087470882   0.08876412            4 
 1196000    1.0643151   -2.8134268    1263.5299  0.088038594  0.088750004            1 
 1197000    1.0495011   -2.8403441    1262.0974  0.087865316  0.088735443            2 
 1198000    1.0612954   -2.8206129     1268.821  0.088259668  0.088720811            1 
 1199000    1.0727186   -2.8610683    1265.0764  0.087925801  0.088706225            2 
 1200000    1.0679686   -2.8578706    1263.8606  0.087768096  0.088691781            4 
 1201000    1.0448054   -2.8529357    1260.3094  0.087448609  0.088676986            1 
 1202000    1.0545418   -2.8609285    1263.9086  0.087625386  0.088661785            2 
 1203000     1.040242   -2.8445646    1262.2483  0.087437535  0.088646276            1 
 1204000    1.0579659   -2.8605127    1273.4987  0.088143597  0.088631262            2 
 1205000    1.0545972   -2.8609668    1269.3438  0.087783113  0.088616602            2 
 1206000    1.0464006   -2.8312435     1269.786   0.08774088  0.088601807            3 
 1207000     1.074156   -2.8638382    1268.5887  0.087585521  0.088587489            2 
 1208000    1.0329249   -2.8744627      1268.66  0.087517935  0.088572008            5 
 1209000    1.0826791   -2.8523188    1274.6193  0.087856304  0.088557909            2 
 1210000    1.0634293   -2.8285273    1273.2831  0.087691676  0.088543742            3 
 1211000    1.0723319   -2.8673796    1272.7779  0.087584495  0.088529327            2 
 1212000    1.0584526   -2.8539058    1279.8407  0.087997849  0.088515292            2 
 1213000    1.0665893   -2.8670179    1278.6499  0.087843493  0.088501329            5 
 1214000    1.0688029   -2.8346004    1277.5742  0.087697292   0.08848785            1 
 1215000    1.0708426   -2.8678556    1283.9446  0.088062043  0.088474396            4 
 1216000    1.0520441   -2.8466467    1280.8486  0.087777455  0.088460576            3 
 1217000    1.0716405   -2.8472666    1283.0313  0.087854787  0.088447166            2 
 1218000    1.0478391   -2.8358925     1288.551  0.088160305  0.088434225            2 
 1219000    1.0745477   -2.8655537    1280.3003  0.087523949  0.088420444            2 
 1220000    1.0360532   -2.8322999    1284.3864  0.087731314  0.088406802            3 
 1221000    1.0783972   -2.8622846    1288.7297  0.087955887  0.088393141            2 
 1222000    1.0428986   -2.8438129    1286.7024  0.087745666  0.088380181            2 
 1223000    1.0664483   -2.8518056     1286.456  0.087657129    0.0883666            2 
 1224000    1.0753995   -2.8476757    1289.3688  0.087783821  0.088353052            3 
 1225000    1.0609333   -2.8539029    1284.0537  0.087350595  0.088339582            2 
 1226000    1.0430756   -2.8457304    1288.2933  0.087567518  0.088326013            4 
 1227000    1.0772575   -2.8543633    1287.4782  0.087440793  0.088312189            2 
 1228000    1.0598662   -2.8439421    1296.0558  0.087951669   0.08829862            3 
 1229000    1.0433649    -2.899329    1289.5755  0.087440702   0.08828474            2 
 1230000    1.0552206   -2.8704137    1288.9667  0.087328364  0.088270663            1 
 1231000    1.0819571   -2.8698369    1294.4125  0.087626082  0.088256202            6 
 1232000     1.040467   -2.8504593    1288.4473  0.087151468  0.088241652            3 
 1233000    1.0350942   -2.8751505    1295.9786  0.087589792   0.08822736            6 
 1234000    1.0564908   -2.8368982    1297.8918  0.087648014  0.088213583            2 
 1235000     1.042171   -2.8431348    1296.7309  0.087498714  0.088200148            1 
 1236000     1.047819   -2.8461674    1301.1876  0.087728399  0.088187015            1 
 1237000    1.0784388   -2.8730932    1292.8059  0.087092824  0.088173483            2 
 1238000    1.0693567   -2.8478688    1300.5979  0.087546977  0.088159968            2 
 1239000    1.0772306   -2.8731567    1298.8505  0.087358791  0.088146005            3 
 1240000    1.0373466   -2.8679286    1304.3544  0.087658228  0.088132091            2 
 1241000    1.0617369   -2.8762682    1301.3584  0.087386406  0.088117987            2 
 1242000    1.0399268   -2.8512426    1302.7022  0.087406211  0.088104288            2 
 1243000    1.0531275   -2.8208392    1308.2474  0.087707655  0.088090396            1 
 1244000    1.0502795   -2.8485613    1304.7739  0.087404469  0.088076696            2 
 1245000    1.0474699   -2.8505155    1307.8345  0.087539125  0.088063307            3 
 1246000    1.0590346   -2.8866943    1303.9971  0.087212217  0.088049727            2 
 1247000    1.0504668   -2.8514688    1308.6015  0.087449977  0.088036127            2 
 1248000    1.0487602   -2.8633327      1308.55   0.08737647  0.088022699            3 
 1249000     1.037077    -2.853611    1304.5243  0.087037915   0.08800874            2 
 1250000    1.0734893    -2.888394    1312.0203  0.087468017  0.087994645            2 
 1251000    1.0538712   -2.7954724     1313.784  0.087515588  0.087980535            4 
 1252000    1.0392002   -2.8387161    1310.6718  0.087238541  0.087966001            2 
 1253000    1.0385288   -2.8642995    1303.5092  0.086692549  0.087951536            1 
 1254000    1.0565068    -2.857556    1316.6561   0.08749708   0.08793699            1 
 1255000    1.0366647    -2.824646    1317.9818   0.08751539  0.087922624            3 
 1256000    1.0702843   -2.8318165    1320.1729  0.087591088  0.087909164            2 
 1257000    1.0485662    -2.854763     1319.423   0.08747169  0.087896065            2 
 1258000    1.0298543   -2.8767475     1317.927  0.087303063  0.087882187            2 
 1259000    1.0566882   -2.8860824    1310.9248  0.086770242  0.087868416            3 
 1260000     1.035422   -2.8506904    1317.9214  0.087164113  0.087854323            1 
 1261000    1.0400854   -2.8542649    1326.4774  0.087660417  0.087840251            4 
 1262000    1.0675373   -2.8752252    1320.6499   0.08720615   0.08782649            3 
 1263000    1.0518658   -2.8410496    1319.6973   0.08707425    0.0878129            4 
 1264000    1.0604802   -2.8518129    1328.7766   0.08760394  0.087799641            1 
 1265000    1.0685142   -2.8594513    1324.8686  0.087277244  0.087786324            2 
 1266000    1.0404106   -2.8443984    1321.8293  0.087008246  0.087773166            2 
 1267000    1.0499819   -2.8478152     1324.629  0.087123718  0.087760229            2 
 1268000    1.0732587   -2.8394503     1327.033  0.087212997  0.087746865            2 
 1269000    1.0340055    -2.824155      1334.47  0.087632648  0.087734011            1 
 1270000    1.0683679   -2.8858378    1327.8546   0.08712957   0.08772103            1 
 1271000    1.0506499   -2.8723925    1330.5701  0.087239057   0.08770746            4 
 1272000    1.0471131   -2.8579778    1328.5768  0.087039884  0.087693892            1 
 1273000    1.0561035   -2.8754054    1329.2349  0.087014593  0.087679881            2 
 1274000    1.0290088   -2.8707996     1328.302  0.086885269  0.087665619            1 
 1275000    1.0648394   -2.8566962    1334.3757  0.087214099  0.087651478            1 
 1276000    1.0533323   -2.8635641    1332.2302  0.087005629  0.087637367            1 
 1277000    1.0306485    -2.858301    1329.4525   0.08675623  0.087623116            1 
 1278000     1.048786   -2.8499784    1332.1957  0.086867222  0.087608963            2 
 1279000    1.0453179   -2.8733275    1336.3627  0.087070805  0.087595205            7 
 1280000    1.0335439   -2.8746335     1335.483  0.086945505  0.087581852            3 
 1281000     1.045883   -2.8757384    1332.9793  0.086714763  0.087568541            2 
 1282000    1.0384509   -2.8762538    1337.7202  0.086955294   0.08755492            3 
 1283000    1.0627307   -2.8629269     1337.476  0.086871656  0.087541305            3 
 1284000    1.0419179   -2.8527468    1334.8519  0.086633689  0.087527682            6 
 1285000    1.0557832   -2.8571816    1344.4397  0.087188051  0.087514046            3 
 1286000    1.0386215   -2.8587876    1344.3866  0.087116808  0.087501142            3 
 1287000    1.0315349    -2.867174    1341.2046  0.086843084  0.087488038            2 
 1288000    1.0494473   -2.8796149    1342.9699  0.086889874  0.087474549            3 
 1289000    1.0519926   -2.8650217    1341.5418  0.086730141  0.087461874            1 
 1290000    1.0498955   -2.8799087    1342.3916  0.086717801  0.087448921            2 
 1291000    1.0343688   -2.8732623    1352.7294  0.087317933  0.087435734            4 
 1292000    1.0563516   -2.8771845    1347.6372  0.086921903  0.087422537            2 
 1293000     1.020396   -2.8629412    1356.6966  0.087438553  0.087409494            1 
 1294000     1.054557   -2.8983213    1351.2444  0.087019863  0.087396258            2 
 1295000    1.0492056   -2.8766763    1357.0995  0.087329443  0.087383438            4 
 1296000    1.0540991   -2.8383811    1356.1033  0.087198001  0.087371716            3 
 1297000    1.0570403   -2.8565458    1353.4711  0.086961647  0.087359749            5 
 1298000    1.0613267   -2.8711802    1355.8195  0.087045424  0.087347079            3 
 1299000    1.0441542   -2.8569983    1352.4775  0.086764017   0.08733505            4 
 1300000    1.0549275   -2.8679536    1355.5357  0.086893312   0.08732272            2 
 1301000    1.0332556   -2.8391823    1358.7446  0.087032067  0.087310549            1 
 1302000    1.0595051   -2.8642244    1365.2887  0.087384066   0.08729893            2 
 1303000    1.0521495   -2.8560542    1362.1263  0.087114752  0.087287427            3 
 1304000    1.0564694   -2.8563166     1362.601  0.087078286  0.087276308            1 
 1305000    1.0439895   -2.8749292    1372.9951  0.087675291  0.087264936            3 
 1306000    1.0348063   -2.8735761    1364.5484  0.087069192  0.087253315            1 
 1307000    1.0542964    -2.870731    1366.6969  0.087139562  0.087242095            2 
 1308000    1.0359065    -2.866779    1369.0736  0.087224364  0.087230471            1 
 1309000    1.0195223   -2.8746689    1365.4738  0.086928559  0.087219392            1 
 1310000    1.0599218   -2.8409172    1371.4835  0.087244496  0.087207988            1 
 1311000    1.0388511   -2.8873513    1368.9812  0.087018893  0.087196268            2 
 1312000    1.0512329   -2.8735137    1370.2711  0.087034499  0.087184977            4 
 1313000    1.0527632   -2.8753743    1371.2953  0.087033211  0.087173638            2 
 1314000    1.0422753   -2.8617356    1376.7159  0.087310748  0.087163057            2 
 1315000    1.0521895   -2.8752604    1371.6795  0.086925188  0.087151814            4 
 1316000    1.0352986   -2.8618631    1377.4695  0.087225781  0.087140419            1 
 1317000    1.0434851   -2.8942941    1373.6985  0.086920936   0.08712925            2 
 1318000    1.0073159   -2.8594789    1379.5666  0.087226012  0.087117811            3 
 1319000    1.0589573   -2.8784603    1378.3172  0.087080943  0.087106389            2 
 1320000    1.0139043   -2.8677455    1384.9188  0.087431742  0.087095091            1 
 1321000    1.0468845   -2.8929738    1379.4025  0.087017571  0.087083315            3 
 1322000    1.0469477   -2.8884042    1374.6467  0.086651957  0.087071778            1 
 1323000    1.0556938   -2.8662875    1380.5514  0.086958389  0.087060299            2 
 1324000    1.0348977   -2.8594671    1377.7977   0.08671939  0.087048608            3 
 1325000    1.0347655   -2.8685484    1384.1182  0.087051462  0.087036947            2 
 1326000    1.0341243   -2.8676243     1384.549  0.087012884  0.087025463            3 
 1327000    1.0115106   -2.8625918    1383.6458  0.086890591  0.087013666            2 
 1328000    1.0120365   -2.8704862    1388.5197  0.087131008  0.087001828            4 
 1329000    1.0571516   -2.8684581    1384.4037  0.086807354  0.086990366            2 
 1330000      1.03521   -2.8431239    1389.9592  0.087090174    0.0869789            2 
 1331000    1.0527888   -2.8777096    1388.3875   0.08692634  0.086967107            2 
 1332000    1.0399364   -2.8189636    1393.9794  0.087210923  0.086955606            4 
 1333000    1.0343257   -2.8638224    1387.7246  0.086754474  0.086944131            2 
 1334000    1.0562753    -2.850925     1392.549  0.086990815  0.086932213            2 
 1335000    1.0596406   -2.8757309    1389.6859  0.086746936  0.086920363            2 
 1336000    1.0433732   -2.8573743    1389.4158  0.086665159  0.086908688            2 
 1337000    1.0259478   -2.8714987    1388.0724  0.086516605  0.086896845            3 
 1338000    1.0635717   -2.8635242    1389.1453  0.086518764  0.086885123            2 
 1339000    1.0548292   -2.8582083    1394.6388  0.086796043  0.086873866            2 
 1340000    1.0273819   -2.8875569    1397.4194  0.086904191  0.086862642            3 
 1341000    1.0308333   -2.8787596    1395.5737  0.086724687  0.086851493            3 
 1342000    1.0189909   -2.8546934     1393.339  0.086521301  0.086839965            1 
 1343000    1.0400531     -2.85621    1395.1355  0.086568351  0.086828178            1 
 1344000    1.0430473   -2.8535402     1400.711  0.086849637  0.086817297            2 
 1345000    1.0386264   -2.8757048    1396.7147  0.086537464  0.086805832            2 
 1346000    1.0329597     -2.88197    1404.7151  0.086968491   0.08679458            2 
 1347000    1.0586566   -2.8713192    1401.4095  0.086699426  0.086783241            2 
 1348000    1.0389422   -2.8703104    1398.7378   0.08646994   0.08677148            4 
 1349000    1.0260726   -2.8608576    1406.2893  0.086872334  0.086759868            1 
 1350000     1.014799   -2.9065899       1405.6  0.086765434  0.086748466            2 
 1351000     1.043316   -2.8875441    1398.9902  0.086293501  0.086736761            2 
 1352000    1.0441277   -2.8870484    1405.2274  0.086614115  0.086724922            2 
 1353000    1.0283158   -2.8726387    1407.7309  0.086704293  0.086713459            2 
 1354000    1.0474498   -2.8712702    1408.5603  0.086691302  0.086702305            2 
 1355000    1.0293593   -2.8795147    1403.9315  0.086342653  0.086690305            2 
 1356000    1.0164963   -2.8410496    1405.4446  0.086371963  0.086678192            5 
 1357000    1.0558063   -2.8716897    1403.0557  0.086161615  0.086666986            3 
 1358000    1.0248119   -2.8651401     1410.655  0.086564494    0.0866552            1 
 1359000    1.0284392   -2.8772844    1409.3357  0.086419899  0.086643725            4 
 1360000     1.046024   -2.8799189    1413.4336  0.086607449  0.086632351            1 
 1361000    1.0612963   -2.8629607    1410.8025  0.086382715  0.086620763            2 
 1362000    1.0369661   -2.8937132    1410.2774  0.086287162  0.086609439            1 
 1363000    1.0377152   -2.8719642    1415.9509  0.086570734  0.086597434            4 
 1364000    1.0387708   -2.8913143    1414.9197  0.086444265  0.086585906            3 
 1365000    1.0373152    -2.858271    1418.8998  0.086623917  0.086574112            6 
 1366000    1.0303714   -2.8603599    1412.9019  0.086194599  0.086562561            1 
 1367000    1.0441043    -2.885001    1417.9344  0.086438335  0.086551081            1 
 1368000    1.0524903   -2.9024872    1420.3247  0.086520752  0.086539623            1 
 1369000    1.0478444   -2.8688936    1419.1923  0.086388621  0.086527514            2 
 1370000    1.0411602   -2.8856505    1419.2646  0.086329965  0.086515646            2 
 1371000    1.0345542    -2.863135    1421.7908  0.086420542  0.086503393            1 
 1372000    1.0509447   -2.8815753    1422.6376  0.086408992  0.086491769            3 
 1373000    1.0445822   -2.9175752    1420.1782  0.086196781  0.086479551            2 
 1374000    1.0133669   -2.9006549    1416.4132  0.085905698  0.086467121            1 
 1375000    1.0331668   -2.8783106    1416.0096  0.085818762  0.086454646            3 
 1376000    1.0415226   -2.8666789    1424.3464  0.086261288  0.086442737            2 
 1377000    1.0303345   -2.8595139    1427.4945  0.086389159  0.086430755            2 
 1378000    1.0420006   -2.8434367    1427.8634  0.086348776  0.086418801            2 
 1379000    1.0517182   -2.8957037    1424.0373  0.086054952  0.086406888            4 
 1380000    1.0265173   -2.9068295    1431.8744  0.086465845  0.086394792            3 
 1381000    1.0251898   -2.8983419    1430.9609  0.086348114  0.086382925            2 
 1382000    1.0325034   -2.8632989    1430.2703  0.086243988  0.086371355            4 
 1383000    1.0483393   -2.8846044    1437.8642  0.086639205  0.086360167            3 
 1384000    1.0185825   -2.8683598     1431.615  0.086200325  0.086349031            1 
 1385000    1.0412799   -2.8899658    1431.0735  0.086105508  0.086337553            2 
 1386000    1.0167724   -2.9025801    1426.7011  0.085780486  0.086325724            3 
 1387000    1.0148413   -2.8800452    1437.4918  0.086366969  0.086313761            2 
 1388000    1.0352195   -2.8745914    1436.4392  0.086241544  0.086302486            2 
 1389000    1.0209404   -2.8912791    1439.1925  0.086344643  0.086291083            2 
 1390000    1.0313071   -2.8805012    1437.8776  0.086203693   0.08627979            1 
 1391000    1.0218096   -2.8652191    1443.2832  0.086465566  0.086268221            1 
 1392000     1.029408   -2.8737642    1443.9135   0.08644118  0.086256966            3 
 1393000    1.0112032   -2.8837641    1445.2339  0.086458118  0.086245113            2 
 1394000    1.0293639   -2.8756322    1438.6896  0.086004879   0.08623386            4 
 1395000      1.03142    -2.883047     1449.225  0.086572578  0.086222413            2 
 1396000    1.0499099   -2.8919432    1437.0393  0.085783148     0.086211            3 
 1397000    1.0320987   -2.8503865    1454.0873  0.086738681  0.086199688            1 
 1398000    1.0267518    -2.886532    1440.4121  0.085861478  0.086188445            3 
 1399000    1.0225236   -2.8861749    1444.0679  0.086017866  0.086176585            2 
 1400000    1.0490281   -2.8847645    1443.4304  0.085918474  0.086164789            5 
 1401000    1.0449555   -2.8927905    1447.0916  0.086074921  0.086153523            2 
 1402000    1.0394375   -2.8871973    1440.9076  0.085645958  0.086142257            2 
 1403000    1.0012637   -2.8819514    1449.8609  0.086116707  0.086130478            2 
 1404000    1.0127378   -2.8812789    1444.3597  0.085728855  0.086118871            2 
 1405000    1.0131753   -2.9166738     1444.218  0.085659429  0.086107108            1 
 1406000    1.0396871   -2.9015369    1453.1421  0.086127438   0.08609535            2 
 1407000    1.0311203   -2.8793237    1456.1133  0.086242201  0.086084008            2 
 1408000    1.0203531   -2.8859397    1451.1615  0.085887876  0.086072412            2 
 1409000    1.0172279   -2.8692577    1453.0806  0.085940417  0.086060692            5 
 1410000    1.0024903   -2.9194996     1443.737  0.085327246  0.086047869            2 
 1411000    1.0414976   -2.8842081    1452.2793  0.085771278  0.086035664            2 
 1412000    1.0077962   -2.8851634    1451.8122  0.085682967   0.08602355            2 
 1413000    1.0322502   -2.8641218    1452.8053    0.0856809  0.086010922            4 
 1414000    1.0179027   -2.9031053    1450.8313  0.085503966  0.085998482            1 
 1415000   0.99837981   -2.8572836    1456.9235  0.085802324  0.085986023            7 
 1416000    1.0264274   -2.8618408    1455.0735  0.085632855  0.085973388            1 
 1417000    1.0268907   -2.8904297    1450.7226  0.085316549  0.085960675            1 
 1418000    1.0380522   -2.9229697    1450.5551   0.08524654  0.085947758            3 
 1419000    1.0451153   -2.8736875    1450.6983  0.085194872  0.085934339            2 
 1420000    1.0049806   -2.9107721    1449.2941  0.085052473  0.085920993            2 
 1421000    1.0177076   -2.8888128    1453.7177  0.085252035  0.085907275            1 
 1422000    1.0018507   -2.8555668    1459.0108  0.085502272  0.085894352            1 
 1423000    1.0197811   -2.8836926    1456.7659  0.085310721  0.085881487            2 
 1424000    1.0075724   -2.9187204    1454.3037  0.085106723  0.085868327            1 
 1425000    1.0293586   -2.8689718    1457.1281  0.085212171  0.085855211            1 
 1426000     1.021478   -2.8736503    1459.0119  0.085262503  0.085841768            2 
 1427000    1.0250363   -2.9162247     1456.016  0.085027799   0.08582817            2 
 1428000    1.0240341   -2.8851488    1464.1688  0.085444027  0.085814678            2 
 1429000    1.0147128   -2.8676854    1463.7443  0.085359477   0.08580123            1 
 1430000    1.0256672   -2.9108061    1462.0831  0.085202977  0.085787933            4 
 1431000    1.0078306   -2.8841012     1467.981  0.085486899   0.08577428            4 
 1432000    1.0514578   -2.8777558    1466.5477  0.085343788   0.08576029            2 
 1433000    1.0071558   -2.8721478    1467.0298  0.085312272  0.085746446            3 
 1434000    1.0198178   -2.8820464    1463.9535  0.085074005  0.085732553            5 
 1435000    1.0218131   -2.8782398    1471.4256  0.085448643  0.085719466            3 
 1436000    1.0165422   -2.9002313    1459.8467  0.084717193  0.085705554            5 
 1437000    1.0172032   -2.8901324    1470.1227  0.085254158  0.085691385            7 
 1438000    1.0309115   -2.8804618     1465.131  0.084905598  0.085677785            2 
 1439000    1.0135477   -2.8964035     1467.201  0.084966469  0.085664255            2 
 1440000    1.0182327   -2.9025138    1472.5833  0.085218942  0.085650537            2 
 1441000    1.0170368   -2.9054374    1475.2492   0.08531397  0.085636859            4 
 1442000    1.0109509   -2.9013269    1467.2994  0.084795387  0.085622935            2 
 1443000    1.0268065   -2.9183905    1470.2189  0.084905228  0.085609248            4 
 1444000    1.0243856   -2.8849357    1471.2023  0.084903178  0.085595544            2 
 1445000    1.0172605   -2.8770428    1476.5673  0.085153824  0.085581895            3 
 1446000    1.0101052   -2.9111109     1478.113  0.085184014  0.085568119            2 
 1447000    1.0368886   -2.9127071    1477.7267  0.085102895  0.085554033            2 
 1448000    1.0399303   -2.8987119    1475.8969  0.084938816  0.085539928            1 
 1449000     1.024885    -2.879905    1478.4382  0.085026352  0.085525864            5 
 1450000    1.0347166   -2.8671177    1475.1337    0.0847778   0.08551157            1 
 1451000    1.0159605   -2.9102473    1472.3831  0.084561399  0.085497281            1 
 1452000    1.0306855   -2.9015959    1467.5522  0.084225905  0.085482905            2 
 1453000    1.0073191   -2.8883564    1482.3086  0.085014255  0.085468174            4 
 1454000    1.0149768    -2.878992     1478.964  0.084764099  0.085453795            2 
 1455000    1.0288137    -2.895862     1473.926  0.084417299  0.085439327            3 
 1456000    1.0288456   -2.8752204    1483.3789  0.084900347  0.085424585            2 
 1457000    1.0278517   -2.8627011    1480.0979   0.08465442  0.085410066            2 
 1458000    1.0087755    -2.896019    1477.3239  0.084437807  0.085394732            2 
 1459000     1.023124   -2.9158644    1473.0345  0.084134938  0.085379453            3 
 1460000    1.0216913   -2.9081763    1473.2922  0.084092022  0.085363949            3 
 1461000    1.0279842   -2.8883049    1476.1788  0.084199113  0.085348512            3 
 1462000    1.0167099   -2.8766039    1481.0288  0.084417965  0.085333141            2 
 1463000    1.0246474   -2.8800828    1479.2405  0.084258402  0.085317504            3 
 1464000     1.022898   -2.9117089    1477.7646  0.084116837  0.085301825            3 
 1465000    1.0168753   -2.8653071     1483.689  0.084396416  0.085286435            1 
 1466000     1.014791   -2.9043843    1483.0301  0.084301395  0.085270879            4 
 1467000    1.0266789   -2.8927246    1481.1684  0.084138172  0.085255594            2 
 1468000   0.99526388   -2.8873646    1479.4418  0.083982843  0.085239976            3 
 1469000    1.0265394   -2.8897676    1486.4557  0.084323556  0.085224741            2 
 1470000    1.0085475     -2.90481    1489.8846  0.084460577  0.085209895            4 
 1471000    1.0208684   -2.8878155    1478.8849  0.083780021  0.085194953            2 
 1472000    1.0212022    -2.909005    1486.2906   0.08414236  0.085179447            3 
 1473000    1.0116573   -2.8894822    1485.8868  0.084062391  0.085164698            1 
 1474000    1.0262769   -2.9095291    1493.5749  0.084440008  0.085149227            2 
 1475000   0.99725485   -2.8904498    1496.3582  0.084540011  0.085134437            2 
 1476000    1.0325003   -2.8807814    1494.4493  0.084374961  0.085119415            5 
 1477000    1.0075475   -2.8883301    1489.0372  0.084012481  0.085104261            3 
 1478000    1.0353498   -2.9171464    1487.0322  0.083842589   0.08508926            3 
 1479000    1.0322539   -2.8835486    1494.7812  0.084222515  0.085074034            4 
 1480000    1.0247123   -2.9245051    1499.5777  0.084435682  0.085059165            3 
 1481000   0.99888634   -2.8974662    1496.4282  0.084201451  0.085044813            1 
 1482000    1.0192875   -2.8966277    1494.8796  0.084057556  0.085030284            2 
 1483000    1.0133006   -2.8911405     1504.195  0.084524331  0.085015539            2 
 1484000    1.0089125   -2.8898087    1502.3543  0.084364008  0.085001191            1 
 1485000    1.0223157   -2.9028002    1493.8846  0.083831907  0.084986659            1 
 1486000    1.0171594    -2.911206    1504.9253  0.084394647  0.084972053            2 
 1487000    1.0133922   -2.8876744    1502.9756  0.084228627  0.084957278            1 
 1488000    1.0024213   -2.8843481    1509.0763  0.084513679  0.084943154            3 
 1489000    1.0050632   -2.9247356    1504.7655  0.084215668  0.084928337            2 
 1490000    1.0140858   -2.8784994     1497.396  0.083746981  0.084913335            4 
 1491000   0.99767185   -2.9224148    1506.7001  0.084210826   0.08489831            2 
 1492000    1.0270923   -2.9172359    1503.1985  0.083958807  0.084883029            2 
 1493000    1.0144928    -2.932497    1507.3409  0.084133787  0.084868059            2 
 1494000   0.98450765   -2.9088322    1503.8038  0.083880177  0.084852774            3 
 1495000   0.99790175   -2.8960993    1500.9389  0.083664375   0.08483817            3 
 1496000    1.0243639    -2.894619    1516.4486  0.084472405  0.084823673            1 
 1497000    1.0068596   -2.8968062    1503.2207   0.08367962  0.084809323            3 
 1498000   0.99964983   -2.8791489    1513.5685  0.084199406  0.084794986            4 
 1499000    1.0005479   -2.8935164     1508.399  0.083855848  0.084780845            4 
 1500000    1.0223303   -2.8924582    1514.4318  0.084135102  0.084766573            3 
 1501000    1.0339233   -2.9102637    1508.3178  0.083739607  0.084752138            1 
 1502000   0.99447297   -2.9232741    1508.6456  0.083702042  0.084737395            5 
 1503000    1.0092296   -2.8961384    1510.6198   0.08375581  0.084722667            6 
 1504000    1.0101877   -2.9059728    1512.3714  0.083797174  0.084707807            2 
 1505000    1.0043114   -2.8990078    1517.7693  0.084040384  0.084692981            2 
 1506000    1.0163738   -2.9101763    1511.5704  0.083641569  0.084678044            6 
 1507000    1.0006287   -2.9007724    1513.5073   0.08369317  0.084663237            2 
 1508000    1.0115921   -2.8992364    1518.2523  0.083899884  0.084648261            2 
 1509000    0.9975472   -2.8798796    1518.5438  0.083860383  0.084633331            2 
 1510000    1.0019066   -2.9310386    1514.3353  0.083572589  0.084617965            3 
 1511000    1.0090191    -2.908408    1515.1811  0.083563923  0.084602695            2 
 1512000    1.0289787   -2.9030573    1524.0127  0.083995409  0.084587578            2 
 1513000    1.0060947   -2.9116896     1517.021  0.083554804   0.08457235            1 
 1514000     1.025777   -2.9136583    1522.5355  0.083803145  0.084557718            3 
 1515000      1.01212   -2.9304433    1518.7576  0.083540024  0.084542557            2 
 1516000    1.0238561   -2.9246996    1517.9112  0.083438393  0.084526913            2 
 1517000    1.0136175   -2.9033962    1523.0762  0.083667115  0.084511388            2 
 1518000    1.0521294   -2.9026317    1521.3518  0.083517334  0.084496414            2 
 1519000    1.0199175   -2.9069575    1518.9572  0.083330985  0.084481296            2 
 1520000   0.99486447   -2.8835053    1531.1219  0.083943087  0.084466679            4 
 1521000   0.99448165   -2.9143439    1524.7271  0.083537534  0.084451349            2 
 1522000    1.0301442   -2.8759789    1528.5081  0.083689667  0.084436376            1 
 1523000   0.99764703   -2.9065676    1529.9668  0.083714532  0.084421216            1 
 1524000    1.0021457   -2.8900289    1524.2246  0.083345615  0.084406005            3 
 1525000    1.0101493   -2.8975016    1522.6232  0.083203455  0.084390202            1 
 1526000    1.0004739   -2.8894239    1531.3509  0.083625543  0.084374235            2 
 1527000    1.0158507   -2.9103933    1531.7341  0.083591691  0.084358775            1 
 1528000    1.0099983   -2.9072952    1530.4934  0.083469317  0.084343288            1 
 1529000    1.0023524   -2.9042524    1533.3394  0.083569839  0.084328169            2 
 1530000    1.0132793   -2.9038175    1536.4682   0.08368563  0.084313067            4 
 1531000    1.0133904   -2.8847125    1532.5231  0.083416235  0.084297813            2 
 1532000   0.99357548   -2.9136452    1533.7369   0.08342781  0.084282901            1 
 1533000    1.0123912   -2.9129199    1532.5208  0.083307283  0.084267789            2 
 1534000   0.98003957   -2.9160105    1532.4062   0.08324675  0.084252791            3 
 1535000   0.99536349    -2.915818    1545.1805  0.083886019  0.084237891            2 
 1536000   0.99915844   -2.9028347     1536.287  0.083348903  0.084223608            2 
 1537000   0.99927502   -2.8943319    1548.2469  0.083943122  0.084208894            1 
 1538000   0.99528945    -2.910388    1538.7811  0.083375657  0.084194263            4 
 1539000     1.026215     -2.91084    1534.1759  0.083072119   0.08417958            2 
 1540000   0.98240844   -2.9145442    1542.4084  0.083463658  0.084164639            2 
 1541000   0.98962529   -2.9061186    1542.0144   0.08338819  0.084149945            1 
 1542000    1.0002021   -2.9030239    1543.0016   0.08338746  0.084135835            2 
 1543000    1.0100038   -2.8942311    1546.9941  0.083549045  0.084121831            3 
 1544000   0.99045633   -2.9241947    1547.4311  0.083518519  0.084107168            2 
 1545000    1.0009168   -2.9190608    1544.0051  0.083279672  0.084092811            2 
 1546000     1.013917   -2.9044974    1550.5105  0.083576461   0.08407831            3 
 1547000    1.0091233   -2.9190542    1539.3658  0.082922095  0.084064253            2 
 1548000    1.0074885   -2.9044654    1553.8955  0.083650704  0.084050115            2 
 1549000    1.0117117   -2.9280144    1550.5689  0.083417737  0.084036017            4 
 1550000     1.019016   -2.9134952    1548.8053  0.083269104  0.084021352            2 
 1551000    1.0101236   -2.9338509    1545.1514  0.083019096   0.08400671            1 
 1552000    1.0092609   -2.9137968    1550.3353  0.083243949  0.083991805            6 
 1553000   0.98554983   -2.9039168    1553.3524  0.083352242  0.083977207            3 
 1554000   0.98005759   -2.8930927    1547.8625   0.08300421  0.083962098            2 
 1555000     1.002979   -2.9143756    1545.1923  0.082807734  0.083946768            2 
 1556000   0.99212339   -2.8775125    1554.9238  0.083275695  0.083931121            2 
 1557000    1.0345602     -2.89766    1551.1632  0.083020936  0.083915413            3 
 1558000    1.0146575    -2.930753    1546.4263  0.082714286  0.083900126            6 
 1559000   0.98757663    -2.899544    1549.5416  0.082827752  0.083884132            1 
 1560000    1.0105785   -2.9060453    1547.2937  0.082654578  0.083868315            3 
 1561000   0.98811865   -2.9307934    1552.1188  0.082859216  0.083852386            1 
 1562000   0.98739872   -2.9203586    1550.9383  0.082743188  0.083836453            5 
 1563000   0.98749326   -2.8855397    1561.0333  0.083228474    0.0838208            6 
 1564000   0.98318917   -2.9163591    1550.5214  0.082615162  0.083805223            4 
 1565000   0.98630461   -2.9209168    1553.9141  0.082743032   0.08378962            3 
 1566000    1.0122912   -2.8963685    1562.1963  0.083130923  0.083774264            2 
 1567000    1.0016261   -2.8863186    1555.8885  0.082742421  0.083758634            2 
 1568000   0.99985653   -2.9027494    1559.4545  0.082879174  0.083743087            2 
 1569000     1.003643   -2.9071571     1559.514  0.082829511  0.083727593            3 
 1570000    1.0016085   -2.9179932    1559.1107  0.082755345  0.083712467            1 
 1571000    1.0093918    -2.904594    1559.4854  0.082722545  0.083696822            4 
 1572000   0.97776176    -2.914897     1554.552  0.082408395  0.083681029            2 
 1573000    1.0030569   -2.9318376    1557.9425  0.082535625  0.083665117            5 
 1574000    1.0126078   -2.9461062    1557.8915   0.08248049  0.083649249            2 
 1575000    1.0015049   -2.9135588    1560.4432  0.082563135  0.083633403            3 
 1576000    1.0123077   -2.9467357    1558.2261  0.082393513   0.08361767            1 
 1577000    0.9946504    -2.928191    1562.3319  0.082558226  0.083601939            2 
 1578000   0.99782444   -2.9141761    1556.0549  0.082174422  0.083586018            1 
 1579000   0.98997473   -2.9428952    1562.7623  0.082476373   0.08356962            1 
 1580000     1.021597    -2.897166    1570.7421  0.082845045  0.083553813            1 
 1581000      1.01208   -2.9131245    1561.6913  0.082315584  0.083538086            2 
 1582000   0.99761297   -2.9616577    1561.9881  0.082279186  0.083522242            3 
 1583000    0.9843889   -2.9454302    1563.7321   0.08231902  0.083506419           11 
 1584000    1.0137859   -2.9224109    1559.3309  0.082035508  0.083490358            4 
 1585000   0.99557563   -2.9137444    1563.7594  0.082216583  0.083474086            4 
 1586000   0.99805793   -2.9249848    1567.7153  0.082372598  0.083457932            3 
 1587000    1.0188627   -2.9314721    1564.0822  0.082129922  0.083441461            2 
 1588000    1.0018944   -2.9134297    1570.9109  0.082436552  0.083425253            1 
 1589000    1.0106652   -2.9154745    1562.8258  0.081960655   0.08340899            3 
 1590000   0.98898126   -2.9245175    1567.5928  0.082158952  0.083392795            3 
 1591000    1.0205393   -2.9352935    1571.9717  0.082336672  0.083376847            4 
 1592000    1.0005577   -2.9214983    1574.7948  0.082432725  0.083360755            3 
 1593000    1.0041716   -2.9228355    1574.4539  0.082363145  0.083344967            1 
 1594000   0.98664908   -2.9424022    1567.5249  0.081949231  0.083328979            4 
 1595000    0.9966714    -2.928356    1576.1175  0.082346789  0.083312618            6 
 1596000    1.0073933   -2.9089229    1571.8428  0.082071993  0.083296477            3 
 1597000    1.0037773   -2.9278867    1568.3394  0.081837791  0.083280454            5 
 1598000   0.98468282   -2.9201229    1573.3068  0.082045622  0.083264417            3 
 1599000   0.98921921   -2.9285035    1570.7539  0.081861261  0.083248175            3 
 1600000    1.0156309   -2.9212224    1579.0634  0.082242883  0.083232128            2 
 1601000    1.0100081   -2.9225093    1580.0844  0.082244659  0.083216231            3 
 1602000   0.96544313   -2.9127183    1575.9544  0.081978483   0.08320015            2 
 1603000   0.98839149   -2.9014304    1579.2023  0.082096191  0.083184278            2 
 1604000   0.99694141   -2.9193991    1580.8515  0.082130686  0.083168305            4 
 1605000   0.99356738   -2.9394522    1580.1351  0.082042318  0.083152008            2 
 1606000   0.97848159   -2.9077009    1579.4305  0.081954677  0.083135946            3 
 1607000    1.0086901   -2.9205813    1581.9838  0.082036083  0.083120091            4 
 1608000   0.99378305   -2.9489725    1586.4815  0.082218152  0.083103985            1 
 1609000     1.019536   -2.9152316    1583.3402  0.082004362  0.083087723            1 
 1610000   0.99734214   -2.9337657    1581.1285  0.081838949  0.083071589            3 
 1611000     1.017839   -2.9322755    1586.5995   0.08207115  0.083055552            1 
 1612000     1.000629   -2.9561596     1584.416  0.081907363  0.083039541            4 
 1613000   0.98134865   -2.9236335    1586.4033  0.081959255  0.083023348            3 
 1614000   0.96823439   -2.9100541    1588.3311  0.082008008  0.083007456            2 
 1615000   0.96954236   -2.9335965    1588.0061  0.081940462  0.082991436            3 
 1616000   0.99700728   -2.9304736    1591.5044  0.082070154  0.082975647            3 
 1617000   0.98568204   -2.9443046    1589.6121  0.081921875  0.082960154            3 
 1618000   0.97080376   -2.9228387    1594.3986  0.082117769  0.082944681            2 
 1619000   0.98314919   -2.9313694     1591.168  0.081900762  0.082929296            4 
 1620000   0.97156743   -2.9342617    1592.8826  0.081938404  0.082913739            4 
 1621000    1.0023799   -2.9489388    1595.9576   0.08204594  0.082897968            4 
 1622000    1.0016639   -2.9482112    1595.0372  0.081948067  0.082882535            2 
 1623000   0.99165241   -2.9319958    1595.7523  0.081934294  0.082867476            1 
 1624000    1.0066398   -2.9479749    1597.2919  0.081962842   0.08285244            1 
 1625000   0.98774174   -2.9110684    1603.1733  0.082214016  0.082837685            6 
 1626000   0.97995265   -2.9264176    1601.6252  0.082084114   0.08282256            3 
 1627000   0.99779496   -2.9320767    1597.2669  0.081810431  0.082806954            4 
 1628000   0.99863717     -2.94311    1604.0161  0.082105657  0.082791474            3 
 1629000   0.99698532   -2.9202465    1600.4213   0.08187136  0.082776514            1 
 1630000    1.0052098   -2.9534817    1602.6347   0.08193429  0.082761514            2 
 1631000    1.0123827   -2.9391352    1608.8931  0.082203815  0.082746278            6 
 1632000    1.0069316   -2.9238307    1604.8355  0.081946257    0.0827311            4 
 1633000   0.97556334   -2.9245084    1605.6154  0.081935873  0.082716116            1 
 1634000   0.98118175   -2.9240636    1603.4809  0.081776873  0.082700846            2 
 1635000   0.97682604    -2.938872    1605.8845  0.081849361  0.082685688            4 
 1636000   0.99050223   -2.9097648    1611.6343  0.082092212  0.082670708            3 
 1637000    1.0086336   -2.9255419    1606.0605  0.081758326  0.082655763            2 
 1638000   0.99446543   -2.9074575    1606.9326  0.081752779  0.082640764            4 
 1639000   0.99963066   -2.9470024    1606.8654   0.08169948  0.082626338            2 
 1640000   0.97746825   -2.9247526    1615.7154  0.082099359  0.082611261            3 
 1641000    1.0115676   -2.9435469    1610.2405  0.081771303  0.082597085            2 
 1642000   0.99041397   -2.9234393      1616.36  0.082032073  0.082582487            2 
 1643000   0.97335321   -2.9286933    1616.4217  0.081985275  0.082567987            1 
 1644000    1.0020852   -2.9457988    1619.8955   0.08211149  0.082553172            2 
 1645000    1.0263023   -2.9369491    1622.0881  0.082172652  0.082538484            1 
 1646000    1.0186055   -2.9245147     1618.095  0.081920564  0.082524167            6 
 1647000   0.97383631   -2.9205916     1619.259  0.081929723  0.082509711            2 
 1648000   0.99489664   -2.9393493    1612.8654  0.081556703  0.082495356            3 
 1649000   0.99855327   -2.9430184    1617.6103  0.081747034  0.082480935            1 
 1650000   0.99367168   -2.9232802     1615.537  0.081592779  0.082466564            1 
 1651000   0.97875285   -2.9025078    1623.8564  0.081963276  0.082451581            2 
 1652000   0.97686845   -2.9086398    1616.8169  0.081558562  0.082436778            1 
 1653000   0.98920788   -2.9464406    1613.1348  0.081323596  0.082422269            5 
 1654000   0.98459622   -2.9274729    1620.3078  0.081635824  0.082407845            3 
 1655000   0.98650884    -2.919683    1623.1869  0.081731467  0.082393158            3 
 1656000    0.9782515   -2.9008687    1620.9194  0.081568006  0.082378297            1 
 1657000   0.98308903   -2.9295316    1618.9141   0.08141793  0.082363301            1 
 1658000   0.99855754   -2.9431559    1618.5508  0.081350562  0.082348359            3 
 1659000   0.97607329   -2.9048676    1623.8606  0.081568242  0.082333399            2 
 1660000   0.98645769   -2.9384922    1625.4753  0.081600168    0.0823183            6 
 1661000   0.98476589   -2.9479835    1630.0413  0.081780115  0.082302996            2 
 1662000   0.97949115   -2.9383822    1623.7052  0.081413215  0.082287732            5 
 1663000     1.007852   -2.9259799     1622.318  0.081294747  0.082272404            2 
 1664000   0.99558573   -2.9240272    1633.9519  0.081828521  0.082257264            1 
 1665000   0.99709258   -2.9258603    1629.9481  0.081578983  0.082242277            2 
 1666000   0.97575884   -2.9312107    1623.0593  0.081185439  0.082226853            3 
 1667000    1.0079212   -2.9191567    1631.8483  0.081576099  0.082211456            3 
 1668000   0.99252116   -2.9269202    1627.4878  0.081309343  0.082196393            2 
 1669000   0.99800178   -2.9407089    1637.3791  0.081754501  0.082180843            4 
 1670000   0.98004017   -2.9272072    1625.0491  0.081090272  0.082165148            2 
 1671000   0.99544554   -2.9452651     1622.547  0.080916968  0.082149009            4 
 1672000   0.99351414   -2.9243674    1629.3537  0.081207818  0.082133179            2 
 1673000   0.98789648   -2.9117252    1629.9872  0.081190834  0.082117428            3 
 1674000    0.9859196   -2.9153173    1626.5823  0.080972834  0.082101274            2 
 1675000   0.97024127   -2.9266611     1625.667  0.080878953   0.08208532            3 
 1676000   0.97165705   -2.9682086    1625.0071  0.080797886  0.082069314            3 
 1677000   0.97279122   -2.9298029    1625.2415  0.080761355  0.082053205            2 
 1678000   0.97577348   -2.9457688    1628.9304  0.080896425  0.082036931            2 
 1679000   0.99108518   -2.9178093    1637.1067  0.081254054  0.082020652            3 
 1680000    1.0007466   -2.9302357    1632.1296  0.080958807  0.082004543            1 
 1681000   0.97034309   -2.9318934    1628.6766  0.080739472   0.08198816            2 
 1682000   0.98350236   -2.9420993    1631.3335    0.0808231  0.081971746            3 
 1683000   0.96169813   -2.9389544    1628.2304  0.080621431  0.081955343            2 
 1684000   0.96327238   -2.9353242    1629.6014    0.0806414  0.081939451            2 
 1685000   0.98923162   -2.9381874    1630.2613  0.080626177  0.081923426            1 
 1686000   0.99025584   -2.9598693    1636.6482   0.08089404  0.081907488            3 
 1687000   0.98787941   -2.9448965    1640.5607  0.081039355  0.081891006            4 
 1688000    0.9821841   -2.9532113    1637.3296   0.08083183  0.081874988            3 
 1689000   0.98367139    -2.947811    1631.5245  0.080497558  0.081858427            1 
 1690000   0.96771446   -2.9326319    1641.8961  0.080961344  0.081842308            2 
 1691000   0.99253974   -2.9464994    1641.5956  0.080898661  0.081826407            3 
 1692000   0.98393543     -2.94531    1643.5983  0.080949482  0.081810405            2 
 1693000   0.98371773   -2.9342652    1637.6343  0.080608105  0.081794484            3 
 1694000   0.96810494   -2.9506426    1640.2278  0.080688107  0.081777878            3 
 1695000      0.96595   -2.9250055      1644.42  0.080846609  0.081762099            2 
 1696000   0.98022718   -2.9440992     1642.913   0.08072489  0.081745886            2 
 1697000    1.0072425     -2.93542    1639.3773    0.0805037  0.081729951            3 
 1698000   0.97539238   -2.9466278    1649.4563  0.080950937  0.081714043            2 
 1699000   0.98379218    -2.970652    1646.5966   0.08076303  0.081698719            3 
 1700000   0.97368347   -2.9519044    1647.4856  0.080759096  0.081683179            3 
 1701000   0.99735187   -2.9424091     1652.709  0.080967517   0.08166737            2 
 1702000    0.9902759   -2.9362008    1651.2357  0.080847811  0.081651816            3 
 1703000   0.96579252   -2.9372693     1649.985  0.080739136  0.081636267            3 
 1704000   0.99678971   -2.9259691    1657.9084  0.081079245  0.081621129            2 
 1705000   0.97671178   -2.9500281    1655.7549  0.080926436  0.081605767            4 
 1706000   0.98599158   -2.9452615      1650.57  0.080625735  0.081590222            3 
 1707000   0.97386013   -2.9184581     1658.713   0.08097603  0.081575139            3 
 1708000   0.97403163   -2.9405058     1656.234  0.080807668  0.081560622            2 
 1709000   0.99340546   -2.9349949    1655.9111  0.080744642  0.081545421            2 
 1710000   0.95515543   -2.9541341    1654.4199  0.080624751  0.081530338            2 
 1711000    0.9767987   -2.9443552    1658.0546  0.080754658  0.081515076            2 
 1712000   0.95138901    -2.928483    1655.4713  0.080581743  0.081500219            4 
 1713000   0.96976722   -2.9757674    1648.3474  0.080188138  0.081484817            2 
 1714000   0.98356017   -2.9393537    1665.4751  0.080974092  0.081469634            2 
 1715000   0.97875709   -2.9247199    1669.1531  0.081105591  0.081455051            3 
 1716000   0.98050354   -2.9278906    1659.4405  0.080586662  0.081439981            5 
 1717000   0.97384294   -2.9450488    1660.2723  0.080580097  0.081425133            2 
 1718000    0.9767471   -2.9693089    1666.0171  0.080811851  0.081410431            3 
 1719000    0.9638254   -2.9358991    1668.4978  0.080885098  0.081395231            2 
 1720000   0.98860075   -2.9438373    1664.6984  0.080653992  0.081380332            3 
 1721000   0.99866978   -2.9670811    1664.0577  0.080576102  0.081365203            2 
 1722000   0.99470555   -2.9386467    1666.5399  0.080649436  0.081350615            3 
 1723000   0.98974047     -2.96168     1666.076   0.08058019  0.081335734            8 
 1724000   0.97078706   -2.9470979     1665.715  0.080515999  0.081320336            1 
 1725000   0.95666105   -2.9535532     1670.158  0.080683962  0.081304928            2 
 1726000   0.96817867   -2.9504156    1665.5442  0.080414457   0.08128966            5 
 1727000   0.97548345   -2.9743501    1665.7969  0.080380084  0.081274613            3 
 1728000   0.99272612   -2.9442192    1668.6655  0.080471911  0.081259107            4 
 1729000   0.99922253   -2.9493516    1668.3248  0.080408944  0.081243837            2 
 1730000   0.97210898   -2.9584906    1670.5075  0.080467605  0.081228793            3 
 1731000   0.97757464     -2.96911    1674.0725  0.080592745  0.081213826            1 
 1732000    0.9848612   -2.9348203    1677.0765  0.080690748  0.081198651            2 
 1733000   0.95540803    -2.931245    1677.1262  0.080646576  0.081184095            2 
 1734000   0.93981099   -2.9668759    1676.7799  0.080583424  0.081169506            2 
 1735000   0.97194388   -2.9525174    1677.0324  0.080549105  0.081154651            3 
 1736000   0.96188999   -2.9467989    1677.0865  0.080505306  0.081139512            2 
 1737000   0.97409884   -2.9462406    1672.8849  0.080257385  0.081124662            1 
 1738000   0.99049177   -2.9738484    1679.0765  0.080508079  0.081109688            4 
 1739000   0.98128082   -2.9452669    1677.4453  0.080383618  0.081094669            4 
 1740000   0.97106439   -2.9404606    1683.4493  0.080624969  0.081079777            2 
 1741000   0.97336865   -2.9360661     1680.291  0.080427486  0.081065249            1 
 1742000   0.96871992   -2.9476746    1678.8669  0.080313188  0.081050296            4 
 1743000   0.96921032   -2.9462077    1679.3793  0.080291607  0.081035447            1 
 1744000   0.95483798   -2.9427346     1676.454  0.080105791  0.081020385            4 
 1745000   0.96053988    -2.944549      1683.13    0.0803787  0.081005213            4 
 1746000   0.98112173   -2.9311652    1689.7091  0.080646671  0.080990019            3 
 1747000   0.97661923   -2.9762339     1682.097  0.080237407  0.080974578            2 
 1748000   0.96773383   -2.9442086    1675.5358   0.07987871   0.08095906            4 
 1749000   0.98006836   -2.9478147    1679.4817  0.080021047  0.080943868            6 
 1750000   0.98549951   -2.9175372    1687.8051  0.080371669  0.080928467            2 
 1751000    0.9494027   -2.9609505    1680.8588  0.079995185  0.080913236            2 
 1752000     0.960484   -2.9276305    1688.7703  0.080325834  0.080897731            2 
 1753000   0.95377512   -2.9737033    1691.4225  0.080406091  0.080882819            4 
 1754000   0.99491363   -2.9795225    1684.3502  0.080024239  0.080867418            4 
 1755000   0.96764125   -2.9555545    1684.5726  0.079989201  0.080852145            3 
 1756000   0.95637021   -2.9518687     1688.029  0.080107677  0.080836984            2 
 1757000    0.9828871   -2.9667013    1687.4477  0.080034514   0.08082211            3 
 1758000   0.97193984   -2.9600556    1688.9813  0.080061684  0.080807313            1 
 1759000   0.97578539   -2.9514404    1692.0526  0.080161675  0.080792185            3 
 1760000   0.97963786   -2.9574174    1692.6723  0.080145471  0.080777147            1 
 1761000   0.96909098   -2.9462303    1697.9096  0.080347796   0.08076211            1 
 1762000   0.97044444    -2.966478    1695.4434  0.080185556  0.080746784            1 
 1763000   0.98170804   -2.9549674     1687.831  0.079780254  0.080731908            3 
 1764000   0.97781009   -2.9786684    1689.9174   0.07983359  0.080716394            2 
 1765000   0.99484313   -2.9608186    1696.6936  0.080108292  0.080701043            3 
 1766000   0.97190197   -2.9492593    1693.2226  0.079899139  0.080685295            6 
 1767000   0.97311282   -2.9422232    1688.8953  0.079649845  0.080669891            5 
 1768000   0.98286032   -2.9414396    1703.6516   0.08030032  0.080654635            2 
 1769000   0.95763455   -2.9360206    1699.0223  0.080036854  0.080639818            2 
 1770000   0.96728813   -2.9441368    1693.7325  0.079742587  0.080624493            3 
 1771000   0.96510367   -2.9717484    1696.5428  0.079829795  0.080609202            5 
 1772000   0.95320553   -2.9431352     1694.998  0.079712097  0.080593833            4 
 1773000   0.96345331   -2.9408548    1697.7295   0.07979552  0.080578823            4 
 1774000   0.93540081   -2.9660059    1699.9122  0.079853073   0.08056348            4 
 1775000     0.966486   -2.9856909    1699.3475  0.079781571  0.080548332            1 
 1776000    0.9664202   -2.9861089    1698.6723   0.07970497  0.080533015            3 
 1777000   0.96576799   -2.9250146    1702.8709   0.07985701  0.080517879            4 
 1778000   0.93984997   -2.9570614    1705.8422  0.079951361  0.080502601            2 
 1779000   0.96958144    -2.955117    1705.7361  0.079901447    0.0804871            1 
 1780000   0.96703083   -2.9585096    1699.5054  0.079564858  0.080472006            3 
 1781000   0.95200919   -2.9492552    1701.4442  0.079610904  0.080456442            2 
 1782000   0.96965896    -2.963287     1709.409  0.079938691  0.080441169            1 
 1783000    0.9416932   -2.9377413    1702.9798  0.079593373  0.080425827            3 
 1784000   0.97813712   -2.9500974    1709.3308  0.079845424  0.080410539            2 
 1785000   0.98578385   -2.9516609    1711.4969  0.079901815  0.080395155            3 
 1786000   0.93394772   -2.9524791    1715.8301  0.080059261  0.080380115            1 
 1787000   0.97634785   -2.9554564    1710.2288  0.079753255  0.080365128            3 
 1788000   0.96272681    -2.961909     1704.559  0.079444396  0.080349864            2 
 1789000   0.95956924    -2.957515    1705.1451  0.079427293  0.080334556            5 
 1790000   0.95311075   -2.9760262    1706.2258  0.079433232  0.080319084            5 
 1791000   0.95860734   -2.9400074     1708.913  0.079513913  0.080303886            2 
 1792000   0.98094767   -2.9761432    1710.4018  0.079538774  0.080288575            2 
 1793000   0.98568925   -2.9702996    1716.5189  0.079778718  0.080273581            1 
 1794000   0.96973079    -2.967133    1716.1279  0.079716087  0.080259046            3 
 1795000   0.97879727   -2.9726416    1713.6997  0.079558946  0.080243932            2 
 1796000   0.95965111   -2.9730296    1717.8978  0.079709436  0.080228909            3 
 1797000   0.94575859   -2.9539125    1708.3148  0.079220683  0.080213311            5 
 1798000   0.94341714   -2.9350712    1714.6048  0.079468148  0.080197926            2 
 1799000   0.94869632    -2.949386    1714.9465  0.079439804  0.080182447            2 
 1800000    0.9591689   -2.9372168    1718.7479  0.079571663  0.080166685            3 
 1801000   0.96987681   -2.9625968     1710.468  0.079144364  0.080151063            2 
 1802000   0.98102365   -2.9466563    1718.2644  0.079460987  0.080135533            2 
 1803000   0.97080283   -2.9691964    1719.4811   0.07947315  0.080120039            2 
 1804000    0.9593142   -2.9872639    1719.4457  0.079427462  0.080104864            3 
 1805000    0.9616484   -2.9459164    1715.6525  0.079208333   0.08008953            2 
 1806000   0.94529459   -2.9340221    1725.3673  0.079612739  0.080074309            3 
 1807000   0.96770749   -2.9700533    1715.8152  0.079128167  0.080059147            2 
 1808000   0.95991771   -2.9722979    1712.9589  0.078952752  0.080043913            2 
 1809000   0.97080393   -2.9508731    1723.2365  0.079382555  0.080028822            4 
 1810000   0.94710675   -2.9615675    1724.6095   0.07940191   0.08001381            6 
 1811000   0.96248241   -2.9831573    1729.1601  0.079567461  0.079998861            2 
 1812000   0.94756128   -2.9828452    1721.9255  0.079190834  0.079983875            3 
 1813000   0.97483308   -2.9506005    1731.1498  0.079571144  0.079969002            6 
 1814000   0.93665819   -2.9775096    1724.9144  0.079240833  0.079954125            5 
 1815000   0.96373918   -2.9610679    1723.2647   0.07912143  0.079939231            5 
 1816000   0.96412213   -2.9793011    1727.0209  0.079250223  0.079924395            5 
 1817000   0.95485741   -2.9799907    1724.4111  0.079086914  0.079909532            3 
 1818000   0.96100488   -2.9722353    1724.0493  0.079026828  0.079894722            1 
 1819000   0.97687787   -2.9655408    1728.4606  0.079185479  0.079879745            6 
 1820000   0.96033279   -2.9787424    1734.2855  0.079408677  0.079864593            3 
 1821000   0.94889453   -2.9358717    1724.4416  0.078914589  0.079848996            2 
 1822000   0.96650373   -2.9719474    1727.3865  0.079005969  0.079833679            1 
 1823000   0.94977495   -2.9660693    1729.6941  0.079068118  0.079818344            2 
 1824000    0.9434336   -2.9837454    1725.4163  0.078829327  0.079802886            3 
 1825000   0.95939944   -2.9621623    1735.2034  0.079233034  0.079787412            1 
 1826000   0.94566211   -2.9647745    1733.7941  0.079125325  0.079772175            2 
 1827000   0.96604139   -2.9896827     1734.564  0.079117132  0.079756658            5 
 1828000   0.94190138   -2.9680068    1735.5983  0.079121001  0.079741361            2 
 1829000   0.97383763   -2.9914886    1733.8135  0.078996424  0.079726068            2 
 1830000   0.98069481    -2.962371    1741.6355  0.079309447  0.079710801            2 
 1831000   0.94719507   -2.9557907    1746.6142  0.079492726  0.079695597            2 
 1832000   0.94901167   -2.9312457     1743.504  0.079307861   0.07968033            3 
 1833000   0.96485908    -2.973115    1733.1464  0.078793708  0.079664912            3 
 1834000   0.93705068   -2.9862255    1734.9423  0.078832349  0.079649569            2 
 1835000   0.94761161   -2.9948703    1732.8907  0.078696218  0.079634115            5 
 1836000   0.97791683   -2.9508141    1743.2966  0.079125661  0.079618575            1 
 1837000   0.93831592   -2.9728414    1743.2968  0.079082598   0.07960369            3 
 1838000   0.94823403   -2.9728327    1742.3652  0.078997334  0.079588786            4 
 1839000   0.98217166    -2.967869    1742.8762  0.078977532  0.079573918            1 
 1840000   0.95674764   -2.9813029    1740.3349  0.078819513  0.079558812            2 
 1841000   0.94613329   -2.9606312    1748.6779   0.07915435  0.079544038            2 
 1842000   0.96193687   -2.9426302    1746.7163  0.079022634  0.079528911            3 
 1843000   0.95164762   -2.9792013    1743.9571  0.078854996   0.07951373            3 
 1844000   0.94274558   -2.9874068     1737.721  0.078530415  0.079498804            3 
 1845000   0.95843912   -2.9684755    1744.5991  0.078798516  0.079483608            2 
 1846000   0.95721696   -2.9515407    1744.7755   0.07876379  0.079468611            2 
 1847000   0.95025268    -2.988995     1744.995  0.078731052  0.079453416            4 
 1848000   0.95033938   -2.9661569    1744.6883  0.078674617  0.079438342            3 
 1849000   0.97314536   -2.9670997    1748.3194  0.078795719  0.079423907            1 
 1850000    0.9514431   -2.9622029    1749.7172  0.078816089  0.079409038            5 
 1851000   0.95384549   -2.9700891    1749.2845   0.07875403  0.079394143            2 
 1852000   0.93903583   -2.9519703    1749.8766  0.078738148  0.079379678            1 
 1853000    0.9489201   -2.9655121    1755.2575  0.078937648   0.07936514            4 
 1854000    0.9578045   -2.9849056    1750.1076  0.078663592  0.079350401            2 
 1855000   0.95752673   -2.9730871    1759.2336  0.079031157  0.079336188            2 
 1856000   0.95671931   -2.9786424    1760.1291  0.079028783  0.079321738            7 
 1857000   0.94395265   -2.9577657    1754.7979  0.078746987  0.079307367            2 
 1858000   0.94288747   -2.9907577    1757.5666  0.078828788  0.079292762            4 
 1859000   0.95060196   -2.9913815    1751.9236  0.078533421  0.079278493            4 
 1860000   0.96032438   -2.9938126     1763.586  0.079013711  0.079264283            7 
 1861000   0.95397646   -2.9865688     1754.971  0.078585484  0.079249987            2 
 1862000   0.97691515   -2.9643197    1757.0679  0.078637124  0.079235427            2 
 1863000   0.95719057   -2.9948535    1768.2713  0.079096051  0.079221283            1 
 1864000   0.95595765   -2.9907898    1762.1779  0.078781201  0.079206817            4 
 1865000   0.96410291   -2.9846438    1766.7663  0.078943982  0.079192575            1 
 1866000   0.95605055   -2.9613562     1761.929  0.078685647  0.079178519            3 
 1867000   0.93775153   -2.9703165    1762.2469  0.078657692  0.079164367            2 
 1868000   0.96552259   -2.9636345    1768.6129  0.078899575  0.079150193            4 
 1869000   0.94668469   -2.9597371    1767.1174   0.07879068  0.079135649            2 
 1870000   0.94543521   -2.9980931     1769.342  0.078847681  0.079120979            2 
 1871000   0.95617707   -2.9929642    1763.6576  0.078552361    0.0791065            5 
 1872000   0.96331015   -2.9534444    1765.5391  0.078594156   0.07909205            4 
 1873000    0.9484972   -2.9831838    1771.2592  0.078806692  0.079078341            2 
 1874000   0.96055967   -2.9795028    1771.4431  0.078772817  0.079064303            5 
 1875000   0.96328306   -2.9627969    1765.5521  0.078468982  0.079049882            2 
 1876000   0.93738063     -2.98771     1764.558  0.078382996  0.079035444            2 
 1877000   0.94954856    -2.977921    1777.3768  0.078910353  0.079020802            4 
 1878000   0.92814862   -2.9910232    1772.7729  0.078664045  0.079006698            2 
 1879000   0.95015715    -3.013024    1770.5059  0.078521638  0.078992409            1 
 1880000   0.93608686   -2.9821663    1777.0706  0.078770861  0.078977952            1 
 1881000   0.95687886   -2.9897611    1767.5824  0.078308631  0.078963558            5 
 1882000   0.94508494   -2.9726647     1779.056   0.07877506  0.078949035            3 
 1883000   0.94624101   -2.9861036    1776.3838  0.078614968  0.078935017            4 
 1884000   0.95141724   -2.9715975    1772.8718  0.078417898  0.078920671            2 
 1885000   0.95466633   -2.9856111     1773.608  0.078408842  0.078906305            3 
 1886000   0.91991322   -2.9659435    1781.4801    0.0787151  0.078891855            3 
 1887000   0.95588567    -2.979493    1769.3993  0.078139875  0.078877826            3 
 1888000   0.94007697   -3.0061369    1775.5062  0.078368037  0.078863445            6 
 1889000    0.9517215   -2.9714305    1774.9699   0.07830289  0.078848866            1 
 1890000   0.94572335   -2.9830839    1782.7166  0.078603024  0.078835018            2 
 1891000   0.93952508   -2.9794858    1774.1945  0.078185903  0.078820654            3 
 1892000   0.96119184   -2.9828705    1775.6863  0.078210285  0.078806417            1 
 1893000   0.96421375   -2.9948817    1774.0325  0.078096166  0.078792004            3 
 1894000   0.96112132   -2.9996623    1781.1022   0.07836599  0.078777709            2 
 1895000   0.92183721   -2.9906621    1786.3759  0.078556546  0.078763606            2 
 1896000   0.92787268   -3.0134639    1783.4444  0.078386271  0.078749349            3 
 1897000   0.92900372   -2.9568764    1787.9081  0.078541032  0.078735274            3 
 1898000   0.94838978     -2.97905    1780.6861  0.078182566  0.078720797            3 
 1899000   0.97005762   -2.9858156    1792.3257  0.078652172  0.078706895            2 
 1900000   0.94250237    -2.984908    1783.9286  0.078242483  0.078692972            5 
 1901000   0.94093862   -2.9838528    1789.2465   0.07843444  0.078679357            3 
 1902000   0.94223454   -2.9818732    1786.8772  0.078289396  0.078665437            3 
 1903000   0.97246595   -2.9892632    1783.8512  0.078115748   0.07865181            2 
 1904000   0.95234911   -2.9798719    1794.6195  0.078546021    0.0786381            2 
 1905000   0.93476147   -2.9609795     1794.726  0.078509448  0.078624688            3 
 1906000   0.92460927   -2.9932181    1791.2709  0.078317196  0.078610991            2 
 1907000   0.95299599   -2.9565784    1792.8041  0.078343128  0.078597258            2 
 1908000   0.93993047   -2.9785336    1793.6234  0.078337851  0.078583614            3 
 1909000   0.93030327   -2.9752443    1804.3029  0.078763003  0.078570283            2 
 1910000   0.93205569   -2.9967404    1793.6589   0.07825737  0.078556481            3 
 1911000   0.91772946   -2.9887828    1793.6612  0.078216517  0.078542907            1 
 1912000   0.93325813   -3.0023135    1798.0137   0.07836531  0.078529195            3 
 1913000   0.93710081   -2.9596521    1799.7989  0.078402113  0.078515743            5 
 1914000   0.94029086   -2.9773063    1797.3667  0.078255254  0.078502293            2 
 1915000   0.96860649   -3.0010417    1795.1937  0.078119832  0.078488982            2 
 1916000   0.96065078   -2.9855956    1795.3259  0.078084809  0.078475522            2 
 1917000   0.94539153   -2.9612542    1802.9922  0.078377335  0.078462211            2 
 1918000   0.94144976   -3.0080129    1803.1084  0.078341519  0.078448582            2 
 1919000   0.96940596   -2.9866607    1804.1227  0.078344742  0.078435261            4 
 1920000   0.95851011   -2.9847348    1804.6783  0.078328049  0.078421731            3 
 1921000   0.93038054   -2.9696227     1812.055  0.078607278   0.07840852            4 
 1922000    0.9451153   -3.0018503    1802.7003  0.078160784   0.07839486            2 
 1923000   0.94716193   -2.9909486    1802.0786  0.078093195  0.078381456            1 
 1924000   0.95806482   -3.0104891    1804.9111  0.078175291  0.078367715            1 
 1925000   0.93106655   -3.0029604    1801.4866  0.077986434  0.078353547            4 
 1926000   0.93712721   -3.0169422    1805.3118  0.078111447  0.078339629            2 
 1927000   0.93136543   -2.9869459    1812.2575   0.07837128  0.078325877            3 
 1928000   0.94219106   -2.9747465    1811.6288  0.078303459  0.078312302            2 
 1929000   0.93639802   -2.9940756    1808.8117  0.078141165  0.078298806            2 
 1930000   0.94805372   -2.9878883    1805.0843  0.077939735   0.07828501            5 
 1931000   0.95652879    -2.998603    1813.6714  0.078269957  0.078271419            7 
 1932000   0.96013285   -3.0095453    1797.9936  0.077553209   0.07825787            1 
 1933000   0.94509739    -2.968712    1809.3151  0.078001167  0.078244362            3 
 1934000   0.95031622   -3.0136831    1807.7925  0.077895231  0.078230788            2 
 1935000   0.91961348   -3.0137902    1812.9937   0.07807897  0.078217092            3 
 1936000   0.95157412   -2.9812947    1810.1322  0.077915469  0.078203939            2 
 1937000   0.91583953   -2.9885914    1812.3077  0.077968841  0.078190259            4 
 1938000   0.94322199   -2.9848508    1814.6158  0.078027854  0.078176643            3 
 1939000   0.96086672   -3.0000285    1817.4028  0.078107394  0.078162966            4 
 1940000   0.93096136   -2.9888837    1816.3824    0.0780233  0.078149504            2 
 1941000   0.95483065   -2.9894174    1814.1083  0.077885466   0.07813595            1 
 1942000    0.9281267   -2.9889156    1814.6246  0.077867514  0.078122148            4 
 1943000   0.92744131   -3.0033404    1815.7784  0.077876925  0.078108071            6 
 1944000   0.93229357   -3.0117336    1813.9934  0.077760349  0.078094124            4 
 1945000   0.92633872   -3.0059106    1817.7244  0.077880222  0.078080157            2 
 1946000   0.93377442   -2.9884262    1819.8479  0.077931138  0.078066366            2 
 1947000    0.9317148   -2.9795973    1814.9962  0.077683452  0.078052894           11 
 1948000   0.95298561   -2.9836495    1817.6773  0.077758271  0.078039031            2 
 1949000   0.92345485   -3.0187192    1812.7971  0.077509711  0.078024904            6 
 1950000   0.92803449    -2.958347    1817.3938  0.077666403  0.078010905            3 
 1951000   0.95195844   -2.9733131    1813.4269  0.077457153  0.077997069            3 
 1952000   0.93567283   -3.0190139    1815.5444  0.077507871  0.077983043            2 
 1953000   0.92522273   -2.9762109    1817.9727  0.077571801  0.077968653            2 
 1954000   0.95392025   -3.0153753    1814.6012  0.077388316  0.077954381            2 
 1955000   0.95290164   -2.9779474    1813.8738  0.077317723  0.077940228            6 
 1956000   0.95381034   -2.9790192    1820.0282  0.077540397  0.077926009            2 
 1957000   0.92938229   -2.9820517    1821.6189  0.077568509  0.077911966            2 
 1958000   0.93041751   -2.9856173    1820.3964  0.077476865  0.077897802            4 
 1959000   0.93422882   -3.0012519    1816.6311  0.077277143  0.077883497            4 
 1960000   0.93840698   -2.9842323    1833.8476  0.077969709  0.077869376            4 
 1961000   0.93908836   -3.0050285    1823.6945  0.077498491  0.077855013            5 
 1962000   0.93895229   -3.0336474    1818.5233  0.077239351  0.077840767            4 
 1963000   0.93910026   -3.0159258    1823.1351  0.077395785   0.07782652            2 
 1964000   0.92813178   -2.9895691    1828.5557  0.077586375   0.07781217            6 
 1965000   0.91618229   -2.9725484    1825.2642  0.077407301  0.077798091            2 
 1966000   0.94191303   -3.0128519    1816.8268  0.077010293  0.077783621            3 
 1967000    0.9371519   -3.0028583    1823.2856  0.077244773  0.077769029            6 
 1968000   0.93668663   -3.0233308    1825.2455  0.077288512  0.077754382            2 
 1969000   0.94319426   -3.0156679    1824.9744  0.077237784  0.077739615            3 
 1970000   0.94329595   -3.0090178    1825.3995  0.077216563  0.077725029            2 
 1971000   0.94474615   -2.9781616    1830.7011  0.077401537  0.077710615            2 
 1972000   0.93232039   -2.9957152    1821.5937  0.076977421  0.077696171            2 
 1973000   0.92822034   -2.9824956    1831.3817  0.077351821  0.077681809            2 
 1974000   0.91781844   -2.9903934    1827.2711  0.077139106  0.077667285            7 
 1975000   0.93605978   -2.9737317    1824.4305  0.076980191  0.077652667            2 
 1976000   0.91249532   -3.0091003    1827.9982  0.077091692  0.077638155            2 
 1977000   0.92803253   -2.9635205    1838.7086  0.077504155  0.077623869            2 
 1978000    0.9307723   -2.9976871    1835.9098  0.077347061  0.077609322            2 
 1979000   0.94268866   -3.0000579    1827.2054  0.076941444  0.077595206            2 
 1980000   0.93969034    -2.998348    1831.6741   0.07709066  0.077581012            1 
 1981000   0.94753326   -3.0226561    1829.7392  0.076970353  0.077566421            2 
 1982000   0.94075652   -2.9999708    1829.6676  0.076928507  0.077551932            4 
 1983000   0.94286123   -3.0030708     1830.249  0.076914145  0.077537366            2 
 1984000   0.92527551   -2.9813731    1841.9008  0.077364784  0.077523075            3 
 1985000   0.92565602   -3.0090064    1833.7499  0.076983624  0.077508834            3 
 1986000   0.93242008   -2.9970141    1838.9936  0.077164889   0.07749464            2 
 1987000   0.93013834   -3.0038932    1838.6871  0.077113199   0.07748037            2 
 1988000   0.93085661   -2.9920663    1842.3202  0.077226701  0.077466043            5 
 1989000   0.94040849   -3.0228801     1841.118  0.077137505   0.07745192            1 
 1990000   0.92513569   -2.9938805    1840.0249  0.077052969  0.077437825            7 
 1991000   0.92050424   -3.0065706    1844.8942  0.077218073  0.077423581            5 
 1992000   0.92802248   -2.9847659    1835.0697  0.076768309  0.077409241            5 
 1993000   0.93585666    -2.967298    1845.2265  0.077154476  0.077395158            4 
 1994000   0.92944417   -2.9689249    1843.4024   0.07703955  0.077381161            2 
 1995000   0.93926104   -3.0194828    1844.1935   0.07703398   0.07736695            2 
 1996000   0.93116749   -2.9992592    1844.1157  0.076992139  0.077352933            2 
 1997000   0.93693345   -3.0076585    1841.1589  0.076830198  0.077338506            4 
 1998000   0.91428478   -3.0295869    1848.0353   0.07707855  0.077324359            2 
 1999000   0.94887552   -2.9905899    1846.0057   0.07695538  0.077310066            2 
 2000000   0.91490344   -2.9988183    1844.8403  0.076868345   0.07729569            3 
 2001000   0.94959821   -2.9925383    1842.2278  0.076721132  0.077281313            4 
 2002000    0.9463279   -3.0215544     1848.213  0.076931942  0.077267129            3 
 2003000   0.92433265   -3.0062883    1850.9327  0.077006686  0.077252886            2 
 2004000   0.92627515   -3.0014131    1848.9358   0.07688522  0.077238499            3 
 2005000   0.95022378   -3.0161931    1853.5058  0.077036816  0.077224163            2 
 2006000   0.94310322   -3.0243561    1847.9401  0.076767202  0.077209987            2 
 2007000   0.93900468   -3.0240163    1844.3846  0.076581326  0.077195593            3 
 2008000   0.92376556   -3.0053323    1850.4438  0.076794645  0.077181185            3 
 2009000   0.95223323   -3.0117939    1848.2311  0.076664638  0.077166989            3 
 2010000   0.92433978   -2.9882745    1854.6123  0.076891058  0.077152943            7 
 2011000   0.91896865   -2.9831395    1853.5169  0.076807431  0.077138936            3 
 2012000   0.92461235   -3.0007602    1855.9223  0.076868883  0.077124897            3 
 2013000   0.92130163   -3.0043009    1856.1057  0.076838289  0.077110778            3 
 2014000   0.93676757   -2.9899327    1856.3795  0.076811466  0.077096744            3 
 2015000   0.89779802   -3.0337075    1854.1849  0.076682587  0.077082456            7 
 2016000   0.91632611   -2.9997521    1858.2503  0.076812594  0.077068283            5 
 2017000   0.93753468    -3.017597    1851.9635  0.076514771  0.077054133            2 
 2018000   0.93779981   -3.0032052    1865.9724  0.077055352  0.077040037            6 
 2019000   0.90994458   -3.0057481     1857.733  0.076677107  0.077026034            2 
 2020000   0.93282217   -2.9938167    1859.0762  0.076694564   0.07701214            3 
 2021000   0.91904173   -2.9949315    1859.0147  0.076654079  0.076998331            4 
 2022000    0.9633608   -2.9908597    1866.8071  0.076937317  0.076984602            2 
 2023000   0.92431585   -3.0060294    1864.7843  0.076815964  0.076971062            1 
 2024000   0.91996926   -2.9800125    1870.9877  0.077033421  0.076957483            6 
 2025000     0.917146   -2.9872852    1873.5212  0.077099636   0.07694399            4 
 2026000   0.92659067   -2.9921044    1863.0264  0.076629912  0.076930404            3 
 2027000   0.93561965   -3.0094702    1859.8548  0.076461719  0.076916645            2 
 2028000   0.93338327   -3.0132473    1872.2911   0.07693504  0.076902761            3 
 2029000   0.90844539   -3.0092705    1859.6336  0.076377261   0.07688915            3 
 2030000   0.91386491   -3.0235025    1866.1352  0.076606535  0.076875271            2 
 2031000   0.91805292   -3.0160167    1863.9387  0.076478692  0.076861545            2 
 2032000   0.92865864   -3.0202946     1873.001  0.076812704  0.076848034            3 
 2033000   0.91789357   -2.9887545    1869.6241  0.076636501  0.076834546            5 
 2034000   0.92485728   -3.0105132    1869.6941  0.076601691  0.076820723            4 
 2035000   0.91789833   -3.0110516    1875.1663  0.076788138   0.07680709            3 
 2036000   0.91717001   -3.0127017    1870.9166  0.076576481  0.076793544            6 
 2037000   0.92646297   -3.0184819    1872.2432  0.076593158  0.076780125            3 
 2038000   0.94458629   -3.0309222    1876.0916  0.076712936   0.07676675            5 
 2039000   0.93222957   -3.0154545    1871.1414  0.076473002  0.076753309            5 
 2040000   0.91514601   -3.0331675    1871.3289  0.076443176  0.076739694            1 
 2041000   0.93659302   -3.0319226    1880.9117  0.076796981  0.076726107            4 
 2042000   0.93920707   -2.9855063    1877.3066   0.07661225  0.076712489            5 
 2043000   0.92883263   -3.0031596    1880.4879  0.076704514  0.076698925            1 
 2044000   0.90305002   -3.0101269    1874.6794  0.076430177  0.076685508            2 
 2045000     0.951777   -3.0295604    1878.5799  0.076551748  0.076671834            3 
 2046000   0.91738137   -3.0113522    1873.1281   0.07629228  0.076658226            5 
 2047000   0.92539462   -3.0275715    1873.0985  0.076253808  0.076644361            3 
 2048000   0.92039486   -2.9959795    1879.9853  0.076496797  0.076630596            3 
 2049000   0.93067811    -3.030688      1877.53  0.076359607  0.076616713            4 
 2050000    0.9217415   -2.9998469    1885.5442   0.07664814  0.076603055            2 
 2051000   0.92357555   -3.0345338    1878.1007  0.076308334  0.076589364            2 
 2052000   0.93792537   -3.0114427    1875.3236  0.076158367  0.076575587            3 
 2053000   0.91697914   -3.0376195    1873.9097   0.07606388  0.076561778            2 
 2054000   0.92263879   -2.9917371    1884.4932  0.076456233  0.076547918            5 
 2055000   0.93088903   -3.0259188    1876.0169  0.076075298  0.076534595            3 
 2056000   0.92171618   -2.9941547    1882.4579  0.076299365  0.076521183            3 
 2057000   0.91852958   -3.0255298    1884.2545  0.076335056  0.076507746            2 
 2058000   0.93962591   -3.0176419    1885.6004  0.076352464  0.076494139            1 
 2059000   0.92850149   -3.0403792    1883.2396  0.076219831  0.076480464            4 
 2060000   0.91393866   -3.0348165    1885.5564  0.076276554  0.076467003            3 
 2061000   0.90914376   -3.0198319    1885.7091  0.076245717  0.076453796            3 
 2062000   0.92288215   -3.0394865    1887.1787  0.076268135  0.076440281            6 
 2063000   0.91652024   -2.9985173    1894.0991  0.076510709  0.076427007            4 
 2064000   0.92502838   -2.9978265    1899.7879  0.076703321  0.076413717            5 
 2065000   0.91155323   -3.0268779    1889.2131  0.076239431   0.07640028            2 
 2066000   0.91820938   -3.0079688    1890.6382  0.076260013  0.076386733            4 
 2067000   0.91936447   -3.0161269    1887.4526  0.076094685  0.076373523            3 
 2068000   0.91709123   -3.0199299    1898.6739  0.076510069  0.076360446            2 
 2069000   0.91959285   -3.0105338    1895.7475  0.076355225  0.076347437            3 
 2070000   0.94798562   -3.0291517    1895.7501  0.076318443  0.076334031            3 
 2071000   0.93595168   -3.0483617    1896.0274  0.076292749   0.07632068            3 
 2072000    0.9077677   -3.0005656    1896.5658   0.07627758   0.07630687            2 
 2073000   0.92556584    -2.998931    1899.8007  0.076370827  0.076293531            3 
 2074000    0.9292003   -3.0179233    1884.2071  0.075707452   0.07628018            3 
 2075000   0.91732033   -2.9989575    1899.9541  0.076303376  0.076266541            4 
 2076000   0.92166501    -3.012949    1893.7657  0.076018212  0.076252816            2 
 2077000   0.91867172   -3.0179563    1899.2815  0.076202918  0.076239403            6 
 2078000   0.92758851    -3.016626    1902.5959  0.076299162  0.076225857            4 
 2079000   0.91346001   -3.0136962    1905.6807   0.07638611  0.076212586            2 
 2080000   0.93300505   -3.0442234    1894.1818  0.075888692  0.076199113            4 
 2081000   0.92318055   -3.0358007    1897.8193   0.07599789  0.076185652            3 
 2082000   0.92563673   -3.0280047    1899.1351  0.076014051  0.076172329            2 
 2083000   0.90517981   -3.0300634    1908.5138   0.07635277  0.076159221            5 
 2084000   0.91754251   -3.0306549    1903.3438  0.076109398  0.076146266            2 
 2085000   0.92634648   -3.0096211    1904.6836  0.076126441  0.076132848            1 
 2086000   0.90167209   -3.0012679     1910.137  0.076307806  0.076119692            2 
 2087000   0.92032998   -3.0335313    1906.8682  0.076140722  0.076106815            2 
 2088000   0.92150897   -3.0323669    1906.1153  0.076074206  0.076093976            2 
 2089000   0.92717305   -3.0534449    1903.3162   0.07592613  0.076080757            4 
 2090000   0.89542028   -3.0140994    1915.4993   0.07637557  0.076067723            2 
 2091000   0.93560432    -3.016851    1908.5196   0.07606088  0.076055102            4 
 2092000   0.92448316   -3.0050382    1915.8513  0.076316575  0.076042115            2 
 2093000   0.89688632   -2.9966066    1916.7478  0.076315806  0.076029402            2 
 2094000   0.93514888   -3.0291161     1913.234  0.076139524  0.076016523            4 
 2095000   0.92305397   -3.0232946    1914.7979  0.076165392  0.076003384            3 
 2096000   0.92673711   -3.0142733      1914.73  0.076126351  0.075990221            7 
 2097000   0.92291963   -3.0324062    1905.9306  0.075740369  0.075977053            2 
 2098000   0.89661397   -3.0270391    1912.7341  0.075974503  0.075964033            2 
 2099000   0.90870543   -3.0472259     1909.362   0.07580443  0.075950798            4 
 2100000   0.92321842   -3.0225667    1918.3489  0.076124955   0.07593768            3 
 2101000   0.87007991   -3.0293039    1907.6428  0.075664082  0.075924514            3 
 2102000    0.9251793   -3.0158742    1917.2791  0.076010112  0.075911019            3 
 2103000   0.91411062   -3.0415609    1911.3374  0.075738523  0.075897809            2 
 2104000   0.93570442   -3.0375811     1909.375  0.075624804  0.075884546            7 
 2105000   0.90576286   -3.0330246     1915.452  0.075829453  0.075870971            4 
 2106000   0.90929247   -3.0162126    1912.1153  0.075661417   0.07585783            5 
 2107000   0.89929079    -3.022553    1910.2853  0.075553128  0.075844472            3 
 2108000   0.89004471   -3.0500758    1907.8104   0.07541945  0.075831028            3 
 2109000   0.91177434   -3.0337861    1913.7626  0.075618879  0.075817718            2 
 2110000   0.92413712   -3.0276218    1920.1128   0.07583384  0.075804475            3 
 2111000   0.91449363   -3.0415371    1921.6586  0.075858938  0.075791151            2 
 2112000   0.91918275   -3.0147316    1920.2443  0.075767217   0.07577815            3 
 2113000   0.88848432   -3.0259899    1923.1002  0.075843989  0.075764823            4 
 2114000   0.93105111     -3.01017    1924.7654  0.075873755  0.075751554            2 
 2115000    0.9314879   -3.0440177    1919.2136  0.075619134  0.075738413            5 
 2116000    0.9313985   -3.0366361    1920.4389  0.075631653  0.075725132            2 
 2117000   0.90692352   -3.0223937    1921.8367  0.075650949  0.075711929            4 
 2118000   0.90780429   -3.0391512     1921.552  0.075604028  0.075698454            5 
 2119000    0.9128386    -3.032676    1924.6594  0.075690554   0.07568529            4 
 2120000   0.91379891   -3.0362342     1925.615  0.075692414  0.075671765            2 
 2121000   0.91505249   -3.0218255    1929.3584  0.075803802  0.075658595            3 
 2122000   0.90182312   -3.0411841    1925.1105  0.075601259  0.075645342            4 
 2123000   0.93244381   -3.0351591    1930.8676  0.075791629  0.075632006            4 
 2124000   0.92106498   -3.0253815    1936.9362  0.075994046  0.075618728            2 
 2125000   0.92509881   -3.0220457     1919.958   0.07529247  0.075605434            4 
 2126000   0.90501059   -3.0143125    1931.4122  0.075706027   0.07559228            4 
 2127000   0.90225408   -3.0196541    1928.2764  0.075547579  0.075578857            3 
 2128000   0.92176437   -3.0265164    1931.4981  0.075638241  0.075565736            3 
 2129000   0.91088975   -3.0105522    1928.1823  0.075472925  0.075552186            3 
 2130000    0.9193651   -3.0365362    1928.4441  0.075447735  0.075538843            5 
 2131000   0.91792769   -3.0410258    1931.3468  0.075525839  0.075525491            4 
 2132000    0.9148521    -3.037045    1921.0162  0.075086626  0.075512359            4 
 2133000   0.90007939    -3.061567    1932.1858  0.075487804  0.075499219            2 
 2134000   0.91173062    -3.026428    1938.4976  0.075698907  0.075485774            3 
 2135000   0.90730098   -3.0495092    1929.3503  0.075306412  0.075472728            2 
 2136000   0.91074698   -3.0386715    1937.6619  0.075595422  0.075459769            5 
 2137000   0.93094497   -3.0286451    1932.0544   0.07534138  0.075446736            4 
 2138000   0.91124951   -3.0092053    1934.3616  0.075396069  0.075433575            2 
 2139000   0.92225063   -3.0194724    1938.8941  0.075537406  0.075420497            2 
 2140000   0.91094815   -3.0213267    1940.2211   0.07555378  0.075407518            1 
 2141000   0.91095646   -3.0384699    1938.1903  0.075439449  0.075394582            4 
 2142000   0.91090211   -3.0492443    1946.8524  0.075741223  0.075381555            2 
 2143000   0.91289189   -3.0343277    1949.6878  0.075816139  0.075368649            2 
 2144000   0.91087575   -3.0272852    1938.6624  0.075352239   0.07535572            2 
 2145000   0.90620792   -3.0397479    1945.2483  0.075572973  0.075342924            3 
 2146000   0.91454998   -3.0371879    1937.7039  0.075244792  0.075330034            1 
 2147000   0.90292303   -3.0481251    1940.3279  0.075311595  0.075316881            2 
 2148000   0.91895503   -3.0441103     1933.756  0.075021572  0.075303965            2 
 2149000   0.89903077   -3.0484294    1947.1267  0.075505146   0.07529094            3 
 2150000   0.90797946   -3.0157529    1943.9244  0.075345907  0.075277807            3 
 2151000   0.90028004   -3.0356081    1944.4612  0.075331676  0.075264634            1 
 2152000    0.9059048   -3.0072638    1947.6903  0.075421711  0.075251478            4 
 2153000   0.90709865   -3.0396436     1939.159  0.075056473  0.075238348            2 
 2154000   0.92641008   -3.0412063    1943.3169  0.075182485  0.075225154            3 
 2155000   0.92761825    -3.047057    1946.3898  0.075266428  0.075212184            3 
 2156000   0.91067564   -3.0461059    1941.1078  0.075027357  0.075198869            4 
 2157000   0.91826381   -3.0277087    1949.9424  0.075333891  0.075185785            2 
 2158000   0.90698273   -3.0533961    1945.9569  0.075145077  0.075172691            1 
 2159000   0.89575034   -3.0518653    1944.3841  0.075049565  0.075159677            3 
 2160000   0.91107338   -3.0072764    1946.1266  0.075082045  0.075146676            3 
 2161000   0.91214686   -3.0371387    1951.3382  0.075248271  0.075133527            3 
 2162000   0.92239605    -3.027643     1942.996   0.07489192  0.075120311            3 
 2163000   0.91057821   -3.0321774    1949.0459  0.075090379  0.075107431            5 
 2164000   0.88636885   -3.0211785    1950.1598  0.075098575  0.075094376            3 
 2165000   0.92989517   -3.0466867    1951.4098     0.075112  0.075081257            1 
 2166000   0.91059402   -3.0351649    1950.7992  0.075053833  0.075068109            2 
 2167000   0.90154073    -3.013568    1957.3536  0.075271252  0.075055136            2 
 2168000   0.89242051   -3.0232823    1948.0372   0.07487843  0.075041982            3 
 2169000   0.90685075   -3.0482573    1945.4185  0.074743297  0.075028691            4 
 2170000    0.8982835   -3.0703135    1945.6473   0.07471764  0.075015179            3 
 2171000   0.90747761   -3.0253145    1948.0787  0.074776551  0.075001935            4 
 2172000   0.90848068   -3.0507834    1947.9137  0.074735792  0.074988574            1 
 2173000   0.89696615   -3.0453139    1945.0133   0.07459017  0.074975077            4 
 2174000    0.8951389   -3.0395829    1951.9196  0.074820591  0.074961786            3 
 2175000   0.90986961   -3.0473637    1952.4338  0.074805894  0.074948499            5 
 2176000   0.89441954   -3.0530585    1952.3149  0.074766963  0.074935115            2 
 2177000    0.9061784   -3.0446746    1949.2005    0.0746134  0.074921667            1 
 2178000   0.91933401   -3.0433749     1950.356  0.074623355  0.074908354            3 
 2179000   0.90462019   -3.0543053    1958.7803  0.074911284  0.074894801            3 
 2180000     0.896924   -3.0373456    1951.5991  0.074602414  0.074881421            5 
 2181000   0.91545122   -3.0808355    1955.8962  0.074732394  0.074867777            3 
 2182000   0.90954006   -3.0384402    1957.0372  0.074741721  0.074853908            2 
 2183000   0.91006413   -3.0720536    1958.8595  0.074777045  0.074840144            2 
 2184000   0.88710624   -3.0513875     1959.477  0.074766371  0.074826429            3 
 2185000   0.90384736   -3.0608781    1957.0312  0.074638871  0.074812724            3 
 2186000   0.90325298   -3.0520232    1953.3825  0.074465632  0.074799015            5 
 2187000   0.88063258   -3.0646944     1959.534  0.074665981  0.074785019            3 
 2188000   0.91463952   -3.0548836    1953.4885  0.074401603  0.074770969            2 
 2189000   0.89582236   -3.0451599    1946.0263  0.074083537  0.074756734            3 
 2190000   0.89512147   -3.0355138    1961.6252  0.074643273  0.074742857            4 
 2191000   0.91437094   -3.0624288    1958.8461  0.074503501  0.074728896            3 
 2192000   0.88962629   -3.0362061    1965.2162  0.074711687  0.074715031            3 
 2193000   0.88918585   -3.0592852    1961.1722  0.074523946  0.074700999            2 
 2194000   0.88787471   -3.0695567    1954.3142  0.074229497  0.074686846            3 
 2195000   0.89269412   -3.0356181    1965.6037  0.074624285   0.07467286            6 
 2196000   0.89453615   -3.0462148    1961.4012  0.074430831  0.074659063            2 
 2197000   0.90626035   -3.0280144    1958.2193   0.07427626  0.074645199            4 
 2198000   0.87862908   -3.0636025    1965.1078  0.074503633  0.074631265            4 
 2199000    0.9029357   -3.0398466    1959.0475   0.07424009  0.074617524            4 
 2200000   0.90690357   -3.0435032    1961.5815   0.07430233  0.074603756            4 
 2201000   0.87537803   -3.0537862    1965.0827  0.074401131  0.074590052            2 
 2202000   0.91405747   -3.0472757    1961.6827  0.074238673  0.074576375            3 
 2203000   0.89557071   -3.0423703    1965.3456  0.074343531  0.074562587            2 
 2204000   0.90496832   -3.0612859    1961.9086  0.074179848  0.074548938            2 
 2205000   0.88136377   -3.0688059    1974.2997    0.0746145  0.074535008            3 
 2206000   0.91380771   -3.0369717    1969.7262  0.074407908  0.074521287            6 
 2207000   0.89003501   -3.0312512    1973.1881  0.074504912  0.074507891            3 
 2208000   0.91819196   -3.0425233    1968.3234  0.074287567   0.07449441            2 
 2209000   0.90611384   -3.0400926    1973.3437  0.074443326  0.074480852            2 
 2210000   0.88777618   -3.0603383    1968.4386  0.074224682  0.074466886            1 
 2211000   0.90088798   -3.0673735    1966.6658  0.074124294  0.074452954            4 
 2212000   0.91056059   -3.0608922     1968.996   0.07417857  0.074439222            1 
 2213000   0.88104736   -3.0610674    1974.2729  0.074343759  0.074425384            2 
 2214000   0.90748981   -3.0753895    1970.3901  0.074164034    0.0744115            3 
 2215000    0.8883574   -3.0261861    1968.9226  0.074075343  0.074397717            3 
 2216000   0.89740216   -3.0776039    1966.9133  0.073966353  0.074383942            3 
 2217000   0.88961337   -3.0580675    1973.1803  0.074168557  0.074370319            2 
 2218000   0.89459922   -3.0651036    1974.2661  0.074175912  0.074356529            2 
 2219000   0.88837958   -3.0422044    1981.9397  0.074430661  0.074342785            2 
 2220000   0.90304114    -3.044909     1975.947  0.074172184  0.074329282            3 
 2221000    0.8914095   -3.0482831    1975.2198  0.074111504  0.074315708            4 
 2222000   0.89941133    -3.037997    1975.5271  0.074089674  0.074301818            2 
 2223000   0.88123832   -3.0297312    1971.9794  0.073923355   0.07428818            3 
 2224000   0.89149452    -3.061607    1973.6059  0.073951062  0.074274517            4 
 2225000   0.89535767   -3.0544693    1982.9715  0.074268595  0.074260729            3 
 2226000   0.90679166   -3.0513936    1981.7419  0.074189201  0.074247017            4 
 2227000   0.90857796    -3.033959    1982.8818   0.07419854   0.07423339            4 
 2228000    0.9054763   -3.0568041    1977.6096  0.073968043  0.074219582            4 
 2229000   0.91087639   -3.0547651    1974.9969   0.07383718   0.07420591            6 
 2230000   0.89749292   -3.0352242    1983.1901  0.074110243  0.074192057            3 
 2231000   0.90277069   -3.0759128    1978.9389  0.073918232  0.074178252            3 
 2232000   0.90566727   -3.0513376     1989.595  0.074282969  0.074164495            3 
 2233000   0.91422859   -3.0491303    1978.7636  0.073845485  0.074150849            5 
 2234000   0.89838093   -3.0789701    1980.4495  0.073875318  0.074136939            3 
 2235000   0.90131992   -3.0688863    1976.3874  0.073690806   0.07412309            3 
 2236000   0.88321613    -3.061039    1980.0738  0.073795238  0.074109362            3 
 2237000   0.89226935   -3.0447554    1984.1605  0.073914488  0.074096113            2 
 2238000   0.92337015   -3.0724088    1983.0872  0.073841495  0.074082116            2 
 2239000   0.89443375   -3.0699183    1985.6815  0.073905073  0.074068452            3 
 2240000   0.87943523   -3.0534442    1990.2267  0.074041172  0.074054751            4 
 2241000   0.91199169   -3.0589494    1987.6403  0.073911954  0.074041421            2 
 2242000   0.92135997   -3.0651643    1986.7166  0.073844655  0.074027968            4 
 2243000   0.88741781   -3.0602572     1991.983  0.074007393  0.074014693            2 
 2244000   0.89628492   -3.0397087    1983.2862  0.073651449  0.074000957            7 
 2245000   0.89158165   -3.0789504    1988.3344   0.07380603  0.073987475            2 
 2246000   0.90334938   -3.0667798    1987.4134  0.073738994  0.073974007            4 
 2247000   0.89407641   -3.0627982    1998.4173  0.074114275  0.073960442            2 
 2248000   0.88676198   -3.0526355    1992.3877  0.073857789    0.0739472            2 
 2249000   0.90644245   -3.0754519    1993.2785  0.073857956  0.073934024            2 
 2250000   0.89596449   -3.0321887    1994.5409  0.073871884  0.073920767            2 
 2251000   0.89054191   -3.0469362    2002.5392  0.074135169  0.073907552            3 
 2252000   0.90539998   -3.0523887     1996.211   0.07386808   0.07389421            6 
 2253000   0.87494398   -3.0447444    2000.0446  0.073977091  0.073880953            3 
 2254000   0.87597392   -3.0535701    1997.3275  0.073843816  0.073867651            2 
 2255000   0.89356462   -3.0602399    2001.5483  0.073967047  0.073854563            4 
 2256000   0.89627207   -3.0740116    1995.4603  0.073709378  0.073841169            2 
 2257000   0.90199514   -3.0516319    2001.7123   0.07390756  0.073827544            6 
 2258000   0.86870539   -3.0640661    1999.6296  0.073797962  0.073814016            3 
 2259000   0.89192548   -3.0510476      1993.52  0.073539915  0.073800488            5 
 2260000   0.88737022   -3.0654543    1994.1422  0.073530319  0.073787091            3 
 2261000   0.90455329    -3.078368     1993.056  0.073457761  0.073773801            4 
 2262000   0.89081765   -3.0863655    2007.4423  0.073955288  0.073760421            2 
 2263000   0.90469089    -3.070395    2010.9386  0.074051354  0.073747181            2 
 2264000    0.9294521   -3.0579869    2001.8219  0.073683081  0.073733836            3 
 2265000    0.8937116   -3.0982057    2003.3664  0.073707374  0.073720535            2 
 2266000   0.88322874    -3.035243    1999.8755  0.073546467  0.073706973            2 
 2267000   0.89126557   -3.0793579    2008.5307  0.073832182  0.073693691            4 
 2268000   0.88629124   -3.0545866    2005.0336  0.073671135  0.073680194            3 
 2269000   0.88689305   -3.0672027     2012.535  0.073914169  0.073666924            2 
 2270000   0.87281476    -3.056209    2002.9448  0.073529545  0.073653792            1 
 2271000   0.88181235   -3.0542527    2009.2964  0.073730238  0.073640841            5 
 2272000   0.88502308     -3.06262    2009.7653  0.073714982  0.073627638            4 
 2273000   0.88328214   -3.0586186    2005.3655  0.073521247  0.073614346            4 
 2274000   0.88633187   -3.0558268    2009.0582  0.073624239  0.073601046            2 
 2275000   0.88111337   -3.0774261    2008.7148  0.073579296  0.073587937            4 
 2276000   0.87890087     -3.06289    2013.0148  0.073704408   0.07357485            3 
 2277000   0.89424104   -3.0476749    2007.7864  0.073480692  0.073561697            2 
 2278000   0.89061044   -3.0568741    2011.0257  0.073566935  0.073548612            5 
 2279000   0.87528676   -3.0637623     2011.236  0.073542342  0.073535583            3 
 2280000    0.8784092   -3.0847165     2014.468  0.073628217   0.07352252            3 
 2281000   0.87953262   -3.0794731    2010.7391  0.073459707  0.073509275            4 
 2282000   0.87120829   -3.0656325    2009.9378  0.073398253  0.073495819            3 
 2283000   0.89353318    -3.067382    2013.3739  0.073491529  0.073482575            3 
 2284000   0.90155561   -3.0850013    2015.4724  0.073535915   0.07346916            5 
 2285000   0.88098579   -3.0477566    2015.7979  0.073515604  0.073455939            3 
 2286000   0.90074875    -3.077753     2020.608  0.073658791  0.073442739            3 
 2287000   0.89698526   -3.0672289    2012.2003  0.073320228   0.07342956            1 
 2288000   0.85964329   -3.0664606    2022.9265   0.07367885  0.073416514            2 
 2289000   0.87721612   -3.0839584    2016.1613  0.073400368  0.073403394            4 
 2290000    0.8767506   -3.0808066     2022.993  0.073616922  0.073390139            3 
 2291000   0.87078502   -3.0590769     2016.726  0.073356831  0.073377167            2 
 2292000   0.87519831   -3.0679648    2015.0694  0.073264594  0.073363925            2 
 2293000   0.89687933   -3.0711818    2018.1805  0.073345707  0.073350791            2 
 2294000   0.88118369   -3.0537377     2013.298  0.073136372  0.073337893            3 
 2295000   0.87228126   -3.0751745     2023.134  0.073461657  0.073324964            2 
 2296000   0.90087916   -3.0671678    2017.3962  0.073221408  0.073311862            5 
 2297000   0.89380449   -3.1114392    2022.4182  0.073371725  0.073298611            4 
 2298000   0.87325952   -3.0495553    2024.0406  0.073398629  0.073285555            4 
 2299000   0.87175575   -3.0711274    2021.2289  0.073264784  0.073272463            3 
 2300000   0.87876191   -3.0654353     2026.418  0.073420941  0.073259331           12 
 2301000   0.88319872   -3.0640812    2022.1417  0.073234162  0.073246149            3 
 2302000   0.88936416   -3.0707921    2020.3799  0.073138572   0.07323284            4 
 2303000   0.90054092   -3.0434007    2020.1185  0.073097354  0.073219785            8 
 2304000   0.88582561   -3.0745033    2033.7836  0.073559882   0.07320693            6 
 2305000   0.88208027   -3.0759609    2025.2959  0.073221109  0.073193933            4 
 2306000   0.87973897   -3.0841342    2027.2438  0.073259751  0.073180894            2 
 2307000    0.8581751   -3.0866397    2026.7152  0.073208902  0.073167607            9 
 2308000   0.88308252   -3.0436162    2033.6715  0.073428347  0.073154747            4 
 2309000   0.90256518   -3.0748812    2030.5402  0.073283534  0.073142012            4 
 2310000   0.89649286   -3.0814121    2023.8821  0.073011619  0.073129012            3 
 2311000   0.89429612   -3.0908831    2019.7568   0.07283127  0.073115537            4 
 2312000   0.88073829     -3.04753    2029.4244  0.073148226   0.07310238            5 
 2313000   0.87653384   -3.0887694     2032.481  0.073226725  0.073089386            2 
 2314000   0.88973338   -3.0756687    2034.6141  0.073271898  0.073076197            2 
 2315000   0.88446041   -3.0667193    2018.1072  0.072646048  0.073063091            2 
 2316000   0.87489054   -3.0497293    2031.3465  0.073091053  0.073050231            2 
 2317000   0.88118089   -3.0609049    2036.2121  0.073234501  0.073037046            1 
 2318000   0.89676308    -3.089512    2029.0601  0.072945792  0.073023885            3 
 2319000   0.88464443   -3.0760394    2031.3913  0.072998107  0.073010799            2 
 2320000   0.89042921   -3.0712115    2029.2354  0.072889202  0.072997465            4 
 2321000   0.88314226   -3.0813494    2038.6601  0.073196185   0.07298432            5 
 2322000   0.86004679   -3.0783254    2032.5834  0.072946577  0.072971074            9 
 2323000   0.90522468   -3.0653126    2039.4806    0.0731626  0.072958054            3 
 2324000   0.86958317   -3.0787774    2035.7479  0.072997273  0.072945114            1 
 2325000   0.88800398    -3.083279    2037.8672  0.073041836  0.072931993            4 
 2326000   0.85800178   -3.0683289    2039.3015  0.073061818  0.072918753            3 
 2327000   0.88324506   -3.1052224    2033.3543  0.072817444  0.072905715            3 
 2328000   0.87455381   -3.0896194     2035.684  0.072869558  0.072892659            3 
 2329000   0.89054858   -3.0720966    2036.2584  0.072858822  0.072879385            4 
 2330000   0.89809892   -3.0768636    2034.3056  0.072757713  0.072866116            2 
 2331000   0.85351267   -3.0760772    2039.6721  0.072918349  0.072852805            5 
 2332000   0.90091636   -3.0833472    2042.8088  0.072999171  0.072839427            2 
 2333000   0.86405245   -3.0713623    2041.1084  0.072907143   0.07282626            3 
 2334000   0.87345839   -3.0830833    2040.3174  0.072847666  0.072812845            2 
 2335000   0.87796656   -3.0839015    2044.5543  0.072967678  0.072799447            2 
 2336000   0.87123233    -3.032954    2047.7988  0.073052183  0.072786164            3 
 2337000   0.88757803    -3.088962    2040.6822  0.072767157  0.072772923            4 
 2338000    0.8874575   -3.0809043    2045.2068  0.072897304  0.072759609            4 
 2339000   0.87796851   -3.0803615    2039.6492  0.072668136  0.072746128            2 
 2340000   0.87301029    -3.075256    2039.9068  0.072646255  0.072732878            6 
 2341000   0.86287821    -3.073627    2045.7297  0.072822502  0.072719508            7 
 2342000   0.87776359   -3.0837712     2040.414  0.072602263  0.072705826            2 
 2343000   0.87158362   -3.0915647    2043.2864  0.072673438  0.072692224            4 
 2344000   0.89690851   -3.0787408    2042.1034  0.072600379  0.072678733            4 
 2345000    0.8818564   -3.0874484    2042.5784  0.072586297  0.072665333            4 
 2346000   0.87393309   -3.0881576    2037.0287  0.072358223  0.072651797            7 
 2347000   0.87508012   -3.0816627     2050.257  0.072797082  0.072638431            3 
 2348000   0.87130289   -3.0450655    2040.6137  0.072423824   0.07262488            6 
 2349000    0.8885479   -3.0942849    2039.5284  0.072354491  0.072611438            6 
 2350000    0.8880949    -3.086697    2045.8822  0.072549014  0.072597782            5 
 2351000   0.88104835   -3.0777644    2055.1886  0.072848028  0.072584404            4 
 2352000   0.88582399   -3.0652324    2048.2052  0.072569628  0.072570972            2 
 2353000   0.87955272   -3.0955045    2048.1027  0.072535158   0.07255735            5 
 2354000   0.89021534   -3.0725782    2043.1914  0.072330481  0.072543833            4 
 2355000   0.87316332   -3.0733037    2046.2184  0.072406879  0.072530365            2 
 2356000   0.86241568    -3.084895    2039.3365  0.072132727  0.072516674            4 
 2357000    0.8935148   -3.0805244    2049.1114  0.072447723  0.072503104           11 
 2358000   0.88459466   -3.0931999    2051.5402  0.072502834  0.072489704            2 
 2359000   0.87380423   -3.0706804    2048.5955  0.072368077  0.072476115            3 
 2360000   0.85949294   -3.0839645    2043.6249  0.072161897  0.072462428            2 
 2361000   0.87298515   -3.1030229    2043.7307  0.072135065  0.072448671            3 
 2362000   0.87355708    -3.103957    2045.4608  0.072165567  0.072434781            2 
 2363000   0.87181746   -3.0775136    2052.8262  0.072394774  0.072421209            5 
 2364000   0.85778642   -3.1098718    2043.1858  0.072024317  0.072407653            2 
 2365000   0.88801107    -3.050025    2054.1759  0.072381112  0.072394208            3 
 2366000   0.84723953   -3.0857295    2049.3947  0.072182119  0.072380463            4 
 2367000   0.87955487   -3.0916689    2050.3038  0.072183631  0.072366914            5 
 2368000   0.88075293   -3.0767001    2047.8686  0.072067449  0.072353432            5 
 2369000   0.86941879   -3.0813115    2056.0556  0.072325016  0.072339918            4 
 2370000   0.86956647   -3.0822962    2045.8667  0.071936243  0.072326262            3 
 2371000   0.87794465   -3.1071489    2058.3191  0.072343565  0.072312502            3 
 2372000   0.88254424   -3.0789683    2054.5343  0.072180098  0.072299011            3 
 2373000   0.87546344   -3.0595644    2058.6139  0.072292943  0.072285374            3 
 2374000   0.86852551   -3.0917151    2048.4871  0.071907016  0.072271628            5 
 2375000   0.87785931   -3.0785201    2060.3247  0.072292094  0.072258238            6 
 2376000   0.87082316   -3.0896814    2053.2509   0.07201357  0.072244477            4 
 2377000   0.87028199   -3.0716223    2050.7581  0.071895881  0.072230778            7 
 2378000   0.86273473   -3.1035768    2059.8515  0.072184311  0.072216968            2 
 2379000   0.87373391   -3.0829711    2062.9825  0.072263645  0.072203449            3 
 2380000   0.88216999   -3.0883016    2063.9078  0.072265679  0.072190046            3 
 2381000   0.86305186   -3.1125558    2056.9791   0.07199283  0.072176568            5 
 2382000   0.87656908   -3.0789846    2062.6264  0.072160173  0.072163063            2 
 2383000   0.86913465   -3.0988154    2061.7572  0.072099497  0.072149649            6 
 2384000   0.89788694   -3.1096732    2068.4927  0.072304695  0.072136193            4 
 2385000   0.85605009   -3.0707541    2064.2032    0.0721245  0.072122673            3 
 2386000   0.87970928   -3.0794671    2071.4421  0.072347098  0.072109205            2 
 2387000   0.86158832   -3.0925993      2059.69  0.071906507  0.072095821            2 
 2388000   0.86889799    -3.121299    2059.5532  0.071871621  0.072082313            4 
 2389000   0.87468806   -3.1070747    2057.8888  0.071783481  0.072068814            6 
 2390000   0.88136833   -3.0848425    2066.8817  0.072067006  0.072055351            5 
 2391000   0.87188067   -3.0927882    2067.8567  0.072070844  0.072041657            1 
 2392000   0.85694274   -3.0836268    2061.3053  0.071812476  0.072028078            3 
 2393000   0.88501335   -3.0693101    2061.4597  0.071787844  0.072014365            4 
 2394000   0.84899749   -3.0831818    2066.9313  0.071948317  0.072000716            4 
 2395000    0.8583811   -3.0919062    2067.7234  0.071945838  0.071987163            3 
 2396000   0.87415861   -3.0597152    2060.2648  0.071656399  0.071973407            3 
 2397000   0.85903465   -3.0739878    2059.5605  0.071602019  0.071959598            4 
 2398000    0.8697979   -3.0703293     2055.159  0.071419205  0.071945704            4 
 2399000   0.88006751   -3.0920069    2068.7344  0.071860996  0.071931539            4 
 2400000   0.88570177   -3.0910461    2067.2825  0.071780644   0.07191753            2 
 2401000   0.87012933   -3.1023519    2065.9791  0.071705509  0.071903589            2 
 2402000   0.86754962   -3.0751789    2063.5364  0.071590912  0.071889602            4 
 2403000   0.87463558   -3.0735197    2067.6559  0.071703977  0.071875475            2 
 2404000   0.85151717   -3.1106077    2069.2175  0.071728284  0.071861489            3 
 2405000   0.86723803   -3.0831872    2069.4553  0.071706698  0.071847305            3 
 2406000   0.87155156   -3.0723481    2062.6955  0.071442766  0.071833364            2 
 2407000   0.87676842   -3.0947502    2062.6036  0.071409901   0.07181925            2 
 2408000   0.87518528    -3.094196    2061.9088  0.071356203  0.071805108            4 
 2409000   0.85938242   -3.1204166    2069.1624  0.071577501  0.071791333            4 
 2410000   0.86161118   -3.0794118    2063.1999   0.07134163  0.071777315            3 
 2411000   0.88415425    -3.106678    2064.9653  0.071373058  0.071763038            2 
 2412000   0.86502497   -3.0877314    2068.6465  0.071470651  0.071748975            3 
 2413000    0.8668072   -3.0991026    2067.8916   0.07141496  0.071734915            3 
 2414000   0.86454276   -3.0970742     2067.646    0.0713769  0.071720947            4 
 2415000    0.8604596   -3.1179206    2068.7101  0.071384063  0.071706863            4 
 2416000    0.8760375   -3.1057622    2064.4489  0.071207536  0.071692687            3 
 2417000   0.87100257   -3.0907053    2069.4182  0.071349408   0.07167875            3 
 2418000   0.84899048   -3.0884647    2076.0431  0.071548218  0.071664711            2 
 2419000   0.86124919   -3.1288368    2072.2512   0.07138801  0.071650864            2 
 2420000   0.87026538   -3.0822365    2072.5836  0.071369959  0.071636965            3 
 2421000   0.89024466   -3.1181924     2067.308  0.071158888    0.0716232            5 
 2422000   0.87407999   -3.0883659    2069.5379   0.07120623  0.071609273            3 
 2423000   0.86226277   -3.0995836    2069.8539  0.071187713   0.07159544            5 
 2424000   0.86847416   -3.0854258    2074.5597  0.071320122  0.071581682            3 
 2425000   0.86825911   -3.1351159    2071.4529  0.071183949  0.071568242            2 
 2426000    0.8733563   -3.0807591    2079.2026   0.07142081  0.071554538            4 
 2427000   0.86769074   -3.1117141    2080.5999  0.071439361  0.071540967            3 
 2428000   0.85636137   -3.0768759    2093.4855  0.071852192  0.071527525            2 
 2429000   0.85113215    -3.069325    2084.4802  0.071513662  0.071514094            5 
 2430000   0.87148841   -3.0988344    2083.2929  0.071443513   0.07150049            3 
 2431000   0.87535577   -3.1005241    2087.7072  0.071565447  0.071487232            2 
 2432000    0.8606968   -3.1033969    2087.3261   0.07152296  0.071473792            2 
 2433000   0.86652183    -3.093964     2085.945  0.071446261  0.071460494            3 
 2434000     0.865678   -3.1047641    2087.7201  0.071477681  0.071447106            4 
 2435000   0.84246423   -3.0893472    2092.4468   0.07161009  0.071433785            7 
 2436000   0.87286033    -3.104787    2088.8428  0.071457403  0.071420418            5 
 2437000   0.85507752   -3.0921667     2094.106  0.071608056  0.071407127            3 
 2438000   0.86539096   -3.1074013    2077.0658  0.070996233  0.071393744            5 
 2439000   0.87440325   -3.1012438    2086.1236  0.071276603  0.071380539            3 
 2440000   0.87819522   -3.0950433    2093.1204  0.071486353  0.071367359            9 
 2441000   0.85095293    -3.098933    2095.3747  0.071534027  0.071354182            2 
 2442000   0.85034782   -3.1141368    2091.4066  0.071369322  0.071341002            1 
 2443000   0.85431678   -3.0864409    2080.2455  0.070959392  0.071327665            4 
 2444000   0.87409389   -3.1081991    2087.7647  0.071186739  0.071314493            3 
 2445000    0.8637464   -3.1074114    2093.8593  0.071365349  0.071301248            2 
 2446000   0.84481645   -3.0550004    2097.7591  0.071469033  0.071288119            3 
 2447000   0.85888562   -3.1063841    2093.9942  0.071311611  0.071274927            2 
 2448000   0.83914526   -3.1127253    2096.0679  0.071353072  0.071261725            1 
 2449000   0.87120511   -3.1171579    2094.7003  0.071277402  0.071248532            6 
 2450000   0.87036599   -3.0999752    2093.6118  0.071211285  0.071235315            6 
 2451000   0.86885645   -3.0956954    2092.5748  0.071146975  0.071222032            6 
 2452000   0.87951709   -3.1188117    2094.4369  0.071181242  0.071208692            2 
 2453000   0.85101095   -3.0970673    2096.7516  0.071230861  0.071195438            5 
 2454000   0.84912291   -3.1200849    2097.0044   0.07121042  0.071181953            1 
 2455000    0.8603821   -3.0962401    2095.8081  0.071140804  0.071168576            6 
 2456000   0.84992155   -3.0803594    2097.8734  0.071181916   0.07115516            2 
 2457000   0.84625817   -3.0993698    2095.4703  0.071071438  0.071141858            7 
 2458000   0.84605775    -3.087512    2097.5224  0.071112096  0.071128702            5 
 2459000   0.84847983   -3.1103901    2094.9935  0.070997476  0.071115328            2 
 2460000   0.86919822   -3.1041541    2101.8763  0.071201771  0.071102203            2 
 2461000   0.88667221   -3.0858927     2104.495  0.071261513  0.071089102            3 
 2462000   0.86859564   -3.0769807    2112.8298  0.071514682  0.071075874            3 
 2463000   0.85299239   -3.0859867    2105.6539  0.071242857  0.071062922            4 
 2464000   0.85961364   -3.0967537     2104.555   0.07117678  0.071049806            5 
 2465000     0.880905   -3.0929334    2096.2144  0.070865937  0.071036531            4 
 2466000   0.86038364   -3.1025568    2097.3843  0.070876732  0.071023385            3 
 2467000   0.85121629   -3.1218584     2094.977  0.070766688  0.071009927            3 
 2468000   0.86030611    -3.112641    2099.9513  0.070905974   0.07099658            4 
 2469000   0.85670245   -3.1116346    2100.5486  0.070897415  0.070983139            5 
 2470000    0.8549309   -3.1098529    2101.2697  0.070893041  0.070970071            2 
 2471000   0.87423083   -3.1078379    2102.4231  0.070903246  0.070956841            2 
 2472000   0.84809206    -3.115017    2098.4935  0.070742093  0.070943564            2 
 2473000   0.86343929   -3.1215439    2104.3623   0.07091125  0.070930072            2 
 2474000   0.85725089   -3.1158681    2105.3315  0.070915237  0.070916866            3 
 2475000   0.83235604   -3.1098628    2102.6714  0.070797017  0.070903255            5 
 2476000   0.84729819   -3.1039882    2108.6404  0.070969319  0.070889944            7 
 2477000   0.86725025   -3.1250685    2102.8875  0.070747124  0.070876464            4 
 2478000   0.82423464   -3.0946113    2106.1414  0.070827999  0.070863037            6 
 2479000   0.85004919   -3.1016823    2107.0812  0.070831019  0.070849608            3 
 2480000   0.84647012    -3.100703    2109.7467  0.070892025  0.070836456            4 
 2481000   0.83181695   -3.1366697     2109.965  0.070870785  0.070823132            3 
 2482000   0.85811243   -3.0960867    2109.6373  0.070831227  0.070809607            2 
 2483000   0.85506146   -3.1203913    2114.1132   0.07095292  0.070796344            3 
 2484000   0.86730382   -3.1250925    2108.4972   0.07073595  0.070783228            2 
 2485000   0.83949181   -3.1176014    2113.1675    0.0708641  0.070769814            4 
 2486000    0.8653622   -3.1625582    2108.3611  0.070674481  0.070756533            6 
 2487000   0.85882567   -3.1163492     2111.585  0.070754087  0.070743359            3 
 2488000   0.84967263   -3.1119401    2119.1511  0.070979071  0.070730137            5 
 2489000   0.84590434   -3.0994018    2114.4687  0.070793783  0.070717037            3 
 2490000   0.86147972   -3.1046076    2121.7077   0.07100762  0.070703907            5 
 2491000    0.8287671   -3.1066672    2109.9492  0.070585748  0.070690693            4 
 2492000   0.86238909   -3.1010964    2114.1946  0.070699392  0.070677592            4 
 2493000   0.86445523   -3.1069917    2117.1581  0.070770092  0.070664545            3 
 2494000   0.85314631   -3.1361946    2123.7767  0.070962869  0.070651411            4 
 2495000    0.8524234   -3.0813816    2114.7961  0.070634471  0.070638417            6 
 2496000   0.83380462   -3.0981181    2119.0421  0.070747933  0.070625617            2 
 2497000   0.85364199   -3.1089911    2121.7981  0.070811579  0.070612542            7 
 2498000   0.86275474    -3.102133    2123.3403  0.070834679  0.070599571            5 
 2499000   0.87312908    -3.092557    2121.0089  0.070728586  0.070586484            4 
 2500000   0.84657071   -3.1179939    2122.7947  0.070759825  0.070573608            2 
 2501000   0.84073467   -3.1032753    2120.9926  0.070671485  0.070560756            5 
 2502000   0.85425538   -3.0977751    2123.7682  0.070735686  0.070547927            4 
 2503000   0.87080233   -3.1075419    2125.7272  0.070772646   0.07053509            4 
 2504000   0.85921307   -3.0946915    2129.4756   0.07086913  0.070522383            5 
 2505000   0.83911122   -3.1181793     2127.159  0.070763773  0.070509618            3 
 2506000    0.8362732   -3.0943267    2118.9085  0.070461176  0.070496774            6 
 2507000    0.8683487   -3.1095669    2130.2674  0.070810642  0.070484088            3 
 2508000    0.8350464    -3.125883    2121.4416  0.070489154  0.070471189            2 
 2509000   0.84554244   -3.1170885    2122.9329  0.070510593  0.070458313            9 
 2510000   0.84753959   -3.1261254    2119.2118  0.070358959  0.070445467            2 
 2511000   0.85078117   -3.1161721    2128.2551   0.07063106  0.070432473            5 
 2512000   0.85682678   -3.1285322    2131.2685  0.070702909  0.070419737            5 
 2513000   0.84044003   -3.0980516    2131.8808  0.070695078  0.070407005            2 
 2514000   0.87764456   -3.1177454    2123.0031  0.070372683  0.070394308            5 
 2515000   0.84262807   -3.1082883    2130.9607  0.070608372  0.070381542            5 
 2516000   0.84668983   -3.1252238    2129.8175  0.070542446  0.070368805            4 
 2517000   0.86176349   -3.1160549    2131.2188  0.070560813  0.070355988            3 
 2518000    0.8500117    -3.110379    2130.1231   0.07049653  0.070343267            2 
 2519000   0.87197172   -3.1178025     2137.561  0.070714604  0.070330567            6 
 2520000   0.85243529   -3.1343337    2132.1253  0.070506789  0.070317683            3 
 2521000   0.84848087   -3.1340325    2133.7291  0.070531835  0.070304863            7 
 2522000   0.84620256   -3.1092505    2138.7579  0.070670034  0.070292324            2 
 2523000   0.83122241   -3.1188729    2132.6697  0.070440935  0.070279521            3 
 2524000   0.85380975   -3.1247318    2130.3389   0.07033607   0.07026675            5 
 2525000   0.82824282    -3.113251    2135.1772  0.070467895  0.070254068            5 
 2526000   0.85125187     -3.12611    2138.1399  0.070537737  0.070241501            7 
 2527000   0.81474619   -3.1095641    2138.0588  0.070507148  0.070228767            4 
 2528000   0.84293593   -3.1357673    2136.6399  0.070432486  0.070215887            3 
 2529000    0.8430299   -3.1363747    2136.6268  0.070404205  0.070203025            6 
 2530000   0.85313678   -3.1262612    2137.5537  0.070406907   0.07019029            2 
 2531000   0.82794016   -3.1433521    2134.6736  0.070284262   0.07017749            5 
 2532000   0.84931219   -3.0937083    2141.7667  0.070489951  0.070164612            2 
 2533000   0.85622698   -3.1014492    2146.7777  0.070626982  0.070151905            4 
 2534000   0.83529467    -3.104052    2136.7152  0.070268194   0.07013914            4 
 2535000   0.84686991    -3.137781    2136.7943  0.070243072   0.07012647            2 
 2536000   0.84710453   -3.1138666     2140.277  0.070329818  0.070113807            5 
 2537000   0.86281096   -3.0949102    2148.1711  0.070561394  0.070101264            3 
 2538000   0.84862449   -3.1098231    2146.2618  0.070470903  0.070088613            5 
 2539000   0.85107656   -3.1259343      2146.04  0.070435868  0.070075869            2 
 2540000    0.8379339   -3.1311215    2143.9815    0.0703406  0.070063221            3 
 2541000   0.83648376   -3.1113212     2150.212  0.070517249  0.070050683            3 
 2542000   0.83640403   -3.1306064    2141.8063  0.070213951  0.070038087            2 
 2543000   0.85202121   -3.1042656    2144.8835  0.070287177  0.070025357            3 
 2544000   0.84962396   -3.1265999    2145.5317  0.070280783  0.070012775            7 
 2545000   0.85265268   -3.1389739    2142.1197  0.070141445  0.069999894            4 
 2546000   0.83418771   -3.1065467    2140.8188  0.070071313  0.069987235            2 
 2547000   0.84897693   -3.1462639    2136.2688  0.069894934  0.069974269            6 
 2548000   0.83917098   -3.1379168    2145.0274  0.070153957  0.069961307            3 
 2549000   0.82186559    -3.112405    2145.0839  0.070128284  0.069948445            9 
 2550000   0.83875004   -3.1352095    2146.8269  0.070157743  0.069935538            3 
 2551000    0.8483322   -3.1057979    2139.3006  0.069884378  0.069922559            7 
 2552000    0.8451012   -3.1131771    2144.8692  0.070038834  0.069909681            1 
 2553000   0.84576498   -3.1253546    2147.5751  0.070099722  0.069896713            7 
 2554000   0.83679767   -3.1380924    2149.0595   0.07012071  0.069883485            4 
 2555000   0.84392457   -3.1556322    2140.3899    0.0698105   0.06987042            5 
 2556000   0.83653752    -3.156317    2143.9033  0.069897735  0.069857186            4 
 2557000   0.85029854   -3.1295243    2151.2069  0.070108423  0.069844085            2 
 2558000   0.85703004   -3.1347436    2145.8098  0.069905191  0.069830912            3 
 2559000   0.84212166   -3.1091672    2147.3518  0.069928089  0.069817882            5 
 2560000   0.84067905   -3.1414734    2153.7915  0.070110401  0.069804865            2 
 2561000   0.85334527   -3.1460579    2150.2965  0.069969299   0.06979163            5 
 2562000   0.87404037   -3.1439302    2143.6339  0.069725278  0.069778294            3 
 2563000    0.8376977   -3.1341475    2145.4721   0.06975784  0.069764942            3 
 2564000   0.84159266   -3.0986377    2149.4257  0.069859131   0.06975164            3 
 2565000   0.83287536   -3.1287498    2146.5013  0.069736885  0.069738367            2 
 2566000   0.85544342   -3.1424294     2144.353  0.069639939  0.069725173            7 
 2567000   0.83451929   -3.1305078    2142.5156  0.069553162  0.069711973            2 
 2568000   0.82772765   -3.1334392    2147.2308  0.069679088  0.069698669            5 
 2569000   0.84032481   -3.1200223    2148.4577  0.069691765  0.069685142            4 
 2570000   0.82930556   -3.1278228    2135.4373  0.069242453  0.069671744            5 
 2571000   0.83984545   -3.1078352    2146.5338  0.069575191  0.069658209            3 
 2572000    0.8481063   -3.1209012     2150.044  0.069661873  0.069644968            5 
 2573000   0.83995831    -3.138013    2147.4306  0.069550154  0.069631638            5 
 2574000   0.84215814   -3.1458962    2146.7773  0.069501983   0.06961836            4 
 2575000   0.85054414   -3.0994963     2149.482  0.069562523  0.069604976            2 
 2576000    0.8167671   -3.1240094    2151.2198  0.069591737  0.069591766            5 
 2577000   0.84406973   -3.1422055    2150.5393  0.069542727  0.069578359            6 
 2578000   0.83459666   -3.1193422    2155.6162  0.069679861   0.06956484            8 
 2579000   0.84503872   -3.1393956    2153.1105   0.06957188  0.069551518            4 
 2580000   0.84717852   -3.1427786    2152.9266  0.069538974  0.069538105            2 
 2581000   0.84513183   -3.1561349    2151.9914  0.069481837  0.069524845            2 
 2582000   0.84120923   -3.1475141    2157.6797  0.069638513  0.069511588            2 
 2583000   0.83069821     -3.13002    2148.5748  0.069317808  0.069498414            4 
 2584000   0.83523908   -3.1251057    2153.1718  0.069439236  0.069485028            9 
 2585000   0.83950545    -3.095485    2151.5981  0.069361642  0.069471533            3 
 2586000   0.82377606   -3.1445144    2147.7526  0.069210898  0.069458235            5 
 2587000   0.82195124   -3.1421115    2149.8725  0.069252433  0.069444727            2 
 2588000   0.82693155   -3.1217014    2158.0415  0.069488713  0.069431507            2 
 2589000   0.84464442   -3.1466655    2152.9992  0.069299574  0.069418219            3 
 2590000   0.84955428   -3.1600051    2152.3462  0.069251808   0.06940495            4 
 2591000   0.82096469   -3.1232313    2160.0711  0.069473532  0.069391721            5 
 2592000   0.83720545   -3.1265727    2157.2625  0.069356434  0.069378405            3 
 2593000   0.84232746   -3.1408344    2158.6347  0.069373785   0.06936503            6 
 2594000   0.85378639   -3.1287612    2159.7491  0.069382841  0.069351593            4 
 2595000   0.85214813   -3.1081593    2156.9454  0.069266071  0.069338149            8 
 2596000   0.82284975   -3.1539493    2164.7837  0.069491001  0.069324823            4 
 2597000   0.82725587   -3.1640808    2162.8313  0.069401596  0.069311376            1 
 2598000   0.82208649   -3.1060462    2163.2139  0.069387153  0.069297982            5 
 2599000   0.84742792    -3.121371     2164.498  0.069401628  0.069284788            2 
 2600000   0.84062821    -3.138582    2158.1757  0.069172299  0.069271388            4 
 2601000   0.84352685   -3.1252314    2167.7302  0.069451821  0.069258113            3 
 2602000   0.84443137   -3.1463224    2160.0965  0.069180647   0.06924464            4 
 2603000   0.84011893   -3.1214847    2167.3367  0.069385858  0.069231434            7 
 2604000   0.82627488   -3.1071862    2168.9548  0.069410995  0.069218267            6 
 2605000   0.85144812   -3.1290609    2164.7041  0.069248372  0.069205016            5 
 2606000   0.83943554    -3.143344    2161.9092  0.069132426  0.069191725            2 
 2607000   0.85092089   -3.1268848     2156.474   0.06893217  0.069178484            5 
 2608000   0.82002711   -3.1399957    2165.7593  0.069202431  0.069165361            3 
 2609000   0.84582514   -3.1225866    2170.0599   0.06931327  0.069152301            6 
 2610000   0.83206416   -3.1320107    2164.2301  0.069100579  0.069139089            3 
 2611000   0.83454703   -3.1221649     2167.328  0.069172986  0.069125909            4 
 2612000   0.83820941   -3.1228181    2163.9548  0.069038885  0.069112769            4 
 2613000   0.83376414   -3.1491279    2171.3033  0.069246821  0.069099583            3 
 2614000   0.81712881   -3.1297743    2175.6149  0.069357781  0.069086288            3 
 2615000   0.84095002   -3.1363849    2173.6879  0.069269851  0.069073018            4 
 2616000   0.83904311   -3.1496006    2166.6511  0.069019211  0.069059817            5 
 2617000   0.83122321   -3.1553644    2168.1926  0.069041926  0.069046576            4 
 2618000    0.8255992   -3.1147052    2169.3795  0.069053333  0.069033391            4 
 2619000   0.84147119    -3.153676    2168.0785  0.068985569  0.069020175            5 
 2620000   0.82635647   -3.1427114    2164.4242  0.068843009  0.069006862            6 
 2621000   0.82061103   -3.1576765    2171.3231  0.069036089  0.068993763            2 
 2622000   0.82511081    -3.135836    2163.4191  0.068758554  0.068980677            2 
 2623000   0.81871408   -3.1300164     2181.327  0.069301277  0.068967538            2 
 2624000   0.84280547   -3.1111436    2174.3136  0.069052134  0.068954427            2 
 2625000   0.83179499   -3.1147353    2172.0094  0.068952679  0.068941202            6 
 2626000   0.82119271   -3.1422473    2176.8791  0.069080955  0.068927942            7 
 2627000   0.81535627   -3.1002867    2174.1141  0.068966947  0.068914705            4 
 2628000   0.82361703    -3.134432    2170.9424  0.068840133  0.068901805            5 
 2629000   0.82504107   -3.1405626    2182.7314  0.069187631  0.068888572            2 
 2630000   0.84433133   -3.1262507    2178.4184  0.069024663  0.068875357            4 
 2631000   0.82606325   -3.1567127    2178.7226  0.069008063  0.068862341            4 
 2632000   0.83177408   -3.1307224    2169.7678  0.068698322  0.068849385            3 
 2633000   0.83013005   -3.1092446    2184.5026  0.069138582  0.068836284            4 
 2634000   0.83452648   -3.1621808    2174.2741  0.068788727  0.068823107            3 
 2635000   0.82294542   -3.1514242     2182.596  0.069025806  0.068810028            4 
 2636000   0.83106136   -3.1016848    2185.7006   0.06909777  0.068796957            4 
 2637000   0.85153163   -3.1408193     2179.062  0.068861776  0.068783921            4 
 2638000   0.81859862   -3.1339908    2181.8925  0.068925086  0.068770921            4 
 2639000   0.82557116   -3.1326043    2170.4367   0.06853722  0.068757915            5 
 2640000   0.84039706    -3.146325    2178.8704  0.068777474  0.068745045            4 
 2641000   0.83147149   -3.1523296    2183.4679  0.068896501  0.068732002            6 
 2642000   0.85495741   -3.1829842    2190.1118  0.069079983  0.068718848            9 
 2643000   0.84239028   -3.1418287    2178.8533  0.068698867  0.068705802            3 
 2644000   0.82960626    -3.127423    2185.6155  0.068886014  0.068692838            4 
 2645000   0.82669105   -3.1392176    2179.6736  0.068672767  0.068679813            2 
 2646000   0.81974288   -3.1481704    2186.4457  0.068860094  0.068666826            2 
 2647000   0.81046697   -3.1517575    2178.7053  0.068590393  0.068653866            3 
 2648000   0.82872354   -3.1520095    2181.7584  0.068660573  0.068640764            5 
 2649000   0.82740599   -3.1364238    2186.4251  0.068781461   0.06862778            3 
 2650000   0.82944816   -3.1591373    2184.1252  0.068683183  0.068614835            5 
 2651000   0.84985009   -3.1449799    2191.5652  0.068891149  0.068602033            3 
 2652000   0.83257595   -3.1362867    2180.5311  0.068518448    0.0685892            4 
 2653000   0.82518799   -3.1577255    2190.4598  0.068804492  0.068576259            2 
 2654000   0.85064365   -3.1585412    2188.1324  0.068705489  0.068563193            4 
 2655000   0.83244163   -3.1618109    2184.9327  0.068579181  0.068550051            6 
 2656000   0.83461553   -3.1498817    2184.1056   0.06852741  0.068536864            6 
 2657000   0.81494227   -3.1400813    2189.9284  0.068684242  0.068523776            7 
 2658000     0.833607   -3.1564653    2186.8648  0.068562351  0.068510628            3 
 2659000   0.83198957   -3.1305792    2191.2855  0.068675114   0.06849763            5 
 2660000    0.8236301   -3.1342644    2191.3577  0.068651558  0.068484455            4 
 2661000   0.81999138   -3.1482471    2192.6379  0.068665849  0.068471624            2 
 2662000   0.81775876   -3.1555594    2194.3084  0.068692348  0.068458744            5 
 2663000   0.80188678   -3.1609547    2186.2904  0.068415645   0.06844574            6 
 2664000   0.82330587   -3.1481169    2189.2587  0.068482816  0.068432798            3 
 2665000   0.83536225   -3.1697874    2187.2346  0.068393828   0.06841994            3 
 2666000   0.80486347   -3.1414303    2197.9528  0.068703199  0.068407194            6 
 2667000   0.82070182   -3.1527502    2198.0123  0.068679299  0.068394302            4 
 2668000     0.820522   -3.1523058     2191.157  0.068439437   0.06838134            7 
 2669000   0.81519132   -3.1398437    2197.4899  0.068611524  0.068368389            5 
 2670000   0.82265064   -3.1670279    2190.7665  0.068375983  0.068355596            4 
 2671000   0.82619052   -3.1370513    2190.8214  0.068352095  0.068342673            2 
 2672000   0.84085491   -3.1476573    2206.0982  0.068802963  0.068330109            7 
 2673000   0.82117723   -3.1559695    2198.6887  0.068546226  0.068317281            3 
 2674000   0.82079558   -3.1522083    2195.9838  0.068436292  0.068304751            3 
 2675000   0.81637897   -3.1317382    2205.0159  0.068692084  0.068292267            2 
 2676000    0.8119718   -3.1677571    2208.7901  0.068783946  0.068279667           11 
 2677000   0.80926851   -3.1548214    2197.5556  0.068408528  0.068267168            3 
 2678000   0.81806062   -3.1540324    2202.7536  0.068544736   0.06825454            4 
 2679000   0.82540261   -3.1519327     2196.055  0.068310781  0.068241812            2 
 2680000   0.82130119   -3.1524437    2206.5525  0.068611707  0.068229271            2 
 2681000   0.82174827   -3.1836574    2200.5607  0.068399874  0.068216655            2 
 2682000   0.80380637    -3.150986    2208.6558  0.068625894  0.068204044            3 
 2683000   0.80205012   -3.1593103    2208.2888  0.068588916  0.068191577            3 
 2684000   0.82226654   -3.1571467    2207.7344  0.068546151  0.068179222            4 
 2685000   0.82390284   -3.1539963    2210.5353  0.068607552  0.068166733            3 
 2686000   0.83123742    -3.146113    2199.8394  0.068250168  0.068154073            4 
 2687000   0.82472674   -3.1521331    2206.7602  0.068439405  0.068141436            5 
 2688000   0.82039886   -3.1671404    2203.2716  0.068305792  0.068128928            4 
 2689000   0.83197132   -3.1489419    2212.3774  0.068562583  0.068116224            5 
 2690000   0.80085218   -3.1668209    2207.7734  0.068394466   0.06810369            3 
 2691000   0.82724618   -3.1572628    2204.1199  0.068255912  0.068090975            3 
 2692000   0.82570875   -3.1429525    2207.4475  0.068333565   0.06807852            6 
 2693000   0.81593638   -3.1551058    2204.3989  0.068213854   0.06806605            2 
 2694000   0.83471557   -3.1844833    2199.1197  0.068025233  0.068053424            5 
 2695000   0.81485501    -3.163956    2206.4587  0.068226924  0.068040698            2 
 2696000   0.82088281   -3.1856338    2207.6414  0.068238173   0.06802795            4 
 2697000   0.81769682   -3.1491666     2207.066  0.068195095  0.068015353            4 
 2698000   0.81408772   -3.1736843    2216.5504  0.068462761  0.068002775            3 
 2699000   0.81044778    -3.159564    2214.2997  0.068367903  0.067990163            4 
 2700000   0.81032775   -3.1724327    2209.6163  0.068198035  0.067977527            4 
 2701000   0.80344974   -3.1421419    2216.5936  0.068388054  0.067964847            3 
 2702000   0.82921531   -3.1758727    2213.2797  0.068260539  0.067952313            2 
 2703000   0.82065803   -3.1858258    2209.8237  0.068128735  0.067939717            4 
 2704000   0.80932738   -3.1542675    2216.3131  0.068303534  0.067927024            3 
 2705000   0.81138811   -3.1517759    2216.0418  0.068269925  0.067914406            5 
 2706000   0.81781095    -3.171424     2220.664  0.068387041  0.067901814            3 
 2707000   0.81920401   -3.1722071    2209.3653  0.068013955  0.067889121            3 
 2708000   0.82032163   -3.1513411     2215.396  0.068174421  0.067876526            2 
 2709000   0.81653958   -3.1526966    2217.3308  0.068208773  0.067863803            5 
 2710000   0.83678923   -3.1384475    2220.1356  0.068269853  0.067851275            3 
 2711000   0.82046755   -3.1571437    2225.1322   0.06839826  0.067838679            5 
 2712000    0.8278998   -3.1822211    2213.4509    0.0680141    0.0678261            4 
 2713000   0.82402937   -3.1527096    2219.8141  0.068184485  0.067813476            5 
 2714000    0.8195386   -3.1584223    2208.6454  0.067816427   0.06780086            3 
 2715000    0.8019675    -3.140596    2220.1912  0.068145832  0.067787993            2 
 2716000   0.81482427   -3.1435804    2214.2171  0.067937442  0.067775347            7 
 2717000    0.8231613   -3.1896831    2213.1153  0.067878645  0.067762525            4 
 2718000   0.80750554   -3.1711294    2214.2534  0.067888564  0.067749818            5 
 2719000    0.7981857   -3.1460051    2226.4786   0.06823828  0.067737063            5 
 2720000   0.81432028   -3.1614689    2211.3473  0.067749612  0.067724439            2 
 2721000   0.80398312   -3.1512285    2214.3964  0.067818093  0.067711753            3 
 2722000   0.80864501   -3.1786085     2217.663  0.067893185  0.067698741            8 
 2723000    0.8182429   -3.1814681    2218.8829  0.067905587  0.067685968            7 
 2724000   0.79943651   -3.1371283    2220.7225  0.067936934  0.067673187            3 
 2725000    0.8305457   -3.1723515    2215.9896  0.067767265  0.067660603            3 
 2726000   0.81484187   -3.1680505    2219.1856  0.067840108  0.067648006            4 
 2727000   0.80633755   -3.1592261    2226.1425  0.068027824  0.067635302            3 
 2728000   0.81786626   -3.1494315    2223.5916  0.067924964  0.067622548            3 
 2729000   0.80796439   -3.1590285    2223.1351  0.067886132  0.067609713            3 
 2730000    0.8345278   -3.1461809    2223.1143  0.067860631  0.067596819            4 
 2731000    0.8102302   -3.1715882    2225.2038  0.067899543  0.067583987            4 
 2732000   0.80777075   -3.1713936    2229.7152  0.068012298  0.067571158            7 
 2733000   0.82216644   -3.1671315    2224.9959  0.067843515  0.067558436            3 
 2734000   0.82332924   -3.1682453    2219.7037  0.067657391  0.067545716           12 
 2735000   0.82234892   -3.1472735    2229.7903  0.067939984  0.067532933            4 
 2736000   0.82558439   -3.1741909    2223.2623  0.067716323  0.067520084            9 
 2737000   0.81931586   -3.1648314    2224.4203  0.067726839  0.067507175            4 
 2738000   0.83674359   -3.1606869    2227.0407  0.067781857  0.067494289            3 
 2739000   0.79640827   -3.1732056    2220.6503  0.067562683  0.067481411            6 
 2740000   0.80615663   -3.1765161    2217.3002  0.067436136  0.067468437            3 
 2741000   0.82062744   -3.1753488     2223.054  0.067586466  0.067455615            2 
 2742000   0.81820547   -3.1363647    2235.0204  0.067925492  0.067442725            5 
 2743000   0.80871789   -3.1809398    2228.2646  0.067695486  0.067429858            5 
 2744000   0.83666275   -3.1658488    2219.1972  0.067395445  0.067416846            2 
 2745000   0.82535892    -3.181347    2227.7055   0.06762919  0.067403703            2 
 2746000   0.81493807   -3.1839467    2223.9877  0.067491737  0.067390705            3 
 2747000   0.80113469   -3.1747534    2220.2974  0.067355218  0.067377611            5 
 2748000   0.81124869   -3.1650266    2227.5678  0.067551184  0.067364514            4 
 2749000   0.81899501   -3.1793735    2220.1056    0.0673004  0.067351505            3 
 2750000   0.81800244   -3.1872464    2227.6231   0.06750373  0.067338444            5 
 2751000   0.81405829   -3.1670465    2233.1727  0.067647299  0.067325486            4 
 2752000   0.81623633   -3.1783213    2230.5592   0.06754358  0.067312669            4 
 2753000   0.81249249   -3.1722877    2226.1372  0.067385193  0.067299883            2 
 2754000   0.81926675   -3.1738747    2231.8132  0.067532474  0.067286959            4 
 2755000   0.81353653   -3.1840163    2237.6582  0.067684762  0.067274235            6 
 2756000   0.81569435   -3.1726978    2236.7857  0.067633819  0.067261421            2 
 2757000    0.8267613   -3.1660078    2230.4917  0.067419046  0.067248651            4 
 2758000   0.81873329   -3.1606028    2234.7741  0.067523994   0.06723591            6 
 2759000   0.79921604   -3.1848388    2235.0162  0.067506833  0.067223156            4 
 2760000   0.83533926    -3.145345    2236.1585  0.067516862  0.067210532            3 
 2761000   0.79863416   -3.1727923    2237.2932  0.067526656  0.067197836            3 
 2762000   0.81258516   -3.1750798    2227.3263  0.067201493  0.067185226            3 
 2763000   0.81770168   -3.1782889    2230.5626   0.06727478  0.067172463            2 
 2764000   0.81364511   -3.1642757    2234.8624  0.067380078  0.067159798            4 
 2765000   0.81232442   -3.1761941    2235.1153   0.06736333  0.067147147            4 
 2766000   0.81653501   -3.1643978     2229.714  0.067176248  0.067134656            5 
 2767000   0.80784291     -3.18055    2244.0501  0.067583728  0.067122091            3 
 2768000   0.80951656   -3.1640749    2237.7854  0.067370707  0.067109453            3 
 2769000   0.79689011   -3.1931388    2241.2108  0.067449464  0.067096665            4 
 2770000   0.81990745   -3.1960254    2239.0455  0.067359972  0.067083921            3 
 2771000   0.83263387   -3.1802965    2239.7763  0.067357642    0.0670712            3 
 2772000   0.80995159   -3.1928797    2245.9265  0.067518233  0.067058462            5 
 2773000   0.80001036   -3.1884049      2242.68  0.067396321  0.067045812            2 
 2774000   0.80567884   -3.1673864    2238.4794  0.067245836  0.067033455            6 
 2775000   0.82195015   -3.1632593    2249.9742  0.067566792  0.067020971            2 
 2776000   0.81364125   -3.1756843    2256.8419  0.067748615  0.067008712            1 
 2777000    0.8059176   -3.1711604    2246.0539   0.06740049  0.066996345            5 
 2778000     0.809979   -3.1788795    2239.5186  0.067180182  0.066983851            8 
 2779000    0.8091499   -3.1895154    2248.8369  0.067435436  0.066971411            5 
 2780000   0.80854467   -3.2025006    2244.2988  0.067275143  0.066958939            3 
 2781000    0.7929817   -3.1637029    2248.6863  0.067382424  0.066946391            4 
 2782000    0.8075592   -3.1587634    2254.1428   0.06752165  0.066933944            2 
 2783000   0.81229021     -3.17114    2248.0321  0.067314412  0.066921481            3 
 2784000   0.80530837   -3.1679813    2243.6247  0.067158306  0.066909071            3 
 2785000   0.80415758   -3.2026173    2245.0004  0.067175355  0.066896579            5 
 2786000   0.79972813   -3.1974273    2247.8417  0.067236232  0.066884036            3 
 2787000   0.82754387    -3.189648    2247.6713  0.067207011  0.066871649            2 
 2788000   0.78893793   -3.1837028    2250.7451  0.067274781  0.066859313            2 
 2789000    0.7768104   -3.1695062    2244.0942  0.067051936  0.066846875            4 
 2790000   0.79834675   -3.1791854    2248.0434  0.067145859   0.06683446            5 
 2791000   0.80419676   -3.2003499    2249.8498  0.067175738  0.066822064            3 
 2792000   0.81121668   -3.1704111    2245.4806  0.067021271  0.066809814            2 
 2793000   0.80518404       -3.192    2245.1269  0.066986721  0.066797381            3 
 2794000   0.80376492   -3.1789884    2245.7124  0.066980208  0.066784842            7 
 2795000   0.80421937   -3.1876495      2249.24  0.067061419  0.066772347            4 
 2796000   0.78816982   -3.2027852    2250.7482  0.067082384  0.066759782            2 
 2797000   0.79810849   -3.1679127    2240.3016  0.066747158  0.066747121            3 
 2798000   0.80326869   -3.1799606     2248.601  0.066970485  0.066734511            9 
 2799000   0.79945078   -3.1896497    2241.4195  0.066732746  0.066721803            5 
 2800000   0.80711437   -3.1658847    2257.9851  0.067201938  0.066709133            4 
 2801000   0.82782351   -3.1729875    2252.3112  0.067009141  0.066696464            5 
 2802000   0.80170506   -3.1855624    2255.9652  0.067093896  0.066683915            5 
 2803000   0.81805904   -3.1842986     2258.653  0.067149868  0.066671255           10 
 2804000    0.8188173   -3.1743966    2255.9968  0.067046982  0.066658727            6 
 2805000   0.80581498   -3.2041504    2247.0047  0.066755933  0.066645968            3 
 2806000   0.77996544   -3.1730756    2260.0851  0.067120606  0.066633384            5 
 2807000   0.80643147   -3.1908277    2251.4161  0.066839334   0.06662088            4 
 2808000   0.80362317   -3.1932097     2256.728  0.066973172  0.066608254            5 
 2809000   0.77765477   -3.1796142    2260.0237  0.067047101  0.066595437            5 
 2810000   0.79796779   -3.2053399    2252.5926  0.066802866   0.06658272            2 
 2811000   0.80138862    -3.193887    2262.2132  0.067064308  0.066569929            4 
 2812000   0.81071633   -3.1957293    2251.4356  0.066721066  0.066557203            4 
 2813000   0.81572505   -3.1670074    2257.8077  0.066886114  0.066544562            2 
 2814000   0.79207256   -3.1904291    2253.1678   0.06672494  0.066531991            5 
 2815000   0.82147989   -3.2006326    2257.6612  0.066834257  0.066519405            3 
 2816000   0.78721581   -3.1611407    2263.0679  0.066970523  0.066506827            3 
 2817000   0.80691127   -3.1882049    2253.6394  0.066667831  0.066494294            5 
 2818000   0.79480362   -3.1839064    2262.7044  0.066912241  0.066481679            5 
 2819000   0.81766762    -3.183978    2252.7046  0.066592899  0.066469001            3 
 2820000   0.80392332   -3.2106698    2260.6773  0.066804885  0.066456302            5 
 2821000   0.79241141   -3.1806307    2261.6337  0.066809457   0.06644367            3 
 2822000   0.80058804   -3.2131095    2257.3877  0.066660397  0.066431125            7 
 2823000   0.79521836   -3.2159254     2260.742  0.066735801  0.066418504           10 
 2824000   0.82080998   -3.1922717    2263.8393  0.066803568  0.066406048            2 
 2825000   0.79278824   -3.1906953    2257.1246  0.066581847  0.066393393            2 
 2826000   0.78034297   -3.1822369    2265.0839  0.066792991  0.066380889            4 
 2827000   0.80734677   -3.1836967    2264.7017  0.066758099  0.066368545            5 
 2828000   0.80070036   -3.2098847    2262.5127  0.066669988  0.066355921            3 
 2829000   0.80811386   -3.1833456    2268.8288  0.066832474  0.066343396            3 
 2830000   0.80291284   -3.1936856    2260.7807  0.066571869  0.066330754            2 
 2831000   0.80424207   -3.1797218    2259.9032  0.066522526  0.066318137            3 
 2832000   0.80436283    -3.163388    2269.2851  0.066775103  0.066305555            6 
 2833000    0.7946376   -3.2062266    2256.2322  0.066367579  0.066292973            5 
 2834000   0.79308799   -3.1689995    2266.6061  0.066649204  0.066280363            4 
 2835000   0.79819179   -3.1826174    2264.2001  0.066554972  0.066267749            3 
 2836000   0.80592241   -3.1922147     2262.122   0.06647044   0.06625527            4 
 2837000   0.82421751   -3.2160114    2262.8941  0.066469688  0.066242562            3 
 2838000    0.8156933   -3.2002212    2267.8461  0.066591674  0.066230042            3 
 2839000   0.81530225   -3.1875997    2272.7469  0.066712073  0.066217473            5 
 2840000   0.81014298   -3.1912277     2255.942   0.06619548  0.066204847            4 
 2841000   0.77475511    -3.180631    2265.7488  0.066459837  0.066192064            5 
 2842000    0.8103602   -3.2097691    2259.9383  0.066266079  0.066179383            6 
 2843000   0.80183072   -3.1728309     2268.981  0.066507826  0.066166692            4 
 2844000   0.81070806   -3.2143197    2266.5167  0.066412232  0.066153977            5 
 2845000   0.79963487   -3.1702695    2272.8961  0.066575749  0.066141421            5 
 2846000   0.79875225   -3.1926126    2259.9278  0.066172635  0.066128712            2 
 2847000   0.78983685    -3.184789    2273.5512  0.066548156  0.066116211            3 
 2848000   0.79863113   -3.1988943    2270.6616   0.06644024  0.066103585            3 
 2849000   0.79996855   -3.2042351    2270.7919  0.066420728  0.066091024            5 
 2850000   0.79691167   -3.2002839    2269.3178  0.066354322  0.066078428            3 
 2851000   0.80659656   -3.1906138    2270.3414  0.066360967   0.06606597            7 
 2852000   0.79178283   -3.1867168    2274.9396  0.066472053  0.066053407            5 
 2853000   0.79806242    -3.203088    2273.0381  0.066393214  0.066040794            4 
 2854000   0.79966542   -3.1919428    2273.3912  0.066380261  0.066028262            6 
 2855000   0.78508097   -3.1972982    2266.9776  0.066169806  0.066015538            4 
 2856000   0.78853885   -3.2100196    2273.4108  0.066334348   0.06600301            6 
 2857000   0.80778013   -3.1765327    2269.6458  0.066201311  0.065990423            3 
 2858000   0.78748484   -3.1965917    2271.3318  0.066227309  0.065977719            5 
 2859000   0.79319751   -3.2163896    2270.4245  0.066177698  0.065965019            4 
 2860000   0.81108607   -3.1730921    2279.2967  0.066413074  0.065952304            6 
 2861000   0.81265168   -3.2238311    2267.1869  0.066037134  0.065939569            6 
 2862000   0.79981008   -3.1787796    2269.6683  0.066086311  0.065927021            2 
 2863000   0.79088659   -3.1936132    2270.1111  0.066076119  0.065914241            6 
 2864000   0.80418202   -3.2085621    2277.2718    0.0662614  0.065901555            4 
 2865000   0.80604738   -3.1983639    2275.9863  0.066200881  0.065888954            5 
 2866000   0.79382306   -3.2115595    2273.9289  0.066117961  0.065876347            6 
 2867000   0.78997725   -3.2134149    2276.6248   0.06617326   0.06586375            3 
 2868000   0.80022072   -3.2032899    2281.1874  0.066282759  0.065851165            6 
 2869000   0.80776346   -3.2065854     2267.914  0.065874114  0.065838829            6 
 2870000   0.78801955    -3.202782    2285.5136  0.066362184  0.065826221            5 
 2871000   0.78613796   -3.1840091    2285.7883  0.066347043  0.065813721            4 
 2872000   0.78500255   -3.2083063    2281.1089  0.066188165  0.065801283            2 
 2873000   0.79795622   -3.2052807    2277.0531  0.066047486  0.065788692            3 
 2874000    0.7904881   -3.1810636    2278.9817  0.066080426  0.065776171            8 
 2875000   0.78963584   -3.2233148    2273.7338  0.065905327  0.065763665            6 
 2876000   0.79794994   -3.1892534     2285.682  0.066228617   0.06575113            2 
 2877000   0.77683977   -3.2101051    2279.9281  0.066038931  0.065738734            5 
 2878000     0.805858   -3.2140655    2280.5003  0.066032555  0.065726338            4 
 2879000   0.78592873   -3.1991412    2294.4649  0.066413826  0.065714018            7 
 2880000   0.80014494    -3.219984    2282.3524   0.06604029  0.065701542            5 
 2881000    0.7869354   -3.2162492    2277.8989  0.065888548  0.065688874            2 
 2882000   0.78708543   -3.2180155    2280.5043  0.065941022  0.065676281            4 
 2883000   0.80597405    -3.184887    2281.8237  0.065956286  0.065663582            3 
 2884000   0.78613968   -3.1988722    2284.7293  0.066017376  0.065650945            4 
 2885000   0.78882995    -3.187146    2289.6265  0.066135946  0.065638364            5 
 2886000   0.79318077   -3.2091499    2276.8844  0.065745102  0.065625791            2 
 2887000   0.78501995   -3.1966766    2288.2688  0.066050941  0.065613165            2 
 2888000   0.79112422   -3.2030386    2284.3426  0.065914779  0.065600555            4 
 2889000   0.77824648   -3.1792974    2280.1447  0.065770874  0.065587952            4 
 2890000   0.78076126    -3.225311    2281.3818  0.065783789  0.065575379            5 
 2891000    0.7754098   -3.2261373    2282.9111  0.065805116   0.06556259            7 
 2892000   0.78574329   -3.2060761     2285.254  0.065849872  0.065549903            2 
 2893000   0.76600239   -3.1882754    2287.3055  0.065886204  0.065537305            8 
 2894000   0.78466856   -3.2120028    2292.5776  0.066015251   0.06552483            5 
 2895000   0.76519506   -3.1968136     2290.298  0.065926828  0.065512223            3 
 2896000    0.7793536   -3.2006131    2291.1356  0.065928164  0.065499831            3 
 2897000   0.79017398   -3.2138826    2281.6616  0.065632885  0.065487212           13 
 2898000   0.78206468   -3.1976137    2289.8087   0.06584451  0.065474536            4 
 2899000   0.81222622   -3.2171986     2288.245  0.065776847  0.065462105            7 
 2900000   0.76388781   -3.2286238    2287.8424  0.065742597  0.065449497            5 
 2901000    0.8031075   -3.1976843    2291.4557  0.065823731  0.065437036            5 
 2902000    0.8028951   -3.1807339    2299.9559  0.066045139  0.065424602            2 
 2903000   0.78188651   -3.2253329    2293.9212  0.065849156  0.065412168            3 
 2904000   0.79102924   -3.2153288    2286.2876  0.065607427  0.065399741            5 
 2905000   0.78651994   -3.1848914    2288.2368  0.065640756  0.065387348            7 
 2906000   0.76883744   -3.2212967    2291.3688  0.065707983  0.065374971            6 
 2907000   0.77649305    -3.192247    2292.0555  0.065705065  0.065362529            6 
 2908000   0.79503597   -3.2102694    2291.7749  0.065674431  0.065349976            4 
 2909000   0.77648962   -3.2115916    2287.5227  0.065530043  0.065337393           11 
 2910000   0.78357545   -3.2126367    2285.6041   0.06545258  0.065324688            5 
 2911000   0.76571343   -3.2029188    2298.9715  0.065812765   0.06531207            5 
 2912000   0.76424235   -3.2213128    2294.4963  0.065662097  0.065299462            4 
 2913000   0.78707011   -3.2035475    2290.9749  0.065538817  0.065286804            4 
 2914000   0.77696835   -3.2090229    2292.8678  0.065570458  0.065274074            3 
 2915000   0.80550934   -3.2161802    2297.7758  0.065688274  0.065261434            7 
 2916000   0.80804431   -3.1908882    2296.9079  0.065640944  0.065248743            4 
 2917000   0.77109066   -3.2032265    2293.6919  0.065526565  0.065236172            5 
 2918000   0.79545108   -3.2022314     2284.613  0.065244832  0.065223573            3 
 2919000   0.79675281   -3.2148852    2287.5339  0.065305866  0.065210906            4 
 2920000   0.77047338   -3.1939763    2293.0709  0.065441521  0.065198276            3 
 2921000   0.78660004   -3.2159145    2300.5868  0.065633539  0.065185683            2 
 2922000   0.76581922   -3.1979074    2288.9241  0.065278466  0.065172968            3 
 2923000    0.7940021   -3.2162586    2292.4598  0.065356934  0.065160529            4 
 2924000   0.77688586    -3.218788    2285.5356  0.065137245  0.065147801            6 
 2925000   0.79385377   -3.2199059    2299.7915  0.065521127  0.065135175            7 
 2926000   0.77850037    -3.209983    2288.7482  0.065184217  0.065122654            5 
 2927000    0.8069596   -3.2198815    2293.9613  0.065310367  0.065109949            7 
 2928000    0.7650325   -3.2328335    2291.8083  0.065226786  0.065097313            2 
 2929000   0.78612305    -3.240012    2301.9516  0.065493103  0.065084643            5 
 2930000   0.77464525   -3.1825858    2297.6197  0.065347545  0.065071906            5 
 2931000   0.77553906   -3.2092522    2298.4579  0.065349083  0.065059317            3 
 2932000   0.78889955   -3.2241001    2302.1069  0.065430506  0.065046652            5 
 2933000    0.7778992    -3.225835    2301.5074  0.065391163  0.065033927            3 
 2934000   0.76695239   -3.2090622    2302.1765   0.06538788  0.065021526            4 
 2935000   0.77898062   -3.2018671    2302.7125   0.06538082  0.065008864            4 
 2936000   0.77692918   -3.2330052    2297.5372  0.065211659  0.064996303            4 
 2937000    0.7856762   -3.2134435    2296.8435  0.065169775  0.064983813            6 
 2938000   0.78001927   -3.1952007    2308.0314  0.065464925   0.06497131            2 
 2939000    0.7938253   -3.1901715    2304.8376  0.065352093  0.064958887            4 
 2940000   0.78742618   -3.2102415     2304.049  0.065307512   0.06494649            4 
 2941000   0.79969053   -3.2064496    2307.2648  0.065376426  0.064933964            6 
 2942000   0.79012572   -3.2168952    2297.1204   0.06506686   0.06492147            2 
 2943000   0.77269746   -3.2087553    2301.2701  0.065162253  0.064908894            5 
 2944000   0.78765937   -3.1999077    2314.6616  0.065519179  0.064896305            2 
 2945000   0.77664571   -3.2080662    2307.2974  0.065288553  0.064883888            5 
 2946000   0.78178107   -3.2313606    2305.7716  0.065223228  0.064871354            3 
 2947000   0.79298283    -3.218201    2304.5955   0.06516784  0.064858591            6 
 2948000   0.80650444   -3.1963999    2305.6095  0.065174397  0.064846058            4 
 2949000   0.76644186   -3.2314936    2310.6782  0.065295529   0.06483355            5 
 2950000     0.767365   -3.2095459    2304.1949   0.06509025  0.064820886            7 
 2951000   0.78247117   -3.1904603     2307.806  0.065170167  0.064808244            5 
 2952000   0.77992219   -3.2137261    2308.4775  0.065167047  0.064795668            1 
 2953000   0.78382611   -3.2112633    2303.0702  0.064992385  0.064783116            5 
 2954000    0.7763333   -3.2156938    2310.2709  0.065173519  0.064770366            3 
 2955000   0.78179732   -3.2176492    2305.4197  0.065014655  0.064757661            4 
 2956000   0.80356466   -3.2102165     2303.695  0.064944041  0.064745047            5 
 2957000   0.76168179   -3.2358032    2302.5161  0.064888855  0.064732373            3 
 2958000   0.78324032   -3.2176534    2298.7426   0.06476061  0.064719713            3 
 2959000   0.78901597   -3.2014822    2313.8253  0.065163492   0.06470724            2 
 2960000   0.76583831   -3.2182099    2307.7172  0.064969516  0.064694725            6 
 2961000   0.77020025   -3.2246058    2317.4671  0.065221972  0.064682265            8 
 2962000   0.78619816   -3.2050522    2312.1325  0.065049868  0.064669835            4 
 2963000   0.76460263   -3.2319849    2314.9395   0.06510686   0.06465736            4 
 2964000   0.78406983   -3.2469578    2305.6652  0.064824145  0.064644731            8 
 2965000   0.78325016   -3.2247156    2317.4439   0.06513333  0.064632219            5 
 2966000   0.77045495   -3.2204189    2310.2412  0.064909002  0.064619568            7 
 2967000    0.7815305   -3.2350068    2307.8353  0.064819551  0.064606986            3 
 2968000   0.78275587   -3.2289701    2304.0097    0.0646903  0.064594504            4 
 2969000   0.77927347   -3.2214468    2317.0761  0.065035257  0.064581888            4 
 2970000    0.7757317   -3.2337977    2313.3863   0.06490983  0.064569163           11 
 2971000   0.77607123   -3.2431517    2312.3443  0.064858755  0.064556521            4 
 2972000   0.75996756   -3.2166115     2315.796  0.064933714  0.064543974            4 
 2973000    0.7696586   -3.2380703    2311.9222  0.064803291   0.06453154            5 
 2974000   0.77618297   -3.2202625     2310.646  0.064745741   0.06451891            6 
 2975000   0.78121374   -3.2193318    2317.8685  0.064926288   0.06450631            5 
 2976000    0.7668593   -3.2526332    2316.1028   0.06485503  0.064493742            3 
 2977000   0.77178586   -3.2167816    2313.8319  0.064769677  0.064481164            5 
 2978000   0.76324539   -3.2145427    2316.0896  0.064811103  0.064468897            4 
 2979000   0.77744956   -3.2067924    2320.8313  0.064921991  0.064456514            3 
 2980000   0.75229966   -3.2249344    2313.8655   0.06470541  0.064443829            2 
 2981000   0.79127602   -3.2171549    2315.7089  0.064735238  0.064431292            7 
 2982000   0.76052524   -3.2457282    2314.6191  0.064683073   0.06441884            4 
 2983000   0.76772277   -3.2358518    2315.6591  0.064690444  0.064406352            3 
 2984000   0.77042644   -3.2223329    2309.3561  0.064492741  0.064393806            2 
 2985000    0.7716248    -3.248718     2311.189  0.064522305  0.064381227            3 
 2986000   0.75136429   -3.2329993      2320.39   0.06475748  0.064368698            2 
 2987000   0.78720977   -3.2181634    2321.5542  0.064768279  0.064356019            4 
 2988000   0.75678761   -3.2173501    2315.5238  0.064578419   0.06434356            3 
 2989000   0.76299208    -3.211886     2321.503  0.064723514  0.064331176            3 
 2990000   0.77050598   -3.2389909    2313.9157  0.064490403  0.064318699            2 
 2991000   0.77704879   -3.1991177     2325.499   0.06479157   0.06430615            4 
 2992000   0.76291769    -3.214731    2316.9889   0.06453289  0.064293726            3 
 2993000   0.76905444   -3.2284712    2323.3183  0.064687558  0.064281154            3 
 2994000   0.76451535   -3.2242202    2326.0084  0.064740827  0.064268721            2 
 2995000   0.78205678   -3.2319851    2317.6497  0.064486637  0.064256306            3 
 2996000   0.77399773   -3.2378042    2316.0747  0.064421303  0.064243853            5 
 2997000   0.77741944   -3.2113701    2325.7888  0.064669915  0.064231241            4 
 2998000   0.75483775   -3.2559811    2317.8336  0.064427219  0.064218689            5 
 2999000   0.76375326     -3.25064    2326.4165  0.064644228  0.064206065            3 
 3000000   0.78495924   -3.2473599    2328.2038  0.064672328  0.064193516            6 
 3001000   0.77520414   -3.2274232    2315.0772   0.06428627  0.064180887            4 
 3002000   0.76337382   -3.2016442    2324.9271  0.064538284  0.064168358            7 
 3003000   0.78024309   -3.2370415    2316.6383  0.064286777  0.064155783            6 
 3004000    0.7753007    -3.244995    2325.4677   0.06451031  0.064143126            3 
 3005000   0.78999456    -3.233957    2318.5979  0.064298332   0.06413045            4 
 3006000   0.79015706   -3.2336265    2326.8396  0.064505422  0.064117832            4 
 3007000   0.76915871   -3.2277268    2323.4985  0.064391379  0.064105402            6 
 3008000   0.78392916   -3.2351678    2319.4433  0.064257627  0.064093014            3 
 3009000   0.75952734   -3.2436204    2327.7413  0.064466083  0.064080582            4 
 3010000   0.75638575    -3.245802     2326.099  0.064399197  0.064068216            3 
 3011000   0.76924907   -3.2147542    2327.7607    0.0644238  0.064055808            4 
 3012000   0.75351041    -3.257584    2332.9128  0.064544954  0.064043482            4 
 3013000   0.76982475   -3.2244478    2324.1616  0.064281492  0.064030987            4 
 3014000   0.77203232   -3.2609207    2331.4208   0.06446087   0.06401872            4 
 3015000    0.7717129   -3.2221666    2331.7582  0.064448818   0.06400639            6 
 3016000   0.80234566   -3.1965077    2331.6452  0.064424325  0.063994203            6 
 3017000   0.78030682   -3.2356205    2325.2167  0.064225409  0.063981975            4 
 3018000   0.78224546   -3.2254825    2331.7685  0.064385037  0.063969543            6 
 3019000    0.7866761   -3.2319872    2335.1402  0.064456778  0.063957204            3 
 3020000   0.78857201   -3.2421746    2327.1466  0.064214863  0.063944886            4 
 3021000   0.77442589   -3.2125629    2330.9912  0.064299657   0.06393255            3 
 3022000    0.7569311    -3.240595    2338.5243  0.064486111  0.063920289            2 
 3023000   0.76099183   -3.2095618    2338.5244  0.064464781  0.063907933            3 
 3024000   0.78870123   -3.2463966    2336.5466   0.06438896  0.063895646            6 
 3025000   0.77186503   -3.2262231    2337.1407  0.064384042  0.063883543            6 
 3026000   0.77060015    -3.236602    2329.8508  0.064162008  0.063871235            4 
 3027000    0.7788675    -3.245368    2341.0891    0.0644502  0.063858905            4 
 3028000   0.77490463   -3.2554034     2329.863  0.064119963  0.063846534            6 
 3029000   0.75982314    -3.228581    2332.2149  0.064163501  0.063834075            6 
 3030000   0.78555725   -3.2455059    2337.7561  0.064294721  0.063821825            6 
 3031000   0.76658043    -3.232833    2333.2048  0.064148377  0.063809594            5 
 3032000   0.76752122   -3.2366585    2329.7069  0.064031084  0.063797278            7 
 3033000   0.78541124   -3.2380385    2334.8419  0.064151057  0.063784906            4 
 3034000    0.7693805    -3.253003     2339.891  0.064268595  0.063772501            5 
 3035000   0.77391086   -3.2171054    2345.7746  0.064408969  0.063760188            3 
 3036000   0.77609278   -3.2167486    2342.2823  0.064291894  0.063747878            5 
 3037000   0.77234509   -3.2530709    2330.8005  0.063955671  0.063735512            3 
 3038000   0.76840771   -3.2360117    2342.6057   0.06425844  0.063723128            3 
 3039000   0.76615789   -3.2435823    2336.8776  0.064080224  0.063710754            2 
 3040000   0.76489992   -3.2112156    2341.7451  0.064192575  0.063698363            4 
 3041000     0.767375   -3.2375327    2337.0189  0.064041952  0.063686086            3 
 3042000   0.76719131   -3.2501137     2338.513   0.06406183  0.063673771            6 
 3043000    0.7619992   -3.2525586    2336.7326   0.06399202  0.063661283            3 
 3044000   0.76914702   -3.2389674    2340.2674  0.064067766  0.063648805            4 
 3045000   0.76788674   -3.2497409    2338.0911  0.063987167  0.063636326            6 
 3046000    0.7646922    -3.204605    2338.6055  0.063980234  0.063623947            4 
 3047000    0.7591614   -3.2352051    2330.8796  0.063747937  0.063611538            3 
 3048000    0.7596711   -3.2382781    2347.7722  0.064188873  0.063599216            4 
 3049000   0.75803185   -3.2384441    2342.3241  0.064018916  0.063586747            3 
 3050000   0.76850816    -3.228191    2342.0436  0.063990261  0.063574365            2 
 3051000   0.78399082   -3.2384278    2335.9368   0.06380249  0.063561945            3 
 3052000   0.76127914   -3.2502066    2345.3998  0.064039968  0.063549508            3 
 3053000   0.76010438   -3.2164633     2341.686  0.063917621  0.063537245            6 
 3054000   0.76707388   -3.2566329    2344.1376  0.063963589  0.063524704            4 
 3055000   0.74817796   -3.2593479      2335.84  0.063716311   0.06351217            4 
 3056000   0.76542749   -3.2570182    2343.4879  0.063904011  0.063499677            2 
 3057000   0.75134253   -3.2465904    2335.3163  0.063660352  0.063487248            4 
 3058000    0.7833374   -3.2475629    2340.0926  0.063769691  0.063474749            8 
 3059000   0.75712217   -3.2462396    2343.4817   0.06384117  0.063462358            4 
 3060000   0.75519214   -3.2623121    2340.5451  0.063740335  0.063449969            3 
 3061000    0.7662347   -3.2501708    2343.7528  0.063806838  0.063437461            6 
 3062000   0.75573224   -3.2433728    2345.5951  0.063836139    0.0634251            5 
 3063000   0.74825854   -3.2253337    2350.9651  0.063961398   0.06341275            4 
 3064000   0.74225346   -3.2505145    2342.4827   0.06370982  0.063400427            3 
 3065000   0.73750519   -3.2228091    2351.2561  0.063927572  0.063388254            3 
 3066000   0.76248042   -3.2244553     2346.465    0.0637765  0.063376148            4 
 3067000   0.75837395   -3.2425245    2346.3343  0.063752155  0.063363814            5 
 3068000   0.74998134   -3.2367708    2353.2985  0.063920537  0.063351411            4 
 3069000   0.75758942   -3.2477395    2343.5342  0.063634576  0.063339096            6 
 3070000   0.77274649   -3.2291993    2348.8431  0.063757957  0.063326814            8 
 3071000   0.74418353   -3.2459417    2346.5342  0.063674541   0.06331446            4 
 3072000   0.76244404    -3.252593    2348.8269  0.063716007  0.063302192            5 
 3073000   0.75246882   -3.2566585    2343.7884  0.063558639  0.063289766            2 
 3074000   0.76896149   -3.2530302     2352.832  0.063783126  0.063277353            3 
 3075000   0.77259151   -3.2574515    2354.6066  0.063810476  0.063265051            8 
 3076000   0.76300181   -3.2357373    2352.0766   0.06372119  0.063252746            2 
 3077000   0.77095824   -3.2434752    2357.9985  0.063860862  0.063240525            5 
 3078000   0.75172164   -3.2596839    2352.2476  0.063684417  0.063228123            4 
 3079000   0.74445063   -3.2613427    2359.8777  0.063870243  0.063215849           11 
 3080000    0.7506293   -3.2259614    2357.9776  0.063798096  0.063203626            4 
 3081000   0.76574026   -3.2383595    2349.8774  0.063558297   0.06319124            5 
 3082000   0.77588367   -3.2445552    2363.0676  0.063894321  0.063178946            4 
 3083000   0.76915273    -3.255349    2354.9003  0.063652835    0.0631667            3 
 3084000   0.77400142   -3.2381137    2351.5355  0.063541275  0.063154404            4 
 3085000   0.75616836   -3.2368933    2355.3833  0.063624617  0.063142086            6 
 3086000   0.74645011   -3.2500869    2348.7748  0.063425545  0.063129724            5 
 3087000   0.76573713   -3.2531183    2352.2651   0.06349922  0.063117192            9 
 3088000   0.74305288   -3.2556391    2356.2502  0.063586199  0.063104739            4 
 3089000   0.74073207   -3.2514271    2345.8858   0.06328601  0.063092197            6 
 3090000   0.76288196   -3.2657546    2346.0272  0.063269342  0.063079643            8 
 3091000   0.75945076   -3.2382527    2350.6912  0.063374616  0.063067099            3 
 3092000   0.76612341   -3.2650152    2355.8517    0.0634932  0.063054565            3 
 3093000   0.75607949   -3.2478447    2350.5487  0.063329796  0.063041995            4 
 3094000   0.75182998   -3.2568265    2355.4079  0.063440205  0.063029445            4 
 3095000   0.75305843   -3.2252236    2349.6383   0.06326436  0.063016888            4 
 3096000    0.7564754   -3.2523299    2351.8364  0.063303089  0.063004354            3 
 3097000   0.74497572   -3.2541524    2359.7219   0.06349483  0.062991774            2 
 3098000   0.77768317   -3.2604604    2356.3501  0.063383637  0.062979234            4 
 3099000   0.74995152   -3.2462862    2351.1185  0.063222505  0.062966541            4 
 3100000   0.77917998   -3.2502794    2349.5022  0.063158663  0.062953994            4 
 3101000   0.77428345   -3.2492261    2348.4412  0.063109782  0.062941378            6 
 3102000   0.74820008   -3.2705176     2349.692  0.063123038  0.062928765            5 
 3103000   0.75281514   -3.2529821    2352.8943  0.063188696  0.062916312            3 
 3104000   0.74795972   -3.2601661    2350.1318  0.063094175  0.062903787            4 
 3105000   0.74991364   -3.2573813     2350.161  0.063074637  0.062891317            7 
 3106000   0.74638272   -3.2554466    2361.8381  0.063367625  0.062878965            3 
 3107000   0.73751174   -3.2585791    2351.8512  0.063079368  0.062866477            2 
 3108000   0.76065431   -3.2586522    2362.4967  0.063344505  0.062854077            5 
 3109000   0.73453088   -3.2513589    2360.5787  0.063272722  0.062841679            3 
 3110000   0.75398239   -3.2626478    2357.6318  0.063173415  0.062829175            5 
 3111000   0.75756754   -3.2755744     2360.587  0.063232268  0.062816877            4 
 3112000   0.76320654   -3.2568211    2356.6556  0.063106674  0.062804529            2 
 3113000   0.75858627   -3.2673968    2360.4271  0.063187362   0.06279217            4 
 3114000   0.75528233   -3.2602383     2361.884  0.063206058   0.06277974            4 
 3115000   0.74887321   -3.2511857    2356.4326  0.063039931  0.062767444            5 
 3116000   0.77022823   -3.2671726    2357.1234  0.063038173  0.062754968            3 
 3117000   0.74863439    -3.260851    2358.4857  0.063054372   0.06274243            5 
 3118000   0.75784042   -3.2399042    2358.4623  0.063033522  0.062729879            9 
 3119000   0.73754361   -3.2499439    2360.6373  0.063071426  0.062717531            9 
 3120000   0.75669134   -3.2683874    2358.9312  0.063005641  0.062705107            3 
 3121000   0.73487825   -3.2713255    2364.1515  0.063124841   0.06269267            2 
 3122000   0.75230793    -3.247782    2362.4912  0.063060303  0.062680301           12 
 3123000   0.74131837   -3.2558698    2359.8994  0.062970952  0.062667893            3 
 3124000   0.75290106   -3.2486026    2363.6625  0.063051175  0.062655327            3 
 3125000   0.77045923   -3.2778789    2360.6976  0.062951935   0.06264283            6 
 3126000   0.74956765   -3.2562113    2359.7901  0.062907604  0.062630249            2 
 3127000   0.75608107   -3.2468394    2360.1439  0.062896916  0.062617768            4 
 3128000   0.74496088    -3.260578    2367.7791  0.063080218  0.062605331            7 
 3129000   0.73251097    -3.279779     2358.329  0.062808379  0.062592712            3 
 3130000   0.73853679   -3.2889398    2359.2495  0.062812821  0.062580048            6 
 3131000   0.75067523    -3.251189    2365.5813  0.062961282  0.062567567           11 
 3132000     0.762834   -3.2739815    2359.6883  0.062784386  0.062554992            4 
 3133000   0.76846835    -3.260733    2371.7682  0.063085653   0.06254247            5 
 3134000   0.75177983   -3.2550476    2361.7555  0.062799284   0.06253003            5 
 3135000   0.76879303   -3.2780385    2362.9565  0.062811178  0.062517558            5 
 3136000   0.74699034   -3.2611196    2369.1875  0.062956727  0.062505076            2 
 3137000   0.73927917   -3.2569124    2370.7722  0.062978754  0.062492552            3 
 3138000   0.77100308   -3.2332037    2364.4917  0.062791897  0.062479889            4 
 3139000   0.74440681   -3.2547608    2364.2667  0.062765921  0.062467258            3 
 3140000   0.76782427   -3.2718419    2364.2849  0.062746415  0.062454647            5 
 3141000   0.76034222   -3.2693144    2359.4113  0.062597136  0.062442095            6 
 3142000   0.77448745   -3.2608649    2366.0914  0.062754387  0.062429595            4 
 3143000   0.73446335   -3.2516204    2355.4079  0.062451158  0.062416918            6 
 3144000   0.74625749   -3.2672337    2365.3094   0.06269374   0.06240428            6 
 3145000   0.75340833    -3.264449    2364.7704  0.062659522  0.062391683            4 
 3146000   0.74081767   -3.2776104    2362.1853  0.062571129  0.062379151            3 
 3147000   0.75238594     -3.26317     2362.911  0.062570464   0.06236654            4 
 3148000   0.74077838   -3.2719136    2362.3753  0.062536408  0.062354019            7 
 3149000   0.74598354   -3.2708768    2366.6906  0.062630746  0.062341413            4 
 3150000   0.74761246   -3.2811832    2369.6607  0.062689436   0.06232883           10 
 3151000   0.74010136    -3.242428    2371.9232  0.062729378  0.062316242            4 
 3152000   0.75297918   -3.2640399    2364.2422  0.062506404  0.062303676            6 
 3153000   0.74195734   -3.2812799    2364.2418  0.062486567  0.062291047            3 
 3154000   0.73600465   -3.2341199     2373.166  0.062702546  0.062278411            4 
 3155000   0.74214888   -3.2562581    2369.2449  0.062579104  0.062265893            3 
 3156000   0.74748991    -3.259461    2369.0018  0.062552857  0.062253255            5 
 3157000   0.75354173   -3.2859871    2364.5779  0.062416267   0.06224066            9 
 3158000   0.75542912    -3.253731    2365.9214  0.062431955  0.062227887            6 
 3159000   0.73029337   -3.2871512    2364.7285  0.062380724  0.062215241            4 
 3160000   0.76179451   -3.2721839    2364.1889  0.062346752  0.062202475            6 
 3161000   0.75083791   -3.2696771    2373.7262  0.062578462  0.062189771            4 
 3162000   0.74943191   -3.2625942    2368.5432  0.062422074  0.062177056           13 
 3163000   0.74767724   -3.2659622    2368.9842  0.062413958  0.062164424            6 
 3164000   0.73471512    -3.267582    2374.7825  0.062546947   0.06215181            2 
 3165000   0.75329003   -3.2648597    2365.1254  0.062272918  0.062139208            5 
 3166000   0.73975137   -3.2823175    2370.9078  0.062405448   0.06212646            3 
 3167000   0.73749914   -3.2697175    2369.2604  0.062342397  0.062113667            3 
 3168000   0.75119636   -3.2853583    2362.8532  0.062154177  0.062100741            7 
 3169000   0.74435743   -3.2497699    2372.1876  0.062380026  0.062088164            4 
 3170000   0.73979295   -3.2603805    2376.5752  0.062475689  0.062075482            2 
 3171000   0.74917057    -3.250348    2376.0869  0.062443154  0.062062918            4 
 3172000   0.74878969   -3.2649771    2369.1134  0.062240263  0.062050254            4 
 3173000   0.73620923   -3.2496228    2374.1086  0.062351838  0.062037683            7 
 3174000   0.73295521   -3.2875974    2373.9656  0.062328439  0.062024991            6 
 3175000   0.74995753   -3.2658362    2382.2934  0.062527387  0.062012461            3 
 3176000   0.73187585   -3.2567457    2369.4898  0.062171751  0.061999806            5 
 3177000   0.75400849   -3.2788321    2379.1029  0.062404335  0.061987227            2 
 3178000   0.74702374   -3.2718602    2370.3101  0.062154134  0.061974559            3 
 3179000   0.75351356   -3.2732286    2375.3407  0.062266453  0.061961915            5 
 3180000   0.74026537   -3.2721363    2374.6958  0.062229974  0.061949344            4 
 3181000   0.74157825   -3.2889603    2375.4849  0.062231082  0.061936718            4 
 3182000   0.76579559   -3.2802085    2377.6776  0.062268949  0.061924091            4 
 3183000   0.73870883   -3.2691423    2376.2806  0.062212814  0.061911508           10 
 3184000    0.7518334   -3.2677961    2369.1887   0.06200766  0.061898873            6 
 3185000   0.74029107   -3.2863769    2379.2115  0.062250431  0.061886354            6 
 3186000   0.74228575   -3.2755849    2369.6556  0.061980948  0.061873762            5 
 3187000   0.74215516   -3.2671753    2374.5866  0.062090435  0.061861119            7 
 3188000   0.73840345   -3.2850787    2378.4508  0.062171969  0.061848537            5 
 3189000   0.73629474   -3.2656365    2373.8224  0.062031525  0.061835919            2 
 3190000    0.7269664   -3.2615145    2389.1968  0.062413711  0.061823343            2 
 3191000   0.72432503   -3.2777159    2376.1134  0.062052475  0.061810701            3 
 3192000   0.75839939   -3.2987197    2370.4278  0.061884603  0.061798112            5 
 3193000   0.74023573   -3.2721115     2376.291  0.062018242  0.061785609            5 
 3194000   0.74165015   -3.2748018     2376.135  0.061994756  0.061773004            7 
 3195000   0.73802731   -3.2666484      2384.99  0.062206312  0.061760443            3 
 3196000   0.73666745   -3.2687253     2374.042  0.061901388  0.061747778            5 
 3197000   0.74836305   -3.2484207    2381.8955  0.062086735  0.061735142            7 
 3198000    0.7392256   -3.2840615    2377.0087   0.06193998  0.061722478            3 
 3199000   0.75584848   -3.2923931    2380.8783  0.062021422  0.061709733            4 
 3200000   0.73667866   -3.2917983    2374.6282  0.061839275  0.061697051            6 
 3201000   0.72507099   -3.2937852    2374.8091  0.061824667  0.061684238            4 
 3202000   0.73582722   -3.2911392    2380.9705  0.061965712  0.061671501           10 
 3203000   0.73795906   -3.2517583    2391.3958  0.062217604  0.061658951            4 
 3204000   0.73976709   -3.2830757    2385.4945  0.062044698  0.061646288            7 
 3205000   0.72834992   -3.2963119    2376.3619  0.061787882  0.061633586            6 
 3206000   0.73366462   -3.2880089    2379.4749  0.061849524   0.06162084            7 
 3207000   0.73663253   -3.2568593    2375.6129  0.061729885  0.061608311            4 
 3208000    0.7289268   -3.2809707    2383.4071  0.061913109  0.061595744            6 
 3209000     0.734718   -3.2707918    2384.6181  0.061925265  0.061583053            2 
 3210000    0.7381046   -3.2781384    2376.1615  0.061686436  0.061570469            4 
 3211000   0.73962476    -3.274509    2381.6911  0.061810731  0.061557876            5 
 3212000   0.75387199   -3.2842322    2383.2795  0.061832697  0.061545302            7 
 3213000   0.73016942   -3.2903895    2380.2263  0.061734264  0.061532768            3 
 3214000   0.74716396   -3.2653384    2386.8492  0.061886778   0.06152004            5 
 3215000   0.74262586   -3.2642607    2379.6801  0.061681702  0.061507346            7 
 3216000   0.73154403   -3.2901697    2382.1069  0.061725406   0.06149464            5 
 3217000   0.73438587    -3.284567    2382.3872  0.061713481  0.061481927            4 
 3218000   0.73700662   -3.2811744    2377.8136  0.061575865  0.061469308            2 
 3219000   0.72358991   -3.2796988    2378.1673  0.061565893  0.061456568           12 
 3220000   0.72569946   -3.2702691    2382.2328  0.061651987  0.061443856            7 
 3221000   0.72906115   -3.2874154    2378.8632   0.06154567  0.061431176            3 
 3222000   0.73230506   -3.2597239    2383.1537  0.061637535  0.061418467           10 
 3223000   0.72802232   -3.2979748    2376.6343  0.061449847  0.061405725            4 
 3224000   0.73531218    -3.280001    2383.0102   0.06159559  0.061393085            3 
 3225000   0.74828175   -3.2579791    2382.1779  0.061554985  0.061380446            5 
 3226000   0.73490332   -3.2823667    2382.6319   0.06154763  0.061367789            7 
 3227000   0.73162974   -3.2736118    2380.3994  0.061470908  0.061355033            6 
 3228000   0.73123098   -3.2675264    2390.9297  0.061723711  0.061342319            5 
 3229000   0.74326928   -3.2871555     2387.587   0.06161833  0.061329684            3 
 3230000   0.73871675   -3.2816507    2385.5758  0.061547364  0.061317015            3 
 3231000   0.72787592   -3.2961194    2386.4941  0.061551998  0.061304307            4 
 3232000   0.74191675   -3.2993799    2379.3137  0.061347817  0.061291577           10 
 3233000   0.73969342   -3.2976954    2383.8841  0.061446647  0.061278783            7 
 3234000   0.73749957   -3.2882933    2386.8797  0.061504838  0.061266126            7 
 3235000   0.72804028   -3.2969864    2390.9491  0.061590652  0.061253491            3 
 3236000   0.72580433   -3.3000003    2383.6667  0.061384083  0.061240814            7 
 3237000   0.72833702   -3.2838651     2386.274  0.061432243  0.061228134            6 
 3238000   0.73339408   -3.2747945    2384.5114  0.061367906  0.061215467            4 
 3239000   0.72294204   -3.3040685    2388.8399  0.061460324  0.061202885            7 
 3240000   0.73598159   -3.2900197    2383.5087  0.061304236  0.061190312            9 
 3241000   0.72802661   -3.2772153    2393.8575  0.061551412  0.061177667            2 
 3242000      0.73978   -3.2926527    2393.3267  0.061518783   0.06116508            4 
 3243000   0.73340638   -3.2818549    2392.2155  0.061471259   0.06115248            5 
 3244000   0.73717253   -3.2740075    2400.5452  0.061666286  0.061140026            5 
 3245000   0.72732663   -3.2716096    2393.6003  0.061468936  0.061127523            6 
 3246000   0.73054946   -3.2678068    2397.2436   0.06154353  0.061114961            2 
 3247000   0.72301271   -3.2787201    2394.6674  0.061458459  0.061102422            3 
 3248000    0.7308671   -3.2937412    2391.2901  0.061352887  0.061089738            6 
 3249000   0.73896476   -3.2582915    2398.5095  0.061519171  0.061077023            4 
 3250000   0.73752876    -3.283945    2389.1186  0.061259452  0.061064393            6 
 3251000   0.74065409   -3.2943908    2399.2066  0.061499194  0.061051662            4 
 3252000    0.7154624   -3.2932638    2393.9764  0.061346258  0.061039012            3 
 3253000   0.72426971   -3.2946423    2396.4276  0.061390195  0.061026372            8 
 3254000   0.74388931   -3.2760556    2391.9079  0.061255581  0.061013691            5 
 3255000   0.74519477   -3.3065637    2392.4454  0.061250522  0.061001132            7 
 3256000   0.72405531   -3.3005418     2388.904  0.061141073  0.060988515            6 
 3257000   0.72999054   -3.2736956     2390.998  0.061175878  0.060975824            5 
 3258000   0.70669744   -3.2654295    2393.2369  0.061214368  0.060963285            4 
 3259000   0.72954532   -3.2985405    2391.2524  0.061144839  0.060950743            4 
 3260000   0.71914377   -3.3020783    2393.5332  0.061184386  0.060938154            8 
 3261000    0.7170008   -3.3050939    2389.5043  0.061062669  0.060925398            4 
 3262000   0.74090685   -3.2912707    2388.6997  0.061023392  0.060912669            4 
 3263000   0.72791836   -3.2894398    2400.8896  0.061316008  0.060900079            4 
 3264000   0.75308122    -3.291043    2400.3104  0.061282434  0.060887607            3 
 3265000   0.73587595   -3.2875204    2393.3772  0.061086707  0.060875112            3 
 3266000   0.73506527   -3.2884696    2395.4751  0.061121534  0.060862531            6 
 3267000   0.73329601   -3.2958358     2395.619  0.061106495  0.060849918            5 
 3268000   0.70677641   -3.2906322    2396.5431   0.06111136  0.060837242            3 
 3269000   0.72983186    -3.280073    2395.0113  0.061053618  0.060824684            4 
 3270000   0.71679561   -3.2870253    2400.4408  0.061173312  0.060812079            9 
 3271000   0.73420714   -3.3022791     2402.586  0.061209262  0.060799442            5 
 3272000    0.7399285   -3.2791741    2396.7493  0.061041903  0.060786817            4 
 3273000   0.74330632   -3.2956596    2396.5294  0.061017654  0.060774152            3 
 3274000    0.7353145   -3.3036689    2394.5186  0.060947836  0.060761484            5 
 3275000   0.74439379   -3.2800349    2397.7712  0.061011989   0.06074892            3 
 3276000   0.72597146   -3.2835939    2402.2693  0.061107785  0.060736293            4 
 3277000   0.73422697   -3.2827642    2394.8267  0.060899875  0.060723673            4 
 3278000   0.71175455   -3.3019747    2397.1502  0.060940364  0.060711106            2 
 3279000   0.72650985   -3.3018028    2397.2895  0.060925321  0.060698545            4 
 3280000   0.72396941    -3.285075    2402.4574  0.061038044   0.06068595            5 
 3281000   0.71289428    -3.309843    2397.5734  0.060895393   0.06067335            8 
 3282000   0.72834132   -3.2997502    2395.2657  0.060818243  0.060660871            5 
 3283000   0.73619321    -3.291713    2399.6473  0.060910938   0.06064837            6 
 3284000   0.72853534   -3.2938167    2399.0101  0.060876221  0.060635745            7 
 3285000   0.71772801   -3.3005983    2401.8218  0.060929015  0.060623163            4 
 3286000   0.71927293   -3.3063364    2401.2208  0.060895233  0.060610616            3 
 3287000   0.71558955   -3.2775997    2405.3001  0.060980127   0.06059805            8 
 3288000   0.72940224   -3.2845592    2403.9642  0.060927721  0.060585578            3 
 3289000   0.71042738   -3.3072331    2411.0623  0.061089043  0.060573218            8 
 3290000   0.72290712    -3.294116    2402.7929  0.060861015  0.060560925            5 
 3291000   0.73533946   -3.2778717    2406.8755    0.0609459  0.060548599            9 
 3292000   0.72541779   -3.2644183    2407.9981  0.060955803   0.06053632            3 
 3293000   0.72614406   -3.3143286    2405.5672  0.060875777  0.060523949            3 
 3294000   0.73026674   -3.3036899    2405.4573  0.060854516  0.060511435            4 
 3295000   0.71583666   -3.3217925    2399.3427  0.060681405  0.060498953            8 
 3296000   0.72375604   -3.3205857    2404.7946  0.060800833  0.060486483            5 
 3297000   0.72536784   -3.3062064     2399.485   0.06064819   0.06047384            4 
 3298000   0.72187594   -3.2886713    2410.6736  0.060912512  0.060461461            4 
 3299000   0.72754199   -3.2873701    2408.3642  0.060835712  0.060449129            4 
 3300000   0.73772138   -3.3188522    2411.6906  0.060901277  0.060436725            5 
 3301000   0.72114369   -3.3171248    2404.7988  0.060708846  0.060424427            3 
 3302000   0.71336505   -3.3263402    2409.5306  0.060809878  0.060412022            7 
 3303000   0.71086052   -3.3124822    2414.0424  0.060905298   0.06039971            7 
 3304000   0.71942911   -3.2950615    2414.3565  0.060894787  0.060387384            8 
 3305000   0.72473423    -3.308805    2408.4584  0.060727645  0.060375146            4 
 3306000   0.72649984   -3.3088016    2421.0656  0.061027061  0.060362785           14 
 3307000   0.72528018   -3.3040686    2404.2368  0.060584538  0.060350534            4 
 3308000    0.7172671    -3.313725    2408.1718  0.060665351  0.060338253            3 
 3309000   0.71827367   -3.3213135    2410.3344  0.060701481  0.060325886            4 
 3310000   0.72983984   -3.3035691    2415.1349     0.060804  0.060313606            6 
 3311000   0.72117229   -3.2844615    2413.3247  0.060740076  0.060301362            7 
 3312000   0.72952101   -3.3123817    2404.0136   0.06048746   0.06028905            8 
 3313000   0.72371575   -3.2940176    2419.5833  0.060860833  0.060276835            8 
 3314000   0.72849131   -3.2988159    2416.4558  0.060763824  0.060264583            5 
 3315000   0.72592439   -3.2835519    2416.0959  0.060736449  0.060252389            8 
 3316000   0.73019556   -3.3189655    2405.3745  0.060448695  0.060240187            6 
 3317000   0.72001573   -3.3216242    2411.1802   0.06057633  0.060227821            3 
 3318000   0.71179138   -3.3200928    2416.9773   0.06070367  0.060215573            7 
 3319000   0.74165162   -3.3184467    2411.5795  0.060549852  0.060203357            4 
 3320000   0.73251649   -3.3032094    2416.6002  0.060657635  0.060191056            5 
 3321000   0.72225965   -3.3166292    2410.5976  0.060488747  0.060178705            7 
 3322000   0.71704226   -3.3052672    2419.1707  0.060685597   0.06016637            4 
 3323000   0.72614234   -3.3197803    2412.2154  0.060492914  0.060154053            3 
 3324000    0.7201125    -3.307267    2417.8928  0.060617047  0.060141813            4 
 3325000   0.69762624   -3.3201176    2416.2831  0.060558474  0.060129574            5 
 3326000   0.72028042    -3.301046    2418.7349  0.060601695  0.060117287            4 
 3327000   0.71786361   -3.3232444    2425.4765  0.060752341  0.060105079            2 
 3328000    0.6953595   -3.3150636    2414.9761  0.060471156  0.060092733            7 
 3329000   0.72056966   -3.2892931    2418.0131  0.060529016  0.060080404            5 
 3330000   0.68296128   -3.2852409    2423.4349  0.060646519  0.060068136            7 
 3331000   0.72380654    -3.299101    2412.0719  0.060344038  0.060055933            4 
 3332000    0.7167098   -3.3018231    2419.5793  0.060513688  0.060043554            5 
 3333000   0.71758841   -3.3079323    2411.0421   0.06028208  0.060031285            4 
 3334000   0.71055276   -3.2954621    2420.7168   0.06050582  0.060019027            4 
 3335000   0.71621262   -3.3101454    2416.6614  0.060386343  0.060006724            4 
 3336000   0.71090393    -3.328512    2417.3889  0.060386413  0.059994351            5 
 3337000   0.72052065   -3.3059359    2426.1467  0.060587021  0.059982112           11 
 3338000   0.72276284   -3.3025237    2425.9941  0.060565062  0.059969931            4 
 3339000   0.71815277   -3.2848742    2422.3742  0.060456579   0.05995764            4 
 3340000   0.71335559   -3.3052681    2415.5106   0.06026723  0.059945361            7 
 3341000   0.70871692   -3.3277348    2428.1118    0.0605635   0.05993297            9 
 3342000   0.71219644   -3.3178429    2417.5794  0.060282751  0.059920604            4 
 3343000   0.70622569   -3.3102825    2419.8059  0.060320218  0.059908293            3 
 3344000     0.737672   -3.3266097    2414.6941  0.060174793  0.059895984            3 
 3345000   0.72090829    -3.301089    2423.9646  0.060387759  0.059883582            5 
 3346000   0.70373861   -3.3096821    2421.6205   0.06031133  0.059871241            8 
 3347000   0.70572988   -3.3148089    2421.6345  0.060293659  0.059858847            4 
 3348000    0.7176102   -3.3000601    2423.2628  0.060316179   0.05984652            7 
 3349000   0.72075264   -3.3188326    2422.9926  0.060291446  0.059834165            6 
 3350000   0.71764881    -3.306451    2425.7148  0.060341164  0.059821961            4 
 3351000   0.72290877   -3.2870917    2427.2664  0.060361742  0.059809703            5 
 3352000   0.70890558    -3.313615    2419.8148  0.060158483  0.059797529            5 
 3353000   0.71413613   -3.3221985    2422.9617  0.060218752  0.059785256            8 
 3354000   0.71604265   -3.3199833    2423.4385  0.060212645  0.059773016            3 
 3355000    0.7276616    -3.312745    2421.6068    0.0601492  0.059760726            4 
 3356000   0.69046543   -3.3177841    2418.9097  0.060064306  0.059748392            8 
 3357000   0.71940904   -3.3138329    2419.5788  0.060063022  0.059736053            9 
 3358000   0.71388303   -3.3136422    2420.8652  0.060077061   0.05972364            4 
 3359000   0.71146481   -3.3230744    2425.8714  0.060183373  0.059711366            7 
 3360000   0.73132039   -3.3279335    2427.4845  0.060205469  0.059699042            3 
 3361000   0.71674462   -3.3241586    2424.0702  0.060102901  0.059686704            9 
 3362000   0.72095343   -3.2958177    2436.1871  0.060385362  0.059674475            5 
 3363000   0.71469494   -3.3289671    2426.2558  0.060121314  0.059662255            6 
 3364000   0.72062023   -3.3207057    2425.0317   0.06007312  0.059649929           16 
 3365000   0.70682744   -3.3127542      2424.68  0.060046559  0.059637627            3 
 3366000    0.7097855   -3.3246773    2423.7659  0.060006088  0.059625317            5 
 3367000   0.71049168   -3.3156666    2425.1447  0.060022392  0.059612973            5 
 3368000   0.72477024   -3.3220491    2428.0281  0.060075913  0.059600697            4 
 3369000   0.71394097   -3.3285527    2427.5025  0.060045081  0.059588474            4 
 3370000   0.70692962   -3.3426307    2427.8526  0.060035921  0.059576144            5 
 3371000   0.69883306    -3.294418    2431.1988   0.06010083  0.059563855            5 
 3372000   0.70471216   -3.3058301    2435.4697  0.060188555  0.059551686            6 
 3373000   0.71749865   -3.3020302    2432.8918  0.060107022  0.059539503            9 
 3374000   0.71204041   -3.3425417    2428.2832  0.059975381  0.059527203            5 
 3375000   0.71678947   -3.3154003    2435.2387  0.060129351  0.059514899            3 
 3376000   0.71698854   -3.3158058    2422.6526  0.059800864  0.059502669            3 
 3377000   0.71157536   -3.3063409    2437.1319  0.060140458  0.059490423            5 
 3378000   0.71276196   -3.3125246    2433.9796  0.060044887  0.059477973            6 
 3379000   0.70486132   -3.3236016    2419.9641  0.059681466  0.059465631            4 
 3380000   0.72036497   -3.3145532    2429.0608  0.059888088  0.059453331            6 
 3381000   0.70625108   -3.3293419     2430.441  0.059904393  0.059441055            4 
 3382000   0.71416571   -3.3269525    2424.2149  0.059733266  0.059428634            4 
 3383000   0.71113404   -3.3150275     2429.927  0.059856315  0.059416328            3 
 3384000   0.70455813   -3.3319587    2425.9387  0.059740413  0.059404018            4 
 3385000     0.708393   -3.3394036    2429.6121  0.059813197  0.059391719            3 
 3386000   0.70819444   -3.3058443    2434.6706  0.059920029  0.059379417            5 
 3387000   0.69416787   -3.3332917    2423.5458  0.059628625  0.059367104            9 
 3388000   0.70844204   -3.3202635    2419.4487  0.059510251  0.059354601            9 
 3389000   0.70464028   -3.3353173    2430.2427  0.059758106  0.059342292           16 
 3390000   0.71309145   -3.3208561    2436.7911  0.059901453  0.059330072            4 
 3391000    0.6999068   -3.3405992    2432.7649  0.059784844  0.059317868            5 
 3392000   0.71571007   -3.3281405    2429.2306  0.059680389  0.059305597           12 
 3393000   0.70184445   -3.3288044    2429.1661  0.059661216  0.059293328            2 
 3394000   0.70755976   -3.3354414    2440.7289  0.059927542  0.059281105            5 
 3395000   0.69667579   -3.3277868     2430.311  0.059654173  0.059268905            6 
 3396000   0.68879824   -3.3301324    2437.0504  0.059801983  0.059256571            5 
 3397000   0.72097064     -3.33874     2429.445  0.059597806  0.059244294            5 
 3398000   0.71002271    -3.356537    2428.0856  0.059546929  0.059232084            7 
 3399000   0.70259921    -3.320689    2445.7594   0.05996272   0.05921987            6 
 3400000   0.70972867    -3.325517    2436.7413  0.059724052  0.059207642            6 
 3401000   0.69698219   -3.3427758    2438.0634  0.059738886  0.059195463            5 
 3402000   0.70748414   -3.3387623    2441.4166  0.059803463  0.059183195            5 
 3403000   0.70564078   -3.3398408    2434.9294   0.05962703  0.059171007            6 
 3404000   0.71342052   -3.3353561    2433.3935  0.059571912  0.059158758           11 
 3405000    0.7018577   -3.3293143    2436.7497  0.059636556  0.059146508            2 
 3406000   0.70665414   -3.3336469     2441.075  0.059724873  0.059134283            9 
 3407000   0.71581956   -3.3375464    2434.4424  0.059545113  0.059122192            4 
 3408000   0.71099317   -3.3287029    2436.2394  0.059571581  0.059110017            3 
 3409000   0.70370962   -3.3239298    2442.3098  0.059702499  0.059097884            5 
 3410000   0.71541596   -3.3395507    2446.3826   0.05978452  0.059085767            4 
 3411000   0.70933612   -3.3124897    2443.5298  0.059697299  0.059073706            8 
 3412000   0.69954421   -3.3377149     2438.749  0.059563036  0.059061638            4 
 3413000   0.70625892   -3.3222679    2437.8584  0.059523841  0.059049525            4 
 3414000   0.70486751   -3.3308669    2436.8513  0.059481822  0.059037275            6 
 3415000   0.70790264   -3.3214824    2438.5863  0.059506742  0.059025129            3 
 3416000    0.7002544   -3.3229627    2435.6258    0.0594171  0.059012997            7 
 3417000   0.70819509   -3.3266165    2438.2758   0.05946434  0.059000934            9 
 3418000   0.68916979   -3.3488504      2441.14  0.059516775  0.058988857            7 
 3419000   0.71313963    -3.329646    2445.2887  0.059600484  0.058976699            4 
 3420000   0.69912502   -3.3510188    2446.7321  0.059618229  0.058964607            4 
 3421000   0.70704393   -3.3292248    2432.4167  0.059252088  0.058952438            5 
 3422000   0.72766794   -3.3262225    2445.1743  0.059545448  0.058940232            6 
 3423000   0.71314377   -3.3388198    2446.3233  0.059556025  0.058928004            6 
 3424000   0.70908805   -3.3215163    2441.0982  0.059411462  0.058915835            5 
 3425000   0.70450757   -3.3194664    2445.1083  0.059491687  0.058903739            2 
 3426000   0.72321785   -3.3139657    2436.4987  0.059264903   0.05889167            6 
 3427000    0.7001513   -3.3524238    2441.0626  0.059358588  0.058879432            4 
 3428000   0.69403389   -3.3301577    2440.5882   0.05932974  0.058867291           10 
 3429000   0.73352607   -3.3473309    2445.3419  0.059427966   0.05885515            3 
 3430000   0.70466494   -3.3273867    2445.6965  0.059419254  0.058843116            3 
 3431000   0.70691723   -3.3458955    2443.4544  0.059347478  0.058830973            8 
 3432000   0.70724477   -3.3375731    2447.6586  0.059432269  0.058818857            6 
 3433000   0.70331971   -3.3389793    2444.6406  0.059341698  0.058806667            5 
 3434000   0.71160798   -3.3503525    2443.4178  0.059294743  0.058794503           12 
 3435000   0.69465715   -3.3315784     2445.169  0.059319966  0.058782365            6 
 3436000   0.69750846    -3.344169    2441.1368  0.059204909  0.058770215            8 
 3437000   0.70532213   -3.3646654    2442.6623  0.059224671  0.058758073            5 
 3438000   0.70666692   -3.3531075    2450.4777   0.05939688  0.058746002            7 
 3439000   0.71621567   -3.3348422    2440.5867  0.059139932  0.058733831            5 
 3440000   0.69683034   -3.3419361    2448.0663  0.059303932  0.058721629            4 
 3441000   0.71478741   -3.3634344    2437.3306  0.059026702  0.058709507            4 
 3442000   0.69648516   -3.3313229    2442.2564   0.05912881  0.058697373            9 
 3443000   0.70515227    -3.342248    2447.9269  0.059248884  0.058685175            4 
 3444000   0.70039581   -3.3285834    2444.9004  0.059158448  0.058673037            7 
 3445000   0.69912296   -3.3479153    2443.5659  0.059108997  0.058660844            3 
 3446000   0.69167905   -3.3532717    2443.8529  0.059098783  0.058648594           10 
 3447000   0.67879407   -3.3465996    2447.0474  0.059158868  0.058636281            7 
 3448000   0.70931192   -3.3340975    2453.3707  0.059294535  0.058624106            4 
 3449000   0.69086625   -3.3500958    2446.7725  0.059117921  0.058611973            3 
 3450000   0.70380582   -3.3241949    2448.6312  0.059145682  0.058599913            9 
 3451000   0.70637463    -3.361882     2454.214  0.059263352  0.058587878            4 
 3452000   0.69069014   -3.3266553    2446.7991  0.059067185  0.058575761            3 
 3453000   0.69379142   -3.3215094    2447.0231  0.059055485  0.058563596            5 
 3454000    0.6965695   -3.3413203    2446.0888  0.059015847  0.058551492            5 
 3455000   0.68567547   -3.3752486    2447.3287  0.059028671  0.058539373            3 
 3456000    0.7081194   -3.3378161    2446.7354  0.058997285  0.058527223            6 
 3457000   0.69754753   -3.3262442    2441.8707  0.058862952  0.058515078            9 
 3458000   0.69343242   -3.3394864      2451.59  0.059080153   0.05850295            3 
 3459000   0.69873991   -3.3483922    2455.3963  0.059154773  0.058490835            4 
 3460000   0.68383123   -3.3300323    2452.7934  0.059074985  0.058478689            7 
 3461000   0.69982303   -3.3411379    2448.0197  0.058942977  0.058466525            5 
 3462000    0.6918241   -3.3491915     2448.518  0.058937945  0.058454304            7 
 3463000   0.69595386   -3.3413106    2446.5231  0.058872922  0.058442167           10 
 3464000   0.69775679   -3.3263765    2449.8036  0.058934844  0.058430037            5 
 3465000   0.69870279   -3.3555645     2448.879  0.058895599  0.058417829            5 
 3466000    0.6991689   -3.3523167    2442.9193  0.058735317  0.058405655            4 
 3467000   0.68906839   -3.3656978    2442.2174  0.058701504  0.058393405            6 
 3468000   0.70243464   -3.3565767    2455.8774  0.059012817    0.0583812            3 
 3469000   0.69614817    -3.338213    2452.6174  0.058917494  0.058369099           13 
 3470000    0.7009182   -3.3294542     2451.453  0.058872551  0.058356975            6 
 3471000   0.69733831    -3.336982    2446.3559  0.058733215  0.058344913            4 
 3472000   0.69116674   -3.3486038    2446.0226  0.058708299  0.058332782            5 
 3473000   0.69549784   -3.3475172    2454.1966  0.058887527  0.058320726            4 
 3474000   0.69252733   -3.3542392    2449.4205  0.058756009  0.058308707            7 
 3475000    0.6972757   -3.3470439    2452.8758  0.058821961  0.058296574            7 
 3476000   0.68895365   -3.3536645    2458.1131  0.058930598  0.058284454            4 
 3477000   0.71791794   -3.3396044    2454.4555  0.058825987  0.058272328            4 
 3478000    0.6988779   -3.3523795     2459.269  0.058924407  0.058260113            6 
 3479000   0.69357223   -3.3394343    2447.3138  0.058621104   0.05824795            3 
 3480000   0.68382444   -3.3414375    2448.4761   0.05863209    0.0582357            8 
 3481000   0.69235631   -3.3482173    2444.4271  0.058518316  0.058223485            4 
 3482000   0.69052657   -3.3424734    2450.3117  0.058642344  0.058211187            5 
 3483000   0.68563573    -3.370781    2448.7924  0.058589157  0.058198934            3 
 3484000   0.68819602   -3.3486471    2445.6443  0.058497042  0.058186655            4 
 3485000    0.6920977   -3.3610384    2451.5739  0.058622043  0.058174317            2 
 3486000   0.70090937   -3.3590642     2448.273  0.058526321   0.05816192            6 
 3487000   0.69543171    -3.345007    2457.8026  0.058737277   0.05814962            5 
 3488000   0.69079522   -3.3556857    2448.2249  0.058491612  0.058137328           10 
 3489000   0.70134363   -3.3678368     2446.944  0.058444254  0.058125017           14 
 3490000   0.69627047   -3.3438773    2458.2668  0.058697869  0.058112781           14 
 3491000   0.70593432   -3.3550285    2454.6377  0.058594425  0.058100471            4 
 3492000   0.69343357   -3.3537803    2444.9071  0.058345434  0.058088181            4 
 3493000   0.69026237   -3.3468178    2457.4277  0.058627438  0.058075973            2 
 3494000   0.68676538   -3.3752125    2454.9387  0.058551294  0.058063775            7 
 3495000    0.7056943   -3.3628373    2447.9665  0.058368299  0.058051552            6 
 3496000    0.7033216   -3.3615611     2452.007  0.058447916  0.058039411            5 
 3497000   0.69332316   -3.3419028    2450.8841  0.058404444  0.058027194            4 
 3498000   0.69771322   -3.3532242     2448.753  0.058336978  0.058014952            7 
 3499000   0.68689385   -3.3461235    2457.0022  0.058516771  0.058002798            3 
 3500000   0.69199899   -3.3632511    2450.6872  0.058349695  0.057990562            5 
 3501000   0.68831561   -3.3538333    2449.5629  0.058306266  0.057978256           10 
 3502000   0.69078819   -3.3578853     2460.342  0.058546117  0.057965979            6 
 3503000   0.68539196    -3.375403    2459.3589  0.058506017  0.057953623            3 
 3504000   0.70003257    -3.348165    2458.9182  0.058478839  0.057941447            5 
 3505000   0.68410021   -3.3385156    2460.2054  0.058492757  0.057929267            4 
 3506000   0.69870889   -3.3510337    2452.6364  0.058296168  0.057917053            6 
 3507000   0.70246224   -3.3776725     2451.773  0.058259029  0.057904801           23 
 3508000   0.68002556   -3.3511736    2456.4504  0.058353535  0.057892552            9 
 3509000   0.68836432   -3.3541905    2450.9281  0.058205759  0.057880261            9 
 3510000   0.68095991   -3.3508346    2460.0141  0.058404893  0.057867995            7 
 3511000   0.68522587    -3.347547    2459.5589  0.058377455  0.057855744            6 
 3512000   0.69716895   -3.3690993    2454.1632  0.058232803  0.057843518           11 
 3513000   0.69034999   -3.3560515    2457.1281  0.058286557  0.057831287            5 
 3514000   0.70235364   -3.3539841    2455.7518  0.058237331    0.0578189            8 
 3515000   0.70643705   -3.3445207    2454.7147  0.058196177  0.057806645            5 
 3516000   0.68383254   -3.3576887    2456.9965  0.058233704  0.057794412            4 
 3517000   0.67957521   -3.3589564    2453.7654  0.058140589   0.05778203            8 
 3518000   0.70132527   -3.3429967    2458.5595  0.058237623  0.057769827            5 
 3519000    0.6913646   -3.3554134    2462.9603  0.058325289  0.057757516            5 
 3520000   0.69275427   -3.3639487    2454.1017  0.058098999  0.057745159            9 
 3521000   0.69872238   -3.3525805    2450.3953  0.057994777  0.057732739            4 
 3522000   0.68939049   -3.3531833    2458.1894  0.058162725   0.05772043            8 
 3523000    0.6898927   -3.3388734    2453.7995  0.058042376  0.057708127            4 
 3524000   0.68041239   -3.3473951    2456.2973  0.058084971  0.057695806            5 
 3525000   0.68021026   -3.3481428    2462.7249  0.058220448  0.057683537            5 
 3526000   0.67570504   -3.3564751    2462.6731  0.058202711  0.057671239            6 
 3527000   0.68806792   -3.3726391    2460.5143  0.058135202  0.057658972            5 
 3528000   0.68519667   -3.3775002    2459.4032  0.058092479  0.057646706            4 
 3529000   0.67702404   -3.3808476    2455.0171  0.057972445  0.057634464            9 
 3530000   0.69415417   -3.3471008    2454.8366  0.057951762  0.057622125            5 
 3531000   0.69667058   -3.3644488    2456.5387  0.057975519  0.057609835           15 
 3532000    0.6718703   -3.3705264    2460.9931  0.058064201  0.057597663            5 
 3533000   0.66745848   -3.3611452    2462.2003  0.058076241  0.057585372            7 
 3534000   0.67593424   -3.3455125    2459.4966  0.057996053   0.05757307           16 
 3535000   0.69194326   -3.3406859    2454.6222  0.057864739  0.057560677            6 
 3536000   0.67618568   -3.3765411    2464.3366  0.058077314  0.057548434            6 
 3537000    0.6926218   -3.3812926    2462.6547  0.058021268  0.057536122            6 
 3538000   0.69720447   -3.3608877     2461.573  0.057979391  0.057523884            7 
 3539000   0.68121401   -3.3772402    2455.1441  0.057811625  0.057511597            8 
 3540000   0.69067463   -3.3431795    2460.1443  0.057913001   0.05749928            9 
 3541000   0.68374016   -3.3559052    2458.4742  0.057857343   0.05748702            4 
 3542000   0.69050259   -3.3573984    2456.2959   0.05778976  0.057474668            4 
 3543000   0.68796648   -3.3506455    2459.5279  0.057849466  0.057462423            4 
 3544000   0.69573445   -3.3835909    2458.8026  0.057816089  0.057450009            4 
 3545000   0.69292772   -3.3602663    2460.4438  0.057838359  0.057437635            9 
 3546000   0.68632268   -3.3661173      2454.01   0.05767085  0.057425294            3 
 3547000   0.69045217   -3.3306653    2465.2692  0.057919116  0.057412905            5 
 3548000   0.69022275    -3.340602    2462.7117  0.057842721  0.057400557            7 
 3549000   0.69911271   -3.3567045    2454.0379  0.057622756  0.057388228            6 
 3550000   0.68250165   -3.3627949    2456.1496  0.057656095  0.057375882            7 
 3551000   0.69971133   -3.3571579    2458.2388  0.057688885  0.057363495            7 
 3552000   0.67604994   -3.3350106    2469.0056  0.057925243  0.057351139            8 
 3553000   0.69648762   -3.3700708    2464.7273  0.057808597  0.057338878            7 
 3554000   0.67980987   -3.3678269    2458.9444  0.057656733  0.057326562            7 
 3555000   0.69515343   -3.3575748    2459.0859  0.057643833  0.057314267            2 
 3556000   0.68336249   -3.3594058    2468.2201  0.057841678  0.057302003            8 
 3557000    0.6771699   -3.3766088    2457.8279  0.057581948  0.057289762            4 
 3558000   0.68104107     -3.37091    2453.7153  0.057469443  0.057277513            7 
 3559000   0.68615215   -3.3766365    2455.9787  0.057506292  0.057265086           12 
 3560000   0.67357506   -3.3626994    2462.1146  0.057633769  0.057252744            7 
 3561000   0.68201338    -3.378434     2458.054   0.05752256  0.057240544            7 
 3562000   0.67647054    -3.360701    2456.5805  0.057471938   0.05722836            7 
 3563000   0.69507745   -3.3659501    2466.5435  0.057688828  0.057216185            3 
 3564000    0.6775226   -3.3449324    2461.4615  0.057553814  0.057203935            8 
 3565000    0.7063492   -3.3689612    2461.7455  0.057544309  0.057191738            5 
 3566000   0.68724549   -3.3751248    2457.9608  0.057439727  0.057179514            4 
 3567000   0.66890656   -3.3694705    2467.5496  0.057647641  0.057167218            6 
 3568000   0.68314737    -3.354467    2470.1256  0.057691647  0.057155008           11 
 3569000   0.68085178   -3.3514543    2466.1252  0.057582076  0.057142852            5 
 3570000   0.68379284   -3.3762424    2473.3607  0.057734844  0.057130671            7 
 3571000   0.68227874   -3.3666881    2471.1303  0.057666627  0.057118461            4 
 3572000   0.68263343   -3.3909819    2462.8287  0.057456811  0.057106229            4 
 3573000   0.69175701    -3.363122    2465.2399  0.057496966  0.057094071            9 
 3574000   0.67370818   -3.3581812    2462.3607  0.057413745  0.057081959            6 
 3575000   0.65820566    -3.353671    2466.4939  0.057494029  0.057069746           12 
 3576000   0.67187329   -3.3653091    2470.4166  0.057569364  0.057057565            4 
 3577000   0.69253105   -3.3738999    2466.5678  0.057463606  0.057045283            8 
 3578000   0.67118605   -3.3750861    2471.4669  0.057561648  0.057033044            8 
 3579000   0.68539114   -3.3884249    2460.1484  0.057282024  0.057020721            5 
 3580000   0.69230808   -3.3511704    2466.0452  0.057403287  0.057008508           12 
 3581000   0.68402978   -3.3816964    2464.8795  0.057360129  0.056996209            9 
 3582000   0.67793063   -3.3804963    2462.4876   0.05728847  0.056983819            4 
 3583000   0.68303805   -3.3909341    2456.6401   0.05713648  0.056971451           11 
 3584000   0.68873452   -3.3606803     2466.468  0.057349052  0.056959187            8 
 3585000   0.68195832   -3.3532417    2466.7455  0.057339504  0.056946908            6 
 3586000   0.67979063   -3.3509528    2472.1468  0.057449034  0.056934661           10 
 3587000   0.67337778   -3.3647614    2464.7244  0.057260579  0.056922396            3 
 3588000   0.67048671   -3.3873027    2466.1783  0.057278388  0.056910151            4 
 3589000   0.67557722   -3.3809488    2470.3095  0.057358352  0.056897908            6 
 3590000   0.69064294   -3.3630067    2467.4613   0.05727626  0.056885717            6 
 3591000   0.67464162   -3.3665466    2463.2869  0.057163439  0.056873487            3 
 3592000   0.69184755   -3.3917108    2465.6246  0.057201757  0.056861255            8 
 3593000   0.67244384   -3.3718188    2468.5801  0.057254386  0.056848994            5 
 3594000   0.67064164   -3.3777421    2469.8623  0.057268185  0.056836765            7 
 3595000   0.67959565   -3.3614782      2464.86  0.057136299  0.056824524            4 
 3596000     0.681167    -3.352621    2476.2779   0.05738501  0.056812277           10 
 3597000   0.67597079   -3.3956778    2470.6363  0.057238353  0.056800013            6 
 3598000   0.66689102   -3.4021865    2458.6799  0.056945524  0.056787681            5 
 3599000   0.68392238   -3.3933296    2465.1672  0.057079911  0.056775407            6 
 3600000   0.68873582   -3.3628627    2472.9064  0.057243204  0.056763133            6 
 3601000   0.66186191   -3.3878373    2466.1033  0.057069871  0.056750728            4 
 3602000   0.68603949   -3.3692481    2470.9366  0.057165847  0.056738307            4 
 3603000   0.67049689    -3.386441    2466.6898  0.057051757   0.05672591            6 
 3604000   0.67632726   -3.3900199    2458.7832  0.056853107  0.056713619            6 
 3605000    0.6636344   -3.3938844    2467.5213  0.057039328  0.056701278            7 
 3606000   0.65470476   -3.3883752    2475.9736  0.057218839  0.056688954            4 
 3607000   0.67115574   -3.3970248    2477.2228  0.057231836   0.05667665            4 
 3608000   0.67671748   -3.3876086    2471.5174  0.057084198  0.056664318            6 
 3609000   0.67234908   -3.3610691    2467.1585  0.056967732  0.056651937            5 
 3610000   0.67114153   -3.3630423    2471.2887  0.057047291  0.056639518           13 
 3611000   0.66163775   -3.3830666    2475.4163  0.057126748  0.056627208           11 
 3612000    0.6653952   -3.3952919    2465.8845  0.056891023  0.056614779            9 
 3613000   0.67866514    -3.369542    2471.5501  0.057005954   0.05660247            7 
 3614000   0.68269844   -3.3898178    2463.6173   0.05680726  0.056590079           17 
 3615000   0.66053555   -3.3578162    2475.0809  0.057055808  0.056577672            5 
 3616000    0.6848425   -3.3803966    2464.2839  0.056791203  0.056565274            9 
 3617000   0.68766255    -3.412088    2463.0189  0.056746357  0.056552778            5 
 3618000   0.68291014   -3.3854336    2473.3708  0.056969108  0.056540355            5 
 3619000   0.67064635   -3.3934755    2454.4863  0.056518521  0.056527892            8 
 3620000   0.67986943   -3.4000279    2475.0517  0.056976328  0.056515471            7 
 3621000    0.6964566    -3.395633    2465.8905  0.056749759  0.056503014            5 
 3622000   0.67568474   -3.3728609    2474.7319   0.05693751  0.056490786           10 
 3623000   0.68111209   -3.3898532    2474.2321  0.056910298   0.05647852            6 
 3624000   0.66287753   -3.3991719    2469.7252  0.056790958  0.056466154            7 
 3625000   0.67295488   -3.3845699    2477.1788  0.056946638  0.056453914            6 
 3626000   0.65561828    -3.391452    2473.7726  0.056852651  0.056441611            7 
 3627000   0.66187916   -3.3953432     2482.057  0.057027319  0.056429242            3 
 3628000   0.66356565   -3.3874037    2477.6755  0.056910958  0.056416982            7 
 3629000   0.67917661   -3.3891752    2477.0856  0.056881731   0.05640467            9 
 3630000   0.65267191   -3.3820645    2476.1088  0.056843637  0.056392454            4 
 3631000   0.66332472   -3.4157521    2469.3741  0.056673416  0.056380148            4 
 3632000   0.65210985   -3.3895762      2476.23  0.056815115  0.056367828            7 
 3633000    0.6661097   -3.3786277    2468.5399  0.056623083  0.056355491           15 
 3634000   0.68044569    -3.375158    2478.2417  0.056829978   0.05634319            4 
 3635000    0.6569091   -3.3905549    2483.4344  0.056933387  0.056330834            7 
 3636000   0.66611904   -3.3976923    2474.8467  0.056720909  0.056318527            5 
 3637000   0.67192699   -3.4078682    2475.7152  0.056725213  0.056306118            4 
 3638000   0.66441845   -3.3921246    2465.9511  0.056485961    0.0562938            5 
 3639000   0.67579017   -3.4010658    2482.7598  0.056855359  0.056281472            2 
 3640000   0.66739276   -3.3756775    2476.6572  0.056700028  0.056269169           10 
 3641000   0.66367519   -3.3824661    2483.7396  0.056846552  0.056256962           12 
 3642000   0.68025898   -3.4012394    2473.3471  0.056593153  0.056244654            6 
 3643000   0.67286534   -3.3782255    2468.0052  0.056455422  0.056232426            7 
 3644000   0.66145996   -3.4077486    2481.5148  0.056748874   0.05622019            5 
 3645000   0.66765225   -3.3939108     2479.364  0.056684134  0.056207945            8 
 3646000   0.67951574   -3.4111524    2480.1916  0.056687503  0.056195671            8 
 3647000   0.67174932   -3.3979139    2480.5728  0.056680669  0.056183429            4 
 3648000   0.66808604   -3.3810674    2476.8139  0.056579266   0.05617115            6 
 3649000    0.6769073   -3.3590056    2474.5968  0.056513127  0.056158833            9 
 3650000   0.67916328   -3.3874164    2472.1399   0.05644155  0.056146626            5 
 3651000   0.68813562   -3.3787925    2474.5205  0.056480427  0.056134407            4 
 3652000    0.6703826     -3.38937    2469.2987  0.056345808  0.056122244            7 
 3653000   0.67677035   -3.3823461    2478.6989  0.056544823  0.056110097           10 
 3654000   0.68271127   -3.3876631    2481.0401  0.056582743  0.056097863            6 
 3655000   0.68077381   -3.3801371    2478.9242   0.05651902   0.05608568            5 
 3656000   0.65182262   -3.4107126    2471.9044  0.056343554  0.056073475            5 
 3657000   0.66651137   -3.3942926    2486.6243  0.056663573  0.056061232            6 
 3658000   0.67535581    -3.385408    2483.7735   0.05658314  0.056048984            6 
 3659000   0.66249646   -3.4042632    2481.7007  0.056520468  0.056036783            4 
 3660000    0.6753129   -3.4062083    2476.5228  0.056387131  0.056024595            8 
 3661000   0.67008016   -3.3881771    2479.7192  0.056444487  0.056012374            5 
 3662000   0.66508192    -3.377573    2488.4331  0.056627369  0.056000294            9 
 3663000   0.67858455   -3.4066457     2485.609  0.056547661  0.055988247            6 
 3664000    0.6617943   -3.4172512    2481.3497  0.056435355  0.055976037            5 
 3665000   0.67476928   -3.3869961     2479.715  0.056382788  0.055963915            5 
 3666000   0.64837721   -3.3897992    2482.6375  0.056433841  0.055951858            4 
 3667000   0.67249163   -3.3700192    2486.8898  0.056515086  0.055939775           19 
 3668000    0.6705439   -3.3980223    2486.0809  0.056481299  0.055927703            6 
 3669000   0.66099677   -3.4091234    2490.3078  0.056561911   0.05591559            7 
 3670000   0.66546502   -3.3997635    2488.2128  0.056498928  0.055903402            5 
 3671000   0.66772246   -3.4026993      2480.14  0.056300281  0.055891235            5 
 3672000   0.66567426   -3.4080417    2483.6102  0.056363703  0.055879094            6 
 3673000   0.66534629   -3.3822064     2489.222  0.056475679  0.055867062            8 
 3674000   0.67507994   -3.4005232    2485.2545  0.056370315  0.055854994           15 
 3675000   0.67421895    -3.387022    2482.7382  0.056297919  0.055842873            7 
 3676000   0.66383616   -3.4088829    2485.8121  0.056352288  0.055830765           10 
 3677000   0.67407136   -3.4113578    2485.7552  0.056335673  0.055818605           11 
 3678000   0.65986707   -3.4262936    2484.9788  0.056302764   0.05580642            5 
 3679000   0.66683921   -3.3993426    2492.7745  0.056464042  0.055794298            8 
 3680000   0.65833205    -3.399527    2483.8626  0.056246889  0.055782234            4 
 3681000   0.66566168    -3.406463    2482.1552  0.056192954  0.055770137            7 
 3682000   0.67063304   -3.4020275     2497.342  0.056521411   0.05575807            7 
 3683000   0.65850174   -3.4041893    2494.6628  0.056445443  0.055746054            6 
 3684000   0.65713564   -3.3779276    2490.5394  0.056336848  0.055733996            9 
 3685000   0.67031908   -3.3928827    2489.9292  0.056307761  0.055721905            7 
 3686000   0.65557856   -3.3965175    2489.6285  0.056285686  0.055709879            5 
 3687000   0.65103794   -3.3910021    2484.3558  0.056151248  0.055697911            6 
 3688000   0.67203055   -3.4023324    2487.5823  0.056208927  0.055685928           13 
 3689000   0.68199323   -3.4193563     2490.944  0.056269631  0.055673894            5 
 3690000   0.64611038   -3.3835318    2489.2416  0.056215934  0.055661869            5 
 3691000   0.65406631   -3.4041006      2487.53   0.05616206    0.0556499            4 
 3692000   0.65939914   -3.4097439    2493.1329  0.056273314  0.055638039            5 
 3693000   0.64836871   -3.4140614    2484.1454  0.056055271  0.055626077           15 
 3694000   0.65718603   -3.4133135    2490.4585  0.056182514  0.055614112            6 
 3695000   0.65893786   -3.4069034    2493.8884  0.056244665  0.055602151            5 
 3696000   0.65677412   -3.3939482    2494.9373  0.056253097   0.05559023           11 
 3697000   0.64812798   -3.4076288    2487.1797  0.056063017  0.055578352            9 
 3698000    0.6729406   -3.3828323    2494.1323  0.056204531   0.05556649           15 
 3699000   0.66769863   -3.3968489    2486.6401  0.056020548  0.055554604            2 
 3700000   0.64487566   -3.3993154    2493.5116  0.056160171  0.055542708            6 
 3701000   0.66322854   -3.3987952    2496.6775  0.056216282  0.055530772           11 
 3702000   0.67009348   -3.4084213    2494.2365  0.056146148  0.055518823            5 
 3703000   0.66300325   -3.4054455    2497.4569  0.056203459  0.055506869            4 
 3704000   0.66016238   -3.3868524    2500.4191  0.056254929  0.055494954            5 
 3705000   0.66303406   -3.3887176    2502.1678  0.056279077  0.055483046            6 
 3706000   0.66406081   -3.4027994    2490.7038  0.056006111  0.055471269            4 
 3707000   0.65348704   -3.4135403    2496.7765  0.056127518  0.055459373            5 
 3708000   0.67688753   -3.4154755    2504.6567  0.056289479  0.055447563            6 
 3709000   0.66846118   -3.4016771    2502.3034  0.056221431  0.055435786            8 
 3710000   0.66369672   -3.4072897    2489.0196  0.055907897  0.055423962            4 
 3711000   0.65263121   -3.4064063    2491.5502  0.055949658  0.055412089            5 
 3712000   0.66783056   -3.4012258    2502.6777  0.056184394  0.055400289            8 
 3713000   0.66784153   -3.4118862    2500.3675  0.056117415  0.055388437            8 
 3714000   0.65393701   -3.4124257    2497.8114  0.056044951  0.055376614           16 
 3715000   0.65202567   -3.4248636    2503.5284  0.056158108  0.055364765            6 
 3716000   0.65639071   -3.4026569    2499.1081  0.056043866  0.055352928            8 
 3717000   0.65757819   -3.4156353    2492.4648  0.055879849   0.05534106            9 
 3718000   0.65269229   -3.4090164    2499.9251  0.056032031  0.055329138            4 
 3719000   0.65996114   -3.4019947     2506.015  0.056153423  0.055317261            6 
 3720000   0.66505443   -3.4200052    2502.2421   0.05605381  0.055305493           20 
 3721000   0.64802676   -3.3938514    2500.4039  0.055997578  0.055293676            6 
 3722000   0.65422179   -3.4361636    2503.6197  0.056054534  0.055281808           11 
 3723000   0.65065403    -3.407695    2495.5287  0.055858374   0.05526996            6 
 3724000   0.65605544   -3.4338767    2503.8321  0.056029182  0.055258185            7 
 3725000   0.65763791   -3.4165968    2497.9233  0.055881953  0.055246441            4 
 3726000   0.68022512   -3.4021839    2504.3332  0.056010315  0.055234726            4 
 3727000   0.66762296   -3.4105084    2502.3508  0.055950962  0.055222953            7 
 3728000   0.66989705    -3.431975     2506.016  0.056017882  0.055211126           13 
 3729000   0.64867242   -3.4064199    2502.6687  0.055928056  0.055199336           12 
 3730000   0.64976094   -3.4296287    2506.1905  0.055991744  0.055187596            5 
 3731000   0.66733525   -3.4094594    2503.3122  0.055912449  0.055175816            6 
 3732000   0.64569882   -3.3999494    2501.1864      0.05585  0.055164069            3 
 3733000   0.66898313   -3.4053601    2498.8632  0.055783176  0.055152289            7 
 3734000    0.6601957    -3.414884     2499.045  0.055772296  0.055140485            6 
 3735000   0.66275179   -3.4114794    2502.6329  0.055837414  0.055128738            4 
 3736000   0.64580439   -3.3915756    2505.1684  0.055879023  0.055116992            6 
 3737000   0.64932038   -3.4218551    2498.4013  0.055713169  0.055105175            9 
 3738000   0.66456875   -3.4111264    2498.7705  0.055706495  0.055093344            5 
 3739000   0.65685476   -3.4050949    2503.0635  0.055787276  0.055081602            4 
 3740000   0.65133662   -3.4234998    2504.0399  0.055794116  0.055069826           15 
 3741000   0.65044608    -3.400228    2504.9491  0.055799454  0.055058048            2 
 3742000    0.6431355    -3.418349    2503.4416  0.055750971  0.055046292           12 
 3743000   0.65909186   -3.4045653     2506.808  0.055811024  0.055034467            5 
 3744000   0.64267906   -3.4090826    2498.6198  0.055613866  0.055022643            4 
 3745000   0.64829862    -3.409457    2509.8945    0.0558499  0.055010959            8 
 3746000   0.65251725   -3.4075874    2504.3339  0.055711291  0.054999242            7 
 3747000   0.64780123   -3.4222999      2507.22  0.055760608  0.054987487            9 
 3748000   0.66243337   -3.4204017    2500.5186  0.055596731  0.054975711            5 
 3749000   0.64777516   -3.4142446    2508.5214  0.055759788  0.054963962           13 
 3750000   0.66113796   -3.4181922    2505.1332  0.055669626  0.054952208            9 
 3751000   0.66187832   -3.4128415    2498.2975  0.055502921  0.054940412            3 
 3752000   0.64226392   -3.4106582    2509.0417   0.05572676  0.054928636            5 
 3753000   0.65302343   -3.4310928    2499.7151   0.05550482  0.054916952           11 
 3754000   0.64890088    -3.433603    2505.9751  0.055628997  0.054905132           20 
 3755000   0.65871575    -3.432085    2505.9114   0.05561277  0.054893347           11 
 3756000   0.65859416   -3.4305797    2510.7157  0.055704554  0.054881544            6 
 3757000   0.66328094   -3.3992311    2500.0207  0.055452505  0.054869713            6 
 3758000   0.64860816   -3.4081663    2503.0093   0.05550402  0.054857985            7 
 3759000   0.63901167   -3.4280332    2504.6774  0.055526236  0.054846159            9 
 3760000   0.65481437   -3.4136247    2510.4934  0.055640369  0.054834332            8 
 3761000   0.64395147   -3.4034185    2505.2282  0.055508911  0.054822631           11 
 3762000   0.65124408   -3.4186693     2508.187  0.055559698  0.054810903            7 
 3763000   0.63914595   -3.4208437    2504.4046  0.055461171  0.054799202            6 
 3764000   0.64722749   -3.4134178    2506.5624  0.055494208  0.054787471            3 
 3765000   0.65193288   -3.4420618    2505.6115  0.055458422  0.054775785            8 
 3766000   0.65321513   -3.4120728    2503.4771  0.055396467  0.054764043            7 
 3767000   0.64475469   -3.4265412    2508.9746  0.055503377  0.054752263            9 
 3768000   0.66008196   -3.4059376    2510.3395  0.055518833  0.054740517            9 
 3769000   0.65566336   -3.4358869    2502.7987  0.055337372  0.054728726            7 
 3770000   0.63467427   -3.4124918    2509.4852  0.055470495  0.054717039            4 
 3771000   0.64915508   -3.4303127    2508.2144  0.055427703   0.05470527            5 
 3772000   0.64193777   -3.4324377    2504.8556  0.055338802  0.054693555            7 
 3773000   0.66723399   -3.4371479    2504.9712   0.05532669  0.054681805            8 
 3774000   0.64573123   -3.4428927    2511.0767  0.055446844  0.054670109           10 
 3775000    0.6291551   -3.4244101    2507.9876  0.055363965  0.054658339            3 
 3776000   0.65173364   -3.4150818    2517.1347  0.055551172  0.054646641            4 
 3777000   0.65472774   -3.4087202    2514.4434  0.055477085  0.054634946            6 
 3778000   0.66275957   -3.3995919    2506.4026  0.055285041  0.054623237            8 
 3779000   0.64277833   -3.4096829     2510.669  0.055364493  0.054611596            5 
 3780000   0.66433245   -3.4194781    2520.9339  0.055576144  0.054599928            7 
 3781000   0.64400404   -3.4450214    2513.9546  0.055407621  0.054588222            7 
 3782000   0.62864165   -3.4335501    2508.7567  0.055278439  0.054576506            6 
 3783000    0.6477004   -3.4306195     2514.679  0.055394287  0.054564719            3 
 3784000   0.65903902   -3.4329648    2506.1072  0.055190873  0.054552897           10 
 3785000   0.64825196   -3.4106122    2515.5132  0.055383382  0.054541217            7 
 3786000   0.64526423   -3.4329162     2513.669  0.055328162  0.054529611            5 
 3787000   0.64883371   -3.4031602    2508.6688   0.05520352  0.054517981            5 
 3788000    0.6440942   -3.4171319    2517.5218  0.055383707  0.054506404            7 
 3789000   0.64074546   -3.4228629    2519.4604  0.055411728  0.054494766           10 
 3790000   0.63711784   -3.4266757    2512.0766  0.055234753  0.054483134           12 
 3791000   0.65981239    -3.421675    2513.2458  0.055245886  0.054471448           12 
 3792000   0.64029197   -3.4256764    2513.1646  0.055229532  0.054459771           21 
 3793000   0.65154949   -3.4305075    2516.9909  0.055299036  0.054448083            5 
 3794000   0.63785193   -3.4240942    2511.5257   0.05516442  0.054436411            6 
 3795000   0.63051105   -3.4311295    2513.5322  0.055193943  0.054424778           11 
 3796000   0.63539457    -3.426674    2518.3878  0.055285999  0.054413058            7 
 3797000   0.64463401   -3.4337995    2521.1421  0.055331887  0.054401546           17 
 3798000   0.65044845    -3.442229    2519.0061  0.055270451  0.054389907            8 
 3799000    0.6432987   -3.4555717    2512.6803  0.055117142  0.054378269            4 
 3800000   0.65107728   -3.4335639    2518.7508  0.055235764  0.054366645            4 
 3801000   0.63573036   -3.4381677    2509.0522  0.055008599  0.054355061            8 
 3802000   0.65360727   -3.4313911    2517.0633  0.055169721  0.054343427            4 
 3803000   0.63564993   -3.4626118    2507.3714  0.054942838  0.054331759           12 
 3804000   0.63494285    -3.417297    2516.3768  0.055125674   0.05432011            5 
 3805000   0.65611228   -3.4411453    2525.0986  0.055302204  0.054308562            7 
 3806000   0.63639031   -3.4303791    2520.3136  0.055182904  0.054296953            6 
 3807000   0.64577672   -3.4189252    2517.1491   0.05509914  0.054285324           11 
 3808000    0.6421346   -3.4501422    2511.2726  0.054956071  0.054273771            4 
 3809000    0.6503991   -3.4431724    2520.4344  0.055142085   0.05426215           10 
 3810000   0.65269615   -3.4452556    2516.9762  0.055051972  0.054250613            4 
 3811000   0.64804893   -3.4255855    2519.2657  0.055087592  0.054238935            8 
 3812000   0.65662599   -3.4267473    2526.3461  0.055227923  0.054227356            7 
 3813000   0.65814633   -3.4504787    2518.1524  0.055034364  0.054215715            6 
 3814000   0.64904022   -3.4479611    2518.6741  0.055031333  0.054204078            4 
 3815000   0.63354523   -3.4362099    2511.2964  0.054855753  0.054192408            5 
 3816000   0.65246728   -3.4277268    2515.8506  0.054940834  0.054180724            3 
 3817000   0.64253815   -3.4381616     2518.387  0.054981813  0.054169095            7 
 3818000   0.64568443   -3.4482168    2521.5921  0.055037369  0.054157472            4 
 3819000   0.64688234   -3.4274554     2518.535  0.054956249  0.054145976           12 
 3820000   0.63937407   -3.4302758    2516.4694  0.054896802  0.054134325            4 
 3821000   0.64491638   -3.4252035    2519.5745  0.054950156  0.054122752            2 
 3822000   0.63877264    -3.467679    2519.8515  0.054941817  0.054111159           11 
 3823000   0.63389179   -3.4477365    2505.5675  0.054616085  0.054099449            7 
 3824000   0.62753781   -3.4549491    2514.7775  0.054802509  0.054087757            7 
 3825000   0.63986825   -3.4355821    2523.0585  0.054968595  0.054076175            6 
 3826000   0.65020301   -3.4367431    2520.9173  0.054907591  0.054064551            8 
 3827000   0.64788014   -3.4294487     2513.961   0.05474177  0.054052909            5 
 3828000   0.64388114   -3.4282889    2515.6586  0.054764424  0.054041269            9 
 3829000   0.64236478   -3.4442043    2519.1685   0.05482651  0.054029652            6 
 3830000   0.64127953   -3.4353906    2519.9032   0.05482818  0.054018003            9 
 3831000   0.63603432   -3.4372644    2511.6581  0.054634518  0.054006378            9 
 3832000   0.64119569   -3.4396863     2522.159  0.054848621  0.053994771            6 
 3833000   0.64138733   -3.4251931    2521.6835  0.054823974  0.053983208            4 
 3834000   0.62745455   -3.4390917    2522.3024  0.054823127  0.053971699            4 
 3835000   0.63930689   -3.4164705    2530.9048  0.054995758  0.053960169           11 
 3836000    0.6253413   -3.4478482    2517.9447  0.054699875   0.05394863            8 
 3837000   0.65629743   -3.4249896    2521.7251  0.054767725  0.053937167            4 
 3838000   0.64991709   -3.4374096    2529.4566  0.054921327  0.053925719            9 
 3839000   0.63276752   -3.4364182    2524.6135   0.05480189  0.053914219            8 
 3840000   0.63233574   -3.4265419    2524.8591   0.05479295  0.053902692           13 
 3841000   0.64092081   -3.4362259    2522.8586  0.054735282  0.053891172           14 
 3842000   0.63335608   -3.4300453    2529.9715  0.054875314  0.053879676            4 
 3843000      0.63804   -3.4325571    2521.5683  0.054678816  0.053868183            5 
 3844000    0.6471566   -3.4367007    2529.1196  0.054828296  0.053856778            4 
 3845000   0.63312057   -3.4590071    2528.0605   0.05479108  0.053845295            8 
 3846000   0.63207732   -3.4636642    2520.5972  0.054615123   0.05383369           13 
 3847000   0.62050156   -3.4395869    2528.3034  0.054767858  0.053822156            4 
 3848000   0.62929344   -3.4572227    2520.8061  0.054591262  0.053810593           16 
 3849000    0.6325785   -3.4361494    2524.8882  0.054665459  0.053799107           10 
 3850000   0.64916618   -3.4724837    2521.4414  0.054576653  0.053787565            7 
 3851000   0.62726345   -3.4297171    2528.5032  0.054715294  0.053776052            7 
 3852000   0.63598816   -3.4629709    2523.6244  0.054595542  0.053764585            5 
 3853000   0.63653933   -3.4632057    2526.7441  0.054648847  0.053753005            5 
 3854000   0.62800509   -3.4256072    2526.6919   0.05463354  0.053741519            7 
 3855000   0.62893487   -3.4558325    2524.5981  0.054574106  0.053730037            9 
 3856000   0.63940001   -3.4457094    2522.7921  0.054520921   0.05371855           10 
 3857000   0.63989878   -3.4445373    2530.0951  0.054664574  0.053707092            5 
 3858000   0.63867594   -3.4385782    2523.7367  0.054513061  0.053695664            4 
 3859000   0.64559283   -3.4385507    2528.4059  0.054599765  0.053684243            9 
 3860000   0.63335082   -3.4614576    2528.5339  0.054588383  0.053672789            6 
 3861000   0.64280892   -3.4495618    2527.5466  0.054552936  0.053661379            8 
 3862000   0.62819631   -3.4510722    2528.5976  0.054561487  0.053649922           15 
 3863000   0.61499615   -3.4481895    2527.2385  0.054518045   0.05363846            8 
 3864000   0.62482815   -3.4347127    2527.4828  0.054509205  0.053627052            8 
 3865000   0.65693668   -3.4265473    2537.7298  0.054716037  0.053615673            5 
 3866000   0.64136987   -3.4325624    2532.6527  0.054592444  0.053604346            8 
 3867000   0.63193934   -3.4501127    2523.6071  0.054383395  0.053592914            9 
 3868000   0.63520068   -3.4555107    2528.6715  0.054478445  0.053581452            6 
 3869000   0.61646563   -3.4627982    2530.7046  0.054508154   0.05357006           18 
 3870000   0.63032826   -3.4577597    2530.8051  0.054496234  0.053558646            6 
 3871000   0.63523958   -3.4466363    2529.9844  0.054464487   0.05354725            4 
 3872000   0.63116555   -3.4534426    2531.4054  0.054481004  0.053535804            6 
 3873000   0.63178005   -3.4549327    2534.4334  0.054532089  0.053524373            8 
 3874000   0.61577645   -3.4550121      2530.44  0.054432112  0.053513044           14 
 3875000   0.64742067   -3.4510517    2530.8918   0.05442778  0.053501619            9 
 3876000   0.63033935   -3.4572953    2530.0719  0.054396111  0.053490279           13 
 3877000   0.62947612   -3.4568759    2537.3012  0.054537468  0.053478938            7 
 3878000   0.63108932   -3.4594848    2536.6457   0.05450932  0.053467623            6 
 3879000    0.6235324   -3.4771774    2524.1797  0.054227457  0.053456286            9 
 3880000   0.63033251   -3.4754122    2520.6953  0.054138644  0.053444851            4 
 3881000   0.63333225   -3.4568371    2529.4257  0.054312156  0.053433464           13 
 3882000   0.62640804   -3.4748214    2530.0028  0.054310553  0.053422133            9 
 3883000   0.62776078   -3.4567293    2534.5086  0.054393265   0.05341078            4 
 3884000   0.63291685   -3.4451996     2535.026  0.054390361  0.053399442            5 
 3885000   0.62457983   -3.4374959     2526.296  0.054189104  0.053388058            4 
 3886000   0.63453035   -3.4554523    2536.1445  0.054386354  0.053376678            8 
 3887000   0.64037331   -3.4512231    2529.3769  0.054227273  0.053365355            5 
 3888000   0.62206561   -3.4492319    2539.7223  0.054435063  0.053354061           14 
 3889000   0.63424945   -3.4464208    2543.0563  0.054492507  0.053342727            6 
 3890000   0.61394312   -3.4402432    2532.7506  0.054257724  0.053331478            5 
 3891000   0.63210466   -3.4878248    2535.1156  0.054294432  0.053320146            9 
 3892000   0.64273305   -3.4512325    2532.2673  0.054219495   0.05330887            7 
 3893000   0.63931595   -3.4561991    2533.4487  0.054230857   0.05329753            8 
 3894000   0.63504835   -3.4357691    2534.6678  0.054243019  0.053286267           20 
 3895000   0.63556149   -3.4693371    2529.7088  0.054122995  0.053275006           16 
 3896000   0.62526835   -3.4432106    2533.1456  0.054182616  0.053263639            8 
 3897000   0.62730964     -3.46038    2543.3144  0.054386161  0.053252315            5 
 3898000    0.6316051   -3.4500546    2533.4814  0.054161994  0.053241036            5 
 3899000   0.61183577    -3.453435    2536.4268  0.054211053  0.053229757            7 
 3900000   0.62524053   -3.4442511     2536.811  0.054205364    0.0532185            7 
 3901000    0.6417966   -3.4701713    2534.0352  0.054132171  0.053207254            6 
 3902000   0.62661715   -3.4431365     2534.719  0.054132902  0.053195991            7 
 3903000   0.62730517   -3.4676921    2535.4962  0.054135626  0.053184666            5 
 3904000   0.63488474   -3.4665633    2534.5694  0.054101977  0.053173326            4 
 3905000   0.63072528   -3.4674061    2541.9779   0.05424622  0.053162037            5 
 3906000   0.64253614   -3.4566472    2537.9617  0.054146649  0.053150775            6 
 3907000   0.63078649   -3.4710586    2538.5585  0.054145518  0.053139449            8 
 3908000   0.62283234   -3.4546976    2536.7589   0.05409329  0.053128219            8 
 3909000   0.62971483   -3.4438218    2544.2559  0.054239275  0.053117054            5 
 3910000   0.63225639   -3.4751655     2537.297  0.054077089  0.053105808           10 
 3911000   0.61357407   -3.4483204    2542.1475  0.054166614  0.053094546           14 
 3912000   0.64735247   -3.4678202    2533.0269  0.053958481  0.053083234            7 
 3913000   0.62719951   -3.4765064    2546.5532  0.054232755  0.053072011            6 
 3914000   0.63541404   -3.4393508    2541.8717  0.054119225  0.053060822            5 
 3915000   0.64281131   -3.4408722     2542.599  0.054120882  0.053049637            6 
 3916000   0.61975869    -3.472854    2534.5079  0.053934881  0.053038401            8 
 3917000   0.63904434   -3.4621711    2534.8361  0.053928093  0.053027145            4 
 3918000    0.6234999    -3.468204    2534.5103    0.0539074  0.053015946            8 
 3919000   0.64203381   -3.4556422     2545.225  0.054121482  0.053004763           21 
 3920000   0.63356639    -3.447751    2550.2261  0.054213989  0.052993645            6 
 3921000   0.61992738   -3.4599378    2545.9938  0.054110214  0.052982539            6 
 3922000    0.6295442   -3.4674891     2546.144  0.054099609  0.052971412            3 
 3923000   0.62172744   -3.4492035      2552.48  0.054220409   0.05296022            7 
 3924000   0.62588794   -3.4520863    2543.9105  0.054024603  0.052949033            5 
 3925000   0.63171328   -3.4803219    2540.7511  0.053943761  0.052937845            6 
 3926000   0.61761829   -3.4519573    2544.2367  0.054004006  0.052926687            7 
 3927000   0.62340522   -3.4659258    2544.1278  0.053987942  0.052915489           20 
 3928000   0.62278692    -3.469867    2543.2057  0.053954636  0.052904317            7 
 3929000   0.62457691   -3.4662363    2545.6518  0.053992784  0.052893167            6 
 3930000   0.62222539   -3.4916258    2531.6974  0.053683152  0.052881913            8 
 3931000   0.61691287   -3.4615639     2547.837  0.054011638  0.052870713           10 
 3932000   0.61701557   -3.4664272    2547.6071  0.053993029  0.052859551            5 
 3933000   0.62053272   -3.4722926    2551.5386  0.054062602  0.052848371            9 
 3934000   0.61151579   -3.4649818    2540.9094  0.053823704  0.052837246           18 
 3935000   0.61908229   -3.4615795    2543.7405   0.05386998  0.052826039            4 
 3936000   0.61538829    -3.456947    2543.9852  0.053861476  0.052814892            4 
 3937000    0.6200846   -3.4693501    2546.9179  0.053909869  0.052803665           18 
 3938000   0.61430941    -3.469312    2539.5148   0.05373952  0.052792416            6 
 3939000     0.625083   -3.4726869    2542.6604  0.053792426  0.052781191            7 
 3940000   0.62162997   -3.4458131    2547.9475  0.053890598  0.052770075            8 
 3941000   0.60858431   -3.4576742    2541.1951  0.053734144  0.052759056            8 
 3942000   0.62613442   -3.4784886     2546.982  0.053842846  0.052747995           10 
 3943000    0.6229105   -3.4655216    2546.4415  0.053817768  0.052736961            8 
 3944000   0.60734823    -3.492196    2549.0019  0.053858221  0.052725856            7 
 3945000   0.60932257   -3.4676882    2541.2488  0.053680795  0.052714736           16 
 3946000   0.60794453   -3.4703039    2550.5788  0.053864225  0.052703679            9 
 3947000   0.62490296   -3.4772351    2550.1052   0.05384058  0.052692646           13 
 3948000   0.62948225   -3.4757506    2550.7873   0.05384134  0.052681498            8 
 3949000   0.62393621   -3.4701432    2551.3605    0.0538398  0.052670415            7 
 3950000   0.60459126   -3.4732841    2551.6732  0.053832768  0.052659315            4 
 3951000   0.63283053   -3.4716896    2546.4773  0.053709551  0.052648226            6 
 3952000   0.61241145   -3.4591714    2553.7505  0.053849327   0.05263719           11 
 3953000   0.61745499   -3.4809123    2550.4838   0.05376684  0.052626076            7 
 3954000   0.60925933   -3.4741731    2544.7824  0.053633081  0.052614972           18 
 3955000   0.62187533   -3.4930994    2551.0653  0.053751903  0.052603859            4 
 3956000   0.60628554   -3.4753863    2550.6266  0.053729074  0.052592773            4 
 3957000   0.60942104   -3.4659099    2549.5882  0.053693628  0.052581759           11 
 3958000   0.61170066   -3.4753736    2547.8459  0.053643378  0.052570659           11 
 3959000   0.61637473   -3.4835319    2558.1699   0.05384714  0.052559689            4 
 3960000   0.61945107   -3.4647797     2549.686  0.053655008  0.052548628            5 
 3961000   0.62386382   -3.4977078    2546.0769  0.053565534  0.052537513            7 
 3962000   0.61993297   -3.4798471    2546.4105   0.05355903  0.052526376            6 
 3963000   0.62070916     -3.47997    2556.1023  0.053749311  0.052515328            5 
 3964000   0.62854209   -3.4620433    2552.1641  0.053652962  0.052504361            7 
 3965000   0.60912649   -3.4930697    2542.9414  0.053445595  0.052493349           24 
 3966000   0.61865265   -3.4584984    2556.1666  0.053710005  0.052482359           11 
 3967000   0.60755684   -3.4801819    2556.3201  0.053699691  0.052471347            8 
 3968000   0.61804487   -3.4777625    2550.4911  0.053563742  0.052460336            7 
 3969000   0.61660335   -3.4717545     2551.812  0.053577979   0.05244937            5 
 3970000   0.61848279   -3.4720477    2548.2819  0.053490384  0.052438331            9 
 3971000   0.61063255   -3.4693684    2557.4294  0.053668879  0.052427305            6 
 3972000   0.62169574   -3.4708512      2557.57  0.053658316  0.052416267            9 
 3973000    0.6194513   -3.5009444    2553.8217   0.05356619  0.052405234            4 
 3974000   0.62524097   -3.4738634    2555.3013  0.053583738  0.052394246           10 
 3975000   0.63244725   -3.4838196    2556.6999  0.053599579  0.052383252            6 
 3976000   0.61902634   -3.4604897    2552.5053  0.053498182  0.052372265           11 
 3977000   0.61606898   -3.5020285    2554.7705  0.053532195  0.052361292           14 
 3978000   0.61759196    -3.478391    2548.6389  0.053390289  0.052350281            6 
 3979000   0.61887041   -3.4848707     2549.688  0.053398844   0.05233923           11 
 3980000   0.62233192   -3.4562651    2556.8334  0.053535038  0.052328248            6 
 3981000   0.62038705   -3.5013175    2554.9089  0.053481305  0.052317272           17 
 3982000   0.60937444   -3.4694313    2554.5068  0.053459459  0.052306289           12 
 3983000   0.61372527   -3.4657168    2561.5956  0.053594351   0.05229542            7 
 3984000   0.61764265    -3.475477    2560.1701   0.05355108  0.052284441            7 
 3985000   0.60512315   -3.4901411    2560.7619   0.05355002  0.052273515            5 
 3986000   0.62210519   -3.4844729    2558.4288  0.053487808  0.052262607           12 
 3987000   0.59942926   -3.4837257    2550.7734  0.053314385  0.052251682           25 
 3988000   0.61396173   -3.4922118    2560.7905  0.053510334  0.052240733            9 
 3989000   0.61284333     -3.49478    2555.8132   0.05339294  0.052229858            7 
 3990000   0.62374968   -3.4813505    2559.8363  0.053463581  0.052218889            9 
 3991000   0.61905386   -3.4712267    2559.2111  0.053437131  0.052208054            6 
 3992000   0.61223308   -3.4777164    2559.6426  0.053432753  0.052197041           19 
 3993000   0.62564222   -3.4819277     2554.487  0.053311775  0.052186111            9 
 3994000   0.61265706    -3.489099    2559.8214  0.053409727  0.052175196            6 
 3995000   0.60530095   -3.4671197    2550.5201  0.053202339  0.052164164            8 
 3996000   0.60903877   -3.4820927    2552.4101  0.053228439  0.052153207            9 
 3997000   0.59806452   -3.4744345    2558.5565  0.053343269  0.052142209            9 
 3998000   0.60630712   -3.4866644    2556.1836  0.053280466  0.052131189            8 
 3999000   0.60841336   -3.4894286    2556.4743  0.053273199  0.052120254            6 
 4000000   0.60805658   -3.4948041    2560.9038  0.053352163  0.052109231            9 
 4001000   0.60345288   -3.4921297    2551.9313  0.053151948  0.052098236            7 
 4002000   0.62098992   -3.4780901    2558.7632  0.053280927  0.052087267            6 
 4003000   0.60571903   -3.4870171    2556.6009  0.053222601  0.052076271            8 
 4004000    0.6016008   -3.4869319     2558.884  0.053256826  0.052065237            7 
 4005000   0.61903578   -3.5152264    2554.6358  0.053155134  0.052054262            9 
 4006000   0.61389639   -3.4882686     2559.663  0.053246443  0.052043283            5 
 4007000   0.60644106   -3.4850524    2553.8775  0.053112834  0.052032299            3 
 4008000   0.59746504   -3.4873015    2563.8246  0.053306399  0.052021317            8 
 4009000   0.59584237   -3.4803555    2560.4497  0.053222951  0.052010304            6 
 4010000   0.61341095   -3.4953596    2557.8401  0.053155446  0.051999341            5 
 4011000   0.60290324   -3.4640104    2559.5867  0.053178481  0.051988313            7 
 4012000   0.60964835   -3.4849719    2558.5583  0.053143865  0.051977326            9 
 4013000   0.60959704   -3.4795974    2560.6833  0.053174751  0.051966301            5 
 4014000   0.61689906   -3.4809288    2561.8957  0.053186673  0.051955309            5 
 4015000   0.61726908   -3.5066045    2557.6325  0.053084943  0.051944332            6 
 4016000   0.60520868   -3.5076132    2552.9416  0.052974385  0.051933336            7 
 4017000   0.59683544   -3.4861818    2557.3473  0.053052594  0.051922353           10 
 4018000   0.60488803   -3.4666283    2558.9319  0.053072256  0.051911437            5 
 4019000    0.6188637   -3.4837111    2559.4994  0.053070819  0.051900483            7 
 4020000   0.60205128   -3.5039434    2557.7165  0.053020656  0.051889514           15 
 4021000   0.63058806    -3.494671    2557.9435  0.053012175  0.051878549           13 
 4022000   0.61558366   -3.5088208    2561.6264  0.053075302  0.051867574            7 
 4023000   0.61967762   -3.4857697    2561.7141  0.053063927  0.051856591            7 
 4024000   0.60736394   -3.4868671    2557.1924  0.052957098  0.051845584            6 
 4025000   0.60820095   -3.4939013    2565.0485  0.053106594  0.051834641            7 
 4026000   0.61485435   -3.4930895    2562.0823  0.053032007  0.051823757           12 
 4027000   0.61197984   -3.4581247    2556.1999  0.052897108  0.051812788            5 
 4028000   0.61636675   -3.4995925    2567.5924   0.05311967  0.051801834            6 
 4029000   0.59874266     -3.51355     2560.251  0.052954642  0.051790855            9 
 4030000    0.6024204    -3.495226    2558.3754  0.052902716  0.051779854           10 
 4031000   0.60635574   -3.4767697    2568.6672  0.053102357  0.051768977           13 
 4032000   0.61673408   -3.4902108    2564.9807  0.053012995  0.051758027            6 
 4033000   0.60354236   -3.5033386    2559.8398  0.052893624  0.051747068            8 
 4034000   0.61611867   -3.5139372    2569.7015  0.053084233  0.051736117            5 
 4035000   0.59897991   -3.4870536    2561.5289   0.05290229  0.051725187            7 
 4036000    0.6000113   -3.4824925     2562.466  0.052908531  0.051714257           22 
 4037000   0.60335485   -3.4909934    2563.7197  0.052921306  0.051703417            7 
 4038000   0.61831947   -3.4895725    2569.0944  0.053019117  0.051692573            9 
 4039000     0.607089   -3.4842612    2561.4077  0.052847399  0.051681698            8 
 4040000   0.61635779   -3.4799292    2565.3289  0.052915201   0.05167082            5 
 4041000   0.60231845   -3.4927976    2561.2075  0.052817115   0.05165987            4 
 4042000   0.59155246   -3.4792412    2561.0918  0.052801661  0.051648992            5 
 4043000   0.59813227   -3.4976886    2562.4872  0.052817363  0.051638098           10 
 4044000    0.5912915   -3.4957534    2563.9181  0.052833789  0.051627194           20 
 4045000   0.60261939    -3.499085    2565.4627  0.052852549  0.051616349           14 
 4046000   0.61289706   -3.5064765    2563.6761  0.052802688  0.051605471           11 
 4047000   0.60093317   -3.5065308     2572.455  0.052970411  0.051594531            5 
 4048000   0.60359239   -3.5014331    2560.3502  0.052708131  0.051583527            6 
 4049000   0.59923985   -3.5162333     2568.905  0.052871181  0.051572587            4 
 4050000   0.59852298    -3.498932    2555.0523  0.052573092  0.051561674            7 
 4051000   0.59661149    -3.488429    2566.0736  0.052786834  0.051550693           10 
 4052000   0.59922227   -3.4888409    2566.1601  0.052775585   0.05153976            7 
 4053000    0.5957225   -3.4963976      2569.76  0.052836581  0.051528832            9 
 4054000   0.61167516   -3.4919171    2563.6544  0.052698044  0.051517889            5 
 4055000   0.61098841   -3.5036431    2565.4007  0.052720936  0.051506978           12 
 4056000   0.60825201    -3.488176    2553.9544  0.052472765  0.051496044            6 
 4057000   0.59745139   -3.4868417    2564.1547  0.052669351  0.051485073            5 
 4058000   0.59743959   -3.5054143    2569.3598  0.052763261   0.05147415           10 
 4059000    0.6052764   -3.5018472     2563.585  0.052631704  0.051463259           10 
 4060000   0.59870614   -3.5022852    2568.0289  0.052709952   0.05145236            8 
 4061000   0.59933266   -3.5003195    2563.4864  0.052603759  0.051441425            6 
 4062000   0.60633968   -3.4968903    2567.4819  0.052672779  0.051430522            6 
 4063000   0.60192219   -3.5034232    2573.3238  0.052779632  0.051419764            7 
 4064000   0.59565822   -3.5084684    2565.2512  0.052601116  0.051408952            8 
 4065000   0.60374689   -3.5171916    2563.9374  0.052561242  0.051398093            8 
 4066000   0.60397287   -3.5144478    2564.3631  0.052557041  0.051387142            6 
 4067000   0.60249102   -3.5102631    2566.5997  0.052589945  0.051376228            7 
 4068000   0.59913308   -3.5117671    2565.9578  0.052563869  0.051365307            6 
 4069000   0.59658398   -3.5079094    2567.7827  0.052588325  0.051354442           15 
 4070000   0.60696207   -3.4909476    2567.9393   0.05257861  0.051343655            6 
 4071000   0.60685055   -3.5163893    2570.9758  0.052627852  0.051332819            8 
 4072000   0.60408451    -3.501759    2571.5387  0.052626446  0.051321988           19 
 4073000   0.59274424   -3.5177751    2558.4955  0.052346662  0.051311154           11 
 4074000   0.59546399   -3.5069931     2565.489  0.052476866  0.051300257            5 
 4075000   0.60596058   -3.4982715    2573.5759  0.052629364  0.051289475            7 
 4076000   0.59245702   -3.5047719     2563.056  0.052401373  0.051278594            7 
 4077000   0.59532091   -3.4958853    2568.5323  0.052500455  0.051267708           10 
 4078000   0.59344447   -3.5144987    2567.2412  0.052461199  0.051256835            6 
 4079000    0.6055064   -3.5181635    2567.3692  0.052450951  0.051245959           18 
 4080000   0.60987622   -3.5216855    2570.6165  0.052504422  0.051235041           11 
 4081000    0.6108409   -3.5032898    2570.1176  0.052481369  0.051224126            9 
 4082000   0.60149577   -3.4929641     2569.315  0.052452127  0.051213211            7 
 4083000   0.62048547   -3.4893903    2567.7706   0.05240776  0.051202394            3 
 4084000   0.61246691   -3.4925609    2567.1822  0.052382922  0.051191607           13 
 4085000   0.59652577   -3.4837992    2567.3034  0.052372569  0.051180734            6 
 4086000   0.59529853   -3.5089108    2561.7008  0.052245489  0.051169857            9 
 4087000   0.61116912   -3.5042712     2567.813  0.052357333  0.051158957           11 
 4088000   0.59440947   -3.5186196    2567.1498  0.052331005  0.051148079            9 
 4089000   0.58575524   -3.4896061    2579.2278  0.052564355  0.051137241            7 
 4090000   0.59467118   -3.4921268    2571.8433  0.052401046  0.051126406            9 
 4091000   0.60309687   -3.4914159    2572.2759  0.052397048  0.051115636            5 
 4092000   0.57980542   -3.5028149    2572.9126   0.05239721  0.051104872           15 
 4093000   0.58543092   -3.5240215    2576.5034  0.052457517  0.051094073            4 
 4094000    0.5963787   -3.5125248    2573.1445  0.052376333  0.051083292            5 
 4095000   0.59363215   -3.5030492    2575.8574  0.052418751  0.051072492           12 
 4096000   0.60067427   -3.5191915    2568.9698  0.052265824  0.051061658            8 
 4097000   0.60014241   -3.5037786    2567.5926  0.052225055  0.051050787            8 
 4098000   0.59614984   -3.5161776    2567.6381  0.052213237  0.051039949           12 
 4099000   0.60554128   -3.5187456    2558.0807  0.052006194  0.051029052            4 
 4100000   0.58920719   -3.5195029    2565.8277  0.052150969  0.051018181           12 
 4101000   0.60052927   -3.5172996    2566.1208  0.052144209  0.051007311           13 
 4102000   0.59491235   -3.5163591    2566.8907  0.052147138  0.050996422            8 
 4103000   0.60222601   -3.5029351     2572.303  0.052244354  0.050985538            3 
 4104000   0.60134156   -3.5101722    2571.6985  0.052219349  0.050974628            8 
 4105000   0.59536046   -3.5069098    2565.2126  0.052074961  0.050963662           11 
 4106000   0.60594174   -3.5320085    2563.0892  0.052019184  0.050952743            5 
 4107000   0.59745036   -3.5200479    2568.6994  0.052120351  0.050941785            7 
 4108000   0.59053456   -3.5170092    2568.1496   0.05209651  0.050930868            8 
 4109000   0.59933937   -3.5314744    2567.8647  0.052078055  0.050919863            4 
 4110000   0.58875085   -3.5234624    2559.7736   0.05190133  0.050908858           10 
 4111000   0.60467251   -3.5106421      2567.36  0.052042488  0.050897847            6 
 4112000   0.59384687   -3.5227572     2563.613  0.051953896  0.050886859           11 
 4113000   0.59443149   -3.5214338    2569.7638  0.052065885  0.050875843            7 
 4114000    0.5945605   -3.5231824    2568.9662  0.052037073  0.050864856            8 
 4115000   0.59007836   -3.5309401    2561.8137  0.051879581  0.050853903           10 
 4116000   0.57349375   -3.5167308    2566.6824  0.051965549  0.050842911            9 
 4117000   0.59035616    -3.504673    2567.9654  0.051978896  0.050831948            8 
 4118000   0.59040723   -3.5022737    2569.6404  0.052000169  0.050821052           10 
 4119000   0.59604964   -3.4995936    2574.2441  0.052080685  0.050810118           11 
 4120000    0.5978343   -3.5204874    2570.7136  0.051996634  0.050799204           14 
 4121000   0.59669309   -3.5078769    2571.3518  0.051996923    0.0507883           11 
 4122000   0.58266601   -3.5213287    2569.9755  0.051956484   0.05077741            5 
 4123000   0.58387614   -3.5287134    2568.0222  0.051904402  0.050766482           17 
 4124000     0.586261   -3.5303904    2562.2968  0.051776124  0.050755542            6 
 4125000   0.59117421   -3.5219843    2573.3179  0.051986219  0.050744646            5 
 4126000    0.5929504    -3.507086    2572.5662  0.051958438   0.05073377            8 
 4127000   0.60038286   -3.5141659    2568.6537  0.051866846  0.050722894            4 
 4128000    0.6013634   -3.4958065    2575.2015  0.051986464  0.050712032            5 
 4129000   0.58737151   -3.5291609     2573.248  0.051934447  0.050701203           12 
 4130000   0.58988339   -3.4895485    2571.2308   0.05188117   0.05069034           11 
 4131000   0.60973467   -3.5250027    2574.7694  0.051939994  0.050679495            8 
 4132000   0.57552461   -3.5281351     2569.123  0.051813549  0.050668586           13 
 4133000   0.59304299   -3.5094649    2570.9802  0.051838458  0.050657694           11 
 4134000   0.59906239   -3.5105158    2568.2266  0.051770412  0.050646789            6 
 4135000   0.60309157   -3.5081353    2576.4583  0.051923787  0.050635903            2 
 4136000   0.58650306   -3.5322071    2576.1135  0.051904285  0.050625051            8 
 4137000   0.58562377   -3.5128201    2572.8673   0.05182635  0.050614173            4 
 4138000   0.59948628   -3.5183247    2572.5466  0.051807366  0.050603262            8 
 4139000   0.59419953   -3.5200577    2569.3217   0.05172992  0.050592311            5 
 4140000   0.58499543    -3.505507    2567.2438    0.0516756  0.050581362            7 
 4141000   0.59267217   -3.5177531    2569.5697  0.051709928  0.050570377            5 
 4142000   0.58622675   -3.5206223    2567.2056  0.051649878   0.05055943            4 
 4143000   0.59783097   -3.5274698    2570.8751  0.051711221  0.050548539            7 
 4144000   0.59810284   -3.5257609    2564.1188  0.051562878   0.05053755            6 
 4145000   0.58413032   -3.5236989    2567.9536  0.051627536  0.050526576           17 
 4146000   0.59605613   -3.5277795    2568.1413  0.051618855  0.050515577           17 
 4147000   0.58384214   -3.5004842    2574.7868  0.051739948   0.05050458            8 
 4148000   0.58364884   -3.5313437    2571.9077  0.051669635  0.050493638           12 
 4149000     0.596067   -3.5331552    2569.6174   0.05161118   0.05048265           10 
 4150000   0.60124759   -3.5362515    2572.2774  0.051652156  0.050471746           10 
 4151000   0.57699914   -3.5345279    2573.0482  0.051655188  0.050460808           22 
 4152000   0.59746016   -3.5194999    2572.5433  0.051632612    0.0504498            8 
 4153000   0.58068263    -3.543157    2561.8099  0.051404806  0.050438836           20 
 4154000    0.6132993   -3.5298083    2576.3513  0.051684146  0.050427878            6 
 4155000   0.60842222   -3.5259132    2572.7386   0.05159925  0.050416944           19 
 4156000   0.58696777   -3.5215773    2567.4296  0.051480382  0.050405999           11 
 4157000   0.58068453   -3.5221057    2568.8364    0.0514962  0.050395051            5 
 4158000   0.58790378   -3.5341283    2574.4721  0.051596763  0.050384108            9 
 4159000   0.58121366   -3.5227185    2571.4302  0.051523407  0.050373142           11 
 4160000   0.57396769   -3.5415266    2563.5452  0.051353069  0.050362176           11 
 4161000   0.57958742   -3.5329396    2570.0283  0.051470566  0.050351205            9 
 4162000   0.57659133   -3.5148258    2576.5356  0.051588492   0.05034038            8 
 4163000   0.58006779   -3.5305625    2569.3698  0.051432657  0.050329489            5 
 4164000   0.57918681    -3.533631    2573.0361  0.051493678  0.050318532            6 
 4165000   0.58562742   -3.5247503    2570.1585   0.05142374  0.050307649            9 
 4166000   0.57567057   -3.5149547    2574.2296  0.051492831  0.050296748            8 
 4167000   0.57685855   -3.5372827     2570.593  0.051407747  0.050285841           14 
 4168000   0.58478227   -3.5321902    2576.6326  0.051516167  0.050274916            4 
 4169000   0.58846216   -3.5310709    2576.8124  0.051507405  0.050264065            6 
 4170000   0.57608439   -3.5172417     2567.912  0.051317185  0.050253194           11 
 4171000   0.59115449   -3.5127524    2575.1619  0.051449731  0.050242282           11 
 4172000   0.59436491   -3.5411236    2572.3985    0.0513822  0.050231354           18 
 4173000   0.58935449   -3.5407873     2577.723  0.051476216   0.05022049            6 
 4174000   0.58587764   -3.5173129    2583.2167  0.051573564  0.050209615            6 
 4175000   0.58556183   -3.5338751    2573.9039  0.051375328  0.050198747           14 
 4176000   0.59206386   -3.5461183    2574.7046  0.051379003  0.050187877            9 
 4177000    0.5888109   -3.5587776    2569.1188  0.051255264  0.050176957           11 
 4178000   0.59032312   -3.5422433    2573.4119  0.051328625   0.05016606            3 
 4179000   0.58168717   -3.5257523     2575.228  0.051352555  0.050155196            9 
 4180000   0.58026917   -3.5395296    2574.6623  0.051328993  0.050144346           11 
 4181000   0.58355473   -3.5371144    2579.0387  0.051403943  0.050133486           13 
 4182000   0.57910767   -3.5428942    2573.1527  0.051274365   0.05012263           13 
 4183000     0.589446   -3.5263331    2572.8079  0.051255237  0.050111773           11 
 4184000   0.57131961   -3.5475156    2578.8117  0.051362566  0.050100875            6 
 4185000   0.57612871   -3.5161852    2582.3398  0.051420545  0.050090009            9 
 4186000   0.57388206   -3.5434594    2580.4157  0.051369957  0.050079166            7 
 4187000   0.57196495   -3.5256053    2573.6729  0.051223487  0.050068316           10 
 4188000   0.58871511   -3.5554788    2581.1119  0.051359279  0.050057499            5 
 4189000   0.58594364   -3.5424053    2573.8894  0.051203338  0.050046696            9 
 4190000   0.57945416    -3.555061    2573.1794  0.051176996  0.050035789            4 
 4191000   0.58577517   -3.5242982    2574.1185  0.051183458  0.050024897            4 
 4192000    0.5943981   -3.5240025    2575.4458  0.051197634   0.05001403            5 
 4193000   0.57798193   -3.5237196    2579.6768  0.051269513  0.050003234            9 
 4194000   0.57496322   -3.5129849    2582.7625    0.0513186  0.049992367            8 
 4195000   0.58409642   -3.5479391    2578.9212   0.05123006  0.049981567            9 
 4196000   0.57491127   -3.5412177     2577.017  0.051180032  0.049970667            9 
 4197000   0.57943693    -3.553439    2568.0171  0.050989141  0.049959779            4 
 4198000   0.58732746   -3.5313277    2581.8099  0.051250792  0.049948899            6 
 4199000   0.58811475   -3.5184217     2582.767  0.051257581  0.049938099            5 
 4200000   0.58357168   -3.5384895    2579.9243  0.051188974   0.04992723            6 
 4201000    0.5715241   -3.5436347    2567.9915  0.050940084   0.04991638            8 
 4202000    0.5904853   -3.5316172    2572.0151  0.051007757  0.049905511            8 
 4203000   0.56561457   -3.5402654    2581.3299  0.051180305  0.049894619            9 
 4204000   0.58822421   -3.5521241    2577.5853  0.051093905  0.049883749            4 
 4205000   0.57978909   -3.5425454    2568.1337  0.050894444  0.049872855           15 
 4206000   0.59146704   -3.5646123    2572.4382  0.050967629   0.04986189           19 
 4207000   0.57681082   -3.5351764    2582.2563  0.051149994  0.049851108            8 
 4208000   0.57173611   -3.5202899    2578.2471  0.051058442  0.049840289            8 
 4209000   0.56789385   -3.5646068    2581.1009  0.051102814  0.049829442            9 
 4210000   0.57734971   -3.5458849    2579.1861  0.051052774  0.049818508           14 
 4211000   0.57763034    -3.559587    2576.6476  0.050990414  0.049807713           16 
 4212000   0.58295245   -3.5436141    2580.1492  0.051047586  0.049796891            9 
 4213000   0.58025253   -3.5462968    2583.3434   0.05109865  0.049786103            7 
 4214000   0.57529825   -3.5480483    2576.8925  0.050958956  0.049775322            9 
 4215000   0.58269541   -3.5463922    2580.1125  0.051010528  0.049764522            6 
 4216000   0.57733083   -3.5444358    2580.0267  0.050996734  0.049753747            7 
 4217000   0.57412636   -3.5391224    2577.3725  0.050932189  0.049742981            7 
 4218000   0.58260797   -3.5627091    2580.4997  0.050981896  0.049732256            6 
 4219000   0.56663762   -3.5485249    2582.0661  0.051000753  0.049721483           11 
 4220000   0.57913569   -3.5422069    2586.7463  0.051081089  0.049710728            6 
 4221000   0.56767743   -3.5403169    2577.4542  0.050885537  0.049699979            5 
 4222000   0.57993058   -3.5496004     2584.375  0.051010086  0.049689149            9 
 4223000   0.57542478   -3.5526525    2579.2446  0.050896767  0.049678387            9 
 4224000   0.57326735   -3.5544402    2576.2671  0.050825976  0.049667594            8 
 4225000   0.57509313   -3.5587676      2577.41   0.05083649  0.049656724            4 
 4226000   0.57479755   -3.5441144    2581.1582  0.050898371   0.04964591            7 
 4227000   0.57789554   -3.5555058    2583.6021  0.050934509  0.049635143            6 
 4228000   0.58457657   -3.5533163    2579.7442  0.050846424  0.049624305            7 
 4229000   0.56792914    -3.543527    2577.9049  0.050798158  0.049613537           13 
 4230000   0.56726609   -3.5522288    2578.3029   0.05079399  0.049602689           16 
 4231000   0.58049442   -3.5246502    2577.7236  0.050770574  0.049591856           19 
 4232000   0.58851875    -3.529733    2574.2207  0.050689601  0.049581047           21 
 4233000   0.58239176   -3.5411425    2580.1574    0.0507945  0.049570236           13 
 4234000   0.56815299   -3.5403191     2579.848  0.050776413  0.049559416            9 
 4235000   0.58546243   -3.5561951    2580.1721  0.050770802  0.049548596           10 
 4236000   0.57799132   -3.5617042    2579.9027  0.050753516  0.049537727            8 
 4237000   0.58942283   -3.5484094    2580.7436  0.050758076   0.04952692           12 
 4238000   0.57203855   -3.5668821    2578.4963  0.050701908  0.049516099           15 
 4239000    0.5699382   -3.5582602    2580.3669  0.050726723   0.04950523            8 
 4240000    0.5661258   -3.5454359     2577.655  0.050661458  0.049494448            6 
 4241000   0.57466547   -3.5690762    2580.6255  0.050707881  0.049483596            9 
 4242000   0.56069951   -3.5483018    2579.0167  0.050664324  0.049472721           21 
 4243000   0.57560597   -3.5341615    2568.1319  0.050438602   0.04946182            6 
 4244000   0.57197479   -3.5542536    2573.6308  0.050534691  0.049451021            9 
 4245000   0.56579811   -3.5430543    2577.8128  0.050604883  0.049440181            7 
 4246000   0.57854993    -3.562218    2582.3322  0.050681665  0.049429327           13 
 4247000   0.57400479   -3.5604653    2577.4226  0.050573396   0.04941843           11 
 4248000   0.56715458   -3.5773617    2576.1766  0.050537049  0.049407475           19 
 4249000   0.56070918   -3.5306975    2583.2899  0.050664665  0.049396615           10 
 4250000    0.5791884   -3.5415301    2582.2339  0.050632038  0.049385832           12 
 4251000   0.57345586   -3.5283494    2579.3031  0.050562674  0.049374998            6 
 4252000    0.5768564   -3.5592835    2574.0693  0.050448207  0.049364168            9 
 4253000   0.56224346   -3.5610105    2579.9694  0.050551952    0.0493533           22 
 4254000   0.56918735    -3.559245    2573.6295  0.050415873  0.049342464           10 
 4255000   0.57532091   -3.5400532    2582.8849  0.050585291  0.049331631            7 
 4256000   0.55206833   -3.5565621    2582.1136  0.050558301  0.049320834           14 
 4257000     0.572136   -3.5586741    2567.4458  0.050259294   0.04930996            9 
 4258000   0.55495876   -3.5409884    2582.5368  0.050542837  0.049299127           12 
 4259000   0.57321357   -3.5455665    2582.3494  0.050527303  0.049288321            9 
 4260000   0.57743338   -3.5696251    2575.8563  0.050388425  0.049277478            7 
 4261000   0.56632564   -3.5250388    2578.7948  0.050434069  0.049266675            4 
 4262000   0.57325555   -3.5426212    2583.7086  0.050518313   0.04925594            6 
 4263000   0.57027985   -3.5542528     2572.496  0.050287279  0.049245168            5 
 4264000    0.5702519   -3.5376643    2578.2354  0.050387653   0.04923439            9 
 4265000    0.5838109   -3.5520394    2586.4055  0.050535474  0.049223591            8 
 4266000   0.55994085   -3.5509235    2574.8471  0.050297841  0.049212779           20 
 4267000    0.5728155   -3.5670965    2575.2384  0.050293696  0.049201914            6 
 4268000   0.55929624   -3.5586129    2575.3601  0.050284289  0.049191105            7 
 4269000   0.57584062   -3.5741916    2585.4035  0.050468563   0.04918027           16 
 4270000    0.5720658   -3.5513767    2580.4472  0.050360015  0.049169466            8 
 4271000   0.57289616   -3.5490137    2581.5347  0.050369443  0.049158639           10 
 4272000   0.57920207    -3.557696    2584.3389  0.050412354  0.049147851            7 
 4273000   0.58911265   -3.5401889     2581.934  0.050353655  0.049137062            4 
 4274000   0.58088611   -3.5395672    2584.9842  0.050401346  0.049126237            7 
 4275000   0.55132224   -3.5657707     2585.737  0.050404229  0.049115382            7 
 4276000    0.5690792   -3.5696973    2584.3259  0.050364941  0.049104523           12 
 4277000     0.569062   -3.5513569    2580.2132  0.050273033  0.049093684            5 
 4278000   0.56884951   -3.5638027     2587.519  0.050403596  0.049082899            7 
 4279000    0.5584257   -3.5704759    2580.6909   0.05025884   0.04907204            9 
 4280000   0.55984465   -3.5718842    2581.8552  0.050269767  0.049061188           13 
 4281000   0.57278073   -3.5716916     2576.569  0.050155124  0.049050297            7 
 4282000   0.58343367   -3.5651346    2578.8834  0.050188452  0.049039439           12 
 4283000   0.56809844   -3.5653225    2571.6514  0.050036021  0.049028555            8 
 4284000   0.58107243   -3.5611584    2580.4487   0.05019547  0.049017676           12 
 4285000   0.57130539   -3.5465762    2585.1139  0.050274483  0.049006873            6 
 4286000   0.56481094   -3.5537359    2584.6441  0.050253619  0.048996071            5 
 4287000   0.57405026   -3.5723912    2580.2666  0.050156803  0.048985245            7 
 4288000   0.56226873   -3.5737415    2577.9879  0.050100822   0.04897438           10 
 4289000   0.56174771   -3.5633139    2574.4509  0.050020418  0.048963491            7 
 4290000   0.56773135   -3.5830664    2569.2517  0.049907764  0.048952589           15 
 4291000   0.58218677   -3.5628413    2571.8279  0.049946164  0.048941642           20 
 4292000    0.5639307   -3.5683123    2578.2469  0.050059158  0.048930763            9 
 4293000     0.567012   -3.5619319     2578.049  0.050043656  0.048919882            7 
 4294000    0.5663149   -3.5561825    2581.7365  0.050103565   0.04890905            8 
 4295000   0.56575257   -3.5523114    2576.1728   0.04998395   0.04889815           11 
 4296000   0.56830669    -3.559156    2581.7789  0.050081061  0.048887257           11 
 4297000   0.55876446   -3.5715508    2575.8319  0.049954075  0.048876369           14 
 4298000   0.56529093   -3.5676529    2585.7288  0.050134342  0.048865521            8 
 4299000   0.55605112   -3.5554701    2578.6272  0.049985019  0.048854671            8 
 4300000   0.56803901   -3.5494309    2576.4318  0.049930848  0.048843793           12 
 4301000   0.55319215   -3.5731378    2577.0095  0.049930434  0.048832848           24 
 4302000   0.54911521   -3.5511663    2579.0093  0.049957564  0.048822004           11 
 4303000   0.56827837   -3.5710291    2579.5012   0.04995548  0.048811159            6 
 4304000   0.57051739   -3.5737661    2579.3447  0.049940843  0.048800293           19 
 4305000   0.56602079   -3.5685291    2585.2547  0.050043646  0.048789477           10 
 4306000   0.55939409   -3.5546568    2580.3618  0.049937331   0.04877867           14 
 4307000   0.57326006   -3.5491972    2588.1282  0.050076005  0.048767863            7 
 4308000   0.55855681   -3.5731773      2577.92  0.049866913  0.048757055            8 
 4309000   0.55339189   -3.5675757     2584.812  0.049988628  0.048746223            8 
 4310000   0.56436179   -3.5465573    2583.4367   0.04995044  0.048735432            3 
 4311000   0.56422792   -3.5891708     2587.449  0.050016412  0.048724602            7 
 4312000   0.56726949   -3.5779625    2582.5402  0.049909945  0.048713758           15 
 4313000   0.55376711   -3.5823379    2578.0881  0.049812352   0.04870289           17 
 4314000   0.56916291   -3.5670504    2579.6776  0.049831511  0.048691999            9 
 4315000   0.57722026    -3.583755    2579.3923  0.049814451   0.04868115            7 
 4316000   0.56178545    -3.589027    2582.4928  0.049862775  0.048670213           11 
 4317000   0.57221738   -3.5561651      2580.61  0.049814879  0.048659324           15 
 4318000   0.56106653   -3.5656028     2584.422   0.04987691  0.048648482            8 
 4319000   0.55899467   -3.5845824    2586.3367  0.049902305  0.048637583            5 
 4320000   0.56756588   -3.5616482    2580.3966  0.049776169  0.048626716            9 
 4321000   0.56076167   -3.5817607    2579.4012  0.049745452  0.048615895            8 
 4322000    0.5552279   -3.5769527    2583.0411  0.049804124  0.048605006            6 
 4323000   0.55396359   -3.5839481    2584.1148  0.049813301  0.048594076            4 
 4324000    0.5577151   -3.5762527     2577.683  0.049677825  0.048583157           13 
 4325000   0.55448355     -3.58158    2586.1053  0.049828618   0.04857223           17 
 4326000   0.55985854   -3.5786206    2577.9761  0.049660505  0.048561358           11 
 4327000   0.56751216   -3.5811072    2584.6369  0.049777307  0.048550521           13 
 4328000   0.56873801   -3.5575239    2583.9121  0.049751851  0.048539732           27 
 4329000   0.54480976   -3.6057257    2582.2757  0.049708856  0.048528875            9 
 4330000   0.56560973   -3.5722006    2579.5895   0.04964568  0.048518048           11 
 4331000   0.56326957   -3.5603879    2580.8337  0.049658155  0.048507242           18 
 4332000   0.56286564    -3.567745    2581.7896  0.049665082   0.04849643           10 
 4333000   0.53816456   -3.5717318    2586.1815  0.049738085  0.048485577            3 
 4334000   0.55067186   -3.5698455    2582.7156  0.049659967  0.048474756           18 
 4335000   0.56392212   -3.5783101    2588.9437  0.049768236  0.048463938            9 
 4336000   0.55015063   -3.5797891    2578.9383  0.049564466  0.048453086            8 
 4337000   0.55996109   -3.5658738    2582.2495   0.04961666   0.04844225           19 
 4338000   0.55059331   -3.5844089    2572.0122  0.049408564  0.048431442           14 
 4339000   0.54542176   -3.5618863    2581.9014  0.049587105   0.04842064            7 
 4340000   0.56464489   -3.5563984    2591.6789  0.049763419  0.048409879            9 
 4341000   0.57017648   -3.5780347    2590.0724  0.049721117  0.048399084            4 
 4342000    0.5436876   -3.6056802    2578.0521  0.049478967  0.048388277           13 
 4343000   0.56521861   -3.5668691    2575.2896  0.049414568  0.048377455            7 
 4344000   0.54812832   -3.5766891    2586.4558    0.0496174  0.048366649            5 
 4345000   0.54335519   -3.5834543    2578.3558  0.049450629  0.048355812            9 
 4346000     0.557058   -3.5929294    2585.0268  0.049567165  0.048344963            9 
 4347000   0.56209169   -3.5790428    2588.2992  0.049618495  0.048334148           15 
 4348000   0.55816729    -3.591001     2588.791   0.04961651   0.04832339           10 
 4349000   0.55214934   -3.5707338    2589.1536   0.04961205  0.048312566            9 
 4350000    0.5683717   -3.5788015    2584.3211  0.049508068  0.048301718           11 
 4351000   0.55889972   -3.5807091    2584.5443  0.049500964  0.048290924           13 
 4352000   0.54508062   -3.5743916    2584.7823  0.049494147  0.048280122           14 
 4353000   0.56400844   -3.5966146    2587.8277  0.049541076  0.048269347            8 
 4354000   0.54431539   -3.5879066     2582.057   0.04941925  0.048258487            5 
 4355000   0.55211911   -3.5897204    2592.2852  0.049603621  0.048247681           31 
 4356000   0.55300729   -3.5950368    2579.8822  0.049354955  0.048236813            6 
 4357000   0.54877415   -3.5521914    2590.6851  0.049550247  0.048226038           13 
 4358000    0.5681316   -3.5851215    2590.1368  0.049528393  0.048215331            8 
 4359000   0.55752172   -3.5868289    2582.2158    0.0493656  0.048204607           10 
 4360000    0.5384135   -3.5924535    2585.0211  0.049407895  0.048193851           13 
 4361000   0.55668823   -3.5994083    2584.5582   0.04938772  0.048183067           13 
 4362000     0.548531   -3.5800552    2583.8659  0.049363173  0.048172306           13 
 4363000   0.54631919   -3.5785179    2578.5091  0.049249543  0.048161482            8 
 4364000   0.55379008   -3.5710574    2585.0895  0.049363915  0.048150708            5 
 4365000   0.55569697   -3.6023516    2584.6383  0.049343992  0.048139951           12 
 4366000    0.5575667   -3.5945663    2585.3682  0.049346621  0.048129214            9 
 4367000   0.55235871   -3.5798442    2587.5443  0.049376847  0.048118517           12 
 4368000   0.54926136   -3.6127669    2584.8498  0.049314137  0.048107718            9 
 4369000   0.55532879   -3.5802968    2580.7652  0.049224941  0.048096921           14 
 4370000   0.56485573   -3.5804542    2587.7391  0.049346664  0.048086155           17 
 4371000   0.54971152   -3.6005961     2581.635     0.049219   0.04807542           17 
 4372000   0.55016623   -3.6031982    2581.1987  0.049199427  0.048064631           14 
 4373000   0.54609975   -3.5920853    2583.0997  0.049224402  0.048053799           12 
 4374000   0.55840191   -3.6063046    2582.7939  0.049207322  0.048043038            8 
 4375000   0.55654601   -3.5953337    2588.6379  0.049307389  0.048032313           10 
 4376000   0.54535517   -3.5874557    2586.2047  0.049249785  0.048021559           11 
 4377000   0.55633327   -3.5942127    2585.9554  0.049233786  0.048010765           16 
 4378000   0.55141704   -3.5781809    2587.8445    0.0492585  0.048000007           16 
 4379000   0.55101536   -3.5678798    2592.3728  0.049333425  0.047989299            8 
 4380000   0.56225692   -3.5942968    2594.6496   0.04936548  0.047978571            4 
 4381000   0.54929589   -3.5945384      2586.72  0.049203377  0.047967861           12 
 4382000   0.56375443    -3.582399    2582.5945  0.049113695  0.047957094            6 
 4383000   0.55325603   -3.5750981    2595.9288  0.049356012  0.047946414           15 
 4384000    0.5460312   -3.5809007    2586.1601  0.049159065  0.047935758            6 
 4385000   0.55778966    -3.580414    2587.6331  0.049175847   0.04792503           21 
 4386000   0.54572236   -3.5777733     2591.716  0.049242211  0.047914305            9 
 4387000   0.53169743   -3.5964191    2589.9939  0.049198274   0.04790356            9 
 4388000   0.54701939   -3.5938352    2585.4563  0.049100886  0.047892827            9 
 4389000   0.54933224   -3.5840105    2584.0226  0.049062477  0.047882074            8 
 4390000   0.55019854   -3.5842607    2582.2804  0.049018232  0.047871338           12 
 4391000    0.5494587   -3.5959366    2587.0295  0.049097196  0.047860572           11 
 4392000   0.54640649   -3.6003768    2587.6321  0.049097452  0.047849787            9 
 4393000   0.55613245   -3.5918458    2588.0662   0.04909451  0.047839017            8 
 4394000    0.5516695   -3.5972707    2584.5975  0.049017553  0.047828257           10 
 4395000   0.54800729   -3.6108826    2585.6977   0.04902726  0.047817458           10 
 4396000   0.53760371   -3.6089262    2590.0774  0.049099132  0.047806682           10 
 4397000    0.5441641   -3.5973838    2583.2108  0.048957827  0.047795935            8 
 4398000   0.54167848   -3.5966245    2584.1816   0.04896509  0.047785166           12 
 4399000    0.5527127   -3.5934751      2589.37  0.049052246  0.047774474           15 
 4400000   0.55522886   -3.5865967    2586.2477  0.048981964  0.047763763            9 
 4401000   0.53789116   -3.5965443    2589.8223  0.049038519  0.047753014            9 
 4402000   0.55212041   -3.5821869    2583.7615  0.048912645  0.047742294            9 
 4403000   0.54418448   -3.6008618    2584.2124  0.048910069  0.047731555           11 
 4404000   0.54641377   -3.5917009    2587.5322  0.048961781  0.047720796            8 
 4405000    0.5555436   -3.5868388    2582.7044  0.048859334  0.047710008            8 
 4406000   0.55525712   -3.6116984    2588.8277  0.048964059  0.047699182           14 
 4407000   0.54495814   -3.6018779     2577.987  0.048747958  0.047688398           11 
 4408000   0.54490471   -3.6082298    2583.8268    0.0488473  0.047677591           13 
 4409000   0.56045068   -3.5936849    2592.0903  0.048992408  0.047666837            7 
 4410000   0.52993676   -3.5949614    2586.8338   0.04888197  0.047656101           12 
 4411000   0.54286156   -3.5817202    2585.8384  0.048852081  0.047645379           13 
 4412000   0.55293711   -3.5851699    2586.0992  0.048845935  0.047634652            4 
 4413000   0.54691832   -3.6046809    2585.7051  0.048827424  0.047623929            9 
 4414000   0.54309099   -3.5797844    2585.5347  0.048813145  0.047613144           20 
 4415000   0.53658352   -3.6135894    2585.8663  0.048808349  0.047602399           17 
 4416000   0.53571965   -3.5951127    2588.0216  0.048837968  0.047591617           22 
 4417000   0.55468089   -3.6069759    2580.8965  0.048692486  0.047580835           13 
 4418000   0.54513515   -3.6042319    2580.4803  0.048673613  0.047570036            5 
 4419000   0.54677004   -3.6097189     2591.027  0.048861489  0.047559293           15 
 4420000   0.53390238   -3.5995975    2593.6743  0.048900344  0.047548546            9 
 4421000   0.54043104   -3.5918482    2587.0535  0.048764486  0.047537785           11 
 4422000   0.54220607    -3.594774      2579.72  0.048615257  0.047527014           14 
 4423000   0.54657425   -3.6049184    2582.2016   0.04865102  0.047516258            7 
 4424000   0.53905459   -3.6216651    2585.3446  0.048699228  0.047505438           10 
 4425000   0.55120711   -3.6138426    2584.6604  0.048675337  0.047494608           10 
 4426000   0.54254184   -3.6061388    2582.9197  0.048631565  0.047483758            8 
 4427000   0.53994202    -3.603778    2574.8499  0.048468675   0.04747288            4 
 4428000   0.54039393   -3.6198285    2585.7159  0.048662224  0.047462037            9 
 4429000   0.56335304   -3.5943322    2582.1927  0.048584945  0.047451257            6 
 4430000   0.55015905   -3.6213885    2585.7103  0.048640149  0.047440431            8 
 4431000   0.55084181   -3.5959904    2592.0684  0.048748748   0.04742962            9 
 4432000   0.54094548   -3.5990516    2583.7478  0.048581299  0.047418796           15 
 4433000   0.54343425   -3.6282485    2579.4713  0.048489948  0.047407932           12 
 4434000   0.54216602   -3.5958589    2589.8189  0.048673486  0.047397133           14 
 4435000   0.53402026   -3.6165666    2584.6207  0.048564839  0.047386351           12 
 4436000   0.54180549   -3.6096575    2588.0408  0.048618139  0.047375545           16 
 4437000   0.53243805   -3.6099378    2584.7475  0.048545329  0.047364756           22 
 4438000   0.55564328   -3.6029699    2579.8834  0.048443057  0.047353921           14 
 4439000   0.55444509   -3.6030456    2587.2788  0.048570977  0.047343131            5 
 4440000    0.5445969   -3.6150194    2590.4918  0.048620342  0.047332296            8 
 4441000    0.5463278   -3.5813701    2585.3692  0.048513271  0.047321532            5 
 4442000   0.53792806   -3.6055735    2579.3878  0.048390135  0.047310767           12 
 4443000   0.55692704   -3.6163199    2586.4672  0.048512026   0.04729994            7 
 4444000   0.53580121   -3.6045113    2588.8561  0.048545907   0.04728916           15 
 4445000   0.53241648    -3.605382    2585.0547  0.048463717  0.047278402           16 
 4446000   0.52002716     -3.60773    2587.6081  0.048500677  0.047267646           20 
 4447000   0.54304665   -3.6171854    2582.1582  0.048387644  0.047256885            5 
 4448000   0.53255863   -3.5967136    2587.2173  0.048471547  0.047246065           15 
 4449000   0.54510734   -3.6227152    2578.7068  0.048301244  0.047235273           21 
 4450000   0.54035774   -3.6289651    2579.2537  0.048300632   0.04722444           22 
 4451000   0.53619832   -3.6337225    2581.4923   0.04833169  0.047213601           21 
 4452000   0.53329829   -3.6216025    2586.1438  0.048407903   0.04720278           21 
 4453000   0.54060937   -3.5916427    2587.8006  0.048428038  0.047192056           12 
 4454000   0.55221883   -3.6103244    2590.4239  0.048466245  0.047181371           10 
 4455000   0.53067349   -3.6191844    2590.9367  0.048464959  0.047170629           10 
 4456000   0.52932993   -3.6081987    2587.1833  0.048383888  0.047159901           13 
 4457000   0.53307776   -3.5907606    2587.5423  0.048379745  0.047149159           13 
 4458000   0.54212278   -3.6023361    2581.1155  0.048248757  0.047138424           14 
 4459000   0.52999884   -3.6138363    2592.5842  0.048452273  0.047127676           13 
 4460000   0.52173448   -3.5991543    2590.5092  0.048402638  0.047116917            7 
 4461000    0.5397313   -3.6016082    2589.9276  0.048380923  0.047106193           21 
 4462000    0.5496802   -3.5988506    2585.5197  0.048287757  0.047095488           17 
 4463000   0.53083258   -3.6155269    2586.2961  0.048291435  0.047084782            9 
 4464000   0.53129362   -3.6010474    2593.4249  0.048413696  0.047074067            7 
 4465000   0.53508447   -3.6088765    2587.2289  0.048287214  0.047063367            7 
 4466000   0.54257646    -3.603676    2594.0959  0.048404535  0.047052695           19 
 4467000   0.54451895   -3.6120272    2585.5843  0.048234913  0.047041996           19 
 4468000   0.53583276   -3.6414514    2587.9532    0.0482683  0.047031268           12 
 4469000   0.53511421   -3.6240726     2585.453  0.048210879  0.047020568           24 
 4470000   0.52819097   -3.6037532      2583.33  0.048160514  0.047009834           12 
 4471000    0.5468582   -3.6092488    2595.4662  0.048375945  0.046999123           13 
 4472000   0.53907986   -3.6092874    2590.5581  0.048273667   0.04698841            9 
 4473000   0.53602994   -3.6131021    2587.4421  0.048204824  0.046977685           14 
 4474000   0.53986234   -3.6213545    2588.1056  0.048206407  0.046966948           12 
 4475000   0.54242315   -3.6226356     2577.355  0.047995437  0.046956188           16 
 4476000   0.54926216   -3.5982063    2589.1681  0.048204649   0.04694544           15 
 4477000   0.53842194   -3.5980465    2592.4017   0.04825407  0.046934725           11 
 4478000   0.54951617   -3.6148144    2588.5235  0.048171124  0.046923969            9 
 4479000   0.53903454   -3.6268778    2585.5794  0.048105592  0.046913224            9 
 4480000   0.54028751    -3.621825    2584.6711  0.048077959  0.046902478           13 
 4481000   0.55007979   -3.6093212    2587.3004  0.048116128   0.04689172           16 
 4482000   0.53457883    -3.608181    2579.2891  0.047956439  0.046880928           37 
 4483000   0.53576449   -3.6251916     2579.856  0.047956279  0.046870091           51 
 4484000   0.54420362   -3.6285592    2588.0171  0.048097255  0.046859316           33 
 4485000   0.54011386   -3.6215777    2585.4609  0.048039036  0.046848594            9 
 4486000    0.5454721   -3.6067812    2584.1876  0.048004673   0.04683786           13 
 4487000   0.54368357   -3.6180989      2575.86  0.047839313   0.04682711           24 
 4488000   0.52727774   -3.6023584    2590.0157  0.048091497  0.046816354           15 
 4489000      0.53105   -3.6323683    2586.1757  0.048009499  0.046805599            5 
 4490000   0.54408822   -3.6337115    2583.7273  0.047953364  0.046794825           11 
 4491000    0.5354404   -3.6324485    2581.4052  0.047899599  0.046784016           12 
 4492000    0.5413268   -3.6356829    2584.1434  0.047939734  0.046773191           14 
 4493000   0.54041501   -3.6301529    2586.3567  0.047970115  0.046762407            8 
 4494000   0.53355562   -3.6187191    2581.3543  0.047866679  0.046751622            8 
 4495000   0.52388455   -3.6328858    2584.5945  0.047916101  0.046740845           13 
 4496000   0.54119132   -3.6309761    2581.4804  0.047847724  0.046730112           12 
 4497000   0.53404584   -3.6107812    2582.7727  0.047861031  0.046719355           19 
 4498000   0.54250222   -3.6276143    2586.7852   0.04792473  0.046708583           11 
 4499000   0.53226222   -3.6203118     2590.499  0.047982866  0.046697836           23 
 4500000   0.53408129    -3.636685    2588.1253  0.047928246  0.046687109           10 
 4501000   0.52966928   -3.6391632    2590.5458  0.047962412  0.046676361           42 
 4502000   0.53190511   -3.6212492    2583.8498  0.047827813  0.046665619           16 
 4503000   0.52966612    -3.636978    2587.4332  0.047883507  0.046654885           16 
 4504000   0.52350283   -3.6383344    2586.4451  0.047854595  0.046644151           13 
 4505000   0.53387009   -3.6394822     2580.519   0.04773435  0.046633409           19 
 4506000   0.52010895   -3.6463324     2588.154  0.047864958  0.046622614            6 
 4507000   0.53239666   -3.6340087    2586.9254  0.047831622  0.046611824           16 
 4508000    0.5376894   -3.6331848    2586.1325  0.047806353  0.046601055           12 
 4509000   0.52067824   -3.6314232    2581.2711  0.047705904  0.046590267           12 
 4510000   0.52844357   -3.6201478    2585.4615  0.047772754  0.046579443           10 
 4511000   0.52381676   -3.6121051    2585.1813  0.047756989  0.046568672           16 
 4512000   0.53644484   -3.6381461    2586.8515  0.047777251  0.046557961           22 
 4513000   0.53669812   -3.6177271    2586.2851  0.047756207  0.046547173           12 
 4514000   0.53312295   -3.6273123    2582.6782  0.047679039  0.046536494           13 
 4515000   0.52736254   -3.6452999    2582.3529  0.047662475  0.046525768           23 
 4516000   0.51458517   -3.6463712    2589.8116  0.047789555  0.046515017           12 
 4517000   0.52991321   -3.6358475    2579.4278  0.047587407  0.046504263           10 
 4518000   0.52897898   -3.6191336    2586.1109  0.047700143  0.046493544            6 
 4519000   0.53203537   -3.6192259    2586.2333  0.047691844  0.046482832            8 
 4520000   0.53694841   -3.6181668     2592.941  0.047804959  0.046472186            5 
 4521000   0.54022121   -3.6164942     2591.134  0.047761079  0.046461547            5 
 4522000    0.5359023   -3.6033409    2584.7845  0.047633505  0.046450891            7 
 4523000   0.52563649   -3.6266383    2585.7324  0.047640437  0.046440224           18 
 4524000   0.53497406   -3.6292092    2583.6182  0.047590962   0.04642954            7 
 4525000    0.5279919   -3.6352665    2588.8679  0.047677125  0.046418865            8 
 4526000   0.52570414   -3.6411401    2584.3105   0.04758268  0.046408154           11 
 4527000   0.52258559   -3.6341383    2591.5179  0.047704843  0.046397428            7 
 4528000   0.52551462   -3.6315799     2587.664   0.04762338  0.046386784            9 
 4529000   0.53003956   -3.6166375    2586.7416  0.047595893  0.046376189           10 
 4530000    0.5317598   -3.6353768    2588.5598  0.047618833  0.046365602           15 
 4531000   0.53615001   -3.6363474    2593.4629  0.047698502  0.046355013           12 
 4532000   0.52907061   -3.6275227    2590.6367  0.047636009  0.046344313           20 
 4533000   0.52562868   -3.6406843    2590.6466  0.047625682  0.046333628           22 
 4534000     0.528257   -3.6176706    2587.1851  0.047551557  0.046322903           17 
 4535000   0.53194191   -3.6596591    2589.5589  0.047584691  0.046312205           18 
 4536000   0.51628254   -3.6431863    2585.0137  0.047490699  0.046301528           16 
 4537000   0.53001028   -3.6126177    2587.1744  0.047519918  0.046290861           24 
 4538000   0.51794308   -3.6388706    2587.9261   0.04752325  0.046280215            9 
 4539000   0.51566816    -3.614144    2596.3346  0.047667155  0.046269531            8 
 4540000    0.5131478    -3.625693    2591.6918  0.047571435   0.04625892           14 
 4541000   0.52809067   -3.6300406    2586.5982  0.047467485  0.046248279           12 
 4542000    0.5295072   -3.6147418    2589.6275  0.047512614  0.046237659            7 
 4543000   0.52772646   -3.6132728    2592.0367  0.047546348  0.046227042           16 
 4544000   0.52228459   -3.6432633    2579.9628  0.047314458  0.046216405           24 
 4545000   0.52059887   -3.6645216    2585.4231  0.047404164  0.046205731           23 
 4546000   0.53060991   -3.6483986    2587.6433  0.047434434   0.04619504            8 
 4547000   0.52722145   -3.6360519    2587.1855  0.047415614   0.04618441           11 
 4548000   0.52576579   -3.6433483     2592.518  0.047502894  0.046173775           14 
 4549000   0.52960315   -3.6306925    2593.6198  0.047512637   0.04616312           15 
 4550000   0.51334604   -3.6563044    2589.2738  0.047422596  0.046152467           19 
 4551000   0.50228468   -3.6484126    2592.3578  0.047468648  0.046141811           15 
 4552000   0.51518933   -3.6295748    2592.1631  0.047454655  0.046131106           19 
 4553000   0.51624026   -3.6391384    2587.1783  0.047352996  0.046120486           23 
 4554000   0.52782672   -3.6385545    2589.3088  0.047381584  0.046109871           13 
 4555000   0.53022721   -3.6365748    2593.9216  0.047455573  0.046099242            9 
 4556000   0.52482511    -3.645557    2597.7097  0.047514445  0.046088641           11 
 4557000    0.5196557   -3.6576083    2586.1148  0.047291983  0.046077995           12 
 4558000   0.52421103   -3.6593145      2592.06  0.047390303  0.046067366           13 
 4559000   0.52328736    -3.627374     2583.443  0.047222399  0.046056751           18 
 4560000   0.52116861   -3.6247791     2594.073  0.047406304  0.046046185           24 
 4561000   0.51663536   -3.6553059    2593.8039  0.047390995  0.046035598           12 
 4562000   0.51841823   -3.6330114    2589.3911  0.047299998  0.046024963           11 
 4563000   0.52400991    -3.645351      2591.03  0.047319563  0.046014374           12 
 4564000   0.51846721   -3.6280232    2593.7174  0.047358264  0.046003803           11 
 4565000   0.51932284   -3.6344527    2596.5761  0.047400076  0.045993251           18 
 4566000   0.51399562   -3.6241397     2590.777  0.047283855   0.04598268           26 
 4567000   0.52691872   -3.6373217    2591.0853  0.047279128  0.045972045           10 
 4568000   0.51690617   -3.6291046    2586.0613  0.047177125   0.04596143           11 
 4569000   0.52237983   -3.6643328    2588.2477  0.047206678  0.045950774           12 
 4570000   0.51135289   -3.6466373     2588.766  0.047205799  0.045940096           12 
 4571000   0.52235813   -3.6490385     2587.427  0.047171061  0.045929397           13 
 4572000    0.5235726   -3.6257231    2590.1053   0.04720956  0.045918795            8 
 4573000   0.52815088   -3.6356493    2587.1156  0.047144755  0.045908209           15 
 4574000   0.50525465   -3.6290985     2585.906  0.047112411  0.045897587            7 
 4575000   0.51717029   -3.6558335    2586.5365  0.047113598   0.04588702           17 
 4576000   0.52711946   -3.6509765    2589.7135  0.047161158  0.045876395           17 
 4577000     0.531397   -3.6514497    2589.3768  0.047144723  0.045865814           16 
 4578000   0.50922188    -3.651549    2585.8421  0.047070083  0.045855225           21 
 4579000   0.51379681   -3.6536601    2595.0906  0.047228118  0.045844634           11 
 4580000   0.51877281   -3.6427329    2593.0888  0.047181382  0.045834032           18 
 4581000   0.51473978   -3.6559294    2583.5046  0.046996736   0.04582343           15 
 4582000    0.5144843   -3.6643011    2588.8478  0.047083657  0.045812797           19 
 4583000   0.50870545   -3.6517391    2591.9168  0.047129188  0.045802168           14 
 4584000   0.52054605     -3.64542     2591.744  0.047115765  0.045791565           25 
 4585000   0.51884745   -3.6321873     2587.367  0.047025936  0.045780986           11 
 4586000   0.52084142   -3.6465235    2586.0574  0.046991884  0.045770383           19 
 4587000   0.52908568   -3.6534641    2592.1984  0.047093205  0.045759819            7 
 4588000   0.52161752   -3.6243045    2587.5809  0.046999072  0.045749268           24 
 4589000   0.51293032   -3.6292685    2589.0606  0.047015701  0.045738706            8 
 4590000   0.52521515   -3.6701761    2585.9587  0.046949141  0.045728129           17 
 4591000    0.5205928    -3.635193    2591.2815  0.047035531  0.045717563           13 
 4592000   0.51111819   -3.6616335    2594.2858   0.04707981  0.045707027            9 
 4593000   0.50257406   -3.6447822    2590.9404  0.047008861  0.045696469            7 
 4594000     0.513872   -3.6604908    2592.4499   0.04702601  0.045685882            8 
 4595000   0.51790503   -3.6480612     2590.355  0.046977783  0.045675338           21 
 4596000    0.5080337   -3.6537252    2588.0047  0.046924947  0.045664686            9 
 4597000   0.51438197   -3.6566178    2588.3654  0.046921279  0.045654089            7 
 4598000   0.51094719   -3.6736036    2590.1914  0.046944168  0.045643483           19 
 4599000   0.51264332   -3.6555037    2595.0647  0.047022264  0.045632882           20 
 4600000   0.51480606   -3.6636632    2591.0233  0.046938829   0.04562229           24 
 4601000   0.50558191   -3.6400004    2587.5587  0.046865874  0.045611705           12 
 4602000   0.50446346   -3.6558325    2594.8057  0.046986921  0.045601087            6 
 4603000   0.51159851   -3.6565744    2591.3844  0.046914772  0.045590531           31 
 4604000   0.50727009   -3.6643363     2590.833  0.046894603   0.04557996           32 
 4605000   0.51814214    -3.646698    2583.5576  0.046752762  0.045569386           11 
 4606000   0.51888175    -3.657537    2587.7085  0.046817711  0.045558831           11 
 4607000   0.50784993   -3.6672457    2590.8682  0.046864703  0.045548236           19 
 4608000   0.51510056   -3.6607501    2589.6389  0.046832301  0.045537631           13 
 4609000   0.50744735   -3.6430643    2592.7279  0.046877991  0.045527061            8 
 4610000   0.51348275   -3.6514364    2586.7486  0.046759735  0.045516493            8 
 4611000   0.52322983    -3.655768    2590.6742  0.046820541  0.045505971           19 
 4612000     0.509925   -3.6614063    2593.2887  0.046857631  0.045495426            6 
 4613000    0.5143115   -3.6747131      2589.73  0.046783185  0.045484865           54 
 4614000   0.50490167   -3.6371488    2592.3625  0.046820592  0.045474367           26 
 4615000   0.51603403   -3.6580078    2596.8395  0.046891287  0.045463846           18 
 4616000    0.5235649   -3.6776068    2595.0352  0.046848556  0.045453341           16 
 4617000   0.51240799   -3.6289668    2594.6011  0.046830573  0.045442795            8 
 4618000   0.49781042   -3.6493263    2594.0748  0.046810936   0.04543226            9 
 4619000   0.51470118   -3.6475975    2599.0631  0.046890797  0.045421761            9 
 4620000   0.51876396   -3.6593642     2593.286  0.046776443  0.045411239           19 
 4621000   0.50780646   -3.6477347    2599.4085  0.046876731   0.04540073           25 
 4622000   0.50464935   -3.6626573    2595.4638  0.046795467  0.045390234           10 
 4623000   0.51347345   -3.6494639    2597.7583  0.046826706  0.045379721           13 
 4624000    0.5049287   -3.6522166    2589.4865  0.046667506  0.045369227            9 
 4625000   0.51803759   -3.6447609    2592.8226  0.046717524  0.045358752            8 
 4626000   0.52031923   -3.6615937     2586.323  0.046590341  0.045348273           11 
 4627000   0.51516901   -3.6457842     2593.419  0.046708073  0.045337784           12 
 4628000   0.50946688   -3.6547084    2598.8866   0.04679643  0.045327288            7 
 4629000   0.50998276    -3.661836    2596.2148  0.046738224  0.045316787            8 
 4630000   0.51549699     -3.66686    2591.6886  0.046646662  0.045306315           11 
 4631000   0.50118583   -3.6535015    2597.8886  0.046748157  0.045295824            6 
 4632000   0.51800582   -3.6675792    2586.9618  0.046541482  0.045285289           19 
 4633000   0.51759033   -3.6534445    2594.6924  0.046670486  0.045274781           13 
 4634000   0.50824756   -3.6558187    2594.1935  0.046651445  0.045264298           11 
 4635000   0.50817615   -3.6594208    2595.6513  0.046667589  0.045253784           16 
 4636000   0.50700717   -3.6656632    2594.2167  0.046631735  0.045243302            6 
 4637000   0.49120934   -3.6667531    2591.2841  0.046568976  0.045232812           18 
 4638000   0.52125778   -3.6599262    2598.0176  0.046679919  0.045222319           12 
 4639000   0.51088358   -3.6795475     2592.625  0.046572986  0.045211833           14 
 4640000   0.50836035   -3.6701968    2591.7089  0.046546496  0.045201318           19 
 4641000   0.51850358   -3.6635149    2590.3973  0.046512916  0.045190768           15 
 4642000   0.51654232   -3.6865003    2588.5067  0.046468956  0.045180286           14 
 4643000   0.51262176   -3.6720207    2596.6459  0.046605031  0.045169784           13 
 4644000   0.50472884   -3.6868491    2593.0457  0.046530393  0.045159296           15 
 4645000   0.51932451   -3.6646255    2593.5517  0.046529453  0.045148821           11 
 4646000   0.51238948   -3.6587737    2593.8396  0.046524602  0.045138353           21 
 4647000   0.49846819   -3.6819562    2595.7694  0.046549197  0.045127873            7 
 4648000   0.51704919   -3.6719801    2593.6446  0.046501087  0.045117352           17 
 4649000   0.51196433   -3.6726837    2586.3271  0.046359917  0.045106855           32 
 4650000    0.5107333   -3.6813234    2593.8056  0.046483972  0.045096377           11 
 4651000   0.50482549   -3.6799479    2593.0006  0.046459553  0.045085884           11 
 4652000   0.50708139   -3.6564224    2594.1413      0.04647  0.045075404           16 
 4653000   0.51017976   -3.6673321    2592.5618  0.046431726  0.045064932           19 
 4654000   0.51845383   -3.6757226    2590.3478  0.046382106  0.045054492           12 
 4655000   0.51228845   -3.6601874    2595.3377  0.046461469  0.045044032           20 
 4656000   0.49700764   -3.6757175     2591.983  0.046391448  0.045033598           13 
 4657000   0.50399517   -3.6704895    2591.8433  0.046378987  0.045023141           26 
 4658000   0.50190258   -3.6771261    2591.6639  0.046365821  0.045012703           14 
 4659000   0.50803283    -3.679493    2590.2242  0.046330117  0.045002246           13 
 4660000   0.49895573   -3.6613667    2593.2598  0.046374459  0.044991786           21 
 4661000   0.50015061   -3.6499031    2596.8135  0.046428046  0.044981348           12 
 4662000   0.50159824   -3.6608203    2594.1729  0.046370888  0.044970907            9 
 4663000    0.5080779   -3.6680194    2591.7258   0.04631721  0.044960491            7 
 4664000   0.50998691   -3.6895589    2593.2008  0.046333633  0.044950032           23 
 4665000   0.49943409   -3.6718402    2598.6679  0.046421364  0.044939571            7 
 4666000   0.50694882   -3.6877497    2591.4548   0.04628259  0.044929075           13 
 4667000   0.49073273   -3.6791169    2594.6967  0.046330561  0.044918576           23 
 4668000   0.50527057   -3.6630009    2594.8336  0.046323079  0.044908089           13 
 4669000   0.50693086   -3.6626382    2594.7011  0.046310793  0.044897654           11 
 4670000   0.50379649   -3.6613646     2596.079  0.046325464  0.044887237           10 
 4671000    0.5087235    -3.655447    2592.8056  0.046257148  0.044876855           15 
 4672000   0.50194843   -3.6759954     2598.762  0.046353488  0.044866457           12 
 4673000   0.50094605   -3.6740817    2598.2395  0.046334252  0.044856001           13 
 4674000   0.50251454   -3.6719654     2592.508  0.046222151  0.044845558           17 
 4675000   0.49127547   -3.6559306    2598.9069  0.046326325  0.044835161           30 
 4676000   0.51159542   -3.6696904    2592.8049  0.046207673  0.044824776            9 
 4677000   0.50753614   -3.6578139      2589.44  0.046137838  0.044814303            9 
 4678000   0.50101085   -3.6765219    2593.5749  0.046201633  0.044803906           23 
 4679000   0.50331885   -3.6658222    2593.1748  0.046184634  0.044793524           50 
 4680000   0.49794621   -3.6752386    2597.9771  0.046260276  0.044783156           29 
 4681000   0.49457468   -3.6690156    2600.3097   0.04629192  0.044772798           11 
 4682000   0.50467075   -3.6695139    2593.2942  0.046157166  0.044762374           20 
 4683000   0.51810428    -3.660112    2594.9719  0.046177164  0.044752014            6 
 4684000   0.50186116   -3.6753119    2595.1236  0.046170005  0.044741674           22 
 4685000   0.50667971   -3.6674224    2591.4636  0.046095048  0.044731339           19 
 4686000   0.49988504   -3.6671157    2596.7208  0.046178703  0.044720993           12 
 4687000   0.51001398   -3.6682785    2593.4249   0.04611025  0.044710645           18 
 4688000   0.51046483    -3.686695    2596.8132  0.046160645  0.044700296           18 
 4689000   0.49947191   -3.6840196    2591.4382  0.046055274   0.04468992           10 
 4690000   0.49998527   -3.6678051    2591.7644   0.04605125  0.044679542            8 
 4691000   0.50479251   -3.6753529     2595.356  0.046105237  0.044669152           11 
 4692000   0.50327822   -3.6692925    2591.0283  0.046018548  0.044658778           22 
 4693000   0.51271755   -3.6765719     2596.672  0.046108956    0.0446484           10 
 4694000   0.49650847   -3.6711365     2603.581  0.046221791  0.044638051           24 
 4695000   0.50354611   -3.6730101     2595.835  0.046074458  0.044627655           24 
 4696000    0.4959155   -3.6782078    2592.5423  0.046006217  0.044617269           20 
 4697000   0.49623457   -3.6744837    2595.7947  0.046054125  0.044606883           13 
 4698000   0.50748037   -3.6942196    2589.3193  0.045929461   0.04459648           30 
 4699000   0.49530577   -3.6822324    2597.3486  0.046062081  0.044586096           10 
 4700000    0.4962116   -3.6886271    2594.9817  0.046010314  0.044575742           16 
 4701000   0.48438635   -3.6859859    2598.7839  0.046067927  0.044565375           10 
 4702000   0.49437637   -3.6703125    2592.2934  0.045943099  0.044554975           13 
 4703000   0.49392173   -3.6970366    2596.1811  0.046002218  0.044544597           16 
 4704000   0.48317144   -3.6779855    2591.1169  0.045902723  0.044534227            9 
 4705000   0.49826638   -3.6861017    2592.6335  0.045919828  0.044523862           11 
 4706000   0.50349745   -3.6900489    2597.4086  0.045994627  0.044513505           28 
 4707000   0.50659216    -3.695868     2596.903  0.045975904   0.04450313           10 
 4708000    0.5031717   -3.6876603    2597.3223   0.04597356  0.044492765           21 
 4709000    0.4931285   -3.6940182    2593.2829  0.045892314  0.044482392           11 
 4710000   0.49907111   -3.6836304    2600.8794  0.046016975  0.044472033           17 
 4711000   0.49772234   -3.6699953    2602.6781  0.046039025  0.044461655           17 
 4712000    0.4991388   -3.6930821    2590.4854   0.04581362  0.044451309           12 
 4713000    0.4998538   -3.6654028    2597.8288  0.045933743  0.044440967           10 
 4714000   0.49699085    -3.688629    2598.2545  0.045931525  0.044430635           16 
 4715000   0.49571051   -3.6870698    2590.1986  0.045779402  0.044420246           12 
 4716000    0.5027058   -3.6700739    2592.1375  0.045803957  0.044409841            7 
 4717000   0.48945503   -3.6699134    2595.0394  0.045845512  0.044399488            8 
 4718000   0.49759323   -3.6831581    2593.4644  0.045807977  0.044389116            8 
 4719000   0.49678546   -3.6800429     2600.663   0.04592539  0.044378774            8 
 4720000   0.50260055   -3.6906822    2592.9342  0.045779206  0.044368442           20 
 4721000    0.4993357   -3.6776406    2592.9477  0.045769748  0.044358103           11 
 4722000   0.49150979   -3.6913593    2591.1705   0.04572869  0.044347781           22 
 4723000    0.4864164   -3.6837483    2594.6559  0.045780505  0.044337399           18 
 4724000   0.48088693   -3.6919394    2588.5672  0.045663407  0.044326998           18 
 4725000    0.5072908   -3.7003604    2591.7318  0.045709556  0.044316552           34 
 4726000   0.50016535   -3.6904484    2589.8439  0.045666594  0.044306129           22 
 4727000   0.49193133   -3.6965365    2584.6364  0.045565129  0.044295657           24 
 4728000   0.50491117   -3.6877817    2597.1178  0.045775482  0.044285244           22 
 4729000   0.49698391    -3.685618    2583.9338  0.045533478  0.044274833           38 
 4730000   0.49222885   -3.6975164    2591.0503  0.045649231  0.044264428           13 
 4731000   0.47599979   -3.6917353    2593.7744  0.045687564  0.044253995           21 
 4732000    0.5014413   -3.6963667    2595.2219    0.0457034  0.044243598           19 
 4733000   0.50233633   -3.6946595    2593.7608  0.045668019  0.044233218           12 
 4734000   0.49240503   -3.6892621    2592.7342  0.045640301  0.044222885           17 
 4735000   0.49118409   -3.6902403    2590.7813  0.045596292  0.044212534            7 
 4736000   0.48891815   -3.6775417    2590.6793  0.045584869  0.044202174            9 
 4737000   0.49311249   -3.6978416    2592.9884  0.045615868  0.044191776           35 
 4738000   0.49036661   -3.6939393    2593.7582  0.045619779  0.044181399           22 
 4739000   0.49225886   -3.6980551    2593.8977  0.045612607   0.04417104           13 
 4740000   0.48715345   -3.6876372    2594.8009  0.045618862  0.044160684           15 
 4741000   0.49643611   -3.6933157     2597.749  0.045661059  0.044150334           29 
 4742000   0.48619136   -3.7007746    2601.7248    0.0457213  0.044139996            8 
 4743000    0.4922449   -3.7037409    2592.8542  0.045555804  0.044129554           20 
 4744000    0.4974804   -3.7070552    2596.0565  0.045602455  0.044119124           44 
 4745000   0.48925252   -3.6848713    2591.4197  0.045511409  0.044108697           21 
 4746000   0.49365533   -3.6805478    2589.7427  0.045472376  0.044098351           17 
 4747000   0.48290593   -3.6844488    2595.0501  0.045555967  0.044087978           12 
 4748000   0.48997177   -3.6881136    2592.6369  0.045504018  0.044077634           14 
 4749000   0.47708363   -3.6977759    2594.6494   0.04552975  0.044067291           20 
 4750000   0.48595305   -3.6845421    2594.8334  0.045523393  0.044056882           39 
 4751000   0.48995886   -3.6917141    2594.2419  0.045503436  0.044046485           18 
 4752000   0.49788908   -3.6957905    2588.9293  0.045400696  0.044036102           39 
 4753000    0.5031664   -3.7042043    2592.7937  0.045458898   0.04402571           15 
 4754000   0.49956729   -3.7017527    2587.9617  0.045364635  0.044015337           19 
 4755000   0.49042558   -3.7011442    2589.4523  0.045381219   0.04400498           59 
 4756000   0.49206545    -3.706899    2590.8598  0.045396339  0.043994625           33 
 4757000   0.49995247   -3.7078681    2588.7742  0.045350259  0.043984271           28 
 4758000   0.48576471   -3.7012949    2590.0891  0.045363757  0.043973929           16 
 4759000   0.48447601   -3.7012338    2590.7955  0.045366594  0.043963562           43 
 4760000   0.47968004   -3.6995089    2597.8603  0.045480747  0.043953199           10 
 4761000   0.48880659   -3.6968704    2597.4051  0.045463227  0.043942856           11 
 4762000   0.49121316   -3.7122342    2589.8593  0.045321631    0.0439325           11 
 4763000   0.49820354   -3.7105935    2598.0933  0.045456178  0.043922131           19 
 4764000   0.48654035   -3.7051546    2596.5629  0.045419865  0.043911819           15 
 4765000   0.48785668   -3.6986623    2590.9824  0.045312738  0.043901476           11 
 4766000   0.48068057   -3.6858987    2587.2759  0.045238423  0.043891139           16 
 4767000   0.48362667   -3.7110028    2592.3347  0.045317367  0.043880793           22 
 4768000   0.48121065   -3.6923015    2594.6987  0.045349181  0.043870443            8 
 4769000   0.48947779     -3.69885    2598.6318  0.045408399   0.04386015           16 
 4770000    0.4879158   -3.6762989    2605.6047  0.045520698  0.043849846           24 
 4771000   0.49361503   -3.7059923    2590.1991  0.045242073  0.043839503           12 
 4772000   0.48725181   -3.7030546    2588.3983  0.045201143  0.043829173           22 
 4773000   0.47761491   -3.6956851    2593.1389  0.045274442  0.043818851           19 
 4774000    0.4920394   -3.7121174    2589.9388  0.045209098  0.043808557           21 
 4775000   0.48308146   -3.6997137    2594.6609   0.04528204  0.043798235           35 
 4776000   0.49084764   -3.6906073    2594.6697  0.045272712  0.043787943           21 
 4777000   0.49303429   -3.6880415    2594.5369  0.045260919  0.043777643           18 
 4778000   0.48969041   -3.7108088    2592.3693  0.045213641  0.043767302           19 
 4779000   0.47819472   -3.6917143    2583.5406  0.045050231  0.043756959           13 
 4780000   0.48746827   -3.7115313    2592.4122   0.04519547  0.043746612           14 
 4781000   0.48003753   -3.7129711    2589.3259  0.045132223    0.0437363           51 
 4782000   0.48038535   -3.6826544    2590.6489   0.04514584  0.043725978           35 
 4783000   0.49103156   -3.7049056    2596.6013  0.045240108  0.043715705           48 
 4784000   0.48271271   -3.7157409    2588.5324  0.045090099  0.043705381           16 
 4785000   0.48589277   -3.7089742    2590.4349  0.045113809  0.043695013           10 
 4786000   0.49023059   -3.7095301    2587.9139  0.045060487  0.043684645           21 
 4787000   0.49011156   -3.7008897    2593.3214  0.045145209  0.043674335            7 
 4788000   0.49594747   -3.7394506    2593.0351  0.045130798  0.043664034           25 
 4789000   0.48823828   -3.7120553    2591.2209  0.045089806  0.043653696           39 
 4790000   0.48595787   -3.7129849    2593.3504  0.045117439  0.043643388           19 
 4791000   0.49742908   -3.7151307     2592.133  0.045086846  0.043633095           28 
 4792000   0.48366106   -3.7152247     2592.918  0.045091089  0.043622806           14 
 4793000   0.48714191   -3.7018012     2589.636   0.04502462  0.043612498           12 
 4794000   0.47601511    -3.710363    2591.6867  0.045050875  0.043602176           10 
 4795000   0.48493126   -3.7071727    2594.3108  0.045087084  0.043591823           25 
 4796000   0.48201765   -3.7215701    2591.9346  0.045036396  0.043581497           19 
 4797000   0.49163877   -3.6892108    2590.6204  0.045004176  0.043571191           10 
 4798000   0.48978424   -3.7000004    2596.2579  0.045092711  0.043560907           13 
 4799000   0.49311132   -3.6993939    2597.3024  0.045101452  0.043550626           20 
 4800000   0.48623068   -3.7096842    2594.2709  0.045039425  0.043540342           16 
 4801000   0.46865341   -3.7228665    2583.3441  0.044840382  0.043530045           19 
 4802000   0.47413486   -3.7091772    2592.3389  0.044987138  0.043519723           24 
 4803000    0.4841813   -3.7029839     2593.458  0.044997189   0.04350942           17 
 4804000   0.49868135   -3.6989362    2584.6742  0.044835454   0.04349914           32 
 4805000   0.48112212   -3.6965812    2596.8172  0.045036719  0.043488886           13 
 4806000   0.48177781   -3.6992486    2600.2932   0.04508762   0.04347868           12 
 4807000   0.47951431   -3.7113342    2594.7479  0.044982108  0.043468417            8 
 4808000   0.47974238   -3.7099333    2595.9447  0.044993495  0.043458167           43 
 4809000   0.47881232   -3.7163853    2589.4282  0.044871217  0.043447874           17 
 4810000   0.47340955   -3.7259585    2592.2433   0.04491066  0.043437562           18 
 4811000   0.48643751   -3.7166312    2589.2937  0.044850234   0.04342725           30 
 4812000    0.4847669   -3.7105157    2591.0473  0.044871282   0.04341694           32 
 4813000   0.48394415   -3.7041314     2590.561  0.044853539  0.043406634           23 
 4814000   0.46933948   -3.7214314    2593.8418  0.044901015  0.043396354           22 
 4815000   0.47817303   -3.7147713    2594.5673  0.044904245  0.043386092           32 
 4816000    0.4919981   -3.7044054    2589.7096  0.044810867  0.043375822           23 
 4817000   0.48616365   -3.7097541    2594.3216   0.04488135  0.043365581           16 
 4818000   0.47771776   -3.6928862    2589.8341  0.044794418  0.043355325           10 
 4819000   0.47315766   -3.7129833    2590.9578  0.044804554  0.043345056           31 
 4820000   0.49131519   -3.7207973    2589.8682  0.044776422  0.043334787           14 
 4821000   0.48494495   -3.6991845    2592.2774  0.044808777  0.043324516           20 
 4822000   0.48171313   -3.7005134    2589.3092  0.044748189  0.043314281            8 
 4823000   0.47626636   -3.7202121    2595.0592  0.044838262  0.043304081           17 
 4824000   0.46890582   -3.7115094    2592.8214  0.044790309  0.043293838           22 
 4825000    0.4746962   -3.7212829    2596.5841  0.044846013  0.043283571           16 
 4826000   0.48387209   -3.7186593    2595.5122   0.04481821    0.0432733           39 
 4827000   0.47868499   -3.7108577    2593.8997  0.044781087  0.043263045           16 
 4828000   0.48037385   -3.7319092     2598.181  0.044845709  0.043252781           16 
 4829000   0.47894475    -3.717375    2593.2497  0.044751324   0.04324254           10 
 4830000   0.46998845   -3.7110347    2588.8632  0.044666376  0.043232293           10 
 4831000   0.48580684   -3.7221625    2591.3081  0.044699305  0.043222063           25 
 4832000   0.48281361   -3.7211805    2589.3538   0.04465635  0.043211836           18 
 4833000   0.49176707   -3.7242982    2594.6264  0.044738023  0.043201621            8 
 4834000   0.48170347   -3.7148538    2603.0759   0.04487443  0.043191418           13 
 4835000   0.47738572   -3.7286807    2594.9298  0.044724746  0.043181216           13 
 4836000   0.48050537   -3.7133516    2592.1897  0.044668281     0.043171           21 
 4837000   0.47465662   -3.7221525    2598.3656  0.044765446  0.043160764           25 
 4838000   0.47957142   -3.7310126    2593.2296  0.044667728  0.043150574           20 
 4839000   0.46955876    -3.711698    2599.9318  0.044773916  0.043140396           25 
 4840000   0.47328358   -3.7195483    2592.2256  0.044631983  0.043130176           31 
 4841000   0.47300974   -3.7218512    2597.0073  0.044705077   0.04311995           20 
 4842000   0.48433854   -3.7253071    2596.1155  0.044680495  0.043109764           15 
 4843000   0.47639915   -3.7173963    2593.3573   0.04462381  0.043099547           14 
 4844000   0.47927141   -3.7289702     2591.996  0.044591178  0.043089324           24 
 4845000    0.4742347   -3.7267364    2591.4246  0.044572147  0.043079079           11 
 4846000   0.47979045   -3.7421281     2590.207  0.044542011  0.043068832           15 
 4847000   0.48499382   -3.7270983    2589.7134  0.044524335  0.043058566           16 
 4848000   0.47304472   -3.7311203    2595.0205  0.044606375  0.043048347           21 
 4849000   0.46830378    -3.737159    2591.3035  0.044533297  0.043038117           17 
 4850000   0.47026203   -3.7153267     2591.638  0.044529862  0.043027887           34 
 4851000   0.48626849   -3.7490453    2592.5356  0.044536103  0.043017624           24 
 4852000   0.47507832   -3.7202958    2593.3778  0.044541389  0.043007377           22 
 4853000   0.46632562   -3.7217113    2593.8915  0.044541031  0.042997138           26 
 4854000   0.46874594   -3.7280298    2590.4421  0.044472637  0.042986928           12 
 4855000   0.47421083   -3.7462618    2592.6455  0.044501296  0.042976686           15 
 4856000     0.464077   -3.7311678    2595.2156  0.044536236  0.042966449           24 
 4857000   0.46675428   -3.7228766    2596.6324  0.044551376  0.042956225            8 
 4858000   0.47805103   -3.7225705    2596.5348  0.044540531  0.042946019           14 
 4859000   0.47122861   -3.7457185    2594.3026  0.044493081  0.042935803           13 
 4860000    0.4765826   -3.7439224    2591.2316  0.044431269  0.042925593           14 
 4861000   0.48720779   -3.7279434    2590.2474  0.044405256  0.042915384           11 
 4862000   0.47047761   -3.7274795    2589.4561  0.044382561   0.04290525           21 
 4863000   0.47116477   -3.7139369    2591.2504  0.044404182   0.04289509            7 
 4864000    0.4670669   -3.7344252    2592.6997  0.044419882  0.042884913           20 
 4865000   0.47037624   -3.7371154    2588.0626  0.044331323  0.042874734           15 
 4866000   0.47419432   -3.7251693    2593.3214  0.044412273  0.042864543           25 
 4867000   0.47743209   -3.7184988    2592.2605  0.044384982  0.042854355           25 
 4868000   0.48145528   -3.7248741    2592.1972   0.04437478  0.042844154           24 
 4869000   0.47289319   -3.7056398    2591.9839  0.044362016  0.042833979           15 
 4870000   0.47540224   -3.7364685    2589.5801  0.044311774  0.042823786           12 
 4871000   0.46632499   -3.7183592    2591.7759  0.044340242   0.04281359           20 
 4872000   0.47258653   -3.7366745    2588.5191  0.044275435  0.042803393           20 
 4873000   0.47983358   -3.7326661    2596.1746  0.044397267  0.042793198           25 
 4874000   0.46111306   -3.7276744    2593.4032  0.044340775  0.042783017           16 
 4875000    0.4663294   -3.7304821    2593.8022  0.044338499  0.042772845           36 
 4876000    0.4715922   -3.7244588    2594.1752   0.04433578  0.042762651           12 
 4877000   0.47741691   -3.7411408    2596.4373  0.044365343  0.042752489           20 
 4878000   0.48029262   -3.7287942     2597.604  0.044376179  0.042742357           15 
 4879000   0.46888998   -3.7182462    2594.9982  0.044322577  0.042732197           12 
 4880000    0.4791633   -3.7250008    2590.7281  0.044240575   0.04272204           16 
 4881000   0.48257732   -3.7265611    2595.2104  0.044308037  0.042711909           19 
 4882000   0.47544164   -3.7305389    2594.7437  0.044290997  0.042701781           20 
 4883000   0.47646382   -3.7103077    2593.7149  0.044264368  0.042691656           14 
 4884000   0.48252226   -3.7248159    2595.3866  0.044283828  0.042681546           13 
 4885000   0.46539485   -3.7277317    2594.1414  0.044253522  0.042671414            9 
 4886000   0.46529437   -3.7494966    2599.0086  0.044327477  0.042661235           14 
 4887000   0.47862218    -3.726827     2593.259  0.044220363  0.042651105            7 
 4888000   0.46486369   -3.7445236    2593.2828  0.044211723  0.042640955           65 
 4889000   0.46421331   -3.7433542    2594.7016  0.044226863    0.0426308           24 
 4890000   0.46603103   -3.7363364    2593.5025  0.044197384  0.042620677           14 
 4891000   0.47128888   -3.7340636     2591.123  0.044147805  0.042610545           24 
 4892000   0.47686688   -3.7322263    2600.3735   0.04429636    0.0426004           24 
 4893000   0.46052739   -3.7470002    2590.1111  0.044112526  0.042590255           37 
 4894000   0.47274251   -3.7397175    2598.6404  0.044248747    0.0425801           10 
 4895000   0.47201362   -3.7501439    2595.0009  0.044177747  0.042570001            9 
 4896000   0.46332564   -3.7392143     2595.934  0.044184606  0.042559869           45 
 4897000   0.46438971   -3.7468656    2588.8937  0.044055777   0.04254974           22 
 4898000    0.4678598   -3.7399345    2596.5324  0.044176746  0.042539619           24 
 4899000   0.46607777   -3.7292373      2592.67  0.044102027  0.042529499           32 
 4900000   0.47113412   -3.7289643    2599.1411  0.044203079  0.042519417           32 
 4901000   0.47140165   -3.7352196    2592.1691  0.044075513  0.042509346           35 
 4902000   0.46950578   -3.7287455    2595.3792  0.044121093  0.042499279           33 
 4903000   0.47039124   -3.7328537    2592.5402  0.044063841  0.042489196           19 
 4904000   0.46705226   -3.7375304    2594.6241  0.044090268  0.042479104           32 
 4905000   0.46921103   -3.7359662    2600.2418  0.044176721  0.042469034           33 
 4906000   0.45549786   -3.7271366     2595.252   0.04408296  0.042458996            8 
 4907000    0.4651885   -3.7409316    2597.1029  0.044105408  0.042448914           17 
 4908000   0.46958613   -3.7526758    2601.7329  0.044175036  0.042438851           11 
 4909000   0.46370696   -3.7476683    2593.6065  0.044028086  0.042428793           10 
 4910000   0.45701654   -3.7294543    2595.5573  0.044052228  0.042418774           17 
 4911000   0.46363549   -3.7476597    2596.6706   0.04406215  0.042408714           16 
 4912000   0.46266434   -3.7343314    2596.0017  0.044041831  0.042398639           17 
 4913000   0.47339492   -3.7471195    2593.7671  0.043994965  0.042388598           18 
 4914000   0.46635763   -3.7306838    2591.6402  0.043949942  0.042378535           16 
 4915000    0.4577204   -3.7434771    2597.9342  0.044047714  0.042368495            7 
 4916000   0.46529731    -3.743754    2596.7951  0.044019445   0.04235842           19 
 4917000   0.47100503    -3.727077    2600.6088  0.044075128   0.04234843           16 
 4918000   0.45738416   -3.7296609    2597.2906   0.04400994  0.042338416           18 
 4919000   0.47557656   -3.7444941    2592.8862  0.043926378  0.042328333           27 
 4920000   0.46020632   -3.7419651    2590.4704  0.043876532   0.04231828           16 
 4921000   0.47336963   -3.7404479    2592.6925  0.043905245  0.042308216           17 
 4922000   0.46263691   -3.7280066    2591.3251  0.043873173   0.04229812           20 
 4923000   0.45068168   -3.7558358    2591.0266  0.043859208  0.042288008           12 
 4924000   0.45628499   -3.7496408    2597.1795  0.043954432  0.042277953           10 
 4925000   0.46184458    -3.754431    2598.0988  0.043961062  0.042267855           21 
 4926000   0.46309562   -3.7463489    2593.9185  0.043881419  0.042257778           14 
 4927000   0.46427093   -3.7366445    2591.5264  0.043832055  0.042247717           15 
 4928000   0.45879752   -3.7575594    2588.4312   0.04377082  0.042237631           22 
 4929000   0.46088521   -3.7292678    2591.6258  0.043815951   0.04222756           20 
 4930000   0.46806136   -3.7674357    2588.4564  0.043753489  0.042217495           17 
 4931000   0.47065991   -3.7474628    2589.9011  0.043769031  0.042207435           41 
 4932000   0.46069777   -3.7531348    2593.7422  0.043825057  0.042197351           30 
 4933000   0.46139137   -3.7516471    2589.6346  0.043746784  0.042187267           39 
 4934000   0.46641967   -3.7582457    2584.5981  0.043652852  0.042177203           58 
 4935000    0.4621686   -3.7407353    2588.6385  0.043712233  0.042167112          108 
 4936000   0.46067097   -3.7497014    2593.2668  0.043781517   0.04215699           52 
 4937000   0.45845086   -3.7497973    2589.7226  0.043712825  0.042146884           40 
 4938000   0.46352671   -3.7406717    2592.3083  0.043747609   0.04213679           36 
 4939000   0.46089162   -3.7668565    2590.4517  0.043707425  0.042126704           26 
 4940000   0.45473448   -3.7473773    2593.3294  0.043747122  0.042116633           14 
 4941000   0.45649937   -3.7472829    2595.9515  0.043782492  0.042106551           19 
 4942000   0.45284788   -3.7534908     2594.515  0.043749409  0.042096515           42 
 4943000   0.46653716   -3.7607713    2594.7562  0.043744625  0.042086487           29 
 4944000   0.46322018   -3.7585458    2592.5732  0.043698982  0.042076461           30 
 4945000   0.45134563   -3.7689965    2598.6282  0.043792185  0.042066425           32 
 4946000   0.45089922   -3.7545593    2591.1373  0.043657119  0.042056387           25 
 4947000   0.45445843   -3.7518767    2590.4107  0.043636054  0.042046363           56 
 4948000   0.46077155   -3.7280645    2594.9325   0.04370339  0.042036362           15 
 4949000   0.45054234   -3.7405758    2593.7305   0.04367432  0.042026383           33 
 4950000   0.46199793   -3.7417403    2599.9792  0.043770694  0.042016371           22 
 4951000    0.4584071   -3.7522511    2596.7373  0.043707286  0.042006368           16 
 4952000   0.44842253   -3.7468333    2594.1912  0.043655614  0.041996379           22 
 4953000   0.45829519   -3.7522864    2592.1303  0.043612125  0.041986379           24 
 4954000     0.464906   -3.7589775    2596.1469  0.043670888  0.041976368           46 
 4955000   0.46371311   -3.7521731    2594.4443  0.043633439  0.041966379           21 
 4956000   0.45237501   -3.7530765    2589.1041  0.043534842  0.041956349           55 
 4957000   0.45052129   -3.7537007    2591.6999  0.043569697  0.041946317           44 
 4958000   0.45084987   -3.7653688    2599.7102  0.043695545  0.041936317           19 
 4959000   0.45908195   -3.7633815    2595.0806  0.043608937   0.04192632           62 
 4960000   0.45387062   -3.7692265    2590.0606  0.043515803  0.041916285           33 
 4961000   0.46048445   -3.7699222    2592.3648  0.043545737  0.041906259           28 
 4962000   0.46320667   -3.7511564    2590.1216  0.043499288  0.041896236           28 
 4963000   0.46343923    -3.734168    2596.3834  0.043595665  0.041886252           16 
 4964000   0.46502176   -3.7558087    2593.5071  0.043538597  0.041876232           18 
 4965000   0.45492093   -3.7347943    2594.5536  0.043547391  0.041866218           23 
 4966000   0.44807614   -3.7514197      2596.65  0.043573801  0.041856239           28 
 4967000   0.44085998   -3.7456678    2597.0177  0.043571199  0.041846263           17 
 4968000   0.45766867   -3.7784571    2592.5128  0.043486863  0.041836237           18 
 4969000   0.46155665   -3.7707398    2594.0126  0.043503264  0.041826217           19 
 4970000   0.46249964   -3.7724771    2592.1213  0.043462798   0.04181617           30 
 4971000   0.44850292   -3.7466035    2591.1298  0.043437433  0.041806131           16 
 4972000   0.45468272   -3.7506267    2599.9587  0.043576675  0.041796135           14 
 4973000   0.45886543   -3.7457013    2596.8344  0.043515557  0.041786184           16 
 4974000   0.45547852    -3.770479     2593.958  0.043458619  0.041776212           30 
 4975000   0.46351424   -3.7816446    2592.0936  0.043418652  0.041766215           47 
 4976000   0.45746114   -3.7446901    2597.1228  0.043494152  0.041756227           36 
 4977000   0.44931197   -3.7740138    2594.0226  0.043433504  0.041746224           19 
 4978000   0.45196473   -3.7612092     2588.101  0.043325649  0.041736223           11 
 4979000   0.45457997   -3.7535042    2591.7189    0.0433775  0.041726181           28 
 4980000   0.45116739   -3.7541342    2594.4339  0.043414221  0.041716165           16 
 4981000   0.45372376   -3.7579162     2590.826  0.043345145  0.041706175           19 
 4982000   0.45319798   -3.7678923    2591.0494  0.043340181  0.041696203           23 
 4983000    0.4613297   -3.7640308    2593.1624   0.04336682  0.041686191           13 
 4984000   0.44941124   -3.7646884    2596.9352  0.043421201  0.041676186           11 
 4985000   0.45614623   -3.7828153    2590.8402  0.043310602  0.041666173           23 
 4986000   0.44613722   -3.7617588    2593.2157  0.043341617  0.041656156            8 
 4987000   0.45380763   -3.7582258    2592.9058  0.043327749  0.041646158           13 
 4988000   0.45444236    -3.780502    2586.0269  0.043204139  0.041636159           71 
 4989000   0.46033653   -3.7755778     2591.346  0.043284325  0.041626161           82 
 4990000   0.44340502   -3.7644003    2590.5743  0.043262764  0.041616143           40 
 4991000     0.456741     -3.74466     2587.355  0.043200344  0.041606166           26 
 4992000   0.44993517   -3.7724127     2587.087  0.043187216  0.041596196           33 
 4993000   0.45685962   -3.7711999    2592.7812  0.043273603  0.041586158           33 
 4994000   0.44962792   -3.7886262    2588.7135  0.043197061  0.041576126           18 
 4995000   0.45204109   -3.7871253    2592.9251  0.043258676  0.041566097           22 
 4996000   0.44981848   -3.7763315    2586.8722  0.043149056  0.041556068           19 
 4997000   0.45289742   -3.7756175    2580.5224  0.043034528  0.041546065           33 
 4998000   0.44226007   -3.7715857    2585.7362  0.043112848  0.041536044           55 
 4999000    0.4462448   -3.7822842    2588.4092  0.043148783   0.04152604           64 
 5000000    0.4441081   -3.7777981    2592.0064  0.043200106   0.04151606           75 
 5001000   0.45031872   -3.7720683    2596.6284  0.043268486  0.041506093           57 
 5002000   0.45723444   -3.7638273    2588.8773  0.043130702  0.041496111           81 
 5003000   0.44966188   -3.7773293    2587.8453  0.043104892  0.041486149           50 
 5004000   0.44728221   -3.7757331    2588.8203  0.043112515  0.041476181           28 
 5005000   0.45999146   -3.7561622    2591.9596   0.04315617   0.04146624           32 
 5006000   0.45515684   -3.7686151    2588.6371   0.04309224  0.041456335           23 
 5007000   0.45073308   -3.7563553    2596.9817  0.043222517  0.041446423           38 
 5008000   0.45232056   -3.7665196    2593.5607   0.04315696   0.04143651           10 
 5009000   0.43667625   -3.7613078    2589.1666  0.043075241    0.0414266           19 
 5010000    0.4521681   -3.7761666    2595.3159  0.043168927  0.041416705           28 
 5011000   0.45081629   -3.7757502    2589.6633  0.043066308  0.041406769           24 
 5012000   0.45058256   -3.7676482      2591.82  0.043093576  0.041396844           33 
Loop time of 12209 on 48 procs for 5000000 steps with 4000 atoms

Performance: 70767.315 tau/day, 409.533 timesteps/s
99.4% CPU use with 48 MPI tasks x no OpenMP threads

MPI task timing breakdown:
Section |  min time  |  avg time  |  max time  |%varavg| %total
---------------------------------------------------------------
Pair    | 797.13     | 846.82     | 901.6      |  97.8 |  6.94
Neigh   | 81.374     | 84.839     | 88.408     |  20.2 |  0.69
Comm    | 776.42     | 842.51     | 891.66     | 102.2 |  6.90
Output  | 64.763     | 64.768     | 64.844     |   0.1 |  0.53
Modify  | 10237      | 10259      | 10282      |  10.7 | 84.03
Other   |            | 110.8      |            |       |  0.91

Nlocal:        83.3333 ave          90 max          76 min
Histogram: 3 1 6 4 2 17 4 4 3 4
Nghost:        2196.17 ave        2220 max        2179 min
Histogram: 2 5 7 10 9 5 6 2 0 2
Neighs:        14559.5 ave       16916 max       12625 min
Histogram: 2 1 5 12 7 13 7 0 0 1
FullNghs:      29119.5 ave       31693 max       26648 min
Histogram: 4 1 6 5 8 11 4 2 4 3

Total # of neighbors = 1397738
Ave neighs/atom = 349.43450
Neighbor list builds = 271264
Dangerous builds = 0

#clear
#
#next RN
#
#jump SELF
Total wall time: 3:23:32
