
units lj                  # Use reduced LJ style units
atom_style atomic         # Uncharged point particles
atom_modify map hash      # Needed for indexing of clusters etc
                          # Used to be able to find where atoms are in relation to each other.

lattice fcc 1.0 spacing 1 1 1
Lattice spacing in x,y,z = 1.5874011 1.5874011 1.5874011
region box block 0 10 0 10 0 10 units lattice
create_box 2 box
Created orthogonal box = (0.0000000 0.0000000 0.0000000) to (15.874011 15.874011 15.874011)
  3 by 4 by 4 MPI processor grid
create_atoms 1 box
Created 4000 atoms
  using lattice units in orthogonal box = (0.0000000 0.0000000 0.0000000) to (15.874011 15.874011 15.874011)
  create_atoms CPU = 0.019 seconds
set type 1 type/fraction 2 0.17 78393
Setting atom values ...
  712 settings made for type/fraction
mass 1 1.0
mass 2 1.0
pair_style lj/cut  3.5
pair_modify tail  yes
pair_coeff 1  1  1.0  1.0   # Intearaction between 1 and 1 set with epsilon = 1 and sigma = 1
pair_coeff 1  2  1.5  0.8
pair_coeff 2  2  0.5  0.88

write_data data.0
System init for write_data ...
Neighbor list info ...
  update every 1 steps, delay 10 steps, check yes
  max neighbors/atom: 2000, page size: 100000
  master list distance cutoff = 3.8
  ghost atom cutoff = 3.8
  binsize = 1.9, bins = 9 9 9
  1 neighbor lists, perpetual/occasional/extra = 1 0 0
  (1) pair lj/cut, perpetual
      attributes: half, newton on
      pair build: half/bin/atomonly/newton
      stencil: half/bin/3d
      bin: standard
WARNING: Not all mixed pair coeffs generated from mixing. Use write_data with 'pair ij' option to store all pair coeffs. (../write_data.cpp:312)


#############################
#   M E L T   S Y S T E M   #
#############################

velocity all create 2.4 6229865 mom yes dist gaussian # Assign velocities
                                                    # Temperature 2.4, random number seed, zero linear momentum
                                                                                # Gaussian distribution

timestep 0.002   # simulation timestep
thermo 1000       # output thermodynamic data every 1000 steps bf 100

# Define a fix  in this case with index 1 applied to all
# particles in the simulation. This fix is for simulations
# in the anisotropic NPT ensemble. Note that we use the MTK
# correction.
fix 1 all npt temp 2.4 2.4 0.1 iso 5.68 5.68 0.5 mtk yes tchain 5 pchain 5 # Use NPT ensemble
                                                                         # Set temperature and pressure and damping
                                                                         # Numbers of thermostats in chain and in barostat
run 10000          # run for 10000 steps
Per MPI rank memory allocation (min/avg/max) = 3.642 | 3.644 | 3.648 Mbytes
Step Temp E_pair E_mol TotEng Press Volume 
       0          2.4   -7.2317907            0   -3.6326907   -3.4668638         4000 
    1000    2.3702698   -4.7495314            0   -1.1950157    5.8771725    4564.7668 
    2000    2.4265324   -4.8011757            0    -1.162287    5.6302225     4567.859 
    3000    2.4194033   -4.7086427            0    -1.080445    6.0294185    4565.2829 
    4000    2.3572607   -4.7800965            0   -1.2450893    5.5238936    4584.2607 
    5000    2.3967622   -4.7751696            0   -1.1809251    5.5140096    4596.8585 
    6000    2.3849439    -4.788084            0   -1.2115625    5.4412229    4603.5178 
    7000    2.4193588   -4.7620069            0   -1.1338759    5.8850721    4571.0068 
    8000    2.4100349   -4.7748286            0   -1.1606801    5.8262868    4557.8076 
    9000    2.4283079   -4.7990935            0   -1.1575423    5.3761146    4604.0326 
   10000    2.3892153   -4.7917261            0   -1.2087991    5.6067041    4574.0432 
Loop time of 2.23716 on 48 procs for 10000 steps with 4000 atoms

Performance: 772408.080 tau/day, 4469.954 timesteps/s
99.6% CPU use with 48 MPI tasks x no OpenMP threads

MPI task timing breakdown:
Section |  min time  |  avg time  |  max time  |%varavg| %total
---------------------------------------------------------------
Pair    | 0.92775    | 1.0102     | 1.0815     |   3.5 | 45.15
Neigh   | 0.19205    | 0.2028     | 0.2292     |   1.4 |  9.06
Comm    | 0.69126    | 0.77632    | 0.87278    |   4.5 | 34.70
Output  | 0.00023932 | 0.00024453 | 0.00030993 |   0.0 |  0.01
Modify  | 0.20382    | 0.23312    | 0.26456    |   2.9 | 10.42
Other   |            | 0.0145     |            |       |  0.65

Nlocal:        83.3333 ave          92 max          74 min
Histogram: 1 1 6 5 4 13 8 8 1 1
Nghost:        1499.56 ave        1523 max        1465 min
Histogram: 1 1 3 4 6 7 10 5 7 4
Neighs:        8334.25 ave        9404 max        7426 min
Histogram: 4 5 4 8 5 8 7 2 3 2

Total # of neighbors = 400044
Ave neighs/atom = 100.01100
Neighbor list builds = 907
Dangerous builds = 218

# Equilibrate just above the melting temperature to avoid step fn in T

fix 1 all npt temp 1.25 1.25 0.1 iso 5.68 5.68 0.5 mtk yes tchain 5 pchain 5
run 2000
Per MPI rank memory allocation (min/avg/max) = 3.642 | 3.644 | 3.648 Mbytes
Step Temp E_pair E_mol TotEng Press Volume 
   10000    2.3892153   -4.7917261            0   -1.2087991    5.6067041    4574.0432 
   11000    1.2324321    -6.450313            0   -4.6021269    5.8577565    3733.2296 
   12000    1.2513268   -6.4483817            0   -4.5718607    5.8574668    3737.3874 
Loop time of 0.49227 on 48 procs for 2000 steps with 4000 atoms

Performance: 702054.238 tau/day, 4062.814 timesteps/s
99.6% CPU use with 48 MPI tasks x no OpenMP threads

MPI task timing breakdown:
Section |  min time  |  avg time  |  max time  |%varavg| %total
---------------------------------------------------------------
Pair    | 0.21008    | 0.23882    | 0.25836    |   2.2 | 48.51
Neigh   | 0.030898   | 0.034012   | 0.039272   |   0.7 |  6.91
Comm    | 0.14482    | 0.16691    | 0.19562    |   2.9 | 33.91
Output  | 7.2428e-05 | 7.345e-05  | 8.8259e-05 |   0.0 |  0.01
Modify  | 0.040845   | 0.047894   | 0.057329   |   2.2 |  9.73
Other   |            | 0.004561   |            |       |  0.93

Nlocal:        83.3333 ave          91 max          74 min
Histogram: 1 0 7 5 7 11 5 3 6 3
Nghost:        1716.38 ave        1733 max        1687 min
Histogram: 2 1 1 3 6 5 8 8 7 7
Neighs:        10212.7 ave       11748 max        8495 min
Histogram: 1 0 2 11 9 9 7 4 4 1

Total # of neighbors = 490209
Ave neighs/atom = 122.55225
Neighbor list builds = 142
Dangerous builds = 14

#############################
# L I N E A R  Q U E N C H  #
#############################

# Define solid atoms. This closely follows ten Wolde  Ruiz-Montero and Frenkel  Faraday Discuss  1996  104  93-110
# Compute components of the per-atom q6 vector
compute q6 all orientorder/atom degrees 1 6 components 6 nnn NULL cutoff 1.3 # compute the Q6 parameter.
                                                                             # Use all neighbours within 1.3 unit cell.

# get number of connections
compute coord_number all coord/atom orientorder q6 0.5

# An atom is solid if it has 8 or more connections (of a possible 14)
variable is_solid atom c_coord_number>=8
group solid dynamic all var is_solid    # Must be dynamic to update
dynamic group solid defined

# do clustering
compute cluster solid cluster/atom 1.3 # Create a cluster where all atoms within are solid and max 1.3 units from another member

# define chunks one chunk per cluster
compute clus_chunks solid chunk/atom c_cluster nchunk every compress yes  # Says which atoms are in which chunk

# count the size of each chunk
compute size_chunks solid property/chunk clus_chunks count


# Find the maximum entry in the vector of chunk sizes
variable max_n equal max(c_size_chunks)


# Thermo style which includes this variable
# thermo_style custom step temp pe vol v_max_n

thermo ${N}  # Print the thermo information every 100 steps
thermo 1000  

# Reset the npt fix at a lower temperature (below freezing)
fix 1  all npt temp  ${temp} ${temp}  0.1  iso  5.68  5.68  0.5  mtk yes tchain  5  pchain  5
fix 1  all npt temp  0.45 ${temp}  0.1  iso  5.68  5.68  0.5  mtk yes tchain  5  pchain  5
fix 1  all npt temp  0.45 0.45  0.1  iso  5.68  5.68  0.5  mtk yes tchain  5  pchain  5

dump dmp2 all dcd ${N} traj.dcd
dump dmp2 all dcd 1000 traj.dcd


compute msd all msd com yes
variable twopoint equal c_msd[4]/6/(step*dt+1.0e-6)
fix 9 all vector 10 c_msd[4]
variable fit equal slope(f_9)/6/(10*dt)
thermo_style custom step temp pe c_msd[4] v_twopoint v_fit v_max_n

fix 1 all npt temp 1.25 ${temp} 0.1 iso 5.68 5.68 0.5 mtk yes tchain 5 pchain 5
fix 1 all npt temp 1.25 0.45 0.1 iso 5.68 5.68 0.5 mtk yes tchain 5 pchain 5
run 5000000 # 5000000  # Run for this many steps
Neighbor list info ...
  update every 1 steps, delay 10 steps, check yes
  max neighbors/atom: 2000, page size: 100000
  master list distance cutoff = 3.8
  ghost atom cutoff = 3.8
  binsize = 1.9, bins = 9 9 9
  4 neighbor lists, perpetual/occasional/extra = 1 3 0
  (1) pair lj/cut, perpetual
      attributes: half, newton on
      pair build: half/bin/atomonly/newton
      stencil: half/bin/3d
      bin: standard
  (2) compute orientorder/atom, occasional
      attributes: full, newton on
      pair build: full/bin/atomonly
      stencil: full/bin/3d
      bin: standard
  (3) compute coord/atom, occasional
      attributes: full, newton on
      pair build: full/bin/atomonly
      stencil: full/bin/3d
      bin: standard
  (4) compute cluster/atom, occasional
      attributes: full, newton on
      pair build: full/bin/atomonly
      stencil: full/bin/3d
      bin: standard
Per MPI rank memory allocation (min/avg/max) = 9.765 | 9.772 | 9.778 Mbytes
Step Temp PotEng c_msd[4] v_twopoint v_fit v_max_n 
   12000    1.2513268   -6.4483817 1.8851803e-30 1.309153e-32 8.3333333e+20            1 
   13000    1.2623348   -6.4234158   0.57058165 0.0036575746   0.04685469            2 
   14000    1.2255956   -6.4521632    1.1155151 0.0066399705  0.045784745            3 
   15000    1.2809215   -6.4480851    1.7092207 0.0094956705  0.046804904            4 
   16000    1.2400403    -6.472947    2.3022647  0.011990962  0.047217461            3 
   17000    1.2386569   -6.4906494    2.8312657  0.013878753  0.047597055            2 
   18000    1.2655741   -6.4583693    3.4125367  0.015798781   0.04728899            1 
   19000    1.2429779   -6.4434144    3.9030263  0.017118536  0.047088684            2 
   20000    1.2271542    -6.476088    4.4032177   0.01834674  0.046532524            1 
   21000    1.2382175   -6.4566628    4.9420331  0.019611242  0.045931016            2 
   22000    1.2673785   -6.4661094     5.510099  0.020871587   0.04570896            1 
   23000    1.2229979   -6.4782517     6.037128  0.021873652  0.045614083            2 
   24000    1.2479415   -6.4533244    6.4841061  0.022514257  0.045338478            1 
   25000    1.2524754   -6.5388646    7.0476189  0.023492063  0.045074298            2 
   26000    1.2410179   -6.4507199    7.4998186   0.02403788  0.044821546            1 
   27000    1.2617849   -6.4632224    7.9564192  0.024556849  0.044513248            2 
   28000    1.2509287   -6.4418563    8.5056104  0.025314316  0.044232178            3 
   29000    1.2395171   -6.4627944    9.0521874  0.026012032  0.044030426            4 
   30000    1.2385259   -6.4386313    9.5250394  0.026458442  0.043875429            1 
   31000    1.2448758   -6.4143272    9.9445809  0.026732744  0.043690939            2 
   32000    1.2468947     -6.44345    10.493282  0.027326255  0.043462142            1 
   33000    1.2389327   -6.4530478    11.107531  0.028049321  0.043402239            2 
   34000    1.2241211   -6.4870065    11.637129  0.028522374  0.043402643            4 
   35000    1.2443769   -6.4774926    12.156258  0.028943471  0.043380223            1 
   36000    1.2495853   -6.4415638    12.717576  0.029438833  0.043397036            1 
   37000    1.2534111   -6.4393592    13.090526  0.029483166  0.043367517            3 
   38000    1.2429221   -6.4764786    13.636409  0.029904406  0.043311544            2 
   39000     1.258633    -6.491046    14.196928  0.030335316  0.043296233            1 
   40000    1.2561839   -6.4750455    14.669285  0.030561011  0.043275162            2 
   41000    1.2731487   -6.4099759     15.29395  0.031085263  0.043261182            1 
   42000    1.2460501   -6.4555321    15.824743  0.031398298  0.043273533            1 
   43000    1.2216517   -6.4517623       16.405  0.031792634  0.043352311            2 
   44000    1.2824631   -6.4589191    16.861211  0.031934112  0.043392907            2 
   45000    1.2296664   -6.4379994    17.466377  0.032345142  0.043422603            1 
   46000    1.2552125   -6.4616674    18.095404  0.032781528  0.043474618            1 
   47000     1.219602   -6.4404402    18.627922  0.033028231  0.043534896            2 
   48000    1.2624453    -6.471738    19.041371  0.033057936  0.043574647            1 
   49000    1.2489723   -6.4428379    19.542345   0.03323528  0.043600665            2 
   50000    1.2378251   -6.4573579    20.016912   0.03336152  0.043620401            2 
   51000    1.2727958   -6.4520854    20.620235  0.033693194  0.043622196            1 
   52000    1.2462336   -6.4879653    21.054401  0.033741027   0.04362315            5 
   53000    1.2495785   -6.4977017    21.494346  0.033796141  0.043612547            2 
   54000    1.2563263    -6.475571    22.002384  0.033954296  0.043584334            2 
   55000      1.22064   -6.4695883    22.407632  0.033950957  0.043537106            2 
   56000    1.2165985    -6.469424    22.845088  0.033995666  0.043487256            2 
   57000    1.2549698   -6.4890397    23.398876  0.034208883  0.043427421            2 
   58000     1.245951   -6.4767955    23.799061  0.034194053  0.043354112            1 
   59000    1.2301943   -6.5028217    24.371212  0.034422616  0.043262796            2 
   60000    1.2200211   -6.4588728    24.939329  0.034637956  0.043202553            2 
   61000    1.2373516   -6.4920662    25.252169  0.034497499   0.04313859            1 
   62000    1.2711029    -6.438598    25.820726  0.034705277  0.043062851            4 
   63000    1.2611586   -6.4709813    26.361592  0.034869831  0.043016075            1 
   64000    1.2323955   -6.4795517    26.783394   0.03487421  0.042973593            4 
   65000    1.2504713   -6.4912473    27.278411  0.034972322  0.042933658            2 
   66000    1.2540532   -6.4548388    28.078753   0.03545297  0.042916232            2 
   67000    1.2690344   -6.4957539    28.560792  0.035523373  0.042904113            3 
   68000    1.2346986   -6.4462509    29.176116  0.035755044   0.04290437            2 
   69000    1.2224852   -6.4586106    29.564073  0.035705402  0.042892449            3 
   70000    1.2403259   -6.5068149     30.03758  0.035759024  0.042888098            2 
   71000    1.2239682   -6.4972869    30.678536  0.036007671  0.042887422            2 
   72000    1.2256846   -6.4710519    31.280667  0.036204476  0.042898908            3 
   73000     1.240669   -6.4477763    31.882135  0.036395131  0.042913523            2 
   74000    1.2172955   -6.4693826    32.240641  0.036307027  0.042921415            2 
   75000    1.2600573   -6.5186436    32.732067  0.036368964  0.042923545            2 
   76000    1.2574904   -6.5101323    33.134521  0.036331712  0.042917437            2 
   77000    1.2437065   -6.4715356    33.885893  0.036673044  0.042916183            1 
   78000     1.259554   -6.4973005    34.328532  0.036675782  0.042920592            1 
   79000    1.2431949   -6.4644179    35.083548  0.037007962  0.042942655            2 
   80000    1.2554296   -6.4605603    35.475723  0.036953878  0.042952862            2 
   81000    1.2625479   -6.4951185    35.650891  0.036677871  0.042959582            2 
   82000    1.2566022   -6.4712466    36.521597  0.037115444  0.042960489            4 
   83000    1.2346508   -6.4435171    36.961279  0.037109718  0.042958236            3 
   84000    1.2408071    -6.500954    37.249762  0.036954129  0.042952514            2 
   85000      1.20584   -6.5148358    37.782756  0.037041917  0.042944636            1 
   86000    1.2435398   -6.5175484    38.343552  0.037154604  0.042938825            2 
   87000    1.2381932    -6.494497    38.833514  0.037196852  0.042940435            2 
   88000    1.2387823   -6.4837203    39.247207  0.037165916  0.042924791            2 
   89000    1.2352818   -6.4732949    39.974417  0.037429229  0.042915244            3 
   90000    1.2238229    -6.467806    40.491925  0.037492523   0.04291797            1 
   91000    1.2362963   -6.4693913    40.932345  0.037483833  0.042910846            1 
   92000    1.2295714   -6.4509908    41.259504  0.037372739   0.04290223            2 
   93000     1.224474   -6.4991861    41.609876  0.037284835  0.042879541            2 
   94000    1.2227828   -6.4767267    42.012475  0.037245102  0.042845322            2 
   95000    1.2414791    -6.493734    42.448738  0.037235735  0.042813052            3 
   96000    1.2594615   -6.4512802    43.083646  0.037398998  0.042778567            2 
   97000    1.2602699   -6.4977031    43.541424  0.037406722  0.042753333            3 
   98000    1.2403638    -6.492533    44.123042  0.037519594   0.04273038            1 
   99000    1.2161595   -6.5120554    44.478711  0.037439992  0.042706967            2 
  100000    1.2364544   -6.4953573     44.98872  0.037490599   0.04268109            1 
  101000    1.2457093   -6.4545756    45.360936  0.037426515  0.042655632            3 
  102000    1.2063758   -6.4525716     45.93853  0.037531479  0.042619846            2 
  103000    1.2218639   -6.4734444    46.296473  0.037456693  0.042583575            3 
  104000     1.248776   -6.4825241    46.641948  0.037373355  0.042542308            2 
  105000    1.2347388   -6.4889808    47.144463  0.037416241  0.042498606            1 
  106000    1.2537402   -6.4546784    47.687881  0.037490472  0.042454619            4 
  107000    1.2141549   -6.4950543    48.158655   0.03750674  0.042413904            2 
  108000    1.2632347   -6.4624332    48.524691  0.037441891  0.042372621            3 
  109000    1.2211117   -6.4461487    49.137279  0.037566727  0.042337628            2 
  110000     1.261265   -6.4508023    49.446122  0.037459183  0.042299697            1 
  111000    1.2454423   -6.4663127    50.004907  0.037541222  0.042260861            3 
  112000    1.2482747   -6.5091825    50.301556  0.037426753     0.042217            1 
  113000    1.2210761   -6.5113146    50.815145  0.037474295  0.042172017            2 
  114000     1.213832   -6.4552386    51.294054  0.037495653  0.042131497            2 
  115000    1.1910804    -6.461257     51.91299  0.037618108  0.042097268            3 
  116000    1.2110712   -6.5255946    52.414287  0.037653942  0.042067302            1 
  117000    1.2156862   -6.5271976    52.971756  0.037729171  0.042033096            4 
  118000    1.2605232   -6.4578447    53.488365  0.037774269  0.042003081            2 
  119000    1.2201317   -6.4806567     53.91493  0.037755553  0.041968561            5 
  120000     1.238173    -6.474203    54.285085  0.037697976  0.041934527            2 
  121000    1.2327364     -6.52103     54.74958  0.037706322  0.041902947            1 
  122000    1.2461547   -6.4698087    55.393722  0.037837242  0.041874125            1 
  123000    1.2353817   -6.5208021    56.047157  0.037972328  0.041850639            1 
  124000    1.2302957   -6.4889057    56.606076  0.038041717  0.041836723            2 
  125000    1.2208945   -6.4836438    56.953886  0.037969257  0.041822459            2 
  126000     1.237812   -6.5191983    57.428263  0.037981656   0.04179966            1 
  127000    1.2032678   -6.4909525    57.536617  0.037753685  0.041773452            2 
  128000    1.2415717   -6.4899414    58.246682  0.037921017  0.041744615            2 
  129000    1.2177946   -6.4675114    58.552859  0.037824844  0.041714089            2 
  130000    1.2413221   -6.4990139    59.040302  0.037846348  0.041687401            3 
  131000    1.2550948   -6.5336336    59.544361  0.037878092  0.041663936            2 
  132000    1.2408065   -6.4685296    60.090871  0.037936156  0.041638781            1 
  133000    1.2394743   -6.4916324    60.497983  0.037906004  0.041614988            2 
  134000    1.2470317   -6.4440952    61.127566  0.038014656  0.041594029            3 
  135000    1.2121293    -6.462706     61.29783  0.037838166  0.041570266            3 
  136000    1.2241992    -6.503167    61.816516  0.037877767  0.041543101            2 
  137000    1.2266105   -6.5228442    62.142938  0.037799841  0.041515832            2 
  138000    1.2234889   -6.4451753    63.186051  0.038155828  0.041494409            1 
  139000    1.2556537   -6.4973392    63.643064  0.038155314  0.041477407            2 
  140000    1.2190763   -6.4669451    64.335498  0.038294939  0.041464145            1 
  141000    1.2599629    -6.488302    64.858562  0.038332483  0.041455179            2 
  142000    1.2164558   -6.5203278    65.186883  0.038255213  0.041445824            1 
  143000    1.2160074   -6.5414814    65.556447  0.038203058  0.041435159            2 
  144000    1.2136761   -6.5060917    66.019238  0.038205577  0.041418674            3 
  145000    1.2311368   -6.5114871    66.606869   0.03827981  0.041404025            3 
  146000    1.2269004   -6.4537356    67.172993  0.038340749  0.041396295            3 
  147000    1.2281371   -6.5363785    67.488987  0.038259063     0.041388            1 
  148000    1.2176687   -6.5232395    67.850771  0.038204263  0.041376972            2 
  149000    1.2174936   -6.5095164    68.426521  0.038269866  0.041362407            2 
  150000    1.2393423   -6.4949771     68.74728  0.038192933  0.041345931            2 
  151000    1.2541588   -6.5348115     69.12535  0.038148648  0.041327355            3 
  152000    1.2153878   -6.4912255    69.533452   0.03812141  0.041306793            1 
  153000    1.2103707   -6.5196032     69.94517  0.038096498  0.041287503            1 
  154000    1.2063608   -6.5138653     70.38244  0.038085736  0.041266816            2 
  155000    1.2310154   -6.4831157    70.964121  0.038152753  0.041246677            3 
  156000    1.2063133   -6.4955218    71.735304  0.038320141  0.041230795            3 
  157000    1.2153111   -6.5008706      72.5892  0.038529299  0.041222599            3 
  158000    1.2318238   -6.5301484     72.85383  0.038425016   0.04121423            3 
  159000    1.2115051   -6.5014818    73.411956  0.038475868  0.041206878            2 
  160000    1.2549675    -6.519632    73.663187  0.038366243  0.041199441            3 
  161000    1.2217094   -6.5054828     74.32772  0.038471905  0.041190018            2 
  162000    1.2373052   -6.5078606    74.611859  0.038380586  0.041183769            2 
  163000    1.2222119   -6.4954426    75.320925   0.03850763  0.041178989            1 
  164000    1.2148981   -6.4816478     75.85875  0.038546112  0.041171313            1 
  165000    1.1916659   -6.5062161    76.266216  0.038518291  0.041164014            3 
  166000    1.2164333   -6.5109733    76.801425  0.038554932  0.041154086            2 
  167000    1.2385925   -6.4878856    77.328861  0.038587256  0.041145722            3 
  168000    1.2338571   -6.4686033    77.885869  0.038633863  0.041137364            1 
  169000    1.2636995   -6.5097759    78.299764  0.038609351  0.041131832            1 
  170000    1.2129268   -6.4652917    78.782039  0.038618647  0.041126199            2 
  171000    1.2021246   -6.4986481    78.910166  0.038455246  0.041116744            5 
  172000    1.2458066   -6.4773049    79.591814  0.038561925  0.041104896            3 
  173000    1.2103235   -6.5117337    80.139832  0.038603002  0.041093263            2 
  174000    1.2040379   -6.5173261    80.439388  0.038524611  0.041083353            3 
  175000    1.2381309   -6.5260335     80.91572  0.038531295  0.041076436            1 
  176000    1.2460977   -6.5515718    81.384847  0.038534492  0.041069082            2 
  177000    1.2166949   -6.5102821    81.951146  0.038583402  0.041062942            1 
  178000    1.2095662   -6.5241788    82.602047   0.03867137  0.041058797            3 
  179000    1.2175663   -6.5146662    83.220754  0.038743368  0.041051807            2 
  180000     1.213914   -6.5260941    83.652205  0.038727873  0.041046694            1 
  181000    1.2269053   -6.5016787    84.119591  0.038729094  0.041041249            2 
  182000     1.226063   -6.5346192    84.559311  0.038717633  0.041035394            1 
  183000    1.2246688   -6.5015674    84.947133  0.038682665   0.04102637            2 
  184000    1.2215637   -6.4635653    85.583596  0.038760687  0.041016186            1 
  185000    1.2378882    -6.497556    85.645948  0.038579256  0.041004727            2 
  186000    1.2016474   -6.5415362     86.04065  0.038548678  0.040991806            1 
  187000    1.2410539   -6.5452534    86.762038   0.03866401  0.040980434            3 
  188000    1.2207337   -6.5087495    87.242782  0.038671446  0.040968578            2 
  189000    1.2166204   -6.5122325    87.923603  0.038767021   0.04096039            1 
  190000    1.2080597   -6.4874451    88.570474  0.038846699   0.04095889            2 
  191000     1.221891   -6.5164688    88.791152  0.038739595  0.040956588            2 
  192000    1.2058412   -6.5001532    89.363275  0.038786144  0.040952714            3 
  193000    1.2026194   -6.5080213    89.705892  0.038733114  0.040949167            2 
  194000    1.2098683   -6.5292823    90.139535  0.038719732  0.040944665            3 
  195000    1.1965072   -6.5040741    91.151362  0.038953574  0.040941041            1 
  196000     1.214368   -6.5328348    91.283933  0.038811196  0.040938442            2 
  197000    1.2560679   -6.5282796    91.725805  0.038801102  0.040935326            3 
  198000     1.242111   -6.5250416    92.729989  0.039027773   0.04093407            4 
  199000    1.2285331   -6.5146469    92.782058  0.038853458  0.040933756            1 
  200000     1.238711   -6.5592637    93.149889  0.038812454   0.04092892            2 
  201000    1.2147179   -6.5382863     93.41918  0.038731003  0.040921396            2 
  202000    1.2420743   -6.4767052    93.963287  0.038763732  0.040913614            1 
  203000    1.2116499   -6.5554158    94.659476   0.03885857  0.040906224            1 
  204000    1.2170702   -6.5105372    95.243831  0.038906793  0.040901301            3 
  205000    1.1890415   -6.5085938    95.628703  0.038873456  0.040895197            1 
  206000    1.1901809    -6.539978    95.865618   0.03878059  0.040888554            1 
  207000    1.2150632   -6.5485045    96.374694  0.038798186  0.040882652            1 
  208000    1.2115313   -6.5509844    97.002313  0.038863106  0.040876818            7 
  209000    1.2339557   -6.5232025     97.34276  0.038812903  0.040869384            1 
  210000    1.2245714    -6.514163    97.947669  0.038868123  0.040865285            4 
  211000    1.2122152   -6.5073619    98.598249  0.038940857  0.040860993            2 
  212000    1.2245415   -6.5099102    99.075263  0.038944679  0.040855502            1 
  213000    1.2312291   -6.5188954     99.38764  0.038884053  0.040849403            5 
  214000    1.2368333    -6.481786    100.19605  0.039017152  0.040844791            2 
  215000    1.2185892   -6.5606952    100.59649  0.038990887  0.040839482            2 
  216000    1.2182695   -6.4931306    100.72098  0.038858404  0.040834716            2 
  217000    1.2237977   -6.5082933     101.2206  0.038871198   0.04082791            2 
  218000    1.2266387   -6.4897159    101.53739  0.038813988  0.040821735            2 
  219000    1.2024261   -6.5207343    101.51582  0.038628546  0.040812658            1 
  220000     1.236286   -6.5089868    102.67711  0.038892843  0.040802949            2 
  221000    1.2354269    -6.503555    102.79085  0.038759747  0.040794813            1 
  222000    1.2152801   -6.5419883    103.28143  0.038769304  0.040785934            1 
  223000    1.1856547   -6.5012857     103.3366  0.038616068  0.040775043            1 
  224000    1.2177343   -6.5188012    103.79219  0.038613167  0.040761031            1 
  225000    1.2217928    -6.500444    104.18889  0.038588477  0.040745554            2 
  226000    1.1976802   -6.5174629    104.40466  0.038497293  0.040729911            3 
  227000    1.2168792   -6.5232206    105.18261  0.038613291  0.040714545            2 
  228000    1.2173328   -6.5269316    105.58197  0.038589903  0.040703345            1 
  229000    1.1935968    -6.537114    106.28872  0.038678572  0.040693615            1 
  230000    1.2075903   -6.5158369    107.19944  0.038840376  0.040683416            2 
  231000    1.2081748   -6.5311244    107.37572  0.038735829  0.040676035            2 
  232000    1.2110571   -6.5211567    107.73913  0.038699399  0.040665285            3 
  233000    1.2253831   -6.5218758    108.13633   0.03867537  0.040656977            3 
  234000    1.2027157   -6.5244842    108.96667  0.038805794  0.040648174            2 
  235000    1.2124047   -6.5188269    109.26447  0.038746265   0.04063856            2 
  236000    1.2376047   -6.5131449    110.34676   0.03896425  0.040632021            2 
  237000    1.2245322   -6.5320234    110.54716   0.03887031  0.040624907            2 
  238000     1.194343   -6.5448452    110.92439   0.03883907  0.040618453            3 
  239000    1.2128776   -6.4860047    111.95724  0.039036696  0.040613599            3 
  240000     1.197668   -6.5234948    111.95217   0.03887228  0.040607835            3 
  241000    1.2107125   -6.5257135     112.1187   0.03876857  0.040599643            2 
  242000     1.206883   -6.5328464    112.69092  0.038805413  0.040591262            3 
  243000    1.2071846   -6.5458205    112.86765  0.038706326  0.040584242            1 
  244000    1.2112519    -6.525569    113.11203  0.038631157   0.04057489            2 
  245000    1.2281037   -6.5841864    113.78334  0.038701818  0.040564216            2 
  246000    1.2358702   -6.5352846    114.45545  0.038772172  0.040554545            2 
  247000    1.2038043   -6.5420727    114.75667  0.038716826  0.040545504            1 
  248000    1.2209763   -6.5083747    115.56666  0.038832885  0.040536852            2 
  249000    1.2160773   -6.5118832    116.49066  0.038986164  0.040531824            2 
  250000    1.1819181   -6.5422293     116.7333  0.038911099  0.040529232            2 
  251000    1.1937113   -6.5344373    117.77382  0.039101534  0.040526412            2 
  252000      1.20923   -6.5200909    118.33353  0.039131458  0.040525774            2 
  253000    1.2003102   -6.4849336    118.86641  0.039152307  0.040526242            3 
  254000    1.2471174   -6.5361267    119.40044  0.039173372   0.04052672            3 
  255000    1.2378279   -6.5361548    119.56307  0.039072899  0.040528618            1 
  256000    1.1957356   -6.5119352    120.11752  0.039100754  0.040529043            1 
  257000    1.1986169   -6.5646543    120.59312  0.039102826  0.040528367            1 
  258000     1.192087   -6.5758379    120.69358  0.038983715  0.040526135            4 
  259000    1.1945133   -6.5442676    121.41308  0.039064696  0.040526523            4 
  260000    1.2019774   -6.5263884    122.27516  0.039190755  0.040525642            2 
  261000    1.2049417    -6.494936    122.95708  0.039258326  0.040525484            2 
  262000    1.1968698   -6.5459788     123.0309  0.039131966  0.040526309            2 
  263000    1.1808435   -6.5541694    123.51609   0.03913691  0.040525343            2 
  264000    1.1899605   -6.5367818    123.60458  0.039016598  0.040524483            3 
  265000    1.2159693   -6.5174353    123.82902  0.038939944  0.040522577            6 
  266000    1.2071513   -6.5937594    124.06002  0.038865921  0.040519435            4 
  267000    1.1974705   -6.5103329    124.82103  0.038957876  0.040514365            3 
  268000    1.2189493   -6.5430645    125.58503   0.03905007  0.040509783            2 
  269000    1.2016803   -6.5207335    125.57023  0.038900318  0.040503806            5 
  270000    1.2025246   -6.5123532    126.35436   0.03899826  0.040498624            2 
  271000    1.2057781   -6.4870648    126.68344  0.038955546  0.040492732            2 
  272000    1.2110695   -6.5726091    126.92782    0.0388872   0.04048434            4 
  273000    1.2336436   -6.5006977    127.38956  0.038885703  0.040476526            3 
  274000    1.2079311   -6.5769175    127.06553  0.038645233  0.040467044            2 
  275000    1.2216773   -6.5361049    128.05619  0.038804905  0.040456597            2 
  276000    1.1841876   -6.4934466    128.72815  0.038867196  0.040447581            2 
  277000    1.2291851    -6.581054     128.9377  0.038789921  0.040439882            1 
  278000    1.1882623   -6.5608234    129.24534  0.038742606  0.040431866            2 
  279000    1.1746649   -6.5323452    129.69808  0.038738972  0.040423527            2 
  280000    1.2048764   -6.5054688    130.45357  0.038825468  0.040414484            3 
  281000    1.2047102   -6.5466042    130.86153  0.038808283  0.040405261            2 
  282000    1.2174391   -6.5627694    130.90053   0.03868219  0.040395468            1 
  283000    1.2000612   -6.5700343    131.05043  0.038589644   0.04038514            3 
  284000    1.2080652   -6.5448629    131.35858  0.038544184   0.04037301            2 
  285000      1.22488   -6.5586945    131.60426  0.038480778  0.040358881            4 
  286000    1.2180725   -6.5570488    132.61929  0.038641984  0.040346476            2 
  287000    1.2120041   -6.5241602    133.36883  0.038724979  0.040334839            2 
  288000    1.2004499   -6.5304865    133.79918   0.03871504  0.040323705            2 
  289000     1.207674   -6.5529464    134.19316  0.038694682  0.040313943            3 
  290000    1.2221971    -6.541515    135.13595  0.038832169  0.040306136            3 
  291000    1.2132648   -6.5575759    135.70026  0.038860326  0.040298578            1 
  292000    1.2284769   -6.5369844    136.21578  0.038874366  0.040292562            2 
  293000    1.2260651   -6.5398408    136.82746  0.038915661  0.040287624            3 
  294000    1.1866402    -6.555229    137.38197  0.038940468   0.04028295            2 
  295000     1.186858   -6.5780664    138.01275  0.038986652  0.040278843            2 
  296000    1.2095865   -6.5619246    138.57993   0.03901462  0.040274656            5 
  297000    1.2301552   -6.5396964    139.17307  0.039049684   0.04027269            2 
  298000    1.1920846   -6.5262875    139.58522  0.039033899   0.04027159            1 
  299000    1.1940008    -6.557183    139.76271  0.038952817  0.040268607            1 
  300000    1.1865243   -6.5711954    140.62254  0.039061817  0.040266553            2 
  301000    1.1993792   -6.5350967    140.71503  0.038957648  0.040263818            2 
  302000    1.2003485   -6.5744915    141.15264  0.038949403  0.040262092            1 
  303000     1.196699   -6.5003314     143.0798   0.03935088  0.040260847            1 
  304000    1.1944836   -6.5355272    143.00805  0.039201767  0.040261253            3 
  305000    1.1923525   -6.5683218    143.47768  0.039201551  0.040261435            1 
  306000    1.2136812   -6.5182688    143.90167  0.039188908  0.040262655            1 
  307000    1.2183657   -6.5444882     144.1791  0.039136563  0.040261458            2 
  308000    1.1849582   -6.5401469    144.37625  0.039062839  0.040261577            3 
  309000    1.1905757   -6.5469465    145.02732  0.039112006  0.040260061            2 
  310000    1.1923425   -6.5377125    145.46849  0.039104432  0.040258603            4 
  311000    1.1777318   -6.5594387     145.8093  0.039070016  0.040255894            3 
  312000    1.2153591   -6.5664582    145.89293  0.038967128  0.040252873            5 
  313000    1.1869819   -6.5642415    146.60116  0.039031192  0.040248307            3 
  314000    1.2105998   -6.5198682    147.27147  0.039084785  0.040243511            2 
  315000    1.2114255   -6.5924922    147.43415  0.039003742   0.04024085            3 
  316000    1.1904646   -6.5537864    147.77685  0.038970689  0.040237319            3 
  317000    1.1917534   -6.5522215     148.0888  0.038929759  0.040233392            3 
  318000    1.2173301   -6.5242124    149.31569  0.039128849  0.040229127            2 
  319000    1.1915814    -6.579914    149.12724   0.03895696  0.040225759            2 
  320000    1.1939447   -6.5856232    149.74745  0.038996732  0.040222429            2 
  321000    1.1967846   -6.5664208    150.56015  0.039086228  0.040220138            2 
  322000    1.2082399   -6.5239791    151.49247  0.039206124  0.040217774            1 
  323000    1.1955558   -6.5151692    151.64684  0.039124572  0.040216785            2 
  324000    1.1789772   -6.5649621    153.05157  0.039365117  0.040215594            2 
  325000    1.2030692    -6.548115    152.44914  0.039089522  0.040215121            3 
  326000     1.210205    -6.548295    153.27593  0.039180964  0.040214906            3 
  327000    1.1994235   -6.5458752    153.45665  0.039107198  0.040213901            1 
  328000    1.2027687   -6.5462584    154.26631  0.039193677  0.040212329            2 
  329000    1.1968903   -6.5854971    154.14394   0.03904355  0.040210318            2 
  330000    1.1810344   -6.5545493    155.47686  0.039261834  0.040209037            2 
  331000    1.1940427   -6.5545809    155.81982  0.039229562  0.040208377            2 
  332000    1.2030208   -6.5912543     156.0456  0.039168072   0.04020776            1 
  333000    1.2127479   -6.5803588     156.5806  0.039184335   0.04020667            1 
  334000    1.1823933   -6.5576959    157.45441  0.039285032  0.040205814            3 
  335000    1.2085858   -6.5743008    158.05701  0.039317664  0.040205859            4 
  336000    1.1840445   -6.5444483    158.18521  0.039232443  0.040206279            2 
  337000    1.2130842   -6.5303901    159.51614  0.039445138  0.040208091            6 
  338000    1.1992745    -6.567663    159.96346  0.039438723  0.040211454            2 
  339000    1.2062328   -6.5712746    160.49881  0.039453985  0.040214781            2 
  340000    1.1793752   -6.5542959    160.74217   0.03939759  0.040218705            3 
  341000    1.1869102   -6.4921375    161.79313  0.039538887  0.040222794            2 
  342000    1.2016534   -6.5942919     161.6353   0.03938482  0.040225645            2 
  343000    1.1813533   -6.5842777    162.39146  0.039453708  0.040229333            5 
  344000    1.2127953   -6.5875553    162.77974  0.039433077  0.040232516            2 
  345000    1.2065152   -6.5523717    163.19808  0.039419827  0.040235501            1 
  346000    1.2153345   -6.5630077    163.03098  0.039265651  0.040238843            3 
  347000    1.1997203   -6.5970941     163.9803  0.039380475  0.040241354            5 
  348000     1.150584   -6.5738572    164.33467  0.039352173  0.040243646            3 
  349000    1.1964407   -6.5663018    165.57909  0.039536553  0.040247042            2 
  350000    1.1965326   -6.5681768    165.83603   0.03948477  0.040251476            2 
  351000    1.1984294   -6.5530275     166.8479  0.039612511  0.040254904            2 
  352000    1.2406736   -6.5602973    166.20442  0.039347638  0.040257556            1 
  353000    1.1817845   -6.5760835    167.40569  0.039519757  0.040259718            3 
  354000    1.1906709   -6.5345031    167.89559  0.039523445  0.040262539            2 
  355000    1.1875773     -6.55505    168.08959  0.039457651  0.040265336            6 
  356000    1.1849567   -6.5821889    168.73645  0.039498233  0.040267333            1 
  357000    1.2133658   -6.5748105    168.34183  0.039295479  0.040269836            2 
  358000    1.2376825   -6.5663292    169.19327  0.039383908   0.04027183            3 
  359000    1.1817978   -6.5281851    170.23957  0.039517079  0.040273821            1 
  360000    1.1922973   -6.5469715    170.52833   0.03947415  0.040275424            3 
  361000    1.1976017   -6.5760757    170.97698  0.039468369  0.040277485            3 
  362000    1.1786073   -6.5351555    171.50049  0.039479854  0.040279929            4 
  363000    1.1905807   -6.5727076     171.8156  0.039443433  0.040281371            1 
  364000    1.1705112   -6.5646559    171.63069   0.03929274  0.040282199            2 
  365000    1.1639982   -6.5906215    172.35317  0.039350038  0.040281704            2 
  366000    1.1959743   -6.5590153    172.86098  0.039358147  0.040281443            1 
  367000    1.1811224   -6.5599709    173.38795  0.039370562  0.040281798            3 
  368000    1.1862223   -6.6037551    173.80426  0.039357848  0.040281667            3 
  369000    1.1663577   -6.5761491    174.79127   0.03947409  0.040281523            4 
  370000    1.1990942   -6.5972827    174.82855    0.0393758  0.040281489            3 
  371000    1.1941661   -6.5734819     176.1394  0.039564105  0.040281613            1 
  372000    1.1960791   -6.5630203    175.39763  0.039291585  0.040282703            2 
  373000    1.1896814    -6.570621    176.56627  0.039447334  0.040283002            3 
  374000    1.2099947   -6.5643067     177.1462  0.039471077  0.040284095            2 
  375000    1.2137886   -6.5908374     177.3482  0.039410712  0.040285027            2 
  376000     1.187044   -6.5528019    178.11848  0.039476613  0.040286211            4 
  377000    1.2182041   -6.5362242    178.91104  0.039547091  0.040287257            3 
  378000    1.2089894   -6.5257232    178.70669  0.039397418  0.040288307            3 
  379000    1.1962541   -6.5856136    179.39756  0.039445373  0.040288947            2 
  380000    1.1795534   -6.5503343    180.26726  0.039532295  0.040288443            2 
  381000    1.1964609   -6.6138885    179.58868  0.039280113  0.040287171            3 
  382000    1.2019814   -6.5960839    179.69294  0.039200029  0.040285769            2 
  383000    1.1474605   -6.5578099    180.74572  0.039326746  0.040284975            3 
  384000    1.1890291   -6.5830539    181.75671   0.03944373  0.040283888            2 
  385000     1.211267   -6.5762162    182.17954  0.039432801  0.040283363            2 
  386000     1.174413   -6.5662504    182.87567   0.03948093  0.040283234            1 
  387000    1.2038633   -6.5436736    183.67861  0.039551812    0.0402833            4 
  388000    1.1759753   -6.5830668    183.14194  0.039334609  0.040283005            2 
  389000    1.2028693   -6.5838356    183.02543  0.039208532  0.040281208            2 
  390000    1.1785406   -6.5879688    183.73009  0.039258567  0.040279062            3 
  391000    1.1832168   -6.5595798    184.41387  0.039303893  0.040276997            2 
  392000    1.1616544   -6.5652991     184.9943  0.039327019  0.040275039            2 
  393000    1.1729243   -6.5688686    185.69216  0.039374928  0.040273312            1 
  394000    1.1677668    -6.619765    185.56208  0.039247479  0.040271373            2 
  395000    1.1600618   -6.6038061    186.18056  0.039278599  0.040268563            1 
  396000    1.2048482   -6.5816413    186.74821  0.039298866  0.040267587            2 
  397000    1.2017285   -6.5784566    187.41155  0.039339116  0.040266301            1 
  398000    1.1829016   -6.5904629    188.42693  0.039452875  0.040264556            2 
  399000    1.1970679   -6.5706846    188.63313  0.039397061  0.040262832            1 
  400000    1.1911304   -6.5443406    188.68202  0.039308755  0.040261107            1 
  401000    1.1793285   -6.5964825    189.93029  0.039470135  0.040260409            2 
  402000    1.2248393    -6.582259    190.51506  0.039493172  0.040259244            3 
  403000    1.1856977   -6.5514752     190.2355  0.039337365  0.040257881            3 
  404000    1.1961281   -6.5878856    190.56866  0.039308717  0.040256169            2 
  405000    1.1820316   -6.5762456    191.54498  0.039412547  0.040253957            3 
  406000    1.2002239   -6.5676925    191.89317  0.039386939  0.040251818            1 
  407000    1.2179174   -6.5754839    191.50319  0.039210318  0.040248495            1 
  408000    1.1904496   -6.6016737    191.77495   0.03916972  0.040244261            1 
  409000    1.1669049   -6.5513769     192.8043   0.03928368  0.040239567            1 
  410000    1.1847974   -6.5776176    193.26356  0.039281211  0.040235702            2 
  411000    1.1868479   -6.5791466    192.95222   0.03912251  0.040230662            3 
  412000    1.1963369   -6.5919966     193.2361  0.039084972  0.040225083            1 
  413000    1.1670131    -6.605847     193.5077  0.039045137  0.040219347            2 
  414000    1.1842731   -6.5496497    194.59105  0.039168892  0.040213866            3 
  415000    1.1764801   -6.5460363    194.42621  0.039041407  0.040208606            1 
  416000    1.1840308    -6.602099    194.56328  0.038975017  0.040202232            2 
  417000    1.1867621   -6.5753846    195.44357  0.039057468  0.040194997            1 
  418000    1.2015396   -6.5359703    195.01195  0.038877981   0.04018836            3 
  419000    1.1847369   -6.6162125    195.03191  0.038789163   0.04018104            3 
  420000    1.1506247   -6.5988255    195.83796  0.038856738  0.040173243            2 
  421000     1.213202   -6.5616918    196.27839   0.03885162  0.040165054            3 
  422000    1.1778814   -6.6339789    196.24212  0.038752393  0.040156668            9 
  423000    1.1716665   -6.5815258    197.65852  0.038939819  0.040148055            2 
  424000    1.1849567   -6.5791616    197.87758  0.038891033   0.04014036            1 
  425000    1.2026283   -6.5762523     198.2514  0.038872824  0.040132005            1 
  426000    1.1774758   -6.6104877    198.86227   0.03890107  0.040123862            2 
  427000    1.1822933    -6.622081    199.25443  0.038886502  0.040115518            1 
  428000    1.1663374   -6.5771049    199.36404  0.038816986   0.04010729            1 
  429000    1.1890629   -6.5911564    200.16804  0.038882681  0.040099874            2 
  430000    1.1820418   -6.5888691    200.29436  0.038816736   0.04009213            4 
  431000     1.182445   -6.5805381    200.92059  0.038847756  0.040083504            2 
  432000    1.1783797   -6.6320691    200.86951  0.038747977  0.040075597            3 
  433000    1.1956515   -6.5884899    202.03412  0.038882625   0.04006886            1 
  434000    1.1900245   -6.5719844    202.95962  0.038970742  0.040061788            1 
  435000    1.1782556   -6.5476419    203.14612  0.038916882   0.04005428            2 
  436000    1.1659348   -6.5785917    202.69959  0.038742276   0.04004695            1 
  437000    1.1753581   -6.5680804    203.49973  0.038806204  0.040039014            2 
  438000    1.1857286   -6.5875324    203.75867   0.03876687  0.040030594            3 
  439000    1.1867674   -6.5901216    203.76536  0.038679833  0.040022201            1 
  440000    1.2075822   -6.5748476    204.35742  0.038704056  0.040012471            2 
  441000     1.175679   -6.5883199    204.64985   0.03867155  0.040002998            1 
  442000     1.164879   -6.6079455    205.47704  0.038740015  0.039993832            1 
  443000    1.1723037   -6.5694057    205.49842  0.038656588  0.039984483            2 
  444000    1.1624809   -6.5963593    206.31741  0.038723238  0.039975838            4 
  445000    1.1887055   -6.6226581    206.77596   0.03872209  0.039967446           10 
  446000    1.1906909   -6.6002695      207.796   0.03882586  0.039958987            3 
  447000    1.1846023   -6.5058791     208.7778  0.038922035  0.039950867            2 
  448000    1.1852477   -6.5628308    208.40317  0.038765471  0.039942845            1 
  449000    1.1573231   -6.5991962    208.77748  0.038748604  0.039934801            3 
  450000    1.1946052   -6.5788259    209.39112  0.038776133  0.039926757            7 
  451000    1.1832394   -6.5997282    209.64026   0.03873619  0.039918875            2 
  452000     1.177824   -6.6010052    210.03413  0.038723107   0.03991031            3 
  453000    1.1761228   -6.6150604    209.99266  0.038629997   0.03990097            2 
  454000    1.1650981   -6.5970104    210.11546  0.038567449  0.039891629            2 
  455000    1.1299931    -6.575581    210.90247  0.038626827  0.039881286            3 
  456000    1.1561027   -6.5948781    211.19547  0.038595663  0.039871392            1 
  457000    1.1811738    -6.619837    211.34731  0.038538897  0.039861588            3 
  458000    1.1871554   -6.5976587    211.31606  0.038449064  0.039851646            4 
  459000    1.1685692   -6.5811833    212.68074  0.038613061  0.039841666            2 
  460000    1.1664897    -6.619225    212.06729  0.038417988  0.039831491            3 
  461000    1.1824928   -6.5961499    213.25046  0.038548529  0.039822141            4 
  462000     1.183972   -6.6359728    213.97542  0.038595854   0.03981262            2 
  463000    1.1736657   -6.5638583    214.45749   0.03859926   0.03980281            4 
  464000    1.1757042   -6.6684274     215.1421  0.038639027  0.039793915            1 
  465000    1.1840544   -6.6035151    215.23505  0.038572589  0.039785252            1 
  466000    1.1848227   -6.6023017    216.16972   0.03865696  0.039777297            2 
  467000    1.1839529   -6.6225919    215.85501  0.038518024  0.039769264            2 
  468000    1.1810057   -6.6056919    217.50984  0.038730384  0.039761515            4 
  469000    1.1939628   -6.6007439    217.97558  0.038730557  0.039754721            1 
  470000    1.1686132   -6.5567703    218.67468  0.038772107  0.039747563            2 
  471000    1.1315882   -6.5542471    218.46499  0.038652688  0.039740246            3 
  472000    1.1631027   -6.5990737    218.37528  0.038554958  0.039732693            2 
  473000     1.170901   -6.5848386    219.32251   0.03864033  0.039725789            2 
  474000    1.1828182   -6.5854221    219.90379  0.038661004  0.039718565            3 
  475000    1.1626371   -6.5910692    220.49608  0.038683523  0.039711368            2 
  476000    1.1676976   -6.6268406    221.05497  0.038700099  0.039704224            3 
  477000    1.1789231   -6.6200821    221.66034  0.038724728  0.039697112            3 
  478000    1.1860926    -6.606343    221.83362  0.038673923  0.039689849            1 
  479000    1.1905537   -6.5849915    222.53361  0.038714963  0.039683276            1 
  480000    1.1725692   -6.5991268    222.37815  0.038607317  0.039676489            2 
  481000    1.1572355   -6.5742358    223.10268  0.038652578  0.039669574            2 
  482000    1.1751734   -6.5710268     223.7285  0.038680585  0.039662726            2 
  483000    1.1475827   -6.5669546    224.10906   0.03866616  0.039656034            1 
  484000    1.1919913   -6.5914017    224.63962  0.038677621  0.039649599            4 
  485000    1.1684562   -6.5804354     225.4431  0.038735927  0.039644172            2 
  486000    1.1693913   -6.6060302    225.81894  0.038720669   0.03963935            1 
  487000    1.1690807   -6.6152054    225.92665  0.038659592  0.039633955            2 
  488000    1.1766741   -6.6462097    227.26057  0.038808157  0.039628948            2 
  489000    1.1756225   -6.5766143    227.19834  0.038718189   0.03962477            3 
  490000    1.1549973   -6.6154632    228.09499  0.038791666  0.039619358            1 
  491000    1.1817924   -6.5878615    228.44105  0.038771394  0.039614397            2 
  492000    1.1819575   -6.6272616    228.40979  0.038687294  0.039609274            2 
  493000     1.175008   -6.6198553    228.87181  0.038686919  0.039604102            4 
  494000     1.164837   -6.6130795    229.23452  0.038669791  0.039598831            3 
  495000    1.1676412   -6.6238792    229.48858  0.038634441  0.039592679            2 
  496000    1.1896246   -6.5912145    230.35926  0.038702833  0.039586909            2 
  497000    1.1974955   -6.6057923    230.48054  0.038645296  0.039580352            2 
  498000    1.1591247   -6.5874929    230.89388   0.03863686    0.0395728            3 
  499000    1.1872408   -6.6030991    230.74197  0.038534062  0.039565479            5 
  500000    1.1345727   -6.6403774    230.05486  0.038342477  0.039557581            2 
  501000    1.1637632   -6.5852352    230.98502  0.038420662  0.039549032            2 
  502000    1.1867758   -6.6098326     231.1014  0.038363447  0.039539836            2 
  503000    1.1874757   -6.6211131    231.45254  0.038345351  0.039530042            2 
  504000    1.1638342   -6.6585086    231.47168  0.038272433  0.039519844            3 
  505000    1.1501974    -6.585568    232.44593  0.038357415  0.039509666            1 
  506000    1.1887546   -6.6172895    233.30904  0.038423755  0.039500796            4 
  507000    1.1651174   -6.5723261    234.04414  0.038468794  0.039491442            1 
  508000    1.1972481   -6.6043254     233.4454   0.03829485  0.039482247            3 
  509000    1.1857828   -6.5800375    234.12569  0.038330991  0.039473486            3 
  510000    1.1366359   -6.6188424    234.77476   0.03836189  0.039464226            1 
  511000    1.1684046   -6.6161773    234.82434  0.038294902  0.039454821            3 
  512000    1.1596022   -6.6286876    235.29017  0.038295926  0.039445872            2 
  513000    1.1604904   -6.5903165    236.03255   0.03834187  0.039437148            1 
  514000    1.1626574   -6.5865724    237.19853  0.038456312  0.039428755            2 
  515000    1.1651777   -6.5765621     237.0276   0.03835398  0.039421381            3 
  516000    1.1607266   -6.5848353    237.51336    0.0383581  0.039413079            2 
  517000    1.1383988   -6.6421252    237.83883  0.038336369  0.039405054            2 
  518000     1.166112   -6.6377365    238.89293  0.038431939  0.039397614            2 
  519000    1.1727492   -6.6177119    239.02726  0.038379458  0.039390347            5 
  520000    1.1769208   -6.5970494    239.53331  0.038386748  0.039383499            1 
  521000    1.1756635   -6.6091401    240.12681  0.038407999  0.039376435            3 
  522000    1.1915106   -6.5872786    240.36857  0.038373015  0.039369302            1 
  523000    1.1839355   -6.6232254    240.82502  0.038372373  0.039362128            2 
  524000    1.1439027   -6.6235936    241.44688  0.038398041  0.039354578            1 
  525000    1.1884587   -6.6402243    241.45473  0.038326148    0.0393471            2 
  526000    1.1784506   -6.6188003    241.95542  0.038332608  0.039339424            3 
  527000    1.1852194   -6.5802929    242.51017  0.038347592  0.039331281            1 
  528000    1.1595772   -6.6456095    242.31208    0.0382437  0.039323063            2 
  529000     1.146837   -6.6413802    242.44664  0.038192603  0.039314585            3 
  530000     1.162778   -6.6346116    244.30886  0.038413342  0.039306277            1 
  531000    1.1778409   -6.6586363    243.55213  0.038222243  0.039297962            3 
  532000    1.1345871   -6.6184332    243.56206  0.038151952  0.039289288            2 
  533000    1.1825081   -6.6531997    243.69224  0.038100726  0.039280278            2 
  534000    1.1712709   -6.6122865     245.2689  0.038275421  0.039271277            2 
  535000    1.1589586    -6.653588    245.17392  0.038189084  0.039262168            4 
  536000       1.1777    -6.634097    245.35427  0.038145875  0.039253657            2 
  537000    1.1624464   -6.6123536    247.10007  0.038345759  0.039244777            1 
  538000    1.1416384   -6.6407127    246.50846  0.038182847  0.039236344            3 
  539000    1.1753427   -6.6037585    248.58677  0.038433329  0.039227963            1 
  540000     1.157485    -6.643642    247.39471  0.038178195  0.039219868            6 
  541000    1.1765497   -6.5872936     248.1937  0.038230699    0.0392123            2 
  542000    1.1747653   -6.6410368    248.54716  0.038214507  0.039204042            2 
  543000    1.1615286   -6.6019044    248.80715  0.038184031  0.039195392            4 
  544000     1.143325   -6.6418507    249.40847  0.038205954  0.039187801            3 
  545000    1.1477799   -6.5879037    250.32258  0.038275624  0.039179455            2 
  546000     1.186785   -6.5801074    251.05729  0.038317657  0.039171324            2 
  547000    1.1783405   -6.6292402    250.44897  0.038154931  0.039163125            2 
  548000    1.1709379   -6.6106479    251.63491  0.038265649   0.03915424            1 
  549000    1.1552001   -6.6176113    251.32982  0.038149639  0.039144885            3 
  550000     1.144164   -6.6186033    251.13446  0.038050676  0.039135781            1 
  551000    1.1560737   -6.6489956    251.49068  0.038035493  0.039126012            2 
  552000    1.1709521    -6.615944    251.67806  0.037994876  0.039116692            1 
  553000    1.2033488   -6.6430184    252.36986  0.038030419  0.039107645            2 
  554000    1.1708697   -6.6146218    252.78342  0.038023981  0.039098186            3 
  555000    1.1736905   -6.5965553    253.23184  0.038022799  0.039088527            2 
  556000    1.1810535   -6.6597142    253.07563  0.037930999  0.039079108            3 
  557000    1.1002383   -6.6489659    253.62519  0.037945121  0.039068786            9 
  558000    1.1529634   -6.5979832    254.18887    0.0379613  0.039058777            2 
  559000    1.1380889   -6.6595061    254.35837   0.03791866  0.039049386            2 
  560000    1.1711023   -6.5847194    255.52724  0.038024887  0.039039723            1 
  561000    1.1555469   -6.6091247    255.21257  0.037910363  0.039030529            2 
  562000    1.1451651    -6.611502    255.94367  0.037951316   0.03902057            4 
  563000    1.1676988    -6.606827    256.67918  0.037992774  0.039010984            1 
  564000    1.1729607   -6.6247899    256.69633  0.037927944  0.039000966            3 
  565000    1.1496846    -6.640822     257.3123  0.037951666  0.038991579            3 
  566000    1.1456289   -6.6472281     257.2809  0.037879991  0.038982771            3 
  567000    1.1553443   -6.6484875    258.96038   0.03806002   0.03897373            1 
  568000    1.1469057    -6.634952    258.25311  0.037889247  0.038964067            3 
  569000    1.1407511   -6.5930432    259.30931  0.037977345  0.038955645            2 
  570000    1.1412938    -6.624623    259.28957  0.037907832  0.038947407            1 
  571000    1.1794466   -6.6618943    259.16784  0.037823678  0.038939043            4 
  572000     1.160502   -6.6508766    261.11226   0.03804083  0.038931106            1 
  573000    1.1612081   -6.5967055    262.93614  0.038239695  0.038924043            2 
  574000    1.1342786   -6.6099307    261.95346  0.038030409  0.038916484            2 
  575000    1.1790803   -6.6643928    261.80222  0.037942351  0.038909127            3 
  576000     1.159998   -6.6490056    262.70527  0.038007128  0.038901375            1 
  577000    1.1373124   -6.6381449    262.96626  0.037978951  0.038893552            7 
  578000    1.1755543   -6.6614462    263.41414  0.037977817  0.038885286            2 
  579000    1.1593486   -6.6547531    262.62632  0.037798837  0.038876514            3 
  580000    1.1659461   -6.5668509    263.83432  0.037907229  0.038868083            2 
  581000    1.1392802   -6.6557919    263.11423  0.037738702  0.038859005            3 
  582000    1.1678874    -6.616038    264.07028   0.03781075  0.038849935            3 
  583000    1.1444087   -6.6067447     265.0313  0.037883262  0.038840365            1 
  584000     1.179541   -6.6545799    265.55604  0.037893271  0.038831379            5 
  585000    1.1782497   -6.6472071    265.90498  0.037878202  0.038822933            3 
  586000    1.1413586   -6.6449715    266.29194  0.037868592  0.038814882            3 
  587000    1.1842104   -6.6264141    267.07269  0.037914919  0.038807071            2 
  588000    1.1607575   -6.6526949    267.61807  0.037927731  0.038799246            2 
  589000    1.1596859   -6.6163697     267.4076   0.03783356  0.038791061            2 
  590000    1.1505199   -6.6360981    268.50234  0.037924059  0.038783093            4 
  591000    1.1528018   -6.6254109    269.15429  0.037951818  0.038775025            2 
  592000     1.140499   -6.6239438    268.40807  0.037782667  0.038766449            1 
  593000    1.1821446   -6.6252308    269.27015    0.0378401  0.038757743            3 
  594000    1.1592666   -6.6018176    270.20547  0.037907614  0.038749455            2 
  595000     1.155093   -6.6613417    270.07786  0.037826031  0.038741447            2 
  596000    1.1599546   -6.6200652    270.37348  0.037803898  0.038733406            1 
  597000    1.1593496    -6.609239    271.71783  0.037928228  0.038725664            1 
  598000     1.135517    -6.625407    271.48467  0.037832312  0.038717735            1 
  599000    1.1449738   -6.6523294    271.88184  0.037824407  0.038709906            2 
  600000     1.159001   -6.6276375    272.06952  0.037787434  0.038701751            2 
  601000    1.1610029   -6.6192463    273.06624  0.037862762  0.038693315            2 
  602000    1.1528072   -6.6471531    272.06256   0.03766093  0.038684851            3 
  603000    1.1569591   -6.6511922    272.63658  0.037677803  0.038676113            1 
  604000    1.1534769   -6.6808135    273.09013  0.037677997  0.038666885            4 
  605000    1.1508882   -6.6143263     274.0615  0.037749517  0.038657891            1 
  606000    1.1262726   -6.6317599    274.10191  0.037692782  0.038649562            1 
  607000    1.1714469   -6.6453543    274.81689  0.037728843  0.038640873            1 
  608000    1.1657016   -6.6600677    275.81985  0.037804256  0.038632202            4 
  609000    1.1234667   -6.6578267    275.57079  0.037708099  0.038623579            1 
  610000     1.177685   -6.6365361    276.86602  0.037823227  0.038614929            2 
  611000    1.1358253   -6.6188527    277.41693  0.037836461  0.038606592            1 
  612000    1.1281809   -6.6753892     277.2366  0.037750082  0.038598414            3 
  613000    1.1481442   -6.6592257    276.93499  0.037647498  0.038590005            3 
  614000    1.1626094   -6.6438313     277.7907   0.03770232  0.038582076            3 
  615000    1.1662615   -6.6228301    278.53512  0.037741885  0.038573788            2 
  616000     1.149695   -6.6712057    279.45122  0.037804548  0.038565922            1 
  617000     1.150035   -6.6340525    280.17009  0.037840368  0.038558211           10 
  618000    1.1419168   -6.6860314     280.3907  0.037808886  0.038550523            2 
  619000    1.1519813   -6.6351864    280.84015  0.037808313  0.038543161            4 
  620000     1.127223   -6.6032073    281.90676  0.037890694  0.038536382            2 
  621000    1.1652985   -6.6527528    282.25291  0.037876129  0.038529942            4 
  622000    1.1426327   -6.7010677     282.0069  0.037782275  0.038523173            2 
  623000    1.1367572   -6.6502308     283.3769  0.037904883  0.038516828            1 
  624000    1.1563848    -6.653412    282.92012  0.037783136  0.038510504            2 
  625000    1.1545528   -6.6457106     282.5353  0.037671374  0.038503796            3 
  626000      1.17536   -6.6369894    284.27842  0.037843241  0.038496505            1 
  627000    1.1350844   -6.6295635    283.98078  0.037743325  0.038489418            2 
  628000    1.1532322   -6.5905166     285.2807  0.037855719  0.038482246            3 
  629000    1.1661333   -6.6702443     285.2424  0.037790461  0.038475171            3 
  630000    1.1508142   -6.6352104    285.51258  0.037766214  0.038467995            3 
  631000    1.1462264    -6.626873      284.601  0.037585975  0.038460722            1 
  632000    1.1585163   -6.6611805    285.82922  0.037688452  0.038453324            3 
  633000    1.1628355   -6.6094505    286.44356  0.037709789  0.038445954            3 
  634000    1.1378044   -6.6385052    286.91166  0.037711838   0.03843888            2 
  635000    1.1327914   -6.6459177    287.43507  0.037721138  0.038431471            3 
  636000    1.1735452    -6.698972     287.3376  0.037649057  0.038424121            2 
  637000    1.1533714   -6.6432319    287.43547  0.037602756  0.038416227            3 
  638000    1.1564072   -6.6410599    287.83756  0.037596337  0.038408737            2 
  639000    1.1590245   -6.6357694    289.21821  0.037717554  0.038400899            2 
  640000    1.1468946   -6.6530679    288.57196  0.037574474  0.038393656            3 
  641000    1.1377317   -6.6328474    290.54036  0.037771758  0.038386269            4 
  642000    1.1607879   -6.6651237    289.41506  0.037566856   0.03837863            2 
  643000    1.1616621   -6.6835666    289.96167  0.037579273  0.038370655            4 
  644000      1.12715   -6.6369536    290.26435  0.037560086  0.038363075            6 
  645000    1.1501894   -6.6816527    291.55513  0.037668621  0.038355682            3 
  646000     1.138193   -6.6762468    292.87884  0.037781067  0.038348509            5 
  647000    1.1216715    -6.626648    292.33809  0.037653026  0.038341531            2 
  648000    1.1557267   -6.6586409    293.10474  0.037693511  0.038334915            3 
  649000    1.1702601   -6.6634677    293.09785  0.037634547  0.038328232            2 
  650000    1.1499417   -6.6641338    292.91423  0.037553106  0.038321473            2 
  651000    1.1527268   -6.6254458    293.97851  0.037631658  0.038314712            2 
  652000    1.1402655   -6.6520819    293.48143  0.037510408  0.038307714            3 
  653000    1.1483858   -6.6717031    294.82681  0.037624657  0.038300594            2 
  654000     1.125421    -6.614037    295.04147  0.037594478  0.038293831            2 
  655000     1.139264   -6.6041251    296.10294   0.03767213  0.038286552            2 
  656000    1.1541803   -6.6835783    295.50257  0.037538436  0.038279407            3 
  657000    1.1437516   -6.6448353    295.76033  0.037513994  0.038272193            2 
  658000    1.1554888   -6.6767826    297.02653  0.037617341  0.038265256            2 
  659000    1.1329312   -6.6684415    297.07717  0.037566663  0.038257962            4 
  660000    1.1201944   -6.6335592     297.7531  0.037595088  0.038250227            1 
  661000    1.1481708   -6.6771299    298.30547  0.037607851  0.038242765            2 
  662000    1.1451734   -6.6537711    298.28883  0.037548946  0.038234945            3 
  663000    1.1301058   -6.6512838    298.49559  0.037518299  0.038226891            2 
  664000    1.1258717   -6.6810175     299.2126  0.037551782  0.038219168            3 
  665000     1.142401   -6.6403414    299.15883  0.037488575  0.038211759            2 
  666000     1.131586   -6.6567341     300.7031  0.037625513  0.038204595            4 
  667000    1.1300592   -6.6783411    300.88878  0.037592301  0.038197098            2 
  668000    1.1310496   -6.6432371    300.69315   0.03751162  0.038189999            2 
  669000    1.1286254   -6.6824269    300.82212  0.037471614  0.038183041            2 
  670000    1.1582587   -6.6933982    302.24265  0.037592369   0.03817591            2 
  671000    1.1420152   -6.6450422    301.79014  0.037480146  0.038168953            1 
  672000    1.1308756   -6.6309053     303.6428  0.037654117  0.038162407            2 
  673000    1.1433916   -6.6173309    302.55365  0.037463304  0.038155594            1 
  674000    1.1348013   -6.6541029    303.54139  0.037529846  0.038148362            2 
  675000    1.1441848   -6.6338011    303.41316  0.037458415  0.038141242            4 
  676000    1.1267822   -6.6179301     304.3255  0.037515471  0.038134128            2 
  677000     1.161596   -6.6640799     304.4143  0.037470987  0.038127298            6 
  678000    1.1427552   -6.6530737     304.4842  0.037424312  0.038120531            7 
  679000    1.1541961     -6.66095    305.20154  0.037457234  0.038114072            2 
  680000    1.1726228    -6.672937    306.13293   0.03751629  0.038107328            1 
  681000    1.1489145   -6.6370059    307.08556  0.037577773  0.038100872            1 
  682000    1.1105544   -6.6478707    307.31585  0.037550813  0.038094782            3 
  683000    1.1468428   -6.6716054    307.35803   0.03750098   0.03808814            5 
  684000    1.1394105   -6.6600019    308.35657  0.037567809  0.038081571            4 
  685000    1.1200757   -6.6603954    307.85942  0.037452484  0.038074934            1 
  686000    1.1448738   -6.6769176    307.51004  0.037355448  0.038068195            3 
  687000      1.12696   -6.6483094    308.90622  0.037470429  0.038061546            1 
  688000    1.1383987    -6.645727     310.3598   0.03759203  0.038055543            6 
  689000    1.1697285   -6.6538663    309.55957  0.037440683  0.038049192            2 
  690000    1.1208387   -6.6415421    311.34308  0.037601821  0.038042962            2 
  691000    1.1684118   -6.6745789    310.98682   0.03750444  0.038036935            1 
  692000    1.1337922   -6.6243032    311.23712  0.037480385  0.038030609            2 
  693000    1.1458021   -6.7080658    312.60422  0.037590695  0.038024394            2 
  694000    1.1293206   -6.6888111    311.36676  0.037387939  0.038017896            4 
  695000    1.1314162   -6.6483585    312.67374  0.037490856  0.038011317            2 
  696000    1.1485214   -6.6450001    312.85073  0.037458181  0.038004876            2 
  697000    1.1316382   -6.6588135    312.88039  0.037407985  0.037998563            2 
  698000    1.1549909   -6.6828134    312.02839  0.037252673  0.037992057            4 
  699000    1.1392006   -6.6558734    313.11274  0.037328652  0.037985049            1 
  700000    1.1307033   -6.6560594    312.47517  0.037199425  0.037977849            2 
  701000    1.1195845   -6.6620882    314.63724  0.037403381  0.037970558            2 
  702000    1.1362523   -6.6581371    314.71551  0.037359391  0.037963685            2 
  703000    1.1419692   -6.6731592    315.51646  0.037401193   0.03795675            2 
  704000    1.1205505   -6.7240064    314.27744  0.037201402   0.03794907            1 
  705000    1.1338919   -6.6429159    315.22261  0.037260356   0.03794126            1 
  706000    1.1031242   -6.6674795    314.49033  0.037121144  0.037933696            1 
  707000    1.1341142   -6.6528507    315.49433  0.037186979  0.037925558            3 
  708000    1.1452614   -6.6468772    316.49498  0.037252234  0.037917395            2 
  709000    1.1308987   -6.6564275    315.39834  0.037070796  0.037909379            2 
  710000    1.1282349   -6.6650856    317.94907  0.037317966  0.037901346            2 
  711000    1.1709453   -6.6411263     316.5129  0.037097152  0.037893027            2 
  712000    1.1473744   -6.6491938    316.17401  0.037005385  0.037884955            3 
  713000    1.1435522   -6.6862438    318.16533  0.037186223   0.03787683            3 
  714000    1.1353423   -6.7033674    317.92888  0.037106546  0.037868685            3 
  715000    1.1341632   -6.6479916    318.60105   0.03713299  0.037860538            1 
  716000    1.1405249   -6.6526159    317.13199  0.036910148  0.037851676            1 
  717000     1.117974   -6.6452261    318.75475  0.037047275  0.037842881            2 
  718000    1.1708622   -6.6545673    319.53199  0.037085886  0.037834371            1 
  719000     1.138283   -6.6429914    319.46742  0.037026821  0.037825541            1 
  720000    1.1507607   -6.6709572    318.85959  0.036905045  0.037816398            2 
  721000    1.1503915   -6.6667941    318.70823  0.036836366  0.037807151            4 
  722000    1.1184873   -6.6958667    320.10388  0.036946431  0.037798041            3 
  723000    1.1158945   -6.6597678    321.19627  0.037021239  0.037788771            1 
  724000    1.1494876   -6.6736968    319.60814  0.036787309  0.037779829            1 
  725000    1.1250711   -6.6423009    321.47079  0.036950666  0.037770672            2 
  726000    1.1451828   -6.6743167    320.91231  0.036835665  0.037761792            2 
  727000    1.1289291   -6.6564612    322.22404  0.036935356  0.037752356            2 
  728000     1.129376   -6.6894823    322.19892  0.036881744  0.037742868            2 
  729000    1.1529858   -6.6723309    322.81674  0.036901776  0.037733287            1 
  730000    1.1129597   -6.6652055    322.16952  0.036777343  0.037723697            4 
  731000    1.1466975   -6.6811374    323.73749  0.036905779  0.037714355            2 
  732000    1.1486435   -6.6623035    325.12707  0.037013555  0.037705748            2 
  733000    1.1281241   -6.6758515    325.61792  0.037018863  0.037696953            3 
  734000    1.1131591   -6.6863398    324.97988   0.03689599  0.037688396            2 
  735000    1.1343915   -6.6732542    325.79936  0.036938703  0.037679398            2 
  736000    1.1286698      -6.7296    325.49282  0.036853806   0.03766994            1 
  737000    1.1386179   -6.6593484    326.51509  0.036919391  0.037661082            3 
  738000    1.1212345   -6.7077419    324.41481  0.036632205  0.037651693            1 
  739000    1.1118959   -6.6651758    326.67935  0.036837996  0.037642135            2 
  740000    1.1250248   -6.6498218    326.93455  0.036816953  0.037632575            2 
  741000    1.0977984   -6.6548467    327.57132   0.03683888   0.03762379            4 
  742000    1.1312382    -6.663555    327.11749  0.036738263  0.037614475            1 
  743000    1.1282003   -6.6570353     327.8736  0.036773621   0.03760502            1 
  744000    1.1210181    -6.639295     328.3873  0.036781732  0.037595446            1 
  745000     1.143506    -6.688327     329.3156  0.036836197  0.037586053            3 
  746000    1.1145073   -6.6746909    328.45021  0.036690149  0.037576391            2 
  747000    1.1292681   -6.6849671    328.38293  0.036633527  0.037566722            2 
  748000    1.1289524   -6.6776371     329.1438  0.036669318  0.037557103            2 
  749000    1.1481007   -6.6820206    329.12325  0.036618074  0.037547622            2 
  750000    1.1195517   -6.6583552    330.61988  0.036735543  0.037538099            2 
  751000    1.1139745   -6.6690245    330.96332  0.036724736  0.037528743            1 
  752000    1.1379969   -6.6734862    330.53692  0.036628648   0.03751953            2 
  753000    1.1406898   -6.6626951    332.30054  0.036775182  0.037510212            2 
  754000    1.1248083   -6.6829212    331.84265  0.036675802  0.037500778            4 
  755000    1.1337538   -6.6823956    330.69799  0.036500882  0.037490789            3 
  756000    1.1328924   -6.7210241    331.63393  0.036555768  0.037480388            2 
  757000    1.1245381   -6.7009576    331.99228  0.036546926  0.037469809            2 
  758000    1.1481087   -6.6448281    332.40956  0.036544586  0.037459395            2 
  759000    1.1580366   -6.6860979    332.63918  0.036521649  0.037449513            2 
  760000    1.1061617   -6.6833795    333.32776  0.036549096  0.037439187            2 
  761000    1.1348415   -6.6779107    332.66707   0.03642872  0.037428989            3 
  762000    1.1359854   -6.6657215    335.20707  0.036658691  0.037419186            2 
  763000    1.1425193   -6.7165522    333.66483  0.036442205  0.037409823            2 
  764000    1.1248196   -6.6980661    334.45203   0.03648037  0.037400125            2 
  765000    1.1342744   -6.7054534    334.43319  0.036430631  0.037389895            2 
  766000    1.1312321   -6.6909105    336.75335  0.036635482  0.037379689            2 
  767000    1.1375301   -6.6755189     336.1117  0.036518004  0.037369499            1 
  768000    1.1304083   -6.6861249    336.57293    0.0365205  0.037359606            2 
  769000    1.1462185   -6.7119496      337.134   0.03653381  0.037349892            2 
  770000    1.1300267   -6.6932394    336.99404  0.036471217   0.03734011            4 
  771000      1.13397   -6.6875848     336.8148   0.03640454  0.037330327            2 
  772000    1.1374298    -6.676322    337.41427  0.036422093  0.037320388            2 
  773000    1.1310609   -6.6893129    337.34098  0.036367075  0.037310321            5 
  774000    1.1452677   -6.7209194    337.25878  0.036311238  0.037299977            4 
  775000    1.1092024    -6.733243    338.35138  0.036381869  0.037289984            1 
  776000    1.1161706   -6.6972243     338.9187  0.036395908  0.037280012            1 
  777000    1.1037373   -6.6713438    339.06836  0.036365118  0.037269851            2 
  778000    1.1464306    -6.629668    340.05265  0.036423806  0.037259636            1 
  779000    1.1213807   -6.7039976    339.42463  0.036309866  0.037249354            1 
  780000     1.140319   -6.6861529    340.14065  0.036339813  0.037238764            4 
  781000    1.1417865   -6.7215612    340.35621  0.036316284  0.037228379            5 
  782000    1.1307209   -6.7018391    340.93781  0.036331821  0.037218009            3 
  783000    1.1176601   -6.6669221    340.73985  0.036264352  0.037207373            4 
  784000    1.1130985   -6.7084739    341.02782  0.036248705  0.037197224            2 
  785000    1.1270842   -6.6936674    342.67512  0.036377401  0.037186979            3 
  786000    1.1226723   -6.6609224    343.16441  0.036382995  0.037176946            5 
  787000    1.1069621   -6.7401274    342.45907  0.036262079  0.037166867            4 
  788000    1.1314285   -6.7080101     343.9553  0.036374292  0.037156775            2 
  789000    1.1341333    -6.659343    344.06979  0.036340282  0.037146639            2 
  790000    1.1227735   -6.6892979    343.15647   0.03619794  0.037136591            1 
  791000    1.1259476   -6.7399022     342.3403  0.036066193   0.03712621            2 
  792000    1.1416735   -6.7066308     344.3787  0.036235133  0.037115367            3 
  793000    1.1456808   -6.6605095    344.58954  0.036211595  0.037104893            2 
  794000     1.121841   -6.6812124    343.88915   0.03609248  0.037094251            1 
  795000    1.1284939   -6.6393939    344.91923  0.036155056  0.037083746            3 
  796000    1.1159101   -6.6916326     346.0659  0.036229679  0.037073489            1 
  797000    1.1151918   -6.7368493    345.46081  0.036120955  0.037063258            3 
  798000    1.1180123   -6.6678944    345.87994  0.036119459  0.037052981            2 
  799000    1.1144506   -6.6970622    346.81775  0.036172064  0.037042997            2 
  800000    1.1311574   -6.7289233    346.76034  0.036120869  0.037032468            2 
  801000    1.1428253   -6.7602958    345.30764   0.03592464  0.037021445            2 
  802000    1.1317426   -6.6729518    347.37174  0.036094321  0.037010793            2 
  803000    1.1421164   -6.6955134     347.3562  0.036047758  0.036999814            3 
  804000    1.0982304   -6.6819922    348.14937  0.036085133   0.03698881            2 
  805000    1.1263696    -6.669208    347.35556  0.035958133  0.036978052            2 
  806000    1.1303622   -6.6878942    348.80499  0.036063378  0.036967248            2 
  807000    1.1239657   -6.7065068    349.54279  0.036094877  0.036956775            2 
  808000    1.1513668   -6.6912489    349.10807  0.036005371  0.036946125            1 
  809000     1.119697   -6.6891675    350.11192  0.036064268  0.036935438            2 
  810000    1.1193163   -6.7187636    349.32433  0.035938717  0.036924726            2 
  811000    1.1201112   -6.6961068    350.73926  0.036039792  0.036914278            2 
  812000    1.1481324   -6.6504892    351.22514  0.036045273  0.036903958            2 
  813000    1.1252042   -6.7060568    352.14829  0.036095561  0.036894116            2 
  814000    1.1322782   -6.6627984    351.43982  0.035978687  0.036884178            2 
  815000    1.1232005   -6.7285237    352.71133  0.036064553  0.036874307            2 
  816000    1.1280461     -6.72555    352.80466  0.036029888  0.036864538            6 
  817000    1.1149121   -6.6946938    353.13425  0.036019406  0.036854544            2 
  818000    1.1366087    -6.708353    354.22204  0.036086189  0.036844944            2 
  819000    1.1132797   -6.7094298    355.24226  0.036145936  0.036835314            1 
  820000    1.1304478   -6.6929874    355.46559  0.036124552  0.036825948            4 
  821000      1.14639   -6.6791248    355.83581   0.03611813  0.036816849            1 
  822000    1.1206661   -6.7086484    354.64063  0.035953025  0.036807875            1 
  823000    1.1173736   -6.7286686    354.77895  0.035923344  0.036798409            7 
  824000    1.1137403   -6.6817075     355.3375  0.035936236    0.0367889            3 
  825000    1.1435616   -6.7193911    356.79613  0.036040013  0.036779359            1 
  826000    1.1114998   -6.6859781    358.21343   0.03613937  0.036770061            2 
  827000    1.1120574   -6.6561268    357.26767   0.03600037  0.036761188            3 
  828000    1.1212481    -6.725208    358.67003  0.036098031  0.036752376            3 
  829000    1.1189821    -6.669404    359.39654  0.036127517  0.036743681            1 
  830000    1.1417539   -6.7195046    359.67615  0.036112063  0.036735033            2 
  831000    1.1172104   -6.7258217    359.57426  0.036058389  0.036726407            2 
  832000    1.1271317   -6.6958659     360.2185  0.036079577  0.036717851            5 
  833000     1.133835   -6.6603953    361.89925  0.036204407   0.03670925            3 
  834000    1.1249888   -6.7477818    360.52751  0.036023932  0.036700692            3 
  835000    1.1265868   -6.6965174    362.21689   0.03614939  0.036692226            2 
  836000    1.1368831   -6.7076728    362.56186  0.036140537  0.036684021            3 
  837000    1.1265994   -6.7033055    361.99688  0.036041107  0.036675576            3 
  838000    1.0949843   -6.6896532    362.39642   0.03603783  0.036667013            2 
  839000    1.1394344   -6.7377794    362.01293  0.035956786  0.036658429            2 
  840000     1.094881   -6.6740382    364.04365  0.036115442  0.036649958            2 
  841000    1.1256967   -6.6741851    366.17401  0.036283592  0.036641898            3 
  842000    1.1104808   -6.6944228    364.92261  0.036116648  0.036633884            2 
  843000    1.1044798   -6.6636816    364.86016  0.036067631   0.03662578            6 
  844000    1.1074928   -6.7330726    366.02143  0.036139557  0.036617578            2 
  845000    1.1306677   -6.6860564    364.50158  0.035946901  0.036609079            2 
  846000    1.1104238   -6.7194815    365.55545   0.03600822  0.036600572            3 
  847000    1.1013513   -6.7164227    366.16794  0.036025968   0.03659223            2 
  848000    1.0913789   -6.7304102    366.16827  0.035983517    0.0365838            3 
  849000     1.134555   -6.6710523    366.62155  0.035985626   0.03657578            2 
  850000    1.1313759   -6.7104263      368.468  0.036124314  0.036567757            2 
  851000     1.143923   -6.7144081    367.89687  0.036025938   0.03655951            2 
  852000    1.0995102   -6.6537255    368.84491   0.03607638  0.036551381            2 
  853000    1.0949875   -6.7334666     367.9931  0.035950869  0.036543308            3 
  854000     1.118102   -6.6960055    369.38576  0.036044668  0.036535005            5 
  855000    1.1090603   -6.7164959    369.42978  0.036006802  0.036526753            3 
  856000    1.1170064   -6.6990579    368.76981  0.035900488  0.036518568            3 
  857000    1.0943407    -6.688486    370.61751  0.036038264  0.036510577            1 
  858000    1.1337133   -6.7133545    370.78306  0.036012341  0.036502214            4 
  859000    1.1027479   -6.7023824    371.15732  0.036006725  0.036494367            2 
  860000    1.1210803   -6.7552911    370.01162   0.03585384  0.036486074            2 
  861000     1.123295      -6.6963    371.43756  0.035950209  0.036477876            2 
  862000    1.1285523   -6.7745275    369.24579  0.035696616   0.03646931            3 
  863000    1.1064274   -6.7188128    370.83364  0.035808579  0.036460698            1 
  864000    1.1000895    -6.691203    371.32256   0.03581429   0.03645191            2 
  865000     1.110294   -6.7704772    371.34352  0.035774906  0.036443306            4 
  866000    1.1026451   -6.7086294    372.43948  0.035839057  0.036434701            3 
  867000    1.0967581   -6.6930262    373.52361  0.035901923  0.036426191            3 
  868000    1.1295246   -6.6811322    373.84153  0.035891084  0.036418065            4 
  869000    1.1361772   -6.7153706    372.97708  0.035766886  0.036409811            2 
  870000    1.1022648   -6.7158467    373.09072  0.035736659  0.036401015            2 
  871000    1.1199485   -6.7288203    374.29605   0.03581095  0.036392702            3 
  872000     1.120399    -6.753127    374.34053  0.035774133  0.036384516            4 
  873000    1.1142054   -6.7094814    375.49123  0.035842997  0.036376108            3 
  874000    1.1152394   -6.7215696    375.62874  0.035815097  0.036367574            2 
  875000    1.0886535   -6.7263309    376.89953  0.035895193  0.036359428            2 
  876000    1.1039668   -6.7292848     377.7283  0.035933058  0.036351623            3 
  877000    1.0860331   -6.7132753    377.40096  0.035860981  0.036343375            2 
  878000    1.1010663   -6.6935538    376.37814  0.035723058  0.036335324            3 
  879000    1.1167934   -6.6811627    378.10921  0.035846531  0.036327216            2 
  880000    1.1042503   -6.7091544    377.30117  0.035729278  0.036318879            3 
  881000    1.1178577   -6.7370158     378.2753  0.035780865  0.036310597            2 
  882000    1.1341404   -6.7013122    377.04564  0.035624116  0.036302036            3 
  883000    1.0938779   -6.7097285    377.73505  0.035648835    0.0362934           10 
  884000    1.1491374   -6.7068299    377.90008  0.035624065  0.036284593            5 
  885000    1.1081017    -6.717466    378.55521    0.0356455  0.036275845            2 
  886000    1.1274822   -6.7242677    379.69558  0.035712526  0.036267243            2 
  887000    1.1147914   -6.7271177    380.00139  0.035700995  0.036258634            5 
  888000    1.1208264   -6.7117781     381.2121  0.035774409  0.036249982            2 
  889000    1.1312022   -6.7170029    381.26478  0.035739106  0.036241461            1 
  890000    1.1044229   -6.7500475    380.27971  0.035606714  0.036233001            1 
  891000    1.0932139   -6.7222802    381.15043  0.035648188  0.036224975            4 
  892000    1.0899627   -6.7196358    380.97888  0.035592197  0.036216272            2 
  893000    1.1158127   -6.7460946    380.35878  0.035494473  0.036207522            6 
  894000    1.1075603   -6.7108909    383.93431   0.03578806  0.036199044            3 
  895000    1.0827624   -6.7265819    383.59185  0.035716187  0.036190955            8 
  896000    1.1002053   -6.7303935    382.83712  0.035606131  0.036182701            1 
  897000    1.1044593   -6.6706289    384.40091  0.035711716  0.036174407            1 
  898000    1.1176011   -6.7490544    384.06941  0.035641185  0.036166332            3 
  899000    1.0746291   -6.6992228     384.5706  0.035647998  0.036158084            2 
  900000    1.1098295   -6.6938076    385.73179  0.035715906  0.036150104            2 
  901000    1.0867995   -6.7641403    385.77499  0.035680261  0.036141927            3 
  902000    1.1036002   -6.6999391    385.95499  0.035657335  0.036133798            3 
  903000    1.1079874   -6.7770231    384.50918  0.035484421  0.036125679            3 
  904000    1.0984912   -6.7127458     386.8442  0.035660417  0.036117635            3 
  905000    1.0973146   -6.6875517    386.36928  0.035577281  0.036109595            2 
  906000    1.0875727   -6.7145729    386.94266  0.035590752  0.036101636            4 
  907000    1.1128232   -6.7367436    387.48345  0.035601199  0.036093654            2 
  908000    1.0870501   -6.7246962    387.60986  0.035573593  0.036085425            2 
  909000    1.0998058   -6.7199702    387.91617  0.035562538  0.036077602            1 
  910000    1.1202352   -6.7419949    387.64148  0.035498304  0.036069408            4 
  911000    1.1043137   -6.6857311    389.56522  0.035635311  0.036061312            4 
  912000    1.0945374   -6.7858788    389.32596  0.035574375  0.036053477            2 
  913000    1.0896367   -6.7227691    389.76766  0.035575726  0.036045653            1 
  914000    1.1031727   -6.7338205    390.80087  0.035631006  0.036038059            1 
  915000    1.0845451   -6.7573888    390.54275  0.035568557  0.036030529            2 
  916000    1.1178296   -6.7115474    391.67469  0.035632705  0.036022825            2 
  917000    1.1174768   -6.6959612    391.02243  0.035534572  0.036015226            2 
  918000    1.1013413   -6.7482837    391.05554  0.035498869  0.036007741            3 
  919000    1.0832977   -6.7382189    392.20504  0.035564476   0.03600012            2 
  920000    1.0777151   -6.6951812    392.91046  0.035589716  0.035992756            5 
  921000    1.0953535   -6.7482442     392.5725  0.035520494  0.035985125            2 
  922000      1.09829    -6.733004     394.6028  0.035665473  0.035977612            2 
  923000    1.1390594   -6.7533689    394.04609   0.03557657  0.035970199            2 
  924000    1.1012043   -6.7594233      394.258  0.035557179  0.035962513            2 
  925000    1.1085448   -6.6932148    394.12559   0.03550681  0.035955063            2 
  926000    1.1203284    -6.713941    394.69076  0.035519327   0.03594741            4 
  927000    1.1283009   -6.7602999    395.15361  0.035522619  0.035940055            4 
  928000    1.0950762   -6.7169187    396.41006  0.035597168  0.035932885            3 
  929000    1.0797207   -6.7352261    396.19587  0.035539637  0.035925294            2 
  930000    1.0830953   -6.7381629    395.90818  0.035475643  0.035917707            3 
  931000    1.1357534   -6.7017096    397.76061  0.035603349  0.035910223            4 
  932000    1.1274451   -6.7373895    397.20378   0.03551536  0.035902838            2 
  933000    1.1060908   -6.7463766     398.1257  0.035559638  0.035895285            4 
  934000    1.1262251     -6.71532    398.43156  0.035548854  0.035887968            4 
  935000    1.1040655   -6.7489195    398.53791  0.035520313  0.035880617            6 
  936000    1.0681666   -6.7673689    398.95087   0.03551913   0.03587327            2 
  937000    1.0960445   -6.7491047     399.2493  0.035507764  0.035866117            3 
  938000    1.0894548   -6.7197073    400.07237  0.035543032  0.035858617            2 
  939000    1.0977776   -6.7276491    399.12927  0.035421483  0.035851122            2 
  940000    1.1194856   -6.7070205    400.80907  0.035532719  0.035843592            2 
  941000    1.1098869   -6.7558314    399.42373  0.035372275  0.035836027            2 
  942000    1.0891448   -6.7353925    400.31027  0.035413152  0.035828398            1 
  943000    1.1043563   -6.7494718    400.41245  0.035384628  0.035820532            2 
  944000    1.1094058   -6.6851162     403.4864  0.035618503   0.03581308            1 
  945000    1.0683711   -6.6850068    402.92038  0.035530898   0.03580584            2 
  946000    1.0821256   -6.6742332    403.01867  0.035501997  0.035798709            4 
  947000     1.125464   -6.7210493    402.44903  0.035414381  0.035791398            2 
  948000    1.1087323   -6.7463739    403.65023  0.035482615  0.035783755            5 
  949000    1.0930625   -6.7495292    401.85722  0.035287778  0.035775841            2 
  950000    1.1210065   -6.7204898     403.6951  0.035411851  0.035768152            3 
  951000    1.0890385   -6.7479358    403.97776  0.035399383  0.035760628            2 
  952000    1.0919943   -6.7338949    403.03611  0.035279772  0.035752926            3 
  953000     1.113096   -6.7186679    403.46581  0.035280326  0.035745089            2 
  954000      1.12405   -6.7071615     405.5139  0.035422249  0.035737427            2 
  955000    1.0928162   -6.7689751    404.79487  0.035322414  0.035730126            3 
  956000    1.0793934   -6.7138699    405.57865  0.035353788  0.035722745            2 
  957000    1.1002622   -6.7159812    406.23391  0.035373903  0.035715471            3 
  958000    1.1004798   -6.7758268    406.26564  0.035339739   0.03570799            2 
  959000    1.0977213   -6.7683638    406.57816  0.035330046  0.035700812            7 
  960000    1.0840804   -6.7477923    408.26831  0.035439958  0.035693659            7 
  961000    1.1276931   -6.7434569    408.16327  0.035393971  0.035686627            3 
  962000    1.1118201   -6.7350367    407.23862  0.035277081  0.035679309            2 
  963000     1.129699   -6.7324225    409.88315  0.035469293  0.035671904            1 
  964000    1.1001774   -6.7242252    408.88736  0.035346418  0.035664777            3 
  965000    1.0940048   -6.7377149    409.24129  0.035340353  0.035657431            3 
  966000    1.0974769   -6.7319583    409.76665   0.03534909  0.035650099            2 
  967000    1.0998077   -6.8065162    408.71484  0.035221892  0.035642666            1 
  968000    1.1073361   -6.7810434    409.63974  0.035265129  0.035635469            4 
  969000     1.106795   -6.7534477    410.30293   0.03528577  0.035628149            1 
  970000    1.0919764   -6.7481988    410.85485  0.035296808  0.035620463            6 
  971000    1.0966423   -6.7417519    410.62117  0.035240403  0.035612994            3 
  972000     1.109717   -6.7725913     410.8565  0.035224322   0.03560544            2 
  973000    1.0673904    -6.784136    409.59533  0.035080107   0.03559792            4 
  974000     1.111332   -6.7216965    412.01845  0.035251407  0.035590378            4 
  975000    1.1009132   -6.7169664    412.07083  0.035219729  0.035582803            3 
  976000    1.0855327   -6.7113962    412.95204  0.035258883  0.035575586            2 
  977000    1.0945917   -6.7388164    412.53582  0.035187293  0.035568248            3 
  978000    1.1067724   -6.7838616    411.93956  0.035100507  0.035560887            4 
  979000    1.0825002   -6.7797459    413.51853  0.035199057  0.035553266            3 
  980000    1.1087832   -6.7012072    414.37925  0.035236331  0.035545794            2 
  981000    1.0906214   -6.7514784    414.25922  0.035190216  0.035538399            4 
  982000    1.1107752   -6.7939471    413.93375  0.035126761  0.035531056            4 
  983000    1.1047867   -6.7621345    415.40228   0.03521552  0.035523627            2 
  984000    1.1138024    -6.768801    416.04557  0.035234212  0.035516282            4 
  985000    1.0803629   -6.7585635    415.35975  0.035140419  0.035508791            3 
  986000    1.1184861   -6.7464117    417.09789  0.035251681  0.035501457            2 
  987000    1.0784207   -6.7686939    416.95364  0.035203786  0.035494477            3 
  988000    1.0821509   -6.7833753    416.53312  0.035132686  0.035487771            3 
  989000    1.0802828   -6.7972506    416.48625  0.035093213  0.035480589            5 
  990000    1.0966343   -6.7410205    418.30308  0.035210697  0.035473409            3 
  991000    1.0771614   -6.7296152    419.52574   0.03527798  0.035466383            3 
  992000    1.0987836   -6.7510728    417.31631  0.035056814  0.035459306            2 
  993000    1.0960177   -6.7823625    418.64134  0.035132707   0.03545227            3 
  994000    1.0942485    -6.754748    419.07823   0.03513399    0.0354451            3 
  995000     1.092624   -6.7583914    418.56075  0.035055339    0.0354378            2 
  996000    1.0788612   -6.7677368    419.58126  0.035105527  0.035430431            7 
  997000    1.0918916   -6.7544033    419.50245  0.035063729  0.035423196            2 
  998000    1.1107525   -6.7675078    420.74981   0.03513275   0.03541589            3 
  999000    1.0972736   -6.7905772    420.01446  0.035036241  0.035408459            2 
 1000000    1.0864363   -6.7663386    421.50262  0.035125219  0.035401167            2 
 1001000    1.0704748   -6.7403278    421.83475  0.035117778  0.035393957            2 
 1002000    1.1076229   -6.7531748    422.07946  0.035103082  0.035387008            4 
 1003000    1.1018293   -6.7516021    422.00627  0.035062003   0.03538003            2 
 1004000    1.0915074   -6.7438248       422.94  0.035104582  0.035373164            2 
 1005000    1.1203288    -6.774683    423.24604  0.035095028  0.035366299            2 
 1006000    1.0935177   -6.7520321    424.46201  0.035160869  0.035359639            1 
 1007000    1.1216016    -6.741631    425.36071  0.035200323  0.035353109            1 
 1008000    1.0985535   -6.7274879    425.16508   0.03514923  0.035346569            1 
 1009000    1.0970453    -6.788746    424.81574  0.035085542  0.035339846            3 
 1010000    1.0727324   -6.7611704    424.63444  0.035035845  0.035333072            5 
 1011000    1.1126316   -6.7822753     424.1636   0.03496238   0.03532609            1 
 1012000    1.0765358   -6.7466254    426.14505  0.035090995  0.035319278            2 
 1013000    1.0923257   -6.7525993    427.09727  0.035134688  0.035312472            2 
 1014000    1.0909222   -6.7485439    426.56341  0.035056164  0.035305441            2 
 1015000    1.0848617   -6.7571224    426.99421  0.035056996  0.035298469            2 
 1016000    1.0821025   -6.7641676     427.8126  0.035089616  0.035291483            1 
 1017000    1.1018634    -6.790582    427.26258  0.035010044  0.035284529            2 
 1018000    1.0837054   -6.7372656     427.6241  0.035005247  0.035277511            2 
 1019000    1.0945624   -6.7641183    428.01554  0.035002906  0.035270486            4 
 1020000    1.1010185   -6.7393431    429.91516  0.035123788  0.035263556            7 
 1021000    1.0916136     -6.75917     429.4312  0.035049886  0.035256699            3 
 1022000    1.0825945   -6.7713167    429.06699  0.034985893  0.035249861            2 
 1023000    1.0861762   -6.7565485    428.39417  0.034896886  0.035243009            3 
 1024000    1.0840271   -6.7667839    429.73589  0.034971996  0.035236295            2 
 1025000    1.0738457   -6.7515996    429.69267  0.034934363  0.035229401            1 
 1026000    1.0739343   -6.7615178    430.27436   0.03494756  0.035222386            2 
 1027000    1.1022254    -6.769601    432.05017  0.035057625  0.035215591            3 
 1028000    1.1002436   -6.7274246    431.68641  0.034994035  0.035208788            2 
 1029000     1.096112   -6.7737514    431.35912  0.034933521  0.035201831            1 
 1030000    1.0985751   -6.7580847    432.89018  0.035023477  0.035194724            3 
 1031000    1.0862131    -6.787274    431.96437  0.034914676  0.035187727            1 
 1032000    1.0824224   -6.7683106    432.05148  0.034887878  0.035180665            4 
 1033000    1.0861925   -6.7776573    432.12107  0.034859718  0.035173398            2 
 1034000    1.0781643   -6.7620985    432.33623  0.034843345  0.035166311            2 
 1035000    1.0805992   -6.7737502    432.16297   0.03479573  0.035159295            2 
 1036000    1.0909411   -6.7415124    434.38443  0.034940833   0.03515204            4 
 1037000    1.1142918   -6.7882264    432.44913  0.034751618  0.035145056            2 
 1038000    1.1027532   -6.7537703    435.01885  0.034924442   0.03513791            3 
 1039000    1.0579956    -6.791453    433.51904  0.034770535  0.035130697            3 
 1040000    1.1029839   -6.7694842    433.70747  0.034752201  0.035123453            1 
 1041000    1.0861192   -6.7854703    433.70045  0.034718256  0.035115955            2 
 1042000    1.1083002   -6.7937495    434.27178  0.034730629  0.035108504            2 
 1043000    1.0737552   -6.7759243    434.59191  0.034722907  0.035101144            2 
 1044000    1.0913926   -6.7414905    435.51971  0.034763706  0.035093608            2 
 1045000    1.0942135   -6.7757049     435.3101  0.034713724  0.035086249            4 
 1046000    1.0861914   -6.7826367    436.39822  0.034767226  0.035078805            2 
 1047000    1.0656137   -6.7850811    435.78904  0.034685533  0.035071106            3 
 1048000    1.0829258   -6.7579926    437.45834  0.034785173  0.035063522            1 
 1049000    1.0885141   -6.7757563    436.58178  0.034682378  0.035056239            2 
 1050000    1.0744267   -6.7691024    438.44641  0.034797334  0.035048745            3 
 1051000    1.0782154   -6.7780741    438.51853  0.034769944  0.035041115            2 
 1052000    1.0866963   -6.8163244    436.76677  0.034598128   0.03503367            4 
 1053000    1.0852735   -6.7638747    436.91524  0.034577021  0.035025908            1 
 1054000    1.0900288   -6.7976827    437.70276   0.03460648  0.035017948            7 
 1055000    1.0760357   -6.7980108    437.47895  0.034555999   0.03501002            4 
 1056000    1.0883955    -6.812699    437.27222  0.034506961  0.035001708            3 
 1057000    1.0730485   -6.7803175    438.56494  0.034576233  0.034993757            4 
 1058000    1.0630677   -6.8065183    439.15855  0.034590308  0.034985642            3 
 1059000    1.0835027   -6.7673632    439.59094   0.03459167  0.034977853            5 
 1060000    1.1003959   -6.8190334    439.89196  0.034582701  0.034970107            2 
 1061000    1.0931337   -6.7719969    441.21684  0.034654166  0.034962415            7 
 1062000    1.0834378   -6.8014711     441.4761  0.034641879  0.034954978            4 
 1063000    1.0718042   -6.7633764    442.08749  0.034657219  0.034947387            3 
 1064000    1.1024276   -6.7558168    441.11014    0.0345481  0.034939981            2 
 1065000    1.0994441   -6.8183467    441.94205  0.034580755  0.034932491            2 
 1066000    1.0969474   -6.7640092    443.10348  0.034639109  0.034925044            3 
 1067000    1.0787072   -6.7289174    442.25727  0.034540555  0.034917742            2 
 1068000     1.076237   -6.7246709    443.09746  0.034573771  0.034910452            2 
 1069000     1.055942   -6.7801671    442.47165  0.034492645  0.034903119            3 
 1070000    1.0950774   -6.7599768    442.58641  0.034469347  0.034895433            2 
 1071000    1.1185596   -6.7469421    444.99169  0.034624315  0.034888131            3 
 1072000    1.1016267   -6.7959543    443.74461  0.034495072  0.034880533            6 
 1073000    1.0764885     -6.83194    443.20539  0.034421046  0.034872664            4 
 1074000    1.0680595   -6.7664681    444.75218  0.034509014  0.034864914            4 
 1075000    1.0727839   -6.7955202    443.57939  0.034385999  0.034856906            4 
 1076000    1.0576581   -6.8177068    443.17836  0.034322983  0.034848951            3 
 1077000    1.0646191   -6.7892032    446.05074  0.034513366  0.034840951            2 
 1078000    1.0651731   -6.7586629    444.66556   0.03437427  0.034833157            1 
 1079000    1.0871488   -6.8274919     444.8051   0.03435319  0.034825492            2 
 1080000    1.0909708   -6.7608565    446.17418   0.03442702  0.034817398            2 
 1081000    1.0879386   -6.7540185    447.55147  0.034501347  0.034809499            1 
 1082000    1.0889558   -6.7972267    446.00328  0.034350222  0.034801626            2 
 1083000    1.0696273   -6.7721411    446.08627   0.03432489  0.034793652            6 
 1084000    1.0994036   -6.7969257     446.5353  0.034327744  0.034785767            2 
 1085000    1.1028592   -6.7561693    448.46669  0.034444446  0.034777927            3 
 1086000    1.0986832   -6.7916468    448.81075   0.03443913  0.034770216            3 
 1087000    1.0764532   -6.7800373     448.2368  0.034363447  0.034762166            3 
 1088000    1.0625564   -6.7814241    447.65743  0.034287487  0.034754206            4 
 1089000    1.0644188   -6.7516355    448.88697  0.034350089  0.034746326            2 
 1090000    1.0697077   -6.8080307    449.04571  0.034330712    0.0347384            3 
 1091000     1.077886   -6.7493364    450.11279  0.034380751  0.034730642            6 
 1092000    1.0767881   -6.7828491    449.57482  0.034308213  0.034722846            2 
 1093000    1.0878754   -6.7704025    450.72697  0.034364667  0.034715009            1 
 1094000    1.1003683   -6.8021577    450.40333  0.034308602  0.034707048            5 
 1095000     1.092212   -6.8257545    449.92897   0.03424117  0.034699238            2 
 1096000    1.0524242   -6.7970593    451.71072  0.034345401  0.034691196            2 
 1097000    1.0720667   -6.8164209    449.48362  0.034144912  0.034683181            4 
 1098000    1.0862611    -6.792156    451.45743  0.034263618  0.034674819            2 
 1099000    1.0718878   -6.7799004    451.18486  0.034211773  0.034666744            4 
 1100000    1.0940564   -6.7744706    453.02375  0.034319981  0.034658709            3 
 1101000    1.0455022   -6.8069719    451.81657   0.03419744  0.034650544            4 
 1102000    1.0727437   -6.7953061    452.54667  0.034221617  0.034642239            3 
 1103000    1.0601589   -6.8083773    451.67635  0.034124837  0.034634015            4 
 1104000    1.0711373   -6.8074666    452.05869  0.034122788  0.034625732            5 
 1105000    1.0772267   -6.8349221    452.65623  0.034136971  0.034617529            3 
 1106000    1.0445259   -6.8021291    453.93254  0.034202271  0.034609309            1 
 1107000    1.0876702   -6.7813589    454.21838  0.034192892  0.034601236            2 
 1108000    1.0561768   -6.8057001    454.99168  0.034220193   0.03459297            5 
 1109000    1.0860489   -6.7778965    454.11108  0.034123165  0.034584482            5 
 1110000    1.0621216    -6.794809    453.47793   0.03404489  0.034576157            2 
 1111000     1.067831   -6.8117781    454.51033  0.034091684  0.034567658            3 
 1112000    1.0682624   -6.8217131    453.88175   0.03401392  0.034559135            4 
 1113000    1.0738749   -6.8013167    454.05511   0.03399634  0.034550457            5 
 1114000    1.0777238   -6.7964776    453.58191  0.033930424  0.034541449            3 
 1115000    1.0716132   -6.7852536    454.91132  0.033999351  0.034532568            3 
 1116000    1.0649263   -6.7625161    456.05796  0.034054507  0.034523605            3 
 1117000    1.0507185   -6.7751418    455.09126    0.0339519  0.034514968            1 
 1118000    1.0766462   -6.7923705    456.89005  0.034055609  0.034506215            5 
 1119000    1.0624272   -6.7983578    456.08891  0.033965513  0.034497461            2 
 1120000    1.0899065   -6.8200395    456.19955  0.033943419  0.034488828            2 
 1121000    1.0809134   -6.8110976    456.63725  0.033945677  0.034480127            6 
 1122000    1.0801504   -6.8066178    457.76215  0.033998971  0.034471473            3 
 1123000    1.0619752   -6.8185977    456.79433  0.033896878  0.034462872            2 
 1124000    1.1012638   -6.8166283    456.57213  0.033850247  0.034454252            3 
 1125000    1.0727305   -6.7735911    459.00345  0.034000255  0.034445306            2 
 1126000    1.0847209   -6.7480425    459.52058  0.034008332  0.034436708            3 
 1127000    1.0725977   -6.7725702    458.89816  0.033932133  0.034428035            2 
 1128000     1.073149   -6.7945532    457.60557  0.033806558  0.034419297            2 
 1129000    1.0797417   -6.8084101    459.62086  0.033925366  0.034410603            5 
 1130000     1.062531   -6.8030377    459.09706  0.033856715  0.034401866            5 
 1131000     1.048903   -6.7765649    460.87111  0.033957494  0.034393054            2 
 1132000    1.0692609   -6.7786309    460.21244  0.033879008  0.034384261            3 
 1133000    1.0582893   -6.7657839    458.85649  0.033749374  0.034375392            4 
 1134000    1.0478375    -6.800163    459.44093  0.033762561  0.034366427            5 
 1135000    1.0595662   -6.7778414    460.44966  0.033806876  0.034357505            3 
 1136000    1.0781635   -6.8247204    461.77176  0.033874102  0.034348636            3 
 1137000    1.0674749   -6.7627312      461.283  0.033808487  0.034339588            2 
 1138000    1.0373881   -6.8297607    460.46827  0.033719117  0.034330564            1 
 1139000    1.0815687   -6.8541661    460.62029  0.033700636  0.034321392            5 
 1140000    1.0595957   -6.8100621    462.17059    0.0337844  0.034312373            1 
 1141000    1.0831965    -6.775912    462.72072  0.033794969  0.034303562            2 
 1142000    1.0980368   -6.8084642    461.83587  0.033700808  0.034294626            2 
 1143000    1.0611204   -6.8102005    463.88748  0.033820901  0.034285679            2 
 1144000    1.0686188   -6.8284507    462.53401  0.033692746   0.03427661            1 
 1145000    1.0754885   -6.8248225    463.55723   0.03373779  0.034267805            5 
 1146000        1.048   -6.8392463    463.36114  0.033694091  0.034258924            3 
 1147000    1.0588319   -6.8167074    463.34054  0.033663218  0.034250004            2 
 1148000    1.0537898   -6.7734982    465.54062  0.033793599  0.034241358            1 
 1149000    1.0728222   -6.8246961    463.49131  0.033615558  0.034232505            5 
 1150000    1.0720693   -6.8277618    464.56912  0.033664429  0.034223663            3 
 1151000    1.0422265   -6.8439048    463.93276  0.033589108  0.034214843            1 
 1152000    1.0434226   -6.7908037    466.85508  0.033771346  0.034206199            5 
 1153000    1.0486338   -6.8277701    466.14739  0.033690907  0.034197382            3 
 1154000    1.0591887   -6.8001036    465.72225  0.033631012  0.034188713            4 
 1155000    1.0769549     -6.80763    466.22919   0.03363847  0.034180113            1 
 1156000    1.0445282   -6.8053796    466.98561  0.033663899  0.034171345            3 
 1157000    1.0557426   -6.8084846    467.79345  0.033692988  0.034162854            2 
 1158000    1.0728974   -6.7979847    467.30996  0.033629099  0.034153905            2 
 1159000    1.0531236   -6.7799958     467.7152  0.033629221  0.034145165            2 
 1160000    1.0437658   -6.7844562    469.07021  0.033697572  0.034136494            6 
 1161000    1.0520424   -6.8123877    468.58918  0.033634021  0.034127589            2 
 1162000    1.0578185   -6.8419927    467.62639  0.033536029  0.034118868            4 
 1163000    1.0651607   -6.8114285    469.78842  0.033662111  0.034110325            3 
 1164000    1.0774775   -6.7901546    469.07967  0.033582451  0.034101784            3 
 1165000     1.082181   -6.8439528    469.91225   0.03361318  0.034093133            3 
 1166000    1.0882914   -6.8095416     469.0133  0.033520104  0.034084394            2 
 1167000    1.0941761   -6.8309839     470.1764  0.033574436  0.034075638            2 
 1168000    1.0685743   -6.8232661    470.01789  0.033534381  0.034066862            5 
 1169000    1.0811139   -6.8075968    471.64179  0.033621456  0.034058362            3 
 1170000    1.0652637   -6.7817682    473.65685  0.033736243  0.034049955            3 
 1171000    1.0704347   -6.7905108    472.04082  0.033592429   0.03404149            2 
 1172000    1.0619243   -6.8224297    471.80218  0.033546799  0.034033087            3 
 1173000    1.0577175   -6.8076611    471.82095  0.033519533  0.034024465            2 
 1174000    1.0443671   -6.8249066    471.37564  0.033459372  0.034015722            3 
 1175000    1.0570757   -6.8053461    472.57691  0.033516093  0.034007062            3 
 1176000    1.0461209   -6.7797254    473.16309   0.03352913  0.033998494            5 
 1177000    1.0632108   -6.8550683    471.77553  0.033402403  0.033989599            3 
 1178000    1.0657013   -6.8176621    473.03679   0.03346327  0.033980868            2 
 1179000    1.0414854   -6.7837496    473.90593  0.033496319  0.033971988            2 
 1180000    1.0770457   -6.7975833    472.83204  0.033392093   0.03396316            4 
 1181000    1.0741393   -6.8373319    472.77631  0.033359886  0.033954233            2 
 1182000    1.0588088   -6.8178164    474.21831  0.033433327  0.033945038            2 
 1183000    1.0467809   -6.7855296    474.26151  0.033408109  0.033936203            2 
 1184000     1.073216   -6.8281469    475.84635  0.033491438  0.033927486            4 
 1185000    1.0672802   -6.7815655    475.89898  0.033466876  0.033918719            4 
 1186000    1.0553698   -6.8243702    474.83338  0.033363784  0.033909966            3 
 1187000    1.0785208   -6.8441261    476.65346  0.033463456  0.033901313            2 
 1188000    1.0710077   -6.7917583    475.70513  0.033368766  0.033892697            3 
 1189000    1.0797464   -6.7919409    477.28108  0.033451155  0.033884004            3 
 1190000    1.0580675   -6.7932062    475.44312  0.033294336   0.03387525            1 
 1191000     1.058814   -6.8375313    474.91046  0.033229111  0.033866276            3 
 1192000    1.0648272   -6.7962709    475.14749  0.033217806  0.033857164            1 
 1193000    1.0488458   -6.8199208    476.27902  0.033269001  0.033848161            1 
 1194000     1.065971   -6.8239676    476.69311  0.033270038  0.033839147            2 
 1195000    1.0876035   -6.8061139    476.16176  0.033205143  0.033829995            6 
 1196000    1.0528897   -6.8145716    477.52231  0.033272179  0.033820925            3 
 1197000    1.0663164   -6.8548355     477.5122  0.033243679  0.033811838            3 
 1198000    1.0273015   -6.8436975    476.93484  0.033175768  0.033802689            3 
 1199000    1.0694416   -6.8086723    478.93148  0.033286869  0.033793835            3 
 1200000    1.0537265   -6.8570862    477.24857  0.033142262  0.033784899            2 
 1201000    1.0799585    -6.824107    479.70709  0.033285254   0.03377604            2 
 1202000    1.0905087   -6.8337489    478.78458  0.033193606  0.033767117            2 
 1203000    1.0923698   -6.8422179     479.8617  0.033240628  0.033758417            3 
 1204000    1.0753301   -6.8003149    480.81019  0.033278667  0.033749548            3 
 1205000    1.0456203       -6.764    482.19087  0.033346533  0.033740886            1 
 1206000    1.0712786   -6.8234816     481.0706  0.033241473  0.033732233            4 
 1207000    1.0652428   -6.8527732    479.22268  0.033086349  0.033723305            5 
 1208000    1.0479212   -6.8201704     482.8631  0.033310093  0.033714474            1 
 1209000    1.0607383   -6.8522381      481.288  0.033173973   0.03370578            2 
 1210000    1.0563546   -6.8670452    481.90262  0.033188886  0.033697042           11 
 1211000    1.0621551   -6.7975562    482.73604   0.03321883  0.033688195            1 
 1212000     1.064884   -6.7986658    483.13028  0.033218529  0.033679609            3 
 1213000    1.0508324   -6.8572886    482.62955  0.033156743  0.033671051           13 
 1214000    1.0595455   -6.8092606    484.11176  0.033231175  0.033662346            2 
 1215000     1.042142   -6.8127976    483.85269  0.033186055  0.033653651            6 
 1216000    1.0508122   -6.8032181    484.40525  0.033196632  0.033645139            3 
 1217000    1.0500375   -6.8516647    483.64134  0.033117046  0.033636431            3 
 1218000    1.0639789   -6.8400881    484.70125  0.033162374  0.033627636            2 
 1219000    1.0698989   -6.8352782    485.30633  0.033176533  0.033619002            3 
 1220000    1.0512585   -6.8179547    486.02336  0.033198317  0.033610248            2 
 1221000    1.0429454   -6.8159451    486.85662  0.033227997  0.033601766            3 
 1222000    1.0376982     -6.87944    485.61852  0.033116375  0.033593115            2 
 1223000    1.0525019   -6.8394268    486.80721  0.033170292  0.033584683            3 
 1224000    1.0235106   -6.7958315    487.45366  0.033187204  0.033576293            3 
 1225000     1.057463   -6.8000846    488.32628  0.033219475  0.033567915            2 
 1226000    1.0476831   -6.8217992    487.60838  0.033143582  0.033559779            3 
 1227000    1.0618703   -6.8629873    487.75288  0.033126384  0.033551379            2 
 1228000    1.0740008   -6.8363565    489.59081  0.033224132  0.033543165            2 
 1229000    1.0425221   -6.8393812     489.3393  0.033180045  0.033535035            4 
 1230000    1.0368215   -6.8326038    490.08062  0.033203294  0.033527151            5 
 1231000    1.0586429   -6.8436048     489.8425  0.033160201  0.033519284            3 
 1232000    1.0296649   -6.8688861    489.49085    0.0331095  0.033511215            2 
 1233000     1.048711   -6.8342447    490.74926  0.033167698  0.033503322            2 
 1234000    1.0390881   -6.8641866    491.27336  0.033176213  0.033495392            3 
 1235000    1.0392899   -6.8315755    491.43398  0.033160188  0.033487377            1 
 1236000    1.0652251   -6.7684665      492.193  0.033184533  0.033479214            2 
 1237000    1.0514476   -6.8437751    490.39618   0.03303666  0.033471118            2 
 1238000    1.0515539   -6.8400288    491.95781  0.033115092  0.033462993            3 
 1239000    1.0603699   -6.8393485    493.51502  0.033193101  0.033454999            4 
 1240000    1.0575114   -6.8738992    491.17733  0.033009229  0.033446796            2 
 1241000    1.0405556   -6.8233268    492.12109  0.033046004  0.033438755            2 
 1242000    1.0617109   -6.8462375    493.26322  0.033096029  0.033430675            1 
 1243000     1.052143   -6.8436797    493.37713   0.03307704  0.033422638            2 
 1244000    1.0451187   -6.8603601    494.19884  0.033105496  0.033414564            4 
 1245000    1.0400529   -6.8248497    494.08942  0.033071581  0.033406314            5 
 1246000    1.0632607   -6.8372194    494.37466  0.033064116  0.033398368            3 
 1247000    1.0407805   -6.8333594     494.8277  0.033067876  0.033390522            3 
 1248000    1.0624829   -6.8225681    495.76496  0.033103964  0.033382661            1 
 1249000    1.0524322   -6.8621353    495.71698  0.033074258  0.033374792            3 
 1250000    1.0378574   -6.8518888    494.61684  0.032974456  0.033366677            2 
 1251000    1.0301802    -6.844464    496.19202  0.033053026  0.033358572            2 
 1252000    1.0420884   -6.8889027    494.94681  0.032943744   0.03335039            2 
 1253000     1.049492   -6.8087752     496.2027  0.033000977  0.033342322            4 
 1254000    1.0611967   -6.8439644    495.19985  0.032908018  0.033334559            2 
 1255000    1.0455838   -6.8337233    497.23403  0.033016868  0.033326571            2 
 1256000    1.0604448   -6.8670268    496.16305  0.032919523  0.033318536            4 
 1257000    1.0630954   -6.8383296    497.07263  0.032953635  0.033310597            3 
 1258000    1.0487497   -6.8551628    497.75387  0.032972567  0.033302477            2 
 1259000    1.0518978   -6.8312547    498.34868  0.032985748  0.033294328            4 
 1260000    1.0499551    -6.830404    498.79601  0.032989154   0.03328624            2 
 1261000     1.032982    -6.852598    499.74264  0.033025551  0.033278161            3 
 1262000    1.0685821   -6.8339399    498.11574  0.032891954  0.033270172            3 
 1263000    1.0565313   -6.8074842    499.34084  0.032946743  0.033262303            5 
 1264000    1.0635854   -6.8525772    500.29967  0.032983892   0.03325464            5 
 1265000    1.0431579    -6.846162    499.33878  0.032894518  0.033246618            2 
 1266000    1.0538585   -6.8716559    498.41763  0.032807901  0.033238751            1 
 1267000    1.0662466   -6.8447478     500.2501  0.032902533  0.033230954            5 
 1268000    1.0292573     -6.86404    500.17708  0.032871785  0.033222926            3 
 1269000    1.0328841   -6.8404258    499.18318  0.032780613  0.033214856            1 
 1270000    1.0684205    -6.791837    500.31105  0.032828809  0.033206769            2 
 1271000    1.0496058   -6.8568938    501.10734  0.032855189  0.033198509            3 
 1272000    1.0612988   -6.8042188    501.25182  0.032838824  0.033190403            3 
 1273000    1.0311744   -6.8374031    502.31641  0.032882718  0.033182401            3 
 1274000    1.0326721   -6.8782138    499.83345  0.032694496  0.033174273            3 
 1275000     1.057915   -6.8555752    502.20273  0.032823708  0.033166141            3 
 1276000    1.0521605   -6.8418743    504.01351  0.032916243  0.033158034            1 
 1277000    1.0366968   -6.8263286    502.48681  0.032790838  0.033150029            4 
 1278000    1.0380882   -6.8596994    504.13414  0.032872596  0.033141916            3 
 1279000    1.0517885   -6.8640879    503.80746   0.03282561  0.033133865            2 
 1280000    1.0393583    -6.880724    504.08282  0.032817892  0.033126107            4 
 1281000    1.0719908   -6.8491907    505.28696  0.032870606  0.033118125            4 
 1282000    1.0195244   -6.8602138    504.79775  0.032813166  0.033110137            2 
 1283000    1.0595719   -6.8263314    505.52356  0.032834734  0.033102324            3 
 1284000    1.0546304   -6.8417176    504.46776  0.032740639  0.033094452            5 
 1285000    1.0458702   -6.8387789    505.17884  0.032761274  0.033086611            1 
 1286000    1.0505575   -6.8483091    505.94583    0.0327855  0.033078787            2 
 1287000    1.0451193   -6.8660603    505.27251  0.032716428  0.033071005            3 
 1288000    1.0547483   -6.8447161    506.58857  0.032776175  0.033063108            6 
 1289000    1.0520333   -6.8927743    507.64263  0.032818892  0.033055215            5 
 1290000    1.0362167   -6.8641153    506.51295  0.032720475  0.033047318            4 
 1291000    1.0524404   -6.8554089    507.23646  0.032741832  0.033039519            2 
 1292000     1.030153   -6.8235184    507.77157  0.032751004   0.03303175            4 
 1293000    1.0388875   -6.8495293    507.80343  0.032727728  0.033024026            3 
 1294000    1.0276384   -6.8524646    509.61219   0.03281892  0.033016322            2 
 1295000    1.0251371   -6.8285993    509.30127   0.03277357  0.033008504            2 
 1296000    1.0437906   -6.8772066    508.68126  0.032708414  0.033000643            5 
 1297000    1.0597063   -6.8790821    508.99222  0.032703175   0.03299276            2 
 1298000    1.0665309   -6.8439152    509.85513   0.03273338  0.032984869            2 
 1299000    1.0403545   -6.8988324    509.35451  0.032676066   0.03297689            6 
 1300000    1.0393954   -6.8728868    511.64125  0.032797516  0.032969223            8 
 1301000    1.0495883    -6.820734    510.49169  0.032698673  0.032961476            2 
 1302000    1.0595655   -6.8329758    511.72322  0.032752383  0.032953783            4 
 1303000    1.0284124   -6.8532606    510.78325   0.03266713  0.032945857            4 
 1304000    1.0387036   -6.8235271    510.91204   0.03265031  0.032938111            2 
 1305000    1.0720595   -6.8281363    511.30938  0.032650663   0.03293039            3 
 1306000    1.0507807   -6.8557415    509.73515  0.032525214  0.032922563            3 
 1307000    1.0317434    -6.838547    512.81192  0.032696501  0.032914594            2 
 1308000    1.0367341   -6.8802978     512.5037  0.032651866  0.032906809            2 
 1309000    1.0566452   -6.8363655    512.51536  0.032627665  0.032898902            2 
 1310000     1.047509   -6.8283772    512.50624  0.032602178  0.032891117            3 
 1311000    1.0557843   -6.8826308     511.8903  0.032538158  0.032883026            4 
 1312000     1.039157    -6.879458    511.40592  0.032482591  0.032874859            3 
 1313000    1.0268802    -6.878444    511.91286  0.032490026  0.032866713            3 
 1314000    1.0169308   -6.9141615    512.48095  0.032501329  0.032858493            2 
 1315000    1.0462629   -6.8791636    512.41667  0.032472539  0.032850437            2 
 1316000    1.0280305    -6.850295    514.69559  0.032592172  0.032842276            2 
 1317000    1.0355694   -6.8974159     511.9326  0.032392597  0.032834232            3 
 1318000    1.0435352   -6.8451951    515.93471  0.032621062  0.032826078            4 
 1319000    1.0271815   -6.8919325     514.1681  0.032484717  0.032818054            2 
 1320000    1.0488177   -6.8496919    515.57755  0.032549088  0.032810032            1 
 1321000    1.0415029   -6.8914957    514.59118  0.032462224   0.03280198            2 
 1322000     1.065993   -6.8531717    515.93855  0.032522602  0.032793945            3 
 1323000    1.0202216   -6.8180642    516.56537  0.032537501  0.032785986            3 
 1324000    1.0417318    -6.857622    516.85298  0.032531028  0.032778056            4 
 1325000    1.0259282   -6.8172999    518.20018  0.032591206  0.032770097            2 
 1326000    1.0387588     -6.91107    515.53969  0.032399427  0.032762301            2 
 1327000    1.0242278   -6.8629713    517.83148  0.032518933   0.03275426            2 
 1328000    1.0456813   -6.8998393    518.38326   0.03252907  0.032746317            2 
 1329000    1.0225234   -6.8462143    518.93986  0.032539494  0.032738546            1 
 1330000    1.0347556   -6.8550662    517.83683  0.032445917  0.032730828            3 
 1331000    1.0426681   -6.8780542    519.32456  0.032514685  0.032723098            1 
 1332000    1.0635825   -6.8509184    519.51168  0.032501982  0.032715441            2 
 1333000    1.0265312   -6.8620041    519.60692  0.032483554  0.032707643            4 
 1334000    1.0420262   -6.8440011    520.99296  0.032545787  0.032699981            5 
 1335000    1.0295353   -6.8878554      521.425  0.032548377   0.03269236            2 
 1336000    1.0282157   -6.8882083    518.39956  0.032335302  0.032684485            2 
 1337000    1.0353971   -6.8384992     521.1342  0.032481563   0.03267669            5 
 1338000    1.0317126   -6.8754953    520.96087  0.032446492  0.032668859            2 
 1339000    1.0576525   -6.8935193    521.69279  0.032467811  0.032660977            2 
 1340000    1.0374758   -6.8745399    521.77275  0.032448554  0.032653067            3 
 1341000    1.0192254   -6.8843117    520.95636  0.032373624  0.032645277            2 
 1342000    1.0327545   -6.8648641    520.12399  0.032297814  0.032637463            8 
 1343000    1.0389577    -6.841149    521.57981  0.032364098  0.032629605            3 
 1344000    1.0389902   -6.8289121    522.86117  0.032419467   0.03262173            1 
 1345000    1.0552713    -6.846364    521.87998  0.032334571  0.032613797            2 
 1346000    1.0480668   -6.8562211    523.05919  0.032383556  0.032605919            3 
 1347000    1.0364747   -6.8401472    523.23204  0.032370208  0.032598051            3 
 1348000    1.0064686   -6.8772173    522.27298  0.032286905  0.032590124            4 
 1349000    1.0217447   -6.8902364    522.29583  0.032264383  0.032582254            3 
 1350000    1.0258645   -6.8631595    523.50828  0.032315326  0.032574119            4 
 1351000    1.0446587   -6.8459754    525.19987  0.032395748  0.032566274            2 
 1352000    1.0498323   -6.9022021    523.09896  0.032242293  0.032558522            2 
 1353000    1.0327513   -6.8563798    524.83829  0.032325591  0.032550774            4 
 1354000    1.0229067   -6.8779086    522.71378  0.032170961  0.032542827            3 
 1355000    1.0440276   -6.8664264    525.09057  0.032293393  0.032534924            1 
 1356000    1.0347317   -6.8926947    524.66705   0.03224355  0.032526978            2 
 1357000    1.0337787   -6.9015269    524.95761  0.032237633  0.032519163            2 
 1358000    1.0393348    -6.857739    525.36279  0.032238757  0.032511063            2 
 1359000    1.0279217   -6.8639684     525.7084  0.032236228  0.032503135            5 
 1360000    1.0124547   -6.8764818    527.12687   0.03229944  0.032495097            2 
 1361000    1.0180877   -6.8880179    524.68315  0.032126081  0.032487168            3 
 1362000     1.059925   -6.8386325     527.3247  0.032264115  0.032479164            2 
 1363000    1.0373697   -6.8932264    526.57046   0.03219433  0.032471244            2 
 1364000    1.0291286   -6.8642876    526.93096  0.032192752  0.032463429            3 
 1365000    1.0415703    -6.857958    527.53468  0.032206024  0.032455536            2 
 1366000    1.0377728    -6.855405    527.41998   0.03217545  0.032447721            4 
 1367000    1.0449769   -6.9176401    526.36586  0.032087653  0.032439804            2 
 1368000    1.0294457   -6.8770348     528.3179  0.032183108  0.032432011            3 
 1369000    1.0368787   -6.8750394    529.21552  0.032214239  0.032424135            2 
 1370000    1.0282082   -6.8705173    529.78663  0.032225464   0.03241628            1 
 1371000    1.0267105   -6.8597644    529.55826  0.032188078  0.032408567            6 
 1372000    1.0344721   -6.8704186    529.40586  0.032155361  0.032400705            3 
 1373000    1.0345267   -6.8742247     529.3742  0.032130019   0.03239281            4 
 1374000    1.0504135   -6.9107687    528.64241  0.032062252  0.032384765            3 
 1375000     1.032263   -6.9091512    530.77535  0.032168203  0.032376822            3 
 1376000    1.0325484   -6.8866355    530.62603  0.032135782  0.032368883            2 
 1377000    1.0452689   -6.8515095    530.01943  0.032075734  0.032360883            2 
 1378000    1.0375156    -6.866626    530.51429  0.032082383  0.032353031            3 
 1379000    1.0330253   -6.8780066    530.62894  0.032066047  0.032345065            4 
 1380000     1.034965   -6.8992454    530.70823  0.032047598  0.032337086            3 
 1381000     1.028556   -6.8356574    531.22851  0.032055787  0.032329009            2 
 1382000    1.0342802   -6.8726571    531.55397  0.032052217  0.032321221            3 
 1383000    1.0556257   -6.8768837      532.473  0.032084418  0.032313315            2 
 1384000    1.0224444   -6.8950288    532.43651  0.032059038  0.032305457            2 
 1385000     1.031536   -6.9083724     533.3652  0.032091769  0.032297652            2 
 1386000    1.0392543   -6.9027623    532.34054  0.032007007  0.032289835            1 
 1387000    1.0416037   -6.8796951    533.85884  0.032075152  0.032282021            3 
 1388000    1.0220313    -6.900753    532.30095   0.03195851  0.032274173            1 
 1389000    1.0413323   -6.9188023    534.12148  0.032044725  0.032266404            7 
 1390000    1.0340649   -6.8722007    535.39745  0.032098168  0.032258584            4 
 1391000    1.0353247     -6.87491    536.80784  0.032159588  0.032250776            2 
 1392000    1.0347989   -6.9257609    532.38716  0.031871836   0.03224285            5 
 1393000    1.0125396   -6.9036647     535.3317  0.032025107  0.032234918            2 
 1394000    1.0214133   -6.8780176     533.8627  0.031914317  0.032226957            5 
 1395000    1.0089325   -6.8960509      536.374  0.032041458  0.032219053            3 
 1396000    1.0159264   -6.8633001    534.65953  0.031916161   0.03221132            5 
 1397000   0.99922898    -6.880916    535.40352  0.031937695  0.032203612            3 
 1398000    1.0544562   -6.8607264    536.30223  0.031968421  0.032195871            2 
 1399000    1.0211311   -6.8652136     536.6724   0.03196762  0.032188165            5 
 1400000    1.0163493   -6.8878765    536.30882  0.031923144  0.032180456            2 
 1401000    1.0263981   -6.8692177    536.76616  0.031927561  0.032172899            7 
 1402000    1.0086605    -6.865829    537.16792  0.031928669  0.032165179            3 
 1403000    1.0220918   -6.9032028    537.78135  0.031942347  0.032157504            3 
 1404000    1.0357237   -6.8809037    537.73205   0.03191667   0.03214983            4 
 1405000    1.0276408    -6.896698    539.11708  0.031976102  0.032142186            2 
 1406000    1.0046437   -6.9140104    538.09638  0.031892863  0.032134532            4 
 1407000   0.99893145   -6.8969599    538.11162  0.031871098  0.032126696            5 
 1408000    1.0324804   -6.8756461    540.79731  0.032007417  0.032118954            5 
 1409000     1.049635   -6.8888889    540.71213  0.031979662  0.032111371            2 
 1410000    1.0254354   -6.9142663    541.01643  0.031974966  0.032103901            3 
 1411000    1.0041298   -6.9127931    539.31336  0.031851722  0.032096385            5 
 1412000    1.0282572   -6.9065805    540.23345  0.031883466   0.03208892            3 
 1413000    1.0145974    -6.914733     539.7112  0.031830101  0.032081293            5 
 1414000    1.0054103    -6.895576    541.30566   0.03190156  0.032073734            2 
 1415000    1.0101794   -6.9024905    540.23076   0.03181571  0.032066176            5 
 1416000   0.99884749    -6.843882    542.32954  0.031916757  0.032058601            2 
 1417000    1.0506184   -6.9227982    539.41113  0.031722602  0.032051037            3 
 1418000    1.0111563   -6.8795772    543.58586  0.031945572  0.032043543            2 
 1419000    1.0121436   -6.8318276    543.95639   0.03194482  0.032036298            2 
 1420000    1.0395901   -6.8405132    543.18016   0.03187677  0.032029071            2 
 1421000      1.03355   -6.8486956    544.76592  0.031947333  0.032021763            3 
 1422000    1.0145163   -6.8748913    543.05662  0.031824696  0.032014298            2 
 1423000    1.0317206   -6.8736105    541.89795  0.031734478  0.032006591            2 
 1424000    1.0270511   -6.9215998    543.74049   0.03182002  0.031999077            3 
 1425000    1.0212032   -6.9099913    543.22744  0.031767687  0.031991304            6 
 1426000    1.0167173   -6.8827821    544.59115  0.031825102  0.031983648            2 
 1427000    1.0099737   -6.8980779    545.51183  0.031856565  0.031976083            2 
 1428000    1.0265446   -6.9105623    544.67891  0.031785651  0.031968404            3 
 1429000    1.0368091   -6.9418152    543.11056  0.031671948  0.031960734            2 
 1430000    1.0249173   -6.8828731    544.39988  0.031724935  0.031952972            2 
 1431000    1.0363592   -6.8665586    544.54631  0.031711292  0.031945174            2 
 1432000    1.0072605   -6.9101688    545.79662  0.031761908  0.031937299            2 
 1433000    1.0182525   -6.8894182    545.47805  0.031721217  0.031929471            2 
 1434000    1.0209385   -6.8840753    545.51898  0.031701475  0.031921559            3 
 1435000    1.0400094   -6.8898588    545.90672    0.0317019  0.031913834            2 
 1436000    1.0339874   -6.8699774    546.07199  0.031689414  0.031906073            4 
 1437000       1.0452    -6.899595     548.1344  0.031786963   0.03189851            3 
 1438000    1.0249903   -6.8871549    546.52517  0.031671602  0.031890944            4 
 1439000    1.0081648   -6.9122961    546.65542  0.031657136  0.031883423            2 
 1440000    1.0148093   -6.8733141    547.39144  0.031677745   0.03187599            3 
 1441000    1.0197701   -6.8965543    547.66895  0.031671811  0.031868554            2 
 1442000    1.0142081   -6.9474815    547.83309  0.031659333  0.031861001            2 
 1443000    1.0223124   -6.9124016    548.60196  0.031681795  0.031853509            1 
 1444000    1.0110374   -6.8882022    549.78152  0.031727927  0.031845914            3 
 1445000    1.0302066     -6.89089    549.78611  0.031706235  0.031838483            3 
 1446000      1.01253   -6.8973835    549.65644  0.031676835  0.031830965            4 
 1447000    1.0127788   -6.9079467    549.14678  0.031625592  0.031823574            4 
 1448000    1.0234668     -6.89561    552.25746  0.031782773   0.03181624            2 
 1449000    1.0109247   -6.9189791    549.99664  0.031630817  0.031808836            3 
 1450000    1.0131151   -6.9381583    550.66815  0.031647595  0.031801333            2 
 1451000     1.031659   -6.9089502    551.19057  0.031655787  0.031794007            3 
 1452000    1.0169529   -6.8872866     551.7243  0.031664618   0.03178671            2 
 1453000     1.014248   -6.9066363      551.068  0.031605185    0.0317793            1 
 1454000    1.0195758   -6.8903875    552.69191   0.03167652  0.031771864            2 
 1455000    1.0071455   -6.8786706    552.50038  0.031643779  0.031764557            5 
 1456000    1.0135341   -6.9245189    551.61191  0.031571194  0.031757089            2 
 1457000   0.98832848   -6.8981871    551.70676  0.031554951  0.031749489            3 
 1458000    1.0201913   -6.9060591      551.762  0.031536466  0.031741973            2 
 1459000    1.0221623   -6.9085963     552.2143  0.031540684  0.031734322            2 
 1460000    1.0095863   -6.8980492    553.80826   0.03161006  0.031726754            5 
 1461000    1.0406075   -6.9056599     554.8662  0.031648768  0.031719376            6 
 1462000    1.0164731   -6.9338416    551.60023  0.031440961  0.031711753            2 
 1463000    1.0124661   -6.9321326    554.49913  0.031584594  0.031704122            3 
 1464000    1.0231142   -6.9236599    554.00129  0.031534682   0.03169649            2 
 1465000    1.0267764   -6.9100176    555.36214  0.031590565  0.031688907            3 
 1466000    1.0161423    -6.946589    553.41956  0.031458593  0.031681308            2 
 1467000    1.0258312   -6.9004999    554.76921  0.031513816  0.031673699            2 
 1468000    1.0254166   -6.8811148    557.42428  0.031643068  0.031666322            3 
 1469000    1.0324733   -6.8994492    554.68058  0.031465883  0.031658846            4 
 1470000     1.004661   -6.8491551    557.49684  0.031604129  0.031651322            3 
 1471000    1.0166783   -6.8948142    555.34055  0.031460489   0.03164369            3 
 1472000   0.99309732   -6.9179546    556.13132  0.031483884   0.03163599            5 
 1473000    1.0351087   -6.9170762    555.61795  0.031433466  0.031628326            4 
 1474000    1.0039022   -6.9291198    554.99329  0.031376826  0.031620652            4 
 1475000   0.99207395   -6.8899413    555.85492  0.031404233  0.031612952            4 
 1476000    1.0067643   -6.9116079    554.61276  0.031312825  0.031605231            2 
 1477000    1.0162539   -6.9480657    554.32042  0.031275131  0.031597513            6 
 1478000    1.0139536    -6.914119    556.65253  0.031385461  0.031589683            3 
 1479000    1.0151714   -6.8933166    557.01698  0.031384775  0.031581919            3 
 1480000    1.0106691   -6.8997764    556.92462  0.031358368   0.03157423            2 
 1481000   0.98303869   -6.9405561    558.39294  0.031419814  0.031566557            5 
 1482000   0.99638882   -6.9129138    558.58668  0.031409507   0.03155886            7 
 1483000     1.002383   -6.9308006    558.25221  0.031369533  0.031551251            4 
 1484000    1.0316226   -6.9074454     559.4467   0.03141547  0.031543621            3 
 1485000     1.022097   -6.9292494    557.71952  0.031297392   0.03153574            3 
 1486000    1.0172362   -6.9299109    557.18061  0.031246108  0.031527975            2 
 1487000    1.0267517   -6.9189756     557.0027  0.031215125  0.031520211            2 
 1488000    1.0390217   -6.9088942    558.55446  0.031281052  0.031512445            5 
 1489000   0.99515308    -6.885319    559.71723  0.031325119  0.031504729            4 
 1490000    1.0044917   -6.8797816     559.2718  0.031279184  0.031497064            3 
 1491000    1.0217077   -6.9128754    558.57491  0.031219255  0.031489392            4 
 1492000     1.020054   -6.9254578    559.13431  0.031229575  0.031481617            3 
 1493000    1.0222761   -6.9539132    559.24657  0.031214924    0.0314739            3 
 1494000    1.0191084   -6.9303314     559.1128  0.031186568  0.031466102            2 
 1495000   0.99660172    -6.931822    560.02795   0.03121672  0.031458186            3 
 1496000    1.0125067   -6.9351662     560.6814  0.031232253  0.031450209            4 
 1497000    1.0055455   -6.9220616    560.03504  0.031175408  0.031442127            3 
 1498000   0.99990186   -6.9248467    560.48324   0.03117953   0.03143405            2 
 1499000    1.0002603   -6.8788294    561.55205  0.031218148  0.031426134            2 
 1500000    1.0232159   -6.9323162    560.49022  0.031138346  0.031418176            2 
 1501000    1.0064389   -6.9209668    560.98549  0.031145097  0.031410301            2 
 1502000    1.0075399   -6.9119545     560.0086  0.031070162  0.031402452            7 
 1503000    1.0199507   -6.8897994    561.65847  0.031140966  0.031394447            5 
 1504000    1.0072171   -6.9221776     560.0665  0.031032053  0.031386529            3 
 1505000    1.0253832   -6.8832955    560.25271  0.031021745  0.031378475            4 
 1506000    1.0032567   -6.9006023    561.96157  0.031095704  0.031370456            2 
 1507000    1.0115065   -6.9111614    562.02883   0.03107879  0.031362406            3 
 1508000    1.0079392    -6.947142    562.22483  0.031069011  0.031354501            3 
 1509000    1.0087248   -6.9321691    563.85248  0.031138308  0.031346512            3 
 1510000    1.0186424   -6.9112578     563.7719   0.03111324  0.031338698            1 
 1511000   0.99807728   -6.9269938    564.03164  0.031106973  0.031330945            1 
 1512000    1.0161761   -6.9388634    565.11502   0.03114611  0.031323118            2 
 1513000   0.99692743   -6.9417344    563.05322  0.031011964  0.031315228            2 
 1514000    1.0032705   -6.9707599    564.13906  0.031051247   0.03130749            3 
 1515000    1.0086193   -6.9491833    564.39477  0.031044817  0.031299816            3 
 1516000    1.0016483   -6.9521732    564.93717  0.031054154  0.031292162            2 
 1517000    1.0279447   -6.9468442    565.92021  0.031087685  0.031284535            4 
 1518000    1.0134657   -6.9102406    568.89456  0.031230487  0.031277073            2 
 1519000   0.99967018   -6.9593377    567.38434  0.031127076  0.031269566            3 
 1520000    1.0209332   -6.9095169    568.43645  0.031164279  0.031261974            6 
 1521000   0.98224685   -6.9516028    567.40727  0.031087403  0.031254431            4 
 1522000    1.0630166   -6.9613879    567.07273   0.03104866  0.031246873            5 
 1523000    1.0292322   -6.9253242    570.24908  0.031202073  0.031239369            5 
 1524000    1.0019673    -6.909692    570.49301  0.031194937   0.03123195            2 
 1525000    1.0228983   -6.9654136    566.25211  0.030942739  0.031224388            4 
 1526000    1.0191329   -6.9302552    568.29847  0.031034211  0.031216785            4 
 1527000    1.0315261   -6.9473399    567.67376  0.030979795  0.031209186            2 
 1528000   0.99602284   -6.8906873    569.36426  0.031051716    0.0312016            6 
 1529000     1.018521   -6.9014477     570.4293  0.031089454  0.031193994            4 
 1530000    1.0343894   -6.9097787    570.28392  0.031061216  0.031186434            3 
 1531000    1.0050919   -6.9157622    570.05543   0.03102849  0.031178775            4 
 1532000    0.9956193   -6.8521088    571.64358  0.031094625   0.03117112            3 
 1533000   0.99135986   -6.9099001    571.26515   0.03105377  0.031163529            3 
 1534000    1.0079734   -6.9257036    570.65519  0.031000391  0.031156077            4 
 1535000   0.98862852   -6.9229134    571.56021  0.031029328  0.031148548            3 
 1536000   0.98407381   -6.9697831    571.39348   0.03100008  0.031141099            2 
 1537000   0.99425992   -6.9600873    571.97152  0.031011251  0.031133591            5 
 1538000   0.98433607   -6.9388186    571.75849  0.030979546  0.031125894            3 
 1539000   0.98755441   -6.9270216    570.49414  0.030890954  0.031118183            1 
 1540000   0.98972889   -6.9327979    571.10535  0.030903969  0.031110638            3 
 1541000    1.0131178    -6.921679    573.08957  0.030991216  0.031103112            2 
 1542000   0.99995976   -6.9191639    573.34172  0.030984745  0.031095718            4 
 1543000    1.0057316   -6.9417366    573.28672  0.030961694  0.031088259            2 
 1544000    1.0049737   -6.9166896    574.52663  0.031008562  0.031080843            2 
 1545000    1.0136755   -6.9208932    573.79162  0.030948847  0.031073338            2 
 1546000    1.0134789   -6.9580243    572.20748  0.030843439   0.03106581            3 
 1547000    1.0039864   -6.9569457     572.9833  0.030865293  0.031058158            1 
 1548000   0.99638347   -6.9421304    574.56781  0.030930653  0.031050562            6 
 1549000    1.0090422   -6.9556088    573.83007  0.030870996  0.031043043            3 
 1550000    1.0102462   -6.9377203    574.42846   0.03088325  0.031035607            1 
 1551000   0.99652063   -6.9601569     574.4338  0.030863625  0.031028193            1 
 1552000    1.0333334   -6.9127712    574.13738  0.030827823  0.031020729            2 
 1553000   0.99901458   -6.9883289    574.70782  0.030838582  0.031013242            2 
 1554000    1.0026686   -6.9490891     575.0273   0.03083587  0.031005757            4 
 1555000    1.0113735   -6.9549332    576.33183   0.03088595  0.030998304            2 
 1556000    1.0220366   -6.9569072    577.08013  0.030906176  0.030990903            4 
 1557000   0.97670438   -6.9366368    576.34362  0.030846908  0.030983501            4 
 1558000    1.0360266   -6.9701033     575.7681  0.030796325   0.03097615            2 
 1559000    0.9938119   -6.9435011    577.21349  0.030853832  0.030968718            3 
 1560000   0.98554314   -6.9606486    577.14211  0.030830241  0.030961329            3 
 1561000    1.0204634   -6.9132475    578.63268  0.030890064  0.030953886            3 
 1562000    1.0134861   -6.9414496    577.76611  0.030824056  0.030946553            3 
 1563000       1.0128   -6.9642174     578.5188  0.030844466   0.03093911            9 
 1564000     1.016367   -6.9370798    580.29397  0.030919329  0.030931781            3 
 1565000    1.0139021     -6.95251    577.89445  0.030771802  0.030924578            7 
 1566000   0.98830766   -6.9151122    579.59421  0.030842604  0.030917153            2 
 1567000    1.0086774   -6.9723605    578.67418  0.030773994  0.030909701            3 
 1568000   0.99809049   -6.9400738    580.33319  0.030842538   0.03090233            5 
 1569000    1.0103103   -6.9101847    582.83318  0.030955661  0.030895159            3 
 1570000    1.0102558   -6.9526956    581.32982  0.030856148  0.030888004            3 
 1571000    1.0047381   -6.8976867    582.31353  0.030888687  0.030880716            2 
 1572000   0.99480303   -6.9291582    580.29022   0.03076178   0.03087346            2 
 1573000    1.0231307   -6.9602798    580.28389  0.030741889  0.030866179            3 
 1574000    1.0031188   -6.9414352    580.93584  0.030756874  0.030858837            1 
 1575000   0.99596423     -6.92436    582.04049  0.030795793  0.030851675            2 
 1576000    1.0093828   -6.9760531    581.79882  0.030763474  0.030844488            2 
 1577000   0.99949777   -6.9375188     582.7741  0.030795503  0.030837281            5 
 1578000    1.0089533   -6.9545695    583.99698  0.030840567  0.030830298            5 
 1579000     1.008782   -6.9444196     585.1259  0.030880616   0.03082319            2 
 1580000   0.99448001   -6.9356424    584.81937  0.030844903  0.030816198            5 
 1581000    1.0046033    -6.969129    582.75638  0.030716655  0.030809182            8 
 1582000    1.0046261   -6.9586069    583.54515  0.030738788  0.030802161            3 
 1583000   0.97142106   -6.9145517    584.56903   0.03077327  0.030795098            3 
 1584000   0.97094942   -6.9493475    583.86937  0.030717034  0.030788146            2 
 1585000   0.99090482   -6.9477417    585.66737  0.030792186  0.030781125            2 
 1586000     1.014346   -6.9779499    583.59421  0.030663841  0.030773983            3 
 1587000    1.0100555   -6.9839546    583.86999     0.030659  0.030766766            3 
 1588000   0.97434422   -6.9453535    585.66999  0.030734152  0.030759632            5 
 1589000    1.0144411   -6.9551883    584.40121   0.03064827  0.030752592            3 
 1590000    1.0136907   -6.9143194    586.89733  0.030759818  0.030745472            3 
 1591000    1.0113237   -6.9288795    586.98944  0.030745309  0.030738252            2 
 1592000    0.9822975    -6.975289    586.27193  0.030688438  0.030731187            3 
 1593000   0.99544132   -6.9475515    587.01491  0.030708041  0.030724022            2 
 1594000    1.0231463   -6.9694339    587.09801   0.03069312  0.030716953            3 
 1595000    1.0026412   -6.9581875    586.44242  0.030639625  0.030709768            3 
 1596000   0.98479756   -6.9742939    587.97947  0.030700682  0.030702475            2 
 1597000    1.0023382   -6.9875389    586.49869   0.03060419  0.030695168            3 
 1598000   0.98175852   -6.9537483    587.75962  0.030650794  0.030687964            3 
 1599000    1.0058805   -6.9797586    587.25758  0.030605461  0.030680741            3 
 1600000   0.97871334   -6.9755394    588.01649  0.030625859  0.030673668            4 
 1601000   0.99634972   -6.9346176     586.0529  0.030504523  0.030666484            3 
 1602000     1.006593   -6.9525288    588.85699  0.030631346  0.030659134            3 
 1603000    1.0080563   -6.9464987     588.1015  0.030572962  0.030651844            4 
 1604000    1.0049657   -6.9489038    588.69629  0.030584803  0.030644586            4 
 1605000    1.0121137   -6.9453027    589.23857  0.030593903  0.030637339            3 
 1606000   0.98170043    -6.979079    587.40962  0.030479951  0.030630052            2 
 1607000   0.99582401   -6.9336668    589.64249  0.030576773   0.03062286            4 
 1608000   0.98360333   -6.9682237    588.36104  0.030491348  0.030615598            4 
 1609000    1.0084436   -6.9239966    589.21414  0.030516581  0.030608352            4 
 1610000    1.0024848   -6.9113758    590.24299  0.030550879  0.030601139            2 
 1611000   0.98130011   -6.9561139    588.76413  0.030455418  0.030593954            5 
 1612000    1.0074388   -6.9785219     588.1159  0.030403014  0.030586631            2 
 1613000    1.0004784   -6.9217636     590.6689  0.030516062  0.030579371            2 
 1614000    0.9835904   -6.9336232    590.64801  0.030496077  0.030572074            2 
 1615000    1.0054336   -6.9347379    592.58697  0.030577243  0.030564747            3 
 1616000   0.98246129   -6.9394785    591.52976  0.030503803  0.030557354            2 
 1617000    1.0117067   -6.9645229    588.99264  0.030354187  0.030549978            5 
 1618000   0.98939768   -6.9770505    589.68679  0.030371178  0.030542664            5 
 1619000   0.97883724   -6.9682662      590.782  0.030408791  0.030535427            5 
 1620000    1.0076397   -6.9664168    592.00088   0.03045272    0.0305281            5 
 1621000   0.98406311    -6.937527    593.20735  0.030495957  0.030520893            2 
 1622000   0.99693262   -6.9322009    593.26328  0.030480029  0.030513851            4 
 1623000     1.016581   -6.9317543    593.50446  0.030473632  0.030506851            2 
 1624000    1.0025944   -6.9574261      593.855  0.030472855  0.030499828            4 
 1625000    1.0021997   -6.9260696    593.61315    0.0304417  0.030492705            4 
 1626000   0.99238048   -6.9785194    593.74628  0.030429801  0.030485573            3 
 1627000    1.0045578   -6.9465419    594.52083   0.03045077  0.030478442            2 
 1628000    0.9873199   -6.9966654    595.12144  0.030462809   0.03047129            2 
 1629000    0.9859972   -7.0124261    595.87421  0.030482617  0.030464265            3 
 1630000   0.98906845   -6.9494547    595.81236  0.030460755  0.030457201            4 
 1631000   0.99897966   -6.9710919    594.97058  0.030399069  0.030450107            2 
 1632000   0.96879651   -6.9817997    595.55777  0.030410425  0.030442973            3 
 1633000   0.99686199   -6.9905081    594.95273  0.030360927  0.030435816            3 
 1634000   0.98741525   -7.0009026    595.58044   0.03037436  0.030428689            3 
 1635000   0.98178722   -6.9573897    596.08436  0.030381466  0.030421448            4 
 1636000   0.99013657   -6.9670715    596.08852  0.030363107  0.030414116            3 
 1637000    0.9929042   -6.9792889    595.62342  0.030320883  0.030406895            5 
 1638000   0.99649297   -6.9830908    596.20035  0.030331723  0.030399634            3 
 1639000   0.99848481   -6.9499137    597.78618  0.030393847  0.030392418            3 
 1640000   0.97991242   -6.9563157    595.85082  0.030276973  0.030385156            2 
 1641000   0.97985386   -6.9677467    595.51589  0.030241514  0.030377837            2 
 1642000   0.99044219   -6.9439355     598.0897   0.03035372  0.030370525            4 
 1643000    0.9960958   -6.9752195    596.43093  0.030251112  0.030363029            2 
 1644000    1.0128255   -6.9500488    598.05096  0.030314829  0.030355625            6 
 1645000   0.99022152   -6.9865193    596.85075    0.0302356  0.030348155            4 
 1646000   0.98592207   -6.9644694    598.43047  0.030297209  0.030340621            2 
 1647000   0.99025386    -6.956926    598.95691   0.03030545   0.03033325            3 
 1648000   0.97826857   -6.9515262    598.70104  0.030274122  0.030325946            3 
 1649000   0.99548596   -6.9743038    597.90222  0.030215394  0.030318617            2 
 1650000   0.98494577   -6.9568527    600.00224  0.030303144  0.030311308            2 
 1651000   0.98807874   -6.9367792    599.52098  0.030260498  0.030304052            4 
 1652000    1.0174922   -6.9700366    600.98447  0.030316004  0.030296771            3 
 1653000   0.99873296   -6.9541631    600.40506  0.030268454  0.030289528            3 
 1654000   0.98637636    -7.012948    598.57389  0.030157895    0.0302822            2 
 1655000   0.98621258    -7.019519    599.80858  0.030201842  0.030274781            4 
 1656000    1.0048804   -6.9616025    599.53663  0.030169919   0.03026741            3 
 1657000    0.9952905   -6.9687792    598.53306   0.03010124  0.030259995            2 
 1658000   0.99745475   -6.9730482    600.08756  0.030161216  0.030252512            2 
 1659000   0.99835649    -6.974711    598.52471  0.030064532  0.030245112            8 
 1660000   0.99263429    -6.973287    598.33171  0.030036733  0.030237512            4 
 1661000   0.98922068    -6.954309    600.92599  0.030148805  0.030230017            3 
 1662000   0.96618357   -6.9728134    599.82282  0.030075352  0.030222611            8 
 1663000   0.99538328   -6.9685276      601.107  0.030121617  0.030215302            2 
 1664000   0.98255138   -6.9596036     603.0154  0.030199089  0.030208096            5 
 1665000    1.0002229   -7.0124079     600.6698  0.030063554  0.030200726            3 
 1666000    1.0124196   -6.9788833    600.92923  0.030058485  0.030193288            3 
 1667000   0.99128262   -6.9659735    601.95929  0.030091946  0.030185931            6 
 1668000     0.989868    -6.958793    602.32352  0.030092103  0.030178542            2 
 1669000   0.97578172   -6.9322692    602.70223  0.030092981  0.030171127            1 
 1670000   0.98845832   -6.9570597    603.91287  0.030135373  0.030163861            2 
 1671000   0.97672988    -6.934297    603.95174  0.030119277  0.030156668            5 
 1672000   0.96837345   -6.9657086     602.0615  0.030007052  0.030149338            3 
 1673000   0.99620739   -6.9374856    602.68284  0.030020066  0.030141981            2 
 1674000   0.97730747    -6.971635    603.10185  0.030022991  0.030134702            7 
 1675000   0.96889952   -6.9548329    602.77205  0.029988659  0.030127475            3 
 1676000    0.9894872   -6.9726196    602.95501  0.029979863  0.030120065            3 
 1677000   0.98744549   -6.9829581    604.11234  0.030019496  0.030112696            5 
 1678000   0.97950999   -6.9517575    604.16918  0.030004429  0.030105444            3 
 1679000   0.98162334   -6.9608621    605.70284  0.030062678  0.030098183            3 
 1680000   0.98286503    -6.963902    605.76051  0.030047644  0.030090743            2 
 1681000    1.0081273   -6.9592942    605.16928   0.03000046  0.030083378            4 
 1682000   0.98940888    -6.940893     605.3662   0.02999238  0.030075943            4 
 1683000   0.98639247   -6.9819283    605.29745  0.029971155  0.030068525            2 
 1684000   0.97964686   -6.9992287    605.53822  0.029965272  0.030061133            3 
 1685000   0.97402194   -7.0150958    606.50496    0.0299953  0.030053619            2 
 1686000   0.98610736   -6.9716982    605.53584  0.029929609  0.030046343            3 
 1687000   0.99363666   -6.9620495     604.7947  0.029875257  0.030038907            4 
 1688000   0.95733409   -6.9885986    606.06858  0.029920447  0.030031537            4 
 1689000   0.97940735    -7.006072    605.81585  0.029890263  0.030024029            4 
 1690000   0.97476502   -6.9703089    605.10187  0.029837371  0.030016549            7 
 1691000   0.98972436   -6.9683514    606.46281  0.029886794  0.030009076            3 
 1692000    1.0060853   -7.0051308    605.97279  0.029844996  0.030001514            5 
 1693000   0.98332224   -6.9757657    604.54075  0.029756879  0.029993994            2 
 1694000   0.97989105   -6.9633444    608.25306  0.029921933  0.029986472            3 
 1695000   0.96787606   -6.9748265    606.80747  0.029833209  0.029978972            2 
 1696000   0.98504863   -6.9608963    606.70137  0.029810406  0.029971469            4 
 1697000   0.96839921   -6.9807852    606.92222  0.029803684  0.029963809            2 
 1698000    1.0007352   -6.9777659    606.86021  0.029783088  0.029956181            3 
 1699000   0.99237573   -6.9838438    607.60402  0.029802041  0.029948459            5 
 1700000   0.99101468   -6.9897414    606.93699  0.029751813  0.029940768            6 
 1701000   0.96559484   -6.9762142    606.07761  0.029692221  0.029933051            7 
 1702000    1.0079339   -6.9964174    607.55592  0.029747156  0.029925299            2 
 1703000   0.99517207   -7.0167418    606.91774  0.029698461  0.029917521            5 
 1704000   0.96532605   -7.0001715    608.17075   0.02974231  0.029909742            4 
 1705000   0.98627472   -6.9912299    608.40089  0.029736114  0.029902118            3 
 1706000   0.99672697    -6.995378    608.60793  0.029728797  0.029894343            3 
 1707000   0.98674145   -7.0019424     609.5521  0.029757474   0.02988667            3 
 1708000   0.97280437   -6.9958372    609.71308  0.029747906  0.029878985            7 
 1709000    1.0005889   -7.0112425    610.11705  0.029750197  0.029871312            3 
 1710000   0.98271291   -6.9617031    608.91214  0.029674081  0.029863697            3 
 1711000    0.9746689   -6.9770359    609.72825  0.029696486  0.029856022            2 
 1712000   0.99690059   -6.9834079     608.3257   0.02961087   0.02984828            4 
 1713000   0.96285652   -6.9782597     609.9033   0.02967033  0.029840529            3 
 1714000   0.98714056   -7.0039765    609.31702  0.029624515  0.029832812            2 
 1715000   0.98034916   -6.9860128    609.80089  0.029630753  0.029824922            7 
 1716000    0.9718884   -6.9921826    608.98053  0.029573646  0.029817043            2 
 1717000    1.0018675   -6.9715684    611.16579  0.029662483  0.029809261            4 
 1718000   0.96655026   -6.9708716    610.70227  0.029622734  0.029801462            6 
 1719000   0.98633103   -6.9916027    610.37034  0.029589409  0.029793643            2 
 1720000   0.97290874    -6.936769    611.11782  0.029608422   0.02978595            5 
 1721000   0.98281588    -6.982429    611.17751  0.029594108  0.029778147            2 
 1722000   0.97082762   -6.9810169    610.51268  0.029544748  0.029770405            3 
 1723000   0.98283736   -7.0343507    609.86179  0.029496121  0.029762631            7 
 1724000   0.98743122   -6.9987803    611.89219  0.029577155  0.029754818            2 
 1725000    0.9936844   -6.9947287    612.25351  0.029577464  0.029747016            5 
 1726000    0.9794683   -6.9944678    611.91347   0.02954391  0.029739252            6 
 1727000   0.96896793    -6.991076    611.63283  0.029513261   0.02973149            2 
 1728000   0.97249339   -7.0009647    611.35749  0.029482904  0.029723663            4 
 1729000   0.95305845   -6.9684063    614.61657  0.029622931  0.029715874            3 
 1730000    0.9718664   -6.9953786    611.53089  0.029457172  0.029708067            2 
 1731000   0.97632191   -7.0040471    613.37734  0.029529046  0.029700266            3 
 1732000   0.98476839   -6.9897966    612.03968  0.029447637  0.029692497            4 
 1733000   0.98137434   -6.9851067    613.49669  0.029500707  0.029684758            5 
 1734000   0.97579448   -7.0059551    612.92583  0.029456259  0.029676924           10 
 1735000   0.95661555   -6.9722027    613.28599   0.02945658    0.0296691            4 
 1736000   0.97327683   -6.9928138    614.29245  0.029487925  0.029661349            4 
 1737000   0.98603497   -6.9837409    613.90858  0.029452532  0.029653643            3 
 1738000   0.96290423   -6.9859519     615.0742  0.029491475  0.029645984            2 
 1739000    0.9594134   -6.9842543    613.91979  0.029419197  0.029638286            2 
 1740000   0.96379548   -6.9562164    615.85779  0.029495105  0.029630544            2 
 1741000   0.95812905    -7.009204    615.94204  0.029482196  0.029622807            4 
 1742000   0.94579694   -7.0154352    614.67463  0.029404642  0.029615141            4 
 1743000   0.96760994   -6.9918094    615.44733  0.029424715  0.029607376            3 
 1744000    1.0000934     -7.02212    616.07842  0.029437998  0.029599654            3 
 1745000   0.99495947   -7.0134466    616.43096  0.029437964  0.029591993            2 
 1746000   0.97140475      -7.0002    616.53598  0.029426116  0.029584397            7 
 1747000   0.96102136   -7.0081632    616.08077  0.029387558  0.029576832            2 
 1748000    0.9846233   -6.9912156    617.99273  0.029461896  0.029569223            9 
 1749000   0.94271247   -7.0261953    615.50223  0.029326388  0.029561663            2 
 1750000   0.95720101   -7.0114426    618.54532  0.029454539  0.029554062            2 
 1751000   0.96320777   -6.9967892    617.25206  0.029376169  0.029546511            3 
 1752000   0.96154679   -7.0193799    616.87383  0.029341411  0.029538896            5 
 1753000   0.95164941    -7.016659    616.40692  0.029302478  0.029531212            3 
 1754000   0.97685254    -7.044202    615.92384   0.02926282  0.029523547            2 
 1755000   0.97048401   -6.9977011    617.42683  0.029317513  0.029515838            2 
 1756000   0.96878652   -6.9803609    618.99884   0.02937542  0.029508236            2 
 1757000    0.9636095   -6.9385197    619.94958  0.029403793  0.029500673            3 
 1758000   0.96195743   -6.9930478    618.26806   0.02930736  0.029493114            2 
 1759000   0.96540128   -7.0337791    618.99286  0.029325036  0.029485463            2 
 1760000   0.95047695    -7.032366    619.06942  0.029311999  0.029477851            2 
 1761000   0.96834793   -6.9843046    618.96713  0.029290513  0.029470182            2 
 1762000   0.98951187   -7.0085771    620.17699   0.02933111  0.029462464            6 
 1763000   0.96197425   -6.9874986    620.97757  0.029352315  0.029454894            2 
 1764000   0.96437411   -7.0118739    619.34686  0.029258639  0.029447299            7 
 1765000   0.97671198   -7.0067914    620.28811  0.029286502  0.029439611            3 
 1766000   0.99067198   -6.9993895    621.52918  0.029328481   0.02943199            6 
 1767000    0.9695334   -6.9924568    620.90408  0.029282403  0.029424368            2 
 1768000    0.9738721   -7.0226466    620.38775  0.029241504   0.02941679            2 
 1769000   0.96016302   -7.0244519    620.40104    0.0292256  0.029409115            3 
 1770000   0.99847833   -6.9914183    621.04334  0.029239329  0.029401531            4 
 1771000   0.96538973    -7.002449    623.48263  0.029337598  0.029393874            5 
 1772000   0.95526419     -7.02067    619.27922  0.029123364  0.029386292            3 
 1773000   0.96716035   -7.0050536    622.95963  0.029279922  0.029378631            3 
 1774000   0.95896597   -6.9851524    622.29463  0.029232179  0.029371075            2 
 1775000   0.97858819   -6.9658883    623.86026  0.029289214   0.02936358            4 
 1776000   0.93282962   -7.0233595    622.11076  0.029190632  0.029355967            3 
 1777000   0.95844788    -7.001009    622.50512  0.029192699  0.029348402            4 
 1778000   0.96431649   -7.0143942    621.79117  0.029142818  0.029340838            7 
 1779000   0.95657462     -6.98723    622.31084  0.029150779  0.029333263            1 
 1780000   0.94588471   -6.9791194    623.07032  0.029169959  0.029325707            3 
 1781000   0.96013956   -6.9977478    625.03809  0.029245653  0.029318144            3 
 1782000   0.97625613    -7.006406    624.42459  0.029200551  0.029310575            3 
 1783000   0.98925627   -7.0554613     621.6045   0.02905237  0.029302797            3 
 1784000   0.97102875   -7.0302953    621.29089  0.029021436  0.029295016            3 
 1785000     0.984525   -7.0001512    624.17122  0.029139646   0.02928728            2 
 1786000   0.93986003   -7.0175689     623.5451  0.029094116  0.029279604            3 
 1787000   0.94316631   -7.0599931    622.74408  0.029040481  0.029271856            4 
 1788000   0.93641727   -6.9874974    624.86921  0.029123285  0.029264147            2 
 1789000   0.95974733   -7.0189111    623.51494  0.029043923  0.029256464            4 
 1790000   0.97222931   -7.0055375    626.91455  0.029185966  0.029248842            2 
 1791000   0.97122129     -6.97381    624.83196  0.029072769  0.029241209            3 
 1792000   0.94995309    -7.037623     624.0195  0.029018764  0.029233627            2 
 1793000   0.97778899   -7.0144844    624.50386  0.029025091   0.02922592            3 
 1794000   0.96624281   -7.0675742    626.50859  0.029102034  0.029218174            5 
 1795000   0.96740396   -6.9929845    624.83546  0.029008146  0.029210601            4 
 1796000   0.94990165   -7.0170957      625.846  0.029038883  0.029203001            2 
 1797000   0.95706151   -7.0419862    625.30364  0.028997572  0.029195284            2 
 1798000   0.95529371   -7.0020693    624.48691  0.028943591  0.029187567            6 
 1799000   0.94926971   -7.0177955    627.31606  0.029058554  0.029179948            3 
 1800000    0.9688053   -6.9810497    626.23805  0.028992502  0.029172333            4 
 1801000   0.95511933   -7.0221513    627.86419  0.029051647  0.029164592            1 
 1802000   0.97983624   -7.0378391    626.70212  0.028981785   0.02915688            2 
 1803000   0.94175666   -7.0172476    627.61465  0.029007887  0.029149122            3 
 1804000   0.98305513   -7.0369421    625.53619  0.028895796  0.029141354            4 
 1805000   0.95141138   -7.0309254    628.06213  0.028996405  0.029133584            2 
 1806000   0.96407455   -7.0210649    627.29978  0.028945172  0.029125913            6 
 1807000   0.95938023    -7.007056    629.38604  0.029025366  0.029118285            1 
 1808000   0.96232553   -7.0095877    630.85738  0.029077129  0.029110742            3 
 1809000   0.95389004   -7.0448243    629.19648  0.028984544  0.029103157            6 
 1810000   0.98559978   -7.0145644    629.33962  0.028975121  0.029095431            2 
 1811000   0.95589077   -7.0115799    627.92272  0.028893922  0.029087728            4 
 1812000   0.96297503   -7.0521205     627.3372  0.028851048  0.029080021            2 
 1813000   0.94934558   -7.0251795    628.37782  0.028882967  0.029072315            1 
 1814000   0.95844319   -7.0395466    629.39662  0.028913847  0.029064672            3 
 1815000   0.95812289    -7.073391    628.65445  0.028863841  0.029056971            4 
 1816000   0.94931143   -7.0520319    628.64781  0.028847642  0.029049258            3 
 1817000   0.98106283   -6.9873437    630.09288  0.028898041  0.029041664            3 
 1818000   0.95051821   -7.0807114    628.23571  0.028797016   0.02903403            2 
 1819000   0.95737976   -6.9971862    630.57577  0.028888389  0.029026355            4 
 1820000   0.93963419   -7.0006782    630.74232  0.028880143  0.029018743            2 
 1821000   0.96919252   -7.0208693    632.64695  0.028951444  0.029011154            3 
 1822000   0.95783315   -7.0412161    627.96558  0.028721441  0.029003469            3 
 1823000   0.95691765   -7.0063901    633.41193   0.02895465  0.028995861            3 
 1824000   0.95401054   -7.0322558    630.35989  0.028799337  0.028988238           10 
 1825000   0.94233208   -7.0431123    632.01915  0.028859322  0.028980597            2 
 1826000   0.98079136   -7.0158292    631.88359  0.028837331  0.028973091            4 
 1827000   0.95936165   -7.0321942      632.952  0.028870279  0.028965591            4 
 1828000   0.96239848   -6.9868643    630.68041  0.028750931  0.028957956            6 
 1829000   0.97699701   -7.0288967    630.80176   0.02874074  0.028950322            2 
 1830000    0.9434481   -6.9972941    631.96163  0.028777852   0.02894264            4 
 1831000   0.95079325   -7.0132724    632.62831  0.028792477   0.02893496            4 
 1832000   0.97529108   -7.0244012    634.14865  0.028845918   0.02892728            4 
 1833000   0.97654194   -7.0165947    632.23015   0.02874296  0.028919701            3 
 1834000   0.95520114   -7.0480865    632.01531  0.028717526  0.028912026            7 
 1835000   0.94080115   -7.0044586    633.92735  0.028788708  0.028904436            2 
 1836000   0.96305321   -7.0259374    632.66755  0.028715847  0.028896759            2 
 1837000   0.97951467   -7.0311544    633.96308  0.028758986  0.028889104            2 
 1838000   0.94550656   -7.0109988    633.49404  0.028722073  0.028881519            5 
 1839000   0.94730563   -7.0182174    634.86905  0.028768763  0.028873871            3 
 1840000   0.97607216   -7.0366784    633.32787  0.028683328  0.028866287            3 
 1841000   0.94597753    -7.057398    633.09604  0.028657253   0.02885869            2 
 1842000   0.96130188   -7.0000405    635.06909  0.028730958  0.028851131            4 
 1843000   0.93159765   -7.0150001    634.18104  0.028675214  0.028843535            1 
 1844000   0.96268335   -7.0071355    635.30906  0.028710641  0.028836002            3 
 1845000   0.94571658   -7.0037327    635.89876  0.028721715  0.028828426            4 
 1846000    0.9360701   -7.0442856    635.42561  0.028684796  0.028820782            4 
 1847000   0.98576051   -7.0386996    635.29922  0.028663563   0.02881315            3 
 1848000    0.9367946   -7.0570939    634.68363  0.028620294  0.028805419            2 
 1849000   0.95682689   -7.0412896    636.40228  0.028682274  0.028797759            2 
 1850000   0.94528086   -7.0409065    634.68387  0.028589364  0.028790217            1 
 1851000   0.95762977   -7.0396476    635.84573  0.028626226  0.028782639            3 
 1852000   0.94560489   -7.0356543    636.44539  0.028637751   0.02877506            4 
 1853000   0.96312547   -7.0418143    637.29938  0.028660703  0.028767497            5 
 1854000   0.96767909   -6.9960661    637.68843   0.02866273  0.028759899            3 
 1855000   0.95801371   -7.0509854    635.52012  0.028549871  0.028752376            2 
 1856000   0.95331229   -7.0221157    638.61807  0.028673584  0.028744837            2 
 1857000   0.95723639   -7.0416171    638.53973  0.028654628  0.028737311            3 
 1858000   0.94338654    -7.017302    638.59954  0.028641888   0.02872969            8 
 1859000   0.98030953   -7.0480645    638.71553  0.028631681   0.02872209            2 
 1860000   0.94970814   -7.0230624    638.18723  0.028592618  0.028714513            3 
 1861000   0.94324969   -7.0372968    639.02793  0.028614899  0.028707001            5 
 1862000   0.96206447   -7.0398851    640.38696  0.028660355  0.028699522            3 
 1863000   0.95023249   -6.9875138    639.46171  0.028603583  0.028692087            7 
 1864000   0.96030988   -7.0143685    640.57196  0.028637874  0.028684644            3 
 1865000   0.95979192   -7.0673353    638.40322  0.028525613  0.028676996            3 
 1866000   0.95757594   -7.0241386    640.31148  0.028595547  0.028669422            3 
 1867000   0.96038784   -7.0645054    637.65359  0.028461596  0.028661929            3 
 1868000   0.94820217   -7.0502886    637.95431  0.028459775  0.028654347            2 
 1869000   0.94818446     -7.02126    639.81676  0.028527589  0.028646765            2 
 1870000   0.96954579   -7.0429691    640.76888  0.028554763  0.028639269            3 
 1871000   0.94770746   -7.0483552    641.28591  0.028562529  0.028631708            3 
 1872000   0.95795623   -7.0492918    638.59897  0.028427661  0.028624247            6 
 1873000   0.94494732   -7.0251179    639.78388  0.028465202  0.028616602            3 
 1874000   0.94903997   -7.0507624    639.06594  0.028418087  0.028608946            4 
 1875000   0.95307681   -7.0440427    641.24711  0.028499871  0.028601322            3 
 1876000   0.95382355   -7.0367796    641.56402  0.028498757  0.028593673            1 
 1877000   0.93872193   -7.0766199    639.81529  0.028405936  0.028585908            3 
 1878000    0.9475829   -7.0390814    639.44683   0.02837446  0.028578171            2 
 1879000   0.95626855   -7.0208764    641.61441  0.028455491   0.02857047            5 
 1880000    0.9370266   -7.0457121    639.87448  0.028363231  0.028562849            5 
 1881000   0.96365688   -7.0543202    642.29672  0.028455463  0.028555237            3 
 1882000   0.92902768   -7.0193324    642.12065  0.028432547  0.028547649            6 
 1883000   0.94198304   -7.0882596    641.73356  0.028400317  0.028540019            3 
 1884000   0.95892986   -7.0623904    640.06754  0.028311551  0.028532353            1 
 1885000   0.94135678   -7.0799454    641.44963  0.028357632  0.028524683            3 
 1886000   0.96658831   -7.0487361    640.86012  0.028316548  0.028517082            4 
 1887000   0.94939627   -7.0632096    642.37219  0.028368318  0.028509405            4 
 1888000   0.94891257   -7.0742024    641.78038  0.028327171   0.02850167            5 
 1889000   0.96322042   -7.0541931    639.90586   0.02822948  0.028493869            5 
 1890000   0.95368531   -7.0487876    641.62974  0.028290553  0.028486131            3 
 1891000   0.94271925   -7.0650422    642.83274  0.028328606  0.028478428            2 
 1892000   0.96990295   -7.0487816    643.31279  0.028334777  0.028470823            4 
 1893000   0.93904169   -7.0121226    644.07281  0.028353267  0.028463208            3 
 1894000   0.95360406   -7.0408828    643.10145  0.028295558  0.028455656            4 
 1895000   0.96813428   -7.0720851    644.25806  0.028331489  0.028448062            4 
 1896000    0.9409033   -7.0467422    645.38471  0.028366065  0.028440428            5 
 1897000   0.94655525   -7.0544031     643.4024  0.028264031  0.028432781            7 
 1898000   0.94695148   -7.0627739    641.67175  0.028173154  0.028425044            2 
 1899000   0.96281582   -7.0462646    642.74269  0.028205314    0.0284173            3 
 1900000   0.95316938   -7.0640523    644.00602  0.028245878  0.028409633            6 
 1901000   0.95655793   -7.0257038     645.6732  0.028304103  0.028401883            4 
 1902000    0.9462044   -7.0544437    645.19006  0.028268054  0.028394275            3 
 1903000   0.93704195   -7.0561341    642.69267  0.028143837  0.028386573            2 
 1904000   0.94636421   -7.0560866    644.83225    0.0282227  0.028378883            3 
 1905000    0.9446376   -7.1137415    642.29516  0.028096901  0.028371063            2 
 1906000   0.95015127    -7.034755     644.7369  0.028188916  0.028363211            6 
 1907000   0.93994955   -7.0636764    644.94064  0.028183038  0.028355497            5 
 1908000   0.94969978   -7.0829293    645.70548  0.028201672   0.02834775            3 
 1909000   0.95090743   -7.0543576    645.22409  0.028165885  0.028340016            3 
 1910000   0.94946432   -7.0543594    645.43531  0.028160354  0.028332344            3 
 1911000   0.95019603   -7.0594803    645.93719  0.028167504  0.028324615            4 
 1912000   0.93054363   -7.0855306    644.64455  0.028096432  0.028316839            4 
 1913000   0.96408503   -7.0586772    647.30504  0.028197641  0.028309104            4 
 1914000   0.93556192   -7.0414083     645.4014  0.028100026  0.028301335            2 
 1915000   0.93248763   -7.0425218    646.88784  0.028150037  0.028293689            2 
 1916000   0.93115836   -7.0768235    645.24839  0.028064039  0.028286013            4 
 1917000   0.95215147   -7.0522626    646.89186  0.028120843   0.02827829            4 
 1918000   0.94911489   -7.0543304    648.36203  0.028170057  0.028270541            6 
 1919000   0.94584748   -7.0682922    644.84596   0.02800269  0.028262758            3 
 1920000   0.96263046   -7.0531354    645.91138  0.028034348   0.02825496            2 
 1921000   0.94919964   -7.0527812    646.61739  0.028050381  0.028247224            3 
 1922000   0.94673242     -7.09083     647.4095  0.028070131  0.028239479            3 
 1923000   0.96223829   -7.0355287    646.82597  0.028030247  0.028231677            2 
 1924000   0.94848603   -7.0536119     646.7377  0.028011855  0.028224037            4 
 1925000   0.93410826   -7.0427252     648.9187  0.028091719  0.028216323            3 
 1926000   0.95294898   -7.0308655     648.5204    0.0280599  0.028208671            7 
 1927000   0.94457594   -7.0625535    650.01259  0.028109868  0.028200994            3 
 1928000   0.94384561    -7.088305    647.94843   0.02800607  0.028193323            3 
 1929000   0.95382124   -7.0475637    650.20181  0.028088898  0.028185647            2 
 1930000   0.93514059   -7.0537979    648.60125  0.028005235  0.028177965            2 
 1931000   0.92054652   -7.0608506     649.8181  0.028043246   0.02817023            3 
 1932000   0.96240651   -7.0671297    650.40326  0.028053971  0.028162542            5 
 1933000   0.92771039   -7.0775802    650.58128  0.028047132  0.028154798            5 
 1934000   0.94490475   -7.0755209    649.42093  0.027982632  0.028147086            6 
 1935000   0.94397214   -7.0609913    649.89075  0.027988404  0.028139358            3 
 1936000   0.94160976   -7.0582092    650.87961  0.028016512  0.028131655            1 
 1937000   0.94547761   -7.0431543    649.73487  0.027952799  0.028123891            4 
 1938000   0.95414497   -7.0372695    651.11684    0.0279978  0.028116196            2 
 1939000   0.94418945   -7.0544676    648.93841  0.027889738  0.028108418            4 
 1940000   0.94210533   -7.0867516    650.80602  0.027955585  0.028100583            2 
 1941000   0.94105575   -7.0482797    651.78284   0.02798312  0.028092775            3 
 1942000   0.93599109   -7.0620244    650.23093  0.027902117  0.028085037            3 
 1943000   0.94325959   -7.0760851    650.40638  0.027895282  0.028077408            4 
 1944000   0.95318994   -7.0334973    651.17574  0.027913912   0.02806967            5 
 1945000   0.95217247   -7.0157246     653.2162  0.027986984  0.028061997            3 
 1946000   0.95991677   -7.0561189    650.85869  0.027871646  0.028054314            5 
 1947000   0.93423812   -7.0425575    652.91715  0.027945435  0.028046564            3 
 1948000   0.93934002   -7.0462518     652.2175  0.027901159  0.028038776            2 
 1949000   0.94080712   -7.0488415    651.36718  0.027850487  0.028030977            8 
 1950000    0.9459539   -7.0569812    650.56726   0.02780202  0.028023196            3 
 1951000   0.93861085   -7.0372031    653.00498  0.027891892  0.028015424            2 
 1952000   0.94295266   -7.0834563     652.0469  0.027836702  0.028007639            5 
 1953000   0.93440852   -7.1115228    652.41437  0.027838128  0.027999853            5 
 1954000   0.95338192   -7.0496649    653.87598  0.027886215  0.027992088            2 
 1955000   0.92811115   -7.0775477     651.8763  0.027786714  0.027984396            2 
 1956000   0.90790701    -7.100159    653.31723  0.027833897  0.027976555            3 
 1957000    0.9442438    -7.039961    652.78146   0.02779686  0.027968696            5 
 1958000   0.93263744   -7.0599033    651.94228  0.027746948  0.027960841            3 
 1959000   0.92657821   -7.0571596    653.58721  0.027802757  0.027952945            5 
 1960000   0.92796063    -7.040538    653.82406  0.027798642  0.027945046            3 
 1961000   0.94865068   -7.0631536    653.15062  0.027755848  0.027937247            2 
 1962000    0.9214537    -7.044857    653.51478  0.027757169  0.027929514            2 
 1963000   0.95488085   -7.0394653    652.80286  0.027712806  0.027921779            5 
 1964000   0.92415184   -7.0670056    652.89196  0.027702476  0.027913969            3 
 1965000    0.9420679    -7.045433    655.77082  0.027810467  0.027906275            3 
 1966000   0.92819206   -7.0613494    654.38722  0.027737675  0.027898516            2 
 1967000   0.95346659   -7.0168607    655.22569  0.027759096  0.027890813            5 
 1968000   0.94527437   -7.1063674    654.71642  0.027723426  0.027883109            3 
 1969000   0.93715874   -7.0929311    653.97405  0.027677927  0.027875362            6 
 1970000   0.94274266   -7.0700327    655.99743  0.027749468  0.027867633            2 
 1971000   0.95930378   -7.0543879    654.65978  0.027678834  0.027859892            4 
 1972000   0.94940093   -7.0577023    655.25988  0.027690157  0.027852162            3 
 1973000    0.9586759   -7.0733004    654.62777  0.027649424  0.027844413            2 
 1974000     0.945504    -7.109514    656.01354  0.027693918  0.027836638            3 
 1975000   0.94002471   -7.0469718    656.36605   0.02769477  0.027828843            2 
 1976000   0.91941154   -7.0872607    655.03027  0.027624421  0.027821086            6 
 1977000   0.92973701   -7.0734388    656.53178  0.027673739  0.027813305            4 
 1978000   0.94470239   -7.1069117    654.61821  0.027579129  0.027805416            4 
 1979000   0.93402356   -7.0821106    653.83858  0.027532364  0.027797499            2 
 1980000   0.93920859   -7.0761495    654.59683  0.027550372   0.02778962            2 
 1981000   0.93281273   -7.0789413    654.22343  0.027520757  0.027781713            3 
 1982000   0.92582682   -7.0767392    655.95024  0.027579475  0.027773834            2 
 1983000   0.94629577   -7.0523008    656.00923  0.027568046  0.027765972            2 
 1984000    0.9220506   -7.0737325    658.08061  0.027641155  0.027758107            4 
 1985000   0.94861701   -7.0630792    656.03115   0.02754119  0.027750262            2 
 1986000   0.92260556    -7.101289    655.00146  0.027484116  0.027742399            2 
 1987000   0.93175625   -7.0884294    654.71274  0.027458176  0.027734452            1 
 1988000   0.93793276   -7.0602545    656.94945  0.027538122  0.027726557            1 
 1989000   0.93754403   -7.0766142    655.34655   0.02745712  0.027718579            3 
 1990000   0.91553402   -7.0798788    656.41015  0.027487862  0.027710702            5 
 1991000   0.93475787   -7.0764422    657.44623  0.027517421  0.027702796            5 
 1992000   0.91959209   -7.0564369    657.02441  0.027485961  0.027694896            3 
 1993000   0.93841365   -7.1039444    655.97951  0.027428479  0.027686985            5 
 1994000   0.94050664   -7.0787645     656.6616   0.02744323  0.027678974            3 
 1995000   0.92260207    -7.063275    657.54405  0.027466334  0.027670991            4 
 1996000   0.93320851   -7.0814837    655.64433   0.02737326  0.027663046            3 
 1997000   0.92310187   -7.0518641    658.86312  0.027493871  0.027655089            3 
 1998000   0.92496168   -7.0894302    659.12988  0.027491236  0.027647088            4 
 1999000   0.92942673   -7.0660932    658.04113  0.027432096  0.027639138            5 
 2000000    0.9309347   -7.1033917    658.70488  0.027446037  0.027631167            7 
 2001000   0.94428069    -7.075021    657.02128  0.027362206  0.027623176            4 
 2002000   0.92843516   -7.0650268    658.48617  0.027409514  0.027615237            4 
 2003000   0.92278334   -7.0716866    656.97103  0.027332794  0.027607376            7 
 2004000   0.91860396   -7.0870812    658.86758   0.02739802  0.027599375            4 
 2005000   0.93764319   -7.0999718    658.07122  0.027351256  0.027591407            3 
 2006000   0.93082607   -7.0834864    659.08874  0.027379891  0.027583496            5 
 2007000   0.95271541   -7.0711121      659.643  0.027389262  0.027575668            6 
 2008000   0.94078242   -7.0732242    658.91576  0.027345442  0.027567804            2 
 2009000   0.95317472    -7.077563    661.20793  0.027426909  0.027559979            4 
 2010000   0.93533432   -7.0616571    659.28594   0.02733358  0.027552176            5 
 2011000   0.95262447   -7.0961455    660.82703  0.027383849  0.027544315            7 
 2012000   0.92877304   -7.0889559    661.51839  0.027398873  0.027536504            5 
 2013000   0.93519917   -7.1033036    662.32059  0.027418471  0.027528689            3 
 2014000    0.9361932   -7.0737578    661.78005  0.027382491  0.027520771            6 
 2015000   0.91679024   -7.0842295    662.04228  0.027379747  0.027512952            4 
 2016000   0.92759125   -7.0904073    660.43564  0.027299754  0.027505175            6 
 2017000   0.90943137   -7.0691152    660.95529  0.027307688  0.027497297            3 
 2018000   0.91164303   -7.0588482    662.26064  0.027348061  0.027489336            3 
 2019000   0.92977352   -7.0907775    662.10166  0.027327954  0.027481401            2 
 2020000   0.94775897   -7.0784877    661.67911  0.027296993   0.02747345            5 
 2021000   0.92393672   -7.1178738    659.21175  0.027181748   0.02746546            5 
 2022000   0.92422905   -7.0775171      662.387  0.027299167  0.027457525            9 
 2023000   0.91521293   -7.0902726    661.03542  0.027229997   0.02744962            4 
 2024000   0.93240511   -7.0684255    661.93052  0.027253398  0.027441721            3 
 2025000   0.92654552   -7.0819839    659.24502  0.027129425  0.027433765            3 
 2026000   0.93942605   -7.1189647    661.12016  0.027193162  0.027425799            4 
 2027000   0.90551282   -7.0922255    659.99856  0.027133636  0.027417757            2 
 2028000   0.93759463    -7.100671     661.8224  0.027195201   0.02740982            2 
 2029000   0.95339454   -7.1001083    662.12176  0.027194092  0.027401903            3 
 2030000   0.91543726   -7.1169915    661.63284  0.027160626  0.027394005            2 
 2031000   0.94459651   -7.1351556    661.52249  0.027142725  0.027386087            5 
 2032000   0.93219825   -7.0796123    664.05693  0.027233306  0.027378215            4 
 2033000   0.91191307   -7.1338802    664.34933  0.027231896  0.027370376            4 
 2034000   0.91936956   -7.0621516     665.2224  0.027254277   0.02736257            5 
 2035000   0.92616662   -7.1142171    663.12884  0.027155153  0.027354774            7 
 2036000   0.92227254   -7.1167931    663.92493    0.0271744  0.027346959            5 
 2037000   0.94667498   -7.0667124    662.28251  0.027093868  0.027339132            5 
 2038000   0.93173245   -7.0847531    664.56231  0.027173794  0.027331266            4 
 2039000   0.91803985   -7.0779872    663.93787  0.027134947    0.0273235            5 
 2040000   0.92067828   -7.0824784    664.77541  0.027155858  0.027315705            2 
 2041000   0.92595977   -7.0874269    664.09489  0.027114768  0.027307881            4 
 2042000    0.9584498   -7.1119162    664.52016  0.027118844  0.027300111            2 
 2043000   0.94091597   -7.1335893    664.14216  0.027090152  0.027292341            4 
 2044000   0.91016311   -7.0238113    667.09274  0.027197193  0.027284652            2 
 2045000   0.93156235   -7.0988111    664.78281  0.027089764   0.02727695            6 
 2046000   0.91878056   -7.1126156    665.04133  0.027087053  0.027269207            3 
 2047000   0.91960301   -7.1258775    666.31871  0.027125823  0.027261465            2 
 2048000   0.91507784   -7.1433308    665.33265  0.027072455  0.027253705            7 
 2049000   0.91280296   -7.1114422    667.26494  0.027137829   0.02724584            4 
 2050000   0.91571968   -7.1187695     665.6864  0.027060423  0.027238029            2 
 2051000   0.94732777   -7.1318338    666.68479  0.027087794  0.027230283            3 
 2052000   0.90981012   -7.0840447    665.29691  0.027018231  0.027222554            2 
 2053000   0.92102864   -7.0907078    668.00867  0.027115143  0.027214827            3 
 2054000   0.92562525   -7.1062671    666.57908  0.027043942  0.027207111            5 
 2055000   0.91820306   -7.0830836    668.29043   0.02710018  0.027199452            3 
 2056000   0.91567233   -7.1194532    667.03491   0.02703611  0.027191835            3 
 2057000   0.93600637   -7.0841567    668.17992  0.027069354  0.027184153            3 
 2058000   0.94006862   -7.0959277     667.6787  0.027035905   0.02717656            4 
 2059000   0.91471348   -7.1183463    666.64541  0.026980954  0.027168916            3 
 2060000    0.9080728   -7.0993609    668.31232  0.027035288   0.02716127            4 
 2061000   0.93152993   -7.0964639     670.4731  0.027109538  0.027153715            3 
 2062000    0.9246545   -7.0971925    668.32593  0.027009616  0.027146086            6 
 2063000   0.91033579   -7.0817603    667.56734  0.026965881  0.027138379            4 
 2064000   0.92170313   -7.1173166    668.27585  0.026981422  0.027130661            2 
 2065000   0.90899437   -7.1014336    669.01672  0.026998253  0.027122937            2 
 2066000   0.91338897   -7.1195781    667.95681  0.026942434  0.027115213            4 
 2067000   0.92534221   -7.1240926    669.13371  0.026976847  0.027107513            6 
 2068000   0.91619596   -7.1033316    669.72509  0.026987633  0.027099749            9 
 2069000   0.92432691   -7.1002154     667.5155  0.026885593  0.027091914            2 
 2070000   0.92295447   -7.1299142    668.54456  0.026914032    0.0270841            7 
 2071000   0.93098769    -7.101437     670.1908  0.026967278   0.02707632            4 
 2072000   0.93243828   -7.0762827    669.14881  0.026912356  0.027068564            2 
 2073000   0.92127597   -7.1233884    671.10107  0.026977853  0.027060835            4 
 2074000   0.90424227   -7.1341131    667.24573  0.026809938   0.02705304            4 
 2075000    0.9019062   -7.1166809    668.36311  0.026841892  0.027045195            3 
 2076000   0.91570755   -7.1102122    667.90029  0.026810384  0.027037391            9 
 2077000   0.91185224   -7.1250122    669.74025  0.026871299  0.027029591            2 
 2078000    0.9265661   -7.1103449    669.50631  0.026848986  0.027021743            4 
 2079000   0.94915873   -7.1143678    669.63273  0.026841139  0.027013949            4 
 2080000   0.92968262   -7.0716088     672.0631  0.026925605  0.027006166            5 
 2081000   0.92801042   -7.1347959     670.1204  0.026834871  0.026998408            1 
 2082000   0.91860218   -7.0922229    669.29696  0.026789023  0.026990638            4 
 2083000   0.89551663   -7.1120372     670.1127  0.026808797   0.02698288            3 
 2084000   0.93055306   -7.0828808    672.31954  0.026884179   0.02697512            5 
 2085000   0.92115242   -7.1036929     669.5872  0.026762078  0.026967392            3 
 2086000   0.92531068   -7.1046114    669.84861  0.026759692  0.026959506            3 
 2087000   0.89564965    -7.109425    670.16265  0.026759409  0.026951548            3 
 2088000   0.92644048   -7.1090316    671.43284  0.026797288  0.026943695           10 
 2089000   0.93245902   -7.1112577    669.46441  0.026705936  0.026935838            2 
 2090000   0.90729266   -7.1153249    671.19289  0.026762077  0.026928009            3 
 2091000   0.91510382   -7.0944831    671.13116  0.026746818  0.026920202            4 
 2092000   0.91917875   -7.0768118    673.25582  0.026818667  0.026912384            2 
 2093000   0.89956979   -7.1122373    670.90714   0.02671234  0.026904585            3 
 2094000   0.93748412   -7.1078477    671.29131  0.026714872  0.026896728            9 
 2095000   0.91361001    -7.133415    672.39054  0.026745845  0.026888905            4 
 2096000   0.90669598   -7.1114271    672.40311  0.026733584  0.026881084            3 
 2097000   0.92227839   -7.0947417    672.68438  0.026732013   0.02687331            2 
 2098000   0.90190688   -7.1231668    673.28859  0.026743271  0.026865556            7 
 2099000    0.9368503   -7.1009196     671.8919  0.026675079  0.026857779            3 
 2100000    0.9056457   -7.1156676    672.36612  0.026681195  0.026849994            3 
 2101000   0.91652212   -7.1227639    673.68146  0.026720667  0.026842202            7 
 2102000   0.91629008    -7.105485    673.35257  0.026694916  0.026834408            4 
 2103000   0.91336985   -7.1058368    674.24358   0.02671753  0.026826588            3 
 2104000   0.90843812   -7.1428817    670.95269  0.026574489  0.026818736            3 
 2105000   0.88793237   -7.1057069    672.11715  0.026607963  0.026810902            7 
 2106000   0.90970494   -7.1140287    674.89334  0.026705181  0.026803167            2 
 2107000   0.92643698   -7.1004938    672.84696  0.026611571  0.026795461            3 
 2108000   0.89546941   -7.1229365    674.55821  0.026666596  0.026787692            4 
 2109000   0.94625803   -7.1040903    672.73078  0.026581744  0.026779943           12 
 2110000   0.91849011   -7.1384438    674.00063  0.026619298  0.026772157            6 
 2111000   0.91980018   -7.1261513    673.87421  0.026601698   0.02676442            5 
 2112000   0.91360084   -7.1170313    671.60042  0.026499385  0.026756584            3 
 2113000   0.90948901   -7.1433789    673.48158  0.026561034  0.026748814            5 
 2114000   0.89952709   -7.1217362    674.96841   0.02660708  0.026741092            3 
 2115000   0.91023073   -7.1495193    674.75256  0.026585995  0.026733355            2 
 2116000   0.91977756   -7.1256664    673.85837  0.026538216  0.026725573            3 
 2117000   0.92109971   -7.1013128    674.90235  0.026566775  0.026717812            3 
 2118000   0.88828439    -7.100818    675.10151  0.026562068  0.026710046            2 
 2119000   0.90030217   -7.1110242    675.31445  0.026557907  0.026702367            5 
 2120000   0.91890625   -7.0853022    675.12557  0.026537955  0.026694729            8 
 2121000   0.91408705    -7.091927    676.83765   0.02659271  0.026687074            3 
 2122000   0.91053628   -7.1266355    676.45678  0.026565221  0.026679389            3 
 2123000   0.90746114   -7.1542879    676.81576  0.026566799  0.026671629            5 
 2124000   0.90836472   -7.1313845     676.7089  0.026550098  0.026663823            4 
 2125000   0.93613467    -7.108021    675.69274  0.026497754  0.026656155            6 
 2126000   0.91756401   -7.1403823    675.21318  0.026466493  0.026648448            3 
 2127000    0.9131929   -7.1294711    677.75945   0.02655381  0.026640755            3 
 2128000    0.9186555   -7.1460711    677.28771  0.026522858  0.026633077            2 
 2129000   0.89624684   -7.1141065    677.97387  0.026537258  0.026625441            2 
 2130000   0.91671894   -7.1108329    678.46876  0.026544161  0.026617837            4 
 2131000   0.91951656   -7.1582359    677.55709  0.026496054  0.026610246            6 
 2132000   0.91552454   -7.1464935    677.51137  0.026481839  0.026602633            3 
 2133000   0.90430551   -7.1423414    677.60481  0.026473074  0.026594986            3 
 2134000   0.90760892   -7.1339906    678.41842  0.026492441  0.026587326            4 
 2135000   0.90995454   -7.1222215    679.04499  0.026504488  0.026579643            2 
 2136000   0.92217528   -7.1222762    679.21361  0.026498658  0.026572101            5 
 2137000   0.90834318   -7.1224824    679.23292  0.026487011   0.02656447            2 
 2138000   0.91608579   -7.1511852    677.40166  0.026403245  0.026556799            3 
 2139000   0.89657814    -7.124844    677.41243  0.026391321  0.026549059            4 
 2140000   0.90861229    -7.157836    679.53023  0.026461457  0.026541368            2 
 2141000   0.90481599   -7.1541539    678.16665  0.026396024  0.026533661            3 
 2142000   0.90834062   -7.1493998    679.39441  0.026431466  0.026525988            3 
 2143000   0.89291809   -7.1478234    678.55797  0.026386606  0.026518346            5 
 2144000   0.89934643   -7.1726642     677.9545  0.026350843  0.026510683            5 
 2145000   0.91167603   -7.1178223    679.78136  0.026409532  0.026502991            3 
 2146000   0.91597625   -7.1345665    679.38887  0.026381985  0.026495309            6 
 2147000   0.91772738    -7.134912    681.35764  0.026446112   0.02648774            3 
 2148000   0.89903451   -7.1514875    678.93711  0.026339894  0.026480124            4 
 2149000   0.91779158   -7.1117299    681.63975  0.026432439  0.026472476            6 
 2150000    0.9013036   -7.1432014    679.02429  0.026318771   0.02646484            7 
 2151000   0.91451211   -7.1340881    681.27066  0.026393563  0.026457178            3 
 2152000   0.89221402   -7.1114706    680.39816  0.026347512  0.026449585            2 
 2153000   0.90063144   -7.1227979     681.7117  0.026386116  0.026441896            3 
 2154000   0.89732758   -7.1448276    680.74668  0.026336532  0.026434242            3 
 2155000   0.88974435   -7.1159483    680.53073   0.02631596   0.02642658            5 
 2156000   0.88579201   -7.1521049    681.24482  0.026331355  0.026418937            3 
 2157000   0.88640029   -7.1621018    678.69833  0.026220767  0.026411252            3 
 2158000   0.88981752    -7.157361    680.68104  0.026285181  0.026403572            3 
 2159000   0.91455454   -7.1765877    680.23624  0.026255838  0.026395905            4 
 2160000   0.88902626    -7.157275     681.9298   0.02630902   0.02638822            3 
 2161000   0.91266801   -7.1224376    683.47928  0.026356597  0.026380582            2 
 2162000    0.9275801   -7.1423157    681.81668  0.026280322  0.026373057            2 
 2163000   0.92483438   -7.1276181    680.99026  0.026236333  0.026365466            6 
 2164000   0.91155724   -7.1115779     683.0828   0.02630479  0.026357856            3 
 2165000   0.93310002   -7.1054073    682.10074   0.02625484  0.026350227            1 
 2166000    0.8982523   -7.1387565    680.94845  0.026198386  0.026342511            3 
 2167000   0.88601995   -7.1691583    680.42276  0.026166081  0.026334769            2 
 2168000   0.91045434   -7.1277804    681.24304  0.026185541  0.026327046            3 
 2169000   0.90396473   -7.1324948    681.40109  0.026179541  0.026319306            2 
 2170000   0.89712888   -7.1578098    681.20795   0.02616006  0.026311613            4 
 2171000   0.89951631   -7.1328995    682.21856  0.026186802  0.026303944            3 
 2172000   0.90789141   -7.1604115    685.29133  0.026292639  0.026296322            3 
 2173000   0.90746906   -7.1680048    681.79605  0.026146497   0.02628876            9 
 2174000   0.91475472   -7.1604758    683.87809  0.026214278   0.02628119            5 
 2175000    0.8946848   -7.1378762    685.25311  0.026254908  0.026273621            4 
 2176000   0.91701904   -7.1176663    685.52742  0.026253348  0.026266104            6 
 2177000   0.89897726   -7.1472351    683.80978  0.026175539   0.02625858            3 
 2178000   0.90216438   -7.1167634    685.28059  0.026219796  0.026251082            3 
 2179000   0.89883994   -7.1462699    684.17551    0.0261655  0.026243536            3 
 2180000   0.89324317   -7.1354293    685.08331    0.0261882   0.02623599            3 
 2181000   0.89723392   -7.1482295     684.2976  0.026146172  0.026228452            3 
 2182000   0.92354429   -7.1444345    685.75871  0.026189991  0.026220953            6 
 2183000   0.89037545   -7.1530317    683.52554  0.026092745  0.026213532            2 
 2184000   0.91191389   -7.1287132    684.86397  0.026131867  0.026206048            3 
 2185000   0.88539337   -7.1440826    686.79501  0.026193555  0.026198594            3 
 2186000   0.92051126    -7.171244    684.74172  0.026103298  0.026191023            1 
 2187000   0.90157134   -7.1441184    687.30992  0.026189221  0.026183502            4 
 2188000   0.88791173   -7.1726509    685.84866  0.026121597   0.02617597            3 
 2189000   0.88023587   -7.1221208    687.18557  0.026160559   0.02616845            3 
 2190000   0.89657685   -7.1336236    687.31359  0.026153485  0.026160962            5 
 2191000   0.89836557   -7.1457432    684.66705  0.026040889   0.02615347            5 
 2192000   0.87577128   -7.1557563    686.34631  0.026092849  0.026145915            2 
 2193000   0.88770967   -7.1523418    685.55231  0.026050779   0.02613832            4 
 2194000    0.8946542   -7.1437122    685.72034  0.026045288  0.026130734            5 
 2195000   0.88816728   -7.1629838    684.89258  0.026001996   0.02612321            3 
 2196000   0.92448977   -7.1411138    686.45521  0.026049454  0.026115649            3 
 2197000   0.90974952   -7.1448228    687.62402  0.026081931  0.026108135            4 
 2198000   0.89687349   -7.1677344     687.3245  0.026058709  0.026100666            9 
 2199000   0.89542578   -7.1443666    687.49769  0.026053422  0.026093145            5 
 2200000   0.88505156   -7.1414644    687.38439  0.026037287  0.026085706            2 
 2201000   0.89266638   -7.1755553    688.01145  0.026049199  0.026078282            3 
 2202000     0.904872   -7.1521979    688.61043  0.026060038  0.026070795            4 
 2203000   0.90266036   -7.1359339    688.99246  0.026062659  0.026063414            7 
 2204000   0.91030909    -7.112109    690.13922  0.026094193   0.02605605            4 
 2205000   0.87523945   -7.1426947    688.41904  0.026017348  0.026048643            4 
 2206000    0.9064493   -7.1938767    688.40943  0.026005191  0.026041217            4 
 2207000   0.89562784   -7.1130325    688.16365  0.025984128  0.026033854            5 
 2208000   0.89991598   -7.1315447    688.76317  0.025994987  0.026026461            5 
 2209000   0.90438974   -7.1499699    689.93772  0.026027528  0.026019078            8 
 2210000   0.90530983   -7.1515417    689.90879   0.02601466  0.026011713            2 
 2211000   0.89065412   -7.1801031    689.52216  0.025988322   0.02600434            3 
 2212000   0.90383071   -7.1357789     690.4125  0.026010115  0.025996922            3 
 2213000   0.89731125   -7.1556219    690.50732  0.026001932  0.025989596            3 
 2214000   0.89402393   -7.1729832     689.5076  0.025952559  0.025982221            5 
 2215000   0.91747576   -7.1690106    690.42101  0.025975207  0.025974831            6 
 2216000   0.88375259   -7.1633255    690.46534  0.025965153  0.025967482            5 
 2217000   0.91213655   -7.1398617    691.20217  0.025981137  0.025960098            6 
 2218000   0.90248527   -7.1771071    690.53532  0.025944369  0.025952775            3 
 2219000   0.89570345   -7.1602641    690.18738   0.02591961  0.025945447            2 
 2220000   0.89628256   -7.1093192    691.78567  0.025967931  0.025938162            4 
 2221000   0.89104137   -7.1278326    692.09814  0.025967963  0.025930855            2 
 2222000    0.8894135   -7.1668964    691.97244  0.025951562    0.0259235            2 
 2223000   0.89931611   -7.1766666    690.87104  0.025898599  0.025916069           10 
 2224000   0.89824036   -7.1539384    690.96659  0.025890535  0.025908706            7 
 2225000   0.90972681   -7.1456744    690.93799  0.025877827  0.025901267            6 
 2226000   0.92637238   -7.1771651    689.18101  0.025800427  0.025893771            5 
 2227000   0.89163374   -7.1571828     690.6618  0.025844252  0.025886292            4 
 2228000   0.89774095   -7.1543521    691.16554  0.025851494  0.025878868            3 
 2229000   0.89670748   -7.1683549    691.21837  0.025841871  0.025871442            4 
 2230000   0.88649775    -7.169155    694.12431  0.025938875  0.025864043            1 
 2231000   0.88841579   -7.1638008    692.49116  0.025866247  0.025856653            2 
 2232000   0.89624856   -7.1666739    691.20067  0.025806477  0.025849254            2 
 2233000   0.89054668   -7.1863935    691.80949   0.02581764  0.025841869            4 
 2234000    0.8954079   -7.1536575    693.85494  0.025882384  0.025834466            5 
 2235000   0.89566726   -7.1621783    691.96719  0.025800417   0.02582715            5 
 2236000   0.88058988   -7.2029559    691.40252  0.025767834  0.025819804            4 
 2237000   0.88739462   -7.1386933    694.70111  0.025879195  0.025812509            6 
 2238000   0.88826616   -7.1517437    696.52788  0.025935652  0.025805245            4 
 2239000   0.88730715   -7.1588321    693.31276  0.025804405  0.025797932           12 
 2240000    0.8937865   -7.1460359    694.52319  0.025837916  0.025790608            3 
 2241000   0.87411233   -7.1774557    695.18331  0.025850934  0.025783311            3 
 2242000   0.89052517   -7.1822319    694.40531  0.025810486  0.025776069            3 
 2243000   0.88868783   -7.1902631    693.66388  0.025771433  0.025768815            2 
 2244000    0.8836106   -7.1693733    694.09593  0.025775992  0.025761517            3 
 2245000   0.88480554   -7.1567644    695.56805  0.025819156  0.025754273            3 
 2246000   0.87733982     -7.15913    694.13231   0.02575439  0.025747094            4 
 2247000   0.88692233   -7.1946114    695.28198  0.025785565  0.025739886            6 
 2248000   0.90376162    -7.146315    696.87271  0.025833063  0.025732673            4 
 2249000   0.89597892   -7.1850437    694.11818  0.025719512   0.02572544           10 
 2250000   0.88702434   -7.1494202    697.10485  0.025818698  0.025718234            6 
 2251000   0.89308037   -7.1501022    695.59092  0.025751182  0.025711071            4 
 2252000   0.88989061   -7.1540778    696.24681  0.025764018  0.025703898            4 
 2253000   0.87366662   -7.1902937    696.14754   0.02574891  0.025696703            3 
 2254000   0.89254885   -7.1542578    697.97872  0.025805188  0.025689511            3 
 2255000   0.89924108   -7.1789237    697.63343  0.025780984  0.025682333            4 
 2256000   0.87914787   -7.1906775    695.46306  0.025689386  0.025675172            4 
 2257000   0.93434945   -7.1881296    697.35719  0.025747939  0.025667956            2 
 2258000   0.89042349   -7.1848824    695.90496  0.025682941   0.02566075            4 
 2259000   0.89610398   -7.1735337    698.00132  0.025748905  0.025653566            4 
 2260000   0.87589492   -7.1641363    697.25113   0.02570985  0.025646433            6 
 2261000   0.90629866   -7.1455114    697.70514  0.025715212  0.025639285            4 
 2262000   0.90985644   -7.1724458     697.2023  0.025685319  0.025632119            6 
 2263000   0.89002807   -7.1694002    696.91037  0.025663219  0.025624961            3 
 2264000   0.88743366   -7.1961234    696.11016  0.025622429  0.025617713            3 
 2265000   0.86669384    -7.173614    697.96179  0.025679242  0.025610433            4 
 2266000   0.88023424   -7.1709375    696.90226  0.025628944  0.025603199            6 
 2267000   0.88392873   -7.1991447    697.24866  0.025630373  0.025595974            3 
 2268000   0.90452705   -7.1628593    697.74241  0.025637214  0.025588779            6 
 2269000   0.89919999    -7.176886    697.55163  0.025618908  0.025581532            6 
 2270000    0.8862177   -7.1581934    697.72603  0.025614024  0.025574244            4 
 2271000   0.86898532   -7.1664393    698.86662  0.025644599  0.025566979            3 
 2272000    0.8973045   -7.2095396    696.61475  0.025550717   0.02555976            2 
 2273000   0.89855776   -7.1881484     698.3273  0.025602262  0.025552579            5 
 2274000   0.89379464   -7.1810006    698.68654  0.025604168  0.025545359            3 
 2275000   0.87449705    -7.175222    698.40624  0.025582646  0.025538137            2 
 2276000   0.88631452   -7.1610044    700.40583  0.025644619  0.025530931            3 
 2277000   0.90319247   -7.2052148    698.66233  0.025569548  0.025523672            2 
 2278000   0.88458532   -7.1973766     698.8615   0.02556561  0.025516495           11 
 2279000   0.89385967   -7.1415539    698.46894  0.025540037  0.025509326           12 
 2280000   0.88651079    -7.168233    699.33184  0.025560374  0.025502197            5 
 2281000   0.89313011   -7.1619673    700.28689   0.02558406  0.025495033            4 
 2282000   0.89253307   -7.1557077    700.59292  0.025584024  0.025487845            2 
 2283000   0.86902957    -7.178687    698.80678  0.025507621  0.025480709            5 
 2284000   0.88997402   -7.1927051    699.21768  0.025511445   0.02547353            5 
 2285000   0.90186849   -7.1953478    698.91755  0.025489334  0.025466313            3 
 2286000   0.89266394   -7.1743163    700.54323  0.025537447  0.025459066            6 
 2287000   0.91835985   -7.1814975    699.73604  0.025496868  0.025451919            3 
 2288000   0.88837078   -7.1822452     702.4526  0.025584666  0.025444773            9 
 2289000   0.87584048   -7.1984933    701.30323  0.025531645  0.025437588            5 
 2290000    0.8911679   -7.1654226    700.49399  0.025491048  0.025430382            4 
 2291000   0.89942463   -7.1734505    702.20286   0.02554208  0.025423168            3 
 2292000   0.86224963   -7.1811798    698.75967  0.025405747  0.025415931            3 
 2293000   0.89350118   -7.2042893    699.98137  0.025439067  0.025408688            3 
 2294000   0.88028538    -7.158228    701.13175  0.025469767  0.025401419            3 
 2295000    0.8937396   -7.1743818     702.8222  0.025520051  0.025394297            7 
 2296000   0.88482426   -7.1940138    700.35276  0.025419308  0.025387086            6 
 2297000   0.88205497   -7.1796671    702.74529   0.02549504   0.02537987            6 
 2298000   0.88906482   -7.1742768    700.06765  0.025386845  0.025372588            7 
 2299000    0.8743287    -7.236083    698.01495  0.025301397   0.02536535            4 
 2300000   0.85003586   -7.1981069    701.55136  0.025418527  0.025358106            8 
 2301000   0.89387438   -7.1542184     701.5917  0.025408942  0.025350903            6 
 2302000   0.89595863   -7.1493159    701.98742  0.025412229  0.025343766            3 
 2303000   0.87969571   -7.1910703    701.21666  0.025373305  0.025336583            4 
 2304000   0.88544904   -7.1764765    702.45243  0.025406989  0.025329415            3 
 2305000    0.8716289   -7.1765819    702.38042  0.025393363  0.025322298            3 
 2306000   0.88723151   -7.2128591    702.93156  0.025402268  0.025315132            4 
 2307000   0.88291726   -7.1794818    701.76224  0.025349019  0.025307981            5 
 2308000   0.87096072   -7.1981658     704.6277  0.025441497  0.025300778            3 
 2309000   0.90010211   -7.1689573    703.70776  0.025397277  0.025293582            3 
 2310000   0.89246344   -7.1993421    704.01713  0.025397444  0.025286414            5 
 2311000   0.87926681   -7.2093743    702.59313  0.025335105  0.025279188            6 
 2312000   0.87451067   -7.1938301    701.46188  0.025283372  0.025271997            7 
 2313000    0.8944416   -7.2016623    701.87162  0.025287203  0.025264775            5 
 2314000   0.88467553   -7.1881042     703.8035  0.025345848  0.025257574            5 
 2315000   0.89846803   -7.2112091    703.57392  0.025326635  0.025250394            6 
 2316000   0.87005805   -7.1634441    705.27555  0.025376927  0.025243246            7 
 2317000   0.87646926   -7.1779049    705.36067  0.025369036  0.025236197            6 
 2318000   0.87967486   -7.2165301    705.35333  0.025357827  0.025229079            3 
 2319000    0.9008264   -7.2051061    704.16063  0.025304033  0.025221968            4 
 2320000   0.89439405   -7.1754366    704.81682  0.025316696  0.025214837            3 
 2321000   0.88333985   -7.2004345    705.00434  0.025312521  0.025207713            3 
 2322000   0.90312752   -7.2054518    705.26757  0.025311067  0.025200566            4 
 2323000   0.87038716   -7.2029986    703.49207  0.025236478  0.025193418            6 
 2324000   0.89592819   -7.2001239    705.33274  0.025291621  0.025186259            3 
 2325000   0.87080469   -7.2177661    705.53296   0.02528792  0.025179085            3 
 2326000   0.86811123   -7.1719255    704.56685  0.025242435  0.025171968            6 
 2327000   0.87521399    -7.214308    704.13672  0.025216184   0.02516481            3 
 2328000   0.89249289   -7.2050367    705.62276  0.025258547  0.025157665            7 
 2329000   0.89384097   -7.2054568    707.28205  0.025307072  0.025150579            6 
 2330000   0.88679762   -7.2050988    707.60494  0.025307759  0.025143565            2 
 2331000   0.86026331   -7.2005883    707.86512  0.025306203  0.025136552            3 
 2332000   0.86756601   -7.2330546    706.50639  0.025246798  0.025129501            3 
 2333000    0.8816898   -7.1902232    707.13109   0.02525829  0.025122463            3 
 2334000   0.87365323   -7.2193948    707.41926  0.025257757  0.025115478            3 
 2335000   0.87770161   -7.2142277    707.46736  0.025248657  0.025108446            6 
 2336000   0.87773131   -7.1906685    707.64478  0.025244177  0.025101443            5 
 2337000   0.85954273   -7.2159746    708.61439   0.02526795  0.025094463            5 
 2338000   0.86936662   -7.2060548    705.89925  0.025160367  0.025087425            4 
 2339000   0.87099224   -7.1784502    707.98968  0.025224087  0.025080379            3 
 2340000   0.87902788   -7.1926156    708.26333  0.025223053  0.025073439            4 
 2341000   0.86534301   -7.1818324    707.84572  0.025197413  0.025066465            5 
 2342000   0.85591692   -7.1517471    711.04176  0.025300376  0.025059496            6 
 2343000   0.87018868   -7.2169989    708.33502  0.025193307  0.025052503            5 
 2344000   0.88411522   -7.1981198    708.54723  0.025190104  0.025045507            6 
 2345000   0.86882877   -7.2101402    706.60575  0.025110368   0.02503846            3 
 2346000   0.88844346    -7.174375     708.9435  0.025182705  0.025031422            5 
 2347000   0.86610743   -7.2155255     709.1118  0.025177951  0.025024414            7 
 2348000   0.87638806   -7.2188168    711.55456  0.025253924  0.025017395            3 
 2349000   0.87895158   -7.1943042    710.14103  0.025193026  0.025010366            6 
 2350000   0.87555609    -7.188189    708.64806  0.025129364  0.025003356            6 
 2351000   0.85872473   -7.1819672    708.19801  0.025102723  0.024996319            3 
 2352000   0.86373327   -7.2113294    706.65789  0.025037482  0.024989246           11 
 2353000   0.85907486   -7.2109072    709.73586   0.02513585   0.02498223            4 
 2354000   0.87218235   -7.2084085    708.65546  0.025086925  0.024975218            3 
 2355000   0.87809417   -7.1894474    709.88387  0.025119741  0.024968247            4 
 2356000   0.88474604   -7.2244399    707.95086  0.025040707  0.024961137            5 
 2357000   0.88391389   -7.2121869     711.8782  0.025168937  0.024954064            8 
 2358000   0.86819758    -7.242218    708.38712  0.025034886  0.024947021            4 
 2359000   0.86519094   -7.2064769    709.23656   0.02505428  0.024940002            6 
 2360000   0.86962743   -7.2045177    710.72545  0.025096238  0.024933019            3 
 2361000   0.88238731   -7.2116992    710.72486  0.025085587  0.024926049            4 
 2362000    0.8661484   -7.1953835    710.61036  0.025070927  0.024919069            7 
 2363000   0.87266175   -7.2095725    711.20833  0.025081405  0.024912143            5 
 2364000   0.87263244   -7.1884051    711.96148  0.025097345  0.024905172            3 
 2365000   0.88837262   -7.1904408    711.91433  0.025085071  0.024898222            5 
 2366000   0.87970132   -7.2145404    709.06495   0.02497411  0.024891211            8 
 2367000   0.87176856   -7.2210773     710.2888  0.025006647  0.024884211            5 
 2368000   0.84756043   -7.2123841    711.47567  0.025037854  0.024877187            2 
 2369000   0.86627282   -7.1999901    711.28886  0.025020714   0.02487012            5 
 2370000   0.85866207   -7.2193741    709.06494   0.02493196  0.024863084            5 
 2371000   0.86773612   -7.2246557    709.92011  0.024951501  0.024856026            7 
 2372000   0.88893556   -7.2139217    711.65733  0.025002014  0.024849005            3 
 2373000   0.89802918   -7.2322998    711.86565  0.024998794   0.02484206            3 
 2374000   0.89177688   -7.2013984    711.81013  0.024986315  0.024835062            2 
 2375000   0.87826413   -7.2113561    712.28735  0.024992539  0.024828141            4 
 2376000   0.88107855   -7.1948419    711.62322  0.024958727  0.024821155            4 
 2377000   0.86750588   -7.2346954    710.39962   0.02490533  0.024814171            2 
 2378000   0.90236216   -7.2197339     710.9186  0.024913043  0.024807151            5 
 2379000   0.86088913   -7.1666732    715.33616  0.025057313  0.024800243            6 
 2380000   0.87071327   -7.2259401    712.48362  0.024946905  0.024793305            5 
 2381000   0.86586774   -7.2327429    710.99699  0.024884397  0.024786271            6 
 2382000   0.87015449   -7.2157707    711.50151  0.024891601  0.024779289            7 
 2383000   0.88012828   -7.2070846    709.69254  0.024817896  0.024772269            6 
 2384000   0.86273829   -7.2172757    712.12761  0.024892604  0.024765291           10 
 2385000    0.8685259   -7.2598735    712.66665  0.024901001  0.024758335            5 
 2386000   0.86649143   -7.2193202      712.429  0.024882265  0.024751361            2 
 2387000   0.85265129   -7.2573585    712.58784  0.024877386  0.024744366            5 
 2388000   0.87941539   -7.1984734    714.60221  0.024937263  0.024737369            2 
 2389000   0.86392408   -7.1987145    712.11264  0.024839983  0.024730404            4 
 2390000   0.88553501   -7.2222127    714.92076  0.024927502  0.024723365            4 
 2391000   0.87552812   -7.2141215    713.28376  0.024860022  0.024716342            2 
 2392000   0.88705675   -7.2462471    711.37654  0.024783185  0.024709229            4 
 2393000    0.8585812   -7.2237058    714.33938  0.024876006  0.024702166            2 
 2394000   0.87870765   -7.1973552    715.64992  0.024911234  0.024695164            4 
 2395000   0.85572054   -7.2407508    714.40254   0.02485743  0.024688135           13 
 2396000    0.8885337   -7.1704061    713.61301  0.024819596  0.024681116            3 
 2397000   0.84670984   -7.2311804    713.99562  0.024822543  0.024674125            4 
 2398000   0.88988335   -7.2081186    714.52267  0.024830507  0.024667098            3 
 2399000   0.85792676   -7.2039891    714.42673  0.024816824  0.024660117            7 
 2400000   0.86715916   -7.2166291     712.8698  0.024752423  0.024653113            4 
 2401000   0.87934645   -7.2332916    713.02117  0.024747368  0.024646044            2 
 2402000   0.85217406   -7.2240943    715.39435  0.024819399  0.024639027            7 
 2403000   0.85106347    -7.232271    715.37576  0.024808425   0.02463204            6 
 2404000   0.87490941   -7.2302223    715.82572  0.024813703  0.024625052            2 
 2405000   0.84801843   -7.2314677    713.32651  0.024716788  0.024618068            3 
 2406000   0.86885364    -7.212116      715.549  0.024783493   0.02461105            3 
 2407000   0.85340025    -7.245872    715.81895  0.024782542  0.024604062            3 
 2408000   0.83915332   -7.2407651     714.9789  0.024743179  0.024597106            3 
 2409000   0.86499618   -7.2441824    715.09839  0.024737041  0.024590087            4 
 2410000   0.87413623   -7.2634189    714.10558  0.024692448  0.024583093            3 
 2411000   0.84970304   -7.2385396    716.42768  0.024762467   0.02457605            5 
 2412000   0.86628926   -7.2178276    715.09276  0.024706079  0.024569057            4 
 2413000   0.88081925   -7.2160105    715.90131  0.024723764   0.02456212            6 
 2414000   0.86720715   -7.2171367     716.6378  0.024738946  0.024555139            4 
 2415000   0.85496622    -7.231053    716.30304  0.024717151  0.024548111            4 
 2416000   0.86870228   -7.2022939    716.79919  0.024724034  0.024541106            6 
 2417000   0.86630157    -7.252696    713.94685  0.024615462  0.024534123            4 
 2418000   0.86917623   -7.2423289    714.86274  0.024636847  0.024527084            3 
 2419000    0.8582901   -7.2066736    714.30803  0.024607552  0.024520121            8 
 2420000   0.86031007   -7.2100734    717.48634   0.02470683  0.024513149            2 
 2421000   0.86567312   -7.2078079    718.55494  0.024733407  0.024506266            5 
 2422000   0.87604033    -7.192244    717.88114  0.024700012  0.024499416           11 
 2423000   0.87636882   -7.2338184    718.45747  0.024709639  0.024492549            6 
 2424000   0.87356667   -7.2408877    716.46836  0.024631063  0.024485607            7 
 2425000   0.85847387   -7.2257012    717.97539  0.024672694  0.024478672            3 
 2426000   0.84580363    -7.225705    716.30578  0.024605173   0.02447177            5 
 2427000   0.86912203   -7.2096163    716.54843  0.024603366  0.024464877            5 
 2428000   0.86645599    -7.216055    718.04994  0.024644767  0.024457887            4 
 2429000   0.85129477   -7.2328961     718.6511  0.024655246  0.024450945            5 
 2430000    0.8699676     -7.21681    717.49512  0.024605457  0.024444012            5 
 2431000   0.85926635    -7.238281    715.91539  0.024541183  0.024437029            7 
 2432000    0.8673592   -7.2680915    716.41409   0.02454818  0.024430037            4 
 2433000   0.86449937   -7.2406263    717.95645  0.024590918  0.024422994            6 
 2434000   0.85878701   -7.2700555    714.51513  0.024462994  0.024416014            5 
 2435000   0.84955029   -7.2619783    716.50175  0.024520936  0.024408989            3 
 2436000   0.86705874   -7.2183182    717.73502  0.024553059  0.024401928            5 
 2437000   0.87379386   -7.2290421    716.43423  0.024498503  0.024394818            8 
 2438000   0.84960738   -7.2478284    717.34408  0.024519554  0.024387748            5 
 2439000   0.85283673   -7.2482063    716.33913  0.024475165  0.024380693            8 
 2440000   0.86077267   -7.2716432    717.68344  0.024511046  0.024373681            6 
 2441000   0.86476956   -7.2518961    717.16264  0.024483226  0.024366639            5 
 2442000    0.8850463    -7.235505    718.34686  0.024513611  0.024359592            7 
 2443000   0.87066951   -7.2104627    717.48362  0.024474131  0.024352587            3 
 2444000   0.87458655   -7.2463902    716.41233  0.024427589  0.024345509            4 
 2445000    0.8645004   -7.2408162    717.63762   0.02445936  0.024338431            5 
 2446000   0.84607205   -7.2672779    716.33992  0.024405149  0.024331322            4 
 2447000   0.86713692   -7.2259063    717.87274  0.024447376   0.02432421            7 
 2448000   0.87764839    -7.258429    717.21112  0.024414867  0.024317134            5 
 2449000   0.84601018    -7.232025    718.51966  0.024449424  0.024310055            5 
 2450000   0.86373402   -7.2489725    718.06814  0.024424086  0.024302946            3 
 2451000   0.87096654   -7.2513462    717.11363  0.024381668  0.024295838            3 
 2452000   0.85409207   -7.2382457    717.18684  0.024374213  0.024288738            4 
 2453000   0.87234508   -7.2574816    718.66124  0.024414365   0.02428163            9 
 2454000   0.84288805   -7.2685582    716.67995  0.024337135  0.024274524           11 
 2455000   0.85586108   -7.2564972    716.86052  0.024333351  0.024267375            4 
 2456000   0.84286849   -7.2282106    718.96199  0.024394747   0.02426026            5 
 2457000   0.85123823   -7.2593323    716.65597  0.024306606  0.024253213            4 
 2458000   0.85412475   -7.2409141    719.08279  0.024378993  0.024246133            3 
 2459000   0.87692799   -7.2303784    716.91102   0.02429548  0.024239033            4 
 2460000   0.86125063   -7.2127009    719.19602  0.024363009   0.02423197            3 
 2461000   0.86025339   -7.1943786    718.85756  0.024341648  0.024224999            9 
 2462000   0.85667146   -7.2088757    718.12797  0.024307066  0.024217959            3 
 2463000   0.83540191   -7.2589407     718.3228  0.024303789   0.02421088            4 
 2464000   0.83957505   -7.2448529    718.76625  0.024308924  0.024203814            4 
 2465000   0.85127526   -7.2507503    720.05751  0.024342715  0.024196758            3 
 2466000   0.86513025   -7.2510838    719.87851  0.024326795  0.024189685            2 
 2467000   0.84854779   -7.2678873    718.84102  0.024281888  0.024182577            4 
 2468000   0.85760902   -7.2458259    719.02816  0.024278368  0.024175492            8 
 2469000   0.87880995   -7.2426819    720.52238  0.024318968   0.02416848            4 
 2470000    0.8460471   -7.2767833     719.8258  0.024285621  0.024161464            1 
 2471000   0.85359257   -7.2682978    720.02233   0.02428242  0.024154462            4 
 2472000   0.85038843   -7.2566489    720.71671  0.024296006  0.024147493            5 
 2473000   0.87633983    -7.274036    720.83507  0.024290169  0.024140524            8 
 2474000   0.83322155   -7.2225484    720.60358  0.024272554  0.024133472            4 
 2475000   0.87193755   -7.2270197    721.93349  0.024307525  0.024126484            5 
 2476000   0.85249357   -7.2412405      719.882  0.024228662   0.02411952            2 
 2477000   0.85499143   -7.2415719    721.83761  0.024284673  0.024112534            4 
 2478000   0.83883475   -7.2925651    719.82828    0.0242073  0.024105535            7 
 2479000   0.84574056   -7.2465541    720.31825  0.024214006  0.024098516            8 
 2480000   0.86370149   -7.2584212    720.47472    0.0242095  0.024091554            3 
 2481000   0.85651397   -7.2400769    720.21952   0.02419117   0.02408461            5 
 2482000   0.85679021   -7.2608108     720.9969  0.024207524  0.024077667           10 
 2483000   0.85755349   -7.2520919    722.52028  0.024248902  0.024070686            3 
 2484000    0.8407246   -7.2487404    721.00743  0.024188387  0.024063677            3 
 2485000   0.87033242   -7.2351219    722.79978  0.024238758  0.024056699            3 
 2486000   0.86068596   -7.2410769     720.9605  0.024167354  0.024049757            6 
 2487000   0.85082211   -7.2439771    723.37482  0.024238535  0.024042805            3 
 2488000   0.85473557   -7.2460671    721.47683  0.024165221   0.02403586            3 
 2489000   0.85076055   -7.2677729    720.34755  0.024117703  0.024028899            3 
 2490000   0.85227276   -7.2666637    721.29671  0.024139783  0.024021895            4 
 2491000   0.86061257   -7.2459894    722.12146  0.024157683  0.024014949            4 
 2492000   0.85320617   -7.2360357    721.69298   0.02413366  0.024007949            3 
 2493000   0.85690745   -7.2581042    720.68442  0.024090267   0.02400097            3 
 2494000    0.8707264   -7.2566306    721.18219   0.02409724  0.023993987            7 
 2495000   0.85240268   -7.2772076     721.8176  0.024108804  0.023986987            4 
 2496000   0.85699718   -7.2373968    722.07234   0.02410765  0.023980005            2 
 2497000   0.83361663   -7.2417984    723.45326  0.024144082  0.023973013            6 
 2498000   0.85033536   -7.2718755    724.59052  0.024172355  0.023966088            3 
 2499000   0.84286262    -7.260325    723.52508  0.024127153  0.023959109            4 
 2500000    0.8586956   -7.3014298    724.00464  0.024133488  0.023952098            5 
 2501000   0.85300306   -7.2862343    722.84787  0.024085295  0.023945105            5 
 2502000   0.85810624   -7.2820739    721.16018  0.024019457  0.023938121            6 
 2503000   0.84834507   -7.2889495    722.31245  0.024048224  0.023931181            4 
 2504000    0.8575787   -7.2318814    723.04462  0.024062986  0.023924262            6 
 2505000   0.84730006   -7.2605339    723.78635  0.024078055  0.023917366            6 
 2506000   0.87350459    -7.240702    724.55643  0.024094055  0.023910507            5 
 2507000    0.8625165   -7.2745562    724.62818   0.02408683  0.023903632            7 
 2508000    0.8405906   -7.2523557    726.69039  0.024145747  0.023896784            2 
 2509000   0.86091041   -7.2973731    725.00044  0.024079993  0.023889906            8 
 2510000   0.82285553   -7.2614508    725.59603  0.024090174  0.023883057            2 
 2511000   0.85082364   -7.2955043    725.11522  0.024064623  0.023876194            3 
 2512000   0.85075897   -7.2624005    726.93432   0.02411539  0.023869365            5 
 2513000   0.84028338   -7.2831114    724.00458  0.024008641  0.023862551            7 
 2514000   0.84632851   -7.2661716    725.76153   0.02405733  0.023855718            5 
 2515000   0.83625602   -7.2610178    726.36304  0.024067695  0.023848891            3 
 2516000   0.85387377    -7.246977    726.21554  0.024053244  0.023842053            2 
 2517000    0.8502915   -7.2871531    724.17353   0.02397608   0.02383518            3 
 2518000   0.85673219   -7.2596773    726.49671  0.024043444  0.023828305            5 
 2519000   0.86035152   -7.2790452     725.4383  0.023998885  0.023821426            4 
 2520000    0.8517358   -7.2664427    727.82346  0.024068236  0.023814593            4 
 2521000   0.85418652   -7.3119953    725.76731  0.023990722  0.023807766            2 
 2522000   0.85568725   -7.2686165    727.04949  0.024023575  0.023800959            5 
 2523000   0.83900692   -7.2806745    726.67878  0.024001809   0.02379418            3 
 2524000   0.85253742   -7.2591601    728.61154  0.024056113  0.023787432            6 
 2525000   0.85322524   -7.2605717    728.12593  0.024030559  0.023780669            7 
 2526000   0.85573978   -7.2863236    727.46387  0.023999204  0.023773902            4 
 2527000   0.84488872   -7.2648917    727.12403    0.0239785  0.023767144            3 
 2528000   0.83791741   -7.2630815    727.70094  0.023988032   0.02376036            9 
 2529000   0.84678067   -7.2688547    726.35802  0.023934296  0.023753577            7 
 2530000   0.85032865   -7.2791237    727.47133  0.023961506   0.02374681           13 
 2531000   0.85588711   -7.2645302    729.44384  0.024016984  0.023740037            5 
 2532000   0.85064423   -7.2585678    729.34657  0.024004297  0.023733315            8 
 2533000   0.84065408    -7.260775    729.74717     0.024008  0.023726541            3 
 2534000   0.83574661    -7.281617     730.0085   0.02400712  0.023719771            5 
 2535000   0.85504311   -7.2782492    729.30176  0.023974417  0.023713022            5 
 2536000   0.86206383   -7.2607861    728.38246  0.023934755   0.02370626            4 
 2537000   0.82281727   -7.2519177    728.39661  0.023925785  0.023699547            5 
 2538000    0.8543502   -7.2829741    728.78272  0.023929036  0.023692848            3 
 2539000   0.85795153    -7.255307    730.46056   0.02397468  0.023686192            6 
 2540000    0.8474628   -7.2768227    731.69433   0.02400572  0.023679531            3 
 2541000   0.82676959   -7.2778002    729.43274  0.023922102  0.023672849            3 
 2542000   0.83957743   -7.2814048    730.50816  0.023947947  0.023666174            6 
 2543000   0.83923423   -7.2670803    729.57118  0.023907825  0.023659451           10 
 2544000   0.85146641   -7.2756215    729.60918  0.023899672  0.023652716            5 
 2545000   0.84408831   -7.2809619    729.84124   0.02389788  0.023645999            2 
 2546000   0.83648262   -7.3081693    730.08563  0.023896492  0.023639285            8 
 2547000   0.84793095   -7.2314753    731.71694  0.023940483  0.023632611            6 
 2548000   0.81951018   -7.2651045    730.82096  0.023901785  0.023625936            3 
 2549000   0.85148664   -7.2440155    732.97911  0.023962963  0.023619237            3 
 2550000   0.83742125   -7.2546838    732.98539  0.023953771  0.023612584            4 
 2551000   0.85191926   -7.2818909    731.11376  0.023883241  0.023605951            8 
 2552000   0.82991543   -7.2806406     730.7917  0.023863365  0.023599319            3 
 2553000   0.83209431   -7.2310119    731.47993  0.023876483    0.0235927            3 
 2554000   0.85875564   -7.2773214     731.3624  0.023863299   0.02358609            6 
 2555000    0.8465173   -7.3086493    729.12209   0.02378089  0.023579362            5 
 2556000   0.83594211   -7.2623238    730.79846  0.023826241  0.023572675            3 
 2557000   0.84314616    -7.279159    731.02854  0.023824421     0.023566            8 
 2558000   0.85689446   -7.2800744    731.80866  0.023840522  0.023559336            7 
 2559000   0.83667683   -7.2694234    730.30381    0.0237822  0.023552659            4 
 2560000   0.83848527   -7.2314003    732.38102  0.023840528  0.023545983            3 
 2561000   0.84828341   -7.2676232    732.37495  0.023831021  0.023539309            8 
 2562000   0.83838623   -7.2937497    732.49803  0.023825723  0.023532651            6 
 2563000   0.84736515   -7.2919101     731.1503  0.023772607  0.023525938            6 
 2564000   0.85067016   -7.2894041    729.54958   0.02371131  0.023519261            4 
 2565000   0.84389506   -7.2532779    731.36536  0.023761058   0.02351256            4 
 2566000   0.84635028   -7.2845679    731.30026  0.023749684  0.023505913            7 
 2567000   0.82299326   -7.3134835    729.83548   0.02369288  0.023499186            5 
 2568000   0.84789188   -7.2858645    732.39183  0.023766609  0.023492464            4 
 2569000   0.83914989   -7.3011516    731.81085  0.023738512  0.023485758            7 
 2570000   0.84055995   -7.3023494    731.39338  0.023715739  0.023479012            6 
 2571000   0.84790265   -7.2709428    733.10689  0.023762054  0.023472331            5 
 2572000   0.84759027   -7.2699701    732.75067  0.023741274  0.023465662            6 
 2573000   0.85139016   -7.2793677     732.1872  0.023713797  0.023459018            4 
 2574000   0.84054028    -7.240094    735.89621  0.023824664  0.023452416            4 
 2575000   0.83627492   -7.2724961    734.70263  0.023776784  0.023445813            6 
 2576000   0.83803376   -7.2565377    734.29718  0.023754438  0.023439177            4 
 2577000   0.83303957    -7.283258    733.70656  0.023726121  0.023432558            4 
 2578000   0.85828293   -7.2902968     734.7885  0.023751891  0.023425922            2 
 2579000   0.83250429   -7.2711607     735.1175  0.023753312  0.023419264            4 
 2580000   0.81876671   -7.2940669     733.8973  0.023704693  0.023412657            3 
 2581000    0.8589746   -7.3015856    735.71017  0.023754041  0.023405997            4 
 2582000   0.85382683   -7.2870036    732.96219  0.023656151  0.023399369            3 
 2583000   0.84727102    -7.287914    733.56195  0.023666342  0.023392744            3 
 2584000   0.85705215   -7.2968025    734.20808  0.023678021  0.023386069            6 
 2585000   0.84570774   -7.3097416    734.01426  0.023662613  0.023379423            6 
 2586000    0.8456529   -7.2559877     735.5441  0.023702762  0.023372815            5 
 2587000   0.83951181   -7.2996177    733.02488  0.023612449  0.023366217            4 
 2588000   0.84154379   -7.3050313     734.0764  0.023637184  0.023359589            5 
 2589000   0.82726281   -7.2937618    732.06038  0.023563164  0.023352955            3 
 2590000   0.85350962   -7.3103218    733.54208   0.02360174  0.023346331            5 
 2591000   0.84188503   -7.3287459    732.85473  0.023570524  0.023339696            4 
 2592000   0.83149304   -7.2773367    735.55081   0.02364811  0.023333047            5 
 2593000   0.84221725   -7.3111205    733.19253    0.0235632  0.023326439            6 
 2594000   0.85695342   -7.2676252    736.06775  0.023646484  0.023319832            6 
 2595000   0.83877958   -7.2726462    735.56602  0.023621259  0.023313284            2 
 2596000   0.85499038   -7.2971035    737.05024  0.023659805  0.023306753            2 
 2597000   0.83857451   -7.3121633    737.55268  0.023666817  0.023300255            3 
 2598000   0.83485382   -7.2857917    737.58397  0.023658711  0.023293728            6 
 2599000   0.83754704   -7.2817482    737.98005  0.023662308  0.023287212            4 
 2600000   0.84210061   -7.2941632     737.5869  0.023640606  0.023280701            5 
 2601000   0.84799798   -7.3060407    737.26509  0.023621206  0.023274181            5 
 2602000   0.83055514   -7.2760986    737.74484  0.023627493   0.02326768            6 
 2603000   0.84281498   -7.2889424    737.00102  0.023594603  0.023261147            2 
 2604000   0.82332262   -7.2802461    735.36484  0.023533181  0.023254601            7 
 2605000   0.81542461   -7.3001998    737.39741  0.023589168  0.023248027            4 
 2606000   0.82136505   -7.3008354    735.08744   0.02350625  0.023241486            7 
 2607000   0.83929087   -7.2767925    737.62637   0.02357839  0.023234925            6 
 2608000   0.82861803   -7.2815336    735.61149  0.023504968  0.023228415            7 
 2609000   0.82916979   -7.2553844    737.97043  0.023571306  0.023222013            7 
 2610000   0.82338117   -7.2739338    737.62491  0.023551242  0.023215617            5 
 2611000   0.83842725   -7.2922424    738.15632  0.023559183  0.023209145            4 
 2612000   0.84728599   -7.3135828     738.3605  0.023556678  0.023202713            8 
 2613000   0.82275222   -7.2648826    740.27133  0.023608602  0.023196268            4 
 2614000   0.82712728   -7.3330606    737.96345  0.023525996    0.0231898            6 
 2615000   0.83306347   -7.3025991     738.8398  0.023544927  0.023183364            5 
 2616000   0.81895996   -7.3193789      735.533  0.023430587  0.023176874            4 
 2617000   0.83029654   -7.2962477    740.83023  0.023590314  0.023170396            5 
 2618000   0.83868339   -7.2844392    740.20878  0.023561522   0.02316397            6 
 2619000    0.8439261   -7.3111726    738.53031  0.023499119  0.023157558            4 
 2620000   0.83553793   -7.3171628    737.66805  0.023462724  0.023151116            3 
 2621000   0.84400404   -7.2975717    740.38877  0.023540276  0.023144666            2 
 2622000   0.84608882   -7.2764878     739.3293  0.023497626  0.023138268            3 
 2623000   0.82477163   -7.2879688    740.29066   0.02351921  0.023131847            3 
 2624000   0.82997435   -7.2955233    740.19262  0.023507133  0.023125474            4 
 2625000   0.83087217    -7.312209    741.54766  0.023541195  0.023119067            4 
 2626000   0.85248856   -7.2913243    741.04805  0.023516376  0.023112725            4 
 2627000   0.83256532   -7.2761973    741.23283  0.023513286  0.023106384            4 
 2628000   0.82202807   -7.2930714    741.69369  0.023518953  0.023100042            4 
 2629000   0.83267384   -7.2959664    740.39515  0.023468846  0.023093658            5 
 2630000   0.83326275   -7.2973124    739.88909  0.023443888  0.023087244            6 
 2631000   0.83218239   -7.2995441    742.20418  0.023508304  0.023080871            4 
 2632000   0.82010102   -7.2626666    742.52754  0.023509611  0.023074544            4 
 2633000   0.81677289   -7.2893764    740.71812  0.023443414   0.02306819            2 
 2634000   0.84482279    -7.317865    739.84138  0.023406776  0.023061797            7 
 2635000   0.83997529   -7.3022254    741.38325  0.023446656  0.023055454            8 
 2636000    0.8295497   -7.2798349    742.27277  0.023465882   0.02304903            4 
 2637000   0.82517921   -7.3159034     741.7234  0.023439622  0.023042651            9 
 2638000   0.82989881   -7.3024349    740.59234  0.023395007  0.023036276            4 
 2639000   0.84128692   -7.2747313    740.53164  0.023384225  0.023029874            4 
 2640000   0.83844236   -7.3049737    742.61258  0.023441054  0.023023499            3 
 2641000   0.81593561   -7.3018088    741.66812  0.023402377  0.023017127            6 
 2642000   0.83925968   -7.2983576    741.11387  0.023376037  0.023010726            5 
 2643000   0.82452408   -7.2954739    742.31826  0.023405166  0.023004304           11 
 2644000   0.83187411   -7.3150271    741.17559    0.0233603  0.022997847            5 
 2645000   0.83298289   -7.3183445    743.07226  0.023411224  0.022991426            2 
 2646000   0.83595381   -7.3138209    741.29404  0.023346373   0.02298501            5 
 2647000    0.8262824   -7.2923655    742.01661  0.023360301  0.022978615            3 
 2648000   0.82398824   -7.2742153    742.49502  0.023366535  0.022972249            4 
 2649000   0.82046144   -7.3071063    741.45606   0.02332503  0.022965888            4 
 2650000   0.84420319   -7.2890156     741.6496  0.023322314  0.022959512            3 
 2651000   0.82635908   -7.3161166    744.54728  0.023404604   0.02295313            9 
 2652000   0.82746572   -7.2970191    742.78422  0.023340379  0.022946738            9 
 2653000    0.8358224   -7.3093608    743.22778  0.023345514  0.022940346            6 
 2654000   0.81783817   -7.2840948    743.27926  0.023338334  0.022933962            5 
 2655000   0.81461289   -7.2915183    742.87863  0.023316969   0.02292759            4 
 2656000   0.84814189   -7.3077955    743.87384  0.023339415  0.022921252            5 
 2657000   0.83413137   -7.2756205    742.55847  0.023289376  0.022914913            3 
 2658000   0.83187798   -7.3138992    742.94711  0.023292799  0.022908564            6 
 2659000   0.84436039   -7.3363914    744.65495  0.023337563  0.022902171            4 
 2660000   0.83247138   -7.3389268    741.54081  0.023231228  0.022895759            5 
 2661000   0.80500179   -7.2827513    743.76157  0.023292045  0.022889317            3 
 2662000   0.83234384   -7.2966613    744.68123  0.023312084  0.022882939            3 
 2663000   0.82457273   -7.3109806    743.14986  0.023255409  0.022876512            3 
 2664000   0.82155938   -7.3097076    741.88209  0.023207022  0.022870144            9 
 2665000   0.81660535   -7.3444595    743.27666  0.023241922  0.022863783            8 
 2666000      0.81696   -7.3109389    744.28752  0.023264801  0.022857414            5 
 2667000    0.8222233   -7.3117652    743.15052  0.023220551  0.022851025            5 
 2668000   0.83171779   -7.3131107     743.8741  0.023234448  0.022844635            7 
 2669000   0.83072784   -7.3190349     742.6871  0.023188682  0.022838209            9 
 2670000   0.82513411   -7.2866055    744.31838  0.023230911  0.022831839            3 
 2671000   0.82386795   -7.3326137    744.34163  0.023222939  0.022825468            6 
 2672000   0.81644194   -7.3117078    745.12712  0.023238745  0.022819108            3 
 2673000   0.82613102   -7.2973858    742.50631  0.023148345  0.022812719            8 
 2674000   0.81127867   -7.3048726    743.33934  0.023165649  0.022806373            6 
 2675000   0.82626246   -7.3046675    745.76082  0.023232424  0.022800012            5 
 2676000   0.81822591   -7.3453926    742.41181  0.023119451  0.022793638            3 
 2677000   0.82234267   -7.3200361    741.99667  0.023097891  0.022787198            4 
 2678000   0.81486035   -7.3464213    741.95013  0.023087818  0.022780736            4 
 2679000   0.81915892   -7.3211815    742.56975  0.023098474  0.022774308            4 
 2680000   0.82967583   -7.2843328    743.52007  0.023119405  0.022767931            2 
 2681000   0.81182646   -7.3233101     745.6737  0.023177723  0.022761561           11 
 2682000   0.82478363   -7.3242158     745.2586  0.023156183  0.022755153            2 
 2683000   0.83372493    -7.325016    746.91242   0.02319892  0.022748808            3 
 2684000   0.83365478   -7.2756312    746.88326  0.023189371  0.022742508            2 
 2685000   0.82663632   -7.2966559    745.42016  0.023135325  0.022736164            3 
 2686000   0.83037552   -7.3076417    744.61112  0.023101611  0.022729831            2 
 2687000   0.81521932   -7.3245742    745.60171  0.023123735  0.022723507            4 
 2688000   0.82590228   -7.3461914    745.75441  0.023119866  0.022717158            5 
 2689000   0.83857347   -7.3169995    745.32562   0.02309798  0.022710791            3 
 2690000   0.82316109   -7.3023948    745.73581  0.023102101  0.022704398           11 
 2691000     0.808105   -7.3269989    744.59585  0.023058214  0.022698011            8 
 2692000   0.81975316   -7.3508443    744.00205  0.023031267  0.022691589            5 
 2693000   0.82659714   -7.3306533    745.72038  0.023075887  0.022685167            5 
 2694000   0.83003869   -7.3085823     747.0386  0.023108098  0.022678783            3 
 2695000   0.81309663   -7.3269467      745.422  0.023049536  0.022672405            5 
 2696000   0.81113949   -7.3600523     743.8219  0.022991528  0.022665994            5 
 2697000   0.82332265   -7.3349546    746.07286  0.023052554  0.022659585            5 
 2698000   0.83013765    -7.279842    746.12075  0.023045489   0.02265324            2 
 2699000   0.82723938   -7.2936497    746.93334   0.02306204  0.022646932            2 
 2700000   0.83171939   -7.3577986    745.82238  0.023019209  0.022640655            5 
 2701000   0.83787445   -7.3401311    747.95024  0.023076337   0.02263428            2 
 2702000   0.81293648   -7.3477285    745.50657  0.022992431  0.022627941            3 
 2703000   0.80764867   -7.3185503    749.31208  0.023101248   0.02262163            5 
 2704000   0.83635203   -7.3294163    747.30802  0.023030942  0.022615345            5 
 2705000   0.80998307   -7.3429913    746.63672  0.023001747  0.022609015            6 
 2706000   0.81334609   -7.3484196     744.7274  0.022934448   0.02260268            4 
 2707000   0.81806987   -7.3318498     746.5115  0.022980898  0.022596324            4 
 2708000   0.83339927   -7.3120311    748.60872   0.02303695  0.022590009            5 
 2709000   0.82218148   -7.3404712    746.74378  0.022971077    0.0225837            3 
 2710000   0.81713434   -7.3501288    747.58539  0.022988481  0.022577375            5 
 2711000   0.80004417   -7.3209332    748.07645  0.022995096  0.022571073            5 
 2712000   0.80893912   -7.3237324     747.2548  0.022961369  0.022564798            3 
 2713000   0.81016137   -7.3073692    747.54843  0.022961925  0.022558518            5 
 2714000   0.82386595   -7.3291602    749.40197  0.023010377  0.022552267            4 
 2715000   0.84391908   -7.3461135    745.79483  0.022891186   0.02254598            4 
 2716000   0.82338677   -7.3514631    747.81559  0.022944759   0.02253967            3 
 2717000   0.81642007   -7.3409507    750.42354  0.023016303  0.022533399            5 
 2718000   0.82057182   -7.3286258    750.73148  0.023017276  0.022527174            6 
 2719000   0.81640361    -7.333118    747.61729  0.022913365  0.022520928           11 
 2720000   0.80860741   -7.3152412    749.94831  0.022976358  0.022514641            6 
 2721000   0.83139015   -7.3570989    747.10929  0.022880966  0.022508333            4 
 2722000    0.8052747   -7.3339072    748.18309  0.022905434  0.022502072            3 
 2723000   0.81862573   -7.3459385    748.43717  0.022904798  0.022495797           12 
 2724000   0.81866147   -7.3265526    750.16638   0.02294929  0.022489524            5 
 2725000   0.80936536   -7.3277562    750.82674  0.022961062  0.022483248            5 
 2726000   0.83249274   -7.3312094    747.27373  0.022844025  0.022477008            4 
 2727000   0.84058396   -7.3370247    750.02281  0.022919656  0.022470723            4 
 2728000   0.82313203   -7.3097788    749.51335  0.022895691  0.022464413            3 
 2729000     0.812618   -7.3407447    748.84692  0.022866951  0.022458166            5 
 2730000   0.84704685   -7.3294442     751.9195  0.022952366  0.022451903            3 
 2731000   0.80528519   -7.3587571    749.89293  0.022882123  0.022445666            6 
 2732000   0.80770254   -7.3354005    750.39863  0.022889172  0.022439398            4 
 2733000   0.81042296   -7.3499889    748.90579  0.022835278  0.022433199            3 
 2734000   0.81619517   -7.3682526    747.92577  0.022797055  0.022426967            5 
 2735000   0.81463927   -7.3506157    749.95154  0.022850443  0.022420687            7 
 2736000   0.80063843   -7.3500698    750.89269  0.022870757  0.022414394            8 
 2737000   0.82005109   -7.3447101    749.69454  0.022825921  0.022408131            6 
 2738000   0.80768686   -7.3225535    749.92243   0.02282452  0.022401903            7 
 2739000    0.7915039   -7.3359219    750.08018  0.022820986  0.022395658            9 
 2740000   0.81924932   -7.3346048    750.08537  0.022812815  0.022389422            4 
 2741000   0.80234372   -7.3476222    750.29829  0.022810966  0.022383171            4 
 2742000   0.80030756   -7.3318316    752.09767  0.022857332  0.022376948            8 
 2743000   0.82077775   -7.3424829    749.41165  0.022767397  0.022370734            3 
 2744000   0.80792887   -7.3386179    750.75644   0.02279994  0.022364513            6 
 2745000   0.80896156    -7.324619    751.38186  0.022810621    0.0223583            6 
 2746000   0.81319038   -7.3527418    751.60361  0.022809044  0.022352112            5 
 2747000   0.80053186   -7.3198232    752.05782   0.02281452  0.022345928            8 
 2748000   0.80333389   -7.3476658    750.95329  0.022772722  0.022339736            8 
 2749000    0.8165186    -7.308195    751.32603  0.022775737  0.022333565            5 
 2750000   0.80429894    -7.335624    753.26796  0.022826302  0.022327417            5 
 2751000   0.81109963     -7.34755    751.47679  0.022763746  0.022321233            2 
 2752000   0.82999101   -7.3585505     753.2122  0.022808024  0.022315035            4 
 2753000   0.80281651   -7.3280983    753.01384  0.022793735  0.022308835            3 
 2754000   0.80104538   -7.3421422    750.71826  0.022715997  0.022302636            8 
 2755000    0.8104323   -7.3430828    751.73593  0.022738534  0.022296423            5 
 2756000   0.81028661   -7.3610162    751.36966  0.022719209  0.022290232            4 
 2757000    0.8165042   -7.3424813    752.24283   0.02273736  0.022284039            4 
 2758000   0.79583188   -7.3329303    752.47193  0.022736038  0.022277867           13 
 2759000    0.8042321   -7.3448332    750.82607  0.022678086  0.022271666            5 
 2760000   0.80927636   -7.3339152    753.81611  0.022760148  0.022265482            6 
 2761000   0.81961627   -7.3505314     753.3756  0.022738609  0.022259303           12 
 2762000   0.78824515   -7.3597595    752.51292  0.022704348  0.022253124            3 
 2763000    0.8128405   -7.3578375    754.07719   0.02274331  0.022246921            6 
 2764000   0.81230998   -7.3692009    752.59517  0.022690399   0.02224075            5 
 2765000   0.81230881    -7.357443    753.23279   0.02270141  0.022234609            6 
 2766000    0.8089448   -7.3684895    751.54113  0.022642237  0.022228436            5 
 2767000   0.81234768    -7.345654    753.10313  0.022681097  0.022222229            4 
 2768000   0.79893112   -7.3953606    750.74388  0.022601875  0.022216008            7 
 2769000   0.81016952   -7.3678818    754.40232  0.022703814  0.022209815            5 
 2770000   0.82131219   -7.3590417    752.98373   0.02265294  0.022203626            2 
 2771000   0.79542638   -7.3559601    753.56374  0.022662208  0.022197412            5 
 2772000   0.80671125   -7.3755007    751.58575  0.022594569  0.022191164            7 
 2773000   0.80483808   -7.3645344    751.73366  0.022590866  0.022184911            2 
 2774000   0.80228087   -7.3261539    755.32903   0.02269073  0.022178702            5 
 2775000    0.8004857   -7.3244745    752.85119  0.022608144  0.022172516            6 
 2776000   0.83387626   -7.3313291    753.05039   0.02260598  0.022166292            8 
 2777000   0.82003359   -7.3344214    754.15572  0.022631008  0.022160061            7 
 2778000   0.79986974   -7.3469498    755.31405  0.022657609  0.022153908            6 
 2779000   0.79218397   -7.3332747    754.32939  0.022619929  0.022147757            6 
 2780000    0.8107558   -7.3526814    754.26832  0.022609962   0.02214159            5 
 2781000   0.82848713    -7.356021    753.42566  0.022576581  0.022135425            3 
 2782000   0.80439273   -7.3767259    752.66486  0.022545676  0.022129212            3 
 2783000   0.80201288    -7.369184     754.1192  0.022581124  0.022123012            6 
 2784000   0.80228406   -7.3683301    754.16424  0.022574361  0.022116855            4 
 2785000   0.81521369   -7.3331579    756.02686  0.022621989  0.022110754           14 
 2786000   0.80784178   -7.3305848    756.68625  0.022633592  0.022104654            4 
 2787000   0.81705463   -7.3342543     756.5179  0.022620437  0.022098596            3 
 2788000   0.78085621   -7.3293254    755.33636  0.022577007  0.022092504            4 
 2789000   0.79964182   -7.3502251    754.61782  0.022547443  0.022086411            6 
 2790000   0.79872296   -7.3429157      755.396  0.022562605  0.022080332            2 
 2791000   0.80378019   -7.3378758     754.3275  0.022522617   0.02207423           10 
 2792000   0.80620137   -7.3726726    756.50761   0.02257962   0.02206816            3 
 2793000   0.81321904   -7.3591755     755.1157  0.022530007  0.022062097            6 
 2794000   0.81615832   -7.3497167    755.99414  0.022548143  0.022055987            3 
 2795000   0.80566081   -7.3366487    756.77386  0.022563323  0.022049895            2 
 2796000   0.78929839   -7.3836621    756.98274  0.022561479  0.022043825            4 
 2797000   0.81740991   -7.3366491    756.79723  0.022547886  0.022037759            4 
 2798000    0.7889673   -7.3542692    757.51852  0.022561309  0.022031707            2 
 2799000   0.79877239   -7.3796122    756.42389  0.022520659  0.022025633            3 
 2800000   0.80039687   -7.3567326    756.13494  0.022504016  0.022019556            5 
 2801000   0.79634655   -7.3555087    757.90004  0.022548496   0.02201345            4 
 2802000   0.78780104   -7.3577899    758.70053  0.022564256  0.022007397            4 
 2803000   0.81035613    -7.360559    758.51864  0.022550798  0.022001359            4 
 2804000   0.78727308   -7.3515178    757.09934  0.022500575  0.021995301            3 
 2805000   0.79075774   -7.3612505    757.06669  0.022491583  0.021989224           12 
 2806000   0.80906755   -7.3814196    756.36056  0.022462597  0.021983159            6 
 2807000   0.79793422   -7.3917498    757.42875  0.022486307  0.021977079           11 
 2808000   0.79916464   -7.4081817    756.71023  0.022456975  0.021970972            6 
 2809000   0.81208258   -7.3589061    758.08298  0.022489705  0.021964894           11 
 2810000   0.81212369   -7.3652588    758.23889  0.022486325  0.021958801            2 
 2811000   0.80378958   -7.3984059    758.51178  0.022486416  0.021952699            6 
 2812000   0.80786186   -7.3571443    757.29769   0.02244244  0.021946631            4 
 2813000    0.7923935   -7.3748119    757.62856  0.022444264  0.021940543            3 
 2814000   0.80162969    -7.393762    759.01853   0.02247745   0.02193446            6 
 2815000   0.79661453   -7.3823931    758.40631  0.022451341  0.021928381            4 
 2816000   0.81884838   -7.3343451    759.05674  0.022462617  0.021922309            5 
 2817000   0.80379273    -7.350456    758.95577  0.022451656  0.021916296            7 
 2818000   0.79300038   -7.3748277    758.24724  0.022422736  0.021910247            2 
 2819000    0.8095742   -7.3872021    757.70922  0.022398877  0.021904196           10 
 2820000   0.79531762   -7.3592128    756.94052  0.022368219  0.021898127            2 
 2821000   0.81167083   -7.3961684    757.06194  0.022363876  0.021892052            4 
 2822000   0.78392647   -7.3699917    758.67096  0.022403466  0.021885958            3 
 2823000   0.79265923   -7.3819951    758.50666   0.02239068   0.02187985            3 
 2824000   0.81722941   -7.4043055    758.38438  0.022379142  0.021873736            4 
 2825000   0.82340283   -7.3852975    756.02803  0.022301712  0.021867595            4 
 2826000   0.79251112   -7.3612932    757.90498  0.022349168  0.021861501            4 
 2827000   0.80224769   -7.3407893    757.40569  0.022326544  0.021855406            2 
 2828000   0.80799441   -7.3754711    759.98845  0.022394756   0.02184934            5 
 2829000   0.81517664   -7.3724831    759.39148  0.022369255  0.021843275            6 
 2830000   0.79599558   -7.3457132    757.59791  0.022308537  0.021837192            3 
 2831000   0.79552375   -7.3969595    758.02306  0.022313171  0.021831079            4 
 2832000   0.80088863    -7.394682     757.9591   0.02230341   0.02182495            3 
 2833000   0.78708232   -7.3750161    760.82078  0.022379715  0.021818879            7 
 2834000   0.78996654   -7.3417497    757.72836  0.022280886  0.021812831            5 
 2835000    0.8082118   -7.3782404    757.81724  0.022275639  0.021806777            6 
 2836000   0.81852637   -7.3757123    758.09739  0.022276016  0.021800713            6 
 2837000   0.81200817   -7.3897035    758.27299  0.022273322  0.021794622            4 
 2838000    0.7971626   -7.3682589     759.4636  0.022300435  0.021788537            8 
 2839000   0.79106984   -7.3566669    758.85578  0.022274738   0.02178243            7 
 2840000   0.78509098   -7.3388237    759.00415  0.022271248  0.021776355           12 
 2841000   0.82907303   -7.3659475    759.16753  0.022268202  0.021770275            4 
 2842000   0.81618307    -7.383402     758.0201  0.022226721   0.02176418            5 
 2843000   0.76975567   -7.3740415    759.27804  0.022255776  0.021758056            4 
 2844000   0.79639025   -7.3759248    757.60124  0.022198817  0.021751908            3 
 2845000   0.78895991   -7.4079128    757.47608  0.022187349  0.021745754            6 
 2846000     0.794444    -7.399522    758.28678   0.02220329  0.021739602            2 
 2847000   0.79571798   -7.3896958    761.00324  0.022275004  0.021733447            6 
 2848000   0.81758223   -7.3782781    759.26103  0.022216205  0.021727286           10 
 2849000   0.76749976   -7.3870616    759.57571  0.022217612  0.021721132            7 
 2850000   0.80487862   -7.3337599    758.03476  0.022164759  0.021714993            3 
 2851000   0.80057535   -7.3737404    757.95881  0.022154765  0.021708878            4 
 2852000   0.79110858    -7.385978    759.45402  0.022190685  0.021702749            3 
 2853000   0.79560254   -7.3757364    759.67121  0.022189251  0.021696633            7 
 2854000   0.80332409    -7.393147    757.22007  0.022109906  0.021690511            3 
 2855000   0.78105116   -7.4016754    759.35582  0.022164501  0.021684404            5 
 2856000   0.78992537   -7.3835722    758.02349  0.022117866  0.021678244            3 
 2857000   0.80130517   -7.3935068    758.90194  0.022135747  0.021672101            5 
 2858000   0.79887067   -7.3819015     758.0377  0.022102802  0.021665957            7 
 2859000   0.78617654   -7.4081882    757.76396  0.022087092  0.021659819            5 
 2860000   0.80118035   -7.3824981    759.86769  0.022140667    0.0216537            5 
 2861000   0.79557416   -7.3905797    759.86724  0.022132915  0.021647574            5 
 2862000   0.79973834   -7.3811266    759.74019  0.022121482  0.021641449            8 
 2863000   0.79644998   -7.3811868    759.64179  0.022110892  0.021635348            4 
 2864000   0.79720705   -7.3829242     759.8582  0.022109468   0.02162923            6 
 2865000   0.79553461   -7.4133369    760.35071  0.022116077  0.021623094            7 
 2866000   0.78425329   -7.4139242    757.95177  0.022038607  0.021616939            4 
 2867000   0.78020075   -7.3904371    759.44303  0.022074265  0.021610756            8 
 2868000   0.79430219   -7.3975876    761.20116  0.022117653  0.021604598            5 
 2869000   0.80174056   -7.3913284    761.12303  0.022107675  0.021598444            4 
 2870000   0.78998209   -7.4286668    758.84353  0.022033784  0.021592268            7 
 2871000   0.78903923   -7.4179031    760.31371  0.022068783  0.021586124            7 
 2872000    0.8045123   -7.4032502    760.79187  0.022074973  0.021579972            4 
 2873000   0.80567692   -7.3996205    759.77211  0.022037711  0.021573845            7 
 2874000    0.7937178   -7.4031324    760.17263  0.022041656  0.021567744           11 
 2875000   0.80440173   -7.3501736    759.02304  0.022000668  0.021561657            3 
 2876000   0.81260397   -7.3795033    760.55293  0.022037347  0.021555587            7 
 2877000   0.79355649   -7.3801477    760.28748  0.022021999  0.021549516            3 
 2878000   0.80127384   -7.4010343    760.09066  0.022008648  0.021543398            5 
 2879000   0.78414647   -7.3941992    758.78769  0.021963289  0.021537291            3 
 2880000   0.80076624   -7.3827965    760.33757  0.022000509  0.021531161            7 
 2881000   0.79433288   -7.3934649    762.38305  0.022052038  0.021525089            5 
 2882000   0.78207269   -7.4005434    760.84539  0.021999925  0.021518991            7 
 2883000   0.77981358   -7.3662964    761.45128  0.022009807  0.021512852            5 
 2884000   0.79140466   -7.4097457    760.77437  0.021982616  0.021506698            8 
 2885000   0.78602343    -7.392826    760.40342  0.021964281  0.021500535            9 
 2886000   0.78728283   -7.3993008    759.56458  0.021932449  0.021494386            8 
 2887000   0.78961849   -7.4171334    758.92266  0.021906323  0.021488239            6 
 2888000   0.79276328   -7.3853498    762.81661  0.022011098  0.021482095            3 
 2889000   0.77626589   -7.4427872    760.84899  0.021946723  0.021475987            7 
 2890000   0.80190362   -7.3848081    760.75553  0.021936434  0.021469854            4 
 2891000   0.77676545    -7.393659    759.57658  0.021894863  0.021463748            8 
 2892000   0.79575539    -7.370519    761.55322  0.021944249  0.021457615            6 
 2893000   0.80357537   -7.3970033       761.63  0.021938876  0.021451487            4 
 2894000   0.79714982   -7.3668029    761.77373  0.021935433  0.021445362            3 
 2895000   0.80922753   -7.3992609    760.84876  0.021901231  0.021439235            3 
 2896000   0.78501681   -7.4008011     762.1186  0.021930208  0.021433119            4 
 2897000   0.78183325   -7.4052407    759.94654  0.021860158  0.021426985            6 
 2898000   0.79305132   -7.3981654    759.69534  0.021845392  0.021420815            5 
 2899000   0.79909776   -7.3934443    758.58067  0.021805814  0.021414658           10 
 2900000   0.80225124   -7.4036629    761.32381  0.021877121  0.021408486            8 
 2901000   0.79709617   -7.4207842    759.39621  0.021814208  0.021402337            6 
 2902000   0.78521908    -7.406457    761.03004  0.021853608  0.021396172           10 
 2903000   0.82044467    -7.427962    759.77857  0.021810155  0.021390006            7 
 2904000   0.77692002   -7.3959596    761.38339  0.021848697  0.021383873            4 
 2905000   0.79225469   -7.4140108    761.74258   0.02185148  0.021377768            4 
 2906000   0.79768038   -7.3873982    762.16469  0.021856065  0.021371683            7 
 2907000   0.78646291   -7.4250555    760.92497  0.021813008  0.021365571            6 
 2908000   0.78304365   -7.3974216    761.50352  0.021822086  0.021359424            4 
 2909000   0.78491595    -7.413769    760.63705  0.021789763   0.02135329           14 
 2910000   0.78717211    -7.418494    761.16164  0.021797298  0.021347148            3 
 2911000   0.77506793   -7.3850597     761.7953   0.02180795  0.021340998            7 
 2912000   0.80145415   -7.3615647    761.86149  0.021802355  0.021334876            5 
 2913000   0.78872401   -7.4072761    762.07462  0.021800968  0.021328736            3 
 2914000   0.77220342   -7.4273036    762.52537  0.021806376  0.021322598            5 
 2915000   0.77244607   -7.4004671    762.45862  0.021796987  0.021316473            5 
 2916000   0.79808283   -7.3870113    763.72307  0.021825648  0.021310381            4 
 2917000   0.76640508   -7.4244389    761.13353  0.021744187  0.021304257            5 
 2918000   0.79405231   -7.4054119    761.75101   0.02175437  0.021298129            6 
 2919000    0.8057299   -7.3930402    761.57866  0.021741997  0.021292004            2 
 2920000   0.79327263   -7.4007979    760.83868  0.021713433   0.02128587            7 
 2921000   0.78970492   -7.3896482    763.94623  0.021794654  0.021279758            6 
 2922000   0.80323114   -7.3765571    763.70371  0.021780279  0.021273682           16 
 2923000    0.8019461    -7.403911    761.24665  0.021702778  0.021267587            6 
 2924000   0.77624215   -7.3856238    761.41216  0.021700073  0.021261473            5 
 2925000   0.78463709   -7.4022301    761.57783  0.021697374  0.021255352            6 
 2926000    0.8025525   -7.4214865    760.91766  0.021671157   0.02124922            4 
 2927000   0.77613224   -7.4250076    761.07593  0.021668259  0.021243057            5 
 2928000   0.79345099   -7.4287651    761.52948  0.021673767  0.021236892            4 
 2929000   0.79965604   -7.4133248    762.04056  0.021680908  0.021230745            9 
 2930000   0.76937223    -7.388198    764.00187  0.021729291  0.021224607            3 
 2931000   0.78297198   -7.3914542     763.4213  0.021705371  0.021218509            5 
 2932000   0.79407555    -7.401379    762.21412  0.021663657  0.021212382           10 
 2933000   0.80185974   -7.4147292      761.737  0.021642715  0.021206271            7 
 2934000   0.77386366   -7.3873984    762.96981  0.021670354  0.021200146            4 
 2935000   0.79216817   -7.4021244    761.39984  0.021618394  0.021194038           17 
 2936000   0.78984131   -7.3800816    762.94995  0.021655028  0.021187932            5 
 2937000   0.76495102   -7.4339059    761.29973  0.021600832  0.021181798            5 
 2938000   0.79058226   -7.4474504    763.11791  0.021645051  0.021175628           16 
 2939000   0.78926621   -7.4222306    763.47416  0.021647787  0.021169465            4 
 2940000   0.80299945   -7.4178393    761.89279  0.021595601  0.021163288            3 
 2941000   0.77508475   -7.4192385    762.58604  0.021607901  0.021157143            5 
 2942000   0.78086719   -7.4041037    762.51503  0.021598545  0.021150972            4 
 2943000    0.7787378    -7.414671    763.18792  0.021610259  0.021144827            5 
 2944000   0.79580712   -7.4062714    763.75781   0.02161905  0.021138717            3 
 2945000   0.79036535   -7.4200368    763.07579   0.02159241  0.021132617            2 
 2946000     0.769439   -7.4088714     761.9629  0.021553601   0.02112652            6 
 2947000    0.7769725   -7.3972724     763.2315   0.02158216  0.021120395            7 
 2948000   0.77281641   -7.4188801    763.25898  0.021575616  0.021114281            3 
 2949000   0.77743538    -7.397584    764.08997  0.021591782  0.021108166            4 
 2950000   0.77077461   -7.4019208    764.64646  0.021600183  0.021102062            4 
 2951000   0.77979561   -7.3866465    763.61839  0.021563831  0.021095953           14 
 2952000    0.7742044   -7.4276975    762.74247    0.0215318  0.021089853            6 
 2953000   0.77082124   -7.4000103    762.92921  0.021529778   0.02108373            3 
 2954000   0.77160067   -7.4093104    762.90569  0.021521826  0.021077621            9 
 2955000   0.77554698   -7.4162924    764.93686  0.021571823  0.021071485            3 
 2956000   0.77690986    -7.438849    762.38189  0.021492498  0.021065358            7 
 2957000   0.77281988   -7.4213227    764.36229  0.021541041  0.021059218            5 
 2958000   0.77178387   -7.4414377    763.44382  0.021507883   0.02105311           14 
 2959000   0.76934536   -7.4214674    764.98212  0.021543937  0.021047001            4 
 2960000   0.77179487   -7.4144686    765.72939  0.021557697  0.021040924            7 
 2961000   0.78718301   -7.4228832    763.33227  0.021482953  0.021034847            7 
 2962000   0.79543429   -7.4372858    764.76477  0.021516002   0.02102878            4 
 2963000   0.77506348    -7.396297     763.9714  0.021486427    0.0210227            8 
 2964000   0.77320098   -7.4206117    766.28126   0.02154412  0.021016619            6 
 2965000   0.79361442   -7.4146277    764.82554   0.02149594  0.021010528            6 
 2966000   0.78890837   -7.4255245     763.0234  0.021438059  0.021004482            6 
 2967000    0.7817214   -7.4424096    762.59397  0.021418772  0.020998412            3 
 2968000   0.79431739   -7.4211859    765.76126  0.021500484  0.020992352            3 
 2969000   0.77006916   -7.4260801    764.91603  0.021469519    0.0209863            2 
 2970000   0.76284213   -7.4374869     765.3268  0.021473816  0.020980224            6 
 2971000     0.777499   -7.3900459     767.2845    0.0215215  0.020974166            5 
 2972000     0.762931   -7.4452234    764.82473  0.021445287  0.020968123            3 
 2973000   0.79323898   -7.4367442    765.05059  0.021444405  0.020962076            4 
 2974000   0.76284306   -7.4221146    765.16104  0.021440289  0.020956021            5 
 2975000   0.76049343   -7.4492663    765.57121  0.021444572  0.020949971            6 
 2976000   0.76498901   -7.4394559    766.29601  0.021457662  0.020943902            6 
 2977000   0.75789059   -7.4251999    764.79638  0.021408476  0.020937855            3 
 2978000   0.76600127   -7.4458639     766.1082  0.021437995  0.020931809            4 
 2979000   0.78382611   -7.3907233    766.58867  0.021444239  0.020925795            3 
 2980000   0.77981778   -7.4114596    765.29136  0.021400765  0.020919789            2 
 2981000   0.74625581   -7.4085266    768.43805  0.021481551  0.020913803            4 
 2982000   0.76847163   -7.4078309    766.77482  0.021427868  0.020907813            4 
 2983000   0.77241376   -7.4185513    766.49422  0.021412846  0.020901824           11 
 2984000   0.77602268   -7.4515895    765.61222  0.021381038  0.020895795            7 
 2985000   0.76641473    -7.397693    766.82974  0.021407865  0.020889786            8 
 2986000    0.7829227   -7.4015113    767.90539  0.021430715  0.020883802            4 
 2987000   0.76645548   -7.4183497    765.93065  0.021368448  0.020877812            5 
 2988000   0.77056624   -7.4264952    766.89961   0.02138832  0.020871811            6 
 2989000   0.78025207   -7.4463259    765.06131  0.021329913  0.020865809            5 
 2990000   0.76700842   -7.4377235    766.53723  0.021363914  0.020859803            2 
 2991000   0.78006835   -7.4350099    769.29219  0.021433528  0.020853825            8 
 2992000   0.75936235   -7.4438218    768.78481  0.021412233  0.020847829            3 
 2993000    0.7630409   -7.4429817    767.88983   0.02138016  0.020841841            5 
 2994000   0.76382695    -7.418059    768.85797  0.021399966  0.020835855            5 
 2995000    0.7944671   -7.4590908    768.03649  0.021369964  0.020829873            7 
 2996000   0.78291997   -7.4389443    767.81201  0.021356587  0.020823893            2 
 2997000   0.76798969   -7.4053643    768.72167  0.021374754  0.020817939            6 
 2998000   0.76769777   -7.4343929    770.03463   0.02140412  0.020811975            5 
 2999000   0.76961526   -7.4076809    768.90434  0.021365576  0.020806038            7 
 3000000   0.76223205   -7.4362062    767.68982  0.021324717  0.020800106            8 
 3001000    0.7644401   -7.4078127    769.03638  0.021355003  0.020794164            8 
 3002000   0.76299848   -7.4319887    769.57702  0.021362897  0.020788196            4 
 3003000   0.76393062    -7.402157    768.52707  0.021326648  0.020782232            7 
 3004000   0.79197901   -7.4523597    768.75761  0.021325944  0.020776273            3 
 3005000    0.7636014   -7.4472419    768.04442  0.021299069  0.020770279            6 
 3006000   0.76137793   -7.4657691    768.07526  0.021292838  0.020764298            3 
 3007000   0.76133909   -7.4553243    769.18654  0.021316554  0.020758335            6 
 3008000   0.77196148   -7.4449589    767.49951   0.02126273  0.020752359            6 
 3009000   0.75375032   -7.4403252    768.33407  0.021278777  0.020746415            7 
 3010000   0.77086043    -7.448414    767.68923  0.021253855  0.020740457            5 
 3011000   0.78155978   -7.4241504    767.99368  0.021255222  0.020734514            8 
 3012000   0.78181477   -7.4276004    768.93969  0.021274338  0.020728584            4 
 3013000   0.76452765   -7.4013861    769.97161  0.021295818  0.020722661            5 
 3014000    0.7759846   -7.4629781    768.59982  0.021250824   0.02071672            9 
 3015000   0.76993519   -7.4192391    769.35707  0.021264706   0.02071081            8 
 3016000   0.75040834   -7.4185997     770.7013  0.021294797  0.020704897            5 
 3017000    0.7662595   -7.4298035    770.23788  0.021274939  0.020698975            7 
 3018000   0.75815574   -7.4066871    770.84699  0.021284708  0.020693066            6 
 3019000    0.7527237   -7.4508429     768.7878  0.021220818  0.020687137            6 
 3020000   0.78182486   -7.4490712    768.88772  0.021216549  0.020681223            4 
 3021000   0.78879579    -7.453946     771.1471   0.02127185  0.020675317            5 
 3022000   0.77333332   -7.4651597    767.77629  0.021171859  0.020669356            6 
 3023000   0.75156206    -7.450439    766.55631  0.021131225  0.020663364            7 
 3024000   0.76716576   -7.3962298    768.69377   0.02118314  0.020657435            7 
 3025000   0.75892574   -7.4768755    769.13755  0.021188362  0.020651487           10 
 3026000   0.74901305   -7.4353619    767.42645  0.021134238  0.020645553            5 
 3027000   0.78198478   -7.4273175    769.43767  0.021182625  0.020639653           10 
 3028000   0.77491904   -7.4471464    769.94995  0.021189728  0.020633742            5 
 3029000   0.76862397   -7.4224148    771.38891  0.021222321  0.020627865           14 
 3030000   0.76175567   -7.4387677     769.5821  0.021165624  0.020621981            9 
 3031000    0.7718985   -7.4340909    768.58328   0.02113118  0.020616069            5 
 3032000   0.76618605   -7.4413094    769.84794  0.021158969  0.020610143           13 
 3033000   0.77309607   -7.4321857    770.67233  0.021174644  0.020604219            3 
 3034000   0.75312222   -7.4555219    770.90071  0.021173937  0.020598288            7 
 3035000   0.74916743   -7.4799073    770.19282  0.021147524  0.020592342            5 
 3036000   0.75534315   -7.4267202     770.3864  0.021145872  0.020586428            5 
 3037000    0.7795812   -7.4520436    770.27959  0.021135978  0.020580531            4 
 3038000   0.77360268    -7.477911    771.26283  0.021155992  0.020574616            4 
 3039000   0.76476687    -7.492049    768.34665  0.021069065  0.020568678            3 
 3040000   0.76180489   -7.4456017    770.76281  0.021128366  0.020562744            4 
 3041000   0.78294314   -7.4327035     768.5994  0.021062134  0.020556818            4 
 3042000   0.76050703   -7.4625947    769.20954  0.021071925  0.020550894           16 
 3043000   0.75540177   -7.4511845    772.59626  0.021157746  0.020545002            6 
 3044000   0.76421547   -7.4816907    770.60014  0.021096149  0.020539133            9 
 3045000   0.75042769   -7.4702995    768.55361  0.021033213   0.02053321            8 
 3046000   0.75450557   -7.4303261    771.75804  0.021113976  0.020527336            4 
 3047000   0.75680868   -7.4391992    771.48393  0.021099549  0.020521474            4 
 3048000   0.75013176   -7.4527419    771.21693  0.021085327  0.020515603            8 
 3049000   0.77880835   -7.4135246    772.72681  0.021119679  0.020509687            5 
 3050000   0.75601709   -7.4674191    769.50289  0.021024669  0.020503779            4 
 3051000   0.75746264   -7.4750967    769.25472     0.021011  0.020497829            6 
 3052000   0.75295309   -7.4722023    770.09448  0.021027045  0.020491871            5 
 3053000   0.77084026   -7.4659662    769.42338  0.021001839  0.020485905           10 
 3054000   0.77582602    -7.441098    770.83302  0.021033427  0.020479964            4 
 3055000   0.75835073   -7.4368398    770.05674  0.021005367  0.020474021            8 
 3056000   0.76089632   -7.4621827    770.62409  0.021013964  0.020468077            7 
 3057000   0.77304474   -7.4334602    770.63036  0.021007261  0.020462134            5 
 3058000   0.78845521   -7.4734307    769.70895  0.020975282  0.020456209            4 
 3059000   0.77487687   -7.4614535    770.87074  0.021000075  0.020450257            4 
 3060000   0.75324495   -7.4824593    769.70219  0.020961389  0.020444308           12 
 3061000   0.77211638    -7.422087     771.8233  0.021012286  0.020438363           13 
 3062000   0.76120253    -7.452072    770.17488  0.020960562  0.020432414            4 
 3063000    0.7552816   -7.4641934    769.19174  0.020926971  0.020426459            5 
 3064000   0.76681053   -7.4539779    769.97424  0.020941423  0.020420521            3 
 3065000   0.76034582   -7.4518139    769.20302  0.020913622  0.020414579            4 
 3066000   0.75019962   -7.4575052    770.50823  0.020942276  0.020408626            7 
 3067000   0.75771683   -7.4692346    769.89116  0.020918682   0.02040266            4 
 3068000    0.7633833   -7.4685292    770.53981  0.020929482  0.020396691            5 
 3069000   0.74955807   -7.4825345    769.45309  0.020893154  0.020390706           10 
 3070000   0.77903117   -7.4491842     769.7867  0.020895404  0.020384748            5 
 3071000   0.74634311   -7.4671217    770.66721  0.020912493  0.020378784            4 
 3072000   0.77319518   -7.4832552    769.27914  0.020868032  0.020372819            6 
 3073000   0.76078736   -7.4817771    770.79996  0.020902483  0.020366839            4 
 3074000   0.76462084   -7.4462095    769.24655  0.020853572  0.020360878            4 
 3075000   0.73848118   -7.4855434    770.11707  0.020870381  0.020354917            5 
 3076000   0.75874504   -7.4546533    770.06607  0.020862215  0.020348995            4 
 3077000   0.75279929   -7.4771064    770.78237  0.020874834  0.020343066            3 
 3078000   0.74742789   -7.4538494    771.40008  0.020884776  0.020337157            4 
 3079000   0.77420043   -7.4420339    771.36886  0.020877148  0.020331249            3 
 3080000   0.76390746   -7.4529052    771.11819  0.020863587  0.020325321            3 
 3081000   0.75618261   -7.4915831    769.95277  0.020825294   0.02031939            6 
 3082000   0.75630316   -7.4593877    770.67321  0.020838017   0.02031345            6 
 3083000   0.75721853    -7.459974    771.37598  0.020850254  0.020307515            4 
 3084000   0.74793828   -7.4588332    770.57057   0.02082173  0.020301576            4 
 3085000   0.76588989   -7.4492401    770.60248  0.020815842  0.020295621           10 
 3086000   0.75336115   -7.4877265    770.44927   0.02080496  0.020289676            7 
 3087000    0.7485154   -7.4782074    771.36921  0.020823054  0.020283735            7 
 3088000   0.75779698   -7.4726886    772.12394  0.020836678  0.020277786            5 
 3089000   0.75826817   -7.4382803     771.7197  0.020819027  0.020271825            7 
 3090000   0.75528537   -7.4909384    770.16899  0.020770469  0.020265873            5 
 3091000   0.74822038   -7.4802934    770.89269   0.02078326   0.02025993            8 
 3092000   0.76044901   -7.4582061    770.05396  0.020753934  0.020253989            4 
 3093000   0.75876068   -7.4812553    769.73595  0.020738656  0.020248021            7 
 3094000   0.74021063   -7.4834243    771.05135  0.020767382  0.020242045            4 
 3095000   0.75448485    -7.452383    772.33117  0.020795131  0.020236099            9 
 3096000   0.76670017   -7.4775804    769.64176  0.020716025  0.020230151            4 
 3097000   0.77309168   -7.4754992    771.96949   0.02077197  0.020224212            6 
 3098000   0.75943645   -7.4763941    768.96196  0.020684365  0.020218251            9 
 3099000   0.75127352   -7.4990018    772.50431  0.020772946  0.020212317            3 
 3100000   0.73877068   -7.4716274    770.58866  0.020714749  0.020206392            7 
 3101000   0.75337995   -7.4639988    771.85781  0.020742175   0.02020044            3 
 3102000   0.76243659   -7.4567044    773.73401  0.020785891  0.020194509            6 
 3103000   0.75315817   -7.4678201    771.50618  0.020719362  0.020188578            4 
 3104000   0.74208458   -7.4963558    770.61979   0.02068889  0.020182656            6 
 3105000   0.74358834   -7.4721712    774.24246  0.020779454  0.020176746            5 
 3106000   0.74811146   -7.4670951    771.64324  0.020703027   0.02017083            6 
 3107000   0.75881176   -7.4583481    771.93922  0.020704303  0.020164913            5 
 3108000   0.75892514   -7.4608428    771.53879  0.020686904  0.020159013            8 
 3109000   0.74489882   -7.4597652     771.1618  0.020670146   0.02015312            9 
 3110000   0.74000771   -7.4516952    770.49067  0.020645516  0.020147205            4 
 3111000   0.74509117   -7.4709914    771.24692  0.020659137  0.020141274            3 
 3112000   0.76215253   -7.4938494    772.46797  0.020685196  0.020135344            4 
 3113000   0.75644957   -7.4755928    771.64782  0.020656596  0.020129412            4 
 3114000   0.77009399   -7.4639923     772.3303  0.020668227  0.020123485            4 
 3115000   0.75081816   -7.4669104    771.08686  0.020628327  0.020117575           10 
 3116000   0.74391694   -7.4744687    774.15573   0.02070378  0.020111712            4 
 3117000   0.75049545   -7.4729108    772.04391  0.020640678  0.020105816            7 
 3118000   0.76004508   -7.4941135    772.85548  0.020655748  0.020099934           14 
 3119000   0.74914071   -7.4829443    773.35644  0.020662511  0.020094075            8 
 3120000   0.75234192   -7.4465082    773.63044  0.020663206  0.020088233            3 
 3121000   0.74603943   -7.4853112    773.39376  0.020650266  0.020082389            4 
 3122000   0.74039935   -7.4601766    774.42034  0.020671053  0.020076537            5 
 3123000   0.75362714   -7.4875482    774.89597  0.020677126  0.020070708            4 
 3124000   0.75225788   -7.4750952    773.98484  0.020646203  0.020064862            4 
 3125000   0.76857239   -7.4916924    773.50267  0.020626738  0.020059013            5 
 3126000   0.74079407   -7.4778279    773.56051  0.020621681  0.020053173            8 
 3127000    0.7601421   -7.4868309    774.74083  0.020646542  0.020047329            4 
 3128000   0.77036282   -7.4855585     774.8606  0.020643132  0.020041496            5 
 3129000   0.75979765   -7.4760143    775.03431  0.020641161  0.020035657            6 
 3130000   0.75668864    -7.512071    773.74614   0.02060027  0.020029821            9 
 3131000   0.74377522   -7.5117209    773.03559  0.020574779  0.020023975            5 
 3132000   0.76657832   -7.4843776    774.08035  0.020596008  0.020018135            7 
 3133000   0.74650506    -7.474935    775.23018  0.020620017  0.020012305            6 
 3134000   0.77673175   -7.4654268    774.35656  0.020590209  0.020006506            6 
 3135000   0.75496137   -7.4759283     775.7847  0.020621603  0.020000706            6 
 3136000   0.74793171   -7.4785032    772.87182  0.020537623  0.019994872           11 
 3137000   0.74539324   -7.4813961    774.90279  0.020585028  0.019989025            3 
 3138000   0.74971498    -7.487144    774.69167  0.020572861  0.019983194            6 
 3139000   0.74475371   -7.5105248    774.79514  0.020569054  0.019977347           10 
 3140000   0.76419075   -7.5212676     774.9913   0.02056771  0.019971485           12 
 3141000   0.75328073   -7.4847817    773.10792  0.020511194   0.01996563            6 
 3142000    0.7646064   -7.5080018    774.70542  0.020547035  0.019959788           11 
 3143000    0.7557918   -7.4922956    773.21623  0.020501014  0.019953967           12 
 3144000   0.74822572   -7.4929384    774.82009  0.020537004  0.019948134            3 
 3145000   0.74212772    -7.499998    774.43968  0.020520394  0.019942304            3 
 3146000   0.74760611   -7.4952737    773.82056  0.020497472  0.019936469            7 
 3147000   0.74623681   -7.4790978    775.71329  0.020541079  0.019930637            5 
 3148000   0.73922783     -7.47103    774.85945  0.020511951  0.019924824            5 
 3149000   0.73902692   -7.4746866    773.94186  0.020481154  0.019919031            8 
 3150000   0.74943075   -7.4515431     774.2645  0.020483188  0.019913197            9 
 3151000   0.73533037   -7.4762971     776.8767  0.020545771  0.019907401            4 
 3152000   0.73984692   -7.4806431    774.57185  0.020478317  0.019901616           12 
 3153000   0.74771513   -7.5076572     773.0765    0.0204323  0.019895795            4 
 3154000   0.74917724   -7.4808944     774.8904  0.020473748  0.019889979            5 
 3155000   0.73430589   -7.5072579    773.92624  0.020441792  0.019884145            5 
 3156000    0.7435901   -7.4844212    775.78682  0.020484443  0.019878324            8 
 3157000   0.74855384   -7.4787514    774.02182  0.020431365  0.019872519            9 
 3158000   0.75243289   -7.5085337    773.93824   0.02042269  0.019866679           14 
 3159000   0.74164449   -7.4934566    775.06371  0.020445914  0.019860829           16 
 3160000   0.75796694   -7.4686708    775.86123  0.020460475  0.019854983            3 
 3161000   0.75041045   -7.5050146    774.05793  0.020406462  0.019849142            3 
 3162000   0.74767414   -7.4908612    773.63644    0.0203889  0.019843311            9 
 3163000   0.74396532   -7.4976758    774.04656  0.020393259  0.019837455            7 
 3164000   0.74879603   -7.5087328    774.88973  0.020409021  0.019831578            5 
 3165000   0.74103101   -7.5277875    775.11889  0.020408607  0.019825709            5 
 3166000   0.74691918   -7.5168449    773.59389  0.020362021  0.019819862            3 
 3167000   0.74345615   -7.5051767    774.30259  0.020374239  0.019814053            3 
 3168000   0.74310299    -7.489906    775.91288  0.020410166  0.019808234            5 
 3169000   0.74697324   -7.5064319    776.35216  0.020415277  0.019802439            5 
 3170000   0.76573696   -7.4878932    776.06001  0.020401157  0.019796625            3 
 3171000   0.74138189   -7.5029255    775.10249   0.02036956   0.01979081            4 
 3172000   0.73332943   -7.4806573    775.71367  0.020379195  0.019784993           10 
 3173000   0.74443833   -7.5029821    776.12737  0.020383637  0.019779161            3 
 3174000   0.74709369   -7.5095787    775.31122  0.020355787  0.019773361            3 
 3175000   0.73252905   -7.5105802    776.21779   0.02037317  0.019767526            7 
 3176000   0.73755161   -7.5008295    776.62413  0.020377417  0.019761707            9 
 3177000   0.74612391    -7.517324    777.59572  0.020396488  0.019755906            4 
 3178000   0.73851423   -7.5119071    776.37808  0.020358141  0.019750124            5 
 3179000   0.74595432   -7.4964032    775.67728  0.020333367  0.019744335            7 
 3180000   0.72662897   -7.4926526    777.47869   0.02037418   0.01973857            4 
 3181000   0.74524052   -7.4962801    777.79135  0.020375965  0.019732822            5 
 3182000   0.76203512    -7.506929    776.60784  0.020338567  0.019727071           11 
 3183000   0.73142985   -7.4788927    776.55189  0.020330712  0.019721316            7 
 3184000   0.74961085   -7.5072855    775.66314  0.020301066  0.019715539            2 
 3185000     0.722421   -7.4946071    776.35832  0.020312881  0.019709754           11 
 3186000   0.75218791   -7.5051933    776.30124  0.020305013   0.01970399            9 
 3187000   0.73795337   -7.4966167    777.80938  0.020338076  0.019698211            9 
 3188000   0.75247312   -7.5059906    775.42904  0.020269475  0.019692424            3 
 3189000   0.74330251   -7.5170385     775.7136  0.020270555  0.019686626            3 
 3190000   0.72947355   -7.5067176    776.67167  0.020289229  0.019680827            5 
 3191000   0.71842443   -7.5265657    775.53349  0.020253146  0.019675022            6 
 3192000   0.73931495   -7.4737554    775.27855  0.020240146  0.019669249            6 
 3193000   0.73688854   -7.5071591    776.78101  0.020273019  0.019663473            9 
 3194000   0.74824026   -7.5080915    777.36118  0.020281809  0.019657675           13 
 3195000   0.72750668   -7.5175503    776.48307  0.020252558  0.019651897            4 
 3196000   0.74183247   -7.5349267    776.60703  0.020249453  0.019646111            7 
 3197000   0.74305258   -7.4993648    775.71491  0.020219865  0.019640342            8 
 3198000   0.72805979   -7.4971264    777.16291  0.020251274  0.019634578           16 
 3199000   0.72867556   -7.4913268    776.70617  0.020233046  0.019628831           10 
 3200000   0.73323566   -7.5195594    777.19697  0.020239504  0.019623082            7 
 3201000   0.75418871   -7.5379856    775.56326   0.02019065  0.019617349            8 
 3202000   0.73135322   -7.4842317    778.05469  0.020249185  0.019611616            6 
 3203000   0.73270761   -7.5121081    777.64652  0.020232244  0.019605899            5 
 3204000   0.75086589   -7.4876232    779.35389  0.020270336  0.019600202            6 
 3205000   0.73175248   -7.5043178    777.75904  0.020222544  0.019594524            7 
 3206000   0.72851324   -7.4953327    778.44585  0.020234088    0.0195888            7 
 3207000   0.74186602   -7.5156766     778.6614   0.02023338  0.019583102            4 
 3208000   0.74537933   -7.5191766    777.24235  0.020190211   0.01957739            6 
 3209000     0.731557   -7.4759463    777.49875  0.020190577  0.019571656            8 
 3210000    0.7265644   -7.4549665    777.74403  0.020190655  0.019565949            4 
 3211000   0.73890792   -7.4799759    778.02696   0.02019171  0.019560247            3 
 3212000   0.73506182   -7.4601085    779.01444  0.020211043  0.019554531            5 
 3213000   0.72978418   -7.5050593    776.28024  0.020133837  0.019548818            3 
 3214000   0.74756696   -7.4957902    777.53729  0.020160166  0.019543089            4 
 3215000   0.73891325   -7.5022737     776.5302  0.020127792  0.019537349            4 
 3216000   0.74634379   -7.5275475    778.21709  0.020165244  0.019531603            6 
 3217000   0.73910602   -7.5246835    776.60833  0.020117302  0.019525859           11 
 3218000   0.73540125   -7.5142206    777.07992  0.020123263    0.0195201           10 
 3219000   0.73834058   -7.5092772    775.90243  0.020086529  0.019514352            5 
 3220000   0.73600753   -7.5451065    777.01596  0.020109109  0.019508597            4 
 3221000   0.71580818   -7.4901824    778.14729  0.020132135  0.019502853            9 
 3222000   0.72813179   -7.5114244    776.83579  0.020091966  0.019497083            6 
 3223000   0.74212292   -7.5289202     777.5443  0.020104052  0.019491319           14 
 3224000   0.73751097   -7.5217831    777.66378  0.020100904  0.019485563            6 
 3225000   0.73600278   -7.4879334    778.46265  0.020115314  0.019479813            4 
 3226000   0.72805981   -7.4933774    779.03828  0.020123948  0.019474081            6 
 3227000   0.73294724   -7.5046726    778.40996  0.020101486  0.019468329            5 
 3228000   0.72662697    -7.524875    778.81873  0.020105812  0.019462593           16 
 3229000   0.73678666   -7.5240956    776.79731  0.020047417  0.019456834           10 
 3230000   0.71767259   -7.5310753    777.53023   0.02006012  0.019451075            5 
 3231000   0.73433849   -7.5014683     778.1408  0.020069659  0.019445329            3 
 3232000     0.727612   -7.5389822    776.75233  0.020027649  0.019439579           14 
 3233000   0.73220257    -7.500824    778.81313  0.020074573  0.019433835            6 
 3234000   0.70915211   -7.5135468    777.06996  0.020023448  0.019428094            6 
 3235000   0.74260988   -7.4999952    777.12775  0.020018747  0.019422369            6 
 3236000   0.72330869   -7.5263013    778.45112   0.02004664  0.019416626            6 
 3237000     0.736764   -7.5315652     777.2006  0.020008253  0.019410868            4 
 3238000   0.74219427   -7.4985525    777.56081  0.020011345  0.019405127            6 
 3239000   0.72197373   -7.5219476    778.29335  0.020024013  0.019399406            6 
 3240000   0.73852274   -7.5230409    777.41054  0.019995127  0.019393649            4 
 3241000   0.74001669   -7.5332507    776.77363  0.019972581  0.019387891            4 
 3242000   0.74862234   -7.5297791    778.67703  0.020015346  0.019382124            4 
 3243000   0.72714454   -7.5398875    778.67824  0.020009205  0.019376385            6 
 3244000   0.72117497   -7.5389845    775.55225  0.019922736  0.019370606            5 
 3245000   0.75208392   -7.5168745    774.90195  0.019899896  0.019364845            7 
 3246000   0.73647583    -7.529579    777.02223  0.019948199  0.019359107           10 
 3247000   0.74212447   -7.5382252    777.86815  0.019963765  0.019353348            5 
 3248000   0.74146458    -7.508175    778.65599  0.019977832  0.019347598            6 
 3249000   0.73970818   -7.5200929    778.12926  0.019958173  0.019341845            5 
 3250000   0.73844107   -7.5222269    778.11295  0.019951614  0.019336083            6 
 3251000   0.72662128   -7.5435205    777.34101   0.01992569  0.019330293            4 
 3252000   0.73782715   -7.5224801    776.98808  0.019910519  0.019324523            5 
 3253000   0.73854021   -7.5225152    777.65757  0.019921549  0.019318754           14 
 3254000   0.72476626   -7.5170069    776.79179  0.019893254  0.019312984           10 
 3255000   0.73748701   -7.5289425    779.29376  0.019951197  0.019307231            5 
 3256000    0.7243775   -7.5031632    777.02306  0.019886954  0.019301471            6 
 3257000    0.7323663   -7.5303556    778.82489  0.019926949  0.019295724            5 
 3258000   0.73659951    -7.516651    778.26086  0.019906406  0.019289957            4 
 3259000   0.74007344   -7.5367751    778.38345  0.019903433  0.019284197            7 
 3260000   0.71951158    -7.526867    777.65213  0.019878633  0.019278453            4 
 3261000   0.74154899   -7.5193502    779.07281  0.019908842  0.019272735            5 
 3262000   0.72565818   -7.5062701      778.776  0.019895156  0.019267033            6 
 3263000   0.72910467   -7.5347157     778.0734  0.019871115   0.01926134            7 
 3264000   0.72119155   -7.5033437    779.79138  0.019908889  0.019255661            6 
 3265000   0.73388971   -7.5083184    779.42347  0.019893401  0.019249969            7 
 3266000   0.74151139   -7.5219492    778.13527  0.019854441  0.019244284            7 
 3267000   0.73325565   -7.5275444    779.43981   0.01988164  0.019238586           17 
 3268000   0.70864184   -7.5459435     778.6863  0.019856342  0.019232878            6 
 3269000   0.72538343   -7.4850704    779.27007  0.019865149   0.01922718            5 
 3270000   0.72052548   -7.5328615    778.09995  0.019829255  0.019221486            6 
 3271000   0.75025979   -7.5293061    779.53637  0.019859787  0.019215789           11 
 3272000   0.72601171   -7.5105969     780.5821  0.019880351  0.019210102            7 
 3273000   0.72842283   -7.5363205    777.75051  0.019802182  0.019204398            8 
 3274000   0.74083332   -7.5416799    776.93388  0.019775348  0.019198689            7 
 3275000   0.74995227   -7.5384486     779.5767  0.019836557  0.019192994            3 
 3276000   0.73988632   -7.5171719    780.32303  0.019849487  0.019187328            7 
 3277000   0.72114566   -7.5271228    778.96058  0.019808783  0.019181638            4 
 3278000   0.73467262   -7.5054541    778.11033  0.019781125   0.01917596            8 
 3279000   0.73055955   -7.5254262    776.81029  0.019742053  0.019170268            7 
 3280000   0.72949724   -7.5468333    778.47167  0.019778244  0.019164578            4 
 3281000   0.73245268   -7.5323288    780.09036  0.019813328  0.019158872            5 
 3282000   0.73649098   -7.5494048    779.98205  0.019804541  0.019153166            3 
 3283000   0.71653003   -7.5716013    778.98999  0.019773327  0.019147462            6 
 3284000   0.71316485   -7.5375909    779.26215  0.019774212  0.019141756            5 
 3285000   0.72849766   -7.5333381    778.56909  0.019750611  0.019136069           10 
 3286000   0.73042609   -7.5485672    780.06335  0.019782495   0.01913036            4 
 3287000   0.73203112   -7.5211607    780.79254  0.019794964  0.019124659           15 
 3288000   0.73078726   -7.5339629    777.74312  0.019711657  0.019118977            4 
 3289000   0.72108419   -7.5464667    778.85107  0.019733735  0.019113289            7 
 3290000   0.73715975   -7.5249737    778.74273  0.019724993    0.0191076           12 
 3291000   0.72469107   -7.5215972    780.72328   0.01976915  0.019101917            7 
 3292000   0.73512368   -7.5633962    778.79084  0.019714227  0.019096215            5 
 3293000   0.71314967   -7.5387759    779.88121  0.019735834  0.019090557           13 
 3294000   0.71148983   -7.5148029    781.80815  0.019778591   0.01908491            6 
 3295000   0.73730718   -7.5252394    780.64561  0.019743187  0.019079272            6 
 3296000   0.71397263   -7.5288787    778.08452  0.019672444  0.019073621            7 
 3297000   0.71748651   -7.5528002    780.68809  0.019732284  0.019067974            2 
 3298000   0.73755462   -7.5297791    780.88499  0.019731276  0.019062328            3 
 3299000   0.71689715   -7.5082175    780.48919  0.019715297  0.019056697            4 
 3300000   0.73655486   -7.5314305    779.76168  0.019690952  0.019051042            3 
 3301000   0.73665689   -7.5392556    779.75798  0.019684893  0.019045369            6 
 3302000   0.72298683   -7.5527436    780.12718  0.019688249  0.019039711            4 
 3303000   0.71983728   -7.5383403    777.38977  0.019613224  0.019034021            5 
 3304000   0.71134885   -7.5662257    779.17263  0.019652256  0.019028334            8 
 3305000   0.73116955   -7.5537707    779.75049   0.01966088  0.019022666            5 
 3306000   0.70787903   -7.5674908    781.33089  0.019694769  0.019017002            5 
 3307000   0.72198475   -7.5368364    780.87376  0.019677295   0.01901133            5 
 3308000   0.71299753   -7.5331264    779.74308  0.019642863  0.019005657            6 
 3309000   0.69744186   -7.5498589    779.25624  0.019624666  0.018999981            4 
 3310000   0.73448369   -7.5353159    777.95771  0.019586045  0.018994299            4 
 3311000   0.72934582   -7.5692448    780.68188  0.019648693   0.01898865           11 
 3312000    0.7186327   -7.5321168    781.09767  0.019653222     0.018983            4 
 3313000   0.71945306   -7.5425204     780.0864  0.019621853  0.018977341           10 
 3314000   0.72816673   -7.5506264    780.76041  0.019632881  0.018971686            5 
 3315000   0.72968352   -7.5688436      781.126  0.019636149  0.018966029            6 
 3316000   0.70595852   -7.5367722     779.8583  0.019598369  0.018960367            7 
 3317000   0.71079984   -7.5534143    779.18748  0.019575607  0.018954708            4 
 3318000   0.72200987   -7.5580157    781.15756  0.019619187  0.018949047            5 
 3319000   0.71019891   -7.5440184    780.06357  0.019585808  0.018943405           14 
 3320000   0.72281688   -7.5667414    778.92639  0.019551365  0.018937738            9 
 3321000   0.71995613   -7.5481437    779.29148  0.019554639  0.018932072            8 
 3322000    0.7173854   -7.5602928    778.35421  0.019525241  0.018926389            3 
 3323000   0.70921845   -7.5814457    777.12647  0.019488576  0.018920705            3 
 3324000   0.71102419   -7.5694549    779.90653   0.01955241  0.018915047           12 
 3325000   0.72196601   -7.5738945    781.16846  0.019578157  0.018909387           12 
 3326000   0.72321771   -7.5468843    780.66657  0.019559696  0.018903718            4 
 3327000   0.70717327    -7.562255    777.72219  0.019480067  0.018898064            9 
 3328000   0.71808833   -7.5564079    780.91184  0.019554082   0.01889241           13 
 3329000   0.71093579   -7.5421842    780.30785  0.019533089  0.018886772            6 
 3330000   0.71460032   -7.5592941    780.87265  0.019541358  0.018881128            5 
 3331000   0.71453446   -7.5579443    782.18392  0.019568296   0.01887549            3 
 3332000   0.70366656   -7.5383694    781.52904  0.019546044  0.018869842            4 
 3333000   0.71833403   -7.5423933     780.5032  0.019514531  0.018864196            5 
 3334000   0.73275399    -7.558659    781.48914  0.019533322  0.018858573            7 
 3335000   0.72306463   -7.5633161    781.35959  0.019524228  0.018852951            4 
 3336000   0.72814883   -7.5660168    780.02541  0.019485047  0.018847316            4 
 3337000   0.73155816   -7.5732396     778.9951  0.019453479  0.018841662            4 
 3338000   0.70394023   -7.5597186    781.81004  0.019517926  0.018836012            5 
 3339000   0.72107132   -7.5178944    780.62303  0.019482456   0.01883039            9 
 3340000   0.72869106   -7.5569031    781.28415  0.019493118  0.018824767           11 
 3341000   0.71895379   -7.5533242    781.18291  0.019484758  0.018819124            4 
 3342000   0.70337746   -7.5499655    781.98272  0.019498871  0.018813494            7 
 3343000    0.7055532   -7.5444393    780.30531  0.019451224  0.018807882            4 
 3344000   0.72957332   -7.5325963    782.61122  0.019502871  0.018802294            7 
 3345000   0.71175004   -7.5372645    780.34831  0.019440665  0.018796693            3 
 3346000   0.71583828   -7.5167991    780.31372  0.019433994  0.018791079            7 
 3347000   0.71509678   -7.5504046    780.37688   0.01942976  0.018785459            6 
 3348000   0.71049404    -7.562433    780.59649  0.019429423  0.018779838            4 
 3349000    0.7124303   -7.5510616    781.58399  0.019448193  0.018774222            7 
 3350000   0.70785117    -7.542321    782.49348  0.019465012  0.018768603            6 
 3351000    0.7062289   -7.5514952    780.33656  0.019405564  0.018762979            6 
 3352000   0.71865624   -7.5982837    781.79045   0.01943592  0.018757358            9 
 3353000   0.70518682   -7.5714097    781.25876  0.019416909  0.018751726            5 
 3354000   0.73054893    -7.560541    780.98933  0.019404426  0.018746108            6 
 3355000   0.71392862   -7.5715221     781.4647   0.01941045  0.018740483            5 
 3356000   0.70316883   -7.5560281     781.8002  0.019412997  0.018734861            5 
 3357000   0.72188798   -7.5768617    781.54197  0.019400804  0.018729249            4 
 3358000   0.70805541   -7.5665325    780.98199  0.019381129  0.018723608            6 
 3359000   0.72368964   -7.5864066    779.41479  0.019336479  0.018717959            4 
 3360000   0.70871892   -7.5681709    781.22474  0.019375614   0.01871232            8 
 3361000   0.72765991   -7.5658117    780.96966  0.019363524  0.018706699            5 
 3362000   0.71731868    -7.599009    780.40775  0.019343837  0.018701072            3 
 3363000   0.71086979   -7.5854015    781.06923  0.019354476  0.018695449            5 
 3364000   0.70886181   -7.5879434    781.83383  0.019367663  0.018689812            7 
 3365000   0.70999961   -7.5859801    780.75479  0.019335186  0.018684184            6 
 3366000   0.71338107   -7.5687029     780.8605  0.019332058  0.018678576            5 
 3367000   0.70336975   -7.5544018    782.31937  0.019362424   0.01867298            6 
 3368000   0.72615584   -7.5796683    781.86614  0.019345461  0.018667406            5 
 3369000   0.69090481   -7.5727087    781.86138  0.019339601  0.018661836            5 
 3370000   0.72406187   -7.5597877    782.37284  0.019346509  0.018656255           10 
 3371000   0.71809107   -7.5613927    781.58445  0.019321281    0.0186507            7 
 3372000   0.72044115   -7.5793654    781.86776  0.019322552  0.018645111            5 
 3373000   0.70234052   -7.5728363    781.66984  0.019311934  0.018639527            6 
 3374000   0.70029185   -7.5758431     781.8157  0.019309813  0.018633909            5 
 3375000   0.70268037   -7.5635185    780.86143  0.019280529  0.018628309            4 
 3376000   0.70751739   -7.5831161    782.49443  0.019315127  0.018622716            7 
 3377000   0.70749552    -7.572765     780.7748  0.019266973  0.018617136            5 
 3378000   0.69890363   -7.5538892    782.92266  0.019314255  0.018611554            5 
 3379000   0.72775411   -7.5838408    781.23325  0.019266875  0.018605974            9 
 3380000    0.7081126   -7.5845054    782.08014  0.019282055  0.018600394            8 
 3381000   0.70316636   -7.5566345    781.42438  0.019260189  0.018594833           11 
 3382000   0.71389098   -7.5341481     782.9998  0.019293313  0.018589278            6 
 3383000   0.70151789   -7.5521099     781.5484  0.019251857  0.018583728            4 
 3384000   0.71255507   -7.5577422    782.65994  0.019273541  0.018578167            3 
 3385000   0.71768649   -7.5927538    781.60244  0.019241813  0.018572594            6 
 3386000   0.72076235   -7.5775548    781.47609  0.019233021  0.018566996            7 
 3387000   0.69966782   -7.5737364    781.12109  0.019218608  0.018561433            5 
 3388000   0.71965906   -7.5778373     781.2899  0.019217087  0.018555875            3 
 3389000   0.72111051   -7.5766175    781.85106  0.019225215  0.018550331           10 
 3390000   0.71755993   -7.5638453    783.26857   0.01925439  0.018544796            9 
 3391000    0.7140706   -7.5470474    783.71739  0.019259741  0.018539258            6 
 3392000   0.69793326   -7.5532223    781.70799  0.019204697  0.018533703            6 
 3393000   0.69225736   -7.5782639    781.62361  0.019196965  0.018528151           10 
 3394000   0.70152742   -7.5861798    781.20967  0.019181145   0.01852259            4 
 3395000   0.71293467   -7.5550332    782.53503  0.019208027  0.018517051            4 
 3396000   0.71255292   -7.5722001    783.24366   0.01921976  0.018511514           11 
 3397000   0.71052216   -7.5654025    782.46661   0.01919504  0.018505963            8 
 3398000   0.70636952   -7.5662393    783.04876  0.019203668  0.018500419           13 
 3399000   0.71750157    -7.541711    784.44267  0.019232193  0.018494913            7 
 3400000   0.69815233   -7.5573289    782.02028  0.019167164  0.018489403            4 
 3401000   0.71575314   -7.5748409    781.98839  0.019160747  0.018483867            7 
 3402000    0.7102707   -7.5704799    783.14002  0.019183324  0.018478322            7 
 3403000   0.70533286   -7.5609543    782.50083  0.019162034  0.018472809           12 
 3404000   0.71772902   -7.5502565    782.90643  0.019166335  0.018467286            5 
 3405000   0.70662856   -7.5679124    783.58695   0.01917736  0.018461762            6 
 3406000   0.69821994   -7.5808533    784.44486   0.01919272  0.018456222            5 
 3407000   0.69731325   -7.5745735    782.01185  0.019127577  0.018450677            5 
 3408000   0.69687384   -7.5641303    783.89823  0.019168091  0.018445132            5 
 3409000   0.70137652   -7.5767003      783.342  0.019148871  0.018439608            6 
 3410000   0.71887367   -7.5823838    782.76566  0.019129171  0.018434072            7 
 3411000   0.70205347    -7.602137    783.23192  0.019134953  0.018428534            9 
 3412000   0.70940408   -7.5796632     783.0775  0.019125574  0.018423017            4 
 3413000   0.70022836   -7.5694427    783.57548  0.019132129  0.018417483            6 
 3414000    0.7028611   -7.5722929    783.98796  0.019136594   0.01841198            6 
 3415000   0.70175627   -7.5659809    783.69439  0.019123826  0.018406491            6 
 3416000   0.70459553   -7.5814161     783.2289  0.019106872  0.018400977           11 
 3417000   0.70328946   -7.5696398    783.79648  0.019115123  0.018395459            6 
 3418000   0.70105358    -7.577336    782.54555  0.019079031  0.018389935            2 
 3419000   0.69522423   -7.5738827    782.67956  0.019076717  0.018384425           12 
 3420000    0.7203025   -7.5759615    784.38912  0.019112795  0.018378901            7 
 3421000   0.68356004   -7.5816615    783.87807   0.01909476  0.018373353           10 
 3422000   0.70330439   -7.5909051    783.25626  0.019074037  0.018367814            6 
 3423000    0.7132245   -7.5904613     782.0438  0.019038947  0.018362269            3 
 3424000    0.7049004   -7.5822903    782.85276  0.019053075  0.018356731            6 
 3425000   0.69456884   -7.5936305    782.95044  0.019049889  0.018351183            8 
 3426000   0.69972095   -7.5977067    781.75098  0.019015153  0.018345635            3 
 3427000   0.72667349   -7.5799095    782.32997  0.019023684  0.018340078            6 
 3428000   0.70516005   -7.5873786    783.17686  0.019038722   0.01833454           10 
 3429000   0.70287612   -7.5800379    784.14642  0.019056732  0.018329016           11 
 3430000   0.70865172   -7.5804049    781.26952  0.018981281  0.018323502            6 
 3431000   0.70514983   -7.5941421    782.33008  0.019001508  0.018317993            7 
 3432000   0.71024236   -7.5943932    782.96888  0.019011482  0.018312479            7 
 3433000   0.69977827   -7.5764003    784.90529  0.019052949  0.018306969            4 
 3434000   0.67684154   -7.5729191    782.57593  0.018990874  0.018301474            8 
 3435000   0.69390624   -7.5781084    783.85171  0.019016296  0.018295971            4 
 3436000   0.71768259   -7.5817606    783.09755  0.018992471  0.018290471            8 
 3437000   0.70486037   -7.5769438     784.3645  0.019017663  0.018285003            8 
 3438000   0.70397692   -7.5728533    783.43468  0.018989594  0.018279511           10 
 3439000    0.7056617   -7.6021485    783.90668  0.018995509  0.018274016           12 
 3440000   0.70200371   -7.5593855    784.27492  0.018998908  0.018268532            4 
 3441000   0.70278133   -7.5791619     784.4868  0.018998518  0.018263058           11 
 3442000   0.71164791   -7.5936942    785.26418  0.019011819  0.018257581           11 
 3443000   0.69658162   -7.5812017    783.90932  0.018973505  0.018252125            2 
 3444000   0.70677927   -7.5952862    784.12252  0.018973154  0.018246664            9 
 3445000   0.70603818   -7.5807941    785.54209  0.019001986  0.018241196            7 
 3446000    0.6927675   -7.6134207    784.58727  0.018973381  0.018235724           15 
 3447000   0.70873791   -7.5962812    783.86879  0.018950507  0.018230244            6 
 3448000   0.70994654   -7.5833927    783.77808  0.018942819  0.018224763            8 
 3449000   0.68839174   -7.5769261    784.20146  0.018947556  0.018219286            6 
 3450000   0.68560736   -7.5684658    786.29857  0.018992719  0.018213828           11 
 3451000   0.69211149   -7.5725498    783.25368  0.018913689  0.018208364            6 
 3452000   0.69016956   -7.5629896    783.57959  0.018916077  0.018202909            7 
 3453000   0.69437616   -7.6007325    785.03686  0.018945769  0.018197444            6 
 3454000     0.713356   -7.6099604    783.37513  0.018900191  0.018191962            5 
 3455000   0.70140666   -7.5829224    784.55041  0.018923068  0.018186469            6 
 3456000   0.70660214   -7.5904448    782.88658  0.018877474  0.018180999            8 
 3457000   0.70098317    -7.618549     782.7569  0.018868887  0.018175527            7 
 3458000   0.68517227    -7.596288     782.2717  0.018851737  0.018170025            4 
 3459000   0.70537422   -7.6339564    783.20943  0.018868879  0.018164514            3 
 3460000   0.69818607   -7.6254271     783.1461    0.0188619  0.018159015            7 
 3461000   0.69367874   -7.5979218    782.69699  0.018845637  0.018153517            4 
 3462000   0.69704841   -7.6050703    783.51612   0.01885991  0.018148014            3 
 3463000    0.6890666   -7.6053058    782.32865  0.018825889  0.018142535            5 
 3464000   0.69149064    -7.596414    784.44203  0.018871296  0.018137053            5 
 3465000    0.7023931   -7.6062435    782.28409  0.018813951  0.018131561            7 
 3466000   0.68878671   -7.5890174    786.59263  0.018912114   0.01812609            6 
 3467000   0.69145342   -7.6035749    784.10313  0.018846821  0.018120631            4 
 3468000   0.69427921   -7.6148606    783.06996   0.01881656  0.018115159            5 
 3469000   0.68886588   -7.6034773    784.15193  0.018837127    0.0181097            5 
 3470000   0.71166058   -7.5926791    783.20182  0.018808881  0.018104228            7 
 3471000    0.6992957   -7.6151846    783.52787   0.01881129  0.018098772            9 
 3472000   0.68108858   -7.5788699    784.97152  0.018840522  0.018093307           11 
 3473000   0.68513964   -7.6037705    786.05807  0.018861169  0.018087851           11 
 3474000   0.70086155   -7.6027979     783.8103  0.018801821  0.018082394            5 
 3475000    0.6795413   -7.5998422    784.67969  0.018817259  0.018076942            7 
 3476000   0.68539851   -7.5661614    785.36207  0.018828205  0.018071496            5 
 3477000   0.68892442   -7.5911968    784.57309   0.01880388  0.018066038            6 
 3478000   0.68938681   -7.6157743    784.09468  0.018787011  0.018060568            8 
 3479000   0.69553912   -7.6160105    782.82365  0.018751165  0.018055105            6 
 3480000    0.6953441   -7.6239636    781.94615  0.018724764  0.018049629           14 
 3481000   0.70934955   -7.5879987    784.46981    0.0187798  0.018044163            4 
 3482000   0.68275089   -7.5819466     785.1925  0.018791703  0.018038711            9 
 3483000   0.68871888   -7.5801647    784.41066  0.018767601  0.018033264           12 
 3484000   0.70999134    -7.613407    783.43548  0.018738889  0.018027831            4 
 3485000   0.69564424   -7.5774617    784.25991  0.018753226  0.018022401            6 
 3486000    0.6861486   -7.5863283    784.93718  0.018764037  0.018016969            8 
 3487000   0.67982678   -7.6088318    784.87054  0.018757063  0.018011547            3 
 3488000   0.69639431   -7.6051755    784.89904  0.018752366  0.018006121            3 
 3489000   0.70920245   -7.6063187    784.66046  0.018741293  0.018000685            6 
 3490000   0.69752903   -7.5949138    785.52062  0.018756462  0.017995254            5 
 3491000   0.68454635   -7.5924492    785.77927  0.018757263  0.017989819            7 
 3492000   0.69815995   -7.6092352    785.68259  0.018749584  0.017984406            3 
 3493000   0.69277059    -7.628172    784.05883  0.018705478  0.017978989            5 
 3494000   0.69352031   -7.6062756     785.6033  0.018736961  0.017973563           11 
 3495000   0.68954385   -7.5990098    785.00545  0.018717345  0.017968157           12 
 3496000   0.69274633    -7.606544    785.28488  0.018718652  0.017962749           10 
 3497000   0.70849986   -7.5692461    785.30099  0.018713683   0.01795735           12 
 3498000   0.67929895   -7.6087372    785.69179  0.018717643  0.017951937            4 
 3499000   0.68241415   -7.6056023    784.50832  0.018684108  0.017946519            9 
 3500000    0.6859519   -7.6116577    783.80188   0.01866195  0.017941087            7 
 3501000   0.69725339   -7.6168288    786.21343  0.018714021  0.017935669            4 
 3502000   0.68134733   -7.6011429    785.95245  0.018702466  0.017930247           10 
 3503000   0.69363885   -7.6165583    784.40609  0.018660341  0.017924834           13 
 3504000   0.67636369    -7.620492    784.39129  0.018654663  0.017919415           11 
 3505000   0.68224683   -7.6191525    784.11803  0.018642844  0.017914006            9 
 3506000   0.69418537   -7.6087675    783.73952   0.01862853  0.017908574           10 
 3507000   0.70081367   -7.6234433    784.21241  0.018634455  0.017903139            7 
 3508000   0.69483487   -7.6124055     785.6147  0.018662455  0.017897714            9 
 3509000    0.7059277   -7.6115683    784.63994  0.018633987  0.017892309           10 
 3510000    0.6974575   -7.6361597    785.33968  0.018645292  0.017886882           11 
 3511000   0.69452744   -7.6271485    784.25626  0.018614266  0.017881459            6 
 3512000   0.69873071   -7.6239607    783.99235  0.018602704  0.017876034            7 
 3513000   0.68363945   -7.5849182    784.26912  0.018603974  0.017870632            6 
 3514000   0.68484338   -7.6032609    785.47542  0.018627287  0.017865224           11 
 3515000   0.69721314   -7.6185055    784.87141  0.018607667   0.01785982           13 
 3516000   0.68368651   -7.6279744     783.1315  0.018561137   0.01785441            8 
 3517000   0.69397211   -7.6359578    784.59439  0.018590522  0.017848989           12 
 3518000   0.67071826    -7.643283     785.0222  0.018595371  0.017843582            6 
 3519000   0.67867965   -7.6179768    784.99474  0.018589437  0.017838175           11 
 3520000   0.68837604   -7.6414517    785.35748  0.018592743  0.017832786           10 
 3521000   0.69652875   -7.6140146    784.58583    0.0185692   0.01782741           16 
 3522000    0.6871097   -7.6295628    784.77027  0.018568291  0.017822031            8 
 3523000   0.68240909   -7.6014372    787.00395  0.018615857  0.017816663            7 
 3524000   0.67896962   -7.6130293    785.58937  0.018577123  0.017811292            6 
 3525000   0.69376943    -7.634976    785.88765  0.018578904  0.017805927            5 
 3526000   0.70401731   -7.6343698    785.70064  0.018569215  0.017800551            4 
 3527000   0.67895074   -7.6062944    785.52299  0.018559753  0.017795194            9 
 3528000   0.67584696   -7.6167854    785.90786  0.018563583  0.017789844            6 
 3529000   0.69857148   -7.6311773    785.36908    0.0185456  0.017784507            9 
 3530000   0.69042712   -7.6229421    786.56568  0.018568595  0.017779158            7 
 3531000   0.68315015   -7.5822115    786.63008  0.018564856  0.017773816           15 
 3532000   0.68672829   -7.6427401    786.81951  0.018564069  0.017768459            5 
 3533000   0.68539086   -7.6338804    787.22614  0.018568406  0.017763094           16 
 3534000   0.68701763   -7.6249842    785.51787   0.01852287   0.01775773           10 
 3535000   0.68428312   -7.6193679    786.42506  0.018539016  0.017752365           11 
 3536000   0.69379735   -7.6168418    785.93222  0.018522158  0.017747006            9 
 3537000   0.70318455   -7.6373649    785.52578  0.018507346  0.017741638            4 
 3538000   0.68703125   -7.6251744    786.34313  0.018521366  0.017736267            9 
 3539000   0.67611703   -7.6386312    786.62163  0.018522691  0.017730906           11 
 3540000    0.6947774   -7.6158657    784.72185  0.018472737  0.017725549           12 
 3541000   0.69399083   -7.6417155    786.69349   0.01851392  0.017720184           19 
 3542000   0.68543414   -7.6289576      786.583  0.018506093  0.017714835            5 
 3543000   0.68742696   -7.6330392    787.11361  0.018513351  0.017709493            6 
 3544000   0.69674177   -7.6234672     785.4813  0.018469745   0.01770413            9 
 3545000   0.67340102   -7.6122113    785.32297  0.018460813  0.017698782            8 
 3546000   0.68462965   -7.6178357    785.72967  0.018465164  0.017693426            8 
 3547000   0.68290124   -7.6166452    785.48658  0.018454247  0.017688076           16 
 3548000   0.68828903   -7.6148198    787.04896  0.018485742  0.017682736            5 
 3549000   0.67803417   -7.6265696    785.46372  0.018443311  0.017677379            7 
 3550000   0.67820153   -7.6242057    784.93878  0.018425793  0.017672016            8 
 3551000   0.68791959   -7.6200367     784.8925  0.018419518  0.017666654           10 
 3552000   0.68014258    -7.664163     785.2386  0.018422452   0.01766127            8 
 3553000    0.6839599   -7.6318473    785.36865  0.018420317  0.017655913           18 
 3554000    0.6997034   -7.6273628    784.77928  0.018401315  0.017650546            4 
 3555000   0.68026232   -7.6239028    785.22522  0.018406592   0.01764517           12 
 3556000   0.69349916   -7.6427188    785.92745  0.018417872  0.017639793            7 
 3557000   0.68955958   -7.5976864    786.22913  0.018419762  0.017634442            4 
 3558000   0.68616794    -7.593363    785.56493  0.018399029  0.017629092            4 
 3559000   0.67459625   -7.6310006    783.49191   0.01834532  0.017623725            7 
 3560000    0.6810831   -7.6228395    786.34265  0.018406897  0.017618366           11 
 3561000   0.70023855   -7.6231045    786.70641  0.018410241   0.01761301           19 
 3562000   0.69803178    -7.611771    784.43181  0.018351858   0.01760766            3 
 3563000   0.66940671    -7.651599    785.17383  0.018364062  0.017602308            8 
 3564000   0.67725395   -7.6372703    786.34409  0.018386272  0.017596959            6 
 3565000   0.66238569   -7.6501258    785.02915  0.018350378  0.017591597           15 
 3566000   0.67558772    -7.611647    785.12963   0.01834758  0.017586226           17 
 3567000   0.69717704   -7.6377253    784.33266  0.018323817  0.017580859            7 
 3568000   0.68586084    -7.641635    785.31505  0.018341626  0.017575481           11 
 3569000   0.68396029    -7.639307    785.68188  0.018345052  0.017570108            8 
 3570000   0.67572991   -7.6258305    785.37477  0.018332744  0.017564748            6 
 3571000   0.69013776   -7.6284486    786.45698  0.018352865  0.017559378            7 
 3572000   0.68555673   -7.6151846    786.43647  0.018347249  0.017554016            5 
 3573000   0.68537715   -7.6341152    785.42886  0.018318613  0.017548665            5 
 3574000    0.6739246   -7.6196142    784.88709  0.018300855  0.017543305            8 
 3575000   0.67919045   -7.6369032    786.25495  0.018327621  0.017537941            6 
 3576000   0.67252992    -7.637223    782.97407   0.01824604  0.017532568            8 
 3577000   0.67596262   -7.6437944    783.89432  0.018262378  0.017527216           16 
 3578000   0.67883036   -7.6526592    785.17048  0.018286996  0.017521843            6 
 3579000   0.69130206   -7.6557053    785.58951  0.018291643    0.0175165           10 
 3580000   0.68384773   -7.6536206    785.28172   0.01827937  0.017511147           12 
 3581000   0.68037927   -7.6593112    784.33604  0.018252258  0.017505793           12 
 3582000   0.68071234   -7.6473723    785.36228  0.018271038  0.017500444           10 
 3583000   0.65868869   -7.6286542     786.2463  0.018286499  0.017495098            5 
 3584000   0.67808134   -7.6493175    785.14056  0.018255686  0.017489754            8 
 3585000   0.66648435   -7.6726413    785.01367  0.018247645  0.017484393            6 
 3586000   0.67838547    -7.652222    785.49974  0.018253852  0.017479027            7 
 3587000   0.66930587   -7.6371062    785.83098  0.018256458  0.017473677            6 
 3588000   0.69383249   -7.6562565    785.30806  0.018239225  0.017468312            7 
 3589000    0.6678274    -7.681492    784.45804  0.018214406  0.017462937            4 
 3590000   0.68669663   -7.6766907    785.53861  0.018234415  0.017457562           11 
 3591000   0.69277645   -7.6601955    783.29942  0.018177375  0.017452186           11 
 3592000   0.68358434     -7.65143    784.80451  0.018207232  0.017446817            5 
 3593000   0.67727617   -7.6811024    782.94792  0.018159104  0.017441442            7 
 3594000   0.68516937    -7.672927    784.90423  0.018199412  0.017436076            6 
 3595000   0.67440476    -7.639692    784.90601  0.018194391  0.017430723            5 
 3596000   0.67970758   -7.6465551    785.61761  0.018205822  0.017425364            8 
 3597000    0.6827347   -7.6390363    784.60594  0.018177322  0.017420021            9 
 3598000   0.67890404   -7.6413628    785.46898  0.018192259   0.01741467           12 
 3599000   0.66315027   -7.6596815    785.44518  0.018186653  0.017409321           21 
 3600000    0.6946787   -7.6149296    786.46293   0.01820516  0.017403982            5 
 3601000   0.67807544   -7.6527654    785.47862  0.018177326  0.017398649            4 
 3602000   0.68376565   -7.6431766    786.69409    0.0182004  0.017393322            7 
 3603000   0.68308805   -7.6444987    786.10648  0.018181758  0.017387991            4 
 3604000   0.66854405    -7.625814    786.90462  0.018195168  0.017382655           14 
 3605000   0.67385892   -7.6675457    785.24688    0.0181518   0.01737733            6 
 3606000   0.67003368   -7.6642404    784.22297  0.018123104  0.017371986            8 
 3607000   0.67903575   -7.6666252    783.59871  0.018103657  0.017366646            6 
 3608000   0.66584525   -7.6407971     785.6528  0.018146083  0.017361312            6 
 3609000   0.67231529   -7.6516812    783.87084  0.018099909  0.017355993            6 
 3610000   0.67950122   -7.6625497    785.18597  0.018125253  0.017350665           17 
 3611000   0.68938809   -7.6676871    782.50667  0.018058402   0.01734531            4 
 3612000   0.68344254   -7.6863456    782.56311  0.018054704   0.01733996            7 
 3613000   0.67754859   -7.6883262    784.65639  0.018097988  0.017334619            7 
 3614000   0.67563868   -7.6574647    784.36332  0.018086223  0.017329274           10 
 3615000   0.66742263   -7.6541061     785.2284  0.018101162  0.017323933           12 
 3616000   0.66814774   -7.6426627    784.98621  0.018090574  0.017318613            7 
 3617000   0.66273886   -7.6341195    785.34416   0.01809382  0.017313296           12 
 3618000    0.6595931   -7.6588324    785.84334  0.018100316  0.017307985           10 
 3619000    0.6743509   -7.6643556    786.24227  0.018104501  0.017302677            7 
 3620000   0.66885136   -7.6692498     783.8978  0.018045529  0.017297352           11 
 3621000   0.66934599    -7.669346    785.10985   0.01806844  0.017292024           19 
 3622000   0.66039645    -7.682498    786.46776  0.018094694  0.017286698           20 
 3623000   0.66861004   -7.6811461    786.32176  0.018086341  0.017281374            7 
 3624000   0.67553646   -7.6781844    784.92312  0.018049189  0.017276056            8 
 3625000    0.6697343   -7.6577746    784.35128  0.018031064  0.017270731           10 
 3626000   0.67770007   -7.6502473     785.9369  0.018062532  0.017265416            6 
 3627000    0.6871014   -7.6799818    785.49965  0.018047506  0.017260099           11 
 3628000   0.68183471   -7.6518899    785.88458  0.018051373  0.017254795            7 
 3629000   0.67762528   -7.6459266     786.2405  0.018054572  0.017249479            5 
 3630000   0.68193302   -7.6467254    786.17871   0.01804818  0.017244175            7 
 3631000   0.68212978   -7.6747565    784.45846  0.018003729  0.017238873            7 
 3632000   0.67591344   -7.6722386    784.33803  0.017996008  0.017233549            7 
 3633000   0.67225456    -7.662776    783.78557  0.017978383   0.01722823            4 
 3634000    0.6829443   -7.6620798    784.25974  0.017984309  0.017222921            8 
 3635000   0.66651119   -7.6631817    785.35225  0.018004407  0.017217598            7 
 3636000   0.65926288   -7.6894313    785.11849  0.017994098  0.017212285            8 
 3637000   0.65550974   -7.6769637    784.96236  0.017985573   0.01720698           11 
 3638000   0.66211605   -7.6482654    784.13378   0.01796165  0.017201691           10 
 3639000   0.67506173   -7.6755707    783.83555  0.017949884  0.017196402            7 
 3640000   0.66917708   -7.6562006    785.44658  0.017981836  0.017191104            4 
 3641000   0.67422423   -7.6749566    785.09173  0.017968775  0.017185824           16 
 3642000   0.67509862   -7.6660726    785.43001  0.017971582  0.017180533            5 
 3643000   0.67883206   -7.6545626    785.48711  0.017967955  0.017175242            4 
 3644000   0.67489319   -7.6718838    785.38895  0.017960779  0.017169946            4 
 3645000   0.66751208   -7.6943354    785.04086  0.017947893  0.017164648            8 
 3646000   0.66346726   -7.6611815    785.40864  0.017951377  0.017159369           15 
 3647000   0.66305525   -7.6864455      786.143  0.017963235  0.017154082           16 
 3648000   0.65324115   -7.6955334    785.46062  0.017942723  0.017148779           17 
 3649000   0.65135966   -7.6569531    784.02671  0.017905059  0.017143473            8 
 3650000   0.68666718   -7.6733538    785.11631   0.01792503  0.017138173            4 
 3651000   0.68144408   -7.6715447     784.2856   0.01790116  0.017132883            6 
 3652000    0.6610449   -7.6716934    786.92693  0.017956529  0.017127614            6 
 3653000   0.65886756   -7.6722166    784.60699   0.01789869  0.017122346           15 
 3654000   0.67644432     -7.66136     785.7289  0.017919378  0.017117082            3 
 3655000   0.68157374   -7.6581682     786.4202  0.017930237  0.017111819           13 
 3656000   0.66070021   -7.6548331    787.28264  0.017944991  0.017106571            7 
 3657000   0.66571752   -7.6924019    785.71722  0.017904412  0.017101331            9 
 3658000   0.66961348   -7.6863036    784.90814  0.017881086  0.017096065           14 
 3659000   0.66260328   -7.6722707    784.45796  0.017865946  0.017090802            4 
 3660000    0.6673773   -7.6605906    786.74275  0.017913086   0.01708553            5 
 3661000   0.66466732   -7.6741289    785.83763  0.017887591  0.017080258            8 
 3662000   0.65514277   -7.6851813    785.23482  0.017868988  0.017074995            9 
 3663000   0.66716022   -7.6921336    785.68602  0.017874375  0.017069705            7 
 3664000   0.68304711   -7.6927858    784.61291   0.01784509  0.017064419            8 
 3665000   0.66909121   -7.6811966    784.15584  0.017829828  0.017059139           15 
 3666000   0.66653862    -7.674782    786.39605  0.017875888  0.017053864            6 
 3667000   0.65824189   -7.6824928    785.00446  0.017839389  0.017048589           10 
 3668000   0.67615577   -7.6664374    785.07583  0.017836147  0.017043316            9 
 3669000    0.6773156   -7.6808545    784.35092  0.017814821  0.017038056            5 
 3670000     0.673156   -7.6851036    785.75793  0.017841915  0.017032801           10 
 3671000   0.65958952   -7.6966609    785.05454  0.017821087  0.017027533            6 
 3672000   0.66226177   -7.6974392    784.84414  0.017811459  0.017022261           14 
 3673000   0.66343209   -7.7177002    784.81977  0.017806057  0.017016969           10 
 3674000   0.67432909   -7.6862643    785.13014   0.01780825  0.017011687           19 
 3675000    0.6591194   -7.7083841    785.19706  0.017804922  0.017006421            7 
 3676000   0.66696417   -7.7011871    785.97962  0.017817819  0.017001151            8 
 3677000   0.67091905    -7.710833    785.53675  0.017802936  0.016995871            5 
 3678000   0.67450181   -7.6968588     785.0496  0.017787058  0.016990574            7 
 3679000   0.63915324   -7.7044081    785.17977  0.017785172  0.016985287           10 
 3680000    0.6693921   -7.6756909    785.41134  0.017785583  0.016980011           11 
 3681000   0.66906591   -7.6797602    786.21781  0.017799009  0.016974754            4 
 3682000   0.66537062   -7.6956733      784.503  0.017755364  0.016969495            6 
 3683000   0.66752884   -7.6999403    786.37602  0.017792923  0.016964227            6 
 3684000    0.6843098   -7.6952586    783.66389  0.017726744   0.01695897            4 
 3685000     0.650747   -7.6923292    784.82239  0.017748132  0.016953722            5 
 3686000   0.66074598   -7.6945483    784.03343   0.01772548  0.016948464            5 
 3687000   0.66843963   -7.6863691    784.06742  0.017721441  0.016943206            6 
 3688000    0.6806272   -7.6932773    786.32339  0.017767611  0.016937943           11 
 3689000   0.66866927    -7.679012    784.37028  0.017718674  0.016932685            6 
 3690000    0.6597394    -7.691055    786.87845  0.017770516  0.016927422            7 
 3691000    0.6596051   -7.6865397    785.81224  0.017741629   0.01692217            7 
 3692000   0.66313689   -7.6753488    785.30755  0.017725432  0.016916924            5 
 3693000   0.66325411    -7.682766    784.28355  0.017697526  0.016911675            5 
 3694000   0.64582457   -7.6734785    784.92128  0.017707121  0.016906427            4 
 3695000   0.64757947   -7.6909864    784.52776  0.017693454  0.016901184            7 
 3696000   0.65803573   -7.6757865    785.12352    0.0177021  0.016895942            4 
 3697000   0.65962431   -7.6622548    784.94412  0.017693267  0.016890706            3 
 3698000   0.64957482   -7.6916706    786.82072  0.017730772  0.016885472           10 
 3699000   0.65839209    -7.689779    784.17304   0.01766633  0.016880236            9 
 3700000   0.66569989   -7.7040545    784.96551  0.017679403  0.016874988            5 
 3701000   0.66394206   -7.6932896    785.34341  0.017683135  0.016869737            6 
 3702000   0.66157105    -7.689534    785.11595  0.017673239  0.016864496            8 
 3703000   0.64951408   -7.6788954    786.40852  0.017697554  0.016859267            7 
 3704000   0.64251311   -7.6845927    786.34736    0.0176914  0.016854034           14 
 3705000   0.66584136   -7.6954376    785.36788  0.017664595    0.0168488            8 
 3706000   0.66586034   -7.6754818    787.29987  0.017703271  0.016843576           11 
 3707000    0.6716638   -7.6840246    786.21991  0.017674218  0.016838353            7 
 3708000   0.66538303   -7.6965641    785.62071  0.017655985  0.016833123            4 
 3709000   0.64968355   -7.6956197    785.99971   0.01765974  0.016827888            8 
 3710000    0.6595272   -7.6857585    785.65589  0.017647257  0.016822653            8 
 3711000   0.65821218    -7.646881    785.12144    0.0176305  0.016817435            7 
 3712000   0.66924848   -7.6839231    785.30898  0.017629961  0.016812227            5 
 3713000   0.65382471   -7.6559371    786.98934  0.017662926  0.016807011            5 
 3714000   0.65331594   -7.6873259    786.04538   0.01763699  0.016801806            4 
 3715000   0.66159156   -7.6802107    784.21703   0.01759123  0.016796602            5 
 3716000   0.65594695   -7.6813219    786.01369  0.017626787  0.016791411            7 
 3717000   0.65806099   -7.6742323    786.56208   0.01763434  0.016786208            7 
 3718000   0.66670645   -7.6804176    785.72872  0.017610918  0.016780993            4 
 3719000   0.67043417   -7.6914554    785.34108  0.017597497  0.016775788            9 
 3720000   0.66894354   -7.6965137    785.74247  0.017601758  0.016770581            7 
 3721000   0.65645507   -7.6832806    785.35906  0.017588441  0.016765377           11 
 3722000   0.65431875   -7.6867358    787.27208  0.017626547  0.016760168            6 
 3723000   0.65868431   -7.6865197    786.06059  0.017594695  0.016754953            8 
 3724000   0.66513462   -7.6870641    786.84411  0.017607503  0.016749743            8 
 3725000   0.64776548   -7.6942092     785.5998   0.01757494  0.016744541           12 
 3726000   0.65255919   -7.6800047    785.31274  0.017563803  0.016739343            6 
 3727000    0.6425879   -7.6795667    785.78275  0.017569599  0.016734147           10 
 3728000   0.65662722   -7.6751499     786.0331  0.017570482  0.016728951            6 
 3729000    0.6512645   -7.6962365     784.4011    0.0175293  0.016723748            7 
 3730000   0.65557711   -7.6908246    786.54036  0.017572394  0.016718544            6 
 3731000   0.66727688   -7.7010077    785.43882  0.017543081   0.01671334           12 
 3732000   0.66612228    -7.690099    784.65917  0.017520971  0.016708132           12 
 3733000   0.66007086    -7.716291    786.42055  0.017555598  0.016702932            7 
 3734000   0.64785695   -7.7174355    785.22016  0.017524107  0.016697726            7 
 3735000   0.66036441   -7.6972797    786.02671   0.01753741  0.016692532            8 
 3736000   0.64099406   -7.7069089    786.12272  0.017534857  0.016687353            6 
 3737000   0.65518342   -7.7277791    784.49115  0.017493782  0.016682165            5 
 3738000   0.64844597   -7.7053775    785.67267  0.017515442   0.01667698            6 
 3739000   0.64686113   -7.6931347    786.41819  0.017527373  0.016671792           10 
 3740000   0.64824134   -7.6853944    787.08119   0.01753746  0.016666624           12 
 3741000   0.64532444   -7.7019077    786.64083  0.017522962  0.016661473           22 
 3742000   0.64521063   -7.6960127    786.80695  0.017521979  0.016656321            9 
 3743000   0.65628994   -7.6817785    787.47169  0.017532097  0.016651167            6 
 3744000   0.64790352   -7.7024711    785.60613  0.017485891  0.016646011            9 
 3745000    0.6532945   -7.7050134    785.41417  0.017476951  0.016640835            8 
 3746000   0.64956423   -7.7189717    785.79036  0.017480654  0.016635677            9 
 3747000   0.65340089   -7.6883914    786.89214  0.017500492  0.016630506            4 
 3748000   0.66268326   -7.7050658    785.09685  0.017455907  0.016625344            6 
 3749000   0.64930023   -7.6951698    785.52157  0.017460691  0.016620189            4 
 3750000   0.64748762   -7.7013554    786.62402  0.017480534  0.016615035           10 
 3751000   0.64613635   -7.6965646    786.51956  0.017473553  0.016609891           12 
 3752000   0.63844972   -7.7279619    784.93212  0.017433638  0.016604746            7 
 3753000   0.64125872    -7.715553    786.48264  0.017463421  0.016599589            7 
 3754000   0.65363737   -7.7006083    786.32837  0.017455345   0.01659444            9 
 3755000   0.63713371   -7.7084412    786.13468  0.017446398  0.016589286           14 
 3756000   0.67235037   -7.7030334    784.35802  0.017402334  0.016584154            7 
 3757000   0.64996357   -7.7312988    785.22266  0.017416881  0.016579024            7 
 3758000   0.64001459   -7.7330526     786.6357   0.01744358  0.016573888            4 
 3759000   0.65112314   -7.7114643    784.87156  0.017399831  0.016568743           12 
 3760000   0.65689058    -7.695956    785.22076  0.017402942  0.016563598            5 
 3761000   0.64234522   -7.7131054    787.16944  0.017441493  0.016558464            5 
 3762000   0.64655557    -7.723228    786.75982  0.017427783  0.016553332            7 
 3763000   0.65512294   -7.6994693    786.78464  0.017423701  0.016548199            8 
 3764000   0.65689681   -7.7284905    786.36883  0.017409866  0.016543059            7 
 3765000   0.65302441   -7.7100705    787.99444  0.017441223  0.016537935            4 
 3766000   0.64356213   -7.7262027    784.79948  0.017365894  0.016532799            7 
 3767000   0.65163336   -7.7157242    786.48792  0.017398635  0.016527674            6 
 3768000   0.64111045   -7.7248968    784.20425  0.017343512  0.016522533            6 
 3769000   0.63912351    -7.745098    784.06067  0.017335736  0.016517398            6 
 3770000   0.65222818   -7.7274921    785.91937  0.017372223  0.016512259            8 
 3771000   0.66432928   -7.7336256    786.99199  0.017391319  0.016507142           11 
 3772000   0.64775065   -7.7188184    783.98646  0.017320309  0.016502025           10 
 3773000   0.64546466   -7.7156564    785.97221  0.017359577  0.016496891            6 
 3774000   0.64553912   -7.7219484    786.71163  0.017371304  0.016491757           12 
 3775000   0.65245687   -7.7483534    786.23541   0.01735619  0.016486634           11 
 3776000   0.64886239   -7.7330053    785.50679  0.017335513  0.016481513            5 
 3777000    0.6461716   -7.7029395    786.86178  0.017360819  0.016476402            8 
 3778000   0.64560184   -7.7189652    786.03272  0.017337937  0.016471303            6 
 3779000   0.64256089   -7.6950189     787.1054  0.017357004  0.016466204            7 
 3780000    0.6463748   -7.7203889    786.22407  0.017332982  0.016461102            5 
 3781000   0.66033699   -7.7016671    787.11547  0.017348044  0.016455998            6 
 3782000   0.64178864   -7.7336884    786.65416  0.017333293  0.016450899            8 
 3783000   0.65295044   -7.7272153    786.00273  0.017314361  0.016445792            8 
 3784000   0.64872964   -7.7192284    786.62527  0.017323495  0.016440688           12 
 3785000   0.65512937   -7.7359992    785.64229  0.017297276  0.016435572            6 
 3786000   0.64753605   -7.7079388    786.86087   0.01731953  0.016430463           12 
 3787000   0.64381312   -7.7227243    786.27249  0.017302009  0.016425355            7 
 3788000   0.64976011   -7.7201506    786.70611  0.017306981  0.016420248            7 
 3789000   0.65196618   -7.7074436    785.64517  0.017279079  0.016415146           16 
 3790000   0.64982198   -7.7420171    786.59405  0.017295384   0.01641004            7 
 3791000   0.64666568   -7.7291253    786.08177  0.017279561  0.016404924            9 
 3792000   0.65177058    -7.722877    785.27528   0.01725728  0.016399824           12 
 3793000   0.64003812   -7.7372845    786.49421  0.017279511  0.016394713           13 
 3794000   0.64295504   -7.7221853    788.32502  0.017315169   0.01638961            8 
 3795000   0.63373106   -7.7150571    786.82856  0.017277746  0.016384522            5 
 3796000   0.64384426   -7.7326496    787.26536  0.017282784  0.016379428           11 
 3797000   0.64522089    -7.736962    785.71961  0.017244307  0.016374326            5 
 3798000   0.63488846   -7.7357454    785.50444  0.017235046  0.016369227           10 
 3799000    0.6464084   -7.7290009    787.66137  0.017277822  0.016364119           12 
 3800000   0.64436418   -7.7363152    785.03681   0.01721572  0.016359016            6 
 3801000    0.6336142   -7.7226718    784.39143  0.017197041    0.0163539            5 
 3802000   0.63815861   -7.7332883    787.38444  0.017258119  0.016348798            8 
 3803000   0.64650198   -7.7194658    785.07579  0.017202993  0.016343698           10 
 3804000   0.64533949   -7.7428945    786.37528  0.017226938  0.016338611            6 
 3805000   0.65005103   -7.7503686    783.98074  0.017169968  0.016333524            6 
 3806000   0.64727647   -7.7276673    785.85192  0.017206427  0.016328426            6 
 3807000   0.64774272   -7.7286132    785.16347  0.017186837  0.016323334            9 
 3808000   0.63781158   -7.7210589    786.91478  0.017220649  0.016318235            9 
 3809000   0.63952445   -7.7320663    785.65778  0.017188627  0.016313138            5 
 3810000   0.64306738   -7.7280089    785.24816  0.017175157  0.016308052            5 
 3811000   0.62564672   -7.6976472    785.31372  0.017172083  0.016302966            5 
 3812000   0.64219244    -7.706717    785.56976  0.017173176  0.016297865            6 
 3813000   0.64157851   -7.7477204    785.47691  0.017166643  0.016292766           11 
 3814000   0.64605476   -7.7294398    787.09492  0.017197494  0.016287658           15 
 3815000   0.64192001   -7.7319398    786.59968  0.017182169  0.016282554           16 
 3816000    0.6374536   -7.7368228    785.70547  0.017158138   0.01627745           12 
 3817000   0.63618946   -7.7207786    785.68192  0.017153129  0.016272353           10 
 3818000   0.64588452   -7.7169229    785.55923  0.017145958  0.016267271           25 
 3819000   0.64774775   -7.7339038    787.24701  0.017178297  0.016262179           23 
 3820000   0.63613385     -7.73553    784.79385  0.017120285  0.016257092           10 
 3821000   0.64560622   -7.7555243    785.32311  0.017127347  0.016251999           12 
 3822000   0.63140099   -7.7228524    785.53234  0.017127428  0.016246903           10 
 3823000   0.63066498   -7.7295372    784.26441  0.017095309  0.016241802           17 
 3824000   0.65597279   -7.7349833    784.35145  0.017092736    0.0162367           19 
 3825000   0.64679572   -7.7121224    785.71235  0.017117916  0.016231614           13 
 3826000   0.64648927   -7.7518265     784.6986  0.017091362  0.016226531           20 
 3827000   0.62823679   -7.7429516    783.48976  0.017060573  0.016221438           15 
 3828000   0.63264911   -7.7208086    786.99122  0.017132341  0.016216345            9 
 3829000   0.64372416   -7.7312001    786.23037  0.017111308  0.016211274            8 
 3830000   0.64768446   -7.7483796    784.39385  0.017066881  0.016206191           13 
 3831000   0.64212213     -7.75018    784.85921  0.017072549  0.016201106           19 
 3832000   0.65356839   -7.7609579    785.71786  0.017086766  0.016196021            7 
 3833000   0.63564344   -7.7181221    788.22274  0.017136767  0.016190939            8 
 3834000   0.64319891   -7.7557416    785.50376  0.017073199  0.016185847            7 
 3835000   0.64017322   -7.7517262    784.00561  0.017036193  0.016180765           15 
 3836000   0.64648545   -7.7665564    786.46064  0.017085085  0.016175687           16 
 3837000   0.64009288   -7.7589533    783.86972  0.017024362  0.016170605            7 
 3838000   0.62836454    -7.734006    786.05594  0.017067395  0.016165512            8 
 3839000   0.63237501   -7.7545326    784.19241  0.017022497   0.01616042            8 
 3840000   0.64236952   -7.7251009     785.1883  0.017039677  0.016155338           26 
 3841000   0.63797711   -7.7584504    785.20584  0.017035621  0.016150253           10 
 3842000   0.63798909   -7.7228229    785.63616  0.017040521  0.016145172            7 
 3843000   0.63023501   -7.7376412    785.54156  0.017034035  0.016140105           11 
 3844000   0.62084161   -7.7420123      785.491  0.017028508   0.01613504            4 
 3845000   0.63690393   -7.7416029    786.54679  0.017046961  0.016129974            6 
 3846000     0.651255   -7.7490679    784.67821  0.017002041  0.016124892            7 
 3847000   0.63096676   -7.7388546    783.75428  0.016977608  0.016119825           12 
 3848000   0.63082181   -7.7424325    784.47278  0.016988756  0.016114756            7 
 3849000    0.6422169   -7.7582499     783.4582  0.016962376   0.01610969            6 
 3850000   0.65712127   -7.7470031    785.23059  0.016996333  0.016104625           10 
 3851000   0.64460113   -7.7341642      784.006   0.01696542  0.016099563            7 
 3852000   0.63104188   -7.7207208    784.77106  0.016977567  0.016094506            9 
 3853000   0.64176356   -7.7337034    785.79572  0.016995322  0.016089455           10 
 3854000   0.64976504   -7.7354767    786.61665  0.017008663  0.016084405            7 
 3855000   0.63211568   -7.7433625    784.95994  0.016968438  0.016079357            6 
 3856000   0.64658823   -7.7295809    785.44797  0.016974585  0.016074311           11 
 3857000     0.648632   -7.7332905     784.6045   0.01695196  0.016069264            7 
 3858000   0.63673371   -7.7621102      784.131  0.016937338  0.016064216            9 
 3859000   0.64203081   -7.7689934    784.17597   0.01693392  0.016059161           10 
 3860000   0.63651578   -7.7463892    785.82962  0.016965234  0.016054112            9 
 3861000   0.63319821   -7.7319076    785.66167  0.016957215  0.016049075           10 
 3862000   0.63536343   -7.7617227    785.07977  0.016940268  0.016044046            8 
 3863000   0.63407644   -7.7714533    785.22693  0.016939057  0.016039011           10 
 3864000   0.63139003   -7.7528498    786.41252  0.016960242  0.016033971           20 
 3865000   0.63178096   -7.7512385    784.69506  0.016918824  0.016028937            5 
 3866000   0.63407495   -7.7448443    785.81526  0.016938594  0.016023902           16 
 3867000   0.63842736   -7.7273681    783.77356  0.016890216  0.016018869           10 
 3868000   0.63068662   -7.7583575    785.35141  0.016919842  0.016013837           10 
 3869000    0.6437317   -7.7392662    785.62347  0.016921329  0.016008817           18 
 3870000   0.63428243    -7.747262    786.01124  0.016925307  0.016003794           13 
 3871000   0.63153529   -7.7526396    784.07359  0.016879221  0.015998772           10 
 3872000   0.63281986   -7.7625678    784.68921  0.016888111  0.015993748           10 
 3873000   0.62768667   -7.7471753    785.58701  0.016903068  0.015988724            6 
 3874000   0.64426847   -7.7294664    786.05144  0.016908696  0.015983697            7 
 3875000   0.63034229   -7.7384434    786.06193  0.016904558  0.015978683           14 
 3876000   0.64119465   -7.7408496    786.72529  0.016914458  0.015973667            8 
 3877000   0.62585685    -7.749274    784.45797  0.016861361  0.015968646           18 
 3878000   0.62828113   -7.7537859    784.86574  0.016865776  0.015963634           14 
 3879000   0.63583219   -7.7702952    785.99654  0.016885721   0.01595861           12 
 3880000   0.61579045   -7.7638445    785.38177  0.016868165  0.015953584           14 
 3881000   0.63488841   -7.7704956    784.94537  0.016854448  0.015948562           10 
 3882000   0.62879457   -7.7554118     785.1824  0.016855195  0.015943549           13 
 3883000   0.62359606   -7.7700973     783.7461   0.01682003  0.015938529           21 
 3884000   0.64104436   -7.7618811    783.90195  0.016819043  0.015933506           11 
 3885000   0.63786203   -7.7483042    785.64222  0.016852042  0.015928491           18 
 3886000   0.61668912   -7.7688729    785.40605  0.016842641  0.015923477           15 
 3887000   0.62061047   -7.7507195    785.66808  0.016843926  0.015918469           13 
 3888000   0.62824506   -7.7521392    785.59713  0.016838073  0.015913463            7 
 3889000    0.6160188   -7.7343898    784.87015  0.016818166  0.015908458           13 
 3890000   0.62475208   -7.7541737    784.83566  0.016813103  0.015903461            8 
 3891000     0.623903   -7.7106425    784.88841  0.016809912   0.01589846           16 
 3892000   0.63544171   -7.7532736    785.19148  0.016812082  0.015893465            8 
 3893000   0.63424558   -7.7459993    785.62021  0.016816941  0.015888461           11 
 3894000   0.62419987   -7.7115171     786.1348  0.016823635  0.015883476            9 
 3895000   0.63779264   -7.7637447     785.4433  0.016804521  0.015878487            7 
 3896000   0.62942759   -7.7375142    786.09623  0.016814173  0.015873487           10 
 3897000   0.63444642   -7.7659894    784.51728  0.016776095  0.015868487           11 
 3898000   0.63607706   -7.7587602    784.88282  0.016779605  0.015863488           10 
 3899000   0.62389525    -7.765273    784.12786  0.016759166  0.015858481            6 
 3900000   0.63342408   -7.7624297    784.36531  0.016759942  0.015853481           13 
 3901000   0.61501396   -7.7495433    784.04489  0.016748801  0.015848475            9 
 3902000   0.62919356   -7.7648168    784.87787  0.016762299  0.015843473           10 
 3903000   0.62462027   -7.7588917     784.7234  0.016754706   0.01583847           23 
 3904000   0.64040516   -7.7688401    783.31083  0.016720262  0.015833475           12 
 3905000   0.62325135   -7.7513632     783.2895  0.016715525  0.015828466            9 
 3906000   0.62734612    -7.773983     784.2642   0.01673204  0.015823457           14 
 3907000   0.63696014   -7.7585346    785.49199  0.016753946  0.015818455            9 
 3908000   0.61955495   -7.7689141     784.7313  0.016733438  0.015813459            5 
 3909000   0.61343083   -7.7623183    784.43133  0.016722762  0.015808467            7 
 3910000   0.61999848   -7.7704272    783.87861  0.016706705  0.015803461           11 
 3911000   0.63717522   -7.7630292    783.35461  0.016691268  0.015798457           12 
 3912000   0.63238931   -7.7502056    784.53154  0.016712073  0.015793456            6 
 3913000   0.62594244   -7.7818957      784.619  0.016709664  0.015788466            7 
 3914000   0.61615922   -7.7413335    784.28125  0.016698204  0.015783477            9 
 3915000   0.63942477   -7.7593003    784.83635  0.016705755  0.015778495            7 
 3916000   0.62348919   -7.7685099    785.28851  0.016711111  0.015773507            8 
 3917000   0.60963413   -7.7624489    782.97984  0.016657728  0.015768522           11 
 3918000   0.62226606   -7.7659321    784.53759  0.016686609  0.015763539            9 
 3919000    0.6239776    -7.770653    784.20901  0.016675364  0.015758562           13 
 3920000   0.62633329   -7.7733067    785.46097  0.016697725  0.015753582           10 
 3921000   0.64275121   -7.7749746    783.57385  0.016653359   0.01574859            8 
 3922000   0.61762759   -7.7591352    784.53258  0.016669484  0.015743607           10 
 3923000   0.62601876   -7.7484337    783.31665  0.016639405  0.015738624           12 
 3924000   0.60952855   -7.7613319    784.28949  0.016655825  0.015733645           26 
 3925000   0.62561499   -7.7691467    784.93113  0.016665204   0.01572867           11 
 3926000   0.61978822   -7.8000702    784.56409  0.016653169  0.015723674            8 
 3927000   0.62579668   -7.7610633     784.9823  0.016657803  0.015718701           15 
 3928000   0.60568067   -7.7746803    785.67497  0.016668257   0.01571372           11 
 3929000   0.61456366   -7.7846225    784.55251  0.016640208  0.015708742            9 
 3930000   0.62202898    -7.766863    784.64087  0.016637847  0.015703765            7 
 3931000   0.63542323   -7.7658172    783.37463  0.016606772  0.015698797           11 
 3932000   0.61633202   -7.7698546    784.05608   0.01661699   0.01569382            7 
 3933000    0.6190598    -7.746947    784.06615  0.016612979  0.015688846            6 
 3934000   0.62470672   -7.7665216    784.77188  0.016623705  0.015683877            7 
 3935000   0.60757314   -7.7728614    784.67234  0.016617373  0.015678907            9 
 3936000   0.61950648   -7.7817406    784.48105  0.016609101   0.01567393            7 
 3937000   0.62832602   -7.7877995    785.31598  0.016622555  0.015668951           11 
 3938000   0.62730073   -7.7934319    783.34551  0.016576636   0.01566398            8 
 3939000   0.62867598   -7.7982556     783.4094  0.016573779     0.015659           11 
 3940000   0.63299438   -7.7721565    784.98294  0.016602854  0.015654031            8 
 3941000   0.62255087   -7.7917618    785.22501   0.01660376  0.015649063            7 
 3942000    0.6151938   -7.7909974    783.70684  0.016567454  0.015644093            8 
 3943000   0.62208015   -7.7948799    784.57933  0.016581692  0.015639132           11 
 3944000   0.62431166   -7.7916385    784.40085  0.016573716   0.01563417           10 
 3945000   0.63068061   -7.7758555    783.48278  0.016550122  0.015629216            8 
 3946000   0.62617081   -7.7949592    783.04591  0.016536702  0.015624256           14 
 3947000   0.62454571   -7.7830148    784.65277  0.016566438  0.015619302           14 
 3948000   0.60953556   -7.7947612    783.80662  0.016544382  0.015614351            7 
 3949000   0.61282076   -7.7962987    782.99762   0.01652312   0.01560939           12 
 3950000   0.61814428   -7.7901472    783.76461  0.016535118  0.015604429           14 
 3951000   0.62351545   -7.7897083    783.33731  0.016521921   0.01559947           16 
 3952000    0.6029253   -7.7807046    784.24266  0.016536831  0.015594516           23 
 3953000   0.60518033   -7.8233077    782.07564  0.016486964   0.01558955           13 
 3954000   0.63166496   -7.7947244    783.93658  0.016522015  0.015584601            7 
 3955000   0.63298993    -7.784611    783.51328  0.016508919  0.015579658            9 
 3956000   0.60822705   -7.8116466    783.56861  0.016505911  0.015574714           13 
 3957000   0.62375756   -7.8134599    783.11356  0.016492157  0.015569766           11 
 3958000   0.62203462   -7.7994344    783.37535  0.016493501  0.015564819            8 
 3959000   0.60909704    -7.806265      783.524  0.016492465   0.01555987            7 
 3960000     0.615592   -7.7898753     783.8463  0.016495082  0.015554928            6 
 3961000   0.61493076   -7.7927461    784.19757  0.016498308   0.01554999            6 
 3962000   0.61550329   -7.7996993    782.64823  0.016461556  0.015545056           10 
 3963000   0.61728894   -7.7962255    784.30071   0.01649215  0.015540124            8 
 3964000   0.61461176   -7.8149083    783.29986   0.01646695  0.015535201           10 
 3965000   0.60986669   -7.7880265    782.72963  0.016450812  0.015530287           12 
 3966000   0.61530262   -7.7884534    784.42954  0.016482382  0.015525366            7 
 3967000     0.603757   -7.7959909    785.73915  0.016505738  0.015520453            9 
 3968000   0.60259853   -7.7799185    784.20074  0.016469269  0.015515528            8 
 3969000   0.60799516   -7.8039494    784.67237  0.016475022  0.015510605           13 
 3970000   0.61329434   -7.7827609    784.12189  0.016459318  0.015505685            9 
 3971000   0.61165715   -7.8126762    785.22091  0.016478236   0.01550077            5 
 3972000   0.60242363   -7.8001865    785.05997  0.016470711  0.015495859            7 
 3973000    0.6168525   -7.7928452    784.70459  0.016459111  0.015490951            7 
 3974000   0.61187985   -7.8080407    785.58393  0.016473409  0.015486046            8 
 3975000   0.61464542   -7.7810345    784.50772  0.016446703  0.015481139            7 
 3976000    0.6326427   -7.7883734    784.54756  0.016443401  0.015476238            8 
 3977000   0.60339313   -7.7758749    783.81499  0.016423917  0.015471324            7 
 3978000   0.62028266   -7.8040626    784.91662  0.016442865  0.015466416            7 
 3979000   0.61364252   -7.7967231     783.5529  0.016410172  0.015461513            7 
 3980000   0.62219573   -7.7970046    784.15284  0.016418611  0.015456607            7 
 3981000   0.61613779   -7.7752173    785.20791  0.016436572  0.015451704            5 
 3982000   0.61275642   -7.7957885    784.31906  0.016413843  0.015446791            8 
 3983000   0.61163637   -7.8018408    784.13555  0.016405882  0.015441887            6 
 3984000    0.6208548   -7.8237739    784.72172  0.016414025  0.015436963           10 
 3985000   0.61648017   -7.8061576    784.78872  0.016411307  0.015432043            9 
 3986000   0.61315981   -7.7860635    782.65354  0.016362551  0.015427136            4 
 3987000   0.61453779   -7.8140709     784.3242  0.016393366  0.015422225            6 
 3988000   0.61181084   -7.8061867    784.56894  0.016394369   0.01541732            5 
 3989000   0.60392709    -7.797938    783.10586  0.016359695   0.01541242            8 
 3990000   0.61298055   -7.8101279    782.71639   0.01634746  0.015407513            6 
 3991000   0.62157601   -7.7911021    783.64029  0.016362655  0.015402611            9 
 3992000   0.61339788   -7.7980015     783.3239  0.016351952  0.015397711            7 
 3993000   0.60924378   -7.8082603    783.74585  0.016356663  0.015392813            7 
 3994000   0.61563395   -7.7972532    783.42822   0.01634594   0.01538791           16 
 3995000   0.59376563   -7.7960552    784.17662   0.01635746  0.015383023            8 
 3996000    0.6106055    -7.812117    784.33954  0.016356764  0.015378133            8 
 3997000   0.61232394   -7.8074669    783.38922  0.016332858  0.015373233           13 
 3998000   0.61420807   -7.8077267    783.13335   0.01632344  0.015368337            9 
 3999000   0.61254878   -7.8234249    783.06086  0.016317847  0.015363441            9 
 4000000   0.60844513   -7.8144992    783.65432  0.016326132  0.015358546           13 
 4001000   0.61036889   -7.7981141    784.15961  0.016332575   0.01535365           10 
 4002000   0.61371659   -7.7918692    782.96642  0.016303649  0.015348758            6 
 4003000   0.60841882   -7.7879893    784.19693  0.016325192  0.015343878            9 
 4004000   0.61709064   -7.7959225    782.77983  0.016291622  0.015338992           16 
 4005000   0.61662457   -7.8120601    783.83211  0.016309449  0.015334116            9 
 4006000   0.60697535   -7.7966264    785.29195  0.016335745  0.015329246           14 
 4007000   0.61830183   -7.8111521    784.76665  0.016320744   0.01532438            7 
 4008000   0.59780785   -7.7882678    785.10812  0.016323772   0.01531951            9 
 4009000   0.62142227   -7.8029757     783.6531  0.016289455  0.015314632            8 
 4010000   0.61377319   -7.8058872    784.04451  0.016293527  0.015309762           11 
 4011000   0.61126996   -7.8143157     782.9602  0.016266937  0.015304891           17 
 4012000   0.61817062   -7.8168076    784.66837  0.016298363  0.015300024           13 
 4013000    0.6144371   -7.7926516    784.25476  0.016285712  0.015295156           16 
 4014000   0.61623463   -7.8009982    784.84444  0.016293897  0.015290305           14 
 4015000   0.61921399   -7.7798676    784.77943   0.01628849  0.015285455           13 
 4016000   0.59856495   -7.8024173    784.06121   0.01626953  0.015280597           13 
 4017000   0.62605151   -7.7990626    784.58223  0.016276289  0.015275738            7 
 4018000   0.60218544   -7.8004597    783.16855  0.016242918  0.015270886           13 
 4019000   0.60146449   -7.8083531    782.98112   0.01623499  0.015266029            8 
 4020000   0.60298029   -7.7933298    783.24879  0.016236501  0.015261183            7 
 4021000   0.61372058   -7.8158417    782.63657  0.016219775  0.015256332            7 
 4022000   0.60827656   -7.8015044    783.73339  0.016238467  0.015251482           13 
 4023000   0.61453284   -7.8154747    784.33273  0.016246846  0.015246634            8 
 4024000   0.61033086   -7.8127143    783.50205  0.016225606  0.015241783           11 
 4025000   0.59634308   -7.8028208    784.43803  0.016240953  0.015236937            4 
 4026000    0.6107807   -7.8208556    783.86791  0.016225118  0.015232088           10 
 4027000     0.598067   -7.8202556    783.65571  0.016216698  0.015227242            8 
 4028000   0.60120546   -7.7976171    784.40147  0.016228101  0.015222394            9 
 4029000   0.60328947    -7.810895     783.7557  0.016210716  0.015217555            6 
 4030000   0.60774992   -7.8131079    783.64991  0.016204506  0.015212709            6 
 4031000   0.60937882   -7.8124326    783.37201  0.016194741  0.015207864            5 
 4032000   0.61703382   -7.7934843    781.83776  0.016159015  0.015203017            9 
 4033000   0.60865395   -7.8193355    783.13538   0.01618182  0.015198174            7 
 4034000   0.60792261   -7.8263718     782.0046   0.01615445  0.015193337           12 
 4035000   0.61079625   -7.8216028     783.6453  0.016184331  0.015188503            8 
 4036000   0.61420394   -7.8257844     783.1662  0.016170429  0.015183666           13 
 4037000   0.61357201   -7.8116653     784.1658  0.016187057  0.015178837           17 
 4038000   0.60862999   -7.8178425    785.15082  0.016203377   0.01517401            6 
 4039000   0.60856782   -7.8149979    783.66212   0.01616865  0.015169185           10 
 4040000   0.59659017   -7.8032312    783.78452  0.016167172  0.015164362           11 
 4041000    0.6042311    -7.788207    785.47252  0.016197982  0.015159545            7 
 4042000   0.58894269   -7.7989896    783.15911  0.016146279  0.015154739            6 
 4043000   0.60973758   -7.8211429    784.64533  0.016172919  0.015149936           12 
 4044000    0.5988823   -7.7980017     784.4091  0.016164052  0.015145129           20 
 4045000   0.61995307   -7.8120034    784.07509  0.016153175   0.01514032           14 
 4046000   0.61057061   -7.8108761    784.26841  0.016153164  0.015135509           14 
 4047000   0.59392045   -7.7877714    785.01852  0.016164618  0.015130701           10 
 4048000   0.62114063   -7.8098247    784.95459  0.016159309  0.015125898           12 
 4049000   0.58074408   -7.8128092    783.94479  0.016134535  0.015121088           11 
 4050000   0.61036221   -7.8101636    784.38528  0.016139615  0.015116284           11 
 4051000    0.6093935    -7.822424    784.86601   0.01614552  0.015111488           11 
 4052000   0.60096219   -7.8143437    784.16729  0.016127165  0.015106682           17 
 4053000   0.59785859    -7.814949    784.52439  0.016130529  0.015101884           11 
 4054000     0.613975   -7.8221244    783.82927  0.016112261  0.015097084           15 
 4055000   0.61749191   -7.8181493    783.69401  0.016105508  0.015092283           16 
 4056000   0.60304851   -7.8208512      782.921  0.016085655  0.015087473           11 
 4057000   0.60716338   -7.8221381    783.74817  0.016098681  0.015082675           13 
 4058000   0.59316888   -7.7918995    783.73834  0.016094512  0.015077873           15 
 4059000   0.59686436   -7.8116213    782.62726  0.016067735  0.015073071           16 
 4060000   0.60004944   -7.8444163    784.48252  0.016101858   0.01506827           15 
 4061000   0.61079032   -7.8155675    783.47318  0.016077181   0.01506347           21 
 4062000   0.62506634   -7.8197103    782.25807  0.016048294  0.015058672           13 
 4063000   0.58473049   -7.8228578    782.22476  0.016043662  0.015053871           17 
 4064000   0.61140968   -7.8300192    782.59487  0.016047303  0.015049075           21 
 4065000   0.60169275   -7.8122359    783.98124  0.016071776  0.015044271            9 
 4066000   0.60748495   -7.8458882    783.65789  0.016061196  0.015039462           18 
 4067000   0.60552117   -7.8308151    782.70073  0.016037635  0.015034662            7 
 4068000    0.6006604   -7.8451374    782.40627   0.01602766  0.015029859           17 
 4069000   0.59750748   -7.8102212    783.72341  0.016050697  0.015025055           12 
 4070000   0.61101815   -7.8126863    783.43095  0.016040765  0.015020257           21 
 4071000   0.59487317   -7.8114453    783.27254  0.016033582   0.01501546           10 
 4072000   0.60237972   -7.8274327    782.79607  0.016019893  0.015010659           12 
 4073000   0.60416284   -7.8221365    784.75092  0.016055956  0.015005865           18 
 4074000   0.60961877   -7.8339894    782.55359  0.016007069  0.015001077           10 
 4075000   0.60516581   -7.8238516    783.99328  0.016032582  0.014996281            9 
 4076000   0.60414169   -7.8117083    782.75602  0.016003353  0.014991483           10 
 4077000   0.59694241   -7.8312058    782.97006  0.016003803  0.014986685           13 
 4078000   0.60206822   -7.8171196    783.40803  0.016008829  0.014981904           10 
 4079000   0.59095449   -7.8154577     782.7917  0.015992312  0.014977122           12 
 4080000   0.60294094   -7.8137853    783.30123    0.0159988  0.014972338           20 
 4081000   0.59511029   -7.7967913    782.82666  0.015985189  0.014967559           12 
 4082000   0.59750656   -7.8183845    782.75116  0.015979731  0.014962781           12 
 4083000   0.60607616   -7.8386795    783.93422  0.015999964  0.014957992           10 
 4084000   0.60765871   -7.8446388     781.9112  0.015954766  0.014953208           16 
 4085000   0.59086778   -7.8308763    782.35744  0.015959964  0.014948423           10 
 4086000   0.59141803   -7.8168825    782.81352   0.01596536  0.014943645           13 
 4087000    0.5900392   -7.8329835    784.17694  0.015989253  0.014938868            6 
 4088000   0.61411467   -7.8267026    783.36063  0.015968702  0.014934096           14 
 4089000   0.58928231   -7.8428731    783.33132  0.015964199  0.014929323            9 
 4090000   0.59886537    -7.838154    783.27678  0.015959185  0.014924545           10 
 4091000    0.6024631   -7.8345686    783.03152  0.015950288  0.014919772           10 
 4092000    0.6066101   -7.8187182    782.37416  0.015933003  0.014914999           15 
 4093000   0.59170429   -7.8288752    782.04293  0.015922366  0.014910227            6 
 4094000   0.59784178   -7.8466963    784.14576   0.01596128  0.014905456            9 
 4095000    0.6005866   -7.8341796    783.30755  0.015940325  0.014900694           11 
 4096000   0.60208041   -7.8461395    783.48954  0.015940135  0.014895933           14 
 4097000   0.58519255   -7.8371971    782.48101  0.015915731  0.014891169           13 
 4098000    0.6060062   -7.8259392    783.39876   0.01593051  0.014886407            9 
 4099000   0.60470644    -7.826932    783.49012  0.015928481  0.014881642           10 
 4100000   0.60417497   -7.7989964    783.10491  0.015916766  0.014876885           19 
 4101000   0.59651292   -7.8675573    782.99999  0.015910753  0.014872127           20 
 4102000   0.58783657   -7.8221011    783.64011  0.015919879  0.014867371           10 
 4103000   0.58841705   -7.8214945    782.35811  0.015889961  0.014862616           16 
 4104000   0.59481152   -7.8271234     782.7407  0.015893858  0.014857864           14 
 4105000    0.5886736   -7.8386531    784.64264  0.015928596  0.014853114           12 
 4106000   0.58574189   -7.8099414    783.21651  0.015895773   0.01484837           14 
 4107000   0.60091323   -7.8343974    783.87729   0.01590531  0.014843627           12 
 4108000   0.60185763   -7.8254768    784.32386  0.015910497  0.014838877           17 
 4109000   0.60465616   -7.8292522    783.85746  0.015897166  0.014834136           14 
 4110000   0.59120791   -7.8315693    784.48887    0.0159061  0.014829393           15 
 4111000   0.60884877   -7.8279022    782.46222  0.015861149  0.014824654           12 
 4112000   0.59170202   -7.8110055    783.69382  0.015882252  0.014819914           14 
 4113000   0.58784702   -7.8221964    783.82781  0.015881105  0.014815179           10 
 4114000   0.60970707   -7.8260157    782.68355  0.015854066  0.014810442           10 
 4115000   0.58238854   -7.8284447    782.04976  0.015837379  0.014805704           14 
 4116000   0.60292117   -7.8424192    782.28613  0.015838317  0.014800963            8 
 4117000   0.59944763   -7.8258225     782.5233   0.01583927  0.014796217           15 
 4118000   0.59084439   -7.8451927    782.52607   0.01583548  0.014791475            7 
 4119000   0.58791659   -7.8469788    782.39271  0.015828937  0.014786735            5 
 4120000   0.59332572   -7.8574605    783.63943  0.015850312  0.014781994           11 
 4121000    0.5989078   -7.8395515    781.51911   0.01580359  0.014777256           13 
 4122000   0.59525126   -7.8343263    782.99907  0.015829676  0.014772527           13 
 4123000   0.59091169   -7.8528431    782.35509   0.01581282  0.014767795            8 
 4124000   0.58797384   -7.8435591    783.15439  0.015825137  0.014763061           10 
 4125000   0.59539476    -7.857979    781.54377  0.015788763   0.01475833            7 
 4126000   0.58287098    -7.847651    782.63042  0.015806884  0.014753609            4 
 4127000   0.59221486   -7.8548898    782.66685  0.015803789  0.014748885            5 
 4128000   0.59491461   -7.8497947    783.59248  0.015818647  0.014744158            7 
 4129000     0.600659   -7.8524314    781.81651  0.015778972  0.014739443            7 
 4130000   0.58820963   -7.8244137    782.34897  0.015785895  0.014734723            8 
 4131000   0.59282551   -7.8454992     783.9175  0.015813715  0.014730005            6 
 4132000   0.59658665    -7.845712    782.70593  0.015785454  0.014725285            5 
 4133000   0.58895229   -7.8346856    783.11992  0.015789981  0.014720569            7 
 4134000   0.57956133    -7.862025    782.63999  0.015776487  0.014715844            6 
 4135000   0.59113171   -7.8500073    782.26049  0.015765024  0.014711125           11 
 4136000    0.5923385   -7.8446874    782.20949  0.015760185  0.014706403           12 
 4137000   0.58703722    -7.865369    781.78252  0.015747775  0.014701686            8 
 4138000   0.56736269   -7.8466822    780.52031   0.01571855   0.01469697            8 
 4139000   0.58811243   -7.8397799     782.5896  0.015756415  0.014692263           10 
 4140000   0.58581608   -7.8300314     783.0692  0.015762262  0.014687557            8 
 4141000    0.5624923   -7.8351095    783.27104  0.015762518  0.014682854           10 
 4142000   0.58943713   -7.8472032    782.30985  0.015739374  0.014678153            8 
 4143000   0.58790277   -7.8504267    782.21042  0.015733575  0.014673462           14 
 4144000   0.58978541   -7.8404686    781.29489  0.015711368  0.014668761           10 
 4145000   0.60025581   -7.8445545    781.96301  0.015721009  0.014664067           11 
 4146000   0.59598955   -7.8559108    782.19609  0.015721902  0.014659374           11 
 4147000   0.59080863   -7.8473927    783.34755   0.01574125  0.014654685            6 
 4148000   0.59458758   -7.8575098    782.13005  0.015712995  0.014649997           12 
 4149000   0.58422501   -7.8401494    782.17186  0.015710048  0.014645303           11 
 4150000   0.58351368   -7.8403762    782.06724  0.015704162  0.014640614            5 
 4151000   0.58418258   -7.8527693    783.13875  0.015721889  0.014635924            6 
 4152000   0.59173355   -7.8676737    781.50683  0.015685349   0.01463123           11 
 4153000   0.57729585   -7.8414128    781.74317  0.015686314  0.014626538            7 
 4154000   0.58058778   -7.8664055    782.54085   0.01569854  0.014621855           11 
 4155000   0.60378186   -7.8358347    782.34671  0.015690869  0.014617173            6 
 4156000   0.57502699   -7.8644532    783.00541  0.015700301  0.014612496            8 
 4157000    0.6018367   -7.8398741    782.10903  0.015678555  0.014607823            8 
 4158000   0.58709631   -7.8525566    781.32001  0.015658971   0.01460315           13 
 4159000   0.58372423   -7.8388615    782.30243   0.01567489  0.014598482            5 
 4160000   0.57758667   -7.8729685    781.72281  0.015659512  0.014593816            6 
 4161000   0.58701586   -7.8415077    782.25244  0.015666355   0.01458915           12 
 4162000   0.58509337   -7.8508542    780.46878  0.015626878  0.014584483           11 
 4163000   0.58563747   -7.8317249    783.27422  0.015679282  0.014579824            7 
 4164000    0.5867495   -7.8519319     782.4143  0.015658307  0.014575169           13 
 4165000   0.59419319   -7.8471493    783.00746  0.015666416  0.014570514           13 
 4166000   0.58412956   -7.8405038    782.54825  0.015653469  0.014565857           11 
 4167000   0.59488106   -7.8593493     782.2139  0.015643027  0.014561199            6 
 4168000   0.59404122   -7.8312667    782.90142  0.015653019  0.014556546            9 
 4169000   0.58803412   -7.8683406    782.24221  0.015636088  0.014551894           20 
 4170000    0.5940667   -7.8583613    782.31828  0.015633859   0.01454724            8 
 4171000   0.57979358   -7.8806119    781.86729    0.0156211  0.014542587            7 
 4172000   0.58886708   -7.8823363    781.72858  0.015614585  0.014537932            6 
 4173000    0.5823503   -7.8600101    783.11925  0.015638614  0.014533274            4 
 4174000   0.58513242   -7.8535458    782.66739  0.015625846  0.014528626            6 
 4175000   0.59143945   -7.8466886    782.70279   0.01562281  0.014523985           11 
 4176000   0.57700686   -7.8586203    782.55452   0.01561611  0.014519336           14 
 4177000   0.57061169   -7.8461867    782.98142  0.015620889  0.014514691            9 
 4178000   0.59638811   -7.8733584    783.41987  0.015625895  0.014510047           10 
 4179000   0.58048007   -7.8472512    782.37907  0.015601401  0.014505409           14 
 4180000   0.57433121   -7.8571553    782.43269  0.015598738  0.014500772            7 
 4181000   0.58940064   -7.8529633    783.72044  0.015620674  0.014496144           10 
 4182000   0.59122007   -7.8691703    782.09433  0.015584535  0.014491506            6 
 4183000    0.5714435   -7.8549378    781.72253  0.015573403  0.014486871           11 
 4184000   0.57807778   -7.8599533    782.68587  0.015588868  0.014482243            6 
 4185000    0.5854332   -7.8639526    781.93678  0.015570227  0.014477604            6 
 4186000   0.58044466    -7.870087    782.69678  0.015581637   0.01447297            8 
 4187000   0.58111333   -7.8605558    781.75237  0.015559119  0.014468344            7 
 4188000   0.58488879   -7.8522251    783.44329   0.01558905  0.014463719            8 
 4189000   0.58038339   -7.8802288    783.11926  0.015578882  0.014459095           14 
 4190000   0.57965633   -7.8687413    782.70973  0.015567019  0.014454468            7 
 4191000   0.57532452   -7.8692559    782.48209  0.015558778  0.014449842            7 
 4192000   0.58122519   -7.8565106    782.37176  0.015552874  0.014445224            5 
 4193000   0.58220153   -7.8634889    780.84823  0.015518885    0.0144406            8 
 4194000   0.58393363   -7.8497786    783.03522   0.01555864  0.014435983            3 
 4195000   0.58074324   -7.8506462    783.45129  0.015563196  0.014431365            6 
 4196000   0.56766665   -7.8656175    781.96124  0.015529894  0.014426749            9 
 4197000   0.57293247   -7.8476602    781.68075  0.015520625  0.014422137            6 
 4198000    0.5688066   -7.8533606    780.76696  0.015498788  0.014417522            6 
 4199000   0.59096233   -7.8772889    782.50316  0.015529554  0.014412907           10 
 4200000   0.58268567   -7.8716028    781.75251  0.015510963  0.014408293            5 
 4201000   0.57966961   -7.8774556    781.03022  0.015492943  0.014403676            7 
 4202000   0.57776733   -7.8604813    781.68598   0.01550226  0.014399061            6 
 4203000   0.57669036   -7.8707378    781.91858  0.015503184  0.014394448            9 
 4204000   0.57805839   -7.8490501    782.53777   0.01551177   0.01438984           13 
 4205000   0.58131579   -7.8557515    780.92936  0.015476206  0.014385233            5 
 4206000   0.58055788   -7.8679413    783.13538  0.015516234  0.014380639            5 
 4207000   0.58853134    -7.880207    782.43058  0.015498585  0.014376035            5 
 4208000   0.57063946   -7.8721851    781.39272  0.015474349  0.014371435            4 
 4209000   0.57241927   -7.8650147    781.89788  0.015480674  0.014366834           10 
 4210000   0.56761823   -7.8681589     781.5056  0.015469232  0.014362241            6 
 4211000   0.57296535   -7.8525045    781.09421  0.015457417  0.014357641            7 
 4212000    0.5829902   -7.8813558    781.08392  0.015453544  0.014353039            6 
 4213000   0.57602469   -7.8804454    781.77252  0.015463496  0.014348437            5 
 4214000   0.58090483   -7.8841057    781.30211  0.015450524  0.014343844            6 
 4215000   0.56905919    -7.859327    783.37426  0.015487826  0.014339248            4 
 4216000   0.56759073   -7.8916629    780.81221  0.015433511  0.014334661            7 
 4217000   0.56871657   -7.8659281     782.5247  0.015463693  0.014330069            8 
 4218000   0.57236455   -7.8547439    780.63964  0.015422784  0.014325484            6 
 4219000   0.57210833   -7.8609409    783.03831  0.015466507    0.0143209           11 
 4220000   0.58125445   -7.8756726      781.626  0.015434953  0.014316318            8 
 4221000   0.57022569   -7.8666218    783.11249  0.015460643  0.014311737            7 
 4222000   0.56882852    -7.871275    783.01145  0.015454987  0.014307162           10 
 4223000   0.57285753   -7.8604035    781.86689  0.015428741  0.014302585            5 
 4224000   0.57376593   -7.8748604    782.81835  0.015443859  0.014298008            8 
 4225000   0.58019974   -7.8408609    781.97478  0.015423566  0.014293438           10 
 4226000   0.56808266    -7.868716    782.11565  0.015422694  0.014288866           13 
 4227000   0.56926382   -7.8738063    782.37588  0.015424176  0.014284295            9 
 4228000   0.57694153   -7.8540675    781.78188   0.01540882  0.014279721            7 
 4229000   0.57307208   -7.8770653    781.61372  0.015401862  0.014275142            7 
 4230000   0.56746021    -7.872579    782.41018  0.015413912  0.014270566           11 
 4231000   0.58558128   -7.8530511    782.52323  0.015412496  0.014265991            5 
 4232000    0.5650788   -7.8833907    781.72809  0.015393196   0.01426142            5 
 4233000   0.58220555    -7.883271    780.67964   0.01536892  0.014256847            6 
 4234000   0.57350493   -7.8658829    781.02156  0.015372019  0.014252267            5 
 4235000   0.58602145   -7.8591085    782.01012  0.015387842  0.014247697            4 
 4236000    0.5765364   -7.8747683    781.39343  0.015372077  0.014243128            7 
 4237000   0.57546469   -7.8640203    780.97233  0.015360167  0.014238561            6 
 4238000   0.57277427   -7.8727432    781.09988  0.015359051  0.014233993            8 
 4239000   0.57938261   -7.8818673    781.40989  0.015361522  0.014229428            7 
 4240000   0.57594027    -7.895854    780.28751   0.01533584  0.014224863           14 
 4241000   0.58044534   -7.8804587    780.83667  0.015343014  0.014220301           11 
 4242000   0.56438788   -7.9024911    781.20358  0.015346605  0.014215738           10 
 4243000   0.57209911   -7.8927375    781.67198  0.015352188  0.014211179            8 
 4244000   0.56849275   -7.8628043    780.22913  0.015320239  0.014206624           10 
 4245000   0.57232446   -7.8827517     780.9556  0.015330891  0.014202067           11 
 4246000    0.5727155   -7.8793463    781.03409  0.015328821  0.014197513            7 
 4247000   0.57463492   -7.8792098    781.30252  0.015330479   0.01419296           13 
 4248000   0.56541669   -7.8970919    781.52971  0.015331327  0.014188408           11 
 4249000   0.57500537   -7.8885171    780.64698  0.015310406  0.014183858           15 
 4250000   0.58406645   -7.8808067    781.18775  0.015317407  0.014179317           18 
 4251000   0.56314863   -7.8770528    781.49265  0.015319781  0.014174777           15 
 4252000   0.57629109   -7.8858456    780.86964  0.015303968  0.014170244           12 
 4253000    0.5734885   -7.8808935    780.95509  0.015302043  0.014165708           10 
 4254000   0.57257494   -7.8908838    781.95554  0.015318045   0.01416117            8 
 4255000   0.58219945   -7.8713905    781.68698  0.015309185   0.01415663           15 
 4256000   0.57567944   -7.8874959    782.29808  0.015317553   0.01415209            7 
 4257000    0.5734711   -7.8860679    781.03849  0.015289298  0.014147548            7 
 4258000   0.57087651   -7.8916613    781.62559  0.015297197  0.014143008            9 
 4259000   0.56457963   -7.8731541    780.11757  0.015264099  0.014138466            5 
 4260000   0.56845176   -7.8800308    781.79964   0.01529342  0.014133931            6 
 4261000   0.56730877    -7.885983    780.86502  0.015271552  0.014129393           10 
 4262000   0.56427407    -7.901324    781.34012  0.015277259  0.014124853            9 
 4263000   0.57729251   -7.8742392    780.68154  0.015260801  0.014120313           11 
 4264000   0.57637821    -7.889938    779.75107  0.015239038  0.014115779            6 
 4265000   0.56988867   -7.9002396    781.78796  0.015275263   0.01411125            6 
 4266000   0.56724922   -7.9040901    782.70537  0.015289603  0.014106719            7 
 4267000   0.56453947   -7.8933306    781.90705  0.015270429  0.014102193            5 
 4268000   0.57045144   -7.9007386    781.23109  0.015253653  0.014097666            5 
 4269000   0.56509394   -7.8706974    782.63014   0.01527739  0.014093144            7 
 4270000   0.56371034   -7.8786685    780.88873  0.015239827  0.014088624           10 
 4271000   0.57792798   -7.8862184    781.25066   0.01524332  0.014084101            4 
 4272000   0.57555796   -7.8756807    779.59747  0.015207504  0.014079587            5 
 4273000   0.55777405    -7.895412    781.32271  0.015237591  0.014075069            6 
 4274000   0.55506423   -7.8726433     780.8883  0.015225556  0.014070554            8 
 4275000   0.56296268   -7.9066432    780.85527   0.01522135  0.014066041            7 
 4276000   0.57459747   -7.8909826    782.12043  0.015242447   0.01406153            6 
 4277000   0.56886429   -7.8981123    782.44935  0.015245292  0.014057021            5 
 4278000    0.5558879   -7.8751289    780.20902  0.015198087  0.014052507            8 
 4279000    0.5637181   -7.8940426    780.89904  0.015207974  0.014047995            8 
 4280000   0.57480585   -7.8890065    781.87282   0.01522338  0.014043495           13 
 4281000   0.55739648   -7.8831349    780.61761  0.015195391  0.014038994           13 
 4282000   0.56994367   -7.8709227    782.41515  0.015226825  0.014034494            8 
 4283000   0.56426534   -7.8840621    780.51253  0.015186251  0.014029996            8 
 4284000   0.56204624   -7.9092083    781.57389  0.015203351  0.014025499           11 
 4285000   0.56476471   -7.8931658    780.76782  0.015184127  0.014021005            8 
 4286000   0.57359251   -7.8849139    780.87505  0.015182669  0.014016511            6 
 4287000   0.56315421   -7.8875862    782.19547  0.015204795  0.014012021           11 
 4288000   0.56426315   -7.8998676    781.17787  0.015181473  0.014007534            5 
 4289000   0.56555511   -7.8948142    780.39197  0.015162664  0.014003047            9 
 4290000   0.56324876   -7.8902671    781.31703  0.015177098  0.013998566            5 
 4291000   0.55728676   -7.8973903    780.61899  0.015160005   0.01399408           11 
 4292000   0.56464974   -7.8976195    781.14439  0.015166674  0.013989592            6 
 4293000   0.56531749   -7.8920435    781.08118  0.015161914  0.013985106           10 
 4294000    0.5591662   -7.8823901    781.35503  0.015163698  0.013980633           14 
 4295000   0.56139138   -7.8838526    781.74937  0.015167819  0.013976153            8 
 4296000   0.57140054   -7.8949772    780.40557  0.015138221  0.013971676           13 
 4297000   0.57028663   -7.9151028    780.66739  0.015139776  0.013967199           12 
 4298000   0.56432861   -7.9049818    780.48144  0.015132648  0.013962722           13 
 4299000   0.56967046   -7.8915637    780.21709  0.015124003  0.013958246           19 
 4300000   0.57064706   -7.8838195    782.31564  0.015161156  0.013953772            8 
 4301000   0.56313122    -7.901883     780.8897  0.015130003  0.013949301           17 
 4302000   0.55609144   -7.8737399    781.12539  0.015131051  0.013944834           21 
 4303000   0.55737814   -7.8820116    781.16927  0.015128385  0.013940373           35 
 4304000   0.55533594   -7.9086558    780.73526  0.015116466   0.01393591            8 
 4305000   0.56051863   -7.9004879    780.67305  0.015111751  0.013931445            6 
 4306000   0.56857995   -7.9061897    780.20528  0.015099189  0.013926983           30 
 4307000    0.5714351   -7.8843186    782.81375  0.015146153  0.013922525           34 
 4308000   0.56106543    -7.905225    780.97629  0.015107093  0.013918071           12 
 4309000    0.5675841   -7.8945301    782.73023  0.015137507  0.013913616           26 
 4310000   0.56301102   -7.8995718    779.93451   0.01507994  0.013909163           35 
 4311000   0.56990046   -7.9023294    780.88963  0.015094905  0.013904713           20 
 4312000   0.55968131   -7.8832141    781.87829  0.015110511  0.013900261           22 
 4313000   0.55166385   -7.8934827    781.19934  0.015093889  0.013895812           12 
 4314000   0.56302336   -7.9151347    780.51469  0.015077165   0.01389137           13 
 4315000   0.55698641   -7.9049418    782.01453  0.015102637  0.013886923           23 
 4316000   0.56861518   -7.8999256      781.837   0.01509571  0.013882481            9 
 4317000   0.56246458   -7.9000955    781.21161  0.015080141  0.013878038           13 
 4318000   0.56319915    -7.913952    780.08529  0.015054911  0.013873597           17 
 4319000   0.55586739   -7.9008964    781.53196  0.015079339  0.013869155           27 
 4320000   0.56243139    -7.916225    780.39308  0.015053879  0.013864715           38 
 4321000   0.56271041   -7.9291362    780.65273  0.015055402  0.013860276           33 
 4322000   0.54486898   -7.9022624    781.42071  0.015066727  0.013855839           15 
 4323000   0.55775911   -7.9101502     781.2608  0.015060159  0.013851402           12 
 4324000   0.55541951   -7.9211477    781.05876  0.015052782  0.013846971           16 
 4325000     0.551296   -7.9065392    780.56677  0.015039822   0.01384254           15 
 4326000   0.56241714   -7.9031358    780.80515  0.015040938  0.013838109           21 
 4327000   0.56051147   -7.9057845    779.74944   0.01501713  0.013833679           15 
 4328000   0.56702953   -7.9049605    780.92459  0.015036287  0.013829245           13 
 4329000   0.57954245   -7.9053886    780.37843    0.0150223  0.013824819           10 
 4330000   0.55454899   -7.9129302    779.88566  0.015009347  0.013820396            5 
 4331000   0.55180816   -7.9134124    781.42196  0.015035441   0.01381597           18 
 4332000   0.55737727   -7.9133263    779.72772  0.014999379  0.013811545            8 
 4333000   0.56034326   -7.9184497    779.72884  0.014995939  0.013807118            7 
 4334000   0.56459398   -7.9150265    781.89703  0.015034168  0.013802696            9 
 4335000   0.56751737   -7.9214629    781.13563  0.015016064  0.013798272            8 
 4336000   0.56403984   -7.9134233    779.93695  0.014989563  0.013793856           11 
 4337000    0.5645762    -7.920231    780.37903  0.014994601  0.013789437           14 
 4338000   0.55662645   -7.9139036    781.66725  0.015015892  0.013785019            8 
 4339000   0.55392697   -7.9166733    781.33793  0.015006106  0.013780607            8 
 4340000   0.54751036   -7.9149601    779.47659  0.014966908  0.013776192            5 
 4341000   0.55391434   -7.9384815    781.06737  0.014993999  0.013771779           15 
 4342000   0.56332956   -7.9164056    781.20058  0.014993102  0.013767361           16 
 4343000   0.56809787    -7.916627    780.22811   0.01497099   0.01376294            8 
 4344000   0.55844118   -7.8967719     780.3636  0.014970143  0.013758529           15 
 4345000    0.5535961   -7.9143816    780.99935  0.014978891  0.013754121           30 
 4346000   0.55641138   -7.9143728    779.05798  0.014938219  0.013749708           18 
 4347000   0.55749233   -7.9285895    781.63552  0.014984194    0.0137453            8 
 4348000   0.55329483   -7.9225129    780.88036  0.014966275  0.013740897            7 
 4349000   0.56151643   -7.9042878    781.35647  0.014971957  0.013736492            9 
 4350000   0.56855418   -7.9226496    781.32995  0.014968007  0.013732095            9 
 4351000   0.55755853   -7.9085209    782.31664  0.014983464  0.013727694            7 
 4352000   0.55150709   -7.9060186    781.40575  0.014962579  0.013723302           13 
 4353000   0.55498738   -7.9148971    780.16471  0.014935384  0.013718908           14 
 4354000   0.54271119   -7.9013096    781.44414  0.014956441  0.013714512           20 
 4355000   0.56091018   -7.9112974    782.12576   0.01496605  0.013710121           10 
 4356000   0.56379637   -7.9200885    779.91942  0.014920405  0.013705732           10 
 4357000    0.5323724   -7.8980526    779.99518   0.01491843  0.013701334           14 
 4358000   0.57943694   -7.9206529    780.32935  0.014921396  0.013696941           11 
 4359000   0.54740038   -7.9173153    779.94178  0.014910564  0.013692552           12 
 4360000   0.56289658   -7.9114491     780.6875  0.014921397  0.013688167           15 
 4361000   0.55954771     -7.90523     781.1276  0.014926385  0.013683782           13 
 4362000   0.55693799     -7.91541    780.41036  0.014909261  0.013679397           14 
 4363000   0.55875778   -7.9055821    781.00403  0.014917183  0.013675015           13 
 4364000   0.55062604   -7.9166083    779.99348  0.014894468  0.013670633           19 
 4365000   0.55437534   -7.9267514    779.83431  0.014888017  0.013666256           15 
 4366000   0.55079647   -7.9136753    779.94752  0.014886767   0.01366188           14 
 4367000   0.55622061   -7.9343221    780.01425  0.014884632  0.013657502           22 
 4368000   0.55480041   -7.9204767    781.42593  0.014908156  0.013653127           13 
 4369000   0.55574248   -7.9253121    781.51626  0.014906467  0.013648755            9 
 4370000   0.55606045   -7.9027039    781.33982  0.014899691  0.013644383           14 
 4371000   0.55654307   -7.9117111    780.89136  0.014887733  0.013640013           17 
 4372000   0.54606749    -7.951764    780.12442  0.014869709  0.013635642            9 
 4373000   0.54604335   -7.9225949    780.83493  0.014879849  0.013631265           11 
 4374000   0.56732761   -7.9165682    780.58515  0.014871688  0.013626896            8 
 4375000    0.5557198   -7.9230988    779.31555  0.014844106  0.013622524           10 
 4376000   0.54603176   -7.9138036    780.04836  0.014854669  0.013618157           11 
 4377000   0.55574361   -7.9191912    778.56945  0.014823118   0.01361379           15 
 4378000   0.55705359   -7.9291594    779.07459  0.014829347  0.013609423            9 
 4379000   0.54368279   -7.9208564    780.67727   0.01485646  0.013605061           17 
 4380000   0.55195559    -7.920513    780.07291   0.01484157  0.013600703           10 
 4381000   0.55576341   -7.9116087    779.60077  0.014829201  0.013596349           19 
 4382000   0.54860029   -7.9329232    779.95318  0.014832519  0.013591993           18 
 4383000   0.54832619   -7.9297016    780.56952  0.014840853  0.013587643           12 
 4384000   0.56348148   -7.9225761    779.13449   0.01481019  0.013583285           12 
 4385000   0.56152878   -7.9558176    781.19891  0.014846045  0.013578929           15 
 4386000   0.54193112   -7.9251807    780.12891  0.014822331  0.013574577           17 
 4387000   0.55448941   -7.9349114    780.75704  0.014830884  0.013570233           12 
 4388000   0.55749254   -7.9315157    779.50293  0.014803687  0.013565888           17 
 4389000   0.53334328   -7.9129139    778.39637  0.014779304  0.013561542           15 
 4390000    0.5412571   -7.9334349    779.29588  0.014793012  0.013557197           19 
 4391000    0.5369858   -7.9415657    780.49131   0.01481233  0.013552852           12 
 4392000   0.54393221   -7.9490593    781.21144  0.014822622  0.013548511            8 
 4393000   0.54899355   -7.9369051    779.95014  0.014795321  0.013544169            9 
 4394000   0.55669705   -7.9347816    780.03844  0.014793629  0.013539829           12 
 4395000   0.54563512   -7.9440909    779.82463  0.014786208  0.013535496           10 
 4396000   0.55503646   -7.9356481    779.99666  0.014786106  0.013531158           10 
 4397000   0.57067702   -7.9478207    779.75225  0.014778111  0.013526824           12 
 4398000    0.5422195   -7.9225687    781.56874   0.01480917  0.013522501           15 
 4399000   0.55000718   -7.9350662    779.51908  0.014766975  0.013518176           10 
 4400000   0.55016635   -7.9132102    779.93863  0.014771565  0.013513851            9 
 4401000   0.53667838   -7.9418338    780.76175  0.014783794  0.013509529            8 
 4402000    0.5438436   -7.9445572    778.77545  0.014742834  0.013505204           13 
 4403000   0.55258466   -7.9214043    779.77441  0.014758392  0.013500882            8 
 4404000   0.56091747   -7.9489926    781.42632  0.014786299  0.013496559           12 
 4405000   0.55549362   -7.9291611    780.53918  0.014766159  0.013492239           12 
 4406000   0.55276327   -7.9211567    778.89648  0.014731739  0.013487916           14 
 4407000   0.54695783    -7.931539    780.43837  0.014757552  0.013483595           21 
 4408000   0.55087605   -7.9452159    778.86028   0.01472437  0.013479279           13 
 4409000   0.55114147    -7.928257    781.98642  0.014780117  0.013474961            8 
 4410000   0.54409285   -7.9340725    779.56957  0.014731095  0.013470644           20 
 4411000   0.56502416   -7.9342507    780.82688  0.014751509  0.013466334           15 
 4412000   0.54339292   -7.9424495    779.39281  0.014721079  0.013462022           10 
 4413000   0.54535038   -7.9423731    778.72415  0.014705117  0.013457713           12 
 4414000   0.53746015    -7.932922    779.75543  0.014721255  0.013453405           11 
 4415000   0.55132093   -7.9363715    779.38411  0.014710912  0.013449096           23 
 4416000   0.54404834    -7.937238    781.02385  0.014738524  0.013444794           15 
 4417000    0.5460908   -7.9331812    779.12843  0.014699427  0.013440491           10 
 4418000   0.54517194   -7.9506824    777.75061  0.014670111  0.013436184           20 
 4419000   0.54741548   -7.9543017    779.65181  0.014702644  0.013431879            6 
 4420000   0.54645796    -7.932968    779.25601  0.014691855   0.01342758           16 
 4421000   0.54922251   -7.9290287    779.19637  0.014687408  0.013423287           13 
 4422000    0.5516488   -7.9444666    778.81461  0.014676892  0.013418992            7 
 4423000   0.54700794    -7.930295    781.62123  0.014726453  0.013414696           12 
 4424000   0.54563622    -7.914391    778.65965  0.014667338  0.013410402           11 
 4425000   0.54190097   -7.9643361    778.73105  0.014665368  0.013406108            7 
 4426000   0.54247029    -7.953792     779.2133  0.014671135  0.013401813           25 
 4427000   0.55349668   -7.9325241    779.63625  0.014675782  0.013397521           18 
 4428000   0.55258225   -7.9327808     778.5715   0.01465243  0.013393229           14 
 4429000   0.53399581   -7.9489399    779.03729  0.014657885  0.013388942           16 
 4430000   0.53494737   -7.9340809    780.01822  0.014673029  0.013384649           14 
 4431000   0.54643846   -7.9475733    779.77314  0.014665108   0.01338036           18 
 4432000   0.54269584   -7.9421504    778.39553  0.014635897  0.013376077           12 
 4433000   0.53664843   -7.9618338    779.73953   0.01465786  0.013371789           16 
 4434000   0.53625898   -7.9415214    778.88534  0.014638501  0.013367506           12 
 4435000   0.54736937   -7.9381037    778.76429  0.014632925  0.013363227           18 
 4436000   0.53822201   -7.9564827    780.23305  0.014657218  0.013358953           13 
 4437000   0.53494421   -7.9423406    779.08825  0.014632414  0.013354679           18 
 4438000   0.53299464   -7.9633282    779.49438  0.014636743  0.013350408           11 
 4439000   0.53990493   -7.9354717    779.19254  0.014627779  0.013346139           16 
 4440000   0.54618764   -7.9509462    779.96878  0.014639054  0.013341868           10 
 4441000    0.5397011   -7.9391043    779.89472  0.014634368  0.013337597           15 
 4442000   0.54359806     -7.94364    780.47809  0.014642017  0.013333333           10 
 4443000    0.5336295   -7.9300719     780.1327  0.014632244  0.013329066           13 
 4444000   0.54270456   -7.9457463    779.28215  0.014613002  0.013324799            9 
 4445000   0.53645816   -7.9442701    779.43863  0.014612648  0.013320538           11 
 4446000   0.53776425   -7.9522736    778.96266   0.01460044  0.013316273            8 
 4447000   0.54602746   -7.9491053    778.93506  0.014596639  0.013312009           12 
 4448000   0.53300114   -7.9319007    779.21505  0.014598603  0.013307747           12 
 4449000   0.53045266     -7.94804    780.66854  0.014622547  0.013303483           12 
 4450000   0.54118608   -7.9514476    779.00656  0.014588138  0.013299222           24 
 4451000   0.55107652   -7.9495987    780.49954  0.014612813  0.013294958           14 
 4452000   0.54359104   -7.9651167    778.62457  0.014574434  0.013290695           12 
 4453000   0.54645412   -7.9578738    780.12356  0.014599213  0.013286438           17 
 4454000   0.55052413   -7.9417507    777.96131   0.01455548  0.013282181           26 
 4455000   0.53619718   -7.9657155    779.44324  0.014579933  0.013277924            9 
 4456000   0.53612478    -7.955725    779.11757  0.014570571  0.013273665           17 
 4457000   0.53156481   -7.9628513    779.09501   0.01456688   0.01326941           10 
 4458000   0.53576593   -7.9407151    780.05196  0.014581501  0.013265159           11 
 4459000   0.52903392   -7.9658883    779.56388  0.014569109  0.013260906           17 
 4460000   0.53433157   -7.9599884    778.72925  0.014550248  0.013256658           15 
 4461000   0.53135171   -7.9555108    778.29514  0.014538877  0.013252409           14 
 4462000   0.53447522   -7.9705967    778.78928  0.014544847  0.013248158           12 
 4463000   0.53639182   -7.9771791    778.63784   0.01453876  0.013243907           16 
 4464000   0.52962984   -7.9579281    777.96369  0.014522918  0.013239661            9 
 4465000   0.52643188   -7.9493477    778.59996  0.014531541  0.013235417           14 
 4466000   0.53674232   -7.9553829    778.32534  0.014523163  0.013231177           27 
 4467000   0.54513472   -7.9457765    779.33741  0.014538792  0.013226941           18 
 4468000   0.53409996   -7.9476281    779.78273  0.014543844  0.013222701           10 
 4469000     0.536408   -7.9502396    779.02124   0.01452639  0.013218464            9 
 4470000   0.53332567   -7.9572323    778.37076  0.014511013  0.013214226           17 
 4471000   0.53621337   -7.9510981    778.87888  0.014517239  0.013209989           16 
 4472000   0.53754288   -7.9587887    778.10553  0.014499581  0.013205758           15 
 4473000   0.54247678   -7.9608166    779.39061  0.014520281  0.013201525            9 
 4474000   0.53775174    -7.952169    779.85742   0.01452573  0.013197296           21 
 4475000   0.53798197   -7.9523424    780.14018   0.01452775  0.013193071           10 
 4476000   0.53776186   -7.9780634    779.80442  0.014518253  0.013188845           12 
 4477000   0.53892344   -7.9291686    780.12319  0.014520944  0.013184622           17 
 4478000   0.54056024   -7.9672612    780.53659  0.014525394  0.013180403           10 
 4479000   0.54120381   -7.9533698    779.29488  0.014499049   0.01317618            8 
 4480000    0.5409009   -7.9626728    778.72238  0.014485163  0.013171957           13 
 4481000   0.54321034   -7.9519565    778.23216  0.014472814  0.013167743           14 
 4482000   0.52944237   -7.9481446     778.7755  0.014479687  0.013163526           11 
 4483000   0.52921271   -7.9641855     779.4447  0.014488897  0.013159313           21 
 4484000   0.52880902   -7.9571227    778.80903  0.014473852    0.0131551           18 
 4485000   0.53934329   -7.9485702    778.11852  0.014457795  0.013150885           10 
 4486000   0.53553006   -7.9575177    780.09101  0.014491214  0.013146668           10 
 4487000   0.53583932   -7.9562092     779.8462  0.014483437   0.01314246           15 
 4488000   0.54217744   -7.9777017    778.34481  0.014452332  0.013138253            8 
 4489000   0.54159286   -7.9737849    778.55234  0.014452965  0.013134043           13 
 4490000   0.53880535   -7.9580897    778.60972  0.014450812  0.013129833           12 
 4491000   0.53014012   -7.9566075    779.22894  0.014459084  0.013125627           16 
 4492000   0.53521878   -7.9537069    777.40885    0.0144221   0.01312143           15 
 4493000   0.52597722   -7.9633014    778.94938  0.014447462  0.013117229           19 
 4494000   0.53765128   -7.9598132    779.73901   0.01445889   0.01311303           13 
 4495000   0.52696406   -7.9599493    778.65784  0.014435629  0.013108833           26 
 4496000   0.53804726   -7.9575564    778.26402  0.014425119  0.013104639           18 
 4497000   0.52008981   -7.9533221    779.77544  0.014449919  0.013100445           15 
 4498000   0.53063987   -7.9570513    779.36951  0.014439186  0.013096251           18 
 4499000   0.53205283   -7.9585459    778.97995  0.014428761   0.01309206           10 
 4500000   0.53035088   -7.9741045    779.39003  0.014433149  0.013087872           14 
 4501000   0.53643519   -7.9597274    778.89202  0.014420722  0.013083686            7 
 4502000   0.52329758   -7.9596177    779.56774  0.014430026  0.013079505           20 
 4503000   0.52910528   -7.9465284    778.94218  0.014415245  0.013075326           23 
 4504000   0.54467722   -7.9521862    780.16975  0.014434757  0.013071148           17 
 4505000   0.52481956   -7.9433095     778.0079  0.014391563  0.013066967           20 
 4506000   0.51992901   -7.9576073     779.0199  0.014407085  0.013062789           17 
 4507000   0.51709906   -7.9619436    778.54065  0.014395027  0.013058608           17 
 4508000   0.52709034   -7.9784344    777.62456  0.014374899  0.013054429           10 
 4509000    0.5394965   -7.9663749    778.03226  0.014379246  0.013050252           19 
 4510000   0.52414233   -7.9776719    778.92484  0.014392551  0.013046077           29 
 4511000   0.52369383   -7.9672474    778.30124   0.01437784  0.013041906           12 
 4512000   0.52729571   -7.9677202    778.05683  0.014370139   0.01303774           17 
 4513000   0.52424926   -7.9718433    778.08086  0.014367399  0.013033572           13 
 4514000   0.53253834    -7.973679    779.53298  0.014391024  0.013029399           17 
 4515000   0.53562249   -7.9496523     778.4597  0.014368027  0.013025229           21 
 4516000   0.53404268   -7.9602943    778.82866  0.014371654  0.013021065           16 
 4517000   0.52384296   -7.9569296    778.20251   0.01435692    0.0130169           15 
 4518000   0.51928955   -7.9653653    779.64724   0.01438039  0.013012735           16 
 4519000   0.53524312    -7.978857    778.35793  0.014353432  0.013008572           15 
 4520000    0.5264653   -7.9544679    778.13659  0.014346176  0.013004406           10 
 4521000   0.52552489   -7.9582776    777.70202  0.014334993  0.013000246           15 
 4522000   0.50661675   -7.9707399    778.53614  0.014347194  0.012996086           15 
 4523000   0.52390485   -7.9520398     779.0588  0.014353652  0.012991929           16 
 4524000   0.52645449   -7.9539642    778.21261  0.014334892  0.012987772           20 
 4525000   0.52916114    -7.979594    778.50517  0.014337112  0.012983616           16 
 4526000   0.52546522   -7.9511302    778.33579  0.014330825   0.01297946           10 
 4527000   0.53468696   -7.9794479    778.83289   0.01433681  0.012975305           17 
 4528000   0.51133169   -7.9713574    779.15208  0.014339519  0.012971149           19 
 4529000   0.51776651   -7.9703755    777.50501  0.014306046  0.012966999           14 
 4530000   0.53266847   -7.9867104      779.348  0.014336792  0.012962847           22 
 4531000   0.53572671   -7.9751023    779.16392  0.014330242    0.0129587           13 
 4532000   0.50686546   -7.9598242    777.49779  0.014296444  0.012954555           18 
 4533000   0.51632841   -7.9687296    779.53184  0.014330683  0.012950412           15 
 4534000   0.52503142   -7.9733798     778.3458  0.014305723  0.012946276           13 
 4535000   0.52355884   -7.9775471    779.25157  0.014319213  0.012942137           16 
 4536000   0.53423073   -7.9797999    778.39363  0.014300295     0.012938           13 
 4537000   0.52697078   -7.9661699    778.01044  0.014290104  0.012933861           16 
 4538000   0.52840399   -7.9998823    778.55492  0.014296954  0.012929727           22 
 4539000   0.51975105   -7.9721346    778.44355  0.014291759  0.012925591           14 
 4540000    0.5256588   -7.9688983    778.64489  0.014292307  0.012921458           19 
 4541000   0.52543578   -7.9825232    777.96622  0.014276705  0.012917325           17 
 4542000   0.53191188   -7.9806245    778.07462  0.014275551  0.012913194           24 
 4543000   0.52169247   -7.9783171    778.25657  0.014275746  0.012909069           15 
 4544000   0.53395498   -7.9665561    778.46633  0.014276451  0.012904946           17 
 4545000   0.52511029   -7.9647858    777.74923  0.014260162   0.01290082           12 
 4546000   0.52207925   -7.9668846    778.43875  0.014269665  0.012896693           21 
 4547000   0.50794344   -7.9895112    779.75046  0.014290566  0.012892567           24 
 4548000   0.52361705   -8.0030034    778.81405  0.014270266  0.012888445           21 
 4549000    0.5305462   -7.9832132    777.93495  0.014251025  0.012884321           27 
 4550000   0.53331463   -7.9908513    777.73302  0.014244194  0.012880198           27 
 4551000   0.52764772   -7.9892153    778.25909  0.014250697  0.012876075           18 
 4552000   0.52945891   -7.9682567    777.75089  0.014238263  0.012871956           23 
 4553000    0.5345146   -7.9781412    777.88484  0.014237588  0.012867835           21 
 4554000   0.51733992   -7.9742945    778.70828  0.014249529   0.01286372           19 
 4555000   0.52384884   -7.9780294    778.41074  0.014240958  0.012859609           13 
 4556000   0.52801876   -7.9777273     777.6456  0.014223837  0.012855499           18 
 4557000   0.52919484   -7.9697067    776.70547  0.014203523  0.012851387           16 
 4558000   0.50686182   -7.9819263    778.38676  0.014231146  0.012847278           16 
 4559000   0.51979034   -7.9874749     777.3761  0.014209551  0.012843169           14 
 4560000   0.51901025   -7.9987377    778.37664  0.014224719  0.012839057           16 
 4561000   0.52394373   -7.9750159    777.75903  0.014210316  0.012834951           17 
 4562000   0.52165634   -7.9648603     777.6937  0.014206008  0.012830846           14 
 4563000   0.51664779     -7.99697    778.38984  0.014215608  0.012826742           21 
 4564000   0.51804333   -7.9895933    778.84756  0.014220851  0.012822639           13 
 4565000   0.52993275   -7.9908905      778.747    0.0142159  0.012818538           18 
 4566000   0.51757314   -7.9833107    777.75693  0.014194717  0.012814439           12 
 4567000   0.52450046   -7.9969988    777.24296   0.01418223   0.01281034           20 
 4568000   0.51826978   -7.9621943    778.00269  0.014192986  0.012806246           16 
 4569000    0.5206034   -7.9764879    777.44799  0.014179762  0.012802153           14 
 4570000   0.51100602   -7.9785545    778.62936  0.014198201  0.012798062           17 
 4571000   0.51890913   -7.9800594    777.26029  0.014170136  0.012793969           12 
 4572000   0.52475959   -7.9954572    777.82019  0.014177242  0.012789882           15 
 4573000   0.52548913   -7.9819969    778.58046  0.014187996  0.012785791           19 
 4574000   0.51281499   -7.9992872    777.44738  0.014164251    0.0127817           12 
 4575000   0.51790228   -7.9993271    778.05581  0.014172237  0.012777612           13 
 4576000     0.523645   -7.9888158    777.44956  0.014158099  0.012773529           14 
 4577000   0.51038176   -7.9786549    777.22583  0.014150933  0.012769447           16 
 4578000   0.51231947   -7.9668073    777.77095  0.014157765  0.012765367           16 
 4579000   0.51899556   -7.9914826    776.96999  0.014140096  0.012761286           18 
 4580000   0.51991273   -7.9995429    779.04792  0.014174817  0.012757209           10 
 4581000   0.52396638    -7.994469    778.65114  0.014164504  0.012753135           14 
 4582000   0.51050659   -7.9916799    776.95744   0.01413061  0.012749058           16 
 4583000   0.52250103   -7.9846239    778.08989  0.014148118  0.012744984           18 
 4584000   0.51420065   -7.9779553    776.39129  0.014114152  0.012740908           22 
 4585000   0.51774513   -7.9821513    777.27329  0.014127105  0.012736835           20 
 4586000   0.51644252   -8.0039646    777.49952  0.014128135  0.012732764           16 
 4587000    0.5178677   -8.0038585    778.32434   0.01414004  0.012728695           13 
 4588000   0.52046089   -7.9764738    779.14812   0.01415192  0.012724631           16 
 4589000     0.515933   -7.9986372    777.87181  0.014125659  0.012720564           15 
 4590000   0.52049047    -7.982479    776.86097   0.01410423  0.012716499           16 
 4591000    0.5189023   -8.0149514    777.11789  0.014105821  0.012712434           15 
 4592000   0.52177271   -8.0039142    777.51902  0.014110029  0.012708371           12 
 4593000   0.52271222   -7.9863898    777.35286  0.014103942  0.012704312           15 
 4594000   0.51888454   -7.9913149    777.50019  0.014103544  0.012700256           13 
 4595000   0.51618446   -7.9938563    778.81681  0.014124353  0.012696196           13 
 4596000   0.51919281   -7.9828125    777.35484  0.014094771  0.012692141           10 
 4597000   0.51791017   -7.9829252    777.81232  0.014099999  0.012688089           13 
 4598000   0.50819378   -8.0005775    776.33954   0.01407024  0.012684034           24 
 4599000   0.51241117   -7.9788067     778.6136  0.014108386  0.012679982           16 
 4600000    0.5158752   -7.9986449    777.29251  0.014081386  0.012675933           14 
 4601000   0.51185483   -7.9939079    776.67392  0.014067122  0.012671887           14 
 4602000   0.51398829   -7.9909174    776.73569  0.014065183  0.012667843           14 
 4603000   0.52073402   -7.9987886    778.47282  0.014093577  0.012663803           13 
 4604000   0.51298839   -7.9937095    777.41435  0.014071357  0.012659764           11 
 4605000   0.52228353   -7.9902624    776.16628  0.014045716  0.012655719           20 
 4606000   0.50584844   -7.9887743    777.30612  0.014063289   0.01265168           11 
 4607000   0.51563436   -7.9952758    778.05121  0.014073714   0.01264764            9 
 4608000   0.51227735   -8.0053092    777.78522   0.01406585  0.012643603           15 
 4609000   0.51109909   -8.0084994    778.21569  0.014070581  0.012639564           20 
 4610000   0.52346165   -8.0072067    777.09814  0.014047327  0.012635529           10 
 4611000   0.50983354    -7.990972       776.81  0.014039073  0.012631495           14 
 4612000   0.50330206   -7.9713991    777.73199  0.014052688  0.012627463           12 
 4613000   0.51647794   -7.9974074    778.17949  0.014057726  0.012623434           11 
 4614000   0.51750094   -7.9746585    778.40503  0.014058753  0.012619407           11 
 4615000    0.5214426   -8.0051807    778.12044  0.014050568   0.01261538           10 
 4616000   0.50858962   -8.0024949     776.3897  0.014016279  0.012611354           13 
 4617000   0.50810351   -7.9884632    778.13212  0.014044692  0.012607328            7 
 4618000   0.51799359   -7.9871815    777.92026  0.014037828  0.012603305           17 
 4619000   0.51468661   -7.9829655    777.71388  0.014031065  0.012599285           12 
 4620000   0.51225927   -7.9908396    777.97549  0.014032747  0.012595265           14 
 4621000   0.50055675   -7.9884282    776.06078  0.013995181  0.012591245           27 
 4622000   0.51094116   -7.9911735    776.42354  0.013998694  0.012587227            9 
 4623000   0.51629115   -8.0049363    776.53583   0.01399769  0.012583212           17 
 4624000   0.50408277   -7.9995376    776.51324  0.013994255  0.012579198           11 
 4625000   0.51156912   -8.0037225    777.11972  0.014002157  0.012575182           12 
 4626000   0.50496053   -7.9937598    778.68237   0.01402728  0.012571169           13 
 4627000   0.50803211   -7.9995284     778.1822   0.01401524  0.012567158           14 
 4628000   0.51096707   -8.0012312    777.39765  0.013998085  0.012563151           20 
 4629000   0.51506495    -8.003837    777.33056  0.013993853  0.012559141           12 
 4630000   0.50272898   -8.0039631    775.84233  0.013964045  0.012555129           14 
 4631000   0.51484881   -8.0040473    777.60363  0.013992724  0.012551123           12 
 4632000   0.50942512   -7.9994348    776.38561   0.01396779  0.012547116           13 
 4633000   0.51009187   -7.9965207    778.06167  0.013994922  0.012543117           18 
 4634000   0.51570133    -8.005747    777.23754  0.013977081  0.012539112           20 
 4635000    0.5038155   -8.0127059    777.34267  0.013975956  0.012535113           14 
 4636000   0.51503219   -7.9790703    776.70821  0.013961537  0.012531112           24 
 4637000   0.50197207   -8.0047058    775.27713  0.013932807  0.012527113           14 
 4638000   0.50445515   -8.0049644    776.98527  0.013960494  0.012523112           10 
 4639000    0.5026565   -7.9992258    780.01681  0.014011942  0.012519122           13 
 4640000   0.50343968   -7.9931202    776.20147    0.0139404  0.012515132           18 
 4641000   0.51456216   -8.0058815     777.8566  0.013967116  0.012511143           14 
 4642000   0.51106393   -7.9862701    776.80818  0.013945285  0.012507152           11 
 4643000   0.50745105   -7.9939847     776.6773  0.013939933  0.012503163           18 
 4644000   0.51133814   -7.9966581    778.22814   0.01396476  0.012499176           19 
 4645000   0.50199318    -7.988539    776.45887  0.013930012   0.01249519           16 
 4646000   0.51379909   -7.9852675    777.27937  0.013941731  0.012491206           12 
 4647000   0.51354809     -8.00257     777.3305  0.013939647  0.012487224           13 
 4648000   0.50557225   -7.9951288    776.06558   0.01391397  0.012483246           14 
 4649000   0.51131525   -7.9966069     778.1792  0.013948864  0.012479267           18 
 4650000   0.50769531   -7.9969495    778.46966  0.013951069   0.01247529            9 
 4651000   0.52141719   -8.0240986    777.55425  0.013931668  0.012471315           24 
 4652000   0.50183622   -7.9945636    775.54807  0.013892736  0.012467339           18 
 4653000   0.50762311   -7.9942507     776.5309  0.013907352  0.012463364           15 
 4654000   0.52418587   -7.9920454    776.44263  0.013902783  0.012459395           22 
 4655000   0.50727962   -7.9944807    775.96333  0.013891216  0.012455424           15 
 4656000   0.50363936   -7.9986347    777.07304  0.013908094  0.012451453           16 
 4657000   0.51213985   -8.0148531    777.67906  0.013915952  0.012447486           19 
 4658000   0.51229969   -8.0078489    777.10925   0.01390277  0.012443518           11 
 4659000   0.51195769    -8.001593    777.40739  0.013905119  0.012439552           14 
 4660000   0.51973544   -7.9961807    777.27491  0.013899766  0.012435587           16 
 4661000   0.50893782   -7.9954797    776.52087  0.013883302  0.012431625           14 
 4662000   0.50127271   -8.0096288       776.47  0.013879415  0.012427662           19 
 4663000   0.49380915   -8.0227736     777.1417  0.013888443  0.012423702           12 
 4664000   0.51333021   -8.0120024    776.83976   0.01388007  0.012419746           20 
 4665000   0.51065629   -8.0155144    776.02279  0.013862501   0.01241579           12 
 4666000   0.50927275   -8.0058739    777.16869  0.013879995  0.012411835           13 
 4667000   0.50254944   -8.0110426    777.52309  0.013883349   0.01240788           15 
 4668000   0.51243401   -8.0153725    777.38322  0.013877878  0.012403925           21 
 4669000   0.51131706   -8.0238172    776.56108  0.013860232   0.01239997           18 
 4670000   0.49576881    -7.997193    776.05475  0.013848229  0.012396017           15 
 4671000    0.4915466   -8.0143623     776.3726  0.013850935  0.012392065           14 
 4672000   0.51213737   -8.0106764    776.53327  0.013850836  0.012388117           16 
 4673000   0.49610615   -8.0043905     777.7108  0.013868871  0.012384165           15 
 4674000   0.49978475   -8.0183522     777.1087  0.013855169  0.012380217            9 
 4675000   0.51265923   -8.0044062     776.7745  0.013846248  0.012376267           23 
 4676000   0.49630818   -8.0046595     776.0111  0.013829682  0.012372325           14 
 4677000   0.49412882   -8.0089118    776.09821  0.013828277   0.01236838           20 
 4678000   0.50693146    -8.007754    776.21553  0.013827411  0.012364439           15 
 4679000   0.50708623   -8.0054231    777.22085   0.01384236  0.012360498           29 
 4680000   0.49716932   -8.0113975    777.47027  0.013843844  0.012356556           11 
 4681000    0.5077124   -8.0173695    776.85609  0.013829952  0.012352616           10 
 4682000   0.50549355   -8.0081435    776.71737   0.01382453  0.012348678           10 
 4683000   0.50670601   -7.9997074    777.22982  0.013830697  0.012344744           13 
 4684000   0.50263151   -8.0197229    775.22999  0.013792165  0.012340809           11 
 4685000   0.51282502    -8.023337    776.39762   0.01380999  0.012336877           18 
 4686000   0.49481972   -8.0195346    775.89704  0.013798141  0.012332945           15 
 4687000   0.49890743   -7.9939821    777.17257  0.013817875  0.012329016           15 
 4688000   0.50479172   -8.0276053    776.59068  0.013804584   0.01232509           12 
 4689000   0.51128512   -8.0067073    776.33269  0.013797055  0.012321164           17 
 4690000    0.4985108    -8.012489    776.39965  0.013795303  0.012317237           17 
 4691000   0.48958123   -8.0291927    776.09899  0.013787021  0.012313316           15 
 4692000   0.49369884   -8.0228495    776.71502  0.013795024  0.012309393           15 
 4693000   0.49751675    -8.037683    776.37475  0.013786042  0.012305473           13 
 4694000     0.501245   -8.0349798    775.89434  0.013774576   0.01230155           11 
 4695000   0.51134057   -8.0187297    777.08865  0.013792841  0.012297634           20 
 4696000   0.50070104    -8.020014    775.53223  0.013762284  0.012293719           24 
 4697000   0.49997613   -8.0392027    776.44129  0.013775482  0.012289801           12 
 4698000   0.50222054   -8.0079662     777.0771  0.013783828  0.012285887           18 
 4699000   0.49587761   -8.0235538     777.5644  0.013789537  0.012281976           10 
 4700000   0.50363808   -8.0277629    776.12107  0.013761012  0.012278067            7 
 4701000   0.48932929   -8.0199842    777.49694  0.013782474  0.012274154           18 
 4702000   0.49511871   -8.0052887    776.01879  0.013753346  0.012270244           18 
 4703000   0.49741812   -8.0131414    776.75534  0.013763473  0.012266337           36 
 4704000   0.49265314   -8.0246323    776.07698  0.013748529  0.012262432           12 
 4705000   0.49139822   -8.0159288     776.6078  0.013755009   0.01225853           14 
 4706000   0.49280011   -7.9933946    776.33059  0.013747177  0.012254631           15 
 4707000   0.49755812   -8.0305491    775.86749  0.013736058   0.01225073           13 
 4708000   0.48825908   -8.0212099    777.30104  0.013758515  0.012246832           15 
 4709000   0.50026895   -8.0402977    776.65263  0.013744118  0.012242935           16 
 4710000   0.49359522   -8.0219153    776.49097   0.01373834  0.012239037           12 
 4711000   0.50589685   -8.0229335    776.73704  0.013739776  0.012235145           28 
 4712000   0.49162024   -8.0376809    776.73226  0.013736776  0.012231254           19 
 4713000   0.49407014   -8.0281602    777.76821  0.013752179  0.012227367           12 
 4714000   0.48765606   -8.0291119     776.0528  0.013718937  0.012223478           15 
 4715000   0.50444684   -8.0234237    776.54314  0.013724693  0.012219591           13 
 4716000   0.48943448   -8.0237271    775.67495  0.013706442  0.012215707           10 
 4717000   0.49967663   -8.0319275     777.8714   0.01374234  0.012211824           17 
 4718000   0.50152052   -8.0329367    776.82063  0.013720867  0.012207941           13 
 4719000   0.48933598   -8.0197341    776.18686  0.013706768  0.012204061           14 
 4720000   0.49624318    -8.005549    777.48995  0.013726871  0.012200184           13 
 4721000   0.51138023   -8.0291778    775.02631  0.013680476  0.012196309           28 
 4722000   0.50547735   -8.0091717    776.34157   0.01370079  0.012192431           12 
 4723000   0.49838508    -8.018569    776.67638  0.013703797  0.012188557           25 
 4724000   0.49052991   -8.0265507    776.23213  0.013693059  0.012184683           11 
 4725000   0.49073521   -8.0225182    776.95191  0.013702856  0.012180811           46 
 4726000   0.50794171   -8.0213418    775.21599  0.013669347  0.012176939           26 
 4727000    0.4895619   -8.0295597    777.11655   0.01369996   0.01217307           13 
 4728000   0.50213635    -8.031291    777.01611  0.013695292  0.012169205           28 
 4729000   0.48183406   -8.0336161    775.77832  0.013670584   0.01216534           13 
 4730000   0.49247719   -8.0302574    776.16223  0.013674458  0.012161471           21 
 4731000   0.50342363   -8.0187354    776.25771  0.013673249  0.012157608           14 
 4732000   0.49513178   -8.0137074    776.50004  0.013674627  0.012153747           11 
 4733000   0.49593716   -8.0189345    775.83393   0.01366001  0.012149887           12 
 4734000   0.49240762   -8.0325293    776.71201  0.013672582  0.012146026           22 
 4735000   0.49166093    -8.029463    776.71637  0.013669771  0.012142169           13 
 4736000   0.49214024   -8.0260063    775.40717  0.013643848  0.012138311           30 
 4737000   0.49680874   -8.0248418    775.46011  0.013641899  0.012134454           17 
 4738000   0.49027297   -8.0316094     775.5421  0.013640462    0.0121306           14 
 4739000    0.4953587   -8.0234269     776.3906  0.013652504  0.012126746           22 
 4740000   0.50586535   -8.0205872    776.58453  0.013653033  0.012122895           13 
 4741000   0.49784583   -8.0244034    775.33292  0.013628154  0.012119043           17 
 4742000   0.49652488   -8.0354646    775.68522  0.013631471  0.012115189           15 
 4743000   0.49499619   -8.0261998    776.52275  0.013643312   0.01211134           21 
 4744000    0.5003907   -8.0409593    775.90813   0.01362964  0.012107492           13 
 4745000   0.49416826   -8.0359048    775.69395  0.013623006  0.012103646           14 
 4746000   0.48334426   -8.0337929     776.0189  0.013625841    0.0120998           20 
 4747000   0.49680512   -8.0333103     775.7706  0.013618612  0.012095959           22 
 4748000   0.48730332   -8.0062337    774.94124  0.013601187  0.012092115           16 
 4749000   0.47278848   -8.0450731    775.33162  0.013605173  0.012088273           17 
 4750000   0.48937924   -8.0177062    774.90609  0.013594844  0.012084433           12 
 4751000   0.49547357   -8.0298565    775.68701   0.01360568  0.012080598           15 
 4752000   0.48973397     -8.02766    775.09329  0.013592405  0.012076767           17 
 4753000   0.49299609    -8.026244      775.985  0.013605179  0.012072936           10 
 4754000    0.5002306   -8.0143727    774.92993  0.013583823  0.012069103           16 
 4755000   0.49025591   -8.0237525    775.86586  0.013597369  0.012065273           19 
 4756000   0.49498454   -8.0255945     775.7433  0.013592362   0.01206144           15 
 4757000   0.48893001   -8.0417968     776.3523  0.013600174  0.012057613           15 
 4758000   0.49176949   -8.0174628    776.33737  0.013597054   0.01205379           16 
 4759000   0.48774684   -8.0274835    775.83075  0.013585325  0.012049964           20 
 4760000   0.49195854   -8.0237564    775.74021  0.013580886   0.01204614           18 
 4761000   0.48482012   -8.0409233    775.30032  0.013570334   0.01204232           19 
 4762000   0.49904343    -8.043187    776.90848  0.013595626  0.012038499           17 
 4763000   0.47941865   -8.0291525    775.65067  0.013570766  0.012034678           16 
 4764000   0.49552782   -8.0129007    774.81233  0.013553252  0.012030857           17 
 4765000   0.48016187   -8.0420261    775.41029  0.013560866   0.01202704           19 
 4766000   0.49385797   -8.0429042    776.07251  0.013569599  0.012023223           21 
 4767000   0.48796582   -8.0413914    776.11649  0.013567521  0.012019405           11 
 4768000   0.49734263   -8.0375668    776.73295   0.01357545  0.012015592           20 
 4769000   0.49747708    -8.046125    775.83525  0.013556917  0.012011778           18 
 4770000   0.48730888   -8.0383958    776.46094  0.013565006  0.012007965           17 
 4771000   0.49449654   -8.0391834     775.0793   0.01353803  0.012004149           15 
 4772000   0.48406668    -8.030739    775.53177  0.013543095  0.012000338           11 
 4773000   0.48005662   -8.0401815    775.42061  0.013538316  0.011996527           17 
 4774000   0.47933406   -8.0283893    775.91447  0.013544101  0.011992718           22 
 4775000   0.49343633   -8.0472375    775.58935  0.013535591  0.011988908           21 
 4776000    0.4835414   -8.0352122    775.63676  0.013533584  0.011985103           16 
 4777000   0.49144272   -8.0394235    774.67963  0.013514054  0.011981296           21 
 4778000   0.49475238   -8.0343912    775.29792  0.013522009  0.011977495           10 
 4779000   0.49190166   -8.0456132    775.34565  0.013520012  0.011973691           17 
 4780000   0.49092028   -8.0306265    775.82666  0.013525569   0.01196989           10 
 4781000   0.47989799   -8.0311882    775.14428  0.013510846  0.011966092           16 
 4782000   0.49421659   -8.0248989    776.15424  0.013525621  0.011962297           13 
 4783000   0.48039675   -8.0484697    776.49012  0.013528645  0.011958505           10 
 4784000   0.48196845   -8.0424973    775.64328  0.013511066  0.011954713           18 
 4785000   0.48737726    -8.044033    775.58524  0.013507232  0.011950922           16 
 4786000   0.48616086   -8.0310856    775.43161  0.013501734  0.011947133           14 
 4787000   0.48490118   -8.0537955     775.7558  0.013504558  0.011943341           21 
 4788000   0.49479602   -8.0412626    775.45039  0.013496421  0.011939558           13 
 4789000   0.48572931   -8.0432085    776.78059   0.01351675  0.011935779           17 
 4790000   0.50177891    -8.040972    776.00156  0.013500375  0.011931996           12 
 4791000   0.47998545   -8.0175656    774.49822  0.013471409  0.011928212            9 
 4792000   0.48039245   -8.0340571    775.87371  0.013492517  0.011924435           14 
 4793000   0.47065366   -8.0364479    775.20322  0.013478045  0.011920653           12 
 4794000   0.47665133   -8.0393069    776.52649  0.013498235  0.011916875           21 
 4795000   0.48416342   -8.0378966      775.691    0.0134809  0.011913099           20 
 4796000    0.4781887   -8.0377054    775.94318  0.013482471   0.01190932           12 
 4797000   0.47868511   -8.0423144    775.47729  0.013471567  0.011905546           16 
 4798000   0.48036936   -8.0364239    776.12276   0.01347997  0.011901774           13 
 4799000    0.4856419   -8.0362493    776.67991  0.013486836  0.011898002           10 
 4800000   0.49182267   -8.0492811    775.50837  0.013463687   0.01189423            9 
 4801000   0.47879231   -8.0401985     775.8569  0.013466932  0.011890459           14 
 4802000   0.48146425   -8.0564645    774.32695  0.013437577  0.011886691           16 
 4803000   0.47532157   -8.0310539    776.00031  0.013463813  0.011882926           13 
 4804000   0.48253399   -8.0495529    775.99774  0.013460966  0.011879158           12 
 4805000   0.47592466   -8.0436698    776.35573  0.013464373  0.011875392           11 
 4806000   0.47679114   -8.0371662    774.85888  0.013435617   0.01187163           12 
 4807000   0.47623166   -8.0285808    776.14094  0.013455047  0.011867867            9 
 4808000   0.48338077   -8.0517585    775.60857  0.013443021  0.011864107           14 
 4809000   0.47945632   -8.0307285    776.26524  0.013451605  0.011860348           14 
 4810000   0.48250883   -8.0339151    776.18882  0.013447485  0.011856591            6 
 4811000   0.48042926   -8.0421771    776.04034  0.013442118  0.011852834           11 
 4812000   0.48722486    -8.050515    775.25452  0.013425716  0.011849076           14 
 4813000   0.48125784   -8.0360378    774.61786  0.013411903  0.011845319           12 
 4814000   0.48483905   -8.0398316    775.76488  0.013428972  0.011841564           11 
 4815000   0.48282921   -8.0499205    776.59067  0.013440475  0.011837811           15 
 4816000    0.4760523    -8.041941    775.24238  0.013414355  0.011834061           16 
 4817000   0.47620485    -8.036722     776.2421  0.013428865  0.011830312           13 
 4818000   0.47026303   -8.0380802    774.65817  0.013398681  0.011826562           26 
 4819000    0.4736396    -8.051374    775.75953  0.013414947  0.011822816           11 
 4820000   0.48506067   -8.0393029    773.93196  0.013380566  0.011819071           20 
 4821000   0.48120008   -8.0488592    775.06367  0.013397353  0.011815328           14 
 4822000   0.46276264   -8.0501501    776.52543  0.013419837  0.011811585           17 
 4823000   0.47532825   -8.0585935    774.00383  0.013373485   0.01180784           23 
 4824000   0.48876574   -8.0381868     776.4209  0.013412467  0.011804101           18 
 4825000   0.49443012   -8.0429544    774.38046  0.013374447  0.011800363           12 
 4826000    0.4836407   -8.0616278    774.95387  0.013381577  0.011796627           32 
 4827000   0.48450629   -8.0547183    773.92696  0.013361076  0.011792892           17 
 4828000   0.49006576   -8.0560397    774.06716  0.013360728  0.011789157           21 
 4829000   0.47565638   -8.0527425    774.64944   0.01336801  0.011785422           19 
 4830000   0.47956201    -8.047167    775.41778  0.013378499  0.011781688           12 
 4831000   0.46799901   -8.0510358    774.80233  0.013365113  0.011777957           13 
 4832000   0.46604698   -8.0532654     774.5398  0.013357819  0.011774228            9 
 4833000   0.48009717   -8.0592133    775.79084  0.013376627    0.0117705           14 
 4834000   0.47923981   -8.0494783     774.5863  0.013353094  0.011766773           14 
 4835000   0.48453501    -8.038996    774.78499  0.013353757  0.011763049           18 
 4836000   0.48872966   -8.0564972    775.60471  0.013365121  0.011759323           20 
 4837000   0.47433035   -8.0461947    775.41563  0.013359101  0.011755602           13 
 4838000   0.47659243   -8.0574021    774.07655  0.013333274   0.01175188           14 
 4839000   0.48260926   -8.0453847    775.05267  0.013347328  0.011748158           18 
 4840000   0.46931416    -8.047892    774.18316    0.0133296  0.011744437           14 
 4841000   0.47363017   -8.0549916    775.67318  0.013352496   0.01174072           31 
 4842000   0.47666373   -8.0507008    775.09506  0.013339788  0.011737005           26 
 4843000   0.47630178   -8.0709578    775.11186  0.013337323  0.011733287           22 
 4844000   0.47185079    -8.048659    774.98967  0.013332468  0.011729573           11 
 4845000   0.46718929   -8.0361452    774.17367  0.013315681   0.01172586           20 
 4846000   0.48170749   -8.0475834     775.2855  0.013332052  0.011722152           18 
 4847000   0.46185896   -8.0393683    774.10714  0.013309042  0.011718442           19 
 4848000   0.47243539   -8.0383328    774.43239  0.013311888  0.011714733           12 
 4849000   0.47133102   -8.0561662    774.31014  0.013307042  0.011711027           18 
 4850000     0.475178   -8.0478915    774.22206  0.013302785  0.011707327           14 
 4851000   0.47803784   -8.0478486    774.08366  0.013297665  0.011703626           23 
 4852000   0.47057461   -8.0565131    775.59524  0.013320886  0.011699924           12 
 4853000   0.47275423   -8.0503401    775.67836  0.013319568  0.011696227           18 
 4854000   0.46842038   -8.0648757    775.15497  0.013307838  0.011692529           27 
 4855000   0.46109962   -8.0442488    774.16751  0.013288148   0.01168883           18 
 4856000   0.46418297   -8.0546376    772.95078  0.013264532  0.011685132           21 
 4857000   0.47047187   -8.0673753    774.50547  0.013288475  0.011681436           22 
 4858000   0.47071571   -8.0677064    775.33575  0.013299982  0.011677742           16 
 4859000   0.46306679   -8.0526992    774.52175  0.013283284  0.011674049           22 
 4860000   0.48088682   -8.0736117    774.68093  0.013283281  0.011670361           16 
 4861000    0.4868561   -8.0607601    773.63675  0.013262647  0.011666673           20 
 4862000   0.47915748   -8.0621747    774.43711  0.013273638  0.011662986           12 
 4863000   0.47980319   -8.0429665    774.93486  0.013279438  0.011659299           14 
 4864000   0.47205386   -8.0714534    775.33385  0.013283543  0.011655615           17 
 4865000   0.48735671   -8.0604924    774.56977  0.013267725  0.011651935           12 
 4866000   0.47577769   -8.0531222    773.96432  0.013254629   0.01164825           13 
 4867000   0.47146337   -8.0584411    774.51593  0.013261351   0.01164457           21 
 4868000   0.46759166   -8.0510136    773.50728   0.01324136  0.011640889           13 
 4869000   0.47405913   -8.0599972    774.62673    0.0132578  0.011637214           15 
 4870000   0.48192902   -8.0614453    773.98284   0.01324406  0.011633538           21 
 4871000   0.48467975   -8.0619431    773.66859  0.013235964   0.01162986           18 
 4872000   0.47735789   -8.0593933    773.53292  0.013230927  0.011626187           24 
 4873000    0.4691566   -8.0567517    775.65083   0.01326443  0.011622514            8 
 4874000   0.46514629   -8.0618434    773.87427  0.013231334  0.011618845           17 
 4875000   0.46302353   -8.0593009    774.78721  0.013244226  0.011615173           12 
 4876000   0.46607474   -8.0711267    774.78782   0.01324152  0.011611505           15 
 4877000   0.46793343    -8.061124    774.61048  0.013235775  0.011607839           11 
 4878000   0.47207958   -8.0542909    774.53259  0.013231731  0.011604172           21 
 4879000   0.46336917   -8.0435171    773.54822  0.013212206  0.011600506           13 
 4880000   0.46827012    -8.071709    773.84717  0.013214603  0.011596845            9 
 4881000   0.47799623   -8.0821603    774.62089  0.013225106  0.011593183           11 
 4882000   0.47124591   -8.0608843    774.16419  0.013214601  0.011589522           14 
 4883000   0.47512402   -8.0716746    773.28459  0.013196883  0.011585861           15 
 4884000   0.47562884   -8.0601241    773.32089  0.013194801    0.0115822           28 
 4885000   0.46759184   -8.0783389    773.92333  0.013202377  0.011578543           12 
 4886000   0.46444354   -8.0730435    774.77318  0.013214169  0.011574887           20 
 4887000   0.46467721   -8.0719819    774.14488  0.013200752  0.011571233           14 
 4888000   0.47638907     -8.06739    774.52309  0.013204499  0.011567582           11 
 4889000    0.4650605   -8.0591905     773.3465  0.013181743  0.011563928           13 
 4890000   0.46075373   -8.0789352    774.30197   0.01319533  0.011560279           13 
 4891000   0.45793772   -8.0490301    773.77657   0.01318368  0.011556629           29 
 4892000   0.46941604   -8.0798103    773.67866  0.013179318   0.01155298           18 
 4893000    0.4715991   -8.0658371    774.49683  0.013190559  0.011549334           15 
 4894000   0.47729261   -8.0685996    774.19442  0.013182714  0.011545689           15 
 4895000   0.47214139   -8.0498774    773.91606  0.013175282  0.011542045           12 
 4896000   0.47554699    -8.063072    773.85725   0.01317159  0.011538404           13 
 4897000   0.47058921   -8.0715885     773.2989  0.013159399  0.011534767           25 
 4898000   0.46401394   -8.0736503     772.6253  0.013145251  0.011531128           12 
 4899000   0.45607629   -8.0608363    774.91967  0.013181596  0.011527491           19 
 4900000   0.46189513   -8.0754133    774.11959  0.013165299  0.011523857           22 
 4901000   0.46571689   -8.0783603    774.88409  0.013175612   0.01152022           24 
 4902000   0.47698436   -8.0718177    773.62027  0.013151439  0.011516587           23 
 4903000   0.46891684   -8.0587051    774.30879  0.013160459  0.011512953           20 
 4904000   0.46167018   -8.0689522    774.70396  0.013164491  0.011509321           24 
 4905000   0.46401736   -8.0673399    773.52641  0.013141801  0.011505693           17 
 4906000   0.46621132   -8.0746581    774.20739  0.013150689  0.011502065           13 
 4907000   0.46534282   -8.0676325    774.18386   0.01314761  0.011498439           13 
 4908000     0.473023   -8.0662504    773.59274  0.013134894  0.011494812           18 
 4909000   0.45636852   -8.0507883    774.48752  0.013147408  0.011491188           20 
 4910000   0.46060818    -8.072682    774.26623  0.013140975  0.011487566           17 
 4911000   0.47538323   -8.0785597    773.87829  0.013131716  0.011483945           12 
 4912000   0.47275749   -8.0605418    774.51071  0.013139772  0.011480326           15 
 4913000   0.46592762   -8.0863362    773.30531  0.013116652   0.01147671           12 
 4914000   0.47439931   -8.0674095    774.85019  0.013140181  0.011473096           13 
 4915000   0.46166666    -8.081788    775.62112  0.013150578  0.011469487           10 
 4916000   0.46551785   -8.0758572    773.63667  0.013114264  0.011465878           29 
 4917000    0.4683521   -8.0870608    774.70637  0.013129726  0.011462267           11 
 4918000   0.46534302   -8.0609618    774.56129  0.013124598  0.011458659           21 
 4919000   0.46114745   -8.0794787     773.8291  0.013109526  0.011455051           21 
 4920000   0.46097117   -8.0693924    774.51527  0.013118483  0.011451446           25 
 4921000    0.4721748   -8.0822342    774.35699  0.013113137   0.01144784           14 
 4922000   0.46458648   -8.0748938    773.20384  0.013090949  0.011444238           17 
 4923000   0.46215715   -8.0734695    774.40549  0.013108631  0.011440638           17 
 4924000   0.46247506    -8.073642    773.58313  0.013092051  0.011437036           11 
 4925000   0.46497886    -8.074813    774.36058  0.013102548  0.011433435           17 
 4926000   0.46857078   -8.0798522    773.48826  0.013085131   0.01142984           24 
 4927000   0.45930557    -8.071289    774.52983  0.013100092  0.011426243           13 
 4928000   0.46232497   -8.0767464    773.53285  0.013080574  0.011422646           19 
 4929000   0.46881682   -8.0739118    774.43862  0.013093234  0.011419053           22 
 4930000   0.45570437   -8.0741098    774.38097  0.013089604  0.011415455            9 
 4931000   0.45880233   -8.0755248    774.78899  0.013093845  0.011411863           13 
 4932000   0.46331401   -8.0768537    774.02236  0.013078237  0.011408271           20 
 4933000   0.46025599   -8.0801935    774.25936  0.013079589  0.011404679           12 
 4934000   0.45845437   -8.0914158    773.88029  0.013070536   0.01140109           13 
 4935000   0.46280842   -8.0812642    772.93183  0.013051872  0.011397501           19 
 4936000   0.46456866   -8.0701705    774.51562  0.013075966  0.011393913           14 
 4937000   0.45693355   -8.0815346     774.2021  0.013068026  0.011390327           12 
 4938000   0.46182769   -8.0820026    774.69836  0.013073754  0.011386741           20 
 4939000   0.46510461   -8.0776462    773.41128  0.013049391  0.011383158           11 
 4940000   0.46067969   -8.0762033    774.45245  0.013064313  0.011379578           18 
 4941000    0.4541228   -8.0857938     773.3176  0.013042528  0.011375999           15 
 4942000    0.4710048   -8.0811466    774.00727  0.013051519  0.011372421           10 
 4943000   0.46250156   -8.0606219    773.19309  0.013035152  0.011368843            8 
 4944000   0.45875154   -8.0660199    773.49425  0.013037592  0.011365266           16 
 4945000   0.45290157   -8.0826218    773.76972  0.013039598  0.011361691           13 
 4946000   0.46187539   -8.0596491    773.63065  0.013034618  0.011358117           13 
 4947000   0.46034781   -8.0884636    773.65968  0.013032472  0.011354545           11 
 4948000   0.45872602   -8.0837715    773.41312  0.013025686  0.011350976           21 
 4949000   0.45277306   -8.0811305    772.94649  0.013015196  0.011347403           18 
 4950000   0.45258519   -8.0930552    773.60905  0.013023721  0.011343832           12 
 4951000   0.45570505   -8.0887287    773.17155  0.013013727  0.011340261           14 
 4952000   0.45652865   -8.0797417    773.43895  0.013015599  0.011336692           15 
 4953000   0.45594985   -8.0723858     773.7291  0.013017853  0.011333124           12 
 4954000   0.46272871   -8.0913954    773.88982  0.013017929  0.011329557           18 
 4955000   0.44857766   -8.0875182    773.79925  0.013013778  0.011325993           17 
 4956000   0.45526405   -8.0815346    773.80884  0.013011314  0.011322428           17 
 4957000   0.45579469   -8.0818402    773.54299  0.013004219  0.011318866           13 
 4958000   0.45113688   -8.0699258     773.9014  0.013007621  0.011315305           11 
 4959000   0.46401501   -8.0704952    773.21143  0.012993403  0.011311748           19 
 4960000   0.45005953   -8.0951026    772.49623  0.012978767   0.01130819           16 
 4961000   0.46145169   -8.0700496    774.58695   0.01301127  0.011304634           16 
 4962000   0.46022927   -8.0730068    772.28111  0.012969923  0.011301081           18 
 4963000   0.44978618   -8.0703147    772.76816  0.012975488  0.011297525           16 
 4964000   0.44985614   -8.0830008    773.21083  0.012980305  0.011293972           17 
 4965000    0.4555108   -8.1000575    775.39853   0.01301441  0.011290424           16 
 4966000   0.45578381   -8.0890206     773.0382  0.012972181  0.011286877           24 
 4967000    0.4514048    -8.089999    772.17469  0.012955082   0.01128333           18 
 4968000   0.44834874   -8.0976038    774.45042  0.012990647  0.011279781           23 
 4969000   0.45673286   -8.0902087    773.73257  0.012975994  0.011276238           12 
 4970000   0.45958518   -8.0824143    774.07854  0.012979184  0.011272695           17 
 4971000   0.45710506   -8.0828705    773.42316  0.012965586  0.011269154            9 
 4972000   0.46980828   -8.0844062    773.60746  0.012966068  0.011265615           15 
 4973000   0.46064356   -8.0773156    773.81654  0.012966964  0.011262077           19 
 4974000   0.45037718    -8.064188    772.84053  0.012948005   0.01125854           18 
 4975000   0.45184867   -8.0879067    771.61666  0.012924902  0.011255003           14 
 4976000   0.45766749    -8.088697    773.73535  0.012957787  0.011251466           12 
 4977000   0.45142087   -8.0806055    773.40553  0.012949661  0.011247933           13 
 4978000   0.45025009   -8.0838877    773.24611   0.01294439    0.0112444           15 
 4979000     0.457458   -8.1172789    773.58268  0.012947424  0.011240866           18 
 4980000   0.46234005   -8.0888779    774.34602  0.012957597  0.011237337           11 
 4981000   0.44796795   -8.0805551    774.57039   0.01295875  0.011233813           20 
 4982000   0.46192124   -8.0814831    772.75416  0.012925769  0.011230286           16 
 4983000   0.45889828     -8.07277    773.90533  0.012942426  0.011226761           18 
 4984000   0.46275727   -8.1032199    773.98133    0.0129411  0.011223236           31 
 4985000   0.45417614   -8.0945539    774.13438  0.012941063  0.011219716           17 
 4986000   0.45139605   -8.0797089    772.74904  0.012915313  0.011216196           18 
 4987000   0.46552301    -8.072555    772.52129  0.012908918  0.011212679           15 
 4988000   0.44884618    -8.090372    772.78575  0.012910748   0.01120916           17 
 4989000   0.44667973   -8.0866874    773.40412  0.012918489  0.011205644           17 
 4990000   0.45189734   -8.0741549    773.82376  0.012922908  0.011202131           13 
 4991000   0.45227601     -8.08902    774.01834  0.012923568  0.011198618           12 
 4992000   0.46681262   -8.0906339    772.07368  0.012888516  0.011195104           15 
 4993000   0.44235818   -8.0939743    774.17313  0.012920975  0.011191593           16 
 4994000   0.44775783   -8.0931836    774.11044  0.012917341   0.01118808           17 
 4995000   0.44994258   -8.0825108    772.54135  0.012888578  0.011184569           21 
 4996000   0.44554129   -8.0816872    774.16656  0.012913106   0.01118106           15 
 4997000   0.45317528   -8.1001845    772.85117  0.012888586  0.011177553           23 
 4998000   0.45548494   -8.0945417    772.38662  0.012878262  0.011174045           14 
 4999000   0.45060808   -8.0898922    773.51733  0.012894534  0.011170541           17 
 5000000   0.45041976   -8.0880877    773.70092  0.012895015  0.011167039           17 
 5001000   0.47092484   -8.0842242    772.30274  0.012869138  0.011163538           18 
 5002000   0.44996262     -8.08022    772.33118  0.012867039  0.011160036           16 
 5003000   0.45167122   -8.1119499    772.83009  0.012872778  0.011156534           10 
 5004000   0.45398275   -8.0709272    773.18357  0.012876092  0.011153037           17 
 5005000   0.44766345   -8.0760872    773.18375  0.012873522  0.011149542           18 
 5006000   0.45951112   -8.0836938    773.75689  0.012880492  0.011146051           17 
 5007000   0.45929526   -8.0649937    773.06632  0.012866426   0.01114256           17 
 5008000    0.4516632   -8.0865212    772.56922  0.012855585   0.01113907           10 
 5009000   0.45484606   -8.0809017    772.44461  0.012850945  0.011135579           12 
 5010000   0.44966317   -8.1074486     773.0454  0.012858373  0.011132089           17 
 5011000    0.4607502   -8.0912592    772.72741  0.012850519    0.0111286            8 
 5012000   0.45078364   -8.0878629     773.8547  0.012866698  0.011125112           23 
Loop time of 11250.8 on 48 procs for 5000000 steps with 4000 atoms

Performance: 76794.706 tau/day, 444.414 timesteps/s
99.4% CPU use with 48 MPI tasks x no OpenMP threads

MPI task timing breakdown:
Section |  min time  |  avg time  |  max time  |%varavg| %total
---------------------------------------------------------------
Pair    | 708.51     | 746.33     | 777.09     |  65.2 |  6.63
Neigh   | 72.474     | 74.273     | 77.068     |   9.7 |  0.66
Comm    | 670.63     | 701.64     | 742.06     |  68.2 |  6.24
Output  | 13.531     | 13.535     | 13.616     |   0.3 |  0.12
Modify  | 9579.2     | 9604.9     | 9623.8     |  12.7 | 85.37
Other   |            | 110.1      |            |       |  0.98

Nlocal:        83.3333 ave          94 max          75 min
Histogram: 1 3 6 7 16 10 2 2 0 1
Nghost:        1899.06 ave        1924 max        1881 min
Histogram: 4 7 5 12 2 6 5 4 1 2
Neighs:        11876.8 ave       13060 max       10632 min
Histogram: 2 3 3 4 10 10 6 5 3 2
FullNghs:      23752.6 ave       27339 max       21086 min
Histogram: 1 1 9 8 15 9 2 1 1 1

Total # of neighbors = 1140126
Ave neighs/atom = 285.03150
Neighbor list builds = 268948
Dangerous builds = 1

#clear
#
#next RN
#
#jump SELF
Total wall time: 3:07:33
