
units lj                  # Use reduced LJ style units
atom_style atomic         # Uncharged point particles
atom_modify map hash      # Needed for indexing of clusters etc
                          # Used to be able to find where atoms are in relation to each other.

lattice fcc 1.0 spacing 1 1 1
Lattice spacing in x,y,z = 1.5874011 1.5874011 1.5874011
region box block 0 10 0 10 0 10 units lattice
create_box 2 box
Created orthogonal box = (0.0000000 0.0000000 0.0000000) to (15.874011 15.874011 15.874011)
  3 by 4 by 4 MPI processor grid
create_atoms 1 box
Created 4000 atoms
  using lattice units in orthogonal box = (0.0000000 0.0000000 0.0000000) to (15.874011 15.874011 15.874011)
  create_atoms CPU = 0.003 seconds
set type 1 type/fraction 2 0.0 78393
Setting atom values ...
  0 settings made for type/fraction
mass 1 1.0
mass 2 1.0
pair_style lj/cut  3.5
pair_modify tail  yes
pair_coeff 1  1  1.0  1.0   # Intearaction between 1 and 1 set with epsilon = 1 and sigma = 1
pair_coeff 1  2  1.5  0.8
pair_coeff 2  2  0.5  0.88

write_data data.0
System init for write_data ...
Neighbor list info ...
  update every 1 steps, delay 10 steps, check yes
  max neighbors/atom: 2000, page size: 100000
  master list distance cutoff = 3.8
  ghost atom cutoff = 3.8
  binsize = 1.9, bins = 9 9 9
  1 neighbor lists, perpetual/occasional/extra = 1 0 0
  (1) pair lj/cut, perpetual
      attributes: half, newton on
      pair build: half/bin/atomonly/newton
      stencil: half/bin/3d
      bin: standard
WARNING: Not all mixed pair coeffs generated from mixing. Use write_data with 'pair ij' option to store all pair coeffs. (../write_data.cpp:312)


#############################
#   M E L T   S Y S T E M   #
#############################

velocity all create 2.4 1741580 mom yes dist gaussian # Assign velocities
                                                    # Temperature 2.4, random number seed, zero linear momentum
                                                                                # Gaussian distribution

timestep 0.002   # simulation timestep
thermo 1000       # output thermodynamic data every 1000 steps bf 100

# Define a fix  in this case with index 1 applied to all
# particles in the simulation. This fix is for simulations
# in the anisotropic NPT ensemble. Note that we use the MTK
# correction.
fix 1 all npt temp 2.4 2.4 0.1 iso 5.68 5.68 0.5 mtk yes tchain 5 pchain 5 # Use NPT ensemble
                                                                         # Set temperature and pressure and damping
                                                                         # Numbers of thermostats in chain and in barostat
run 10000          # run for 10000 steps
Per MPI rank memory allocation (min/avg/max) = 3.642 | 3.644 | 3.648 Mbytes
Step Temp E_pair E_mol TotEng Press Volume 
       0          2.4   -8.3859253            0   -4.7868253   -2.2405722         4000 
    1000    2.3665579   -4.4849007            0  -0.93595129    5.3827989    5183.0868 
    2000    2.3766513   -4.3593179            0  -0.79523217    5.8479051    5191.4903 
    3000    2.3957732   -4.3590227            0  -0.76626129    5.6082724    5238.8421 
    4000    2.3735381   -4.3666232            0  -0.80720609    5.6130507    5225.6107 
    5000    2.3969396   -4.3665735            0  -0.77206291    5.6800274    5220.2459 
    6000    2.4153599   -4.3308294            0  -0.70869525    5.8758855    5220.6629 
    7000    2.3972881   -4.3733727            0  -0.77833947    5.7269081    5213.6447 
    8000    2.4392018   -4.3837287            0  -0.72584071    5.5494192    5239.9551 
    9000    2.4200921   -4.3468357            0  -0.71760503    6.0313714    5192.0987 
   10000     2.428261   -4.3774577            0  -0.73597689    5.3162872    5285.0734 
Loop time of 2.44569 on 48 procs for 10000 steps with 4000 atoms

Performance: 706549.413 tau/day, 4088.828 timesteps/s
99.1% CPU use with 48 MPI tasks x no OpenMP threads

MPI task timing breakdown:
Section |  min time  |  avg time  |  max time  |%varavg| %total
---------------------------------------------------------------
Pair    | 0.81867    | 0.90036    | 0.97412    |   2.9 | 36.81
Neigh   | 0.16576    | 0.17082    | 0.18066    |   0.6 |  6.98
Comm    | 0.60296    | 0.7417     | 0.85023    |   5.7 | 30.33
Output  | 0.00024595 | 0.00025204 | 0.00041851 |   0.0 |  0.01
Modify  | 0.55348    | 0.61848    | 0.67883    |   3.2 | 25.29
Other   |            | 0.01408    |            |       |  0.58

Nlocal:        83.3333 ave          93 max          75 min
Histogram: 2 4 3 11 6 11 5 3 1 2
Nghost:        1359.65 ave        1382 max        1330 min
Histogram: 1 1 7 2 7 10 5 8 1 6
Neighs:        7204.10 ave        8195 max        6435 min
Histogram: 3 4 5 8 9 9 6 2 1 1

Total # of neighbors = 345797
Ave neighs/atom = 86.449250
Neighbor list builds = 904
Dangerous builds = 205

# Equilibrate just above the melting temperature to avoid step fn in T

fix 1 all npt temp 1.25 1.25 0.1 iso 5.68 5.68 0.5 mtk yes tchain 5 pchain 5
run 2000
Per MPI rank memory allocation (min/avg/max) = 3.642 | 3.644 | 3.648 Mbytes
Step Temp E_pair E_mol TotEng Press Volume 
   10000     2.428261   -4.3774577            0  -0.73597689    5.3162872    5285.0734 
   11000    1.2700043   -5.8177951            0    -3.913265    5.6463621    4356.8837 
   12000    1.2682562   -5.8625038            0   -3.9605951    5.5099495    4346.9764 
Loop time of 0.469695 on 48 procs for 2000 steps with 4000 atoms

Performance: 735797.111 tau/day, 4258.085 timesteps/s
99.4% CPU use with 48 MPI tasks x no OpenMP threads

MPI task timing breakdown:
Section |  min time  |  avg time  |  max time  |%varavg| %total
---------------------------------------------------------------
Pair    | 0.19503    | 0.20431    | 0.21559    |   1.1 | 43.50
Neigh   | 0.030705   | 0.031799   | 0.033089   |   0.3 |  6.77
Comm    | 0.1371     | 0.14729    | 0.15857    |   1.5 | 31.36
Output  | 5.061e-05  | 5.1907e-05 | 6.536e-05  |   0.0 |  0.01
Modify  | 0.075871   | 0.082095   | 0.086573   |   0.9 | 17.48
Other   |            | 0.00415    |            |       |  0.88

Nlocal:        83.3333 ave          90 max          76 min
Histogram: 1 2 6 4 6 11 7 7 2 2
Nghost:        1554.00 ave        1576 max        1534 min
Histogram: 2 2 5 9 9 8 6 3 2 2
Neighs:        8767.40 ave        9620 max        7923 min
Histogram: 2 3 3 6 10 9 6 6 2 1

Total # of neighbors = 420835
Ave neighs/atom = 105.20875
Neighbor list builds = 145
Dangerous builds = 16

#############################
# L I N E A R  Q U E N C H  #
#############################

# Define solid atoms. This closely follows ten Wolde  Ruiz-Montero and Frenkel  Faraday Discuss  1996  104  93-110
# Compute components of the per-atom q6 vector
compute q6 all orientorder/atom degrees 1 6 components 6 nnn NULL cutoff 1.3 # compute the Q6 parameter.
                                                                             # Use all neighbours within 1.3 unit cell.

# get number of connections
compute coord_number all coord/atom orientorder q6 0.5

# An atom is solid if it has 8 or more connections (of a possible 14)
variable is_solid atom c_coord_number>=8
group solid dynamic all var is_solid    # Must be dynamic to update
dynamic group solid defined

# do clustering
compute cluster solid cluster/atom 1.3 # Create a cluster where all atoms within are solid and max 1.3 units from another member

# define chunks one chunk per cluster
compute clus_chunks solid chunk/atom c_cluster nchunk every compress yes  # Says which atoms are in which chunk

# count the size of each chunk
compute size_chunks solid property/chunk clus_chunks count


# Find the maximum entry in the vector of chunk sizes
variable max_n equal max(c_size_chunks)


# Thermo style which includes this variable
# thermo_style custom step temp pe vol v_max_n

thermo ${N}  # Print the thermo information every 100 steps
thermo 1000  

# Reset the npt fix at a lower temperature (below freezing)
fix 1  all npt temp  ${temp} ${temp}  0.1  iso  5.68  5.68  0.5  mtk yes tchain  5  pchain  5
fix 1  all npt temp  0.45 ${temp}  0.1  iso  5.68  5.68  0.5  mtk yes tchain  5  pchain  5
fix 1  all npt temp  0.45 0.45  0.1  iso  5.68  5.68  0.5  mtk yes tchain  5  pchain  5

dump dmp2 all dcd ${N} traj.dcd
dump dmp2 all dcd 1000 traj.dcd


compute msd all msd com yes
variable twopoint equal c_msd[4]/6/(step*dt+1.0e-6)
fix 9 all vector 10 c_msd[4]
variable fit equal slope(f_9)/6/(10*dt)
thermo_style custom step temp pe c_msd[4] v_twopoint v_fit v_max_n

fix 1 all npt temp 1.25 ${temp} 0.1 iso 5.68 5.68 0.5 mtk yes tchain 5 pchain 5
fix 1 all npt temp 1.25 0.45 0.1 iso 5.68 5.68 0.5 mtk yes tchain 5 pchain 5
run 500000 # 5000000  # Run for this many steps
Neighbor list info ...
  update every 1 steps, delay 10 steps, check yes
  max neighbors/atom: 2000, page size: 100000
  master list distance cutoff = 3.8
  ghost atom cutoff = 3.8
  binsize = 1.9, bins = 9 9 9
  4 neighbor lists, perpetual/occasional/extra = 1 3 0
  (1) pair lj/cut, perpetual
      attributes: half, newton on
      pair build: half/bin/atomonly/newton
      stencil: half/bin/3d
      bin: standard
  (2) compute orientorder/atom, occasional
      attributes: full, newton on
      pair build: full/bin/atomonly
      stencil: full/bin/3d
      bin: standard
  (3) compute coord/atom, occasional
      attributes: full, newton on
      pair build: full/bin/atomonly
      stencil: full/bin/3d
      bin: standard
  (4) compute cluster/atom, occasional
      attributes: full, newton on
      pair build: full/bin/atomonly
      stencil: full/bin/3d
      bin: standard
Per MPI rank memory allocation (min/avg/max) = 9.729 | 9.732 | 9.737 Mbytes
Step Temp PotEng c_msd[4] v_twopoint v_fit v_max_n 
   12000    1.2682562   -5.8625038 1.3805066e-33 9.5868509e-36 8.3333333e+20            2 
   13000     1.244942   -5.8473436    0.5701678 0.0036549216  0.047421565            1 
   14000    1.2324058    -5.881096    1.1272434 0.0067097818  0.046311319            4 
   15000    1.2628112   -5.8471564    1.6622604 0.0092347795  0.045863822            3 
   16000    1.2511736   -5.8319871    2.1508034  0.011202101  0.044975831            4 
   17000     1.221247   -5.8612631    2.7064542  0.013266932  0.044612649            4 
   18000    1.2491292   -5.8430132    3.2765297  0.015169119  0.044623404            2 
   19000    1.2364981   -5.8362636    3.8299596  0.016798068   0.04509713            5 
   20000    1.2346526   -5.8662298    4.3436215  0.018098422  0.045002868            3 
   21000    1.2313614   -5.8780723    4.8774511  0.019354964  0.045118334            2 
   22000    1.2690336   -5.8508746    5.3619562   0.02031044  0.045006204            5 
   23000    1.2303931   -5.8633093     5.785518  0.020962021  0.044545239            2 
   24000    1.2375669   -5.8594273    6.3312576  0.021983533  0.044075473            4 
   25000    1.2404665    -5.856003    6.9207659  0.023069219  0.043938192            5 
   26000    1.2268826   -5.8612043    7.4888861   0.02400284   0.04392989            2 
   27000    1.2132585   -5.8715941    8.1665105  0.025205279  0.044135236            2 
   28000    1.2333529   -5.8900382    8.6852281  0.025848893  0.044443292            3 
   29000    1.2193777    -5.868195    9.2159542  0.026482627  0.044654213            4 
   30000    1.2256064   -5.8978027    9.6896567  0.026915712  0.044771321            4 
   31000    1.2052971   -5.8759381    10.178306  0.027361038  0.044773099            4 
   32000    1.2298066   -5.9179832    10.790486  0.028100224  0.044727637            3 
   33000    1.1845572   -5.9321604    11.289261  0.028508236  0.044732419            2 
   34000    1.2072101   -5.9003923    11.771326  0.028851288  0.044709187            5 
   35000    1.2240727   -5.9163216     12.16446  0.028963001  0.044569295            2 
   36000    1.2125527   -5.9608262    12.668764  0.029325842  0.044399218            4 
   37000    1.2236788   -5.9378981    13.226171  0.029788673  0.044279919            3 
   38000    1.2030539   -5.8910234    13.890473  0.030461563  0.044248856            4 
   39000    1.2177593   -5.9646965    14.267319  0.030485725    0.0442268            6 
   40000    1.2199138   -5.9135903    14.755217  0.030740035  0.044117077            4 
   41000    1.2004592   -5.8791914    15.383544  0.031267365  0.044050328            2 
   42000      1.19911   -5.9396853    15.766859  0.031283451  0.043994045            5 
   43000     1.181739   -5.9255916     16.34139  0.031669359  0.043954348            2 
   44000    1.1920672   -5.9059622    16.781218  0.031782609  0.043867434            7 
   45000     1.183115   -5.9030529    17.370349  0.032167312  0.043796956            3 
   46000    1.1858999    -5.969406    17.902481  0.032432031  0.043743327            3 
   47000    1.1967283   -5.9275695    18.460284     0.032731  0.043707766            6 
   48000    1.2238325   -5.9735772    18.873028  0.032765673  0.043692467            4 
   49000    1.2079882   -5.9688866    19.391412  0.032978592  0.043651598            3 
   50000    1.1735275   -5.9594785    19.885515  0.033142525  0.043609808            2 
   51000    1.2037064   -5.9283338    20.355478  0.033260585  0.043550287            3 
   52000    1.1824111   -5.9656241    20.680507  0.033141837   0.04346775            4 
   53000    1.1813726   -5.9388581    21.275793  0.033452505  0.043375267            4 
   54000    1.1748549   -5.9341046     21.57692  0.033297716  0.043280978            7 
   55000    1.1808202   -5.9941798    21.978155  0.033300234  0.043147985            4 
   56000    1.1565621   -5.9823384    22.442168  0.033396083  0.043016087            4 
   57000    1.1891864   -5.9479151    23.018592  0.033652912  0.042884462            7 
   58000     1.194375   -5.9850469    23.386656  0.033601517  0.042762724            4 
   59000    1.1775476   -5.9509295    23.912067  0.033774105  0.042649875            4 
   60000    1.1733763   -5.9678586    24.468053  0.033983407  0.042558101            5 
   61000    1.1479573   -5.9764348    24.885034  0.033995948  0.042476711            1 
   62000    1.2008387   -5.9882591    25.316551  0.034027623  0.042395449            3 
   63000    1.1343965   -5.9221962    25.683546  0.033972945  0.042294462            2 
   64000    1.1528572   -5.9591086     25.99387  0.033846184  0.042166472            4 
   65000    1.1683627   -5.9846231    26.235146  0.033634802  0.042021568            4 
   66000    1.1871936   -5.9697015     26.75466  0.033781137  0.041858202            3 
   67000    1.1888794    -5.928491    27.156487  0.033776725  0.041703225            6 
   68000    1.1340444   -5.9995221    27.631151  0.033861704  0.041560397            4 
   69000    1.1504747   -6.0024451     27.97373  0.033784698  0.041415406            6 
   70000    1.1739685   -6.0261981    28.359589  0.033761416  0.041275258            4 
   71000    1.1470535   -6.0106283    28.998384  0.034035661  0.041149036           14 
   72000    1.1310201   -6.0320239    29.282994  0.033892354  0.041032039            6 
   73000    1.1385122   -5.9831017     29.75327  0.033964919  0.040916473            7 
   74000    1.1441608    -6.003239    30.272225  0.034090343  0.040805619            4 
   75000    1.1408644   -5.9822535    30.873982  0.034304424  0.040707373            4 
   76000    1.1633912   -5.9825002     31.23718  0.034251294  0.040609846            2 
   77000    1.1393377   -6.0225458    31.659736  0.034263783  0.040522707            3 
   78000     1.145477   -6.0102271    32.185754  0.034386489   0.04044373            3 
   79000    1.1372243   -6.0463328    32.457058  0.034237403  0.040363476            4 
   80000    1.1509389   -5.9890374    33.010721  0.034386167  0.040275178            5 
   81000    1.1342897   -6.0094457    33.393741    0.0343557  0.040190291            3 
   82000    1.1298187   -6.0321928    33.578707  0.034124702  0.040097232            4 
   83000    1.1228111   -6.0532771    34.012136   0.03414873    0.0399988            8 
   84000    1.1151255   -6.0522717    34.488463  0.034214744     0.039901            5 
   85000    1.1519339   -6.0524553    34.805025  0.034122574  0.039807278            7 
   86000    1.1373757   -6.0308969    35.294215   0.03419982  0.039716712            3 
   87000     1.130358   -6.0905973    35.728895  0.034223079  0.039627215            6 
   88000    1.1349283   -6.0225064     36.28928  0.034364848  0.039542951            3 
   89000    1.0908139   -6.0373643    36.709952  0.034372614  0.039470523            6 
   90000    1.0966238   -6.0459783    37.117198  0.034367775  0.039397912            4 
   91000    1.1027996   -6.0627706    37.435608  0.034281692  0.039323875            4 
   92000    1.1279676   -6.0427544    37.819449  0.034256748  0.039242929            4 
   93000    1.1286568   -6.0697358    38.189754  0.034220209  0.039157621            7 
   94000    1.1025089   -6.1088544    38.590875  0.034211768  0.039072966            5 
   95000    1.1143703   -6.0454682    39.058988   0.03426227  0.038998354            2 
   96000    1.1153451   -6.0461587    39.505743   0.03429318  0.038924609            5 
   97000    1.1172979   -6.0426715    39.940274   0.03431295  0.038855584            4 
   98000      1.11082   -6.0419109     40.41589  0.034367254  0.038789141            4 
   99000    1.0948356   -6.0383329    40.789648   0.03433472   0.03872267            4 
  100000    1.1310707    -6.083183    41.274197  0.034395164   0.03865754            6 
  101000    1.0856208   -6.1054343    41.492156  0.034234452  0.038588255            4 
  102000    1.0821821   -6.0631299    41.939861  0.034264592  0.038523063            4 
  103000    1.1064016   -6.0814608     42.15075  0.034102548   0.03844908            3 
  104000    1.1231394   -6.0521602    42.338012  0.033924689  0.038363584            9 
  105000    1.1119216   -6.0974716    42.498993  0.033729359   0.03827397            4 
  106000    1.0916235   -6.0798859    43.164202  0.033934121  0.038186257            2 
  107000    1.0970707   -6.1025684    43.550716  0.033918003  0.038105283            5 
  108000    1.1076838   -6.0733591    43.725593  0.033738884  0.038019995            6 
  109000    1.1011007   -6.0984332    44.247531  0.033828387  0.037930547            5 
  110000    1.0895386   -6.1074553    44.492161  0.033706182  0.037841491            3 
  111000    1.0925215   -6.0994568    44.758767  0.033602678  0.037751459            5 
  112000    1.0939776   -6.1165535    45.067504  0.033532369  0.037657923            3 
  113000    1.0944495   -6.1144819    45.498694  0.033553609  0.037565501            7 
  114000    1.0894138   -6.1046643    46.022952  0.033642509  0.037481085            3 
  115000    1.0823301   -6.1060111     46.40542  0.033627116  0.037398205            5 
  116000    1.0913391   -6.1002879    46.715241  0.033559799  0.037319903            5 
  117000    1.0721443   -6.0929677    47.331061  0.033711582  0.037240987            3 
  118000    1.0637402   -6.1475026    47.321485  0.033419128   0.03716438            7 
  119000    1.0950718   -6.1473357    47.873367  0.033524766  0.037088199            4 
  120000    1.0747916   -6.1533156    48.024214  0.033350149  0.037009684            2 
  121000    1.0733957   -6.1489529    48.655551  0.033509332  0.036933892            5 
  122000    1.0642354   -6.1344885    49.043174  0.033499436  0.036860697            6 
  123000    1.0356623   -6.1415021    49.392481   0.03346374  0.036789957            4 
  124000    1.0776644   -6.1703671    49.751459   0.03343512  0.036721844            5 
  125000    1.0590177   -6.1293957    50.202821  0.033468547  0.036656299            5 
  126000    1.0781677   -6.1548205    50.542954  0.033427879  0.036591564            9 
  127000    1.0619769   -6.1628353    50.951905  0.033433008  0.036526317            4 
  128000    1.0747802   -6.1707394     51.34217  0.033425892  0.036464085            8 
  129000    1.0634028   -6.1154462     51.75818  0.033435517  0.036402904            4 
  130000    1.0630379   -6.1443308    51.948713  0.033300457  0.036342057            3 
  131000     1.053634   -6.1743953    52.289108  0.033262791  0.036276244            7 
  132000     1.048242   -6.1636699    52.458048  0.033117455  0.036208762            3 
  133000    1.0744436   -6.1593136    52.766622  0.033061793  0.036138568            6 
  134000    1.0532774   -6.1517566    53.067115  0.033001937  0.036067784            6 
  135000    1.0432125   -6.1983549    53.537237  0.033047677   0.03599604            5 
  136000    1.0410689     -6.19472    54.042669  0.033114381  0.035928111            8 
  137000    1.0458486   -6.1948524    54.328665  0.033046633  0.035862232            5 
  138000    1.0329888   -6.2028352    54.293603  0.032785992  0.035794881            6 
  139000    1.0368651   -6.1962426    55.118659   0.03304476   0.03572785           12 
  140000    1.0425059   -6.1761038    55.452969   0.03300772  0.035662332            3 
  141000    1.0517305   -6.1914825    55.695752  0.032917111  0.035597479            3 
  142000    1.0174164   -6.2042125    55.897007  0.032803408  0.035531575            3 
  143000    1.0482774   -6.1770797    56.299217  0.032808401  0.035465067            3 
  144000     1.045042   -6.2021491    56.432539  0.032657719  0.035399978            4 
  145000    1.0206015   -6.1671921    56.964114  0.032737996   0.03533458            8 
  146000     1.041569   -6.1967844    57.274685   0.03269103  0.035267237            7 
  147000    1.0565712   -6.2192652    57.366896  0.032520916  0.035199825            7 
  148000    1.0510575   -6.2122232    57.692353  0.032484433  0.035131483            9 
  149000    1.0433963   -6.2116049    58.195237  0.032547672  0.035062481            5 
  150000     1.024704    -6.226279    58.302498  0.032390277  0.034990451            6 
  151000    1.0172029   -6.2298668    58.466881  0.032266491   0.03491864            8 
  152000    1.0311411   -6.2176238    58.592924  0.032123313   0.03484414            5 
  153000    1.0236702   -6.2083587    58.980271   0.03212433  0.034771089            7 
  154000    1.0268157   -6.2411762    59.177896  0.032022671  0.034697183            5 
  155000    1.0402768   -6.2244185     59.63888  0.032063914  0.034622542            4 
  156000    1.0421976   -6.2056312    59.972385   0.03203653  0.034551417            3 
  157000    1.0347334   -6.2245766     60.26171  0.031986046  0.034479758            6 
  158000    1.0289666   -6.2666217    60.719572  0.032025091   0.03440797            5 
  159000    1.0111942   -6.2689178    60.735539  0.031832043  0.034335105           10 
  160000   0.99211297   -6.2264492    61.022039  0.031782312  0.034261156            5 
  161000     1.036499   -6.2354223    61.246367  0.031701018  0.034185609            3 
  162000    1.0029233   -6.2618902    61.327624  0.031547131   0.03410912            5 
  163000    1.0212161   -6.2650762    61.719667  0.031554022  0.034029333            4 
  164000   0.99902724   -6.2749165    61.854636  0.031430201  0.033949313            5 
  165000    1.0138591   -6.3030994    62.145586  0.031386659  0.033870083            6 
  166000    1.0064719   -6.2847262    62.495133  0.031373059  0.033792753            8 
  167000   0.99951845   -6.2458624    62.946738  0.031410548  0.033717929            6 
  168000   0.99815687   -6.2414507    63.076617  0.031288005  0.033644522            6 
  169000   0.99362116   -6.2658864    63.199996  0.031163706  0.033570319           16 
  170000     1.001048   -6.2388107    63.749148  0.031249582  0.033496184            5 
  171000   0.98771854   -6.2576957    63.715136  0.031050261  0.033418599            6 
  172000   0.99672527   -6.2737607    64.082313  0.031047632  0.033340404            5 
  173000    0.9901218   -6.2896076    64.155387  0.030903366  0.033260612            4 
  174000   0.97822378   -6.3091231    64.398067  0.030841986  0.033178402            9 
  175000   0.99124569   -6.3048369    64.583975  0.030754274  0.033096141            6 
  176000    0.9904594    -6.318039     64.92213  0.030739645  0.033015045            6 
  177000   0.99648073    -6.314902    65.134135  0.030665788  0.032936162            8 
  178000   0.95858477   -6.2976229    65.609151  0.030715895  0.032858884           14 
  179000    1.0118259   -6.3007436    65.739778  0.030605111  0.032784122            7 
  180000   0.97387289   -6.3123978     66.29824  0.030693629   0.03270987            6 
  181000   0.96263729   -6.2969601    66.415269  0.030577932  0.032637072            4 
  182000   0.98826598   -6.3148041    66.378649  0.030393154  0.032560217            7 
  183000    1.0010344   -6.3226366    66.518642   0.03029082  0.032481843           12 
  184000    0.9694957   -6.3309454    66.847789  0.030275267  0.032403714            4 
  185000   0.95954536   -6.3199179    67.270715  0.030302124  0.032328173            9 
  186000   0.98741468   -6.3383728     67.33242  0.030166855  0.032253292            7 
  187000   0.96463288   -6.3090633    67.625656   0.03013621  0.032179244            6 
  188000   0.95054872   -6.3302984    68.094243  0.030183618  0.032104237            4 
  189000   0.96671514   -6.3198195    68.222387  0.030080417  0.032029374           14 
  190000   0.96299505   -6.3313033    68.498947  0.030043398  0.031954794            8 
  191000   0.95937313   -6.3443771     68.69818  0.029973028   0.03188145            5 
  192000   0.95506675   -6.3357065    69.202589  0.030035846  0.031809415            8 
  193000    0.9707492   -6.3711816    69.186229  0.029873156  0.031737867            6 
  194000   0.94916152   -6.3827492    69.581386  0.029888912  0.031666127           19 
  195000    0.9604747   -6.3492338    69.750658  0.029807973  0.031592864            9 
  196000   0.96276066   -6.3564337    70.144444  0.029823318  0.031523379           10 
  197000   0.97424632   -6.3493637    70.240107  0.029712397  0.031453168            8 
  198000   0.96773005   -6.3379479    70.796861  0.029796659  0.031384118           10 
  199000   0.95697408   -6.3588475    70.994134  0.029729537  0.031316134            7 
  200000    0.9502407   -6.3747164    71.158322  0.029649301  0.031247913            3 
  201000   0.93827431   -6.3698917    71.449401  0.029622471  0.031180497           14 
  202000     0.955564   -6.3739589    71.739036  0.029595312   0.03111267            9 
  203000   0.95977642   -6.3787848    71.936439  0.029530558  0.031046271           10 
  204000   0.92975079    -6.388257    72.273297  0.029523406  0.030980363            8 
  205000   0.95466119   -6.3774356    72.373176   0.02941999  0.030914818            5 
  206000   0.93514765    -6.380817    72.181103  0.029199475  0.030846786           15 
  207000   0.94956318   -6.3947366    72.621079  0.029235539  0.030777842            4 
  208000   0.94777059     -6.38398    72.887773  0.029201832   0.03070833            4 
  209000   0.93813061   -6.3755067    72.873251   0.02905632  0.030639294            5 
  210000   0.93724363    -6.416178    73.319255  0.029094942   0.03057086            5 
  211000   0.94720024   -6.3808507    73.518492  0.029035739  0.030503264            4 
  212000   0.92662184    -6.423632    73.606947  0.028933548  0.030434418            9 
  213000   0.92448867   -6.3899243    73.650741  0.028814844  0.030365094           13 
  214000   0.93332157   -6.4335776    74.011201  0.028820561    0.0302967           10 
  215000   0.94047456   -6.4176951    74.286285  0.028793134  0.030228067            8 
  216000   0.92043326   -6.4300135    74.457382  0.028725842  0.030159563            8 
  217000   0.91711549   -6.4259382     74.42931  0.028582684  0.030090737            4 
  218000   0.92831184   -6.4470605    74.576433  0.028507811  0.030020268           17 
  219000    0.9115606   -6.4066181      74.9286  0.028511644  0.029949763            6 
  220000   0.93027261   -6.3866755    75.016008  0.028415155  0.029878649            6 
  221000    0.9241819   -6.4360316    75.096983  0.028317113  0.029806339            6 
  222000   0.90480537   -6.4719363    75.278002  0.028257508  0.029734298            5 
  223000   0.90224981   -6.4289964    75.071544  0.028053641  0.029661362            8 
  224000   0.90180487   -6.4440214    75.446037  0.028067722  0.029588475           11 
  225000   0.90231052   -6.4375724    75.445467  0.027942765  0.029515968           10 
  226000   0.91168304   -6.4063967    75.954947  0.028006986   0.02944338            8 
  227000   0.90972633   -6.4480992    76.063179   0.02792334  0.029371173            6 
  228000   0.89844323   -6.4653391    75.988704  0.027773649  0.029298723           13 
  229000   0.92703817   -6.4668182    76.074194  0.027683477  0.029224756            7 
  230000   0.90786625   -6.4741528    76.218241  0.027615305  0.029149812            5 
  231000   0.90008625    -6.434753    76.584961  0.027628052  0.029074298           14 
  232000   0.90672793   -6.4901648     76.42392  0.027451121  0.028998932           12 
  233000   0.87996982   -6.4497807    76.590585  0.027392913  0.028922698           10 
  234000   0.90887396   -6.4443481    76.440501  0.027222401  0.028846113           11 
  235000   0.89120257   -6.4392801    76.647491  0.027179961  0.028767618           20 
  236000   0.89394741   -6.4525742      76.8763  0.027145586  0.028688451           13 
  237000   0.89814262   -6.4614439    77.028761  0.027084656  0.028610395           22 
  238000   0.88763446   -6.4768779    77.226489  0.027040087  0.028532753           21 
  239000   0.89034716   -6.4835085    77.303632  0.026953847  0.028454878           12 
  240000   0.87852642   -6.4750945    77.272129    0.0268306   0.02837643           18 
  241000   0.87890242   -6.4791484    77.490168  0.026794664  0.028299147           10 
  242000   0.87381587    -6.496263    77.626775  0.026730983  0.028222171           20 
  243000   0.87409102   -6.4854351    77.925246  0.026723335  0.028146142            8 
  244000   0.87100392   -6.4764254    77.880386  0.026598493   0.02807108           15 
  245000   0.89118938   -6.5422428    77.933066  0.026507845  0.027994708           20 
  246000   0.88312526   -6.5221179    78.251625  0.026508003  0.027917974           11 
  247000   0.85949774   -6.5086467    78.502316  0.026485262  0.027841315           14 
  248000   0.86467786    -6.503773    78.547706  0.026393718   0.02776517           15 
  249000   0.88240658   -6.5211283    78.527261  0.026280877  0.027688616            8 
  250000   0.86663636   -6.5252665    78.714785  0.026238262  0.027611725            9 
  251000   0.86609227   -6.5384148    78.836267  0.026174059  0.027535493           12 
  252000   0.85814626   -6.5305073    78.886339  0.026086752  0.027458735           14 
  253000   0.87934892   -6.5388572    78.965291  0.026009648  0.027382507           29 
  254000   0.86979495   -6.5423316    79.371126  0.026040396   0.02730686           13 
  255000   0.86593143   -6.5350073     79.37691  0.025940167   0.02723177            7 
  256000   0.86206126   -6.5440209    79.589617  0.025908078   0.02715745            8 
  257000   0.85270404   -6.5538226    79.695583  0.025841629  0.027083036            6 
  258000   0.85994724   -6.5508518    79.948302  0.025823095  0.027009039           13 
  259000   0.85848689   -6.5856548     80.05574   0.02575796  0.026934767           16 
  260000   0.84898681   -6.5759359    80.181677  0.025699255  0.026861627           31 
  261000    0.8595029    -6.532229    80.147175  0.025589775  0.026788738            8 
  262000   0.85173054   -6.5620435    80.390318  0.025569439  0.026715303           15 
  263000   0.84917508   -6.5531873    80.589567  0.025535351  0.026641956            9 
  264000   0.84736176   -6.5539607    80.714664  0.025478114  0.026568938            9 
  265000   0.85567102    -6.574324    80.648808   0.02536126  0.026495761           15 
  266000   0.85561969   -6.5586696    80.719709  0.025288129  0.026422153           28 
  267000   0.84463576   -6.5311667    80.999837  0.025280848  0.026349611            8 
  268000   0.84202561   -6.5681502      81.1409  0.025230379  0.026277295           13 
  269000   0.83809795   -6.5750395    81.136702  0.025135285  0.026204929           14 
  270000   0.83710871   -6.5654107    81.345899  0.025106759  0.026133096           14 
  271000   0.83655116   -6.5646709     81.57559  0.025084745  0.026062017           17 
  272000   0.83485694   -6.5817406    81.522343  0.024976208   0.02599101           10 
  273000   0.83369694    -6.584602    81.618131  0.024913959  0.025919504           23 
  274000   0.84370439   -6.5973376    81.856729  0.024895599  0.025849135           14 
  275000   0.83379995   -6.5740835      82.0122  0.024852182  0.025778327           35 
  276000   0.82782387   -6.6014903    82.397717  0.024878538  0.025708478           12 
  277000   0.81693361   -6.5820053    82.255716  0.024746004   0.02563896           12 
  278000   0.81443287   -6.6045936    82.295392  0.024668883  0.025568504           19 
  279000   0.79776823   -6.5912676    82.410632  0.024614884  0.025498319           29 
  280000   0.79329376   -6.6059858    82.507307  0.024555746  0.025428362           29 
  281000   0.80887308   -6.6051881    82.632017  0.024505343  0.025358411           17 
  282000   0.80435229   -6.6375757    82.597845  0.024408347  0.025288256           12 
  283000   0.80332253   -6.5998024    82.827957  0.024389858   0.02521832           22 
  284000   0.80193483   -6.6021573    82.977255  0.024347786   0.02514859           21 
  285000   0.82251593   -6.6357731     82.88278  0.024234731  0.025078391           25 
  286000   0.80808425   -6.6219408     83.03224  0.024193543  0.025008801           17 
  287000   0.80332688   -6.6172715    83.156293  0.024145265  0.024939328           18 
  288000   0.81025645   -6.6370399    83.132689  0.024054597  0.024870161           14 
  289000     0.801184   -6.6310621    83.256153  0.024006965  0.024801328           29 
  290000   0.80766742   -6.6406303    83.293956  0.023935045  0.024731912           13 
  291000   0.81261458   -6.6404499    83.399131  0.023882913  0.024662405           34 
  292000   0.82342889   -6.6748609    83.598699  0.023858076  0.024593108           24 
  293000   0.79642191   -6.6835339    83.340711  0.023703274  0.024523587           22 
  294000   0.81022419   -6.6359274     83.90852  0.023783594  0.024454405           22 
  295000   0.77759551   -6.6528733    84.126622  0.023764583   0.02438664           34 
  296000   0.78267251      -6.6459    84.119995  0.023682431  0.024319318           19 
  297000   0.80400015   -6.6781189     84.23657  0.023635401  0.024252129          123 
  298000   0.79047785   -6.6516401    84.092529  0.023515808    0.0241852          121 
  299000    0.7789746   -6.6705681    84.185505  0.023463073  0.024118419           62 
  300000   0.81117355   -6.6981309    84.227559  0.023396544   0.02405177          126 
  301000   0.77951221   -6.6855972    84.640918  0.023433255   0.02398557          108 
  302000      0.75865   -6.6994489    84.530679  0.023325243  0.023918976           66 
  303000   0.78574389   -6.7169536    84.593417  0.023265516  0.023852177           98 
  304000   0.79236224   -6.7029098    84.609058  0.023193272  0.023785315           62 
  305000   0.77581093   -6.6814978    84.667692  0.023133249  0.023718939           69 
  306000   0.77255395   -6.6677323    84.890252   0.02311826  0.023652575          123 
  307000   0.76045081     -6.67985    84.432243  0.022918633  0.023585958           48 
  308000   0.77643208   -6.6874848    84.935236  0.022980313  0.023519377           69 
  309000   0.78078023   -6.6913044    84.982569  0.022918708  0.023452882           79 
  310000   0.78328437   -6.7069992    85.022418  0.022855489  0.023386712           68 
  311000   0.78823322   -6.6984279    84.974072  0.022769044  0.023320925           78 
  312000   0.78130382    -6.702202    85.201706  0.022756866  0.023255183           20 
  313000   0.76196718   -6.6874488    85.250303  0.022697099  0.023189591           14 
  314000   0.77670453   -6.7317863    85.414284  0.022668334  0.023124095           19 
  315000   0.77049559   -6.7227148    85.366348   0.02258369  0.023058587           15 
  316000   0.75516088   -6.7354703    85.322662  0.022500702  0.022992895           25 
  317000   0.76658278   -6.7140057    85.088124  0.022368066  0.022926839           29 
  318000   0.76039237    -6.743632    85.365163  0.022370326  0.022861173           43 
  319000   0.74434794   -6.6967014    85.392901  0.022307445   0.02279554          102 
  320000   0.75428657   -6.7479484    85.647776  0.022304108  0.022730206           96 
  321000   0.75159875   -6.7245439    85.627296  0.022229308  0.022665491          115 
  322000   0.75445931   -6.7286679    85.643374  0.022164434   0.02260072          175 
  323000   0.74412678   -6.7512251    85.704708  0.022111638  0.022536181          201 
  324000   0.75144365   -6.7816483    85.904244  0.022094713  0.022471624          246 
  325000   0.75256151   -6.7655312    85.622668   0.02195453  0.022406937          230 
  326000   0.74194672   -6.7817796    85.640463  0.021891734  0.022341834          232 
  327000   0.74540057   -6.7707301    85.733738  0.021848557  0.022276972          264 
  328000   0.74733431   -6.7751958    85.781692  0.021794129   0.02221206          319 
  329000   0.74687216   -6.8220744    85.780263  0.021727524  0.022147317          360 
  330000   0.73577648   -6.7819192    85.975056  0.021710873  0.022082408          411 
  331000   0.74049448   -6.8003512     86.06996  0.021669174  0.022017701          388 
  332000   0.72999866   -6.8098103    85.839639  0.021546094  0.021953028          439 
  333000   0.71776864   -6.8138352    85.877139  0.021490775  0.021888273          517 
  334000    0.7168968   -6.8211058    85.896017  0.021431142  0.021823361          551 
  335000   0.73612169   -6.8321006    85.931774  0.021376063  0.021758924          526 
  336000   0.72792992   -6.8299766    85.934951  0.021313232   0.02169446          613 
  337000   0.72974731   -6.8341253     86.08709  0.021287609  0.021630118          661 
  338000   0.74651528   -6.8559402    86.047745  0.021214927  0.021565793          669 
  339000   0.73044985   -6.8764982    86.051005  0.021153148  0.021501804          705 
  340000   0.72973555   -6.8501917    86.254767  0.021140874  0.021438081          777 
  341000    0.7137561   -6.8778839     86.08428  0.021037214   0.02137392          961 
  342000    0.7274043   -6.8873488    86.119362   0.02098425  0.021309271         1073 
  343000   0.71284261   -6.9041118    85.860438  0.020860165  0.021244751         1155 
  344000   0.72152139   -6.9074343    86.034004  0.020841571  0.021180226         1230 
  345000   0.70756298    -6.938608    85.946783  0.020760092  0.021115704         1408 
  346000   0.71125002   -6.9435647    85.993149  0.020711259  0.021051029         1547 
  347000   0.72398524   -6.9385937    85.961983  0.020644088  0.020986082         1711 
  348000   0.73256555    -7.004499    85.740706  0.020531778  0.020920791         1976 
  349000   0.71237287   -6.9826687    85.791896  0.020485171  0.020855503         2020 
  350000   0.70570051   -7.0043877    85.719547  0.020409416  0.020790334         2091 
  351000   0.72224618   -7.0369688    85.746488  0.020357666  0.020725165         2183 
  352000   0.69711998   -7.0779133    85.572807  0.020258714  0.020659768         2474 
  353000   0.70070867   -7.0814667    85.611542  0.020210468  0.020593826         2724 
  354000   0.70364789   -7.1513933    85.365898   0.02009555   0.02052734         3083 
  355000   0.68194478   -7.1880845    85.366739  0.020039141  0.020460297         3364 
  356000   0.70024395   -7.1980193    85.305685  0.019968559  0.020392898         3449 
  357000   0.69803998   -7.2785161     84.94466  0.019828352  0.020325147         3599 
  358000   0.70386192   -7.2962842    84.771278  0.019732607  0.020256772         3767 
  359000   0.69755024   -7.2702445    84.899432  0.019707389  0.020188373         3742 
  360000     0.687465   -7.3351505    84.531781  0.019567542  0.020119774         3804 
  361000   0.69570461   -7.3330233    84.775964  0.019569705  0.020051171         3811 
  362000   0.68789422   -7.3485496    84.659231  0.019488773  0.019982762         3841 
  363000    0.6947941   -7.3603378    84.624106  0.019427022  0.019914409         3853 
  364000   0.67726175   -7.3634524    84.639532  0.019377182  0.019846062         3865 
  365000   0.68016973   -7.3858146    84.438755  0.019278255  0.019777682         3903 
  366000   0.68131352   -7.4051601    84.447669  0.019227611  0.019709448         3905 
  367000   0.66585276   -7.4089316    84.413418  0.019167443  0.019641309         3908 
  368000   0.68089105   -7.4096529    84.355723  0.019102292  0.019573247         3900 
  369000   0.67094482   -7.4457456    84.465707  0.019075363  0.019505168         3920 
  370000   0.66577206   -7.4291464    84.501958  0.019031972  0.019437286         3916 
  371000   0.68291068   -7.4354334    84.290346  0.018933141  0.019369429         3948 
  372000   0.67524923   -7.4386754    84.364065   0.01889876  0.019301805         3936 
  373000   0.67118354   -7.4601494    84.364549  0.018848201  0.019234178         3949 
  374000   0.68048839   -7.4450381    84.244541  0.018771065  0.019166762         3936 
  375000   0.66943944    -7.460928    84.179724  0.018706605  0.019099535         3941 
  376000   0.66187248   -7.4761233    84.149033  0.018650052   0.01903246         3957 
  377000   0.67874715   -7.4700113    84.156429  0.018602217  0.018965378         3950 
  378000   0.66327414   -7.4675776    83.988493  0.018515982  0.018898291         3961 
  379000   0.67562952   -7.5127748    84.094541  0.018490444  0.018831418         3975 
  380000   0.65332683   -7.4993896    83.915304  0.018402479  0.018764715         3969 
  381000   0.65180737    -7.495445    84.030255  0.018379321  0.018698021         3969 
  382000   0.66349486   -7.5050811    83.990067   0.01832244  0.018631713         3974 
  383000   0.65775134   -7.5066425    84.107354  0.018300121  0.018565562         3970 
  384000   0.65786266   -7.4979483    83.968276  0.018222282   0.01849969         3979 
  385000    0.6691003   -7.5148041    84.213457  0.018228021   0.01843409         3975 
  386000   0.64887385   -7.5134286    83.980107   0.01813042  0.018368699         3963 
  387000   0.64907952   -7.5073872    84.061642  0.018101129  0.018303472         3975 
  388000   0.63887881   -7.5205318    83.963824  0.018033467   0.01823846         3980 
  389000    0.6558405   -7.5235299    83.981738  0.017990946  0.018173685         3985 
  390000   0.64225902   -7.5300992    84.085106  0.017966903  0.018109161         3969 
  391000   0.66322822   -7.5324994     83.98183  0.017898941  0.018044888         3968 
  392000   0.64286871   -7.5483214    83.859711  0.017827319  0.017980761         3964 
  393000   0.64662366   -7.5470186    84.042339  0.017820682  0.017916942         3970 
  394000   0.63927215   -7.5638013    83.674083  0.017697564  0.017853223         3983 
  395000   0.64886775    -7.540377    83.937952  0.017708429  0.017789796         3980 
  396000   0.63156187   -7.5367192    83.950862  0.017666427  0.017726589         3984 
  397000   0.64679325   -7.5396635    83.941896  0.017620045  0.017663654         3975 
  398000   0.62707433   -7.5526847    83.922964   0.01757181  0.017600884         3989 
  399000   0.62054485   -7.5558287     83.80576  0.017503292  0.017538425         3990 
  400000   0.63611682   -7.5710278    83.953032  0.017490215  0.017476192         3990 
  401000    0.6275226   -7.5782256    83.847179  0.017424601  0.017414304         3985 
  402000   0.63647587   -7.5740588    83.764894  0.017364199  0.017352674         3981 
  403000   0.62438046   -7.5518252     83.78362  0.017324984  0.017291186         3978 
  404000    0.6220987   -7.5787941    83.716167  0.017268186  0.017230001         3978 
  405000   0.62383477   -7.5722646    83.765929  0.017235788  0.017169058         3992 
  406000   0.61508273   -7.5894923    83.885384  0.017217854  0.017108334         3993 
  407000   0.60636423   -7.5797942    83.727604  0.017143244  0.017047785         3987 
  408000   0.62986893   -7.5811025     83.85443   0.01712713  0.016987518         3986 
  409000   0.61889097   -7.5908344    83.790622  0.017072254  0.016927502         3991 
  410000   0.61424541   -7.5829343    83.791416  0.017030776  0.016867776         3991 
  411000   0.60625183   -7.6145309    83.764017  0.016983783  0.016808169         3988 
  412000   0.61460117   -7.5897058    83.765213  0.016942802  0.016748893         3984 
  413000   0.60368989    -7.600895    83.896679  0.016928305  0.016689732         3987 
  414000   0.60953243   -7.6061776    83.818531  0.016871685  0.016630849         3987 
  415000   0.60832633   -7.5912423    83.703033  0.016807838  0.016572209         3991 
  416000   0.58641906   -7.6034083    83.752171  0.016777278  0.016513732         3988 
  417000   0.60234692   -7.6130373    83.767558  0.016740119  0.016455481         3985 
  418000   0.59365217   -7.6100814    83.755743  0.016697716  0.016397543         3985 
  419000   0.60915374   -7.5867819     83.54212  0.016615378  0.016339857         3989 
  420000   0.58503331   -7.6149914    83.625106  0.016592283  0.016282332         3995 
  421000   0.59067013   -7.6183986    83.750835  0.016577758  0.016225004         3987 
  422000   0.59530131   -7.6197824    83.705751  0.016529572  0.016167898         3988 
  423000   0.60229968   -7.5987201    83.730154  0.016495302   0.01611103         3992 
  424000   0.59408749   -7.6073557    83.709691  0.016452376  0.016054423         3989 
  425000   0.59646976   -7.6116595    83.664858  0.016404874     0.015998         3985 
  426000   0.58971078   -7.6183643    83.696181  0.016372492   0.01594186         3992 
  427000    0.5827638    -7.616751    83.561134  0.016307793  0.015885928         3987 
  428000    0.5907064   -7.6359205     83.42526  0.016243236  0.015830159         3994 
  429000    0.5768707   -7.6350562    83.735563  0.016265649  0.015774596         3990 
  430000   0.58250347    -7.613126    83.679899  0.016217035  0.015719342         3991 
  431000   0.57572874   -7.6254167      83.6092  0.016165739  0.015664333         3991 
  432000   0.57272625   -7.6261794    83.559267  0.016118686  0.015609531         3979 
  433000   0.58184953   -7.6383868    83.478935     0.016066  0.015554961         3984 
  434000   0.57973434   -7.6346549    83.528709  0.016038539  0.015500603         3987 
  435000   0.55853876   -7.6113357    83.608271   0.01601691  0.015446447         3993 
  436000   0.56341836   -7.6374094    83.475874  0.015954869  0.015392494         3992 
  437000   0.57566471   -7.6409739     83.40672  0.015905172  0.015338817         3989 
  438000   0.57227964   -7.6351052    83.501694  0.015886928  0.015285312         3987 
  439000   0.56693418   -7.6398455    83.435949  0.015838259  0.015232041         3982 
  440000   0.55877428   -7.6666546    83.542613  0.015822465  0.015178972         3989 
  441000   0.56107961   -7.6323661    83.440417  0.015767275  0.015126145         3987 
  442000   0.56174239   -7.6497716    83.578893   0.01575771  0.015073517         3989 
  443000   0.55582162   -7.6498852    83.516501  0.015710403  0.015021129         3992 
  444000   0.55684062   -7.6499123    83.426289  0.015658087  0.014968944         3981 
  445000   0.56104372   -7.6408516    83.469943  0.015631076   0.01491698         3991 
  446000   0.56029458   -7.6659634    83.490948  0.015599953  0.014865249         3991 
  447000   0.56012759   -7.6674409    83.370935   0.01554268    0.0148137         3991 
  448000   0.54752783   -7.6645232      83.5534  0.015541927  0.014762375         3985 
  449000   0.55792984   -7.6603899    83.469627  0.015491764  0.014711282         3992 
  450000    0.5486758   -7.6885597    83.378786  0.015440516  0.014660353         3988 
  451000   0.54615072   -7.6465436    83.478485  0.015424702    0.0146097         3987 
  452000   0.54603269   -7.6768904    83.427164  0.015381114  0.014559305         3991 
  453000   0.54734869   -7.6684346     83.26129  0.015316646  0.014509119         3995 
  454000    0.5383824   -7.6765673    83.413646  0.015310875  0.014459084         3990 
  455000   0.53413017   -7.6956079    83.373997  0.015269963  0.014409252         3990 
  456000   0.53232514   -7.6758158    83.444753  0.015249407  0.014359641         3993 
  457000   0.53049267   -7.6840681    83.351381  0.015199012  0.014310219         3991 
  458000   0.54031229    -7.668497    83.438416  0.015181662  0.014261084         3990 
  459000   0.53694934   -7.6707441    83.260937  0.015116365  0.014212171         3990 
  460000   0.52833199   -7.6906387    83.244816  0.015080583  0.014163344         3996 
  461000    0.5243237   -7.7116464    83.368356  0.015070202  0.014114761         3993 
  462000   0.52856476   -7.6876555    83.321302  0.015029095   0.01406634         3989 
  463000   0.51980095   -7.7067727    83.268497  0.014987131   0.01401827         3993 
  464000   0.52517691   -7.6859476    83.227354  0.014947441  0.013970353         3993 
  465000   0.51065555   -7.7014097    83.187322  0.014908122  0.013922644         3995 
  466000   0.51841235   -7.7013063     83.17298  0.014873566  0.013875141         3996 
  467000   0.51059684   -7.7005271    83.277259  0.014860325  0.013827775         3994 
  468000   0.51553251   -7.7021846    83.223137  0.014818935  0.013780599         3986 
  469000   0.52264097    -7.717213     83.21788  0.014786404  0.013733663         3995 
  470000   0.52071814   -7.7197162    83.256772  0.014761839  0.013686907         3991 
  471000    0.5056865   -7.7017463     83.19779  0.014720062  0.013640347         3993 
  472000   0.51832682   -7.7119682    83.203415  0.014689868  0.013594046         3994 
  473000   0.52488432   -7.7244013    83.199115  0.014658054  0.013547936         3992 
  474000   0.51676308   -7.7166096    83.084778  0.014607028  0.013501958         3985 
  475000   0.51248552   -7.7270937    83.286476  0.014611662  0.013456246         3995 
  476000   0.50950757   -7.7185816    83.124715  0.014552646   0.01341068         3996 
  477000   0.50009926   -7.7053193    83.088205  0.014515759  0.013365349         3993 
  478000   0.51049953   -7.7240934    83.168311  0.014499357  0.013320192         3992 
  479000   0.50254368   -7.7244975    83.120503   0.01446077  0.013275165         3988 
  480000   0.48759564   -7.7309824    83.085375  0.014424544  0.013230331         3988 
  481000   0.49708093    -7.732113     83.12628  0.014401642  0.013185753         3991 
  482000   0.49159583   -7.7268822    83.127237  0.014371929  0.013141285         3992 
  483000   0.49830298   -7.7396614    82.982424  0.014317188  0.013097022         3986 
  484000   0.49686435   -7.7279067    83.113716  0.014310213  0.013053029         3992 
  485000   0.50080164    -7.731554     83.14484  0.014286055  0.013009172         3990 
  486000   0.49372545   -7.7510578    83.168369  0.014260694  0.012965516         3989 
  487000   0.48469653   -7.7350613    83.016164  0.014205367  0.012922023         3994 
  488000   0.49769203   -7.7537935    83.135081  0.014196564  0.012878735         3991 
  489000   0.50386434   -7.7641111    83.025577  0.014148871  0.012835622         3993 
  490000   0.48709692   -7.7437178    83.154088  0.014141852  0.012792666         3995 
  491000   0.48658965    -7.746072    82.963103  0.014080635  0.012749896         3994 
  492000    0.4818621    -7.746547    82.941256  0.014048316  0.012707321         3991 
  493000   0.47905788   -7.7607653    83.006413  0.014030834  0.012664927         3988 
  494000   0.46990741   -7.7543026    82.971676  0.013996572  0.012622697         3989 
  495000   0.48924634   -7.7655343    83.023957  0.013977097  0.012580683         3991 
  496000    0.4757795   -7.7420071    82.861372  0.013921601  0.012538876         3995 
  497000   0.46857508   -7.7446617    83.066316  0.013927954  0.012497228         3995 
  498000   0.47464645   -7.7663055    82.899477  0.013872068    0.0124557         3996 
  499000    0.4763983   -7.7768165    82.976879  0.013857194  0.012414366         3996 
  500000    0.4691362   -7.7565824     82.92053  0.013820088  0.012373205         3989 
  501000   0.47232676   -7.7617818    82.929714  0.013794031  0.012332217         3993 
  502000   0.46257299   -7.7795364    82.999912  0.013778206  0.012291454         3995 
  503000   0.46130785   -7.7828064    82.940567  0.013740982  0.012250827         3997 
  504000   0.46097693   -7.7768891    82.920842  0.013710457  0.012210388         3994 
  505000   0.46400916   -7.7907291    82.803318  0.013663914   0.01217013         3996 
  506000   0.46183227   -7.7878782    82.890899  0.013651334  0.012130023         3993 
  507000   0.45925428   -7.7807868    82.940352  0.013632536  0.012090116         3993 
  508000   0.45938505   -7.7992259    82.884348  0.013596514  0.012050368         3993 
  509000   0.45471829   -7.7926088    82.842662  0.013562977  0.012010771         3994 
  510000   0.45733554   -7.7677009    82.895604  0.013545033  0.011971377         3992 
  511000   0.45035517   -7.7873839    82.908535  0.013520635  0.011932139         3994 
  512000   0.44940033   -7.8030797    82.876861  0.013489072  0.011893074         3996 
Loop time of 1050.56 on 48 procs for 500000 steps with 4000 atoms

Performance: 82241.980 tau/day, 475.937 timesteps/s
99.4% CPU use with 48 MPI tasks x no OpenMP threads

MPI task timing breakdown:
Section |  min time  |  avg time  |  max time  |%varavg| %total
---------------------------------------------------------------
Pair    | 64.054     | 67.042     | 71.047     |  15.6 |  6.38
Neigh   | 6.5706     | 6.7473     | 6.9377     |   2.4 |  0.64
Comm    | 56.127     | 61.153     | 64.654     |  18.9 |  5.82
Output  | 0.91035    | 0.91088    | 0.91949    |   0.1 |  0.09
Modify  | 900.7      | 903        | 906.72     |   6.0 | 85.95
Other   |            | 11.7       |            |       |  1.11

Nlocal:        83.3333 ave          89 max          78 min
Histogram: 2 4 6 4 11 7 4 5 3 2
Nghost:        1748.67 ave        1762 max        1726 min
Histogram: 1 0 3 2 4 5 18 5 8 2
Neighs:        10476.5 ave       11293 max        9525 min
Histogram: 1 0 1 11 7 7 11 7 2 1
FullNghs:      20952.4 ave       22689 max       19267 min
Histogram: 1 2 5 8 9 11 4 4 3 1

Total # of neighbors = 1005714
Ave neighs/atom = 251.42850
Neighbor list builds = 26995
Dangerous builds = 0

#clear
#
#next RN
#
#jump SELF
Total wall time: 0:17:33
