
units lj                  # Use reduced LJ style units
atom_style atomic         # Uncharged point particles
atom_modify map hash      # Needed for indexing of clusters etc
                          # Used to be able to find where atoms are in relation to each other.

lattice fcc 1.0 spacing 1 1 1
Lattice spacing in x,y,z = 1.5874011 1.5874011 1.5874011
region box block 0 10 0 10 0 10 units lattice
create_box 2 box
Created orthogonal box = (0.0000000 0.0000000 0.0000000) to (15.874011 15.874011 15.874011)
  3 by 4 by 4 MPI processor grid
create_atoms 1 box
Created 4000 atoms
  using lattice units in orthogonal box = (0.0000000 0.0000000 0.0000000) to (15.874011 15.874011 15.874011)
  create_atoms CPU = 0.002 seconds
set type 1 type/fraction 2 0.47 78393
Setting atom values ...
  1873 settings made for type/fraction
mass 1 1.0
mass 2 1.0
pair_style lj/cut  3.5
pair_modify tail  yes
pair_coeff 1  1  1.0  1.0   # Intearaction between 1 and 1 set with epsilon = 1 and sigma = 1
pair_coeff 1  2  1.5  0.8
pair_coeff 2  2  0.5  0.88

write_data data.0
System init for write_data ...
Neighbor list info ...
  update every 1 steps, delay 10 steps, check yes
  max neighbors/atom: 2000, page size: 100000
  master list distance cutoff = 3.8
  ghost atom cutoff = 3.8
  binsize = 1.9, bins = 9 9 9
  1 neighbor lists, perpetual/occasional/extra = 1 0 0
  (1) pair lj/cut, perpetual
      attributes: half, newton on
      pair build: half/bin/atomonly/newton
      stencil: half/bin/3d
      bin: standard
WARNING: Not all mixed pair coeffs generated from mixing. Use write_data with 'pair ij' option to store all pair coeffs. (../write_data.cpp:312)


#############################
#   M E L T   S Y S T E M   #
#############################

velocity all create 2.4 1741580 mom yes dist gaussian # Assign velocities
                                                    # Temperature 2.4, random number seed, zero linear momentum
                                                                                # Gaussian distribution

timestep 0.002   # simulation timestep
thermo 1000       # output thermodynamic data every 1000 steps bf 100

# Define a fix  in this case with index 1 applied to all
# particles in the simulation. This fix is for simulations
# in the anisotropic NPT ensemble. Note that we use the MTK
# correction.
fix 1 all npt temp 2.4 2.4 0.1 iso 5.68 5.68 0.5 mtk yes tchain 5 pchain 5 # Use NPT ensemble
                                                                         # Set temperature and pressure and damping
                                                                         # Numbers of thermostats in chain and in barostat
run 10000          # run for 10000 steps
Per MPI rank memory allocation (min/avg/max) = 3.642 | 3.644 | 3.648 Mbytes
Step Temp E_pair E_mol TotEng Press Volume 
       0          2.4   -5.4815223            0   -1.8824223   -4.2035566         4000 
    1000     2.345151    -4.935014            0    -1.418167    5.4794784    3771.4082 
    2000     2.409942   -4.9732832            0   -1.3592739    5.5623217    3764.5704 
    3000    2.3593104   -5.0323848            0    -1.494304    5.4954771    3732.4593 
    4000    2.4234414   -4.9092628            0   -1.2750095    5.4960336    3791.6165 
    5000    2.4059874   -5.0017565            0   -1.3936776     5.481943    3754.5404 
    6000    2.3651196   -5.0148912            0   -1.4680986    5.4214834    3739.8576 
    7000    2.4242192   -4.9817797            0     -1.34636    5.6561275     3753.397 
    8000     2.422031   -4.9408586            0   -1.3087203    5.5648771    3766.9857 
    9000    2.4191436   -4.9762827            0   -1.3484744    5.6712034    3741.5035 
   10000    2.4008116   -4.9887603            0   -1.3884433    5.2609058    3770.6904 
Loop time of 2.6145 on 48 procs for 10000 steps with 4000 atoms

Performance: 660928.264 tau/day, 3824.816 timesteps/s
99.6% CPU use with 48 MPI tasks x no OpenMP threads

MPI task timing breakdown:
Section |  min time  |  avg time  |  max time  |%varavg| %total
---------------------------------------------------------------
Pair    | 1.1532     | 1.2301     | 1.3382     |   3.2 | 47.05
Neigh   | 0.20941    | 0.22113    | 0.23741    |   0.8 |  8.46
Comm    | 0.8073     | 0.88258    | 0.98342    |   4.8 | 33.76
Output  | 0.00024266 | 0.00024883 | 0.00031708 |   0.0 |  0.01
Modify  | 0.21544    | 0.26494    | 0.31054    |   5.4 | 10.13
Other   |            | 0.0155     |            |       |  0.59

Nlocal:        83.3333 ave          92 max          75 min
Histogram: 2 4 6 3 8 10 4 8 2 1
Nghost:        1708.56 ave        1731 max        1682 min
Histogram: 2 2 5 5 10 6 5 2 8 3
Neighs:        10125.8 ave       11187 max        8987 min
Histogram: 2 3 5 4 7 9 6 6 2 4

Total # of neighbors = 486038
Ave neighs/atom = 121.50950
Neighbor list builds = 905
Dangerous builds = 185

# Equilibrate just above the melting temperature to avoid step fn in T

fix 1 all npt temp 1.25 1.25 0.1 iso 5.68 5.68 0.5 mtk yes tchain 5 pchain 5
run 2000
Per MPI rank memory allocation (min/avg/max) = 3.644 | 3.646 | 3.649 Mbytes
Step Temp E_pair E_mol TotEng Press Volume 
   10000    2.4008116   -4.9887603            0   -1.3884433    5.2609058    3770.6904 
   11000    1.2456247   -7.0401041            0   -5.1721342    5.7725318    2937.6644 
   12000    1.2470685   -7.1464719            0   -5.2763368    5.6494947    2915.8968 
Loop time of 0.636976 on 48 procs for 2000 steps with 4000 atoms

Performance: 542563.247 tau/day, 3139.834 timesteps/s
99.6% CPU use with 48 MPI tasks x no OpenMP threads

MPI task timing breakdown:
Section |  min time  |  avg time  |  max time  |%varavg| %total
---------------------------------------------------------------
Pair    | 0.29066    | 0.3108     | 0.33026    |   1.7 | 48.79
Neigh   | 0.040815   | 0.043136   | 0.047428   |   0.5 |  6.77
Comm    | 0.20917    | 0.23112    | 0.2536     |   2.3 | 36.28
Output  | 5.256e-05  | 5.3825e-05 | 7.0574e-05 |   0.0 |  0.01
Modify  | 0.042542   | 0.046902   | 0.051766   |   1.2 |  7.36
Other   |            | 0.004955   |            |       |  0.78

Nlocal:        83.3333 ave          93 max          74 min
Histogram: 1 2 4 9 11 8 6 3 3 1
Nghost:        2031.48 ave        2055 max        2000 min
Histogram: 4 1 2 1 9 3 13 5 8 2
Neighs:        13108.7 ave       14560 max       11570 min
Histogram: 4 1 5 5 9 7 5 4 4 4

Total # of neighbors = 629216
Ave neighs/atom = 157.30400
Neighbor list builds = 143
Dangerous builds = 10

#############################
# L I N E A R  Q U E N C H  #
#############################

# Define solid atoms. This closely follows ten Wolde  Ruiz-Montero and Frenkel  Faraday Discuss  1996  104  93-110
# Compute components of the per-atom q6 vector
compute q6 all orientorder/atom degrees 1 6 components 6 nnn NULL cutoff 1.3 # compute the Q6 parameter.
                                                                             # Use all neighbours within 1.3 unit cell.

# get number of connections
compute coord_number all coord/atom orientorder q6 0.5

# An atom is solid if it has 8 or more connections (of a possible 14)
variable is_solid atom c_coord_number>=8
group solid dynamic all var is_solid    # Must be dynamic to update
dynamic group solid defined

# do clustering
compute cluster solid cluster/atom 1.3 # Create a cluster where all atoms within are solid and max 1.3 units from another member

# define chunks one chunk per cluster
compute clus_chunks solid chunk/atom c_cluster nchunk every compress yes  # Says which atoms are in which chunk

# count the size of each chunk
compute size_chunks solid property/chunk clus_chunks count


# Find the maximum entry in the vector of chunk sizes
variable max_n equal max(c_size_chunks)


# Thermo style which includes this variable
# thermo_style custom step temp pe vol v_max_n

thermo ${N}  # Print the thermo information every 100 steps
thermo 1000  

# Reset the npt fix at a lower temperature (below freezing)
fix 1  all npt temp  ${temp} ${temp}  0.1  iso  5.68  5.68  0.5  mtk yes tchain  5  pchain  5
fix 1  all npt temp  0.45 ${temp}  0.1  iso  5.68  5.68  0.5  mtk yes tchain  5  pchain  5
fix 1  all npt temp  0.45 0.45  0.1  iso  5.68  5.68  0.5  mtk yes tchain  5  pchain  5

dump dmp2 all dcd ${N} traj.dcd
dump dmp2 all dcd 1000 traj.dcd


compute msd all msd com yes
variable twopoint equal c_msd[4]/6/(step*dt+1.0e-6)
fix 9 all vector 10 c_msd[4]
variable fit equal slope(f_9)/6/(10*dt)
thermo_style custom step temp pe c_msd[4] v_twopoint v_fit v_max_n

fix 1 all npt temp 1.25 ${temp} 0.1 iso 5.68 5.68 0.5 mtk yes tchain 5 pchain 5
fix 1 all npt temp 1.25 0.45 0.1 iso 5.68 5.68 0.5 mtk yes tchain 5 pchain 5
run 2000000 # 5000000  # Run for this many steps
Neighbor list info ...
  update every 1 steps, delay 10 steps, check yes
  max neighbors/atom: 2000, page size: 100000
  master list distance cutoff = 3.8
  ghost atom cutoff = 3.8
  binsize = 1.9, bins = 8 8 8
  4 neighbor lists, perpetual/occasional/extra = 1 3 0
  (1) pair lj/cut, perpetual
      attributes: half, newton on
      pair build: half/bin/atomonly/newton
      stencil: half/bin/3d
      bin: standard
  (2) compute orientorder/atom, occasional
      attributes: full, newton on
      pair build: full/bin/atomonly
      stencil: full/bin/3d
      bin: standard
  (3) compute coord/atom, occasional
      attributes: full, newton on
      pair build: full/bin/atomonly
      stencil: full/bin/3d
      bin: standard
  (4) compute cluster/atom, occasional
      attributes: full, newton on
      pair build: full/bin/atomonly
      stencil: full/bin/3d
      bin: standard
Per MPI rank memory allocation (min/avg/max) = 9.834 | 9.838 | 9.842 Mbytes
Step Temp PotEng c_msd[4] v_twopoint v_fit v_max_n 
   12000    1.2470685   -7.1464719 2.9079385e-30 2.0194017e-32 8.3333333e+20            1 
   13000    1.2485584   -7.1593532   0.46084207 0.0029541157  0.037293458            3 
   14000    1.2408313    -7.152217   0.86829408 0.0051684169  0.035610493            2 
   15000    1.2453733   -7.1520933    1.2626756 0.0070148645  0.034035395            3 
   16000    1.2181164   -7.1490698    1.7004922 0.0088567301  0.034186677            1 
   17000    1.2418823   -7.1256364    2.0652546  0.010123797  0.034006533            6 
   18000    1.2464172   -7.1397887    2.4219984  0.011212955  0.033456026            2 
   19000    1.2574318   -7.1731476    2.8301709   0.01241303  0.033057409            2 
   20000    1.2551371   -7.1488936     3.187774  0.013282391  0.032791946            2 
   21000    1.2551745    -7.160372    3.6857011  0.014625798  0.032881884            1 
   22000    1.2669037   -7.1271588     4.120868  0.015609348  0.033283079            4 
   23000    1.2387612   -7.1739028    4.4880615  0.016261092  0.033389886            3 
   24000    1.2497804   -7.1536402    4.8318334  0.016777199  0.033355119            2 
   25000    1.2425951   -7.1845042    5.2317817  0.017439272  0.033250305            2 
   26000    1.2375782   -7.1678973    5.6740983  0.018186212  0.033267637            3 
   27000     1.270453   -7.1780148      6.18673  0.019094845  0.033461874            2 
   28000    1.2538079    -7.195904    6.7223297  0.020006933  0.033799965            1 
   29000    1.2442245   -7.1536846    7.1509005  0.020548564  0.034148773            1 
   30000    1.2612259   -7.1905821    7.5399183  0.020944217  0.034404239            2 
   31000     1.238449   -7.1695905    7.9437061  0.021354048  0.034545574            2 
   32000    1.2208156   -7.1515453    8.2509566  0.021486866  0.034545972            3 
   33000    1.2477669   -7.1658984    8.5736291  0.021650578  0.034518586            2 
   34000    1.2478224   -7.1311523     8.944575  0.021922978   0.03439073            3 
   35000    1.2593388   -7.1902292    9.3266496  0.022206308  0.034253905            2 
   36000    1.2391592   -7.1161414     9.772714  0.022622023  0.034196882            2 
   37000    1.2465369   -7.2018461    10.111823  0.022774376  0.034087395            2 
   38000     1.245269   -7.1857109    10.481808  0.022986422  0.033978384            2 
   39000    1.2646283   -7.2002955    10.796276  0.023068965  0.033861232            3 
   40000    1.2113402   -7.1653782    11.107342  0.023140295  0.033696068            2 
   41000    1.2530167   -7.1848305    11.460744  0.023294194  0.033544992            2 
   42000    1.2179785   -7.1320399    11.870377  0.023552335    0.0333973            2 
   43000    1.2331696   -7.1949496     12.26874  0.023776627  0.033261102            1 
   44000    1.2384796   -7.1826104    12.635959  0.023931741  0.033158578            1 
   45000    1.2363738   -7.1799618    13.101133  0.024261357  0.033083285            4 
   46000    1.1792569   -7.2102551    13.552021  0.024550762  0.033028431            2 
   47000    1.2314595    -7.195968    13.915329  0.024672569  0.032991189            2 
   48000    1.2436935   -7.1944695    14.263518  0.024763052  0.032959747            3 
   49000    1.2466839   -7.2115927    14.680308   0.02496651  0.032929879            3 
   50000    1.2007017   -7.1622635     15.11819  0.025196983  0.032907307            1 
   51000    1.2467009   -7.1666138     15.53213  0.025379297   0.03289278            1 
   52000    1.2645753   -7.1750049    15.966205  0.025586866  0.032900837            2 
   53000    1.2311334   -7.2023598    16.303859  0.025634999  0.032914261            1 
   54000    1.2333767    -7.154541    16.738755  0.025831412  0.032912264            3 
   55000    1.2658664   -7.1381496    17.110443  0.025924914  0.032902954            2 
   56000    1.2299787   -7.1603071    17.426668  0.025932542  0.032890149            2 
   57000     1.228841   -7.1534724    17.885354  0.026148178  0.032877352            2 
   58000    1.2241509   -7.1925548    18.190536  0.026135828  0.032857529            1 
   59000    1.2329985    -7.194064    18.719951  0.026440608  0.032849518            3 
   60000    1.2385897   -7.1758268    19.228905  0.026706812  0.032861619            3 
   61000    1.2302519   -7.2650358    19.479683  0.026611589  0.032875181            2 
   62000    1.2356601   -7.1477331    19.916877  0.026769996   0.03287575            2 
   63000    1.2521172   -7.2240696    20.328171  0.026889114  0.032885511            2 
   64000     1.212942   -7.2372921    20.594597  0.026815881  0.032877521            2 
   65000    1.2378245    -7.152191    21.103538  0.027055818  0.032863951            2 
   66000    1.2380691   -7.1944564     21.46555  0.027102968  0.032867882            1 
   67000    1.2199271   -7.2347621    21.680258  0.026965495  0.032858143            4 
   68000    1.2184178   -7.1365915    22.054195    0.0270272  0.032828677            3 
   69000     1.212175   -7.2033493    22.149919  0.026751109  0.032777328            2 
   70000    1.2393344    -7.174501    22.600015   0.02690478  0.032714631            2 
   71000    1.2354463   -7.1789178    23.084131   0.02709405  0.032670384            4 
   72000    1.2298882   -7.1448542    23.603744  0.027319148  0.032640114            3 
   73000    1.2126724   -7.1862496    23.843906   0.02721907  0.032607611            3 
   74000    1.2307959   -7.1744263    24.297171  0.027361678  0.032573155            2 
   75000    1.2327269   -7.2181983    24.817436  0.027574929  0.032554291            2 
   76000    1.2467392   -7.2326326    25.112516  0.027535653  0.032544428            2 
   77000     1.214523   -7.1904739    25.484324  0.027580437  0.032536787            1 
   78000    1.2145771   -7.1715034    25.899915  0.027670849  0.032524413            1 
   79000     1.211483   -7.2027951    26.326548   0.02777062  0.032507995            1 
   80000    1.2340096   -7.1908741    26.495831  0.027599823  0.032487907            3 
   81000    1.2383173    -7.133791    26.931464  0.027707267  0.032462625            2 
   82000    1.2472877   -7.1907037    27.114764  0.027555654  0.032430002            1 
   83000    1.2240713   -7.2325011    27.362634  0.027472524  0.032389349            2 
   84000    1.2288998   -7.2056975    27.950519  0.027728689  0.032350859            2 
   85000    1.2245086   -7.2159948    28.044995  0.027495093  0.032311684            2 
   86000    1.2308686   -7.1854755    28.485235  0.027601972  0.032263779            2 
   87000    1.2165408   -7.2055256    28.911688  0.027693188  0.032224997            1 
   88000    1.2432754   -7.2047517    29.246028  0.027695103  0.032187926            2 
   89000    1.2637259   -7.2041906    29.640881  0.027753634  0.032152991            1 
   90000     1.218383   -7.2030025    30.096216  0.027866867  0.032119137            2 
   91000    1.2237421    -7.172239    30.324568   0.02776975  0.032084765            2 
   92000    1.2141633   -7.1858323    30.597704  0.027715311   0.03204449            4 
   93000    1.2302076    -7.202175    30.890985  0.027680094  0.032003024            4 
   94000    1.2132095    -7.235664    31.270821  0.027722359  0.031956946            2 
   95000    1.2131902   -7.2077205     31.74843    0.0278495  0.031916025            2 
   96000    1.2409464   -7.1629535    32.148838  0.027906977  0.031879811            2 
   97000    1.1889834   -7.2541098    32.383375  0.027820769  0.031839517            1 
   98000    1.2044791   -7.1685708    32.625631  0.027742883  0.031800665            3 
   99000    1.2030421   -7.2609217    32.968628   0.02775137  0.031757362            2 
  100000    1.2074231   -7.2542763    33.489542  0.027907951  0.031720359            1 
  101000    1.2123978   -7.2356864    33.806218  0.027892919  0.031686098            3 
  102000    1.2306548   -7.2303875     34.18063  0.027925351  0.031649796            4 
  103000     1.205927   -7.2424677    34.347568  0.027789295  0.031609687            4 
  104000    1.2216078   -7.2344633    34.733559  0.027831377  0.031570484            1 
  105000    1.1767622   -7.2482888    35.271396  0.027993171  0.031535764            2 
  106000    1.2286284   -7.2587744    35.577886  0.027970036  0.031506151            3 
  107000    1.2000945   -7.2867777    36.016488  0.028050224  0.031478262            2 
  108000    1.2466482   -7.2302113    36.430013  0.028109577  0.031457118            2 
  109000    1.2017499   -7.2413612    36.601372    0.0279827   0.03143544            2 
  110000     1.192186   -7.2014039    37.155233  0.028147903  0.031412491            3 
  111000    1.2020811   -7.1952239    37.372418   0.02805737  0.031385149            2 
  112000    1.1968072    -7.222143    37.754274  0.028090978  0.031360092            3 
  113000    1.2211787   -7.1950956    38.154399  0.028137463  0.031333821            1 
  114000    1.1925093   -7.2661806    38.508462   0.02814946   0.03130847            1 
  115000     1.198822   -7.2465605    39.011472  0.028269183  0.031289985            1 
  116000    1.2549886    -7.244441    39.461231  0.028348585  0.031274562            2 
  117000    1.1928531   -7.2191418    39.637987  0.028232184  0.031261178            2 
  118000    1.1953544   -7.2397266    40.144219  0.028350437  0.031244851            2 
  119000    1.2105426   -7.2333743    40.283721  0.028209888  0.031223531            1 
  120000    1.2001733    -7.233659    40.632374  0.028216926  0.031201181            2 
  121000    1.2163776   -7.2714918     40.93997  0.028195572  0.031178287            1 
  122000    1.1927496   -7.2476463    41.372587  0.028259964  0.031159307            2 
  123000    1.2130806   -7.2554219    41.639344  0.028210937  0.031140345            2 
  124000    1.2148425   -7.2342427    42.137976  0.028318532  0.031119109            2 
  125000    1.2172389   -7.2221979    42.369985  0.028246656  0.031094771            2 
  126000    1.1621388   -7.2489886    42.637053  0.028199109  0.031072701            3 
  127000    1.1678684   -7.2192432    43.232165  0.028367562  0.031049723            2 
  128000    1.1874064   -7.2487631    43.323857  0.028205636  0.031027723            3 
  129000    1.1765441   -7.2826105    43.597157  0.028163538   0.03100472            1 
  130000    1.2156741   -7.2627517     43.83025  0.028096314  0.030977689            1 
  131000    1.1982139   -7.2300339     44.06789  0.028033009  0.030948073            3 
  132000    1.1762091    -7.249971    44.443881  0.028058005  0.030916686            3 
  133000     1.201349   -7.2902451    44.548079   0.02791233  0.030880835            3 
  134000    1.2008294   -7.2572675     44.82901  0.027878737  0.030845383            2 
  135000    1.2074259   -7.2715019    45.395461  0.028021889  0.030810584            2 
  136000    1.1823223   -7.2503164    45.958581  0.028160895  0.030778993            3 
  137000     1.193069   -7.2482811    46.051885  0.028012096   0.03074609            1 
  138000     1.212716   -7.2715276    46.344046  0.027985535  0.030715039            1 
  139000    1.1940464   -7.2520747    46.658463    0.0279727  0.030681313            1 
  140000    1.1942744   -7.2802629    47.028782  0.027993323  0.030650571            2 
  141000    1.1901985   -7.2335702    47.362651  0.027992111  0.030620668            1 
  142000    1.2061618   -7.2955477    47.632945  0.027953606  0.030592375            4 
  143000    1.1770426   -7.2946192    47.830307  0.027873139  0.030560515            1 
  144000    1.2078131   -7.3141084     48.46361   0.02804607  0.030532261            2 
  145000    1.1943468     -7.25846    48.680604  0.027977358  0.030503888            2 
  146000    1.1993817   -7.2882867    48.889562  0.027905001  0.030475661            1 
  147000    1.1870259   -7.2420669    49.408051  0.028009099  0.030444746            5 
  148000    1.1907905   -7.3144156    49.309059   0.02776411  0.030411652            2 
  149000    1.1990449   -7.2850382    49.700767   0.02779685  0.030378456            2 
  150000    1.1972633   -7.2881232    49.964491   0.02775805  0.030342745            2 
  151000    1.1695391   -7.2500426    50.481678  0.027859645  0.030309916            3 
  152000    1.1729712   -7.2638132    50.688907  0.027789971  0.030279008            1 
  153000    1.1889023   -7.3291321    51.067529  0.027814558  0.030246121            1 
  154000    1.1764662   -7.3259198    51.423315  0.027826469  0.030217529            4 
  155000    1.1803635     -7.27255    51.732647  0.027813251  0.030187166            1 
  156000    1.1968635   -7.2663067    52.115857  0.027839667  0.030155209            5 
  157000    1.2059129   -7.2565697    52.343722  0.027783292   0.03012106            4 
  158000    1.1822167   -7.2669969    52.334671  0.027602675  0.030089304            3 
  159000    1.1957154   -7.2423527    52.887827  0.027718987  0.030054204            4 
  160000    1.1936649   -7.2671089    52.949704  0.027577971  0.030017588            1 
  161000    1.2048637   -7.3038062    53.519806  0.027701763  0.029982565            1 
  162000    1.1813878   -7.3061721    53.785664  0.027667522  0.029949468            4 
  163000    1.1801732    -7.309619    53.893863    0.0275531  0.029916019            5 
  164000    1.1713316    -7.306605     54.14428  0.027512337  0.029879649            2 
  165000    1.2046779   -7.2639307     54.84253  0.027698248  0.029845093            1 
  166000    1.1622259   -7.2999563    54.959959  0.027590341  0.029811641            3 
  167000    1.1853137   -7.2926219    55.108433  0.027499218  0.029776714            1 
  168000    1.1967486    -7.275988    55.733364  0.027645518  0.029742071            2 
  169000    1.1699564   -7.3098766    55.748505  0.027489401  0.029706915            2 
  170000     1.192538   -7.2847692    56.339756  0.027617527  0.029672726            2 
  171000     1.185668   -7.3115926    56.423825  0.027496991  0.029640993            2 
  172000    1.1962438   -7.2989467     56.83895  0.027538251  0.029610472            2 
  173000    1.1637468   -7.3326727    56.934689  0.027425187  0.029578619            1 
  174000    1.1956442   -7.3072827    57.665524  0.027617588  0.029547078            3 
  175000    1.1815179   -7.3077273    57.575807  0.027417051  0.029517648            1 
  176000    1.1565663   -7.3126285     57.91596   0.02742233  0.029484834            1 
  177000    1.1543908   -7.2891736    58.364629  0.027478639   0.02945365            2 
  178000    1.1762094   -7.3134062    58.606206  0.027437362  0.029422365            5 
  179000    1.1955339   -7.2869404    58.640823  0.027300197  0.029388901            2 
  180000    1.1612503   -7.3174851    58.968285  0.027300132  0.029352218            1 
  181000    1.1907034   -7.2900349    59.227591  0.027268688  0.029316056            1 
  182000    1.1712615   -7.3388988    59.626912    0.0273017  0.029280406            1 
  183000    1.1901952   -7.3145739    60.023116  0.027332931  0.029247739            2 
  184000    1.1854805   -7.3066389    60.421504  0.027364812  0.029218051            1 
  185000    1.1791845   -7.2652384    60.682529  0.027334473  0.029189576            4 
  186000    1.2309027   -7.2837723    60.975032  0.027318563  0.029160579            3 
  187000    1.2040458   -7.3031358    61.429376  0.027374945  0.029134676            3 
  188000    1.1883463   -7.3392893    61.693322   0.02734633  0.029108589            2 
  189000    1.1678493    -7.309585    62.004772  0.027338965  0.029081867            3 
  190000    1.1857704   -7.3408321    62.114233  0.027243085  0.029053427            1 
  191000    1.1693242   -7.3672809    62.696604  0.027354539  0.029027493            1 
  192000    1.1714556   -7.3156962    63.087292  0.027381637  0.029003333            3 
  193000     1.185387   -7.3386742    63.061643  0.027228688  0.028976849            3 
  194000    1.1874939   -7.3524668    63.378795  0.027224568  0.028950071            5 
  195000    1.1828182   -7.2891546    63.877752  0.027298184  0.028922726            3 
  196000    1.1852732   -7.3248416    63.951214  0.027190142  0.028897436            5 
  197000    1.1633354   -7.3261443    64.405777  0.027244407  0.028869978            3 
  198000    1.1587197    -7.342819     64.77318  0.027261439  0.028844437            4 
  199000    1.1796827    -7.337237    65.072461  0.027249774  0.028820593            1 
  200000     1.180043   -7.2975838    65.642171  0.027350904  0.028798006            2 
  201000    1.1385925   -7.3265674    65.729711  0.027251124  0.028777221            2 
  202000    1.1658395   -7.3137892    66.255905  0.027333294  0.028756316            2 
  203000    1.2254853   -7.3072726    66.532344  0.027312128  0.028736573            2 
  204000    1.1675745   -7.2892229    66.775129  0.027277422  0.028715817            5 
  205000    1.1634568   -7.3003703     67.42143  0.027407085  0.028696037            2 
  206000     1.180505     -7.32271    67.642306  0.027363393  0.028676252            2 
  207000    1.1586051   -7.3427452    68.270471  0.027484087  0.028658526            1 
  208000    1.1601432   -7.3304017    68.403155   0.02740511  0.028641898            1 
  209000    1.1687811   -7.3687873    68.334489  0.027246606  0.028624874            1 
  210000    1.2014765   -7.3768209    68.821353  0.027310061  0.028605995            2 
  211000     1.187243   -7.2973372    69.138596  0.027305923  0.028587636            1 
  212000    1.1804974   -7.3624947    69.523865  0.027328563  0.028571476            1 
  213000    1.1355076   -7.3725232    70.043967  0.027403743  0.028556341            2 
  214000    1.1572087   -7.3170834    70.441829  0.027430619  0.028541456            1 
  215000    1.1381177   -7.3390688     70.84562  0.027459543  0.028527725            3 
  216000    1.1837042   -7.3147577    71.335322  0.027521343  0.028516437            1 
  217000    1.1614359   -7.3206717    71.591603  0.027492935  0.028504992            4 
  218000    1.1596597   -7.3282716    71.743326  0.027424819   0.02849253            1 
  219000    1.1492368   -7.3369097    71.834952  0.027334456  0.028479297            3 
  220000    1.1817685   -7.3483815    72.395455  0.027422521  0.028466324            4 
  221000    1.1780552   -7.3358492    72.419112  0.027307357  0.028453165            2 
  222000    1.1906307   -7.4028624     72.67702  0.027281164  0.028438995            2 
  223000     1.160347   -7.3593243    73.232434   0.02736638  0.028424546            2 
  224000    1.1524712   -7.3477539    73.415285  0.027312234  0.028410384            2 
  225000    1.1737453   -7.3078935    73.916678  0.027376548  0.028395118            2 
  226000    1.1519874   -7.3671442    73.641245  0.027153851  0.028378448            2 
  227000    1.1548345   -7.3355236    74.129203  0.027213364  0.028362164            2 
  228000    1.1542607   -7.2969311    74.511592  0.027233769  0.028346007            2 
  229000    1.1611662   -7.3660644    74.638418  0.027160996  0.028330206            1 
  230000    1.1271082   -7.3571684    74.888002  0.027133334  0.028314557            2 
  231000    1.1569559   -7.3579655    75.386277  0.027195626  0.028298448            4 
  232000    1.1639333    -7.434709     75.54287  0.027134652  0.028282989            1 
  233000    1.1498213   -7.3870819    76.076465  0.027209036  0.028268112            4 
  234000    1.1605061   -7.3680544    76.517351  0.027249769  0.028252856            4 
  235000     1.160027   -7.3623397    76.607268  0.027165698  0.028239802            2 
  236000    1.1877066   -7.4054141    77.014589  0.027194417  0.028226545            3 
  237000    1.1647837   -7.3482885    77.637492  0.027298696  0.028213244            2 
  238000    1.1488156   -7.3640367    77.956778   0.02729579  0.028200728            1 
  239000    1.1389015   -7.4289918    78.215987  0.027271962  0.028190349            2 
  240000    1.1629347    -7.367531    78.669058  0.027315645  0.028180301            3 
  241000    1.1484894   -7.3911224     78.94759  0.027298613  0.028170967            3 
  242000    1.1441218   -7.3600728    79.138951  0.027251705   0.02816004            3 
  243000    1.1822363     -7.37303     79.31654   0.02720046  0.028148502            1 
  244000    1.1401119    -7.360459    79.752601   0.02723791  0.028136884            3 
  245000    1.1644435   -7.3666017    80.100682   0.02724513  0.028125708            1 
  246000    1.1486072   -7.4228056    80.126448  0.027143106  0.028114188            2 
  247000    1.1246055   -7.3563898    80.690615  0.027223554  0.028103939            2 
  248000    1.1503163   -7.3839616    80.868104  0.027173422  0.028092429            2 
  249000    1.1375281   -7.4049484    81.207711  0.027177949  0.028081451            1 
  250000    1.1610958   -7.4000367    81.549263  0.027183088  0.028069338            2 
  251000    1.1377065   -7.3819913    81.894224  0.027189317  0.028057124            1 
  252000    1.1546533   -7.3745767    81.901067  0.027083686  0.028043285            6 
  253000    1.1550652   -7.3862691    82.363469  0.027128942  0.028029503            2 
  254000    1.1572819   -7.3756458    82.521142  0.027073866  0.028016583            4 
  255000    1.1514305    -7.395335    83.054064  0.027141851  0.028004122            1 
  256000    1.1389332   -7.3644523    83.512854  0.027185174  0.027992635            1 
  257000    1.1239792   -7.3985185    83.470671  0.027065717  0.027980214            1 
  258000    1.1207753   -7.3734845    83.637577  0.027014721  0.027966173            4 
  259000    1.1497824   -7.3895703    83.884586  0.026989893  0.027953466            2 
  260000    1.1309095   -7.3634966    84.768762  0.027169475  0.027941449            4 
  261000    1.1582427    -7.371045      84.7144   0.02704802  0.027928625            2 
  262000    1.1523415   -7.3663364    85.019949  0.027041969  0.027915726            5 
  263000    1.1446496   -7.3483993    85.542571  0.027104744  0.027903185            2 
  264000    1.1451307   -7.3578287    86.088533   0.02717441  0.027891974            2 
  265000    1.1632837    -7.419569    85.928254  0.027021463  0.027880173            3 
  266000    1.1409988   -7.3824611    86.378491  0.027060931  0.027868634            2 
  267000    1.1429827   -7.3741731    86.586901  0.027024626  0.027857239            2 
  268000    1.1696241   -7.4247714    87.053569  0.027068896  0.027846779            2 
  269000    1.1684275   -7.3945589    87.532888  0.027116756  0.027836805            2 
  270000       1.1429   -7.4164783    87.474073  0.026998171   0.02782624            2 
  271000    1.1748522   -7.4351499    87.736997  0.026979396  0.027813563            2 
  272000     1.146999   -7.3709915    88.219014  0.027027884  0.027801333            3 
  273000    1.1240488   -7.4319547    88.040972  0.026874533  0.027787996            2 
  274000    1.1484782   -7.3912654    88.481121  0.026910317  0.027774774            2 
  275000    1.1493983   -7.4387655    88.973984  0.026961813  0.027762681            2 
  276000    1.1378384    -7.386775    89.288385  0.026959053  0.027750354            4 
  277000     1.115683   -7.3783437    89.411905  0.026898888  0.027737373            2 
  278000    1.1333444   -7.3771383    89.956349  0.026965332  0.027726136            1 
  279000    1.1266177   -7.3827366    90.417555  0.027006438  0.027715005            1 
  280000    1.1243004   -7.3505598    90.937425   0.02706471  0.027703583            4 
  281000    1.1297808   -7.3847849    91.120199  0.027022597  0.027692763            1 
  282000    1.1499614   -7.3528454    91.434187  0.027019559  0.027682645            3 
  283000    1.1518109   -7.3731888    92.041479  0.027102909  0.027674311            4 
  284000    1.1488746    -7.424891    92.015947  0.026999984  0.027664809            3 
  285000    1.1411371   -7.4025831    92.344058  0.027001186   0.02765492            4 
  286000    1.1374077   -7.4015804    92.888732  0.027065481  0.027645842            3 
  287000    1.1584441   -7.4139808    93.099221  0.027032294   0.02763783            5 
  288000    1.1406885   -7.3793879    93.439013  0.027036751  0.027629876            2 
  289000    1.1281143   -7.4059382    93.813196  0.027051095  0.027622201            3 
  290000    1.1465618   -7.4427699    93.799941  0.026954006  0.027613327            5 
  291000    1.1237089   -7.4304761    93.879813  0.026884253  0.027603266            3 
  292000    1.1213816   -7.4243812    94.848653   0.02706868  0.027594481            2 
  293000    1.1464224   -7.3975796    94.718598  0.026939306  0.027585444            1 
  294000    1.1270883   -7.4080857    95.006269  0.026929215  0.027575805            1 
  295000    1.1083461   -7.4188998    95.021773  0.026842309  0.027564866            1 
  296000    1.1295572   -7.4130016    95.438985  0.026869084  0.027552977            3 
  297000    1.1446421   -7.4321822    95.523803  0.026802414  0.027540888            6 
  298000     1.134879   -7.4571746    95.818307  0.026794829  0.027528393            1 
  299000    1.1331761    -7.425686    96.125873  0.026790935  0.027516916            4 
  300000    1.1269542   -7.4336459    96.271729  0.026742147   0.02750547            1 
  301000    1.1281986     -7.43504    96.438134  0.026699373  0.027493003            2 
  302000    1.1454245    -7.418879     97.05536   0.02678128  0.027480587            2 
  303000    1.1197321   -7.4574511    96.444916  0.026525004  0.027467331            1 
  304000    1.1059902   -7.4136973    97.430976  0.026708052  0.027452895            2 
  305000    1.1314356    -7.403015    97.838762  0.026731902  0.027439724            2 
  306000    1.1309656   -7.3945591    98.224808  0.026749675  0.027427136            2 
  307000    1.1453229   -7.4315996    98.394461  0.026708594  0.027415148            1 
  308000      1.14435   -7.4110708    99.042449  0.026797199  0.027404372            2 
  309000    1.1261137    -7.479296    98.983738  0.026694643  0.027392954            1 
  310000    1.1272311   -7.4415075    99.105497  0.026641263  0.027381565            2 
  311000    1.1438684   -7.4409109    99.809419  0.026744217   0.02737011            1 
  312000    1.1106762   -7.3971459    100.19907  0.026762572  0.027359057            2 
  313000    1.1193746   -7.4224514    100.60304  0.026784621  0.027349496            4 
  314000    1.1289812   -7.4531696    100.33826   0.02662905  0.027338135            1 
  315000    1.1151084   -7.4267691    100.73492   0.02664945   0.02732622            2 
  316000    1.1156407   -7.4824994    100.67377  0.026548989  0.027313405            1 
  317000    1.1107187   -7.4298497    101.30897  0.026632222  0.027301362            3 
  318000    1.1175105   -7.4517139    101.76273  0.026667383  0.027289573            2 
  319000    1.1164361   -7.4353479    102.15559  0.026686414  0.027278293            3 
  320000    1.1226707   -7.4451767    102.42125  0.026672201  0.027267759            1 
  321000    1.1164645   -7.4424102    102.83554  0.026696661  0.027258321            4 
  322000    1.1363266   -7.4379674    103.32247  0.026739769  0.027248083            4 
  323000    1.1130013   -7.4833554    103.26094   0.02664111  0.027238729            3 
  324000     1.118086   -7.4924384    103.63039  0.026653906  0.027228367            5 
  325000    1.1182753   -7.4563451    104.14577  0.026704043  0.027217963            2 
  326000    1.1099709   -7.4353646    104.48498  0.026708838  0.027208165            1 
  327000    1.1102094   -7.4398687    104.53259  0.026639295  0.027198066            1 
  328000    1.1423382    -7.424698    105.20207  0.026728167  0.027187788            4 
  329000    1.1033611    -7.457773    104.96195  0.026586107  0.027177195            2 
  330000    1.1176459   -7.4388989    105.17886  0.026560318  0.027166222            2 
  331000     1.126927   -7.4808963    105.20995  0.026487904  0.027154412            1 
  332000    1.1100965   -7.4731556     105.5166   0.02648509  0.027142603            2 
  333000    1.1283855   -7.4773717    105.70694  0.026453187  0.027130024            4 
  334000      1.12901   -7.4859194    106.34009  0.026531958  0.027118466            3 
  335000     1.127971   -7.4820872    106.98236  0.026612529  0.027107768            1 
  336000    1.0940492   -7.4644531    106.87796   0.02650743  0.027097685            1 
  337000      1.12442   -7.4688995    107.75236  0.026644996  0.027087877            2 
  338000    1.1271792   -7.4494561    107.74604  0.026564605  0.027078716            3 
  339000    1.1182809   -7.4915672    107.85441  0.026512884  0.027069395            2 
  340000    1.1119215   -7.4346652    108.31809  0.026548551  0.027059604            3 
  341000      1.12945   -7.4880303    108.90332  0.026613714  0.027050639            2 
  342000    1.1337796   -7.4366481    109.45866  0.026671214   0.02704235            3 
  343000    1.1371819   -7.4632346    109.15298  0.026519188  0.027032935            3 
  344000    1.1372424   -7.4653194    109.09479     0.026428  0.027022219            3 
  345000    1.1111022   -7.5086681    109.35554   0.02641438   0.02701116            5 
  346000    1.1191312   -7.4700862    110.09642  0.026516478  0.027001132            2 
  347000    1.1179714   -7.4594896    110.33209  0.026496659  0.026990856            5 
  348000    1.1233697   -7.4974843    110.34084  0.026422615  0.026980199            2 
  349000    1.1294827   -7.5076469    110.60619  0.026410265  0.026969798            1 
  350000    1.1224349   -7.4042852    111.82394  0.026624748  0.026960422            7 
  351000    1.1180889   -7.4656027    111.81487  0.026546741  0.026951777            1 
  352000    1.1078458   -7.5020761    111.67777  0.026438866  0.026942701            1 
  353000    1.1236936   -7.4835452      112.042  0.026449953  0.026932733            1 
  354000    1.1099324   -7.4688136    112.05218  0.026377632  0.026922745            2 
  355000    1.0906243   -7.4994189     112.6057  0.026433264  0.026912922            2 
  356000    1.1055623   -7.4479147    112.82374  0.026410052   0.02690355            2 
  357000    1.1157127   -7.5008791    112.84625  0.026341328  0.026893534            2 
  358000    1.1186223   -7.4652227    113.66096  0.026457392  0.026883741            1 
  359000     1.110942    -7.464824    113.69164  0.026390816  0.026873735            5 
  360000     1.094413   -7.4341619    114.02905  0.026395613  0.026863038            1 
  361000    1.1065774   -7.4664554    114.20915  0.026364069  0.026853287            1 
  362000    1.1062155   -7.4736359    114.27053  0.026305371  0.026842406            2 
  363000    1.0956355    -7.499158    114.28853  0.026237035  0.026830882            2 
  364000    1.0925689   -7.4510988    114.64477  0.026246512  0.026818491            4 
  365000    1.1051228   -7.5324865    114.35947  0.026109468  0.026805102            3 
  366000    1.1073483   -7.5183065    114.18206  0.025997738  0.026791131            2 
  367000    1.1096614   -7.5137311     114.6845  0.026040985  0.026776623            1 
  368000    1.1067483   -7.5105034    115.16538  0.026079116  0.026762287            2 
  369000     1.092556   -7.5033337    115.44751  0.026072157  0.026748392            2 
  370000    1.1208323   -7.5711185    115.38159  0.025986844  0.026734699            3 
  371000    1.0908005   -7.4781033    116.06868  0.026071133  0.026720152            2 
  372000    1.1275846   -7.4889412    116.22043  0.026035044  0.026705861            2 
  373000     1.104221   -7.5048968    116.28305  0.025979234  0.026691119            4 
  374000    1.0935441   -7.5320473    116.09447  0.025867751  0.026676356            1 
  375000    1.1115096   -7.4685698    116.90002  0.025977781  0.026661807            2 
  376000    1.1326987   -7.5203936    116.31323  0.025778641  0.026646065            1 
  377000    1.0977731    -7.490981    117.21447  0.025909477  0.026630183            4 
  378000    1.0945546   -7.4872765    117.25279  0.025849381  0.026614524            1 
  379000    1.1066693   -7.5305633    117.27716  0.025786535  0.026599004            2 
  380000    1.0706021   -7.5110691    117.56305   0.02578137  0.026582395            3 
  381000    1.1314588   -7.4889336    118.05028  0.025820271  0.026565927            1 
  382000    1.1245474   -7.4931401    118.15655  0.025775862  0.026549137            3 
  383000    1.0806687   -7.5491361    117.92838  0.025658917   0.02653179            3 
  384000    1.1261965   -7.5093981    117.97439  0.025602081  0.026514325            4 
  385000     1.082509   -7.4918706    118.66699  0.025685496  0.026496587            2 
  386000    1.0877219   -7.5229773    118.71935  0.025630257  0.026479134            2 
  387000    1.1022461   -7.5277939    118.67215  0.025553865  0.026461375            3 
  388000    1.0821055    -7.508216      118.985  0.025555198  0.026442925            2 
  389000    1.1279422   -7.4909782    119.36357  0.025570603  0.026424889            1 
  390000    1.1035747   -7.5467273    118.97458   0.02542192  0.026406137            2 
  391000    1.1062094   -7.5144873    119.94233  0.025563156  0.026387893            3 
  392000    1.0910817   -7.5060166    120.01894  0.025514231  0.026369944            2 
  393000    1.1363968   -7.5381375    119.37435  0.025312628  0.026351665            3 
  394000     1.101679   -7.5558102    120.20238  0.025423514  0.026333871            1 
  395000    1.1018311   -7.5509284    120.50285  0.025422542  0.026316298            3 
  396000    1.1232618    -7.488377    121.13826  0.025492058  0.026299255            2 
  397000    1.1031263   -7.5672902    120.97393  0.025393353  0.026281483            2 
  398000    1.0915326   -7.4883399    121.52487  0.025444906   0.02626363            2 
  399000    1.1304335   -7.5120729    122.05609  0.025492082  0.026246688            4 
  400000    1.0627879   -7.5558057    121.81418  0.025377953  0.026229595            2 
  401000    1.1059837   -7.4884123    122.48296  0.025453648  0.026212438            2 
  402000    1.0756752   -7.5254553     122.7271  0.025440941  0.026195657            4 
  403000    1.0648939   -7.5453371    122.90074  0.025413719  0.026178436            5 
  404000    1.1025747   -7.5409572    123.16021  0.025404333  0.026162458            3 
  405000    1.1131777   -7.5431672    123.11892  0.025333112  0.026146304            2 
  406000    1.1169551   -7.6052549     123.0469  0.025255932  0.026128779            5 
  407000    1.0945352   -7.5410822    123.81449  0.025351042  0.026111451            2 
  408000    1.0822627   -7.5270933    123.68735  0.025262939  0.026094351            4 
  409000    1.0878033   -7.5388676    124.09726  0.025284691  0.026076999            8 
  410000    1.1020673   -7.5623809    123.83936  0.025170601  0.026059121            3 
  411000    1.0995295   -7.5376319    124.03936   0.02514991  0.026040914            2 
  412000    1.0951702   -7.5275635    124.48713  0.025179435   0.02602271            2 
  413000    1.0965678   -7.5466708     124.4165  0.025104217  0.026004559            2 
  414000    1.1045871   -7.5912356     124.8831    0.0251375  0.025986644            1 
  415000    1.0693374    -7.589455    125.13364  0.025127236  0.025968931            2 
  416000    1.0884246   -7.5055075     125.8969  0.025219732  0.025951547            2 
  417000    1.0959644   -7.5394757    125.92394  0.025164657  0.025933603            3 
  418000    1.0831085   -7.5165727    125.88073   0.02509584  0.025915508            2 
  419000    1.0986649   -7.5388402     126.2726  0.025113882  0.025898065            1 
  420000    1.0576586   -7.5542895    126.39445  0.025078265  0.025880479            3 
  421000    1.0811169   -7.5578014    126.66091  0.025071439  0.025863003            1 
  422000    1.1138116   -7.5015941    127.12337  0.025103352  0.025846557            1 
  423000    1.1135065   -7.5193834     127.5277   0.02512366  0.025830179            2 
  424000    1.0815622   -7.5449203    127.54231  0.025067278  0.025813528            2 
  425000    1.0727323   -7.5835743    127.89511  0.025077472  0.025796442            5 
  426000    1.0850311   -7.5688447    128.11131  0.025060898  0.025779398            2 
  427000    1.0795083   -7.5045624    128.71659  0.025120333  0.025762182            1 
  428000    1.0877237   -7.5624214    128.83038  0.025083797  0.025745098            1 
  429000    1.0976412   -7.5976088    128.59176  0.024978974  0.025728045            3 
  430000    1.0891096   -7.5221494    129.02721  0.025005273  0.025711109            1 
  431000    1.0933013   -7.5561111    129.55707  0.025049703  0.025694606            3 
  432000    1.0808343   -7.5667164    129.28548  0.024939328  0.025677414            3 
  433000    1.0859535   -7.5545321    129.55282  0.024933184  0.025660723            3 
  434000    1.0997203   -7.5660531    129.88446  0.024939412  0.025644286            4 
  435000    1.0755777   -7.5777239    130.04651  0.024913124  0.025627403            1 
  436000    1.0538555   -7.5491977    130.09562   0.02486537  0.025609964            3 
  437000    1.0442617   -7.5572268    129.91256  0.024773561  0.025592395            2 
  438000    1.0984989   -7.5505921    130.27034  0.024785073  0.025574531            1 
  439000    1.0667645   -7.5700746    130.32151  0.024738327  0.025556805            1 
  440000    1.0706066   -7.5837954    130.41213  0.024699267  0.025538772            3 
  441000    1.0671215   -7.6419117    130.67574  0.024693073  0.025519955            2 
  442000    1.0865261   -7.5337108    131.47353  0.024787619  0.025502196            3 
  443000    1.0686037   -7.5936816    130.94006  0.024631312  0.025483887            2 
  444000    1.0722912   -7.5986465    131.82179  0.024741327  0.025465317            3 
  445000    1.0896922   -7.5345963     131.8959  0.024699607  0.025447112            3 
  446000    1.0691653    -7.622434    131.49182  0.024568726   0.02542868            2 
  447000    1.0789714   -7.5625151    131.76239  0.024564204  0.025409445            5 
  448000    1.0855975   -7.5975134    132.28543  0.024606665  0.025390609            1 
  449000    1.1073595    -7.560161    132.28687  0.024552128  0.025371369            4 
  450000    1.0446416   -7.5840814    132.63205   0.02456149  0.025352324            4 
  451000    1.0700076   -7.6203609    132.18029  0.024423557  0.025333147            2 
  452000    1.0752716   -7.5699936    132.95569  0.024512479  0.025313584            1 
  453000    1.0754019   -7.6041751    132.99152   0.02446496  0.025294097            4 
  454000    1.0673568   -7.6063922    132.79296  0.024374626  0.025274353            2 
  455000    1.0912058   -7.5597954    133.03367  0.024365141  0.025254564            2 
  456000    1.0542979   -7.6059112    132.93084  0.024292917  0.025234737            3 
  457000    1.0773437   -7.5555252    133.25545  0.024298951  0.025214473            2 
  458000    1.0558536   -7.6364883    133.57397  0.024303852  0.025194528            5 
  459000    1.0735688   -7.6140562    133.65221  0.024265107  0.025174752            6 
  460000    1.0618917   -7.5905851    134.10041  0.024293553  0.025154655            2 
  461000    1.0753212   -7.5570866    134.34362   0.02428482  0.025134761            3 
  462000    1.0570927   -7.6017183    134.30688  0.024225629  0.025114333            2 
  463000    1.0826482   -7.5939588     134.8434   0.02426987  0.025093959            4 
  464000    1.0697579   -7.6233191    134.65389   0.02418353  0.025073654            1 
  465000    1.0679484   -7.5936537    134.61981  0.024125414  0.025053519            2 
  466000    1.0366611   -7.5835532    134.99379  0.024140521   0.02503341            2 
  467000    1.0759173   -7.6225881    134.87236  0.024067158  0.025012826            2 
  468000    1.0872681   -7.6288156    135.13678  0.024062817  0.024992188            5 
  469000     1.082639   -7.6097672    135.75921  0.024122105  0.024971398            2 
  470000    1.0722305   -7.6484618     135.3404  0.023996526  0.024950596            4 
  471000    1.0658527    -7.651225    135.40664  0.023957297  0.024929829            3 
  472000    1.0534009   -7.6208864    136.23311  0.024052456  0.024908856            2 
  473000    1.0728142   -7.6146273    135.85984  0.023935843  0.024888007            1 
  474000    1.0605455   -7.6274083    136.43163  0.023985871  0.024867266            2 
  475000    1.0608588   -7.5864476    137.08554  0.024050094  0.024846789            3 
  476000    1.0732008   -7.6300452     137.1404  0.024009173  0.024826846            1 
  477000    1.0729357   -7.6406673    137.09327  0.023950607  0.024806513            2 
  478000     1.057342   -7.5907976    137.69962   0.02400621  0.024786534            2 
  479000    1.0627828   -7.6229159    137.71578  0.023958904  0.024766585            5 
  480000    1.0856359   -7.6373255    137.87135  0.023935999  0.024746589            3 
  481000     1.071552   -7.6274173    138.35726  0.023970419  0.024726523            2 
  482000    1.0649477   -7.5901394     138.0812   0.02387296  0.024707035            2 
  483000    1.0706262   -7.6570311    138.23344    0.0238498  0.024687247            1 
  484000    1.0471539   -7.6421316    138.59003   0.02386192  0.024667151            3 
  485000    1.0892673   -7.6454903    138.82661   0.02385337  0.024647419            2 
  486000    1.0882436    -7.648125    139.10828  0.023852586   0.02462789            2 
  487000    1.0803693   -7.6165396    139.17034  0.023814227   0.02460845            4 
  488000    1.0246089   -7.5958603    139.45301  0.023813697  0.024588817            4 
  489000    1.0505198   -7.6260163    139.74023  0.023813946  0.024569333            3 
  490000    1.0510933   -7.6448299    139.56492  0.023735531  0.024549396            2 
  491000    1.0551646   -7.6225478    139.49834  0.023675889  0.024529227            9 
  492000    1.0436305    -7.577205    140.60221  0.023814737  0.024509191            2 
  493000    1.0523408    -7.647476    140.27789  0.023711611   0.02448932            2 
  494000    1.0656745   -7.5829155    140.56688  0.023712361  0.024469268            1 
  495000    1.0424792   -7.5667211    140.85454  0.023712885  0.024449338            3 
  496000    1.0453126   -7.6078951    140.65211  0.023631067   0.02442942            2 
  497000    1.0587651   -7.6455651    140.62962  0.023579748  0.024408903            2 
  498000    1.0681227   -7.6506463    141.07857  0.023607524  0.024388237            2 
  499000    1.0624756   -7.6332271    141.02106  0.023550612  0.024367733            1 
  500000    1.0584147   -7.6334246    141.15742  0.023526237  0.024346563            2 
  501000    1.0394559   -7.6443404    141.01441  0.023455491  0.024325798            2 
  502000    1.0438671    -7.649207     141.4437  0.023480029  0.024305297            3 
  503000    1.0619473   -7.5888001    142.41874  0.023594887  0.024285093            2 
  504000    1.0758609   -7.5803264    142.39395  0.023543973  0.024265312            3 
  505000    1.0481637   -7.6044203    142.53825  0.023521163  0.024245816            3 
  506000    1.0349702    -7.648853    142.51014   0.02347005  0.024226242            2 
  507000    1.0510222    -7.646807    142.36873  0.023400514  0.024206458            3 
  508000    1.0583945   -7.5985665    143.03918  0.023464433  0.024186596            2 
  509000    1.0510249   -7.6817819    143.20291  0.023445139  0.024166859            2 
  510000    1.0353621   -7.6060175    143.15859  0.023391926  0.024147046            1 
  511000    1.0313095   -7.6336008     143.1599  0.023346363  0.024127251            2 
  512000    1.0444166   -7.6721961    143.52661   0.02336045  0.024107649            7 
  513000    1.0486928   -7.6509243    143.88675  0.023373416  0.024087837            2 
  514000    1.0557174   -7.6803232    143.97376  0.023342048  0.024067876           10 
  515000    1.0570877   -7.6427764    144.53516  0.023387566  0.024048652            3 
  516000     1.036092    -7.636599    144.90297  0.023401643  0.024029296            2 
  517000    1.0399545   -7.6374484    143.89584  0.023194042  0.024009423            3 
  518000    1.0430086   -7.6472149    144.01665  0.023168701   0.02398857            3 
  519000    1.0518159   -7.6848435    144.02237  0.023124979  0.023967704            1 
  520000    1.0761392    -7.639196    144.09436  0.023092045  0.023946294            2 
  521000    1.0363745   -7.6428665    144.57136  0.023124017  0.023925344            2 
  522000    1.0290609   -7.6689927    145.15343  0.023172642  0.023904827            2 
  523000    1.0365018   -7.6729677    144.85983  0.023081553  0.023884123            2 
  524000    1.0251308   -7.6368264    144.98853  0.023057972  0.023863184            4 
  525000    1.0068879   -7.6269026    145.75443  0.023135624  0.023842055            5 
  526000    1.0582265   -7.6826735    145.32952  0.023024322  0.023820888            2 
  527000    1.0478509    -7.634364    145.89554  0.023070136  0.023799955            2 
  528000    1.0499171   -7.6832332    145.55224   0.02297226  0.023779134            2 
  529000    1.0530331   -7.6843409     145.9676  0.022994266  0.023758616            3 
  530000    1.0605164   -7.6605518    146.38801  0.023016983  0.023738609            3 
  531000    1.0269458   -7.6682051    146.45367  0.022983941  0.023718265            3 
  532000    1.0294859   -7.6491781    146.47913  0.022944725  0.023697874            2 
  533000    1.0131091   -7.6465243    146.82971   0.02295649  0.023677582            3 
  534000    1.0486472    -7.654288    147.17109  0.022966774  0.023657017            2 
  535000    1.0567427   -7.7069874    146.58321  0.022832276  0.023636316            2 
  536000    1.0252123   -7.6961009    146.49078  0.022775308  0.023615328            1 
  537000    1.0456974   -7.6484276     147.8653  0.022946197    0.0235948            3 
  538000    1.0216221   -7.6727165    147.45179  0.022839496  0.023574592            2 
  539000    1.0514077   -7.6860314    147.85328  0.022859196  0.023554363            2 
  540000     1.053195    -7.659928    147.84085  0.022814945  0.023534225            2 
  541000    1.0346426   -7.6822196    148.60918  0.022891125  0.023514137            3 
  542000    1.0133998   -7.6616286    148.12513  0.022774467  0.023493955            3 
  543000    1.0609594   -7.6817678    148.15249  0.022736724   0.02347348           10 
  544000    1.0255713   -7.6793638    148.03547  0.022677002   0.02345287            1 
  545000    1.0402196    -7.710098    147.92732  0.022618856   0.02343213            2 
  546000    1.0444976   -7.7103297    148.25873  0.022628012  0.023411145            2 
  547000    1.0099258   -7.7562884     147.8521  0.022524695   0.02338989            3 
  548000    1.0264198   -7.6719722     148.6983  0.022612271  0.023368661            5 
  549000    1.0379763   -7.6756551    149.07009  0.022627518  0.023347872            3 
  550000    1.0344922   -7.6481467    149.57033  0.022662172  0.023327026            2 
  551000    1.0286358   -7.6400196    148.53858  0.022464999  0.023305782            5 
  552000     1.031081   -7.7199668    148.41421  0.022405526  0.023284391            3 
  553000    1.0274022   -7.7215181    148.90362  0.022438761   0.02326272            5 
  554000    1.0530087   -7.6992271    148.73762  0.022373288  0.023241434            5 
  555000    1.0311235   -7.6968825    148.95591  0.022365753  0.023219931            2 
  556000    1.0222482   -7.7016342    149.45787   0.02240076  0.023198512            2 
  557000    1.0371011   -7.6598807    149.58127  0.022379005  0.023176648            2 
  558000    1.0437116   -7.6365232    150.09268  0.022415274  0.023155624            2 
  559000    1.0246103   -7.6868971    150.15703   0.02238477  0.023134692            6 
  560000     1.020137   -7.6955188    150.05465  0.022329562  0.023113836            3 
  561000    1.0374049   -7.6777628    150.67167  0.022381413  0.023092984            2 
  562000    1.0379463    -7.665778    150.92241  0.022378767  0.023072357            2 
  563000    1.0336826   -7.6964796     151.2419  0.022386308  0.023051705            1 
  564000    1.0375251   -7.7016102    150.86066  0.022290286   0.02303104            4 
  565000    1.0510901   -7.7373818    150.98211  0.022268748  0.023010176            3 
  566000    1.0039682   -7.7178289    151.57691  0.022316977  0.022989263            2 
  567000    1.0323403   -7.6780648    151.55731  0.022274737  0.022968775            5 
  568000    1.0291275   -7.6705091    152.11528  0.022317382    0.0229487            1 
  569000    1.0388003   -7.6779908    151.69627  0.022216794   0.02292865            4 
  570000    1.0360884   -7.7248551    152.16243  0.022245969  0.022908305            4 
  571000     1.035308   -7.7337375    152.13817  0.022203469  0.022888014            1 
  572000    1.0476631   -7.7148697    152.83959   0.02226684  0.022867572            5 
  573000    1.0427124    -7.766417     152.1938  0.022134061  0.022847203            3 
  574000    1.0208582   -7.7365018    152.23306  0.022101199  0.022826826            2 
  575000    1.0352618   -7.7001582    153.18663   0.02220096  0.022806451            3 
  576000    1.0052352    -7.725914    153.35852  0.022187286   0.02278666            2 
  577000    1.0229013   -7.7368581    153.18171  0.022123297  0.022766643            2 
  578000    1.0145583   -7.7635326    153.47078  0.022126698  0.022746495            2 
  579000    1.0312677   -7.7301201    153.32132  0.022066971    0.0227261            4 
  580000    1.0100356   -7.7220631    153.45871  0.022048665  0.022705948            1 
  581000    1.0324207   -7.7159892    154.12281  0.022105967  0.022686268            3 
  582000    1.0240685   -7.7505234    154.26608    0.0220885  0.022666514            2 
  583000    1.0007132   -7.7115789    154.38529  0.022067652  0.022646882            3 
  584000    1.0270574   -7.7385603    154.34881  0.022024659  0.022627108            2 
  585000    1.0127158   -7.6979108    154.98459  0.022077577  0.022607756            1 
  586000    1.0016267    -7.752257    154.95253  0.022035343  0.022587852            2 
  587000    1.0194562   -7.7178255    155.05694  0.022012627   0.02256797            3 
  588000    1.0175409   -7.7850219    154.79397  0.021937921  0.022548089            2 
  589000    1.0219247   -7.7581984    155.23284  0.021962768  0.022528473            3 
  590000    1.0061757   -7.7379095    155.76658  0.022000929  0.022508898            1 
  591000    1.0055922   -7.7332525    155.54894  0.021933014  0.022489354            3 
  592000    1.0261121   -7.7192252    155.82186  0.021934383  0.022469348            1 
  593000    1.0315562   -7.7345228    155.80485  0.021895005  0.022449621            4 
  594000    1.0144856   -7.7123777    155.73152  0.021847856  0.022430018            2 
  595000    1.0206191   -7.7812775    156.12315  0.021865988  0.022410564            4 
  596000    1.0202028   -7.7446332    155.92876   0.02180212  0.022391088            2 
  597000     1.034848   -7.7434576    156.55796  0.021853429  0.022371601            2 
  598000    1.0139941   -7.7808481    156.20964  0.021768344  0.022351896            4 
  599000    1.0101224   -7.7609867     156.2191  0.021733319  0.022332311            2 
  600000    1.0136064   -7.7522246    156.76738  0.021773247  0.022312723            3 
  601000    1.0221163   -7.7252743    156.87263  0.021751613  0.022293331            2 
  602000    1.0103906   -7.7304778    156.98761  0.021731397  0.022274188            4 
  603000    1.0012826   -7.7783813    156.74653  0.021662042  0.022254737            3 
  604000   0.98027827    -7.780953    157.05102  0.021668187  0.022235234            2 
  605000    1.0138246   -7.7716268    157.53624  0.021699207  0.022215844            3 
  606000    1.0323544   -7.7729685    157.42912  0.021648669  0.022196531            3 
  607000   0.99622247   -7.7162996     157.8319    0.0216683  0.022177404            4 
  608000    0.9970795   -7.7664704    157.78683  0.021626484  0.022158248            1 
  609000   0.99779833   -7.7532883     158.5073   0.02168956  0.022139283            3 
  610000    1.0126759   -7.7292269    158.44108  0.021644956  0.022120423            7 
  611000    1.0105431   -7.7317417    158.71945  0.021647497  0.022101787            2 
  612000    1.0126823   -7.7261971     158.9354   0.02164153  0.022083752            1 
  613000   0.99013576   -7.6997342    159.19003  0.021640842  0.022065406       -1e+20 
  614000    1.0012215   -7.7155306     159.4611  0.021642385   0.02204691            3 
  615000    1.0158127   -7.7732314    159.60115  0.021626173  0.022028554            5 
  616000    1.0160161    -7.787179    159.45918  0.021571858  0.022010446            4 
  617000    1.0090432   -7.7805654    159.62335  0.021559069  0.021992156            2 
  618000    1.0009486   -7.7817298    159.46479  0.021502803   0.02197379            3 
  619000    1.0078565   -7.7674791    159.81874  0.021515716  0.021955341            4 
  620000    1.0024509   -7.7771577    160.19965   0.02153221   0.02193676            3 
  621000    1.0105027   -7.7674438    160.22201  0.021500538  0.021918409            2 
  622000    1.0050896   -7.7376538    160.42899  0.021493702  0.021899804            3 
  623000   0.99962791   -7.7841636     160.4883  0.021467135  0.021881515            4 
  624000    1.0095288   -7.7100408    160.85414  0.021481589  0.021863476            2 
  625000   0.99558059   -7.7630735    161.15173  0.021486897  0.021845338            4 
  626000   0.99341406   -7.7396062     161.0902  0.021444383  0.021827518            2 
  627000    1.0147783   -7.7477401    161.45746  0.021458992  0.021809464            5 
  628000   0.99900665   -7.7677063    161.33898    0.0214091  0.021791323            4 
  629000    1.0144755    -7.761306    161.37341  0.021379625  0.021773129            4 
  630000   0.99179195    -7.751908    161.76065  0.021396911  0.021755009            5 
  631000    1.0151397   -7.7739505    161.67882  0.021352194  0.021736695            2 
  632000    0.9979905   -7.7906536    161.62546  0.021311373  0.021718377            4 
  633000    1.0107226   -7.7759887     162.1029   0.02134056  0.021700097            1 
  634000    1.0024591   -7.7818541    161.74115  0.021259352  0.021681732            5 
  635000   0.96828645   -7.7717153    162.53204  0.021329664  0.021663539            8 
  636000   0.98402687   -7.7784772    162.47227  0.021288296  0.021645328            3 
  637000   0.99317288   -7.8059854    161.66056  0.021148686  0.021627156            4 
  638000   0.99442969   -7.8145669    162.50361  0.021225654  0.021608686            2 
  639000    1.0160238   -7.8229325    162.42236  0.021181842  0.021590279            2 
  640000   0.98139401   -7.7689132    162.97258  0.021220387   0.02157215            2 
  641000   0.99927365   -7.7927541    162.70996  0.021153141  0.021554062            3 
  642000   0.99340954   -7.8278808    162.83853  0.021136881  0.021535742            2 
  643000   0.99579038   -7.7963194    162.70577  0.021086803  0.021517431            2 
  644000   0.98288045   -7.8001125    163.17377  0.021114618  0.021499134            2 
  645000    0.9955184   -7.7877865    163.03171  0.021063528  0.021480914            2 
  646000    1.0088989   -7.7888781     163.5983  0.021104012  0.021462702            3 
  647000    1.0044328   -7.7678843    164.05614  0.021130363  0.021444653            1 
  648000    0.9810421   -7.8015071    164.04944  0.021096893  0.021426916            2 
  649000    1.0103651   -7.7791808    164.40179  0.021109629  0.021409233            2 
  650000    1.0303717   -7.7808926    164.39739  0.021076589  0.021391592            1 
  651000   0.99241807   -7.8085765    164.40781  0.021045547  0.021373944            3 
  652000   0.98233985   -7.7621185    164.86553  0.021071771  0.021356303            2 
  653000   0.99251957   -7.7910251    165.12183  0.021072209  0.021339005            4 
  654000   0.97471379   -7.8122898    165.19799  0.021049692  0.021321735            2 
  655000   0.98759077   -7.8168097    164.90351  0.020980091  0.021304346            8 
  656000   0.98325377   -7.8311015    164.96416  0.020955813  0.021286879            6 
  657000   0.99176484   -7.7558495    165.74836  0.021023384  0.021269413            2 
  658000    0.9887037    -7.824159    165.94578  0.021016436   0.02125218            3 
  659000      1.00095   -7.8503915    165.64617  0.020946657  0.021234976            1 
  660000   0.96977139   -7.8165188    165.83819  0.020939165  0.021217796            6 
  661000   0.99535666   -7.8249023     166.4253  0.020981506  0.021200859            4 
  662000   0.98505225   -7.7761009    166.36084  0.020941697  0.021183635            2 
  663000   0.99460479   -7.8442049    166.62764  0.020943646  0.021166483            3 
  664000   0.98959763   -7.8138367     166.6491  0.020914796  0.021149311            2 
  665000   0.98017508   -7.7948058    166.95755  0.020921999  0.021132392            2 
  666000   0.96629379   -7.8018255    167.03471  0.020900238  0.021115684            4 
  667000   0.98914064   -7.8455939    166.63591  0.020819079   0.02109887            5 
  668000   0.95669607   -7.7946051    167.31419  0.020872529  0.021082163            4 
  669000    0.9900701   -7.8814903    167.03907   0.02080706  0.021065135            3 
  670000   0.99613225   -7.7965659    167.68932   0.02085688  0.021048332            4 
  671000   0.97133998    -7.795684    168.07484  0.020873676   0.02103168            4 
  672000    1.0126832   -7.8088878    167.81198  0.020810017  0.021015349            2 
  673000   0.98747664   -7.7919427    168.24328  0.020832501  0.020998879            2 
  674000    0.9803425   -7.8007692     168.2192  0.020798615  0.020982474            3 
  675000   0.98721972   -7.8065685    168.86824  0.020847931  0.020966223            5 
  676000    0.9915784   -7.8596725    168.67724  0.020793545  0.020949861            3 
  677000   0.99528928   -7.7550845     169.2585  0.020834379  0.020933657            3 
  678000   0.98737768   -7.8398203    169.04343  0.020777216  0.020917349            3 
  679000   0.99831134   -7.8402225     169.1377  0.020758186  0.020900998            2 
  680000   0.97689495   -7.8482669    169.01784   0.02071297  0.020884837            6 
  681000   0.98592412   -7.8417596    169.47015  0.020737903  0.020868876            3 
  682000   0.98002742   -7.8202281     169.6704  0.020731965  0.020852917            4 
  683000   0.99813202   -7.8194309    170.30421  0.020778942  0.020837011            4 
  684000   0.96721606   -7.8235553    170.31005  0.020749276  0.020821268            3 
  685000   0.95777896   -7.7884131    170.51862  0.020744358  0.020805601            3 
  686000   0.97071893   -7.8305809    170.43495  0.020703954  0.020790087            1 
  687000   0.98530285   -7.8200332    170.51238   0.02068321   0.02077455            2 
  688000    0.9733338   -7.7939105    171.10578  0.020725022  0.020758836            1 
  689000   0.97367726   -7.8629094    170.69149  0.020644834  0.020742901            5 
  690000   0.98821794   -7.8564076    170.79898  0.020627896  0.020726979            3 
  691000   0.98232333   -7.8301092    171.10079  0.020634441     0.020711            5 
  692000   0.98557431    -7.853683     170.8536  0.020574855  0.020695188            4 
  693000   0.95633652   -7.8612671    170.75961  0.020533863  0.020679094            3 
  694000   0.98202132   -7.8165484    171.36774  0.020577299  0.020663153            4 
  695000   0.97300317   -7.8966967     170.5653  0.020451475  0.020646873            2 
  696000   0.95010826   -7.8145743    171.59178  0.020544992   0.02063081            3 
  697000   0.96908254   -7.8264688    171.61541  0.020518342  0.020614625            7 
  698000   0.96600845   -7.8397806    171.42365  0.020466052  0.020598662            1 
  699000   0.96751206   -7.8500107    171.46929  0.020442214  0.020582331            6 
  700000   0.98390085   -7.8673515    170.84418  0.020338593   0.02056579            3 
  701000   0.98641943   -7.8772778    171.13413  0.020344048  0.020549237           11 
  702000   0.99146673   -7.8241593     171.5702  0.020366832  0.020532463            3 
  703000   0.95833637   -7.8767606    171.40119  0.020317827  0.020515738            5 
  704000   0.99419425   -7.8641397    171.75217  0.020330512  0.020499091            4 
  705000   0.96332321   -7.8511473    171.95652  0.020325829  0.020482382            5 
  706000   0.97514023   -7.8908671    171.39834  0.020231155  0.020465594            3 
  707000   0.95378357   -7.8950841    171.07749   0.02016472  0.020448633            2 
  708000    0.9651838   -7.8615945    171.69485  0.020208904  0.020431524            3 
  709000   0.98820206   -7.8765736    171.89942  0.020204446   0.02041437            4 
  710000   0.97232192   -7.8700843    171.73664  0.020156883   0.02039727            3 
  711000   0.97863548   -7.8633311    172.13302   0.02017499  0.020380364            6 
  712000    0.9796247   -7.8706438    171.96918  0.020127479  0.020363403            3 
  713000   0.97499655   -7.8709742    172.14151  0.020119391  0.020346464            5 
  714000   0.97034478   -7.8722502    172.32603  0.020112748  0.020329501            2 
  715000    0.9945284   -7.8594193    172.89164  0.020150541  0.020312732            5 
  716000   0.98622731   -7.8696328    172.46857  0.020073158  0.020295801            4 
  717000   0.96066056   -7.8521032    173.13212  0.020122283  0.020279034            4 
  718000   0.97785807   -7.8588808    173.69024  0.020159034  0.020262461            3 
  719000   0.96633821   -7.8518097     173.4446  0.020102527  0.020245904            3 
  720000   0.95784634   -7.8841023    172.98085  0.020020932  0.020229342            2 
  721000   0.95365088     -7.91178    172.90851  0.019984802  0.020212513            2 
  722000   0.96547198   -7.9061139    173.04748  0.019973163  0.020195496            4 
  723000   0.95049372   -7.8988457    173.46647  0.019993831  0.020178654            3 
  724000   0.97196423   -7.8639343    174.00249   0.02002791   0.02016184            2 
  725000   0.98522238   -7.8354676    173.71198  0.019966894  0.020145128            7 
  726000    0.9540267   -7.8644182    174.04209  0.019977283  0.020128672            2 
  727000   0.97524473   -7.8901606    173.95704  0.019940055  0.020112018            3 
  728000   0.97214774   -7.8959081     174.0413   0.01992231  0.020095456            4 
  729000   0.96928908   -7.9068482    174.28624  0.019922981  0.020078978            1 
  730000    0.9748558   -7.8918109    174.38829  0.019907339  0.020062045            3 
  731000   0.98443073   -7.8932397    174.03546  0.019839884  0.020045363            3 
  732000   0.96808198   -7.8545858    174.93174  0.019914816  0.020028853            2 
  733000   0.95591011   -7.8644487    174.53668  0.019842733  0.020012374            3 
  734000   0.93590958     -7.86774     174.9664  0.019864486  0.019995675            4 
  735000   0.98084977   -7.8966609    175.21384  0.019865515  0.019979046            2 
  736000    0.9645738   -7.8744661    175.32486  0.019851093  0.019962525            3 
  737000   0.96583884     -7.92299    175.25625  0.019816401  0.019945951            2 
  738000   0.94719277   -7.8658546    175.25501  0.019789409  0.019929184            2 
  739000   0.96152783   -7.8738414    175.43864  0.019783337  0.019912561            4 
  740000   0.96494503   -7.8996762    175.44915  0.019757787  0.019895944            3 
  741000   0.96715252   -7.8798996    174.76041  0.019653668  0.019879446            2 
  742000   0.94767919   -7.9181799    175.15032   0.01967097  0.019862713            3 
  743000   0.95465184    -7.906074     174.8413  0.019609836  0.019845901            2 
  744000   0.97290925   -7.9068762    175.53126   0.01966076  0.019829065            4 
  745000   0.97687444   -7.9024292    175.71412  0.019654823  0.019812387            4 
  746000   0.96046856   -7.9462889     175.4294  0.019596671  0.019795768            5 
  747000   0.96856937    -7.937115    176.16393   0.01965238  0.019779127            3 
  748000   0.95276746   -7.8877958    176.52471    0.0196663  0.019762922            7 
  749000   0.95281334   -7.9255788    176.50949   0.01963835  0.019746571            3 
  750000   0.96562663    -7.901947    176.53733  0.019615259  0.019730153            3 
  751000   0.96178842   -7.8986577    177.05652  0.019646751  0.019714147            2 
  752000   0.94035008   -7.9133445     177.0472  0.019619592  0.019698241            7 
  753000   0.96022697   -7.9311629     176.9072  0.019578044  0.019682182            5 
  754000   0.93621092   -7.8810036    177.08139   0.01957133  0.019666133            2 
  755000   0.92091609    -7.912227    177.23984  0.019562897  0.019650051            2 
  756000   0.92622352   -7.9083545    177.62868  0.019579881  0.019633955            4 
  757000   0.91435732   -7.8662232    178.22187  0.019619317  0.019618154            4 
  758000   0.96427078   -7.9173795    177.99596  0.019568597  0.019602594            6 
  759000   0.94194947   -7.8999395    178.15623  0.019560411  0.019586995            3 
  760000   0.95266284   -7.9320379    177.49667  0.019462355  0.019571101            3 
  761000   0.95460299   -7.9022371    178.65436  0.019563552  0.019555232            4 
  762000   0.95488513   -7.8881623    178.36252  0.019505963  0.019539444            3 
  763000   0.94995684   -7.8988799    178.67518  0.019514546  0.019523744            2 
  764000   0.95321829   -7.8972836    178.86382  0.019509579  0.019508163            4 
  765000   0.95310634   -7.9103134    178.10411  0.019401319  0.019492458            9 
  766000   0.94827191   -7.9251922    178.33936  0.019401584  0.019476601            6 
  767000    0.9326989   -7.9154169    178.72137  0.019417793  0.019460754            2 
  768000   0.96072151   -7.9172838    178.56658  0.019375714  0.019444943            4 
  769000   0.94178646   -7.9073983     179.1251  0.019411042  0.019429024            2 
  770000   0.95493395   -7.9182079    179.39782  0.019415349  0.019413098            3 
  771000   0.94443953   -7.9295158    178.62418  0.019306547  0.019397074            2 
  772000   0.93901836   -7.9505775    178.90865  0.019312247  0.019381066            3 
  773000   0.93911577   -7.9279527    179.18974  0.019317566  0.019365077            2 
  774000   0.96721456   -7.8914552    178.93723  0.019265421  0.019349112            1 
  775000   0.95502156   -7.9461677     178.4503  0.019188205  0.019332926            3 
  776000   0.95055268   -7.9478283    179.32858  0.019257794  0.019316782            3 
  777000   0.97676893   -7.9384949    179.05453  0.019203617  0.019300754            2 
  778000   0.94082078   -7.9771591    179.42869  0.019219012  0.019284665            2 
  779000   0.94239173   -7.9333563    179.87975  0.019242592  0.019269004            4 
  780000   0.95393143   -7.9155506    179.41342  0.019168101  0.019253165            2 
  781000   0.94723668   -7.9394111    179.55174  0.019158316  0.019237021            4 
  782000   0.94377882   -7.9673154    179.32306  0.019109448  0.019220855            3 
  783000   0.93182146   -7.9738204    179.10724  0.019062073  0.019204391            2 
  784000   0.91614602   -7.9602375    179.20566  0.019048221  0.019187747            2 
  785000   0.94495766   -7.9540228    179.16702  0.019019853  0.019171084            3 
  786000   0.93825009    -7.910303    180.07073  0.019091468  0.019154851            5 
  787000   0.92912344   -7.9135052    179.36676  0.018992668  0.019138653            1 
  788000   0.95509309   -7.9249094    180.25167  0.019062148    0.0191225            3 
  789000   0.93347319   -7.9418023    179.81891   0.01899228  0.019106456            4 
  790000   0.95111718   -7.9536523    179.62152  0.018947418  0.019090201            2 
  791000   0.94668384   -7.9012631     180.3539  0.019000622  0.019073857            3 
  792000   0.93912568   -7.9494908    179.93405  0.018932455  0.019057585            1 
  793000   0.95449946   -7.9671344     179.9633  0.018911654  0.019041139            3 
  794000   0.92431357   -7.9669544    179.98946  0.018890581   0.01902457            2 
  795000   0.94179857   -7.9535355    180.17794  0.018886576  0.019007976            5 
  796000   0.96378297    -7.969233    180.48011  0.018894484  0.018991412            2 
  797000   0.93683088   -7.9700179    180.57725  0.018880933  0.018975027            4 
  798000   0.95265034   -7.9302991    180.82634  0.018883285  0.018958714            3 
  799000   0.93477983   -7.9282187    180.81981   0.01885897  0.018942497            2 
  800000   0.94927342   -7.9699855      181.284   0.01888375  0.018926326            2 
  801000   0.92664391   -7.9291645    181.37974  0.018870135  0.018910085            1 
  802000   0.91864679   -8.0062144     180.9218  0.018799023   0.01889379            5 
  803000   0.95163189    -7.942529    181.44516  0.018829925  0.018877529            1 
  804000   0.93837309    -7.964387    181.37433  0.018799164  0.018861325            3 
  805000   0.93196243   -7.9400421    181.72324   0.01881193  0.018844952            5 
  806000   0.91118074   -7.9311322     181.0756   0.01872163  0.018828656            3 
  807000   0.94110778   -7.9140564    181.64848  0.018757587  0.018812529            6 
  808000   0.92674911   -7.9357308    181.44028    0.0187129  0.018796243            7 
  809000    0.9420852   -8.0096998    181.41349   0.01868701  0.018779727            5 
  810000   0.92309689   -7.9638326    181.59394  0.018682504  0.018763284            5 
  811000   0.93214759   -8.0140707    180.95075  0.018593377  0.018746832            2 
  812000   0.94213635    -7.995281     181.3067   0.01860701  0.018730286            1 
  813000   0.91639459   -7.9778618    181.29232  0.018582649  0.018713521            2 
  814000   0.93374384   -8.0082732    181.37149  0.018567924  0.018696908            3 
  815000   0.92679626   -7.9929859    181.20452   0.01852807   0.01868029            2 
  816000   0.94579081   -7.9752554    181.42331  0.018527707  0.018663674            3 
  817000   0.92183067   -8.0205123    181.44108  0.018506842   0.01864703            3 
  818000   0.93012957   -8.0134183    181.55517  0.018495841  0.018630267            4 
  819000   0.91975058   -8.0114951    182.10048  0.018528743  0.018613803            2 
  820000   0.93702257   -7.9864932    181.88238  0.018483981  0.018597494            3 
  821000   0.93401393   -8.0115177    181.64209  0.018437078  0.018581103            2 
  822000   0.93878833   -7.9547338    181.99222  0.018450144  0.018564516            1 
  823000   0.91511761   -7.9970835    182.46372  0.018475468  0.018548182            1 
  824000   0.92726179   -7.9782269    182.46751  0.018453429  0.018531884            3 
  825000     0.918321   -7.9463965     182.2953  0.018413666  0.018515701            5 
  826000   0.91066521   -7.9750971    182.81873  0.018444181  0.018499521            4 
  827000   0.93312403   -8.0032071    182.87515  0.018427564  0.018483168            2 
  828000   0.91949424   -7.9962284     182.5966  0.018377274  0.018466868            3 
  829000    0.9217091   -7.9824639    183.01788  0.018397455  0.018450834            6 
  830000   0.91488046   -8.0135515    183.06511  0.018380031  0.018434661            4 
  831000   0.92738538   -7.9728061    183.01208  0.018352596   0.01841847            4 
  832000   0.90514514   -7.9576093    183.54986  0.018384401  0.018402401            5 
  833000   0.93506229   -7.9634005    183.89445  0.018396803  0.018386509            6 
  834000   0.91026658   -7.9982034    183.40765  0.018326104  0.018370609            4 
  835000   0.92410543   -8.0150396    183.85257   0.01834856  0.018354762            6 
  836000   0.92683115   -8.0255408    183.64259  0.018305681  0.018338924            4 
  837000   0.91673798   -8.0228715    183.59833  0.018279404   0.01832315            1 
  838000   0.91659452    -8.005968    183.67725  0.018265438  0.018307337            4 
  839000   0.90482312   -8.0061587    184.10609  0.018286262  0.018291589            2 
  840000   0.90804149   -8.0069105    183.56772  0.018211083  0.018275778            3 
  841000   0.92385113    -8.046584    184.11082  0.018243244  0.018259899            5 
  842000   0.91161736    -8.011737    184.12025  0.018222511  0.018244049            7 
  843000   0.92387435   -7.9922425    184.38807   0.01822737  0.018228336           21 
  844000   0.92562369    -8.012777     184.3247  0.018199517  0.018212645           19 
  845000   0.93755844   -8.0149316    184.75968  0.018220875  0.018197019            2 
  846000   0.90976926   -8.0240046    184.61682  0.018185266  0.018181419            4 
  847000    0.9277454   -8.0126165    184.90789  0.018192434  0.018165673            2 
  848000   0.90528016   -8.0081992    184.90955  0.018171143  0.018149864            6 
  849000   0.92414026   -8.0030566    184.80107  0.018139092  0.018134015           11 
  850000   0.91739049   -8.0141386    184.48992  0.018087247  0.018118237            3 
  851000   0.92725316   -8.0511029    184.11214  0.018028999  0.018102341            3 
  852000    0.9143983    -7.998443    184.77333  0.018072509  0.018086444            4 
  853000   0.90019699   -8.0306735      184.723  0.018046405  0.018070449            5 
  854000   0.89305734   -8.0256545    185.21732  0.018073509  0.018054542            3 
  855000   0.91833026   -8.0261434    184.71972  0.018003871  0.018038827            3 
  856000   0.90041002   -7.9965914    185.16278  0.018025972  0.018023017            3 
  857000   0.90357605   -8.0495508     185.4922   0.01803697  0.018007375            3 
  858000   0.92695451   -8.0292399    185.38938  0.018005962   0.01799175            3 
  859000   0.89025488   -8.0453281    185.59451    0.0180049  0.017976066            4 
  860000   0.91868837   -8.0688023    184.83541  0.017910408  0.017960186            4 
  861000   0.89994606   -8.0780717    185.52302  0.017956158  0.017944446            2 
  862000   0.91689151   -7.9989536    185.63626  0.017946274   0.01792877            2 
  863000   0.90625135   -8.0512335    185.29284  0.017892318   0.01791294            2 
  864000   0.90059898   -8.0768196     185.3707  0.017879119  0.017897018            3 
  865000   0.91958237   -8.0376273    185.37873  0.017859223  0.017881132            6 
  866000   0.93444616   -8.0171363    185.63925   0.01786367  0.017865392            1 
  867000   0.90333179   -8.0093665    186.26446  0.017903159   0.01784963            5 
  868000   0.91795163   -8.0361693    185.78513  0.017836514   0.01783387            2 
  869000   0.90350277    -8.052352     186.3893  0.017873926  0.017818227            3 
  870000   0.90975633   -8.0406224     186.0537  0.017821235  0.017802686            6 
  871000   0.93218978   -8.0401443    186.32089  0.017826339  0.017787056            4 
  872000    0.8933852   -8.0614201    186.14903  0.017789472  0.017771361            3 
  873000   0.90933924   -8.0340567    186.29209   0.01778275  0.017755716            6 
  874000    0.9147833   -8.0614848    186.34573  0.017767518  0.017740087            8 
  875000   0.91295951   -8.0499214    186.11522  0.017725259  0.017724468            5 
  876000   0.90349478   -8.0505175    186.36479  0.017728766  0.017708924            5 
  877000   0.92279213   -8.0879994    186.19782  0.017692685  0.017693208           11 
  878000   0.89584653   -8.0763427    186.54782  0.017705754  0.017677646            5 
  879000   0.90499713   -8.0575185    186.62932  0.017693337  0.017662103            3 
  880000   0.89967738   -8.0694688    186.68493  0.017678497  0.017646531            5 
  881000   0.89767551   -8.0591188    186.60431  0.017650805  0.017631068            5 
  882000   0.89350257   -8.0626778    186.88485  0.017657299  0.017615651           10 
  883000   0.89303532    -8.054275     187.0123   0.01764933  0.017600293           11 
  884000    0.9134473   -8.0378824    186.98725  0.017627003  0.017585029            4 
  885000   0.89200452   -8.0741623    187.08138  0.017615949  0.017569799            3 
  886000   0.88287822   -8.0709545    186.92701  0.017581547  0.017554516            5 
  887000   0.91440677   -8.0538708    187.59188   0.01762419  0.017539303            3 
  888000   0.90580725   -8.0918841    187.07464  0.017555803  0.017524012            4 
  889000   0.90677185   -8.0839428    187.49604  0.017575557  0.017508611            4 
  890000   0.90758205   -8.0702653    187.57976  0.017563648  0.017493142            4 
  891000   0.90243588   -8.0605661    187.99374  0.017582655  0.017477757            2 
  892000     0.905399    -8.066762    187.48843  0.017515736  0.017462444            4 
  893000   0.88957141   -8.0435485    187.68737  0.017514686  0.017447129            3 
  894000   0.90451076   -8.0762625    188.05621  0.017529475   0.01743181            5 
  895000   0.90059529   -8.0728255    188.09554  0.017513551  0.017416506            7 
  896000   0.89625795   -8.0821251     187.6209   0.01744986  0.017401154            5 
  897000   0.86422668   -8.0422025    188.22241  0.017486288  0.017385821            3 
  898000   0.89127174   -8.1076994    187.71773  0.017419982  0.017370466            7 
  899000   0.91258289   -8.0719136    188.18102   0.01744355  0.017355234            2 
  900000   0.89783908   -8.0809314    188.27662   0.01743302  0.017339998            3 
  901000   0.89428857    -8.083139    188.16626  0.017403465  0.017324749            3 
  902000   0.89848703   -8.0668768    188.42019   0.01740763  0.017309574            7 
  903000     0.898355   -8.0721342    188.50204  0.017395907  0.017294443            6 
  904000   0.90063601   -8.0710022    187.93428  0.017324325  0.017279306            8 
  905000   0.87557201   -8.0874493      188.444  0.017352118  0.017264112            5 
  906000   0.89216643   -8.0746802    188.74622  0.017360764  0.017248979            4 
  907000   0.90138235    -8.056823    188.96203  0.017361451  0.017233846            5 
  908000   0.88222924   -8.1097663    189.06456   0.01735174  0.017218707            7 
  909000   0.91104293   -8.0633405    188.99379  0.017326164  0.017203757            3 
  910000    0.8948854   -8.0831639    189.21148  0.017327058  0.017188786            3 
  911000   0.88938303   -8.0748651    188.76939  0.017267599  0.017173848            7 
  912000   0.88048851   -8.0933981    189.17629  0.017285845  0.017158901            4 
  913000   0.88904201   -8.0974169    189.50671  0.017297071   0.01714397            1 
  914000   0.88200161   -8.0664131    189.87634  0.017311847  0.017129086            4 
  915000    0.9091709   -8.1036894    189.53819   0.01726213  0.017114241            3 
  916000   0.87367365   -8.1083755    189.28874  0.017220591  0.017099348            6 
  917000   0.89127769    -8.099326    189.76136  0.017244762  0.017084454            3 
  918000   0.89686176   -8.0677919    189.78804  0.017228398  0.017069648            6 
  919000   0.90520299   -8.0894886    189.55598  0.017188609  0.017054745            4 
  920000   0.87208046   -8.0832971    190.18702  0.017227085  0.017039831            4 
  921000   0.89721201   -8.0852716    189.20405   0.01711944  0.017024891            4 
  922000   0.90555678   -8.1358515    189.59496  0.017136204  0.017009952            5 
  923000   0.88199157    -8.108015    189.49239  0.017108378  0.016995004            6 
  924000   0.88615718   -8.1237339    189.57653   0.01709745  0.016980018            3 
  925000    0.8745772   -8.0938013    189.46173  0.017068624  0.016965062            4 
  926000   0.88167175   -8.1053638    190.14825  0.017111974   0.01695033            7 
  927000   0.86983662   -8.1005387    189.94855  0.017075562  0.016935501            6 
  928000   0.88979587   -8.1065258    189.81016  0.017044734   0.01692064            4 
  929000   0.87350672   -8.0951345    190.50198  0.017088445  0.016905853            2 
  930000   0.87624491   -8.1204082    190.15511  0.017038988  0.016891079            9 
  931000   0.87816868   -8.1240617    190.06581  0.017012693  0.016876412            3 
  932000   0.89024368   -8.1240771    190.20599  0.017006973  0.016861649            3 
  933000   0.88822859   -8.1015244    190.25737  0.016993334  0.016846889            3 
  934000   0.88006712   -8.1730681    190.24963  0.016974449  0.016832149            8 
  935000   0.88694249   -8.1057991    190.70817  0.016997163  0.016817397            4 
  936000   0.86023958    -8.138848    190.45192  0.016956189  0.016802717            7 
  937000   0.87694966   -8.1331028    190.64591  0.016955346  0.016787887            6 
  938000   0.90509265   -8.1072929    190.77933  0.016949123  0.016773248            4 
  939000   0.86336389   -8.1207517    190.51253  0.016907395   0.01675852            7 
  940000    0.8772624   -8.1466473    190.74152  0.016909709  0.016743799            8 
  941000   0.86672126    -8.132581    190.68273  0.016886533  0.016729056            3 
  942000   0.89043336   -8.1406789    190.67201  0.016867659  0.016714402            2 
  943000     0.884231   -8.1312007    190.69978  0.016852225  0.016699737            5 
  944000   0.87008626   -8.1388487    191.05978  0.016866153   0.01668502           10 
  945000   0.86846012   -8.1053214    190.95073  0.016838689  0.016670422            3 
  946000   0.87133624   -8.0845789    191.08924  0.016833091  0.016655805            4 
  947000   0.87040381   -8.1354187    191.26805   0.01683105  0.016641252            3 
  948000   0.89114713   -8.1058044    191.57086  0.016839913  0.016626754            3 
  949000   0.85787324   -8.0932952    191.58683  0.016823572  0.016612382            3 
  950000   0.85948697   -8.1254271    191.51594  0.016799644  0.016597962            2 
  951000   0.87528219   -8.1237862    191.39633  0.016771498  0.016583605            2 
  952000   0.87612948   -8.1108613    191.85006  0.016793598  0.016569218            4 
  953000    0.8632719   -8.1184676    192.16059   0.01680313  0.016554896            2 
  954000   0.87893181   -8.1205115    191.81035  0.016754922  0.016540692            7 
  955000   0.85691344   -8.1064795    192.31307  0.016781245  0.016526374            5 
  956000   0.86716596   -8.1189931     191.9511  0.016732139  0.016512138            3 
  957000   0.87036208   -8.1175396    192.14063  0.016731159  0.016497797            4 
  958000   0.86196164   -8.1314901    191.98114   0.01669982  0.016483417            6 
  959000   0.87615917   -8.1356932    191.85635  0.016671563  0.016469114            3 
  960000   0.86508684   -8.1310658    192.46573  0.016707095  0.016454823            6 
  961000   0.86145674   -8.1642513    191.44072  0.016600825  0.016440566            5 
  962000   0.86717917   -8.1510133    192.31304  0.016659134  0.016426186            4 
  963000   0.86884753   -8.1539719    191.78007  0.016595714  0.016411868            3 
  964000    0.8660414   -8.1409541    192.70555  0.016658502  0.016397627            3 
  965000   0.87483867    -8.176581     191.8072  0.016563662  0.016383409            6 
  966000   0.85588171   -8.1245675    192.51181  0.016607299  0.016369164            5 
  967000   0.86900386   -8.1727812    192.65495   0.01660246  0.016354889            3 
  968000   0.87969183   -8.1677807    192.48618   0.01657078  0.016340769            3 
  969000   0.86268704   -8.1799884    192.49027  0.016554031  0.016326565            4 
  970000   0.85288482   -8.1596282    192.83369  0.016566468  0.016312384            3 
  971000   0.85886311   -8.1229052    192.59834  0.016529209  0.016298213            3 
  972000   0.89684353   -8.1945928    192.90441  0.016538444  0.016284057            5 
  973000   0.86128506    -8.145439    192.61097  0.016496315  0.016269894            3 
  974000   0.87542695   -8.1597515    192.69966  0.016486966  0.016255631            4 
  975000   0.86568066   -8.1600023    192.59039  0.016460717  0.016241304            5 
  976000   0.86131577    -8.175302    192.87581  0.016468221  0.016227064            2 
  977000   0.83957137   -8.1650279    192.71664  0.016437789  0.016212904            5 
  978000   0.83681878   -8.1630319    192.80371  0.016428401  0.016198661            3 
  979000   0.85961358   -8.1536214    192.97779  0.016426438  0.016184454            5 
  980000   0.85623666   -8.1821945    192.90798   0.01640374  0.016170306           15 
  981000   0.84615641   -8.1523658     192.9941  0.016394334  0.016156175            8 
  982000    0.8514658   -8.1504955    193.34899  0.016407756  0.016141974            6 
  983000   0.87090634    -8.190708    192.98155  0.016359914  0.016127803            6 
  984000   0.86869206   -8.1619922    192.93024  0.016338943  0.016113655           11 
  985000   0.85660076   -8.1612865     192.9877  0.016327216  0.016099566            7 
  986000   0.84616493   -8.1497307    193.49472  0.016353509  0.016085482            4 
  987000    0.8567062   -8.1816753    193.38361  0.016327559  0.016071338            6 
  988000    0.8664716    -8.152749    193.36378  0.016309361  0.016057186            3 
  989000   0.85730415   -8.1667713    193.30002  0.016287497  0.016043092            4 
  990000   0.84809903   -8.1734047    193.50929  0.016288661  0.016029013            8 
  991000   0.86224862   -8.2040361    193.30145  0.016254747  0.016014811            4 
  992000   0.84757646   -8.1918526    193.29378  0.016237717  0.016000674            3 
  993000     0.852966   -8.1963805    193.61678  0.016248471  0.015986552            2 
  994000   0.85769179   -8.1956686    193.32062  0.016207296  0.015972344            4 
  995000   0.85926759   -8.1880783    193.65276  0.016218824  0.015958161            4 
  996000   0.85745744   -8.1942955    193.74539   0.01621029  0.015943997            4 
  997000   0.84158687   -8.2192754    193.32039  0.016158508  0.015929844            4 
  998000   0.85852615   -8.1870442    193.75887   0.01617893  0.015915627            2 
  999000   0.85684006   -8.2064069    193.88896  0.016173587  0.015901524            5 
 1000000   0.84363601   -8.2068837    193.57747  0.016131456  0.015887348            7 
 1001000   0.84547811   -8.2153889    193.80042  0.016133901  0.015873102            9 
 1002000    0.8458308   -8.2121029    193.17929  0.016066142  0.015858883            6 
 1003000   0.85653545   -8.2090404    193.28734  0.016059101  0.015844661            4 
 1004000   0.86313508   -8.1982485    193.20498   0.01603627  0.015830363            4 
 1005000   0.83876299   -8.1746233    193.60879  0.016053796  0.015816113            3 
 1006000   0.85222963   -8.1855365    193.65683  0.016041818   0.01580196            3 
 1007000   0.82712942   -8.1708968    193.44218  0.016008125  0.015787817            7 
 1008000   0.87118857   -8.1758501     193.6275  0.016007565  0.015773686            9 
 1009000   0.85660599   -8.1688929    194.14326  0.016034296  0.015759617            4 
 1010000   0.86563127   -8.1803317    193.91546  0.015999626  0.015745556            4 
 1011000   0.86666553   -8.1614365    193.55638  0.015954202  0.015731442           11 
 1012000   0.83786965   -8.1828779    193.83397  0.015961296  0.015717345            4 
 1013000   0.85402893     -8.18406    193.47013  0.015915608  0.015703236           14 
 1014000   0.85027158   -8.1811565      194.248   0.01596384  0.015689175            3 
 1015000   0.83915796   -8.1825725    194.20549  0.015944621  0.015675138           29 
 1016000   0.83364237   -8.1876372     193.8449  0.015899352  0.015661042            5 
 1017000   0.84156007   -8.1947415    193.91085  0.015889123   0.01564696            3 
 1018000   0.85460482   -8.2034833    193.93367  0.015875382   0.01563282           13 
 1019000   0.86584102   -8.2253264    193.79001  0.015848055   0.01561869           12 
 1020000   0.83888412   -8.2049337    193.83424  0.015836131  0.015604509            3 
 1021000   0.84037296   -8.2225626    193.96831  0.015831563  0.015590383            3 
 1022000   0.85392607    -8.262159    193.98357  0.015817316  0.015576189            7 
 1023000   0.83976899   -8.2218077    194.28225  0.015826185  0.015562022            6 
 1024000   0.84611307   -8.2562612    194.30407  0.015812505  0.015547854            3 
 1025000   0.84355263   -8.2414873    194.20066  0.015788671   0.01553373            4 
 1026000   0.83339099   -8.2560022    194.18791  0.015772247  0.015519632            3 
 1027000   0.84869077   -8.2288082    194.51974  0.015783816  0.015505561            3 
 1028000   0.83353167   -8.2290456    193.87846  0.015716477  0.015491525            5 
 1029000   0.84972261   -8.2372291    194.21219  0.015728231  0.015477516            3 
 1030000   0.85005802   -8.2415793    194.09283  0.015703303  0.015463423            4 
 1031000   0.85290691   -8.2656764     193.8778  0.015670692    0.0154494            2 
 1032000   0.83948901   -8.2490658    194.83773  0.015733021  0.015435412            3 
 1033000    0.8384902   -8.2431683    194.40077   0.01568254  0.015421421            3 
 1034000   0.83014071   -8.2789414    194.85675  0.015704122  0.015407471            5 
 1035000   0.84035647   -8.2409128    194.73857  0.015679434  0.015393483            5 
 1036000   0.83350512   -8.2422885    194.70216   0.01566137  0.015379473           14 
 1037000   0.83266437   -8.2334252    194.77085  0.015651788   0.01536552            3 
 1038000   0.84705107   -8.2632629    194.69932  0.015630967  0.015351597            4 
 1039000   0.83773139   -8.2513516     194.9871  0.015639004  0.015337675            3 
 1040000    0.8225697   -8.2269017      195.052  0.015629166  0.015323804            5 
 1041000     0.832082   -8.2722834    194.99102  0.015609271  0.015309986            5 
 1042000   0.84837201   -8.2160676    195.01112  0.015595899  0.015296195            5 
 1043000   0.84042455    -8.247135    195.39969  0.015611992  0.015282413            4 
 1044000   0.84820962    -8.220491    195.33479  0.015591858   0.01526869            9 
 1045000   0.83580074   -8.2470614    195.37918  0.015580477  0.015254982            6 
 1046000   0.83667815   -8.2739362    194.96094  0.015532261  0.015241212            6 
 1047000   0.84498281   -8.2337233    195.60207  0.015568455  0.015227557            5 
 1048000   0.81930093    -8.247243    196.16751  0.015598562   0.01521399            2 
 1049000   0.84860293   -8.2269023    195.50075  0.015530723  0.015200442            5 
 1050000   0.83618027   -8.2467027    195.83257  0.015542267  0.015186877            6 
 1051000   0.83479799   -8.2458699    195.43001  0.015495561  0.015173342            4 
 1052000   0.82379122   -8.2183555     195.5732  0.015492173  0.015159687            4 
 1053000   0.83945988    -8.235702    195.61045  0.015480409   0.01514611            6 
 1054000   0.84901588   -8.2491602    195.34479  0.015444718  0.015132499            3 
 1055000   0.84805749   -8.2272221    195.65283   0.01545441  0.015118928            8 
 1056000    0.8384448   -8.2384841    195.45522  0.015424181  0.015105289            9 
 1057000    0.8273353   -8.2484823     195.4314  0.015407711   0.01509171            4 
 1058000   0.83384729   -8.2559431    195.05723  0.015363676  0.015078137            8 
 1059000   0.83310132   -8.2481845    195.94519  0.015419042  0.015064586            4 
 1060000   0.84475906   -8.2641273    195.68993  0.015384429  0.015050982            3 
 1061000    0.8295525   -8.2556154     195.8621  0.015383451  0.015037355            2 
 1062000   0.82658425   -8.2655667    195.69287  0.015355687  0.015023701            6 
 1063000   0.83494018   -8.2684733    195.62386  0.015335831  0.015010117           10 
 1064000   0.82047521   -8.2606594    195.49538  0.015311355  0.014996535            6 
 1065000   0.83654023   -8.2735713    195.45192  0.015293578  0.014983027            3 
 1066000   0.81642721   -8.2791727    195.92889  0.015316518  0.014969465            3 
 1067000   0.82645927   -8.2604362    195.60213  0.015276642  0.014955986            4 
 1068000    0.8361083   -8.2404066    196.07596   0.01529931  0.014942562            4 
 1069000   0.81337255   -8.2735542     195.7429  0.015259035  0.014929068            3 
 1070000   0.82591894   -8.2618798    195.97103  0.015262541  0.014915461            7 
 1071000   0.81109083   -8.2954585    195.50638  0.015212137  0.014901875            8 
 1072000   0.81909713   -8.2687722    195.51887  0.015198917   0.01488834            3 
 1073000   0.82269969   -8.2844385    195.86315   0.01521149  0.014874784            6 
 1074000   0.83828586   -8.2732358    195.63839  0.015179888  0.014861278            3 
 1075000   0.80280511   -8.2368996    195.70967  0.015171292   0.01484779            6 
 1076000   0.82356809   -8.2922905    195.66053  0.015153387  0.014834194            3 
 1077000   0.81520428   -8.2670918    196.21784  0.015182439  0.014820686            6 
 1078000   0.84529479   -8.2818276    195.78379  0.015134801  0.014807161            9 
 1079000   0.82275618   -8.2526306    196.66267  0.015188652  0.014793625            6 
 1080000   0.82606821   -8.2617773    196.00143  0.015123567   0.01478014            2 
 1081000   0.81565638   -8.2928341    196.11846  0.015118598  0.014766593            6 
 1082000   0.81826684   -8.3013139    195.84673  0.015083697  0.014753075            5 
 1083000   0.83166803   -8.3015977     195.9587  0.015078386  0.014739522            3 
 1084000   0.82104156    -8.290296    196.03649  0.015070456  0.014725976            3 
 1085000   0.82918267   -8.2549162    196.29865  0.015076701  0.014712539            7 
 1086000   0.82583878   -8.2767684    196.24458  0.015058669  0.014699187            5 
 1087000   0.82282453   -8.2491861    196.07758  0.015032013  0.014685767           10 
 1088000   0.81022622   -8.2806128    196.07213  0.015017779  0.014672393           12 
 1089000   0.83633523    -8.294675    195.79581  0.014982845  0.014658956            5 
 1090000    0.8457894   -8.2764409    196.32848  0.015009823  0.014645528            8 
 1091000   0.82927455   -8.2742395    196.43849  0.015004468  0.014632165            7 
 1092000   0.81790631   -8.2729626     196.2912  0.014979487  0.014618775            4 
 1093000   0.80868262   -8.3033356    196.28269  0.014965133  0.014605398           17 
 1094000    0.8158831   -8.2867083    196.11946  0.014939021  0.014592005            5 
 1095000   0.82551131   -8.2702311    196.50937  0.014955051  0.014578634            6 
 1096000   0.80927386   -8.2774094    196.61842  0.014949697  0.014565293           10 
 1097000   0.82403446   -8.2938231    196.73097   0.01494462   0.01455191            6 
 1098000    0.8199645   -8.2982791    196.55424  0.014917595  0.014538589            5 
 1099000   0.82392528   -8.3069561    196.68408  0.014913867  0.014525286           11 
 1100000   0.81124677   -8.3209632    196.20941  0.014864349  0.014511879           25 
 1101000   0.81828042   -8.3179907    196.35735  0.014862046   0.01449848           17 
 1102000   0.79150211    -8.296018    196.50251  0.014859536  0.014485132           13 
 1103000   0.81632803   -8.3105498    195.93448  0.014803149  0.014471802            2 
 1104000   0.80975836    -8.305094    196.62185  0.014841625  0.014458503            4 
 1105000   0.81066808   -8.3006267    196.69944  0.014834045  0.014445212            8 
 1106000   0.80748065   -8.3174224    196.37548  0.014796224  0.014431911            5 
 1107000   0.80149464   -8.2879402    197.13835  0.014840285  0.014418582            4 
 1108000   0.81612256   -8.3120774    196.70391  0.014794217   0.01440529           10 
 1109000   0.80496463    -8.297916    196.49555   0.01476522   0.01439203            9 
 1110000    0.7988242   -8.3038448    196.95399  0.014786336    0.0143788           10 
 1111000   0.80649992   -8.3088368    196.69755  0.014753791  0.014365637            6 
 1112000   0.79969308   -8.3019845    196.79348  0.014747713  0.014352427            6 
 1113000   0.80977878   -8.3276108    196.63356  0.014722489  0.014339192            6 
 1114000   0.81351037    -8.338141    196.80583  0.014722159  0.014325929            5 
 1115000   0.81028615   -8.3359576    196.46434  0.014683433  0.014312638            3 
 1116000   0.81160487   -8.3253973    196.80158  0.014695458  0.014299397            5 
 1117000   0.81795376   -8.3077985    197.03372  0.014699621  0.014286245           14 
 1118000   0.80968804   -8.3308195    196.82189  0.014670683  0.014273166            9 
 1119000   0.79431379    -8.321121    197.09495  0.014677908  0.014260057            3 
 1120000   0.80610359   -8.3154181    196.88979  0.014649538  0.014246985            6 
 1121000   0.79672477   -8.3608184     196.5404  0.014610496  0.014233891            3 
 1122000   0.79706495   -8.3161231    197.17017  0.014644249  0.014220764            8 
 1123000   0.80961539   -8.3068276    197.21899  0.014634831  0.014207795           12 
 1124000   0.78466683   -8.3357336    197.26447  0.014625183  0.014194792            5 
 1125000   0.80401948    -8.323541    197.26048  0.014611888  0.014181749            9 
 1126000   0.80951286   -8.3336444    196.91674  0.014573471  0.014168767            2 
 1127000   0.81579424   -8.3732534    197.15377  0.014578066  0.014155771            6 
 1128000   0.80632737   -8.3427949    197.28234  0.014574641  0.014142787            9 
 1129000   0.80119507   -8.3476491    196.43631  0.014499285  0.014129769            4 
 1130000   0.80676499   -8.3625772     197.5899  0.014571526  0.014116746            7 
 1131000   0.80489088    -8.370798    196.92271  0.014509483  0.014103741            5 
 1132000   0.79288941    -8.336618    197.55436  0.014543165  0.014090781            7 
 1133000   0.78738773   -8.3784457    197.16857  0.014501954  0.014077819           11 
 1134000   0.78556517   -8.3786276    197.30441  0.014499148  0.014064841           17 
 1135000   0.79602202   -8.3534219    197.28998  0.014485315  0.014051875            4 
 1136000   0.80030659   -8.3509566    197.65614  0.014499424  0.014038985            6 
 1137000   0.80593357   -8.3311195    197.69528  0.014489539  0.014026123            3 
 1138000   0.79757986   -8.3686416    197.37469  0.014453331  0.014013239            9 
 1139000   0.79522993   -8.3561046     197.5457  0.014453153  0.014000402            9 
 1140000   0.78405536    -8.351718    197.78051   0.01445764  0.013987639            8 
 1141000   0.79213496   -8.3736184    197.60006  0.014431789  0.013974838            5 
 1142000   0.81247299   -8.3853955    198.14222  0.014458714  0.013962126            7 
 1143000   0.79027227   -8.4023611    197.83927  0.014423977  0.013949442            4 
 1144000   0.79012199   -8.3662949    197.49564  0.014386338  0.013936678            6 
 1145000   0.79153954   -8.3590207    197.81459  0.014396986  0.013923907            2 
 1146000   0.80263008   -8.3891141    197.53879  0.014364368  0.013911177            5 
 1147000   0.78638081    -8.345103    198.18684  0.014398928  0.013898466            6 
 1148000   0.79058405   -8.3572219    197.83788  0.014361054  0.013885787            3 
 1149000   0.82156479   -8.3148934    197.87904   0.01435154  0.013873192            5 
 1150000   0.78806798   -8.3275018    197.98768  0.014346933  0.013860623            6 
 1151000   0.78818725   -8.3519428    198.30055  0.014357121  0.013848022            8 
 1152000   0.79147951   -8.3591042    198.01331  0.014323879   0.01383551            3 
 1153000   0.79511562   -8.3378133    198.51422  0.014347659  0.013822958           11 
 1154000   0.79719006   -8.3500823    198.03175  0.014300386  0.013810412            6 
 1155000   0.79273913    -8.364504    198.16854  0.014297874  0.013797859           16 
 1156000   0.80180367   -8.3831017    198.29579  0.014294679  0.013785338           12 
 1157000   0.77545541   -8.3447833    198.41873  0.014291179  0.013772823            3 
 1158000   0.78012376    -8.360371    198.42973   0.01427963  0.013760339            4 
 1159000   0.78781232   -8.3823596    198.38504  0.014264096  0.013747915            6 
 1160000   0.79331643   -8.3817129    198.29916  0.014245629  0.013735464            8 
 1161000   0.79643743   -8.3552417    198.46823  0.014245495   0.01372307            4 
 1162000   0.78242799   -8.3416165    199.03691  0.014274018  0.013710673           18 
 1163000   0.78940559   -8.3731753    198.82117  0.014246286  0.013698297            4 
 1164000   0.78226555   -8.3983948     198.5664  0.014215808  0.013685932            2 
 1165000   0.78168424    -8.383235    198.19195  0.014176821  0.013673547            3 
 1166000   0.79812738   -8.3828368    198.57844  0.014192285  0.013661164            4 
 1167000   0.77239792   -8.3820351    198.34356  0.014163351  0.013648745            2 
 1168000   0.77304039   -8.3944945    198.43045  0.014157424  0.013636305            3 
 1169000   0.77621016   -8.3492731    198.55375  0.014154103  0.013623855            7 
 1170000   0.78010395   -8.3536729    198.66317  0.014149798  0.013611491            4 
 1171000   0.78557912   -8.3598631    198.61004  0.014133934  0.013599151            5 
 1172000    0.7726893   -8.3723508    198.01586  0.014079626  0.013586764            9 
 1173000   0.78349078   -8.4135857    198.11248  0.014074487  0.013574317            4 
 1174000   0.77919247   -8.3683696    198.53814  0.014092713  0.013561894            6 
 1175000   0.80330248   -8.3847349    198.37025  0.014068812  0.013549496            8 
 1176000   0.78574383   -8.3983838    198.48262  0.014064811  0.013537111            7 
 1177000    0.7711526   -8.3618696    198.74723  0.014071596  0.013524713           15 
 1178000   0.78284185   -8.3910566    198.21419  0.014021943  0.013512342            5 
 1179000   0.77631146   -8.3964852    197.94367  0.013990929  0.013500027            4 
 1180000   0.77968424   -8.3920862    198.49634  0.014018103  0.013487678            9 
 1181000   0.79529498   -8.3754506    198.31696  0.013993576   0.01347534            6 
 1182000   0.79015492   -8.4110923    198.43783  0.013990259  0.013462973            8 
 1183000   0.77169982   -8.3815052     198.5041  0.013983101  0.013450657            7 
 1184000   0.77966689   -8.3939585    198.30874  0.013957541  0.013438339            5 
 1185000     0.783977   -8.3897457    198.59045  0.013965573  0.013426045            3 
 1186000   0.78246591   -8.4191981    198.35427  0.013937203  0.013413713            9 
 1187000   0.76709436   -8.3881749    198.30594  0.013922069   0.01340137            8 
 1188000   0.78554649   -8.3847727    198.57933  0.013929527   0.01338907            8 
 1189000   0.77721576   -8.4029583    198.72506  0.013928025   0.01337679            5 
 1190000   0.77724963   -8.3799989    199.35393  0.013960359  0.013364484            7 
 1191000   0.77140247   -8.4171617    197.82391  0.013841583  0.013352183            5 
 1192000   0.78716534   -8.4103008    198.20168  0.013856382  0.013339851            5 
 1193000   0.79203495   -8.4471528    197.70213  0.013809872  0.013327483            4 
 1194000    0.7610322   -8.4247016    198.37035  0.013844943  0.013315065           10 
 1195000   0.78407556    -8.413321    198.33202  0.013830685  0.013302661            6 
 1196000   0.77021402   -8.4091889    198.75888  0.013848863  0.013290307            5 
 1197000   0.77789609   -8.4460791     198.4687  0.013817091  0.013277988            7 
 1198000   0.76082256    -8.455961    198.25893  0.013790966  0.013265641            7 
 1199000   0.78775068   -8.4126253    198.28558  0.013781316  0.013253361            7 
 1200000   0.78441096   -8.3929764    198.45429  0.013781548  0.013241065            5 
 1201000   0.76972948   -8.4328341    198.58029  0.013778815  0.013228772            5 
 1202000   0.78076155   -8.4088157    198.87356  0.013787684  0.013216505            6 
 1203000   0.77810076   -8.4324754    198.16337  0.013727028  0.013204248           12 
 1204000   0.77683127   -8.4382907    198.03945  0.013707049  0.013191981            7 
 1205000   0.77691024   -8.4254929    198.44022   0.01372339  0.013179792            7 
 1206000    0.7820132   -8.4369218    198.31989  0.013703696  0.013167651            3 
 1207000   0.77637631    -8.409086    198.64323  0.013714667  0.013155481            6 
 1208000   0.79120361   -8.4129205    199.12999  0.013736892  0.013143317           12 
 1209000   0.76406501   -8.4430735    198.62728  0.013690879  0.013131156            8 
 1210000   0.78725318   -8.4538598    198.52637  0.013672615  0.013118942            4 
 1211000   0.76329689   -8.4261514     198.6012  0.013666474  0.013106721            9 
 1212000   0.76055723   -8.4425496    198.78397  0.013667765  0.013094568            5 
 1213000   0.76330983   -8.4152769    198.40843  0.013630697  0.013082429           11 
 1214000   0.77751162   -8.4364744    198.65157  0.013636159  0.013070245           26 
 1215000   0.78107345   -8.4560339    198.64681   0.01362461  0.013058091           14 
 1216000   0.78134693   -8.4500189    198.54326  0.013606309  0.013045981           16 
 1217000   0.76681104   -8.4333117    199.06435   0.01363081  0.013033875           41 
 1218000   0.77899496   -8.4301239    198.59787  0.013587703  0.013021808           31 
 1219000    0.7496957   -8.4484797     198.3162  0.013557301  0.013009702           31 
 1220000   0.77687366   -8.4626643    198.75908   0.01357644  0.012997578           37 
 1221000   0.74646647   -8.4459142    198.73987   0.01356401  0.012985471           43 
 1222000   0.75047128   -8.4736384    198.38145  0.013528468   0.01297334           38 
 1223000   0.75894338   -8.4725632    198.70717    0.0135396  0.012961181           62 
 1224000   0.74534229   -8.4722605    198.34096  0.013503606  0.012949058           46 
 1225000   0.76650814   -8.4862433    198.20827  0.013483556  0.012936958           27 
 1226000   0.76025261    -8.492917     198.2196  0.013473328   0.01292484           33 
 1227000   0.75149573   -8.5003768    197.98832   0.01344664  0.012912731           34 
 1228000   0.76189556   -8.4650381    198.32551  0.013458572  0.012900646           31 
 1229000   0.74842562   -8.4644142    198.52667   0.01346126  0.012888596           13 
 1230000   0.77321528   -8.4943665    198.35083  0.013438403  0.012876532           12 
 1231000    0.7615477   -8.4751192    198.39703  0.013430614  0.012864457           16 
 1232000   0.75122343   -8.4639885    198.19034  0.013405732  0.012852413           26 
 1233000   0.75986613   -8.4932126    198.29734  0.013402091  0.012840413           13 
 1234000   0.76209534   -8.4587245    198.43652  0.013400629  0.012828411           27 
 1235000   0.74743879   -8.4937313    198.50976  0.013394721  0.012816429           25 
 1236000   0.76295089   -8.4907467    198.63894  0.013392593  0.012804433            8 
 1237000   0.77096215   -8.4689556    198.89038  0.013398706  0.012792484           13 
 1238000   0.75126103   -8.4822252    198.66552  0.013372746  0.012780568           17 
 1239000   0.77950168   -8.4818751    198.45501  0.013347794   0.01276861            6 
 1240000   0.74332816   -8.4877658    198.31999  0.013327956   0.01275668           10 
 1241000   0.76671117   -8.4888492    198.92034   0.01335753  0.012744722           11 
 1242000   0.78582981   -8.5060523    198.68496  0.013330982  0.012732759           25 
 1243000   0.74902093   -8.5143562    198.60151  0.013314662  0.012720839           20 
 1244000   0.76683354   -8.4981122    198.60502  0.013304195  0.012708892           32 
 1245000    0.7547482    -8.512378    198.87598  0.013311645  0.012697016           30 
 1246000   0.75835285   -8.4913949    199.34525  0.013332347  0.012685092           35 
 1247000   0.75179076   -8.4867042    198.58882  0.013271105   0.01267316           22 
 1248000   0.75927017   -8.4930521    198.63351  0.013263455   0.01266125           26 
 1249000   0.75758258   -8.5007938    198.33322  0.013232801  0.012649346           27 
 1250000    0.7632001   -8.4790479    198.99445  0.013266297  0.012637432           36 
 1251000   0.75521856   -8.4825979    198.80083  0.013242795  0.012625554           33 
 1252000   0.74546568   -8.5006803    199.05822  0.013249349   0.01261369           37 
 1253000   0.74847332    -8.492102    198.33465  0.013190652  0.012601814           46 
 1254000   0.75052322    -8.499531    198.44044  0.013187164  0.012589919           34 
 1255000   0.73428176    -8.489185    198.41568  0.013175012  0.012578043           52 
 1256000   0.74499903   -8.5147509    198.61715   0.01317789  0.012566219           50 
 1257000    0.7610631   -8.4956503    198.56812  0.013164156  0.012554396           50 
 1258000   0.73426885   -8.4956848    198.92561  0.013177372  0.012542638           39 
 1259000   0.74244062   -8.4901651    198.83162  0.013160685  0.012530866           55 
 1260000   0.75975153    -8.495712    198.87458  0.013153081  0.012519104           51 
 1261000   0.74262142   -8.5085445    198.76889  0.013135665  0.012507321           61 
 1262000   0.73474769   -8.5074945    198.82257  0.013128802   0.01249555           42 
 1263000   0.73886566   -8.5018758    198.87423  0.013121815  0.012483789           50 
 1264000   0.73187217   -8.5164071    198.66816  0.013097848  0.012472006           44 
 1265000   0.75453828   -8.5332384    198.49323  0.013075971  0.012460254           51 
 1266000   0.75419517   -8.5165992    198.33828  0.013055442  0.012448484           45 
 1267000   0.74427088   -8.5081681    198.31601  0.013043673  0.012436748           54 
 1268000    0.7394219   -8.5068618    198.39669  0.013038689  0.012425009           56 
 1269000   0.74773685   -8.5059033    198.26599  0.013019831  0.012413277           45 
 1270000   0.73632932   -8.4997805    198.48026  0.013023639   0.01240155           40 
 1271000   0.76303314    -8.537452    198.45657  0.013011839  0.012389827           40 
 1272000   0.75728049    -8.564028    198.47283  0.013002675  0.012378121           45 
 1273000   0.75209537   -8.5230803    198.31114  0.012981876  0.012366409           39 
 1274000   0.73043955   -8.5145711    198.38178  0.012976307  0.012354701           40 
 1275000   0.73489971   -8.5340637    198.58254  0.012979251  0.012343082           36 
 1276000   0.73686945   -8.5063876    198.72793  0.012978574  0.012331457           31 
 1277000   0.74152142   -8.5240697    198.61223   0.01296086  0.012319808           41 
 1278000   0.72604733   -8.5264565    198.62808  0.012951753  0.012308139           40 
 1279000   0.74964488   -8.5284864    198.40369  0.012927006  0.012296498           31 
 1280000   0.74329264   -8.5262223    198.43831  0.012919161  0.012284843           51 
 1281000     0.720356   -8.5285302    198.61291  0.012920434  0.012273248           32 
 1282000   0.74063048   -8.5489929    198.58585  0.012908597  0.012261598           59 
 1283000   0.73312392   -8.4998717    198.70107  0.012906019  0.012249954           58 
 1284000    0.7464555    -8.521463    198.53021  0.012884879  0.012238329           57 
 1285000   0.74979618   -8.4976268    198.75591  0.012889488  0.012226744           48 
 1286000   0.74221681   -8.5549236    198.01457  0.012831426  0.012215154           58 
 1287000   0.75084733   -8.5301132    198.44769  0.012849501  0.012203577           43 
 1288000     0.750055   -8.5671815    198.42024  0.012837748  0.012192016           63 
 1289000   0.73634642   -8.5409162      198.733  0.012848009  0.012180475           71 
 1290000   0.71112035   -8.5375643     198.5684  0.012827416  0.012168927           61 
 1291000   0.73257228   -8.5340591    198.56628  0.012817343  0.012157395           74 
 1292000    0.7501756   -8.5401353    198.22997  0.012785731  0.012145862           94 
 1293000   0.74713038   -8.5514819    198.28461  0.012779364  0.012134303           96 
 1294000   0.72912835   -8.5109909    198.75109  0.012799529  0.012122783          103 
 1295000   0.72020275   -8.5720634    198.34342  0.012763412  0.012111262           77 
 1296000   0.74993182      -8.5944    197.96209  0.012729044  0.012099725           99 
 1297000   0.73188139   -8.5540351    198.71684  0.012767723  0.012088217           93 
 1298000   0.74544918   -8.5647564    198.48543   0.01274303  0.012076745          139 
 1299000   0.74555437   -8.5157097    198.74838  0.012750088  0.012065309          130 
 1300000   0.72904802   -8.5686556    198.45226  0.012721299  0.012053907          153 
 1301000   0.72976149   -8.5484957    198.23625  0.012697685  0.012042484          123 
 1302000   0.72488574   -8.5352514     198.8438  0.012726818  0.012031116          118 
 1303000    0.7220798    -8.573729    198.57461  0.012699835  0.012019726          126 
 1304000   0.73008905   -8.5550798    198.88422  0.012709881  0.012008328          111 
 1305000   0.73448048   -8.5768304    198.34824  0.012665915  0.011996916          157 
 1306000   0.74116394   -8.5630073    197.99611  0.012633748  0.011985523          135 
 1307000    0.7141459   -8.5650324    198.06638  0.012628563  0.011974116          129 
 1308000   0.72458831   -8.5618014    198.77393  0.012663986  0.011962733          146 
 1309000   0.72410126   -8.5904605    198.10889  0.012611974  0.011951354          139 
 1310000   0.73499107    -8.586611    197.80114  0.012582769  0.011939971          171 
 1311000    0.7453656   -8.5792203    197.96368  0.012583503  0.011928569          158 
 1312000   0.72200428   -8.5781201    198.01216  0.012576992  0.011917199          154 
 1313000   0.71496432   -8.5731281    198.87711  0.012622309  0.011905855          146 
 1314000   0.73505009   -8.5850111    198.00905  0.012557652  0.011894476          157 
 1315000   0.72898463   -8.6163516    198.24408  0.012562996  0.011883111          168 
 1316000   0.73819489   -8.5747538    198.57389  0.012574335  0.011871764          153 
 1317000   0.72343477   -8.5895296    198.31756  0.012548567  0.011860409          159 
 1318000   0.72391481   -8.5852181    198.19966  0.012531592  0.011849066          167 
 1319000   0.75172717   -8.5921488    198.02073  0.012510787  0.011837763          164 
 1320000   0.72258811   -8.5763851    198.00189  0.012500119  0.011826467          156 
 1321000    0.7268437   -8.5738075    198.62377  0.012529887  0.011815201          171 
 1322000   0.71920316   -8.6028792    198.15412  0.012490805  0.011803898          154 
 1323000   0.71000321   -8.5998357    198.38415  0.012495852  0.011792636          151 
 1324000   0.73696979   -8.5896383    198.53594  0.012495968  0.011781381          161 
 1325000   0.72719388   -8.5972381    198.44201  0.012480629   0.01177015          161 
 1326000   0.73123254   -8.6296229     198.2072  0.012456461  0.011758926          158 
 1327000   0.70840921   -8.6007639    198.33661  0.012455201  0.011747722          157 
 1328000   0.72393045   -8.6008449    198.36388  0.012447532  0.011736529          164 
 1329000   0.73318367   -8.5958637    198.51805  0.012447834  0.011725341          174 
 1330000   0.71714748   -8.5928219     198.8417  0.012458753  0.011714177          155 
 1331000   0.70907827   -8.6287027    198.23421  0.012411358  0.011703018          172 
 1332000   0.72070001   -8.5937532    198.17625  0.012398414  0.011691844          165 
 1333000   0.72065272   -8.6071785     198.2305  0.012392504   0.01168072          178 
 1334000   0.70730154    -8.614846    198.45189  0.012397045  0.011669594          153 
 1335000   0.72568493   -8.6012347    198.09517  0.012365492  0.011658469          175 
 1336000   0.71841877   -8.6034878    198.42498  0.012376807  0.011647364          172 
 1337000   0.71605806   -8.5765581    198.63275  0.012380501  0.011636267          179 
 1338000   0.72611371    -8.596562    198.66135  0.012373029  0.011625182          163 
 1339000   0.71409826   -8.6012381    198.30451   0.01234158  0.011614109          178 
 1340000   0.71075318   -8.6095259    198.33909  0.012334521  0.011603035          164 
 1341000   0.70547307   -8.5884947    198.59155  0.012341011  0.011591992          158 
 1342000   0.71126056   -8.6178272    198.72584  0.012340154  0.011580972          175 
 1343000   0.73533651    -8.606966    198.48628  0.012316101  0.011569963          169 
 1344000   0.72198061    -8.609108    198.49356  0.012307389  0.011558957          178 
 1345000   0.72480936   -8.6305737    198.24161  0.012282628  0.011547971          177 
 1346000   0.70698342   -8.6186736    197.95452  0.012255728  0.011536992          157 
 1347000   0.71179494   -8.6263996    198.33221  0.012269996  0.011525989          209 
 1348000   0.70762913    -8.641345    198.33965  0.012261353  0.011514996          205 
 1349000   0.72905437   -8.6171807    198.43398  0.012258091  0.011504058          177 
 1350000   0.70203959   -8.6315798    198.49264  0.012252632  0.011493138          197 
 1351000   0.72116477   -8.6238334    198.62318  0.012251615  0.011482223          203 
 1352000   0.70549444   -8.6200242    198.23764   0.01221879   0.01147134          184 
 1353000   0.75139525    -8.633935    198.51218  0.012226668  0.011460458          201 
 1354000   0.71743717   -8.6106076    198.76829    0.0122334  0.011449614          199 
 1355000   0.70699684   -8.6237585    198.87256  0.012230785  0.011438783          171 
 1356000   0.70399172   -8.6354233    198.45484  0.012196094  0.011427968          211 
 1357000   0.70306594   -8.6256564    198.37841  0.012182413  0.011417144          178 
 1358000   0.72717458   -8.6479971    198.66791  0.012191207    0.0114063          189 
 1359000   0.70618237   -8.6284515    198.05182  0.012144458  0.011395438          178 
 1360000   0.71670788   -8.6049266    198.76621  0.012179302  0.011384578          210 
 1361000   0.73021587   -8.6264057    198.93291   0.01218056  0.011373726          195 
 1362000   0.70995622   -8.6512868    198.52185  0.012146467  0.011362902          220 
 1363000   0.70686063   -8.6270701    198.45008  0.012133167  0.011352101          191 
 1364000   0.70818325    -8.645564    198.18615  0.012108147  0.011341275          228 
 1365000   0.70125294   -8.6430145    198.34886   0.01210921  0.011330493          228 
 1366000   0.71521627   -8.6422402    198.75394  0.012125057  0.011319742          227 
 1367000   0.71169435   -8.6573539    198.05663  0.012073679  0.011308978          246 
 1368000    0.6885632   -8.6474767    198.40133  0.012085851  0.011298246          251 
 1369000   0.69464465   -8.6541418    198.31344  0.012071673  0.011287509          264 
 1370000   0.70367048   -8.6310649    198.53839  0.012076544  0.011276783          268 
 1371000   0.71344615       -8.647     199.0159  0.012096761  0.011266086          250 
 1372000   0.72724254   -8.6367038    198.31289  0.012045243  0.011255374          274 
 1373000   0.70988571    -8.639135    198.46178  0.012045508  0.011244674          272 
 1374000   0.71021571   -8.6257067    198.23227  0.012022821  0.011233975          288 
 1375000   0.69973443   -8.6160393    198.07974  0.012004833  0.011223311          279 
 1376000   0.71310362   -8.6760485     198.5595  0.012025164  0.011212618          251 
 1377000   0.68872292   -8.6635106    198.24137  0.011997178  0.011201911          258 
 1378000   0.69477266   -8.6669825    198.69449  0.012015874   0.01119125          270 
 1379000   0.70293011   -8.6378958    198.53794    0.0119977  0.011180637          266 
 1380000   0.69365673   -8.6432306    198.14129  0.011965053  0.011170016          248 
 1381000   0.68188706   -8.6589935    198.03578  0.011950023  0.011159368          238 
 1382000   0.70713152   -8.6504417    198.05227   0.01194237  0.011148716          265 
 1383000     0.693547   -8.6740461    198.27043   0.01194688  0.011138098          261 
 1384000   0.69951087   -8.6753457    198.00599  0.011922326  0.011127474          294 
 1385000   0.70566662   -8.6920335     197.8397  0.011903713  0.011116834          278 
 1386000   0.71243624   -8.6957696    198.12542  0.011912303  0.011106172          314 
 1387000   0.69663647   -8.7034785    198.21535  0.011909117  0.011095516          311 
 1388000    0.6921848   -8.6794093    198.31439  0.011906484  0.011084871          309 
 1389000   0.69244448   -8.6715452    198.31521  0.011897961  0.011074229          312 
 1390000   0.71093853   -8.6560049    197.88295  0.011863486  0.011063629          284 
 1391000   0.70639239   -8.6873372    198.27316  0.011878334  0.011053036          281 
 1392000   0.69926676   -8.6817664    198.01059  0.011854083  0.011042468          310 
 1393000   0.69369776   -8.6710536     198.2111  0.011857568  0.011031925          323 
 1394000   0.71123254   -8.6953226    197.96413  0.011834298  0.011021396          340 
 1395000   0.68847702   -8.6807029    198.35161  0.011848961  0.011010861          309 
 1396000   0.69995052   -8.6900295    198.23549  0.011833542  0.011000319          307 
 1397000   0.69826078   -8.6981656    197.95941  0.011808603  0.010989798          317 
 1398000     0.691639   -8.6683358    198.02274   0.01180393  0.010979282          310 
 1399000   0.70860402   -8.6815734    197.89586  0.011787935  0.010968761          292 
 1400000   0.70030484    -8.695937    197.88629  0.011778946  0.010958235          327 
 1401000   0.69618605     -8.68519    197.98088  0.011776165  0.010947728          337 
 1402000   0.69374607   -8.7018902    198.16164   0.01177851  0.010937226          292 
 1403000   0.69223463   -8.6730309    198.44781  0.011787112  0.010926762          318 
 1404000   0.69858628   -8.6937816    197.99446  0.011751808  0.010916278          319 
 1405000   0.68203986   -8.6934029     198.1127  0.011750457  0.010905834          322 
 1406000   0.68306447   -8.7013995    198.31094  0.011753849  0.010895389          312 
 1407000   0.69158868   -8.7093245    198.22817  0.011740593  0.010884966          305 
 1408000   0.69832909   -8.6672747    198.31587  0.011737445  0.010874551          324 
 1409000   0.70333112   -8.6893292    198.01025  0.011711039  0.010864143          322 
 1410000   0.69382935   -8.6833071     197.8392  0.011692624  0.010853759          315 
 1411000   0.69501414   -8.6879315    198.08851  0.011699062  0.010843394          303 
 1412000   0.66950313    -8.680718    198.20766  0.011697808   0.01083301          310 
 1413000   0.67615084    -8.696114    198.04799  0.011680113  0.010822663          300 
 1414000   0.68730666    -8.703545     198.2578  0.011684217  0.010812325          303 
 1415000   0.68967683   -8.7102952    198.03611  0.011662904  0.010801985          307 
 1416000   0.70055576   -8.7082356    198.29028  0.011669626  0.010791672          326 
 1417000   0.69425126   -8.6949663    198.26282  0.011659775  0.010781355          327 
 1418000   0.67346157   -8.7160367    197.99034   0.01163554  0.010771064          341 
 1419000   0.68612169   -8.7080814    198.00994   0.01162849  0.010760777          340 
 1420000   0.68131259   -8.7236402    197.66629  0.011600134  0.010750502          357 
 1421000   0.70227306   -8.7185625    197.99204  0.011611074  0.010740218          329 
 1422000   0.68932793   -8.7228558    197.98567  0.011602536  0.010729938          347 
 1423000   0.69385692   -8.7203642    198.03266  0.011597134  0.010719688          325 
 1424000   0.69069607   -8.6837684    198.03733  0.011589263  0.010709442          319 
 1425000   0.69018764   -8.6932126    198.02928  0.011580659   0.01069922          325 
 1426000   0.68509656   -8.7044363     198.2532  0.011585624  0.010689024          340 
 1427000   0.67606901   -8.7015946     198.0127  0.011563461  0.010678808          339 
 1428000   0.69320085   -8.6951939    197.83815  0.011545177  0.010668608          314 
 1429000   0.68250915   -8.7134081    198.27193  0.011562394  0.010658414          344 
 1430000   0.68634914   -8.7241086    197.82857  0.011528472  0.010648233          313 
 1431000   0.67422398   -8.7213969    197.78966  0.011518149  0.010638067          323 
 1432000   0.69083246   -8.7414849     197.6699  0.011503137    0.0106279          334 
 1433000    0.6772916   -8.7097197    198.33781   0.01153395  0.010617725          344 
 1434000   0.68891133   -8.7511021    198.09637  0.011511876  0.010607552          338 
 1435000   0.68906774   -8.7321598      198.299  0.011515622  0.010597418          320 
 1436000   0.67521149   -8.7324319    197.81808  0.011479694  0.010587285          301 
 1437000   0.68009504   -8.7292047    197.95103  0.011479415  0.010577174          323 
 1438000   0.68441783   -8.7598139    197.58805  0.011450397  0.010567051          333 
 1439000   0.66409564   -8.7494645    197.63936  0.011445411  0.010556927          319 
 1440000   0.66289812   -8.7474024    197.95562  0.011455765  0.010546794          328 
 1441000   0.68038751   -8.7719738    197.63376  0.011429202  0.010536691          335 
 1442000    0.6697996   -8.7165367    197.67186  0.011423478  0.010526608          332 
 1443000   0.69466805   -8.7516566    197.89392  0.011428385  0.010516537          332 
 1444000   0.67058981   -8.7604503     197.4253  0.011393427  0.010506454          336 
 1445000   0.66742619   -8.7532822    197.50082  0.011389898  0.010496375          332 
 1446000    0.6594954   -8.7496719    198.15277  0.011419592  0.010486302          325 
 1447000    0.6831241   -8.7532088     197.6996  0.011385602  0.010476224          334 
 1448000   0.66785322   -8.7676145    197.64179  0.011374412  0.010466186          339 
 1449000   0.66660864   -8.7658793    197.81805    0.0113767  0.010456133          309 
 1450000   0.68704872   -8.7514404    197.77609  0.011366442  0.010446092          315 
 1451000   0.67561697   -8.7676635    197.52792  0.011344356   0.01043606          343 
 1452000   0.67792316    -8.764666    197.98976  0.011363048  0.010426047          346 
 1453000   0.66541986   -8.7625116     197.6706  0.011336923  0.010416037          352 
 1454000   0.67985024   -8.7538704    197.84246  0.011338977  0.010406046          338 
 1455000   0.66721753   -8.7667908    197.47645   0.01131022   0.01039609          351 
 1456000   0.67028759   -8.7612309    197.95446  0.011329811  0.010386155          341 
 1457000   0.67727894   -8.7548199    197.74325  0.011309955  0.010376221          345 
 1458000   0.68726358   -8.7791469     197.3105  0.011277463  0.010366282          390 
 1459000   0.65695678   -8.7576207    197.59356  0.011285901  0.010356366          358 
 1460000   0.66814342   -8.7778633    197.48446  0.011271944  0.010346451          360 
 1461000   0.67369838   -8.7960165    197.84028  0.011284524  0.010336559          353 
 1462000   0.66601864   -8.7693512    197.44952  0.011254533  0.010326665          366 
 1463000   0.67601456   -8.7613623     197.5753  0.011254004  0.010316773          353 
 1464000   0.68353649   -8.7915342    197.49322  0.011241645  0.010306863          362 
 1465000   0.66364546   -8.7896584    197.38281  0.011227691  0.010296982          362 
 1466000   0.66075007    -8.791499    197.45702  0.011224251  0.010287116          377 
 1467000   0.67527519   -8.7802586    197.81288  0.011236814  0.010277267          355 
 1468000   0.65914188    -8.758769    197.50521  0.011211695  0.010267436          372 
 1469000   0.66011308   -8.7762336    197.29689  0.011192245  0.010257595          345 
 1470000   0.67806916   -8.7796837    197.34226  0.011187203  0.010247755          371 
 1471000   0.65711081   -8.7801602    197.88789  0.011210508  0.010237943          378 
 1472000   0.66261273   -8.7716399     197.3652  0.011173302  0.010228148          363 
 1473000   0.66630223   -8.7766175    197.55488  0.011176447  0.010218355          364 
 1474000   0.66724316   -8.7882297    197.62536   0.01117285  0.010208576          364 
 1475000   0.66718006   -8.7700116    197.71011  0.011170063  0.010198812          356 
 1476000   0.66507111   -8.8025467    197.55219  0.011153579  0.010189042          343 
 1477000   0.66366039   -8.7931253    197.64168  0.011151077  0.010179279          370 
 1478000   0.66775386   -8.8132054    197.60609  0.011141525  0.010169527          372 
 1479000   0.66031194   -8.7896617    197.49566   0.01112777  0.010159805          377 
 1480000   0.66892933   -8.7974509    197.56621  0.011124223  0.010150073          352 
 1481000   0.65040208    -8.791475    197.48347  0.011112057  0.010140352          366 
 1482000   0.66990327   -8.7742685    197.63411  0.011113029  0.010130636          354 
 1483000   0.66340666   -8.7937865    197.56637  0.011101729  0.010120943          387 
 1484000    0.6659424   -8.7924374    197.41724  0.011085874  0.010111261          361 
 1485000   0.65565534   -8.8085576     197.4331  0.011079299  0.010101582          380 
 1486000   0.65921219   -8.7988024     197.6845  0.011085941  0.010091922          380 
 1487000   0.66472317   -8.8062434    197.50132   0.01106822  0.010082279          387 
 1488000    0.6613699   -8.7937497    197.79831  0.011077414  0.010072641          385 
 1489000   0.65218714   -8.7963449    197.20982  0.011037039  0.010063016          400 
 1490000   0.64348294   -8.8160067    197.22347  0.011030396  0.010053404          381 
 1491000   0.66772664   -8.8020202    197.47456  0.011037031  0.010043776          400 
 1492000   0.65532658   -8.7894534    197.74016  0.011044468  0.010034169          370 
 1493000   0.64942448   -8.8062822    197.17707  0.011005641  0.010024572          362 
 1494000   0.64506555   -8.7980128    197.59904  0.011021812  0.010014971          368 
 1495000    0.6668817   -8.7813504    197.70537  0.011020366  0.010005403          373 
 1496000    0.6600383   -8.8223786     197.5581  0.011004796 0.0099958367          399 
 1497000   0.65250307   -8.7921504    197.23861   0.01097966 0.0099862704          389 
 1498000   0.65562302   -8.7975052    197.42112  0.010982483 0.0099767372          391 
 1499000   0.66431082   -8.8011121    197.43663  0.010976019 0.0099671924          384 
 1500000   0.65924359   -8.8049412    197.23838  0.010957688 0.0099576628          412 
 1501000   0.65618103   -8.8191877     197.2649   0.01095186  0.009948135          406 
 1502000   0.65204202   -8.8117437    197.55529  0.010960679 0.0099386157          401 
 1503000   0.66437181   -8.8175042    197.32565  0.010940655 0.0099291097          404 
 1504000   0.64773702   -8.8273011    197.10537  0.010921175 0.0099196053          433 
 1505000   0.66147609   -8.8262375    197.84716  0.010954992 0.0099101341          436 
 1506000   0.65520331   -8.8277998    197.52361  0.010929815 0.0099006465          459 
 1507000   0.63997453   -8.8227394    196.96925  0.010891907 0.0098911846          449 
 1508000     0.643444   -8.8052566    197.22094  0.010898593 0.0098817379          461 
 1509000   0.63832883   -8.8205484    197.65013  0.010915072  0.009872294          461 
 1510000   0.63726624   -8.8123773    197.34792  0.010891166 0.0098628637          450 
 1511000   0.64511229   -8.8380739    197.54685  0.010894929 0.0098534472          462 
 1512000   0.65925311   -8.8261759    197.17345  0.010867144 0.0098440457          454 
 1513000   0.64588196   -8.8177143    197.20413  0.010861651 0.0098346452          438 
 1514000   0.64866962   -8.8083641    197.51109  0.010871372 0.0098252659          455 
 1515000   0.65636985   -8.8297421    197.61351   0.01086983  0.009815893          451 
 1516000   0.65985996   -8.8403779    197.04737   0.01083154 0.0098065222          451 
 1517000   0.64314791   -8.8232404    197.33454  0.010840175 0.0097971542          437 
 1518000   0.65139541   -8.8457857    197.55994  0.010845408 0.0097878061          430 
 1519000   0.65451426    -8.848363    197.15791  0.010816212 0.0097784775          446 
 1520000   0.65266956   -8.8545406    196.86065  0.010792799 0.0097691498          441 
 1521000   0.65264184     -8.84418    197.17985  0.010803191 0.0097598252          439 
 1522000   0.64067001   -8.8387171    197.19167  0.010796741 0.0097505189          463 
 1523000    0.6518785   -8.8083252    197.49582  0.010806294 0.0097412236          455 
 1524000   0.63521148   -8.8380822    197.22669  0.010784487 0.0097319384          455 
 1525000   0.63968781    -8.858929    197.16456  0.010774019 0.0097226534          465 
 1526000   0.65654535   -8.8704739    197.25632   0.01077197 0.0097133698          449 
 1527000   0.64124008    -8.856475    197.35853  0.010770494 0.0097040989          458 
 1528000   0.65648714   -8.8478832    197.60399  0.010776832 0.0096948269          432 
 1529000   0.62882684   -8.8689177    197.54508  0.010766573 0.0096855724          468 
 1530000   0.63744239   -8.8622089    197.25336  0.010743647 0.0096763292          454 
 1531000   0.63638177   -8.8413947    196.89773  0.010717273  0.009667107          445 
 1532000   0.64004201   -8.8610475     197.0169  0.010716759 0.0096578791          473 
 1533000   0.63125814     -8.87157    196.82357  0.010699259 0.0096486694          427 
 1534000   0.64777112   -8.8355825    197.03419  0.010703726 0.0096394622          442 
 1535000   0.64258829   -8.8582928    197.24062   0.01070796 0.0096302741          444 
 1536000   0.65488083   -8.8598029    196.83116  0.010678774 0.0096210851          456 
 1537000   0.64238721   -8.8497787    196.91102  0.010676156 0.0096119087          456 
 1538000   0.63365639   -8.8406198    196.79365  0.010662855  0.009602744          449 
 1539000    0.6326606   -8.8431603    197.04642  0.010669614 0.0095935992          433 
 1540000   0.65338283   -8.8612364     197.1255  0.010666964 0.0095844563          453 
 1541000   0.64367547   -8.8758228    197.12362  0.010659941  0.009575318          464 
 1542000   0.63561696   -8.8563676    197.16475   0.01065525 0.0095661758          447 
 1543000   0.62776708   -8.8659829    196.98517  0.010638646 0.0095570466          458 
 1544000   0.62515317   -8.8653986    196.83443   0.01062362 0.0095479392          463 
 1545000   0.64104659   -8.8560089    196.61523   0.01060492 0.0095388459          455 
 1546000   0.63203471    -8.841811    197.13019  0.010625819 0.0095297577          456 
 1547000   0.64070283   -8.8754877    197.33438  0.010629949 0.0095206687          445 
 1548000   0.63246989   -8.8775715    197.01944  0.010606128  0.009511593          447 
 1549000   0.62901311   -8.9055268    196.96523  0.010596365 0.0095025376          473 
 1550000   0.63251628   -8.8797686    197.16356  0.010600191 0.0094934937          477 
 1551000   0.62997073   -8.8714574    196.78009  0.010572754  0.009484458          456 
 1552000   0.63693463   -8.8735158    197.06569  0.010581276 0.0094754453          456 
 1553000   0.62897097   -8.8736093    197.38676  0.010591691 0.0094664329          474 
 1554000   0.64751258   -8.8749251    196.99686  0.010563967 0.0094574169          459 
 1555000    0.6295864    -8.862658    197.15593  0.010565698 0.0094484214          451 
 1556000    0.6282366   -8.8632244    196.94798  0.010547771 0.0094394393          452 
 1557000   0.63207649   -8.8645913    197.20028    0.0105545 0.0094304584          467 
 1558000     0.630396   -8.8818394    197.03108  0.010538676 0.0094214826          486 
 1559000   0.62641619   -8.8797657    196.73709  0.010516201 0.0094125184          476 
 1560000   0.63231104    -8.883404    196.95998  0.010521366  0.009403564          441 
 1561000   0.64288611   -8.8948902    196.66973  0.010499131 0.0093946235          490 
 1562000   0.64048645   -8.8771369    197.12137  0.010516505 0.0093856802          451 
 1563000   0.61940667   -8.8876818    197.19461  0.010513681 0.0093767495          460 
 1564000   0.63244272   -8.9034207     196.5198  0.010471004 0.0093678335          462 
 1565000   0.62352147   -8.8966955    196.86761  0.010482833 0.0093589096          469 
 1566000   0.62831864   -8.8774597    197.28789  0.010498504 0.0093500179          479 
 1567000    0.6306343   -8.8712613    197.07237  0.010480343 0.0093411377          486 
 1568000   0.62605233   -8.9024881    196.45802  0.010441009 0.0093322628          477 
 1569000    0.6335737   -8.8950643    196.73566    0.0104491 0.0093233858          473 
 1570000     0.637461   -8.9125304    196.55853  0.010433043  0.009314526          472 
 1571000   0.63356089   -8.8952901    197.03338   0.01045159 0.0093056659          460 
 1572000   0.62684773   -8.8946698    196.89633  0.010437677 0.0092968176          481 
 1573000   0.62618911   -8.8741663    196.81775  0.010426878 0.0092879769          458 
 1574000   0.63820284    -8.904472    196.82071   0.01042041 0.0092791533          442 
 1575000   0.63206804   -8.8742721    196.68929  0.010406841 0.0092703488          472 
 1576000   0.62820652   -8.8806061    197.05085  0.010419356 0.0092615453          483 
 1577000   0.63716359   -8.9107724    196.62144  0.010390057  0.009252752          472 
 1578000   0.61706348   -8.8785031    196.61086  0.010382914 0.0092439587          446 
 1579000     0.623578   -8.8984723    196.34199  0.010362148 0.0092351873          472 
 1580000   0.61734318   -8.9053134    196.64298  0.010371465 0.0092264272          458 
 1581000   0.62050596    -8.881977    196.88693  0.010377764  0.009217686          474 
 1582000   0.62685115   -8.8698359    197.00288  0.010377311 0.0092089474          476 
 1583000   0.61990455   -8.8939242    196.88547  0.010364575 0.0092002197          474 
 1584000   0.62484195     -8.88492    196.54187  0.010339955 0.0091914932          480 
 1585000    0.6060429   -8.8970441    196.67909  0.010340646 0.0091827976          466 
 1586000   0.62396002   -8.9033447    196.65723  0.010332977 0.0091740957          481 
 1587000   0.63020339   -8.9033834    196.98885   0.01034388 0.0091654116          479 
 1588000   0.62100596   -8.9134368    196.91292  0.010333381 0.0091567389          509 
 1589000    0.6178952    -8.894391    196.85513  0.010323848 0.0091480663          476 
 1590000   0.62031581   -8.8855352    196.89352  0.010319367  0.009139408          485 
 1591000    0.6159635   -8.9104848    197.00435  0.010318686 0.0091307529          503 
 1592000   0.61043788   -8.9002902    196.76061  0.010299446 0.0091221197          489 
 1593000   0.61983684   -8.9096829    196.94322  0.010302533 0.0091134967          499 
 1594000   0.62563323   -8.9095096    196.53211  0.010274577 0.0091048722          492 
 1595000   0.63190996   -8.8762194    197.01857  0.010293551 0.0090962607          476 
 1596000   0.61368367   -8.8928972    196.91488  0.010281688 0.0090876638          491 
 1597000   0.60867203   -8.8891334    196.61669   0.01025969 0.0090790845          524 
 1598000    0.6349241   -8.9024172    196.70565  0.010257909 0.0090705272          502 
 1599000     0.623514   -8.8986175    196.59654  0.010245807 0.0090619861          483 
 1600000   0.61768775   -8.9014398     197.0561  0.010263339 0.0090534376          495 
 1601000    0.6093082   -8.9100981    196.34748  0.010220044 0.0090449027          493 
 1602000   0.61427436   -8.8962701    196.74418    0.0102343 0.0090363801          500 
 1603000   0.62679093   -8.9076134    196.80171  0.010230906 0.0090278707          499 
 1604000    0.6166109   -8.9082778     196.5234  0.010210068 0.0090193574          506 
 1605000   0.60420505   -8.9090668    196.55017  0.010205097 0.0090108441          502 
 1606000   0.62084487   -8.9271682    196.95576  0.010219788 0.0090023413          512 
 1607000   0.60153845   -8.9051627    196.63768  0.010196934 0.0089938497          499 
 1608000   0.61307903   -8.9208536    196.60397  0.010188846 0.0089853736          518 
 1609000    0.6050027   -8.9128796    196.74362  0.010189746 0.0089769087          510 
 1610000   0.60507364   -8.9172441    196.79684  0.010186172 0.0089684546          514 
 1611000   0.62714586   -8.9218338    196.90893  0.010185647 0.0089600086          539 
 1612000    0.6005008   -8.9223745    196.91044  0.010179406 0.0089515748          525 
 1613000   0.61162148   -8.9104246    196.29161  0.010141125 0.0089431391          516 
 1614000   0.61678068    -8.916572    196.40684  0.010140791 0.0089347147          514 
 1615000   0.61448905   -8.9120737    196.44996  0.010136737 0.0089262974          524 
 1616000   0.60539734   -8.9163955    196.82332  0.010149717 0.0089178881          530 
 1617000   0.60295197   -8.9294116    196.46659  0.010125056 0.0089094855          531 
 1618000   0.61087164   -8.9186973     196.0796  0.010098867 0.0089011039          546 
 1619000   0.61537318   -8.9383982    196.71311  0.010125237  0.008892734          537 
 1620000   0.59444941   -8.9305329    196.80256  0.010123588 0.0088843778          536 
 1621000   0.61383881   -8.9379071    196.69444  0.010111785 0.0088760286          512 
 1622000   0.61581778   -8.9262612     196.5402  0.010097626 0.0088676837          530 
 1623000       0.5976   -8.9474829    196.17241  0.010072521 0.0088593462          517 
 1624000   0.61694135   -8.9272184    196.54715  0.010085548 0.0088510172          536 
 1625000   0.61933333   -8.9050453    196.92617  0.010098778 0.0088427082          542 
 1626000   0.60976325   -8.9340469    196.69259  0.010080596 0.0088344147          560 
 1627000     0.606983   -8.9399076    196.60545  0.010069937 0.0088261099          509 
 1628000   0.58996768    -8.930892    196.49761  0.010058232 0.0088178081          528 
 1629000   0.61470183   -8.9221833    196.63967  0.010059324 0.0088095167          516 
 1630000   0.60762116   -8.9480614    196.39719  0.010040756 0.0088012412          531 
 1631000   0.61983566   -8.9041094    196.67299  0.010048692 0.0087929812          523 
 1632000   0.60824595   -8.9336089    196.53702  0.010035591 0.0087847328          544 
 1633000   0.60690513   -8.9426418    196.49856  0.010027483 0.0087764894          505 
 1634000   0.59736299   -8.9340066     196.4742  0.010020104 0.0087682518          511 
 1635000   0.59787224   -8.9394029    196.49638  0.010015106 0.0087600235          525 
 1636000   0.60652075    -8.937232    196.57808  0.010013146 0.0087518118          528 
 1637000   0.60395955   -8.9478505    196.28882 0.0099923038 0.0087436164          527 
 1638000   0.60393223   -8.9406091    196.17743 0.0099805366 0.0087354206          518 
 1639000    0.5980227   -8.9459565      196.498 0.0099907462 0.0087272233          557 
 1640000   0.60672219   -8.9429357    196.40444 0.0099799002 0.0087190293          550 
 1641000   0.60178954   -8.9213587    196.45277 0.0099762733  0.008710862          550 
 1642000   0.59964341   -8.9389572    196.30239 0.0099625652 0.0087026914          550 
 1643000   0.58526897   -8.9449832     196.0078   0.00994156  0.008694527          527 
 1644000   0.59411513   -8.9375499    196.43852  0.009957346 0.0086863763          523 
 1645000    0.5864362   -8.9408757    196.19835 0.0099391263 0.0086782332          532 
 1646000   0.60179108   -8.9375092     196.1984 0.0099330904  0.008670108          519 
 1647000   0.59669463   -8.9448514    196.68128 0.0099514916 0.0086619883          569 
 1648000   0.59200624   -8.9354151    196.69607 0.0099462009 0.0086538777          550 
 1649000   0.59032097   -8.9426562    196.25744 0.0099180028 0.0086457824          546 
 1650000   0.59774476   -8.9440577    196.28747 0.0099135087 0.0086376832          568 
 1651000   0.60757056   -8.9534264     196.4783 0.0099171359 0.0086295906          566 
 1652000   0.59361484   -8.9498238    196.54556 0.0099145259  0.008621504          570 
 1653000    0.5928142   -8.9461854    196.12837 0.0098874958 0.0086134326          583 
 1654000   0.58808245    -8.965716    196.45684 0.0098980674  0.008605361          570 
 1655000   0.60131242   -8.9458608    196.20041 0.0098791747 0.0085973101          541 
 1656000   0.58667723   -8.9591577    196.57189 0.0098919026 0.0085892696          582 
 1657000   0.59763639   -8.9586001    196.14327 0.0098643767 0.0085812219          557 
 1658000   0.59389882   -8.9625256    196.01609 0.0098520352 0.0085731903          562 
 1659000   0.59010092    -8.952517    195.77961 0.0098342181 0.0085651728          574 
 1660000   0.58939818   -8.9487085    196.25173 0.0098519944 0.0085571756          563 
 1661000    0.5912553   -8.9767568    196.36543 0.0098517674 0.0085491682          552 
 1662000   0.59139255   -8.9491758    196.60987 0.0098580962  0.008541194          579 
 1663000   0.57225015   -8.9637541    196.07358 0.0098252946 0.0085332212          580 
 1664000   0.57930321   -8.9665281    196.02786 0.0098171004  0.008525251          600 
 1665000   0.59304451   -8.9563226    196.31506 0.0098255785 0.0085172812          584 
 1666000   0.58554178   -8.9763984    196.21779 0.0098148155 0.0085093312          606 
 1667000    0.5925787   -8.9455572    196.18273  0.009807175 0.0085013867          565 
 1668000   0.58135601   -8.9663174     196.4166 0.0098129797 0.0084934567          578 
 1669000   0.59023482   -8.9684185    196.29954 0.0098012554  0.008485528          576 
 1670000    0.5970027   -8.9712614    195.92118  0.009776506 0.0084776068          590 
 1671000   0.59175505   -8.9785517    196.03899 0.0097765303 0.0084696932          580 
 1672000    0.5862504   -8.9750832    196.03995 0.0097707311 0.0084617885          608 
 1673000   0.58980953   -8.9772899    196.39734 0.0097826928 0.0084538887          599 
 1674000   0.59406711   -8.9690254    195.93338 0.0097537525 0.0084459957          558 
 1675000   0.57990592    -8.950238    196.22717 0.0097625459 0.0084381126          578 
 1676000   0.58001322   -8.9777822    196.19346  0.009755045 0.0084302401          579 
 1677000   0.59414575   -8.9838108    196.09913 0.0097445404 0.0084223728          573 
 1678000   0.59170955   -8.9847649    196.27504 0.0097474692 0.0084144991          579 
 1679000   0.58226274   -8.9923119     195.8792  0.009722017 0.0084066476          598 
 1680000   0.59068985    -8.980628    196.47197 0.0097456332 0.0083988012          583 
 1681000   0.57957317   -8.9848701    196.20258 0.0097264813 0.0083909728          600 
 1682000   0.56949837   -8.9902229    196.08678 0.0097149613 0.0083831476          601 
 1683000   0.58987098    -8.963889     196.5291 0.0097310902 0.0083753499          596 
 1684000   0.57481485   -8.9895591    195.87891 0.0096931369 0.0083675481          573 
 1685000   0.58640877   -8.9642064    195.72255 0.0096796514 0.0083597572          615 
 1686000   0.59233973   -8.9769093    196.13676  0.009694383 0.0083519706          616 
 1687000   0.56601935   -8.9547908    196.12557 0.0096880837 0.0083441924          589 
 1688000   0.57643646   -8.9601559    196.38009 0.0096949094 0.0083364267          565 
 1689000   0.57803839   -8.9755986    196.11316 0.0096759996 0.0083286718          579 
 1690000     0.582481   -8.9901136    196.01211 0.0096652916 0.0083209191          592 
 1691000   0.57627333   -8.9986831    196.22491 0.0096700628 0.0083131652          586 
 1692000   0.57114942   -9.0003352    196.15408 0.0096608591 0.0083054287          570 
 1693000    0.5717685   -8.9936736    195.93753 0.0096444937 0.0082977095          589 
 1694000   0.57315203   -8.9815486    195.90297 0.0096370999 0.0082899954          597 
 1695000   0.58516148   -8.9687536    195.65316  0.009619133 0.0082822743          600 
 1696000   0.57820334   -8.9946278    196.15057 0.0096379013 0.0082745811          603 
 1697000   0.57400207   -8.9877499     196.1072 0.0096300923 0.0082668886          573 
 1698000   0.56752483   -8.9673197     195.9707 0.0096177218 0.0082592149          590 
 1699000   0.57991435   -8.9983856     196.0097  0.009613974 0.0082515417          580 
 1700000   0.57421815   -8.9895452    195.75688 0.0095959255 0.0082438789          596 
 1701000   0.58074695   -8.9905242    195.79276 0.0095920419 0.0082362184          581 
 1702000   0.56726896   -9.0016768    195.84066 0.0095887512  0.008228561          572 
 1703000   0.57663699   -8.9825401    196.12885 0.0095972229 0.0082209173          577 
 1704000   0.56795331   -9.0099944    195.96301 0.0095834807 0.0082132744          578 
 1705000   0.56597118   -9.0013661    195.61634 0.0095609158 0.0082056368          585 
 1706000   0.56943766   -8.9973318    195.84444 0.0095664539 0.0081980139          600 
 1707000   0.57753276   -8.9751509    195.75345 0.0095564074 0.0081904079          591 
 1708000   0.56642443   -8.9999114     195.7619 0.0095512245 0.0081828091          591 
 1709000    0.5821572   -8.9937012    196.04557 0.0095594681 0.0081752208          587 
 1710000   0.56450703   -9.0123617    195.74399 0.0095391808 0.0081676439          610 
 1711000   0.57548771   -9.0043962    195.53835   0.00952359 0.0081600726          606 
 1712000   0.56045869   -9.0046195    195.87138 0.0095342376 0.0081524987          603 
 1713000   0.57994403   -8.9866167    195.88596 0.0095293814 0.0081449409          600 
 1714000   0.57147876    -9.000935    195.73719 0.0095165882 0.0081373881          627 
 1715000   0.56956353    -9.013117    195.73544 0.0095109542 0.0081298489          623 
 1716000   0.56388459   -8.9942369    195.65108 0.0095013152 0.0081223165          608 
 1717000   0.55499264   -9.0126504    195.91661 0.0095086687  0.008114783          595 
 1718000   0.55495845    -9.024303    195.71122 0.0094931715 0.0081072632          620 
 1719000   0.56389468   -9.0018055    195.59441 0.0094819859 0.0080997536          622 
 1720000   0.57283737   -9.0123738    195.99034 0.0094956559 0.0080922518          602 
 1721000   0.55350724   -9.0217879    195.73251 0.0094776538 0.0080847596          605 
 1722000   0.56198975   -9.0212807    195.57115 0.0094643415 0.0080772742          618 
 1723000   0.56728076   -9.0026901    196.04496 0.0094817646 0.0080698084          595 
 1724000   0.57245024   -9.0148638    195.74126 0.0094615845 0.0080623365          619 
 1725000   0.55058939   -9.0106271     195.7793 0.0094579372 0.0080548876          594 
 1726000   0.57159856    -9.002739    195.65564 0.0094464871 0.0080474414          607 
 1727000   0.54843266   -9.0206991    195.52885  0.009434899 0.0080400029          582 
 1728000   0.56304493   -9.0152754    195.87379 0.0094460741 0.0080325761          627 
 1729000   0.56582011   -8.9997866     195.8367 0.0094388231 0.0080251597          598 
 1730000   0.57155551    -9.009512    195.99781 0.0094411276 0.0080177501          606 
 1731000    0.5608184   -9.0103625     195.8403 0.0094280907 0.0080103532          632 
 1732000   0.55747024   -8.9948184    195.63735 0.0094128826 0.0080029655          600 
 1733000   0.55549546   -9.0040213    195.70557 0.0094107316 0.0079955792          644 
 1734000   0.55626338   -9.0232474    195.75917 0.0094078802 0.0079881976          637 
 1735000   0.55508541   -9.0294053    195.50552 0.0093902749 0.0079808201          589 
 1736000   0.56126885   -9.0137298     195.5823 0.0093885511 0.0079734626          620 
 1737000   0.55317925   -9.0328735    195.32091 0.0093706059  0.007966104          631 
 1738000   0.55968222   -9.0016954    195.99888 0.0093977213 0.0079587637          650 
 1739000   0.55413915   -9.0287609    195.77052 0.0093813744 0.0079514316          627 
 1740000   0.56235271   -9.0327076    195.77482 0.0093761887 0.0079441077          629 
 1741000     0.551219   -9.0191849    195.49053 0.0093571957 0.0079367814          613 
 1742000   0.56919946   -9.0255013    195.32916 0.0093441045  0.007929476          608 
 1743000   0.56092267   -9.0371401     195.5077 0.0093472794 0.0079221629          600 
 1744000    0.5553182   -9.0227576    195.68788 0.0093505292 0.0079148648          603 
 1745000    0.5532208   -9.0325433    195.45284 0.0093339466 0.0079075725          599 
 1746000   0.55263308   -9.0215756    195.63291 0.0093371952 0.0079002914          623 
 1747000   0.55754535   -9.0317134    195.68277 0.0093342285 0.0078930154          613 
 1748000   0.54832849   -9.0230742    195.52901 0.0093215585 0.0078857371          634 
 1749000   0.55695159   -9.0281627     195.5098 0.0093153136 0.0078784701          603 
 1750000   0.55244916   -9.0391905    195.38904 0.0093042398 0.0078712155          611 
 1751000   0.56314454   -9.0356171    195.19144 0.0092895222 0.0078639716          592 
 1752000   0.54391972   -9.0258599    195.45691  0.009296847 0.0078567251          610 
 1753000   0.55594571   -9.0400868    195.88066 0.0093116875 0.0078494878          613 
 1754000    0.5479941    -9.030135    195.63794 0.0092948469 0.0078422679          624 
 1755000   0.54126149   -9.0437036    195.54335 0.0092850591 0.0078350517          631 
 1756000    0.5527108   -9.0482478    195.58239 0.0092816245 0.0078278496          634 
 1757000   0.54253696   -9.0407445     195.5108 0.0092729463 0.0078206626          638 
 1758000   0.54766105   -9.0386178    195.83252 0.0092829216 0.0078134848          622 
 1759000   0.55505431   -9.0254773    195.55257 0.0092643817 0.0078063051          620 
 1760000   0.56020173    -9.029726    195.60324 0.0092615168  0.007799139          615 
 1761000   0.55627706   -9.0252487    195.39864 0.0092465757  0.007791983          615 
 1762000   0.53989473     -9.01848    195.49391  0.009245834 0.0077848298          632 
 1763000   0.55110497   -9.0360571    195.32366  0.009232542 0.0077776907          614 
 1764000   0.54535276   -9.0325914    195.47803  0.009234601 0.0077705586          644 
 1765000   0.54433757     -9.05093     195.7037 0.0092400238  0.007763438          632 
 1766000   0.53992588   -9.0298766    195.35592 0.0092183807 0.0077563196          628 
 1767000   0.54964837   -9.0278636    195.66615 0.0092277945 0.0077492174          624 
 1768000   0.54964376   -9.0302137     195.1336 0.0091974736   0.00774212          649 
 1769000   0.54878684    -9.055782    195.42135 0.0092058294 0.0077350373          626 
 1770000   0.54641548   -9.0346919    195.32762 0.0091962156 0.0077279562          617 
 1771000   0.55418339   -9.0507568    195.55667 0.0092018007 0.0077208848          633 
 1772000   0.55106666   -9.0418723     195.6475 0.0092008795  0.007713814          640 
 1773000   0.53601863   -9.0432661    195.61158 0.0091940017 0.0077067495          625 
 1774000    0.5490741    -9.034957    195.35022 0.0091765417 0.0076996937          622 
 1775000   0.54413694   -9.0372985    195.55233 0.0091808608 0.0076926393          655 
 1776000   0.55100284   -9.0396453     195.6721 0.0091813109 0.0076855932          628 
 1777000   0.55918459   -9.0465033    195.39987  0.009163378 0.0076785571          636 
 1778000   0.53608608   -9.0618519    195.66664 0.0091707276 0.0076715326          652 
 1779000   0.54237043   -9.0490528    195.66393 0.0091654453 0.0076645124          626 
 1780000   0.54893055   -9.0451104    195.40971 0.0091483946 0.0076575146          642 
 1781000   0.54470401    -9.049556    195.56245 0.0091504049 0.0076505173          639 
 1782000   0.55031817   -9.0547779    195.44706 0.0091398738  0.007643523          636 
 1783000   0.54280402   -9.0473782    195.28496 0.0091271715  0.007636521          621 
 1784000   0.54951108    -9.059247    195.30484 0.0091229841 0.0076295468          656 
 1785000   0.54801283   -9.0581051      195.537 0.0091287116 0.0076225791          628 
 1786000   0.54177196   -9.0502566    194.97666 0.0090974552 0.0076156175          643 
 1787000   0.53619622   -9.0599224    195.32237 0.0091084858 0.0076086704          629 
 1788000   0.54197977   -9.0627513    195.28025 0.0091014286 0.0076017252          636 
 1789000   0.53949554   -9.0602262    195.32569 0.0090984578  0.007594796          639 
 1790000   0.55387344   -9.0615084    195.38359 0.0090960705  0.007587873          632 
 1791000   0.55100818   -9.0617238    195.68471 0.0091050022 0.0075809543          644 
 1792000   0.54611925   -9.0585099     195.4995 0.0090913088 0.0075740483          631 
 1793000    0.5312835    -9.055148    195.49436 0.0090859992 0.0075671381          645 
 1794000   0.53574673   -9.0693107    195.33674 0.0090736129 0.0075602449          666 
 1795000   0.52802028    -9.050203    195.16773 0.0090607117 0.0075533614          633 
 1796000   0.53984892   -9.0651658    195.31678 0.0090625824 0.0075464826          656 
 1797000   0.53058283   -9.0728227    195.17917  0.009051158 0.0075396166          642 
 1798000   0.53200982   -9.0697838    195.17678 0.0090460134 0.0075327546          618 
 1799000   0.52515149   -9.0758533     195.0907 0.0090369974 0.0075258996          649 
 1800000   0.52734954   -9.0587069    195.21701 0.0090378248 0.0075190491          632 
 1801000   0.52276892   -9.0704379    195.03748 0.0090244996 0.0075122074          648 
 1802000   0.53344009    -9.075562    195.23888 0.0090288052 0.0075053718          637 
 1803000   0.53372225   -9.0532922    195.14322 0.0090193761 0.0074985508          614 
 1804000   0.53611692   -9.0716543    195.12527 0.0090135472 0.0074917321          639 
 1805000   0.53478356   -9.0754745    195.37177 0.0090199338 0.0074849259          643 
 1806000   0.54890596   -9.0781619    195.22703 0.0090082609 0.0074781213          635 
 1807000    0.5270074    -9.076708    194.98109 0.0089919337 0.0074713224          632 
 1808000   0.53035301   -9.0859543    195.10966 0.0089928861 0.0074645329          643 
 1809000   0.53414962   -9.0714799    195.29434 0.0089964223 0.0074577547          635 
 1810000    0.5251225    -9.063185    195.21116 0.0089876227 0.0074509832          616 
 1811000   0.52764897   -9.0767976    195.42125 0.0089923268 0.0074442124          642 
 1812000   0.53704423   -9.0830262    195.31804 0.0089826177 0.0074374536          653 
 1813000    0.5256287   -9.0813702    194.93417 0.0089600188 0.0074307013          634 
 1814000   0.52241038    -9.061094    195.31508 0.0089725782 0.0074239569          630 
 1815000   0.53152307   -9.0757896    195.21877 0.0089632126 0.0074172181          653 
 1816000   0.53631017   -9.0623864    195.12898 0.0089541568 0.0074104904          633 
 1817000   0.53134711   -9.0791449    195.20816 0.0089528601 0.0074037782          635 
 1818000   0.52209139   -9.0865477    195.12298 0.0089440308 0.0073970697          622 
 1819000   0.53251158   -9.0739241    195.04394 0.0089354931 0.0073903677          612 
 1820000   0.53532111    -9.077534    194.88293  0.008923211 0.0073836748          642 
 1821000   0.53588521   -9.1118796    195.18199 0.0089319968 0.0073769866          629 
 1822000   0.54160842   -9.0764664    194.85503 0.0089121402 0.0073703141          642 
 1823000   0.51820232   -9.0889781    195.33391 0.0089291418  0.007363639          639 
 1824000   0.52536569   -9.0794825    195.09448 0.0089133079 0.0073569779          645 
 1825000    0.5157167   -9.0759099    194.98307 0.0089033365 0.0073503224          623 
 1826000   0.53355484   -9.0801583    195.33834 0.0089146741  0.007343679          627 
 1827000   0.55294888   -9.0648935    195.14198 0.0089008383 0.0073370444          645 
 1828000   0.52971253   -9.0936984    195.32534 0.0089043279 0.0073304195          635 
 1829000   0.52544336   -9.0914855    195.28344 0.0088975506 0.0073237996          656 
 1830000   0.51965746     -9.08257    195.28255 0.0088926481 0.0073171871          664 
 1831000   0.53329592   -9.0998392    195.24553 0.0088861066 0.0073105791          673 
 1832000   0.52025856   -9.0873557    194.95207 0.0088679072  0.007303978          650 
 1833000   0.51566115   -9.0956844    194.93968 0.0088625061 0.0072973825          649 
 1834000   0.51265466   -9.0900701     194.9081 0.0088562386 0.0072907896          661 
 1835000   0.52085214   -9.0942479    194.92559 0.0088522068 0.0072842114          646 
 1836000   0.51114486   -9.0809193    194.80568 0.0088419424 0.0072776332          633 
 1837000   0.51781362   -9.1165561    194.72301 0.0088333791 0.0072710636          650 
 1838000   0.52193549   -9.0855552    194.98204 0.0088403173 0.0072645017          618 
 1839000   0.51933851   -9.0895435    195.24901 0.0088476077 0.0072579447          645 
 1840000   0.51882668   -9.0806834    195.10029 0.0088360638 0.0072513904          615 
 1841000    0.5093961   -9.0895529    194.78729 0.0088170963 0.0072448474          683 
 1842000    0.5042299   -9.0956213    194.87951 0.0088164817  0.007238315          631 
 1843000    0.5123595   -9.0848158    195.42481 0.0088363544 0.0072317935          626 
 1844000   0.51861312   -9.1049245       194.84 0.0088051337 0.0072252718          653 
 1845000   0.50975621   -9.1045049    195.16532  0.008815055 0.0072187562          618 
 1846000   0.51788423   -9.0919676    195.19069  0.008811425 0.0072122484          620 
 1847000    0.5086761    -9.104659    194.96187 0.0087963306 0.0072057506          636 
 1848000   0.53468497   -9.0853921    194.57539 0.0087741426 0.0071992633          619 
 1849000   0.51292936   -9.0887278    195.06668 0.0087915395 0.0071927819          632 
 1850000   0.51482801   -9.1103368    194.96098  0.008782026 0.0071863082          636 
 1851000   0.50892896   -9.0963585    194.81976 0.0087709236 0.0071798451          652 
 1852000   0.51122536   -9.0992818    194.88435 0.0087690943 0.0071733871          622 
 1853000   0.50613645    -9.105916     194.7883 0.0087600424 0.0071669322          648 
 1854000   0.51078858   -9.1042183    194.76032 0.0087540596 0.0071604821          663 
 1855000   0.50613023   -9.1036611    195.06047 0.0087628245 0.0071540424          662 
 1856000   0.51271239   -9.1113942     194.7774 0.0087453935 0.0071476166          657 
 1857000   0.49979671    -9.095509    194.79298 0.0087413829 0.0071411925          659 
 1858000   0.51115789   -9.1108032    194.58711 0.0087274447 0.0071347785          635 
 1859000   0.50771784    -9.110882    194.69258 0.0087274781 0.0071283699          675 
 1860000    0.5137902    -9.116632    194.85217 0.0087299358 0.0071219677          666 
 1861000   0.50610618   -9.0940194    194.84555 0.0087249486 0.0071155759          649 
 1862000   0.50220048   -9.1061272    194.73167 0.0087151658  0.007109182          642 
 1863000   0.50837198   -9.1122159    194.88343 0.0087172764 0.0071028033          686 
 1864000    0.5127721   -9.1060434     194.3453 0.0086885419 0.0070964291          638 
 1865000    0.5077294    -9.125175    194.93205 0.0087101003 0.0070900651          677 
 1866000   0.51211597    -9.095755    194.87154 0.0087027305 0.0070837033          658 
 1867000   0.51028352   -9.1214057     194.7354 0.0086919927 0.0070773528          653 
 1868000   0.49740945     -9.10467    194.73904 0.0086875018  0.007071008          656 
 1869000   0.51724633    -9.116584    194.56582   0.00867513 0.0070646689          646 
 1870000   0.51520446   -9.1150491    194.83562 0.0086825141 0.0070583407          639 
 1871000   0.49997472   -9.1122623    194.74715 0.0086739334 0.0070520154          630 
 1872000   0.50230751   -9.1037641    194.90921 0.0086765138 0.0070457019          658 
 1873000   0.50256515   -9.1111614    194.88482 0.0086707964 0.0070393932          629 
 1874000   0.49857767    -9.123376     194.2431 0.0086376334 0.0070330916          634 
 1875000    0.5092988    -9.127256    194.41862 0.0086408274 0.0070267952          617 
 1876000   0.50274709   -9.1236408     194.9187 0.0086584357 0.0070205065          634 
 1877000   0.50380115   -9.1282362    194.80766 0.0086488928 0.0070142288          688 
 1878000   0.49474074   -9.1165417    194.58114 0.0086342359 0.0070079552          666 
 1879000   0.49671532    -9.108515    194.80445 0.0086395444 0.0070016889          621 
 1880000   0.50770464   -9.1223007    194.77104 0.0086334679 0.0069954281          640 
 1881000   0.49712091   -9.1238187    194.51844 0.0086176874 0.0069891742          669 
 1882000   0.49247079   -9.1292989    194.79529 0.0086253669 0.0069829322          657 
 1883000   0.51452679   -9.1217295    194.63261 0.0086135871 0.0069766902          665 
 1884000   0.50458586   -9.1187742    194.72775 0.0086132234 0.0069704609          667 
 1885000   0.50037248   -9.1157445    194.80828 0.0086122141 0.0069642366          673 
 1886000   0.50677972   -9.1268839    194.61701 0.0085991964 0.0069580178          640 
 1887000     0.503648   -9.1194791    194.51803 0.0085902679 0.0069518042          686 
 1888000   0.50244897   -9.1229546    194.60281 0.0085894602 0.0069456028          674 
 1889000   0.49061734   -9.1252037    194.73577 0.0085907787 0.0069394113          712 
 1890000   0.49409609   -9.1231285    194.44769 0.0085735313 0.0069332271          677 
 1891000   0.49706299   -9.1342271    194.34701 0.0085645607 0.0069270449          677 
 1892000   0.51389339   -9.1266422    194.20126 0.0085536144 0.0069208723          683 
 1893000   0.50587165   -9.1216316     194.6282 0.0085678906 0.0069147029          668 
 1894000   0.48599245   -9.1231432    194.72498  0.008567625 0.0069085449          692 
 1895000   0.50497885   -9.1310775    194.65211 0.0085598993 0.0069023888          682 
 1896000   0.49972805   -9.1404585    194.47727 0.0085477001 0.0068962437          679 
 1897000   0.49642157   -9.1231593    194.62141 0.0085495261 0.0068901036          666 
 1898000   0.50150839   -9.1357156    194.97684 0.0085606268 0.0068839782          645 
 1899000   0.48993423   -9.1598256    194.51519 0.0085358606   0.00687785          693 
 1900000   0.49010472   -9.1252046    194.59988 0.0085350823 0.0068717316          675 
 1901000   0.49540221   -9.1255808     194.4719 0.0085249825 0.0068656256          635 
 1902000   0.48554583    -9.130216    194.50997 0.0085221682  0.006859523          657 
 1903000   0.49597382   -9.1427194    194.68462 0.0085253379 0.0068534296          671 
 1904000   0.49172216   -9.1219005    194.55511 0.0085151923   0.00684734          651 
 1905000   0.48689021   -9.1371211    194.77884 0.0085205091 0.0068412622          658 
 1906000   0.48390299   -9.1360515    194.07254 0.0084851581 0.0068351896          658 
 1907000   0.48975374   -9.1191167    194.28996 0.0084902096 0.0068291239          675 
 1908000    0.4852254   -9.1209085    194.39353 0.0084902836 0.0068230585          658 
 1909000   0.50627968   -9.1421607    194.71419 0.0084998335 0.0068170088          685 
 1910000    0.4974269   -9.1317813    194.41639 0.0084823903 0.0068109608          656 
 1911000   0.48362279    -9.136789     194.7767 0.0084936637   0.00680492          650 
 1912000   0.48680255   -9.1282843    194.37941  0.008471906 0.0067988936          645 
 1913000    0.4916558   -9.1429189    194.42842 0.0084696124 0.0067928673          662 
 1914000   0.49401349   -9.1427599     194.4741 0.0084671759 0.0067868478          649 
 1915000   0.48414204   -9.1355193    194.33051 0.0084565059 0.0067808315          678 
 1916000   0.48468905   -9.1416474    194.24367 0.0084483156 0.0067748227          632 
 1917000   0.48708454   -9.1297791    194.23974 0.0084437376 0.0067688242          633 
 1918000   0.49007023   -9.1442411    194.57327 0.0084538266 0.0067628317          655 
 1919000   0.48150299   -9.1217256    194.29482 0.0084373292 0.0067568396          660 
 1920000   0.47938341   -9.1567531    194.33149 0.0084345266 0.0067508588          682 
 1921000   0.48479294   -9.1537701    194.18836 0.0084239268 0.0067448879          650 
 1922000   0.48553168   -9.1430603    194.36106 0.0084270317 0.0067389234          713 
 1923000   0.48440726   -9.1542414    194.17582 0.0084146222 0.0067329714          640 
 1924000   0.48346613   -9.1315399    194.35301 0.0084179231 0.0067270212          661 
 1925000   0.48725992   -9.1495654     194.6166  0.008424961 0.0067210755          658 
 1926000   0.47206085   -9.1696942    194.37764 0.0084102477 0.0067151387          668 
 1927000   0.48922373   -9.1516696    194.63359 0.0084169518 0.0067092089          658 
 1928000   0.47271162   -9.1376455    194.19152 0.0083934785  0.006703283          673 
 1929000   0.48782276   -9.1713196    194.33843 0.0083954741 0.0066973632          681 
 1930000   0.47667485   -9.1497027    194.48728 0.0083975508 0.0066914487          665 
 1931000   0.47448515   -9.1350994    194.41051 0.0083898889 0.0066855418          660 
 1932000   0.48221088   -9.1510367    194.33283 0.0083821959 0.0066796438          661 
 1933000   0.47963566   -9.1488674    194.20186 0.0083722132  0.006673756          677 
 1934000   0.48139475   -9.1238645    194.47058 0.0083794629 0.0066678784          670 
 1935000    0.4933311   -9.1480297    194.53035 0.0083777065 0.0066620033          666 
 1936000    0.4921628    -9.162772    194.37099 0.0083665197 0.0066561365          691 
 1937000   0.48291992   -9.1470038     194.2536   0.00835715 0.0066502772          753 
 1938000    0.4784528   -9.1408632    194.26737 0.0083534303 0.0066444243          671 
 1939000   0.47634752   -9.1466614    194.21807 0.0083470032 0.0066385721          666 
 1940000   0.47705556   -9.1502983    194.25598 0.0083443288 0.0066327334          679 
 1941000   0.47839683   -9.1588218    194.57432 0.0083536975 0.0066268983          676 
 1942000   0.47774637   -9.1576639    194.05336 0.0083270409 0.0066210719          682 
 1943000   0.47600036   -9.1667493    194.36449 0.0083360991 0.0066152524          677 
 1944000   0.47672713   -9.1631843    194.51134 0.0083381062 0.0066094461          666 
 1945000   0.46760153   -9.1647183    194.20669 0.0083207665 0.0066036367          666 
 1946000   0.47548091   -9.1368277    194.35623 0.0083228945 0.0065978362          683 
 1947000    0.4846852   -9.1505323    194.26396 0.0083146706 0.0065920438          680 
 1948000   0.47501167   -9.1457233    194.45991 0.0083187848 0.0065862582          665 
 1949000   0.47850346   -9.1539761    194.22045 0.0083042777  0.006580475          666 
 1950000    0.4695628   -9.1531384    194.39252 0.0083073726 0.0065746989          654 
 1951000   0.47630791   -9.1776812    194.34504 0.0083010867 0.0065689322          664 
 1952000   0.46972646   -9.1524133    194.40455 0.0082993746  0.006563173          665 
 1953000   0.47138542   -9.1657849    194.24321 0.0082882406 0.0065574194          669 
 1954000   0.47481108   -9.1652169    194.19251 0.0082818369 0.0065516706          658 
 1955000   0.47345884   -9.1685808     194.1281 0.0082748552 0.0065459304          668 
 1956000   0.47442058   -9.1762046    194.25862 0.0082761852 0.0065401972          702 
 1957000   0.47005917   -9.1712477    194.26793 0.0082723528  0.006534469          676 
 1958000   0.47068843   -9.1659513    194.20561 0.0082654752 0.0065287489          696 
 1959000    0.4746792   -9.1575659    194.08167 0.0082559841 0.0065230377          691 
 1960000   0.46945104   -9.1606291    194.03014 0.0082495809 0.0065173315          706 
 1961000   0.48407384   -9.1718906    194.20369 0.0082527488 0.0065116282          682 
 1962000   0.46861914   -9.1707541    194.13331 0.0082455536 0.0065059313          704 
 1963000   0.46502125   -9.1840715    194.42641 0.0082537956 0.0065002411          711 
 1964000   0.48748395   -9.1769605    193.86489 0.0082257674 0.0064945628          719 
 1965000   0.46415086   -9.1702594    194.17581 0.0082347673 0.0064888905          704 
 1966000   0.46985302   -9.1806411     194.0165 0.0082238258  0.006483225          693 
 1967000   0.46814815   -9.1846666    194.12944 0.0082244298 0.0064775637          698 
 1968000   0.46516885   -9.1620478    194.04173 0.0082165366 0.0064719096          689 
 1969000   0.47285473   -9.1746553    194.13789 0.0082164334 0.0064662595          683 
 1970000   0.47110937   -9.1819446    194.31558 0.0082197794 0.0064606131          696 
 1971000   0.46027922   -9.1672663    193.92157 0.0081989501 0.0064549789          670 
 1972000   0.47327836   -9.1852552    193.99196 0.0081977671 0.0064493513          676 
 1973000   0.46745036   -9.1705755    194.22314 0.0082033764 0.0064437353          689 
 1974000    0.4642465   -9.1635175    194.28698 0.0082019157 0.0064381194          693 
 1975000   0.46514252   -9.1915371    194.27676 0.0081973316 0.0064325116          706 
 1976000    0.4533336    -9.163795    194.26682 0.0081927638 0.0064269088          687 
 1977000   0.46385707   -9.1793913     194.3001 0.0081900229 0.0064213086          675 
 1978000   0.45628392   -9.1833369    193.96968 0.0081719617  0.006415723          690 
 1979000   0.46603224   -9.1869567    194.16743 0.0081761594 0.0064101363          707 
 1980000   0.46045878   -9.1758337    194.22805  0.008174581 0.0064045621          719 
 1981000   0.46761927    -9.179761    194.22446 0.0081703038 0.0063989916          692 
 1982000   0.45919343   -9.1830756    193.77575 0.0081473155 0.0063934228          776 
 1983000     0.452034   -9.1865018     194.2563 0.0081634014 0.0063878584          658 
 1984000   0.44635254   -9.1798408    193.90604 0.0081445748 0.0063823065          708 
 1985000   0.45890354   -9.2013183    194.13637 0.0081501416  0.006376754          709 
 1986000   0.46061636   -9.1712424     193.9929 0.0081400174 0.0063712149          702 
 1987000   0.46270436   -9.1790638    194.03498 0.0081376858 0.0063656851          711 
 1988000   0.45807192   -9.1892957    194.07104 0.0081351038 0.0063601587          695 
 1989000   0.46397131   -9.1943531    194.05223 0.0081302259 0.0063546378          715 
 1990000   0.45435333   -9.1845538    194.05308 0.0081261759 0.0063491224          723 
 1991000   0.45322241   -9.1842917    193.71892  0.008108108 0.0063436112          720 
 1992000   0.44956131   -9.1908697    193.74767 0.0081052405 0.0063381109          720 
 1993000   0.44987057   -9.1775166    193.86873 0.0081062356 0.0063326135          706 
 1994000   0.46154913   -9.1757859    193.81125 0.0080997681 0.0063271241          719 
 1995000   0.45924059   -9.2004046    193.93531   0.00810089  0.006321639          723 
 1996000   0.45545065   -9.1850752    193.82427 0.0080921955 0.0063161574          726 
 1997000   0.45232848   -9.1871808    194.13134 0.0081009573 0.0063106835          688 
 1998000   0.44491028   -9.1848417    193.78069 0.0080822777 0.0063052171          700 
 1999000   0.44944002   -9.1725044    193.92854 0.0080843981 0.0062997566          688 
 2000000   0.45859386   -9.1917967    194.03324 0.0080847185 0.0062943053          700 
 2001000   0.45202526   -9.1944424    194.36071 0.0080943157 0.0062888561          736 
 2002000   0.46054285   -9.1994945    193.95992 0.0080735897 0.0062834078          702 
 2003000   0.45797919   -9.1805736    194.21818 0.0080803036 0.0062779744          727 
 2004000   0.45226574   -9.1984454    193.93862 0.0080646466 0.0062725439          698 
 2005000   0.44655804    -9.198499    193.97719 0.0080622273  0.006267118          704 
 2006000   0.45096818   -9.1975559    194.14786 0.0080652984 0.0062617032          701 
 2007000   0.44893486   -9.1878679    194.04845  0.008057152   0.00625629          720 
 2008000   0.45821797   -9.1990521    193.96452 0.0080496564 0.0062508859          724 
 2009000    0.4554264   -9.1961645    193.89009 0.0080425624   0.00624549          698 
 2010000   0.45742554   -9.2028965    193.99521 0.0080429191  0.006240096          697 
 2011000   0.44829893   -9.1884196    193.68013  0.008025863 0.0062347122          691 
 2012000   0.45344637   -9.1978406    193.75964 0.0080251672 0.0062293327          715 
Loop time of 5034.75 on 48 procs for 2000000 steps with 4000 atoms

Performance: 68642.947 tau/day, 397.239 timesteps/s
99.4% CPU use with 48 MPI tasks x no OpenMP threads

MPI task timing breakdown:
Section |  min time  |  avg time  |  max time  |%varavg| %total
---------------------------------------------------------------
Pair    | 341.58     | 367.01     | 386.06     |  61.9 |  7.29
Neigh   | 33.685     | 35.119     | 36.762     |  13.0 |  0.70
Comm    | 320.66     | 361.96     | 388.55     |  76.5 |  7.19
Output  | 4.786      | 4.7883     | 4.8237     |   0.2 |  0.10
Modify  | 4209.5     | 4222.5     | 4265.5     |  12.5 | 83.87
Other   |            | 43.37      |            |       |  0.86

Nlocal:        83.3333 ave          90 max          75 min
Histogram: 3 2 2 2 10 4 10 3 9 3
Nghost:        2291.69 ave        2306 max        2276 min
Histogram: 3 4 3 3 8 7 7 6 2 5
Neighs:        15453.3 ave       17746 max       13663 min
Histogram: 3 5 6 5 10 6 8 4 0 1
FullNghs:      30906.5 ave       34296 max       27627 min
Histogram: 4 1 4 6 11 6 6 8 1 1

Total # of neighbors = 1483513
Ave neighs/atom = 370.87825
Neighbor list builds = 106556
Dangerous builds = 0

#clear
#
#next RN
#
#jump SELF
Total wall time: 1:23:58
