
units lj                  # Use reduced LJ style units
atom_style atomic         # Uncharged point particles
atom_modify map hash      # Needed for indexing of clusters etc
                          # Used to be able to find where atoms are in relation to each other.

lattice fcc 1.0 spacing 1 1 1
Lattice spacing in x,y,z = 1.5874011 1.5874011 1.5874011
region box block 0 10 0 10 0 10 units lattice
create_box 2 box
Created orthogonal box = (0.0000000 0.0000000 0.0000000) to (15.874011 15.874011 15.874011)
  3 by 4 by 4 MPI processor grid
create_atoms 1 box
Created 4000 atoms
  using lattice units in orthogonal box = (0.0000000 0.0000000 0.0000000) to (15.874011 15.874011 15.874011)
  create_atoms CPU = 0.003 seconds
set type 1 type/fraction 2 0.83 78393
Setting atom values ...
  3314 settings made for type/fraction
mass 1 1.0
mass 2 1.0
pair_style lj/cut  3.5
pair_modify tail  yes
pair_coeff 1  1  1.0  1.0   # Intearaction between 1 and 1 set with epsilon = 1 and sigma = 1
pair_coeff 1  2  1.5  0.8
pair_coeff 2  2  0.5  0.88

write_data data.0
System init for write_data ...
Neighbor list info ...
  update every 1 steps, delay 10 steps, check yes
  max neighbors/atom: 2000, page size: 100000
  master list distance cutoff = 3.8
  ghost atom cutoff = 3.8
  binsize = 1.9, bins = 9 9 9
  1 neighbor lists, perpetual/occasional/extra = 1 0 0
  (1) pair lj/cut, perpetual
      attributes: half, newton on
      pair build: half/bin/atomonly/newton
      stencil: half/bin/3d
      bin: standard
WARNING: Not all mixed pair coeffs generated from mixing. Use write_data with 'pair ij' option to store all pair coeffs. (../write_data.cpp:312)


#############################
#   M E L T   S Y S T E M   #
#############################

velocity all create 2.4 9622624 mom yes dist gaussian # Assign velocities
                                                    # Temperature 2.4, random number seed, zero linear momentum
                                                                                # Gaussian distribution

timestep 0.002   # simulation timestep
thermo 1000       # output thermodynamic data every 1000 steps bf 100

# Define a fix  in this case with index 1 applied to all
# particles in the simulation. This fix is for simulations
# in the anisotropic NPT ensemble. Note that we use the MTK
# correction.
fix 1 all npt temp 2.4 2.4 0.1 iso 5.68 5.68 0.5 mtk yes tchain 5 pchain 5 # Use NPT ensemble
                                                                         # Set temperature and pressure and damping
                                                                         # Numbers of thermostats in chain and in barostat
run 10000          # run for 10000 steps
Per MPI rank memory allocation (min/avg/max) = 3.642 | 3.644 | 3.648 Mbytes
Step Temp E_pair E_mol TotEng Press Volume 
       0          2.4   -3.5381599            0  0.060940148   -3.0801753         4000 
    1000    2.3758861   -2.7922484            0   0.77068978    5.9065995    3824.0506 
    2000    2.4278501   -2.7865645            0   0.85430008    5.5375712    3882.9032 
    3000    2.4506089    -2.787441            0   0.88755346    5.6151193    3869.7095 
    4000    2.3830484   -2.7958861            0   0.77779277    5.6062738    3864.3903 
    5000    2.3945218   -2.7979009            0    0.7929839    5.9231689    3839.3386 
    6000    2.3861897   -2.8039902            0   0.77439956    5.8313381     3831.194 
    7000    2.4307329   -2.8390887            0   0.80609914    5.9685686    3799.9416 
    8000    2.2936023   -2.7822934            0   0.65724985    5.8485589    3843.1586 
    9000    2.3701144   -2.8319871            0   0.72229562    5.5522038    3854.6039 
   10000    2.4385121   -2.8149923            0   0.84186142    5.8688643    3820.1203 
Loop time of 2.58264 on 48 procs for 10000 steps with 4000 atoms

Performance: 669081.848 tau/day, 3872.001 timesteps/s
99.6% CPU use with 48 MPI tasks x no OpenMP threads

MPI task timing breakdown:
Section |  min time  |  avg time  |  max time  |%varavg| %total
---------------------------------------------------------------
Pair    | 1.1297     | 1.1971     | 1.2816     |   2.7 | 46.35
Neigh   | 0.20938    | 0.21901    | 0.23145    |   0.9 |  8.48
Comm    | 0.79054    | 0.87865    | 0.97985    |   4.1 | 34.02
Output  | 0.00024374 | 0.00024845 | 0.00031985 |   0.0 |  0.01
Modify  | 0.24431    | 0.27236    | 0.31683    |   3.6 | 10.55
Other   |            | 0.01529    |            |       |  0.59

Nlocal:        83.3333 ave          94 max          73 min
Histogram: 1 3 4 9 6 12 7 2 2 2
Nghost:        1695.75 ave        1722 max        1659 min
Histogram: 1 1 4 5 6 5 12 6 4 4
Neighs:        9977.29 ave       11299 max        8788 min
Histogram: 2 3 8 9 5 7 4 5 2 3

Total # of neighbors = 478910
Ave neighs/atom = 119.72750
Neighbor list builds = 909
Dangerous builds = 240

# Equilibrate just above the melting temperature to avoid step fn in T

fix 1 all npt temp 1.25 1.25 0.1 iso 5.68 5.68 0.5 mtk yes tchain 5 pchain 5
run 2000
Per MPI rank memory allocation (min/avg/max) = 3.644 | 3.645 | 3.649 Mbytes
Step Temp E_pair E_mol TotEng Press Volume 
   10000    2.4385121   -2.8149923            0   0.84186142    5.8688643    3820.1203 
   11000     1.257425   -4.1333994            0   -2.2477333    5.7700021    2961.1654 
   12000    1.2406126   -4.1613373            0   -2.3008836    5.8461406    2949.7435 
Loop time of 0.622105 on 48 procs for 2000 steps with 4000 atoms

Performance: 555532.944 tau/day, 3214.890 timesteps/s
99.7% CPU use with 48 MPI tasks x no OpenMP threads

MPI task timing breakdown:
Section |  min time  |  avg time  |  max time  |%varavg| %total
---------------------------------------------------------------
Pair    | 0.2853     | 0.30431    | 0.32587    |   1.9 | 48.92
Neigh   | 0.040486   | 0.042524   | 0.044907   |   0.5 |  6.84
Comm    | 0.20282    | 0.22679    | 0.25008    |   2.6 | 36.46
Output  | 4.9746e-05 | 5.1116e-05 | 6.4995e-05 |   0.0 |  0.01
Modify  | 0.040702   | 0.043606   | 0.046219   |   0.8 |  7.01
Other   |            | 0.004816   |            |       |  0.77

Nlocal:        83.3333 ave          93 max          73 min
Histogram: 1 0 2 8 8 16 4 4 4 1
Nghost:        2013.12 ave        2036 max        1989 min
Histogram: 2 1 5 7 7 10 5 6 4 1
Neighs:        12961.1 ave       14504 max       10938 min
Histogram: 2 1 4 4 6 8 10 4 4 5

Total # of neighbors = 622133
Ave neighs/atom = 155.53325
Neighbor list builds = 144
Dangerous builds = 13

#############################
# L I N E A R  Q U E N C H  #
#############################

# Define solid atoms. This closely follows ten Wolde  Ruiz-Montero and Frenkel  Faraday Discuss  1996  104  93-110
# Compute components of the per-atom q6 vector
compute q6 all orientorder/atom degrees 1 6 components 6 nnn NULL cutoff 1.3 # compute the Q6 parameter.
                                                                             # Use all neighbours within 1.3 unit cell.

# get number of connections
compute coord_number all coord/atom orientorder q6 0.5

# An atom is solid if it has 8 or more connections (of a possible 14)
variable is_solid atom c_coord_number>=8
group solid dynamic all var is_solid    # Must be dynamic to update
dynamic group solid defined

# do clustering
compute cluster solid cluster/atom 1.3 # Create a cluster where all atoms within are solid and max 1.3 units from another member

# define chunks one chunk per cluster
compute clus_chunks solid chunk/atom c_cluster nchunk every compress yes  # Says which atoms are in which chunk

# count the size of each chunk
compute size_chunks solid property/chunk clus_chunks count


# Find the maximum entry in the vector of chunk sizes
variable max_n equal max(c_size_chunks)


# Thermo style which includes this variable
# thermo_style custom step temp pe vol v_max_n

thermo ${N}  # Print the thermo information every 100 steps
thermo 1000  

# Reset the npt fix at a lower temperature (below freezing)
fix 1  all npt temp  ${temp} ${temp}  0.1  iso  5.68  5.68  0.5  mtk yes tchain  5  pchain  5
fix 1  all npt temp  0.45 ${temp}  0.1  iso  5.68  5.68  0.5  mtk yes tchain  5  pchain  5
fix 1  all npt temp  0.45 0.45  0.1  iso  5.68  5.68  0.5  mtk yes tchain  5  pchain  5

dump dmp2 all dcd ${N} traj.dcd
dump dmp2 all dcd 1000 traj.dcd


compute msd all msd com yes
variable twopoint equal c_msd[4]/6/(step*dt+1.0e-6)
fix 9 all vector 10 c_msd[4]
variable fit equal slope(f_9)/6/(10*dt)
thermo_style custom step temp pe c_msd[4] v_twopoint v_fit v_max_n

fix 1 all npt temp 1.25 ${temp} 0.1 iso 5.68 5.68 0.5 mtk yes tchain 5 pchain 5
fix 1 all npt temp 1.25 0.45 0.1 iso 5.68 5.68 0.5 mtk yes tchain 5 pchain 5
run 500000 # 5000000  # Run for this many steps
Neighbor list info ...
  update every 1 steps, delay 10 steps, check yes
  max neighbors/atom: 2000, page size: 100000
  master list distance cutoff = 3.8
  ghost atom cutoff = 3.8
  binsize = 1.9, bins = 8 8 8
  4 neighbor lists, perpetual/occasional/extra = 1 3 0
  (1) pair lj/cut, perpetual
      attributes: half, newton on
      pair build: half/bin/atomonly/newton
      stencil: half/bin/3d
      bin: standard
  (2) compute orientorder/atom, occasional
      attributes: full, newton on
      pair build: full/bin/atomonly
      stencil: full/bin/3d
      bin: standard
  (3) compute coord/atom, occasional
      attributes: full, newton on
      pair build: full/bin/atomonly
      stencil: full/bin/3d
      bin: standard
  (4) compute cluster/atom, occasional
      attributes: full, newton on
      pair build: full/bin/atomonly
      stencil: full/bin/3d
      bin: standard
Per MPI rank memory allocation (min/avg/max) = 9.830 | 9.838 | 9.844 Mbytes
Step Temp PotEng c_msd[4] v_twopoint v_fit v_max_n 
   12000    1.2406126   -4.1613373 2.2224184e-30 1.543346e-32 8.3333333e+20            1 
   13000    1.2552485   -4.1554521    0.8813713 0.0056498158  0.073561124            2 
   14000    1.2307735    -4.160184    1.8055946  0.010747586  0.076946223            4 
   15000    1.2479809   -4.1657621    2.8008201  0.015560111  0.079074224            1 
   16000    1.2549261   -4.1453923      3.68328  0.019183749  0.078395533            3 
   17000    1.2061967   -4.1552824    4.6070116   0.02258339  0.077668699            2 
   18000    1.2434647   -4.1613925     5.514031  0.025527921   0.07713589            3 
   19000    1.2307719   -4.1762035    6.4887343   0.02845936   0.07713098            1 
   20000    1.2396114   -4.1808923    7.3807036  0.030752931  0.077297237            2 
   21000    1.2323961   -4.1482786    8.2123582  0.032588722  0.076937551            3 
   22000    1.2435219   -4.1732472    9.0308183  0.034207644  0.076419153            1 
   23000     1.236502   -4.1685661    9.8357708   0.03563685  0.075573802            3 
   24000    1.2135192   -4.1959305    10.658133  0.037007405  0.074796904            3 
   25000    1.2324935   -4.1794493    11.555703  0.038519008   0.07432971            3 
   26000     1.240697   -4.2065169    12.419193  0.039805103   0.07398946            2 
   27000    1.2235669   -4.2255067    13.274706  0.040971313  0.073713836            1 
   28000     1.209152   -4.1717607    14.287633  0.042522715  0.073515073            3 
   29000     1.225493   -4.2097109    15.219654  0.043734637  0.073539279            2 
   30000    1.2482044   -4.2098286     16.10131  0.044725859  0.073702052            2 
   31000    1.2320911    -4.214689    16.929832    0.0455103  0.073778375            1 
   32000    1.2069478   -4.1838233    17.817656  0.046400146  0.073770283            1 
   33000    1.2188418   -4.2231735    18.580197  0.046919688  0.073630073            3 
   34000    1.2303904   -4.2291398    19.407008  0.047566195  0.073462091            2 
   35000    1.2357648   -4.2146976    20.199235  0.048093417  0.073286403            1 
   36000     1.222126   -4.2107501    20.977349  0.048558677  0.073043382            3 
   37000    1.2249126   -4.1828245    21.815159  0.049133239  0.072787906            2 
   38000    1.2406421   -4.2052346     22.66105  0.049695284  0.072584636            3 
   39000    1.1927107   -4.2229771    23.620353  0.050470838  0.072441864            3 
   40000    1.2180333   -4.2365576    24.408564  0.050851174  0.072337005            3 
   41000    1.2022534   -4.2484671    25.042277  0.050898937  0.072213739            3 
   42000    1.2416691   -4.1953663    25.905126   0.05139906  0.072019579            2 
   43000    1.1923463   -4.2454732    26.522384  0.051399969  0.071803459            3 
   44000    1.2134291   -4.2255403    27.427863   0.05194671  0.071542438            5 
   45000    1.2207293   -4.2485023    27.918878  0.051701625    0.0712807            5 
   46000    1.1892177    -4.221192    28.720384   0.05202968  0.071005544            2 
   47000    1.1916743   -4.2192337     29.73773  0.052726472  0.070772288            3 
   48000    1.1622206    -4.249706    30.547802  0.053034378  0.070592418            1 
   49000    1.1804989   -4.2411602    31.221558  0.053097887  0.070388871            3 
   50000    1.1779792   -4.2276247    31.653054   0.05275509  0.070134995            2 
   51000     1.180761    -4.257402    32.500049  0.053104654  0.069857832            4 
   52000    1.1925201   -4.2192836    33.158057  0.053137912  0.069595741            3 
   53000    1.1954157   -4.2687978    33.799153  0.053143322  0.069320385            4 
   54000    1.1748333   -4.2511221    34.851053  0.053782489  0.069082629            3 
   55000    1.1949211    -4.247169       35.547   0.05385909  0.068860907            2 
   56000    1.1895205   -4.2697417    36.172498  0.053828122  0.068646317            2 
   57000    1.1889038   -4.2694752    37.183636   0.05436204   0.06845938            1 
   58000    1.1939416   -4.2810163     37.69465  0.054158979  0.068280966            3 
   59000    1.1897574   -4.2454912    38.430291  0.054280071  0.068101915            1 
   60000    1.1793777   -4.2610065    39.147206  0.054371119  0.067913549            1 
   61000    1.1492239   -4.2747303    40.073993  0.054745892  0.067743303            1 
   62000    1.1347955   -4.2933469    40.425003   0.05433468  0.067535047            2 
   63000    1.1672775   -4.2820798    40.977772  0.054203402  0.067311238            2 
   64000    1.1410307   -4.2913748    42.008914  0.054699107  0.067098596            6 
   65000    1.1815122   -4.2903816    42.506384  0.054495363  0.066880521            1 
   66000     1.143241    -4.284117    42.971491  0.054256933  0.066646053            1 
   67000    1.1652272   -4.2822436    44.138306   0.05489839  0.066449816            2 
   68000    1.1820929   -4.2926346    44.832805  0.054942163  0.066269399            2 
   69000     1.164868   -4.2750231    45.538433  0.054998108  0.066096792            5 
   70000    1.1544124   -4.3082078    46.141949  0.054930891  0.065927851            1 
   71000    1.1548295   -4.3145559    46.583614  0.054675603  0.065770968            1 
   72000    1.1531706   -4.3160456    47.433099   0.05489942  0.065605785            2 
   73000    1.1417887   -4.3065193    48.414727  0.055267953  0.065452105            2 
   74000    1.1371368   -4.3322544    48.774486  0.054926222  0.065299347            3 
   75000    1.1522254   -4.3580798    49.374065  0.054860072  0.065116505            4 
   76000    1.1440728   -4.3073709    50.215912  0.055061306   0.06493346            4 
   77000     1.149702   -4.3283835    50.791387  0.054969033  0.064772926            2 
   78000    1.1131033   -4.3293464     51.74405  0.055282105  0.064630057            2 
   79000    1.1461905   -4.3305961    52.030301  0.054884284  0.064486905            2 
   80000    1.1543208   -4.3098913    53.430167  0.055656424  0.064367079            2 
   81000    1.1516247   -4.3572559    54.050963  0.055607987  0.064277118            3 
   82000    1.1410028   -4.2979612     54.75867  0.055649054  0.064181132            2 
   83000    1.1625394   -4.3115154    55.526547  0.055749545  0.064079281            1 
   84000    1.1402334    -4.308733    55.968965  0.055524766  0.063979448            2 
   85000     1.135467   -4.3405518    56.516649  0.055408479  0.063873288            1 
   86000    1.1284202   -4.3297979    57.337311  0.055559409  0.063766078            3 
   87000    1.0987657   -4.3092771    58.126382  0.055676611  0.063665335            2 
   88000    1.1216928   -4.2923941    59.021785  0.055891842   0.06356943            3 
   89000    1.1252752   -4.3293135    59.547359  0.055755953  0.063470547            1 
   90000    1.1208531   -4.3650882    59.986516   0.05554307   0.06336918            4 
   91000    1.0932728   -4.3742848    60.717942  0.055602511  0.063270985            6 
   92000    1.1060478   -4.3575653     61.58467  0.055783216  0.063181984            3 
   93000    1.1326072   -4.3764001     62.04073  0.055592051  0.063102594            2 
   94000    1.1336701   -4.4031151    62.399481  0.055318689  0.062989368            2 
   95000    1.1481863    -4.397752    62.923869  0.055196376  0.062869433            3 
   96000    1.1103137   -4.3611162    63.872317  0.055444719  0.062747369            1 
   97000    1.1296168   -4.3747213    64.485821  0.055400189  0.062622835            2 
   98000    1.0967649   -4.3842012    65.079998  0.055340134  0.062493395            2 
   99000    1.1021158   -4.3809659    65.389627  0.055041773  0.062362137            4 
  100000    1.0878225   -4.3632722    66.031389  0.055026157  0.062221703            3 
  101000    1.1096982   -4.3996021    66.327864   0.05472596  0.062077962            3 
  102000    1.0883481   -4.3870576    67.342298  0.055018217  0.061937943            6 
  103000    1.1114801   -4.4074558    68.008383  0.055022963   0.06181371            6 
  104000    1.1160657   -4.3915913    68.356092  0.054772509  0.061680806            3 
  105000    1.1253529   -4.3493169     69.24823  0.054958912  0.061553105            1 
  106000    1.1131437   -4.4228058    70.032635  0.055057103  0.061435714            3 
  107000    1.0830969   -4.4294599    70.267043  0.054725111  0.061315703            4 
  108000    1.0893029    -4.414975    70.941185  0.054738568  0.061191131            3 
  109000    1.0977526   -4.3888701    71.548083  0.054700369  0.061067734            4 
  110000    1.0860051   -4.4018797    72.117078   0.05463415  0.060944792            3 
  111000    1.0950628   -4.4298684    72.162229  0.054175847  0.060813157            3 
  112000    1.0902048   -4.4129541     72.74252  0.054123898  0.060670102            4 
  113000    1.0633473   -4.4098813    73.986602  0.054562391  0.060534436            3 
  114000     1.109109   -4.3954994    74.254751  0.054279789  0.060395643            6 
  115000    1.0802138   -4.4349005    74.890515  0.054268489  0.060259632            2 
  116000    1.0626538   -4.4132578    75.666923  0.054358421  0.060131284            1 
  117000     1.092631   -4.4147593    76.576397  0.054541593  0.060014985            2 
  118000    1.0830432   -4.4006999    76.896378  0.054305351  0.059903989            1 
  119000    1.0927536   -4.4518594    77.821218  0.054496651   0.05979604            3 
  120000    1.0539452   -4.4433297    78.343506  0.054405212   0.05969219            5 
  121000    1.0784265   -4.4066608    79.370111  0.054662611  0.059596433            4 
  122000    1.0666018   -4.4770113    79.797649  0.054506591  0.059510214            3 
  123000    1.0556339   -4.4652047    80.680256   0.05466142  0.059429755            2 
  124000    1.0482519    -4.446951    81.346502  0.054668348  0.059353419            2 
  125000    1.0555574   -4.4399986    82.055665  0.054703776  0.059273577            6 
  126000    1.0701705   -4.4491714    82.722191  0.054710444  0.059191819            2 
  127000    1.0558093   -4.4621935    82.804978  0.054333975   0.05910925            3 
  128000    1.0536385   -4.4721531    83.759433  0.054530881   0.05902816            4 
  129000    1.0824589   -4.4507015    84.204433  0.054395628  0.058943823            4 
  130000      1.07842   -4.4612427    84.812566  0.054367029  0.058857576            3 
  131000    1.0669955   -4.4865383    85.602612  0.054454587  0.058773065            2 
  132000    1.0385413   -4.4646757    86.144475  0.054384138  0.058694197            4 
  133000    1.0372296   -4.4502278    86.826404  0.054402508   0.05861939            3 
  134000    1.0358914   -4.4930093    87.281663  0.054279641  0.058541247            4 
  135000    1.0616657   -4.4502872    87.985766  0.054312201  0.058461366            3 
  136000    1.0400097   -4.4963813    88.181967  0.054033068  0.058382834            5 
  137000    1.0467167   -4.4820782    88.849056  0.054044438  0.058300723            3 
  138000    1.0224524   -4.4902206     89.05675   0.05377823  0.058214432            3 
  139000    1.0468537   -4.4669346    89.825831  0.053852416  0.058121043            2 
  140000    1.0549015   -4.4983894     90.10113  0.053631625  0.058029789            2 
  141000    1.0599663    -4.495106      90.8044  0.053666903  0.057939947            4 
  142000    1.0296771   -4.4776042    91.404419  0.053641091  0.057845934            4 
  143000    1.0491809   -4.4576167    92.189363  0.053723405  0.057753531            2 
  144000    1.0352682   -4.4932863    92.784752  0.053694879  0.057662864            4 
  145000    1.0177219   -4.5147263    93.365993  0.053658617  0.057573792            5 
  146000    1.0350831   -4.5029475    93.629724  0.053441623  0.057484649            4 
  147000    1.0201937   -4.5115898    94.548761  0.053599071  0.057395707            1 
  148000    1.0455552   -4.4663288    95.193724   0.05360007   0.05731175            5 
  149000    1.0429538   -4.5245155    95.631087  0.053484948  0.057228039            2 
  150000    1.0356055   -4.5275528    96.162559  0.053423644  0.057147112            3 
  151000    1.0333273   -4.5103547    96.414915  0.053209114   0.05706025            4 
  152000     1.027558   -4.5356404    97.013491  0.053187221  0.056973448            2 
  153000    1.0240268    -4.499946    97.303292  0.052997435  0.056886992            6 
  154000    1.0293318   -4.5689923    97.686013  0.052860397  0.056799246            4 
  155000    1.0245748   -4.5307356    98.890215  0.053166782  0.056714839            6 
  156000    1.0209051   -4.5184276    99.624868  0.053218412  0.056635786            3 
  157000    1.0205184   -4.5497741    100.22216  0.053196476  0.056552652            5 
  158000    1.0097062   -4.5632631    100.44799  0.052978899  0.056468826            3 
  159000    1.0119371   -4.5709896    101.10795  0.052991587  0.056382356            3 
  160000    1.0427558   -4.5485887    101.63886  0.052936908  0.056300916            2 
  161000    1.0191505   -4.5518569    101.61846  0.052597546  0.056214263            4 
  162000    1.0303669   -4.6033267     102.1732  0.052558229  0.056129045            4 
  163000    1.0015724   -4.5782695     103.0832   0.05270102  0.056045615            3 
  164000    0.9947021   -4.5445522    103.99183  0.052841375  0.055968435            4 
  165000   0.99872891   -4.5622747    104.48084  0.052768102  0.055891806            6 
  166000    1.0035982   -4.5690214    104.35899  0.052389049  0.055809604            6 
  167000     1.011768   -4.5507645    104.99271  0.052391571  0.055718732            3 
  168000   0.97621949   -4.5586931     105.2899  0.052227134  0.055628091            4 
  169000   0.99256832   -4.5890322     105.9746  0.052255719  0.055537719            3 
  170000   0.99446422   -4.5963699    106.23213  0.052074571  0.055450577            2 
  171000   0.99217449   -4.5559537    107.02594  0.052156891  0.055364272            4 
  172000    1.0076358   -4.6027908    107.21016  0.051942904  0.055278291            6 
  173000    1.0011498   -4.5849528    107.67444  0.051866301  0.055186271            5 
  174000    1.0121777   -4.6084691    107.51164  0.051490249  0.055087703            1 
  175000   0.97808031   -4.5687712     108.1794  0.051514002  0.054991724            3 
  176000   0.99010208   -4.6351529    108.73123  0.051482589  0.054897515            4 
  177000   0.98692684   -4.6072148    108.79958  0.051223909  0.054799071            4 
  178000   0.98202393   -4.6190993    109.53877  0.051282197  0.054697491            6 
  179000   0.98213839   -4.6181856    109.94394   0.05118433  0.054596674            4 
  180000    0.9857075   -4.6108412    110.74662  0.051271583  0.054496477            3 
  181000   0.97110048   -4.6208869    110.89731  0.051057695  0.054400438            4 
  182000   0.98071893   -4.6146271    111.72612   0.05115665  0.054307787            4 
  183000   0.98132264   -4.6409888    112.21267  0.051098665  0.054215194            5 
  184000    0.9656979   -4.6041006     113.0371   0.05119434  0.054125373            3 
  185000   0.96615588   -4.6374421    113.36619   0.05106585   0.05403609            2 
  186000   0.95465768   -4.6270316    113.68599  0.050934583  0.053944328            3 
  187000   0.95806326    -4.621871    114.16012  0.050873494  0.053852456            4 
  188000   0.95561612   -4.6696878    114.71088  0.050847019   0.05376205            3 
  189000   0.96829154   -4.6537835    114.65833   0.05055482  0.053668453            3 
  190000    0.9451027    -4.638473    115.47095  0.050645155   0.05357309            3 
  191000   0.97051681   -4.6567036    115.85609  0.050548032  0.053480871            3 
  192000   0.94371549   -4.6268336    116.81518  0.050701035  0.053386666            4 
  193000   0.96174071   -4.6709547     116.5104  0.050306735  0.053290985            7 
  194000   0.97612034   -4.6514814    117.09445  0.050298302   0.05319538            3 
  195000   0.93694394   -4.6738041    117.81523  0.050348389  0.053101809            5 
  196000   0.96931428   -4.6553846    118.15105   0.05023429  0.053011225            5 
  197000   0.96120769   -4.6561395    118.58908  0.050164586  0.052923067            9 
  198000   0.95065765   -4.6384011    119.35067  0.050231763   0.05283382            2 
  199000   0.94856833   -4.6658552    119.49988  0.050041826  0.052743256            6 
  200000   0.94720294   -4.6696346    119.48257  0.049784404  0.052651552            3 
  201000   0.94103554   -4.6303165    120.68093  0.050033551  0.052557696           10 
  202000   0.92573197   -4.6851051    120.35315   0.04965064  0.052464909            3 
  203000   0.92645508   -4.6890811    121.44554  0.049854491   0.05237155            3 
  204000   0.94100345   -4.6598245    121.24668  0.049528874  0.052276952            4 
  205000   0.95160363    -4.689168    121.65164  0.049451885  0.052182868            3 
  206000   0.93638311   -4.7037098    121.85186  0.049292825   0.05208616            2 
  207000   0.95126984   -4.6759521    121.90215   0.04907494  0.051986649            3 
  208000   0.93606359     -4.64057    122.74798  0.049177875  0.051887719            4 
  209000   0.92422971   -4.7015826    122.99193  0.049039845  0.051785881            5 
  210000   0.92934992   -4.6962469    123.43145  0.048980735   0.05168547            3 
  211000    0.9136949   -4.6978626    123.81293  0.048899263  0.051586836            8 
  212000   0.91096488   -4.7121101    124.50385  0.048940193  0.051489619            6 
  213000   0.92387552   -4.7283953    124.17978  0.048583638  0.051390769            4 
  214000   0.92808134     -4.71809    125.50993  0.048874581  0.051292808            2 
  215000   0.91401303   -4.7060599    125.41763  0.048611483  0.051197632            5 
  216000   0.93925611   -4.7308275    126.13596  0.048663564  0.051099806            2 
  217000   0.92398476   -4.7073735     126.5568   0.04860092  0.051001957            3 
  218000   0.92308297   -4.7080297    126.94908  0.048527937  0.050906099            6 
  219000    0.9053513    -4.710693    127.02101  0.048333718  0.050811355            3 
  220000   0.92978726   -4.7213393    127.97565  0.048475626  0.050717146           12 
  221000   0.88675467   -4.6805604    128.08271  0.048296646   0.05062091            4 
  222000   0.91020569   -4.7355848    128.15887  0.048107684  0.050524535            3 
  223000   0.91892486   -4.7019125    128.36541  0.047969135  0.050425116            5 
  224000    0.9113045    -4.754415    128.36754   0.04775578  0.050326045            8 
  225000   0.89351258   -4.6947309    129.63052  0.048011302  0.050230256            5 
  226000   0.91914542   -4.7531056    129.87869  0.047890373  0.050137308            2 
  227000   0.88604232    -4.757828    129.76333  0.047637054  0.050041938            6 
  228000    0.8966136   -4.7431959    130.80747  0.047809748  0.049947093            3 
  229000   0.91054087   -4.7735721    130.62709  0.047535332  0.049854936            5 
  230000   0.91305505   -4.7659078    131.41933  0.047615701  0.049761303            8 
  231000   0.89849639   -4.7726927    131.94454  0.047599039  0.049670432            5 
  232000   0.88725983   -4.7754746    131.67823  0.047298215  0.049576159            2 
  233000   0.90124145   -4.7513236    132.46372  0.047376152  0.049485411            3 
  234000   0.91425817   -4.7836635    132.54832  0.047203817   0.04939293            6 
  235000   0.91323553   -4.7750022    133.26336  0.047256509  0.049301876            7 
  236000   0.87786767   -4.7842892    133.72887  0.047220648  0.049212348            4 
  237000   0.90079094   -4.7922025    134.01444  0.047121813  0.049123664            3 
  238000   0.87809349   -4.7949955    133.94338  0.046898941  0.049032688            4 
  239000   0.89115563   -4.7843263     134.3934  0.046859622  0.048940659            3 
  240000    0.8827233   -4.7706164    134.33345  0.046643558  0.048844928            4 
  241000   0.89100937   -4.7951659    134.45743  0.046492889  0.048746814            8 
  242000   0.87930728   -4.7737458    134.85775  0.046438618  0.048646726            5 
  243000   0.87663788   -4.8164555    135.03236  0.046307395  0.048547074            7 
  244000   0.88877099   -4.7967219    135.65769  0.046331179  0.048448048            3 
  245000   0.90168219   -4.8100518    135.68034  0.046149775  0.048350915            6 
  246000   0.88587041    -4.827682     135.8175  0.046008639   0.04825531            5 
  247000   0.88996941   -4.7973638    136.50331  0.046053748  0.048156809            2 
  248000   0.86861289   -4.8403386    136.66545  0.045922532  0.048058851            9 
  249000   0.89276194   -4.7949873    136.96808  0.045839385  0.047961967            3 
  250000   0.87777153   -4.8331223    137.33992  0.045779973  0.047863987            2 
  251000   0.89749663   -4.8375647    137.11775  0.045523823  0.047766194            6 
  252000   0.88029383   -4.8105602    137.96226  0.045622442  0.047668191            6 
  253000    0.8661921   -4.8333573    138.23694  0.045532589  0.047568298            5 
  254000   0.88410198   -4.8492943    138.35663  0.045392594  0.047468912            4 
  255000   0.87621942   -4.8311483    138.68466  0.045321783    0.0473698            5 
  256000   0.87716461   -4.8653446    138.56051  0.045104333  0.047269519            5 
  257000   0.85462649   -4.8072078    139.23322  0.045146959  0.047169614            7 
  258000   0.83912072    -4.810962    140.16273  0.045272199  0.047070864            5 
  259000   0.85420482   -4.8599741     139.2741  0.044811487  0.046973523            4 
  260000   0.85542136   -4.8594035    139.93888  0.044852204  0.046875176            3 
  261000   0.86496242   -4.8340191    140.67155  0.044914286  0.046778248            4 
  262000   0.85218703   -4.8589808    140.18054  0.044586685  0.046680144            8 
  263000    0.8376294   -4.8757934    140.64819  0.044565331  0.046579943            6 
  264000   0.85860675   -4.8676697    141.42124  0.044640544  0.046481085            2 
  265000   0.83933713   -4.8636718    141.32527   0.04444191  0.046382504            6 
  266000     0.852851   -4.8858016    141.35875  0.044285322  0.046283051            2 
  267000   0.83202027   -4.8613445    141.69697  0.044225022  0.046183854           10 
  268000   0.83360295   -4.8911764    142.00549  0.044155934  0.046082597            5 
  269000   0.83274258   -4.9034719    142.17506  0.044044317  0.045982663            6 
  270000   0.83118161   -4.8629796     142.4227  0.043957625  0.045882759           14 
  271000   0.85411055   -4.8729371    142.57615  0.043842605   0.04578323            8 
  272000   0.81943001   -4.8979399    142.99843  0.043810793  0.045682773            6 
  273000   0.82240551   -4.8809957    143.43778  0.043784426  0.045583566            3 
  274000   0.82947472   -4.8958145     143.3314  0.043592274   0.04548523            4 
  275000   0.86485271   -4.8802399     143.9691  0.043626999   0.04538689            6 
  276000   0.82719263   -4.8792438    143.82625    0.0434258  0.045288098            9 
  277000   0.83832389   -4.8620132    144.14844  0.043365958  0.045190039            4 
  278000   0.82184269   -4.8867195    144.39549  0.043284019  0.045090422            9 
  279000   0.83404523   -4.9283961    144.18668   0.04306651   0.04499098           12 
  280000    0.8170644   -4.9107712    145.06587  0.043174365   0.04489131            6 
  281000   0.82165048   -4.8913776    145.50725  0.043151615  0.044793182            5 
  282000   0.84038493   -4.9349011    145.73031  0.043064511  0.044695793            7 
  283000   0.81674068   -4.9317403    145.67306  0.042895483  0.044597866            3 
  284000   0.83399691   -4.9526276    146.34734  0.042942296  0.044501164            6 
  285000   0.81283476   -4.9426341    146.42476  0.042814257  0.044405111            6 
  286000   0.81091103   -4.9200325    146.49545  0.042685155  0.044309711            6 
  287000   0.79988098    -4.939138    147.00179  0.042683447  0.044213711            5 
  288000   0.80738094   -4.9096158    147.25057  0.042607224  0.044117047            4 
  289000   0.80307704   -4.9447483      147.105   0.04241782  0.044021292            4 
  290000   0.78689408   -4.9244855    147.32344  0.042334323  0.043925124            8 
  291000   0.80547669   -4.9334783    147.21903  0.042158944  0.043828417            4 
  292000   0.80149058   -4.9823534    147.58805  0.042119878  0.043731657            4 
  293000   0.80915568   -4.9369868    147.92203  0.042071112  0.043634597            5 
  294000   0.79490582   -4.9611266    148.06472  0.041968459   0.04353824            4 
  295000   0.80390001   -4.9599927    148.17166  0.041856402  0.043440291            7 
  296000   0.79628701   -4.9669761    148.50931  0.041810054  0.043343542            7 
  297000   0.79722852   -4.9589498    149.08186  0.041829928  0.043247123            6 
  298000   0.80918754   -4.9723545    148.86362   0.04162853  0.043151166            7 
  299000   0.80132844   -4.9649501    149.29435  0.041609351  0.043055433            8 
  300000   0.79718179   -4.9479684    149.65483  0.041570787  0.042960606           12 
  301000   0.78011924   -4.9670418    149.48165  0.041384733  0.042865703            8 
  302000   0.79262203   -4.9491228    150.33269   0.04148253  0.042770492            8 
  303000   0.77987323   -4.9900194    150.20314  0.041309995   0.04267627            6 
  304000   0.78192927   -4.9768594    150.53672  0.041265548  0.042581717            6 
  305000     0.769751   -4.9763279    150.47047  0.041112151  0.042487684            9 
  306000   0.77271576   -5.0037213    151.46353  0.041248237   0.04239348            8 
  307000   0.77056854   -4.9920069    151.20411  0.041043461  0.042301612            8 
  308000   0.79018712   -5.0070214    151.28025  0.040930805  0.042210025            4 
  309000   0.76384014   -5.0077788    151.29843  0.040803245  0.042116634           12 
  310000   0.78930359   -5.0133814    152.06463  0.040877588  0.042023281            5 
  311000   0.78508352   -5.0091599    151.99035  0.040726246  0.041929896            5 
  312000   0.78465125   -5.0135453    151.72166  0.040523947  0.041836444            4 
  313000    0.7733163   -4.9998523    152.24062  0.040532646  0.041742753            3 
  314000   0.75725879   -5.0353876    152.08654   0.04036267  0.041648867            9 
  315000   0.78768689   -5.0242684    152.72621  0.040403759  0.041555636            3 
  316000    0.7881819   -5.0163889     152.3066  0.040165241  0.041461722            3 
  317000   0.74728438    -5.034653    152.81105  0.040171148  0.041367477            9 
  318000   0.77259796   -5.0341853    152.74907  0.040028583  0.041274364            7 
  319000   0.77584719    -5.020383    153.14216  0.040005788  0.041180584            4 
  320000    0.7593281   -5.0511005    153.05389  0.039857783  0.041086851            6 
  321000   0.74819562   -5.0648983     153.3853  0.039819653   0.04099222            7 
  322000   0.75290299   -5.0483455    153.30009  0.039673937  0.040897808           10 
  323000   0.76551598   -5.0307902    153.42028  0.039582115  0.040804699            4 
  324000    0.7454494    -5.049811     153.8838  0.039579167   0.04071215           10 
  325000   0.74934323   -5.0699275    153.82024  0.039441087  0.040618968            9 
  326000   0.73647361   -5.0466922     154.5429   0.03950483  0.040526457            4 
  327000   0.75868381   -5.0758437    154.62053  0.039403804  0.040434153           15 
  328000   0.73327347   -5.0503584    154.81361  0.039332727  0.040342774            8 
  329000    0.7495196   -5.0707152    155.06182  0.039276043  0.040251945            5 
  330000   0.73939261   -5.0634736    155.48378   0.03926358  0.040160737            6 
  331000   0.74351117   -5.0970315    155.18178  0.039068927  0.040070022            8 
  332000   0.71921499   -5.0661607     155.9718  0.039149548  0.039979853            7 
  333000   0.75432759   -5.1071754     155.8189  0.038993719  0.039890097            8 
  334000   0.71959657    -5.093741    155.66312  0.038838103  0.039799671            8 
  335000   0.73650343   -5.0905639    156.63841  0.038964778  0.039710385            4 
  336000   0.72732964   -5.0795105    155.96681  0.038682246  0.039620758            7 
  337000    0.7391851   -5.0840916    156.73237  0.038756767   0.03953176           10 
  338000     0.738959   -5.1038349     156.3602  0.038550345  0.039442408           25 
  339000   0.73861265   -5.1008317     156.3218  0.038427188  0.039352057            7 
  340000   0.72976269   -5.1193874    156.29579  0.038307791  0.039261784            8 
  341000   0.73463078   -5.1200928    156.58379  0.038265834    0.0391706           29 
  342000    0.7179148   -5.1173801    156.58304  0.038153762  0.039080779            6 
  343000   0.72725611   -5.1155549    157.06272  0.038159066  0.038991397           11 
  344000    0.7150562   -5.1246516    157.05905   0.03804725  0.038902277            5 
  345000   0.73488177   -5.1360105    157.37665  0.038013684  0.038813303            8 
  346000   0.71924978   -5.1227043    157.14058  0.037846961  0.038724101            6 
  347000   0.71453794   -5.1538489    157.56526   0.03783988  0.038635174            6 
  348000   0.69696658   -5.1370604    157.27527  0.037661703  0.038545868            4 
  349000   0.70924092   -5.1475907    157.76393  0.037670471  0.038456337            7 
  350000   0.70910095   -5.1255683    157.59658  0.037522995  0.038366522            9 
  351000   0.70615863   -5.1435491    158.01813  0.037516174  0.038276501            7 
  352000   0.70257699   -5.1543113    157.55638  0.037300279    0.0381865            5 
  353000   0.68362217   -5.1586323    158.02844  0.037306054  0.038095931            4 
  354000   0.68310055     -5.16473    157.61248  0.037102749  0.038005879            4 
  355000   0.70801023   -5.1288819    158.29113  0.037157542  0.037916068            3 
  356000   0.69072769   -5.1674735    158.12703  0.037014754  0.037825993           11 
  357000   0.71306246   -5.1758452    157.91122  0.036860695  0.037736224            9 
  358000    0.6959701   -5.1698354    158.12822  0.036808246  0.037646126           12 
  359000     0.702645   -5.1635372    158.56194  0.036806393  0.037556078            7 
  360000   0.69781775   -5.1839805    158.82269  0.036764511  0.037467326            8 
  361000   0.67840494   -5.1804754    159.10868  0.036728689  0.037378695            6 
  362000   0.70959345    -5.202247    159.12808  0.036631694  0.037289365           13 
  363000   0.68263239   -5.2068253    158.62762   0.03641589  0.037199904           14 
  364000   0.67842846   -5.1852879    159.23049  0.036453867  0.037111521            5 
  365000   0.67561048   -5.1859202    160.01981  0.036534202  0.037023872            3 
  366000   0.67657876   -5.1982413    159.58324  0.036334983  0.036936801            7 
  367000   0.69364432    -5.197967    159.99194  0.036328779  0.036850424           13 
  368000   0.68255026   -5.1928655    159.54887  0.036129725  0.036762682           14 
  369000    0.6886169    -5.196364    160.11064  0.036158682  0.036675668            4 
  370000   0.66698531   -5.2082251    160.12312  0.036063766  0.036589026           11 
  371000   0.68187569   -5.2094983    159.85629  0.035906623  0.036501334           10 
  372000   0.67360877   -5.2166268    160.05989   0.03585571  0.036414195            9 
  373000   0.66363651   -5.2150252    159.81569  0.035705025  0.036326927           19 
  374000   0.67774348   -5.2299998    160.14797  0.035683593  0.036239406           11 
  375000   0.67764692   -5.2445066    160.42017  0.035648926  0.036151796           16 
  376000   0.66827732   -5.2414678    160.52049  0.035576349  0.036065073           12 
  377000   0.66504159   -5.2200903     160.3501  0.035444319  0.035978518            5 
  378000    0.6756735   -5.2712632    160.46646  0.035376204  0.035891971            6 
  379000   0.66951814   -5.2651024    160.69127  0.035332293  0.035805423            9 
  380000   0.66558505   -5.2422315    160.97943  0.035302508   0.03571851            7 
  381000   0.66334489   -5.2370668    161.01455  0.035217532  0.035632166            7 
  382000   0.65406205   -5.2480123    160.51077  0.035015439  0.035546127            7 
  383000   0.67125999   -5.2629772    160.74248  0.034974429   0.03545955           18 
  384000   0.65176473   -5.2818203    160.67584  0.034868889   0.03537293           14 
  385000   0.65645284   -5.3054782    160.79678  0.034804498  0.035286031           13 
  386000   0.64749853   -5.2851532    160.77017  0.034708585  0.035199239            7 
  387000   0.66856504   -5.2651074     160.7964  0.034624547  0.035112635            8 
  388000    0.6471832   -5.2711562    161.53961  0.034694932  0.035026488           18 
  389000   0.65227688   -5.2976239    161.01856  0.034494122  0.034939925            8 
  390000    0.6404209   -5.2846852    160.59988  0.034316213  0.034852693            7 
  391000   0.64488225   -5.3097788    161.13974  0.034343508  0.034765778           12 
  392000   0.64329206   -5.2974795    160.93147  0.034211623  0.034679414            8 
  393000   0.63979646    -5.271762    161.26208  0.034194674  0.034593425           10 
  394000   0.65039574   -5.2935374    161.70618  0.034201815  0.034508612           13 
  395000   0.64317389   -5.2905275    161.45383   0.03406199  0.034423568           18 
  396000   0.62933352   -5.3285293    161.84153  0.034057562   0.03433878           10 
  397000   0.63987481   -5.3122675      161.352  0.033869018  0.034254118           21 
  398000   0.63385928   -5.3201489    162.08339  0.033937059   0.03416897           18 
  399000   0.62151261   -5.3315339    161.57827  0.033746506  0.034084299            8 
  400000   0.62169272   -5.3066546    162.52321  0.033859002  0.033999764           12 
  401000   0.61464944   -5.3138546    161.82728  0.033629942  0.033916433           15 
  402000   0.63423453   -5.3352584    161.77279  0.033534989  0.033832791           15 
  403000   0.60938606   -5.3186675    162.12498  0.033524603  0.033749329           11 
  404000   0.62017014   -5.3468356    162.06695  0.033429652  0.033665618           11 
  405000   0.62301008   -5.3213228     162.1684  0.033367984  0.033581827            9 
  406000   0.61908512   -5.3332496    162.31341  0.033315559  0.033498043            9 
  407000   0.61798318   -5.3276742    162.37541  0.033246398  0.033414616           17 
  408000   0.61295676   -5.3330568    162.31585  0.033152746  0.033331658            6 
  409000   0.63125817   -5.3468627    162.33882  0.033076369  0.033248642           14 
  410000   0.60452649    -5.335816    162.17216  0.032961821  0.033165444            9 
  411000   0.61154425    -5.347031    162.81669  0.033012306  0.033082441           32 
  412000   0.61038303   -5.3852475    162.22733  0.032812971   0.03299927           17 
  413000   0.61905446   -5.3670616    161.83793   0.03265495  0.032915575            7 
  414000   0.60470034   -5.3770845    162.04692   0.03261814  0.032831825           10 
  415000   0.60486725   -5.3838925    162.15111  0.032560463  0.032748344           13 
  416000   0.59947833   -5.3985458    161.82048  0.032415962  0.032664693           10 
  417000   0.59193255   -5.3623536    162.25897  0.032425854  0.032580998           19 
  418000   0.60430138   -5.3961125    161.34278  0.032165627  0.032497167           19 
  419000   0.59593589   -5.3807715     162.2638  0.032272038  0.032413124           20 
  420000   0.60371901   -5.3890542    161.84175  0.032111458  0.032329111           15 
  421000   0.59334961   -5.4053313    161.63543  0.031994344  0.032245329           13 
  422000   0.59707444   -5.4072414    162.15855  0.032021831  0.032161883           17 
  423000   0.59478398   -5.4016643    161.99134  0.031913187  0.032078524            9 
  424000   0.60609788   -5.4051747    162.22982  0.031884793  0.031995415            8 
  425000   0.58030827   -5.4090781    162.44518  0.031851995   0.03191242           26 
  426000   0.59269067   -5.3930126    162.32015  0.031752768  0.031829747           17 
  427000   0.58792673   -5.4224586    162.06996  0.031629578   0.03174707           15 
  428000     0.576449   -5.4311718    162.45579    0.0316308  0.031664717           14 
  429000   0.57384382    -5.404573      162.827  0.031629177   0.03158296           27 
  430000   0.58740258   -5.4339015    162.63602  0.031518609  0.031501637           23 
  431000    0.5770654   -5.4394109    162.72544  0.031462768  0.031420149           21 
  432000   0.57047806   -5.4164886    162.47397  0.031341429  0.031339167           25 
  433000   0.58471781    -5.434321     163.1105  0.031391552  0.031258293           14 
  434000   0.57689378   -5.4241249     162.9402  0.031286521  0.031177993           15 
  435000   0.57175675   -5.4315984    162.61444  0.031152192  0.031097406           46 
  436000   0.56361062   -5.4295144    162.74751  0.031106176  0.031016621           16 
  437000   0.57372026   -5.4456825    162.44322  0.030976968  0.030936082            9 
  438000   0.56403095   -5.4586259    162.29525  0.030878091  0.030855128           23 
  439000   0.56000077   -5.4608281    162.30464  0.030809536  0.030774248            7 
  440000   0.56612256   -5.4531429    162.45784   0.03076853  0.030693702           11 
  441000   0.56156728   -5.4716007    162.63359  0.030731971  0.030613501           11 
  442000   0.55393842   -5.4750115    162.40689  0.030619701  0.030533197           13 
  443000   0.56787587   -5.4768384    162.78074  0.030620907  0.030453269            7 
  444000   0.55250765   -5.4872284    162.47699  0.030494931  0.030373356           15 
  445000   0.55166964   -5.4917552    162.50129  0.030430953  0.030293567           24 
  446000   0.56603878   -5.4910238     162.7429  0.030407867  0.030213707           13 
  447000   0.54316153    -5.498056    162.74177  0.030339629  0.030134285           40 
  448000   0.56212723   -5.4970415    162.44223  0.030216189  0.030054876           50 
  449000    0.5546351   -5.4890928    162.55226  0.030169313  0.029975367           28 
  450000   0.53558192   -5.5174629    162.40665  0.030075306  0.029896095           35 
  451000   0.54673999   -5.5142366    162.42169  0.030011399  0.029817234           39 
  452000   0.54269265   -5.5052471    162.11415  0.029888301  0.029738355           19 
  453000   0.54044901   -5.5201506    162.42419  0.029879359  0.029659498           18 
  454000   0.54273325   -5.5183392    162.25741  0.029782931   0.02958097           12 
  455000   0.53927528   -5.5268728    162.88263  0.029831984   0.02950246           12 
  456000   0.54254567   -5.5249795    162.04842  0.029614113  0.029424031           24 
  457000   0.54521971   -5.5190393    162.52828  0.029636812  0.029345642           20 
  458000   0.54350802    -5.534547    162.44247   0.02955649  0.029267654           12 
  459000   0.54135906   -5.5454116    162.45904  0.029495106  0.029189852           46 
  460000   0.53393433   -5.5122313    162.67771  0.029470599  0.029112358           15 
  461000   0.52745364   -5.5287466    162.30583  0.029339448  0.029034953            9 
  462000   0.53055785   -5.5231794     162.6618  0.029340152  0.028957686           15 
  463000   0.54215299   -5.5374096    162.62774  0.029270651  0.028880617           17 
  464000   0.52669723   -5.5547079    161.92088  0.029080617   0.02880352           29 
  465000   0.52742464   -5.5468743    162.19224  0.029066709  0.028726612           19 
  466000    0.5221811   -5.5364575     162.5114  0.029061409  0.028650033           41 
  467000   0.53397353    -5.559909    162.37549  0.028974926  0.028573711           23 
  468000   0.50506822   -5.5650348     162.5532  0.028944659  0.028497206           21 
  469000   0.51650703   -5.5609214    162.21688  0.028823185  0.028420804           35 
  470000   0.52099667    -5.571601    162.07269  0.028736293  0.028344821           25 
  471000   0.51662322   -5.5766766    162.44754  0.028741603  0.028268919           28 
  472000    0.5160821   -5.5961851    162.03054  0.028607086  0.028193037           44 
  473000   0.51582221    -5.585528    162.31035  0.028595904  0.028117302           45 
  474000   0.51882172   -5.5856043    162.53389  0.028574874  0.028041585          110 
  475000   0.50524855   -5.5789589    162.09409   0.02843756  0.027965929           49 
  476000   0.51937407   -5.5846013    162.35015  0.028422645  0.027890524           45 
  477000   0.51044933   -5.6025287    162.33294  0.028360053  0.027815332           91 
  478000   0.50266558   -5.5861425    162.33915  0.028301805  0.027740299           41 
  479000   0.49813221   -5.5862824     162.2781  0.028232098  0.027665507           48 
  480000   0.50079939   -5.6130578    161.96554  0.028119017  0.027590785           62 
  481000   0.49876522   -5.5983408    161.97122  0.028061542  0.027516105           39 
  482000   0.48748858   -5.5988084    162.08123  0.028022343  0.027441433           56 
  483000   0.50331448   -5.6243884    161.67295  0.027893883  0.027366726           46 
  484000   0.49387809   -5.6235601    161.87474  0.027870995  0.027292052           26 
  485000    0.5053809   -5.6208269     161.7494  0.027791992  0.027217558           49 
  486000   0.49837169   -5.6273443    161.55098  0.027700786  0.027143302           33 
  487000   0.49670428   -5.6473378    161.75064   0.02767807  0.027069156           16 
  488000   0.48560649   -5.6201192     161.4053   0.02756238  0.026995142           53 
  489000   0.49044786   -5.6358803    161.52934  0.027527154   0.02692137           30 
  490000    0.4755887   -5.6512382      161.831  0.027522278  0.026847828           40 
  491000   0.48361372   -5.6540457    161.68868  0.027442071  0.026774515           71 
  492000   0.46710677     -5.64855    161.76305  0.027398891  0.026701183           44 
  493000   0.48328915   -5.6585123    161.58324  0.027312921  0.026627992           78 
  494000    0.4642803   -5.6495149    161.33172  0.027215203  0.026555132          104 
  495000   0.48039505   -5.6639936    161.39694  0.027171203  0.026482366           39 
  496000   0.46679382    -5.669862     161.3782  0.027113273   0.02640977           92 
  497000    0.4791806   -5.6625474     161.6262  0.027100303  0.026337273           37 
  498000   0.47780139   -5.6526902    161.20184  0.026974872  0.026264976           54 
  499000   0.45806494   -5.6735062    161.24235  0.026927581  0.026192784           65 
  500000   0.47691325   -5.6688112    161.42721  0.026904536  0.026120714           37 
  501000   0.45820748   -5.6755077    161.55116  0.026871451  0.026048741           51 
  502000   0.46112638   -5.6611301    161.41093  0.026794643  0.025976917           91 
  503000   0.46898954   -5.6598486    161.56352  0.026766653  0.025905412           42 
  504000    0.4649168   -5.6779726    161.37374  0.026682166  0.025833905           36 
  505000     0.453499   -5.6969307    160.92694    0.0265556  0.025762746           58 
  506000   0.45452285   -5.6911411    160.84965   0.02649039  0.025691619           81 
  507000   0.45092199   -5.6856893    161.29275  0.026510972   0.02562071           44 
  508000   0.45158004   -5.6921744    161.05824  0.026420315  0.025549928           45 
  509000   0.44869556     -5.70014    160.96238  0.026352714  0.025479121           56 
  510000    0.4450512   -5.7066711    161.13981  0.026330034  0.025408673           64 
  511000   0.44781449   -5.7143092    160.82571  0.026227284   0.02533833          191 
  512000   0.44750044   -5.7189908    161.06802  0.026215498  0.025268311          149 
Loop time of 1271.07 on 48 procs for 500000 steps with 4000 atoms

Performance: 67974.226 tau/day, 393.369 timesteps/s
99.4% CPU use with 48 MPI tasks x no OpenMP threads

MPI task timing breakdown:
Section |  min time  |  avg time  |  max time  |%varavg| %total
---------------------------------------------------------------
Pair    | 87.952     | 92.285     | 97.583     |  25.7 |  7.26
Neigh   | 8.5606     | 8.9082     | 9.2687     |   5.9 |  0.70
Comm    | 80.156     | 86.519     | 91.555     |  31.3 |  6.81
Output  | 0.90149    | 0.90226    | 0.92695    |   0.4 |  0.07
Modify  | 1065.3     | 1070.4     | 1074.1     |   7.3 | 84.22
Other   |            | 12.01      |            |       |  0.94

Nlocal:        83.3333 ave          92 max          74 min
Histogram: 1 1 1 7 5 19 9 3 1 1
Nghost:        2331.71 ave        2354 max        2316 min
Histogram: 5 6 2 7 7 12 6 1 1 1
Neighs:        15860.7 ave       17672 max       13728 min
Histogram: 2 2 1 4 10 11 7 6 4 1
FullNghs:      31721.1 ave       35240 max       27801 min
Histogram: 1 1 1 6 8 16 11 2 1 1

Total # of neighbors = 1522614
Ave neighs/atom = 380.65350
Neighbor list builds = 26952
Dangerous builds = 0

#clear
#
#next RN
#
#jump SELF
Total wall time: 0:21:14
