
units lj                  # Use reduced LJ style units
atom_style atomic         # Uncharged point particles
atom_modify map hash      # Needed for indexing of clusters etc
                          # Used to be able to find where atoms are in relation to each other.

lattice fcc 1.0 spacing 1 1 1
Lattice spacing in x,y,z = 1.5874011 1.5874011 1.5874011
region box block 0 10 0 10 0 10 units lattice
create_box 2 box
Created orthogonal box = (0.0000000 0.0000000 0.0000000) to (15.874011 15.874011 15.874011)
  3 by 4 by 4 MPI processor grid
create_atoms 1 box
Created 4000 atoms
  using lattice units in orthogonal box = (0.0000000 0.0000000 0.0000000) to (15.874011 15.874011 15.874011)
  create_atoms CPU = 0.002 seconds
set type 1 type/fraction 2 0.87 78393
Setting atom values ...
  3472 settings made for type/fraction
mass 1 1.0
mass 2 1.0
pair_style lj/cut  3.5
pair_modify tail  yes
pair_coeff 1  1  1.0  1.0   # Intearaction between 1 and 1 set with epsilon = 1 and sigma = 1
pair_coeff 1  2  1.5  0.8
pair_coeff 2  2  0.5  0.88

write_data data.0
System init for write_data ...
Neighbor list info ...
  update every 1 steps, delay 10 steps, check yes
  max neighbors/atom: 2000, page size: 100000
  master list distance cutoff = 3.8
  ghost atom cutoff = 3.8
  binsize = 1.9, bins = 9 9 9
  1 neighbor lists, perpetual/occasional/extra = 1 0 0
  (1) pair lj/cut, perpetual
      attributes: half, newton on
      pair build: half/bin/atomonly/newton
      stencil: half/bin/3d
      bin: standard
WARNING: Not all mixed pair coeffs generated from mixing. Use write_data with 'pair ij' option to store all pair coeffs. (../write_data.cpp:312)


#############################
#   M E L T   S Y S T E M   #
#############################

velocity all create 2.4 1741580 mom yes dist gaussian # Assign velocities
                                                    # Temperature 2.4, random number seed, zero linear momentum
                                                                                # Gaussian distribution

timestep 0.002   # simulation timestep
thermo 1000       # output thermodynamic data every 1000 steps bf 100

# Define a fix  in this case with index 1 applied to all
# particles in the simulation. This fix is for simulations
# in the anisotropic NPT ensemble. Note that we use the MTK
# correction.
fix 1 all npt temp 2.4 2.4 0.1 iso 5.68 5.68 0.5 mtk yes tchain 5 pchain 5 # Use NPT ensemble
                                                                         # Set temperature and pressure and damping
                                                                         # Numbers of thermostats in chain and in barostat
run 10000          # run for 10000 steps
Per MPI rank memory allocation (min/avg/max) = 3.642 | 3.644 | 3.648 Mbytes
Step Temp E_pair E_mol TotEng Press Volume 
       0          2.4   -3.3406884            0   0.25841159    -2.808294         4000 
    1000    2.3900556   -2.4990247            0    1.0851624    5.7266801    3907.0574 
    2000    2.3725561   -2.4971935            0    1.0607509    5.6024457    3916.8308 
    3000    2.4625079    -2.540748            0    1.1520904    5.6284402    3901.0583 
    4000    2.4589908   -2.4584171            0    1.2291469    5.6932474    3967.6682 
    5000    2.4652415   -2.4514695            0    1.2454682    5.9905542    3925.3685 
    6000    2.3843948   -2.4574675            0    1.1182306     5.824831    3929.1365 
    7000    2.4023709   -2.4597123            0    1.1429433     5.608701    3965.0779 
    8000    2.4466346   -2.4459164            0     1.223118    5.6661896    3967.4814 
    9000    2.4358053   -2.4927963            0    1.1599982    5.4864894    3950.6021 
   10000    2.4118139   -2.4971351            0    1.1196813    5.5633482    3939.0577 
Loop time of 2.56919 on 48 procs for 10000 steps with 4000 atoms

Performance: 672586.410 tau/day, 3892.282 timesteps/s
99.6% CPU use with 48 MPI tasks x no OpenMP threads

MPI task timing breakdown:
Section |  min time  |  avg time  |  max time  |%varavg| %total
---------------------------------------------------------------
Pair    | 1.0952     | 1.1752     | 1.2797     |   3.3 | 45.74
Neigh   | 0.21026    | 0.21783    | 0.23955    |   1.1 |  8.48
Comm    | 0.75958    | 0.88268    | 0.99821    |   4.5 | 34.36
Output  | 0.00024805 | 0.00025303 | 0.00032049 |   0.0 |  0.01
Modify  | 0.23675    | 0.27806    | 0.31788    |   4.1 | 10.82
Other   |            | 0.01517    |            |       |  0.59

Nlocal:        83.3333 ave          95 max          76 min
Histogram: 2 4 15 9 4 4 5 3 1 1
Nghost:        1662.23 ave        1684 max        1629 min
Histogram: 1 1 4 0 8 11 6 6 7 4
Neighs:        9685.50 ave       11307 max        8511 min
Histogram: 5 3 6 13 6 5 4 2 2 2

Total # of neighbors = 464904
Ave neighs/atom = 116.22600
Neighbor list builds = 910
Dangerous builds = 235

# Equilibrate just above the melting temperature to avoid step fn in T

fix 1 all npt temp 1.25 1.25 0.1 iso 5.68 5.68 0.5 mtk yes tchain 5 pchain 5
run 2000
Per MPI rank memory allocation (min/avg/max) = 3.643 | 3.645 | 3.649 Mbytes
Step Temp E_pair E_mol TotEng Press Volume 
   10000    2.4118139   -2.4971351            0    1.1196813    5.5633482    3939.0577 
   11000    1.2692549   -3.6744016            0   -1.7709953    5.7155972    3043.4845 
   12000      1.25826   -3.6483195            0   -1.7614013    5.6423936    3067.0784 
Loop time of 0.618992 on 48 procs for 2000 steps with 4000 atoms

Performance: 558327.084 tau/day, 3231.060 timesteps/s
99.6% CPU use with 48 MPI tasks x no OpenMP threads

MPI task timing breakdown:
Section |  min time  |  avg time  |  max time  |%varavg| %total
---------------------------------------------------------------
Pair    | 0.28492    | 0.29961    | 0.33072    |   1.9 | 48.40
Neigh   | 0.040495   | 0.042451   | 0.047581   |   0.6 |  6.86
Comm    | 0.19286    | 0.22694    | 0.24357    |   2.4 | 36.66
Output  | 5.1345e-05 | 5.4695e-05 | 6.7088e-05 |   0.0 |  0.01
Modify  | 0.041131   | 0.045086   | 0.048364   |   1.0 |  7.28
Other   |            | 0.004853   |            |       |  0.78

Nlocal:        83.3333 ave          92 max          75 min
Histogram: 1 4 8 3 11 9 1 3 6 2
Nghost:        1962.54 ave        1979 max        1948 min
Histogram: 4 6 6 6 4 4 6 6 4 2
Neighs:        12463.3 ave       14469 max       11093 min
Histogram: 5 4 7 9 9 5 5 0 3 1

Total # of neighbors = 598238
Ave neighs/atom = 149.55950
Neighbor list builds = 144
Dangerous builds = 20

#############################
# L I N E A R  Q U E N C H  #
#############################

# Define solid atoms. This closely follows ten Wolde  Ruiz-Montero and Frenkel  Faraday Discuss  1996  104  93-110
# Compute components of the per-atom q6 vector
compute q6 all orientorder/atom degrees 1 6 components 6 nnn NULL cutoff 1.3 # compute the Q6 parameter.
                                                                             # Use all neighbours within 1.3 unit cell.

# get number of connections
compute coord_number all coord/atom orientorder q6 0.5

# An atom is solid if it has 8 or more connections (of a possible 14)
variable is_solid atom c_coord_number>=8
group solid dynamic all var is_solid    # Must be dynamic to update
dynamic group solid defined

# do clustering
compute cluster solid cluster/atom 1.3 # Create a cluster where all atoms within are solid and max 1.3 units from another member

# define chunks one chunk per cluster
compute clus_chunks solid chunk/atom c_cluster nchunk every compress yes  # Says which atoms are in which chunk

# count the size of each chunk
compute size_chunks solid property/chunk clus_chunks count


# Find the maximum entry in the vector of chunk sizes
variable max_n equal max(c_size_chunks)


# Thermo style which includes this variable
# thermo_style custom step temp pe vol v_max_n

thermo ${N}  # Print the thermo information every 100 steps
thermo 1000  

# Reset the npt fix at a lower temperature (below freezing)
fix 1  all npt temp  ${temp} ${temp}  0.1  iso  5.68  5.68  0.5  mtk yes tchain  5  pchain  5
fix 1  all npt temp  0.45 ${temp}  0.1  iso  5.68  5.68  0.5  mtk yes tchain  5  pchain  5
fix 1  all npt temp  0.45 0.45  0.1  iso  5.68  5.68  0.5  mtk yes tchain  5  pchain  5

dump dmp2 all dcd ${N} traj.dcd
dump dmp2 all dcd 1000 traj.dcd


compute msd all msd com yes
variable twopoint equal c_msd[4]/6/(step*dt+1.0e-6)
fix 9 all vector 10 c_msd[4]
variable fit equal slope(f_9)/6/(10*dt)
thermo_style custom step temp pe c_msd[4] v_twopoint v_fit v_max_n

fix 1 all npt temp 1.25 ${temp} 0.1 iso 5.68 5.68 0.5 mtk yes tchain 5 pchain 5
fix 1 all npt temp 1.25 0.45 0.1 iso 5.68 5.68 0.5 mtk yes tchain 5 pchain 5
run 5000000 # 5000000  # Run for this many steps
Neighbor list info ...
  update every 1 steps, delay 10 steps, check yes
  max neighbors/atom: 2000, page size: 100000
  master list distance cutoff = 3.8
  ghost atom cutoff = 3.8
  binsize = 1.9, bins = 8 8 8
  4 neighbor lists, perpetual/occasional/extra = 1 3 0
  (1) pair lj/cut, perpetual
      attributes: half, newton on
      pair build: half/bin/atomonly/newton
      stencil: half/bin/3d
      bin: standard
  (2) compute orientorder/atom, occasional
      attributes: full, newton on
      pair build: full/bin/atomonly
      stencil: full/bin/3d
      bin: standard
  (3) compute coord/atom, occasional
      attributes: full, newton on
      pair build: full/bin/atomonly
      stencil: full/bin/3d
      bin: standard
  (4) compute cluster/atom, occasional
      attributes: full, newton on
      pair build: full/bin/atomonly
      stencil: full/bin/3d
      bin: standard
Per MPI rank memory allocation (min/avg/max) = 9.825 | 9.830 | 9.832 Mbytes
Step Temp PotEng c_msd[4] v_twopoint v_fit v_max_n 
   12000      1.25826   -3.6483195 1.030844e-30 7.1586385e-33 8.3333333e+20            2 
   13000     1.280604   -3.6888383   0.93823882 0.0060143512  0.078656075            1 
   14000    1.2307925   -3.6919892    1.9046542  0.011337227  0.080115091            4 
   15000    1.2488137   -3.6677837    2.9068463  0.016149145  0.081191998            2 
   16000    1.2517263   -3.6837876    3.8400792  0.020000412  0.080829998            2 
   17000    1.2767481   -3.6936051    4.8059837  0.023558743  0.080747457            1 
   18000    1.2649574    -3.652946    5.8144879  0.026918925  0.081070591            3 
   19000     1.264968    -3.677262    6.7720206  0.029701844  0.081162712            1 
   20000    1.2356672   -3.7037006    7.7383849  0.032243269   0.08107155            4 
   21000    1.2683647   -3.7110943    8.8092139  0.034957197  0.081096912            1 
   22000    1.2199458   -3.7415548    9.7647547  0.036987707  0.081335564            4 
   23000    1.2473711   -3.6807263    10.695813  0.038752943  0.081608524            1 
   24000    1.2536818   -3.6667743    11.723147  0.040705371  0.081519833            3 
   25000    1.2829581   -3.7064628    12.717067  0.042390222   0.08159107            2 
   26000    1.2405715    -3.690853    13.714539  0.043956854  0.081718975            6 
   27000    1.2403076   -3.6902033     14.57076   0.04497148  0.081667486            2 
   28000    1.2533479    -3.658031    15.599983  0.046428519  0.081611873            1 
   29000    1.2325077   -3.6886439    16.572358  0.047621717  0.081573961            5 
   30000    1.2493677   -3.6842265    17.655336    0.0490426  0.081567279            2 
   31000    1.2379258   -3.6896854    18.542429  0.049845239  0.081573044            3 
   32000    1.2584143    -3.716216    19.579099  0.050987237  0.081644442            2 
   33000    1.2252207   -3.6738965    20.536739   0.05186045  0.081716729            1 
   34000    1.2429844   -3.6988267    21.589512  0.052915469    0.0817688            3 
   35000    1.2597583   -3.6523336    22.617225  0.053850535  0.081748255            2 
   36000    1.2383415   -3.6861493     23.49282  0.054381526  0.081738206            2 
   37000    1.2428645   -3.6905607    24.508336  0.055198955   0.08181687            2 
   38000    1.2231757   -3.6695932    25.733768  0.056433701  0.081967278            1 
   39000    1.2314828   -3.6866805    26.477427  0.056575698  0.082093381            1 
   40000    1.2083026   -3.6810796    27.512551  0.057317813   0.08213444            2 
   41000    1.2402783   -3.6961166    28.349378  0.057620687  0.082130496            2 
   42000    1.2635705    -3.695034    29.482767  0.058497552  0.082144923            2 
   43000     1.255945   -3.6768819    30.368181  0.058853062  0.082104963            2 
   44000    1.2607215   -3.7049112     31.33893  0.059354033   0.08203165            1 
   45000    1.2379468   -3.6747045     32.38395  0.059970278   0.08200075            1 
   46000    1.2491222   -3.7007788    33.705516  0.061060718  0.082071978            2 
   47000    1.2507045   -3.7212668    34.685436  0.061498998  0.082206092            2 
   48000    1.2331265   -3.7096206    35.780147  0.062118311  0.082301784            2 
   49000    1.2560556   -3.7034901    36.474997  0.062032306  0.082392993            3 
   50000    1.2318666   -3.7132673    37.569326  0.062615542   0.08246851            1 
   51000    1.2366959   -3.6764174    38.770642  0.063350721   0.08254777            1 
   52000    1.2193774   -3.6834038    39.982548  0.064074595   0.08264557            2 
   53000    1.2487771   -3.6948584    40.706561  0.064004026  0.082742266            2 
   54000    1.2208833   -3.6544951     41.84386  0.064573857  0.082814971            2 
   55000    1.2499321   -3.6490254    43.148171  0.065376016   0.08292818            1 
   56000    1.2480154   -3.7117209    43.935293  0.065379899  0.083027626            2 
   57000    1.2285194   -3.6664796    44.889777  0.065628328  0.083095443            2 
   58000    1.2365965   -3.7062146    46.019329  0.066119725  0.083140454            3 
   59000    1.2658207   -3.6823086    46.965601  0.066335594  0.083233377            1 
   60000    1.2451328    -3.677948    47.859846  0.066472007  0.083330387            4 
   61000    1.2215862   -3.7179303    49.158889  0.067156952  0.083399061            1 
   62000    1.2289089   -3.7020854    49.961228  0.067152188  0.083461094            4 
   63000     1.247236   -3.7214132    50.820415  0.067222771  0.083500791            3 
   64000    1.2451728   -3.7033049     51.48686  0.067040182  0.083502587            3 
   65000    1.2709499   -3.7085227    52.811062  0.067706489  0.083505258            2 
   66000    1.2478488   -3.7058615    53.552475  0.067616761  0.083517034            2 
   67000    1.2551344   -3.7237114    54.514359  0.067803928  0.083490462            2 
   68000    1.2409535   -3.7020403    55.462531  0.067968788  0.083426491            2 
   69000    1.2594056   -3.7120248      55.9576  0.067581642  0.083359833            4 
   70000    1.2542233   -3.6962449    57.226024  0.068126219  0.083292217            1 
   71000     1.251561   -3.6716121    58.420648  0.068568835  0.083236242            2 
   72000    1.2688217   -3.7404633    59.217397  0.068538653  0.083196746            1 
   73000    1.2161972   -3.7286879    60.276506  0.068808796  0.083165396            4 
   74000    1.2466412   -3.6871909    61.751856  0.069540378  0.083144335            2 
   75000    1.2539756   -3.7067147    62.414551  0.069349501  0.083136176            1 
   76000    1.2506977   -3.6673043    63.405406  0.069523471  0.083121166            1 
   77000     1.246746   -3.7003201    64.289178  0.069577031  0.083086867            2 
   78000    1.2355773   -3.7349152    65.110121  0.069562095  0.083046361            1 
   79000    1.2202221   -3.6865198    65.984594  0.069604001  0.083003048            2 
   80000    1.2312708    -3.720253    67.278984  0.070082274   0.08296256            1 
   81000    1.2503138   -3.6949975    68.327982  0.070296277  0.082935747            2 
   82000    1.2272993   -3.7071944    69.158002  0.070282522  0.082905483            2 
   83000    1.2330836   -3.6812287    70.198527  0.070480449  0.082866364            1 
   84000    1.2473914   -3.6800189    71.469652  0.070902432  0.082838423            2 
   85000    1.2710635   -3.7112571    71.966207  0.070555104  0.082816476            1 
   86000    1.2561973   -3.7373424    72.850176  0.070591256   0.08277745            1 
   87000    1.2471429   -3.6893486     74.18761  0.071060929  0.082745239            3 
   88000    1.2537021   -3.6874699    74.957788  0.070982753   0.08271301            2 
   89000    1.2325023   -3.7008126    75.663487  0.070845961  0.082666791            1 
   90000    1.2741517   -3.6970719    76.787095  0.071099161  0.082630829            2 
   91000    1.2240684   -3.7162242    77.424144  0.070901231   0.08257772            2 
   92000    1.2413229   -3.6863228    78.335739  0.070956285  0.082532644            2 
   93000    1.2455163   -3.7214611    78.900319   0.07069921  0.082477149            2 
   94000    1.2430806   -3.7009608    80.441238  0.071313154  0.082418051            2 
   95000    1.2675425   -3.7094862    81.658818  0.071630542  0.082378591            1 
   96000    1.2403232   -3.7106848    82.429659  0.071553523  0.082332201            3 
   97000    1.2224068   -3.7234768    83.071601  0.071367355  0.082296793            3 
   98000    1.2313533   -3.7048392    83.910908  0.071352812  0.082251401            2 
   99000    1.2408403   -3.7074078     85.05863  0.071598173  0.082212632            1 
  100000    1.2324865   -3.7045103     86.38487  0.071987391  0.082167744            3 
  101000    1.2102398   -3.6710549     86.96985  0.071757301  0.082129423            1 
  102000    1.2578807   -3.7252083    87.876997  0.071794932  0.082094618            2 
  103000    1.2509825    -3.718704     89.49221    0.0724047  0.082058522            1 
  104000      1.25021   -3.6957188    90.112943  0.072205884  0.082016324            2 
  105000    1.2293802   -3.7005563     91.32865  0.072483055  0.081980029            2 
  106000    1.2273115   -3.7245639    92.226212  0.072504883  0.081964032            4 
  107000    1.2656921   -3.7203169    92.949464  0.072390548  0.081937616            2 
  108000    1.2560696   -3.7312988    94.158528  0.072653185  0.081922771            2 
  109000    1.2430648   -3.7124288    95.207468  0.072788584  0.081926305            1 
  110000    1.2303537   -3.7088447    96.302585  0.072956504  0.081919745            2 
  111000    1.2401135   -3.7359047    97.022056  0.072839381  0.081907012            4 
  112000    1.2376862   -3.7154102    97.962151  0.072888505  0.081883369            2 
  113000    1.2451278   -3.7423051    99.056437   0.07305047  0.081851427            3 
  114000    1.2193489   -3.7212025    99.616412  0.072819014     0.081829            2 
  115000    1.2327907   -3.6819612    101.00131  0.073189353  0.081806074            1 
  116000    1.1958949   -3.7301409    101.79032   0.07312523  0.081783253            4 
  117000    1.2410885   -3.7369351    102.55577  0.073045419  0.081764101            2 
  118000    1.2616187   -3.7131149    103.48472  0.073082431  0.081735131            2 
  119000    1.2552211   -3.7173641    105.08921   0.07359188  0.081721469            1 
  120000    1.2613105   -3.7117428    105.19003  0.073048631  0.081698661            2 
  121000    1.2414692   -3.6962331    106.67083  0.073464756  0.081678476            3 
  122000    1.2542188   -3.7296971    108.16892  0.073885877  0.081664052            2 
  123000    1.2241922   -3.7019152    109.18883  0.073976174  0.081655007            2 
  124000    1.2289872     -3.71271    109.27553  0.073437856  0.081642332            2 
  125000    1.2342643   -3.7160668    110.94228  0.073961517  0.081632578            3 
  126000    1.2444918   -3.7270725    111.48375  0.073732637  0.081631429            2 
  127000    1.2499314   -3.7175093    112.79569  0.074012923  0.081629985            1 
  128000    1.2375171   -3.7193674    113.78917  0.074081487  0.081631944            2 
  129000    1.1975026   -3.7410689    114.41902  0.073914097  0.081633207            2 
  130000    1.2641784     -3.72726    115.59657  0.074100365  0.081642873            1 
  131000    1.2236731   -3.7259231    116.51972  0.074121962  0.081647653            2 
  132000    1.2472559   -3.6963236     118.2424  0.074647978  0.081654315            4 
  133000    1.2520648   -3.7574535    118.56152  0.074286665  0.081652293            3 
  134000    1.2420367   -3.7122917    120.02325  0.074641323  0.081656503            1 
  135000    1.2416465   -3.7131337    121.18491  0.074805501  0.081670679            2 
  136000    1.2338834   -3.7260097     122.3882   0.07499277  0.081679589            2 
  137000    1.2295482    -3.702652    124.01906  0.075437383  0.081694124            2 
  138000     1.215456   -3.7108604    125.45471  0.075757673  0.081731499            1 
  139000    1.2071461   -3.6847378    127.12767  0.076215627  0.081778993            2 
  140000    1.2453179   -3.7213183    127.37325  0.075817409  0.081832264            2 
  141000    1.2432754   -3.7074685    128.88324   0.07617213  0.081882921            3 
  142000    1.2035759   -3.7247535    129.50751   0.07600206  0.081937681            3 
  143000    1.2681791   -3.6988894    131.16653  0.076437369  0.081998927            2 
  144000    1.1925815   -3.7321822    131.85043  0.076302332  0.082057877            2 
  145000    1.2245808   -3.7068118    132.93145  0.076397384  0.082109714            1 
  146000    1.2208835    -3.721722    133.63244  0.076274225  0.082159959            4 
  147000     1.247457   -3.6800598    136.00028  0.077097666  0.082211609            2 
  148000    1.2212416   -3.7162722    136.13496  0.076652569     0.082268            1 
  149000    1.2184023   -3.7187837    137.28796  0.076782974  0.082312685            1 
  150000    1.2312838   -3.7265063     137.1303  0.076183499  0.082347936            2 
  151000    1.2438779   -3.7011067    138.67012  0.076528761  0.082378886            2 
  152000    1.2143338   -3.7239326    139.17709  0.076303227  0.082407752            4 
  153000    1.2246145   -3.7502996    139.72214  0.076101383  0.082430591            2 
  154000    1.2190168     -3.73404    140.64241  0.076105198  0.082450225            4 
  155000    1.2134824   -3.7025864    142.49927   0.07661251  0.082463616            2 
  156000     1.216472   -3.7083285    142.54455  0.076145594  0.082472645            1 
  157000    1.2009056   -3.6898855    143.82001  0.076337583  0.082467295            2 
  158000    1.2626738   -3.7230671    144.21654  0.076063574  0.082466408            1 
  159000    1.2381281   -3.7425889    145.38062  0.076195294  0.082464558            3 
  160000    1.2409228   -3.7358238    145.63415  0.075851118  0.082460001            1 
  161000     1.209215    -3.727395    146.81961  0.075993587  0.082452671            3 
  162000    1.2207961   -3.6994278    148.12167  0.076194272  0.082440994            1 
  163000    1.2564952   -3.7344406    149.00231   0.07617705  0.082438834            2 
  164000    1.2008281   -3.7031625    151.03282   0.07674432   0.08243889            2 
  165000     1.234898    -3.723165    151.53035  0.076530482  0.082443011            1 
  166000     1.229061   -3.6997033    152.76666  0.076690092  0.082445501            2 
  167000    1.2170792   -3.7428216    153.44768  0.076570699   0.08244427            2 
  168000    1.2182209   -3.6931366    153.52237  0.076151971  0.082444978            3 
  169000     1.227083   -3.6978333     154.6712   0.07626785   0.08243897            3 
  170000    1.2556886   -3.7098488    154.44901  0.075710297  0.082419046            1 
  171000    1.2153599   -3.7425505     156.2488  0.076144638  0.082402438            1 
  172000    1.2209934   -3.7086479    157.52741   0.07632142  0.082383646            1 
  173000     1.250527   -3.7543507    157.36733  0.075803144  0.082370527            2 
  174000    1.2594865   -3.7192132    158.63252   0.07597343  0.082353499            3 
  175000     1.238874   -3.6948362    160.33563    0.0763503  0.082343833            1 
  176000     1.213445   -3.7166303    161.77818  0.076599515  0.082334629            2 
  177000    1.2360376   -3.7043442    161.49008  0.076031109  0.082326435            4 
  178000     1.236502   -3.7317715    162.89598  0.076262162  0.082313556            1 
  179000    1.2439972    -3.707007    164.55062  0.076606433  0.082299252            3 
  180000    1.2114508   -3.7292616    164.30284  0.076066131   0.08227875            3 
  181000    1.2279403   -3.7357596    166.03647  0.076444046  0.082260322            2 
  182000    1.2078637   -3.6793541    166.71756   0.07633588  0.082243774            2 
  183000    1.2150567   -3.7544241    167.09403  0.076090176  0.082225243            3 
  184000     1.218204   -3.7218829    167.76153  0.075978955  0.082204573            2 
  185000    1.2343009   -3.7382901    168.43179  0.075870177   0.08218347            1 
  186000     1.203892   -3.7302119    170.49539  0.076386822   0.08215937            3 
  187000    1.2321551   -3.6867003    171.55822  0.076451971  0.082144597            2 
  188000    1.2202278   -3.7444314    173.16072  0.076755637  0.082132386            2 
  189000    1.2272648   -3.6891786    174.16513  0.076792386  0.082120403            3 
  190000    1.2240159   -3.7647277    174.80142  0.076667287  0.082116741            6 
  191000    1.2098894   -3.7268349    177.07561   0.07725812  0.082111673            1 
  192000    1.2117314    -3.772254    177.24133  0.076927659  0.082104413            2 
  193000    1.2136036   -3.7114356    178.37591  0.077018957  0.082103298            3 
  194000    1.2271227   -3.7449857    178.36995  0.076619394  0.082098783            3 
  195000    1.2221963    -3.725478    179.37847  0.076657466  0.082090721            7 
  196000    1.1985751   -3.7287576    180.03955  0.076547426   0.08208405            1 
  197000    1.2268678   -3.7511231     181.9572  0.076970049  0.082069952            1 
  198000    1.2197666   -3.7446367    181.13846  0.076236727  0.082047905            4 
  199000    1.2098641    -3.729693      182.673   0.07649623  0.082023884            1 
  200000    1.2139367   -3.7260861    183.72976  0.076554065   0.08200884            2 
  201000    1.2079394   -3.7077405    185.76751  0.077018039  0.081998425            1 
  202000    1.1967469   -3.7725815    186.44681  0.076917002  0.081990193            1 
  203000    1.2298054   -3.7516297    188.58264  0.077414875  0.081984575            2 
  204000    1.2119101   -3.7180989    188.89746  0.077163996  0.081984304            1 
  205000    1.1953239    -3.694144    189.16085  0.076894653  0.081981133            1 
  206000    1.2102105   -3.7359907    190.11075  0.076905644  0.081972553            2 
  207000    1.2100097   -3.7133528     192.0498  0.077314733  0.081964733            1 
  208000    1.2331582   -3.6814928    192.86145  0.077268208  0.081960515            1 
  209000    1.2172184   -3.7235436    194.21424  0.077437895  0.081961515            4 
  210000    1.2205043    -3.748685    194.40128  0.077143367  0.081957357            2 
  211000    1.2456059   -3.7440842    195.63785  0.077266132  0.081945029            2 
  212000    1.1908396     -3.76357    196.66239  0.077304397  0.081940178            1 
  213000    1.2173158   -3.7171292    196.70556  0.076958356  0.081932277            3 
  214000    1.2035715   -3.7406316    197.02344  0.076722521  0.081918739            1 
  215000    1.2045769   -3.7482611    197.92496  0.076715102   0.08190522            2 
  216000    1.2246929   -3.7447985    199.50051  0.076967789  0.081890539            1 
  217000      1.23129   -3.7283142      201.106  0.077229646   0.08188094            2 
  218000    1.2294421   -3.7177889    201.25588  0.076932674  0.081870062            2 
  219000    1.2159618   -3.7197772    203.11197  0.077287661  0.081865518            1 
  220000    1.2337543   -3.7512137    203.52925  0.077094413  0.081864718            2 
  221000    1.2145095   -3.7175581    205.44597  0.077468315   0.08185379            3 
  222000    1.1959955   -3.7141081    207.03132  0.077714459  0.081849917            1 
  223000     1.223738   -3.7511746    205.73955  0.076883241  0.081848819            3 
  224000    1.2249259   -3.7518667    207.48612  0.077189776     0.081843            3 
  225000    1.2129002   -3.7353553    208.93384  0.077382905  0.081836775            1 
  226000    1.2224077   -3.7365548    209.38699  0.077207592   0.08182968            1 
  227000    1.2152345   -3.7452968    209.79756  0.077018194  0.081820897            2 
  228000    1.2352038   -3.7267444    211.74028  0.077390455  0.081811272            4 
  229000    1.2215874   -3.7281489     212.1089  0.077186644  0.081801639            3 
  230000     1.196671   -3.7127245    212.83205  0.077113063  0.081793375            2 
  231000    1.2224507   -3.7462962    212.93783    0.0768174  0.081779668            1 
  232000    1.2296758   -3.7225914    213.96653  0.076855793  0.081766111            4 
  233000    1.2110889   -3.7499524    215.27736  0.076994763  0.081748002            1 
  234000    1.2390887   -3.7263427    216.42188  0.077073317   0.08173144            2 
  235000    1.2413851   -3.7294693    218.65359  0.077536734  0.081716975            2 
  236000    1.1928646   -3.7409031    218.83483  0.077272186  0.081705447            1 
  237000    1.2327683   -3.7378873    219.07342  0.077030037   0.08169223            3 
  238000    1.2211631   -3.7038559    220.22603  0.077109954  0.081677448            1 
  239000    1.2200679   -3.7267207    221.82086  0.077343397  0.081657051            1 
  240000    1.1969743   -3.7513986    222.05443  0.077102232   0.08163853            2 
  241000    1.2215904   -3.7093164    223.76213  0.077372798   0.08161475            2 
  242000    1.1911181   -3.7448076    223.92601  0.077109506  0.081594012            5 
  243000    1.2519901   -3.7329495    224.50512  0.076990782  0.081576701            2 
  244000    1.2039968   -3.7244443    225.45332  0.076999083  0.081559852            2 
  245000    1.2175414   -3.7337402    225.88645  0.076832127  0.081538417            1 
  246000    1.2128693   -3.7373594    226.48365  0.076722102  0.081516027            1 
  247000    1.1980337    -3.764327     228.4369  0.077070478  0.081497623            3 
  248000     1.199852   -3.7316154    229.21952  0.077022688   0.08148154            4 
  249000    1.2118164   -3.7331876    229.56744  0.076829801  0.081463526            2 
  250000     1.235875   -3.7186365     232.1921  0.077397365  0.081447303            2 
  251000    1.2076517   -3.7531279    231.92746  0.077001149  0.081429585            2 
  252000    1.2046675   -3.7320134    233.42152  0.077189655  0.081411551            2 
  253000    1.2386886   -3.7545468    233.40429  0.076878882  0.081399003            1 
  254000    1.2290016    -3.744451    234.34325  0.076884268  0.081380244            2 
  255000    1.2338114   -3.7277017    237.74201  0.077693468  0.081367834            1 
  256000    1.2061813   -3.7319174    236.88988   0.07711259  0.081354668            3 
  257000     1.210018   -3.7366649    236.89934  0.076815611  0.081338968            3 
  258000    1.2221065   -3.7203293    237.33202   0.07665763  0.081317198            3 
  259000    1.2119207   -3.7382553    239.24595   0.07697746  0.081293405            3 
  260000    1.2432345   -3.7408363    240.29322  0.077017058   0.08127289            3 
  261000     1.188459   -3.7134648     240.1519  0.076676852   0.08125088            7 
  262000     1.208609   -3.7072815    241.66083  0.076864131  0.081230259            1 
  263000    1.2292277   -3.7246439    243.53211  0.077164799  0.081208139            2 
  264000    1.2054455    -3.743543    244.21317  0.077087489  0.081189142            2 
  265000    1.2177124   -3.7471667    245.20832  0.077109534  0.081169782            2 
  266000    1.1955082   -3.7713448     244.9271  0.076731549  0.081149336            2 
  267000    1.2137884   -3.7510248    246.68813    0.0769938  0.081128807            2 
  268000    1.2013789   -3.7705464    247.67928  0.077014701  0.081112783            2 
  269000     1.218297    -3.755143    248.47236  0.076974089  0.081095541            3 
  270000    1.1748466    -3.722494    248.85118   0.07680592  0.081076129            1 
  271000    1.2099117   -3.7526087    250.43969  0.077010974  0.081057296            2 
  272000    1.1981812    -3.745968    251.67035  0.077104885  0.081042127            2 
  273000    1.2009333    -3.743235    252.47959  0.077069473  0.081022981            1 
  274000    1.2185048   -3.7409523    253.81129  0.077193213  0.081005547            2 
  275000     1.210113   -3.7361388    254.58779  0.077147816   0.08098952            2 
  276000    1.2105859   -3.7457695    254.63059  0.076881215  0.080972547            2 
  277000    1.2117845   -3.7596056    257.48062  0.077461078  0.080958106            3 
  278000    1.2480475   -3.7507244    257.30187  0.077128858  0.080945502            1 
  279000    1.2257764   -3.7228474      257.907  0.077033155  0.080928692            2 
  280000     1.200703    -3.734727    259.61375  0.077265998  0.080917117            1 
  281000    1.2054906   -3.7644458    260.17123  0.077156356  0.080898105            2 
  282000    1.2160193   -3.7700386    259.62909  0.076722544  0.080878699            1 
  283000    1.2273492   -3.7365121    259.74406  0.076485294  0.080856498            2 
  284000    1.2176302   -3.7751506    261.47049  0.076722561  0.080828952            2 
  285000    1.2123353   -3.7657606    261.68931  0.076517342   0.08080219            2 
  286000    1.2259221   -3.7404402    262.94879  0.076616779  0.080773861            2 
  287000    1.1958854   -3.7736179    263.05408  0.076380394  0.080747188            1 
  288000    1.1773986   -3.7283177    264.92483  0.076656489  0.080716492            1 
  289000    1.1880615   -3.7402521    265.72608  0.076622283  0.080689769            1 
  290000    1.2077132   -3.7291036    267.12278   0.07675942  0.080664382            1 
  291000    1.1915561   -3.7705585    266.36947  0.076279916  0.080635015            3 
  292000    1.2105462   -3.7396113    268.46073  0.076615505    0.0806076            3 
  293000    1.1964239   -3.7248176    270.07378  0.076812794   0.08058496            2 
  294000    1.2142902   -3.7633181    270.22792  0.076595216  0.080561386            2 
  295000    1.1988486   -3.7316198    271.15278   0.07659683  0.080537107            2 
  296000    1.2456887   -3.7152766    272.67591  0.076766867  0.080513146            2 
  297000    1.1981482   -3.7364496    273.24831  0.076668999  0.080491422            1 
  298000    1.2132171   -3.7372206    273.44721   0.07646734  0.080467928            1 
  299000    1.1901591   -3.7818067    274.71252  0.076564248  0.080443618            1 
  300000    1.2050528    -3.779508    275.72532  0.076590366  0.080420976            2 
  301000    1.2032629   -3.7419304    277.06248  0.076706113   0.08039868            1 
  302000    1.2268124    -3.740215    277.36197  0.076534759  0.080380755            2 
  303000    1.2260822   -3.7461435    279.72241  0.076931355  0.080363198            3 
  304000    1.1999612   -3.7168686     279.7872  0.076696053  0.080342688            2 
  305000    1.2140739   -3.7578566    281.30322  0.076858804  0.080323219            1 
  306000    1.2238443   -3.7397112     282.8489  0.077028568  0.080308311            2 
  307000    1.2041025    -3.787726    284.76245  0.077297081    0.0802928            1 
  308000    1.1902271   -3.7817869    284.53112  0.076983527  0.080279298            4 
  309000    1.2232022   -3.7668693    285.79359  0.077074861  0.080268214            2 
  310000    1.2180507   -3.7973461      285.399   0.07672016  0.080253686            1 
  311000    1.1855175   -3.7460915     287.5845  0.077059084  0.080238608            3 
  312000    1.1990497   -3.7433691      288.361  0.077019499  0.080225992            4 
  313000    1.2049877    -3.769353    290.00362   0.07721076  0.080215488            3 
  314000    1.1878895    -3.766129    288.99424  0.076696985    0.0802022            2 
  315000    1.2215119   -3.7836639    289.76439  0.076657245  0.080185773            2 
  316000    1.2218915   -3.7461617    291.82147  0.076957139  0.080169636            1 
  317000    1.1930838   -3.7696214    292.37482  0.076859838  0.080154652            3 
  318000      1.22352   -3.7730531    293.48624  0.076909393   0.08013829            5 
  319000    1.1903092   -3.7207283    293.32829  0.076627035  0.080118204            2 
  320000    1.1923317   -3.7642441    294.75895  0.076760144  0.080100413            1 
  321000    1.2080158   -3.7719147    295.27599  0.076655242  0.080085949            3 
  322000    1.1959609   -3.7514845    298.14225  0.077158967  0.080073171            3 
  323000    1.2153315   -3.7474248    298.67918  0.077058611  0.080061409            1 
  324000    1.1810399   -3.7845229    300.82263  0.077372076  0.080052183            2 
  325000    1.1872169   -3.7930908    300.21646   0.07697858  0.080041814            2 
  326000    1.1858885   -3.7727055    301.74573  0.077133366  0.080030865            5 
  327000     1.171322     -3.74712    301.98411  0.076958235  0.080024234            1 
  328000    1.1708937   -3.7511359    303.82392  0.077191037  0.080014371            2 
  329000    1.1857538   -3.7556245    305.93986  0.077492367   0.08000957            2 
  330000     1.200319    -3.757798    306.70356  0.077450393  0.080006732            1 
  331000     1.191252   -3.7400956    306.90445   0.07726698  0.080002071            2 
  332000    1.1882743   -3.7592606    307.35365  0.077147001  0.079997249            3 
  333000    1.1978156    -3.745493    308.00023  0.077077134  0.079989866            1 
  334000    1.1814588   -3.7389321    309.82906  0.077302661  0.079983617            2 
  335000    1.1991068   -3.7590088    310.48835  0.077235907  0.079978125            2 
  336000    1.2087202   -3.7126112    312.57706  0.077524072  0.079971795            3 
  337000    1.2020156   -3.7458526     313.6442  0.077557913  0.079965704            1 
  338000    1.2130941   -3.7533665    312.60093  0.077071234  0.079957611            2 
  339000    1.1873336   -3.7673226    313.93435   0.07717167  0.079950903            1 
  340000    1.1845147    -3.761986    315.72954   0.07738469  0.079942926            2 
  341000    1.1926134   -3.7419077    316.25725  0.077286718  0.079935878            2 
  342000     1.175398   -3.7488719    317.95848  0.077475264  0.079927204            1 
  343000    1.2110814   -3.7775297    317.45365  0.077126738  0.079918713            2 
  344000    1.1961714   -3.7662307    318.13592   0.07706781  0.079907058            2 
  345000    1.1812841   -3.7785733    319.23621  0.077110197  0.079895558            1 
  346000    1.1891232   -3.7605607    318.86148   0.07679708   0.07988175            7 
  347000    1.2156529   -3.7547298    320.54918   0.07698107  0.079870856            1 
  348000    1.1972182   -3.7701226    321.62198  0.077016756  0.079858245            1 
  349000    1.1897629   -3.7676712     320.7439  0.076586414  0.079844769            1 
  350000    1.2066731   -3.7735063    323.52547  0.077029874  0.079830244            2 
  351000    1.2004164   -3.7641694    325.34067  0.077241375  0.079818439            1 
  352000    1.1744045   -3.7791959    326.37096  0.077265851  0.079805977            4 
  353000    1.1573018   -3.7524942    326.86158  0.077162789   0.07979408            4 
  354000    1.2006964   -3.7507054    325.74396  0.076681723  0.079781566            3 
  355000    1.1803426   -3.7383505    327.20775   0.07680933  0.079769178            2 
  356000    1.1964892   -3.7738665     327.9713  0.076772307  0.079757018            2 
  357000    1.1829961    -3.742852    329.05477  0.076810171  0.079740149            1 
  358000      1.23738   -3.7690035    330.49099  0.076929932  0.079724565            6 
  359000    1.1938844   -3.7555492    330.00488  0.076602805  0.079706722            1 
  360000    1.2097536   -3.7721493    330.55506  0.076517376  0.079689073            2 
  361000    1.1969496   -3.7680582    331.52251  0.076528742  0.079672174            1 
  362000    1.1867027   -3.7367495    333.39549  0.076748502  0.079654265            1 
  363000    1.1627106   -3.8020787      335.392   0.07699541  0.079636693            4 
  364000    1.2121973   -3.7779654    334.83272  0.076655843  0.079620727            2 
  365000    1.1751944   -3.8079582     336.0863  0.076732031  0.079605752            1 
  366000    1.2051399   -3.7748749    336.79125  0.076682888   0.07959041            1 
  367000    1.2213681   -3.8011261    336.33895  0.076371241   0.07957476            2 
  368000    1.1772168   -3.7638803    337.40931  0.076406095  0.079557472            2 
  369000    1.2066806   -3.7966904    338.89876  0.076535402    0.0795405            3 
  370000    1.2055253   -3.7569075    341.48697   0.07691148    0.0795243            3 
  371000    1.2177473   -3.7581704    340.41315  0.076462971  0.079508049            1 
  372000    1.2331758   -3.8167299    340.22928  0.076216237  0.079488563            2 
  373000    1.1891574   -3.7304593    342.60002   0.07654156  0.079471506            2 
  374000    1.1875272   -3.7838557    342.57949  0.076332329  0.079453918            4 
  375000    1.1954226   -3.7476186    344.50806  0.076557346  0.079435073            1 
  376000    1.1888274   -3.7510692    344.33175   0.07631466  0.079416626            2 
  377000    1.2194513   -3.7576944    344.51015  0.076151668  0.079399108            1 
  378000    1.2182263   -3.7372274    347.24341   0.07655278  0.079379131            1 
  379000    1.2074511   -3.7438748    348.88168   0.07671101  0.079363592            1 
  380000     1.195735   -3.7630619    350.05561  0.076766582  0.079347047            1 
  381000    1.1992552   -3.7927061    350.91868  0.076753866  0.079329931            2 
  382000    1.2060341   -3.7527967     352.2614  0.076845855  0.079315327            1 
  383000    1.1763979   -3.7610441    353.35263  0.076882644  0.079300684            1 
  384000    1.1722564   -3.7550996    351.54367  0.076289859  0.079287612            2 
  385000    1.2092535   -3.7518235    355.40335  0.076927133  0.079276353            2 
  386000    1.1959992   -3.7465789    355.98318  0.076853017  0.079262978            4 
  387000    1.1571437   -3.7829711    354.44051  0.076322246  0.079250384            1 
  388000    1.1868937   -3.7854482    357.31664  0.076743265  0.079235919            2 
  389000    1.1952341   -3.7896341    357.23634  0.076528779  0.079221443            2 
  390000    1.1794251   -3.7645616    358.65892  0.076636521  0.079206649            7 
  391000    1.2018426   -3.7550546    360.16142  0.076760745  0.079192804            1 
  392000    1.1950413   -3.7634394    360.63241  0.076665052  0.079177666            4 
  393000    1.1705388   -3.7714863    362.21844  0.076806285  0.079164257            3 
  394000     1.180929   -3.8170841    360.31458  0.076208667  0.079149296            2 
  395000    1.1938004   -3.7604091    365.04485  0.077013681  0.079135885            1 
  396000    1.1712455   -3.8103095    363.73785  0.076544161  0.079123066            1 
  397000    1.1868045   -3.7575907    363.42499  0.076285682  0.079110185            1 
  398000    1.1991353   -3.7590594    365.72564   0.07657572  0.079096374            1 
  399000    1.1752863   -3.7738167    365.23522  0.076281374   0.07907782            2 
  400000    1.2102107   -3.7620987    365.94162  0.076237837   0.07906028            1 
  401000    1.1733422   -3.7545255    368.30266  0.076538375  0.079045284            2 
  402000    1.2102805   -3.7709683    367.74334  0.076232036  0.079030431            1 
  403000    1.1825001   -3.7744749    370.03777  0.076517322  0.079013225            2 
  404000    1.1787806   -3.7776759    371.70146  0.076671093  0.078997854            1 
  405000    1.2099676   -3.7750385     371.2928  0.076397695  0.078983773            1 
  406000    1.1672629   -3.7641291     373.2717  0.076615702  0.078969621            2 
  407000    1.2034692    -3.785107     374.5567   0.07669056  0.078957269            1 
  408000    1.1851885   -3.7680479    373.39701  0.076265729  0.078942217            2 
  409000    1.1807061   -3.7544125    375.81427  0.076571775  0.078927355            3 
  410000    1.1810256   -3.7539684    375.69413  0.076360596  0.078912428            1 
  411000    1.1618601   -3.7929221    375.27442  0.076089705  0.078898438            1 
  412000    1.1812922   -3.7840125    376.38519  0.076129691  0.078883209            2 
  413000    1.1538965    -3.785573    377.52973  0.076176298  0.078864576            3 
  414000    1.1942938     -3.75046    377.64859  0.076016222  0.078845831            4 
  415000    1.1901139   -3.7735235    378.23428  0.075950659  0.078827918            2 
  416000    1.1833591   -3.7544931    380.86554  0.076295181  0.078809852            2 
  417000    1.1893496   -3.7933992    378.38253  0.075616013  0.078790341            3 
  418000    1.1885925   -3.7330356    380.81396  0.075919848  0.078771001            2 
  419000    1.1828145     -3.78029    383.08571  0.076190476  0.078751437            2 
  420000    1.1721161   -3.7665285    383.43457  0.076078288  0.078732742            1 
  421000    1.2025665   -3.7783372    383.61419  0.075933133  0.078711802            2 
  422000    1.1496252   -3.8031715    384.61205  0.075950246  0.078692424            2 
  423000    1.1741434   -3.7640961    386.20124  0.076083775  0.078671225            4 
  424000    1.1796199   -3.7939553    385.15049  0.075697817  0.078649663            4 
  425000    1.1558696   -3.7836734    387.82985  0.076045068  0.078630293            2 
  426000     1.194854   -3.7865943    388.12461  0.075924219   0.07860954            2 
  427000    1.1703105   -3.7711237    390.00009  0.076112429  0.078589035            1 
  428000    1.2108068   -3.7786463    391.37754  0.076202791   0.07856916            1 
  429000     1.194856   -3.7928826    390.22225  0.075800749  0.078549357            2 
  430000    1.1827405   -3.7720061    391.91316  0.075952163  0.078528054            3 
  431000    1.1886861   -3.7961146    392.10269  0.075812585  0.078505175            2 
  432000    1.1813895   -3.8179976    391.90271  0.075598516  0.078484867            2 
  433000    1.1542602   -3.7757212     393.1128  0.075656813  0.078463792            2 
  434000    1.1779152   -3.8043415    393.02577  0.075465778   0.07844251            6 
  435000    1.1791689   -3.7909281    394.63206  0.075600012  0.078420611            4 
  436000    1.1655445     -3.75258    395.93189  0.075675055  0.078398991            1 
  437000    1.1828765   -3.8155272     394.0818  0.075149084  0.078376983            1 
  438000    1.1642901   -3.7610398    398.19095  0.075759313  0.078355272            1 
  439000    1.1781414   -3.7738469    398.56459  0.075657668  0.078334707            2 
  440000    1.1872108   -3.7857077    400.01899  0.075761172  0.078315857            2 
  441000    1.1474789   -3.7659041    400.58637  0.075696594  0.078294662            7 
  442000     1.172227   -3.7652882    402.48064  0.075882474  0.078276082            1 
  443000    1.2043517   -3.7818847    400.43141  0.075325698  0.078256518            1 
  444000    1.1554246   -3.8063161    404.21922  0.075866971  0.078236472            3 
  445000     1.198383   -3.7354029    405.91177   0.07601344  0.078217785            2 
  446000    1.1874327   -3.7767339    405.22757  0.075715166  0.078198712            2 
  447000    1.1472368   -3.7805166    404.94411  0.075492936  0.078179308            1 
  448000    1.1728433    -3.780595    407.96707  0.075886732  0.078158385            3 
  449000    1.1683855   -3.7838563    407.03366  0.075544481  0.078139725            4 
  450000    1.1987706   -3.7732318    410.30815  0.075982991  0.078123603            2 
  451000    1.1906242   -3.7885739    410.89261  0.075922507   0.07810715            1 
  452000    1.1824425   -3.7698127    414.13687  0.076352669  0.078094125            2 
  453000    1.1742208    -3.772882    413.01216  0.075977218  0.078082409            2 
  454000    1.1624339   -3.7881109      415.458   0.07625881  0.078070311            3 
  455000    1.1759713   -3.7678871    416.16305  0.076220338  0.078058479            2 
  456000    1.1602555   -3.8025925    416.72992  0.076156783   0.07804837            4 
  457000    1.2004652   -3.7861504    416.53833  0.075955202  0.078036738            2 
  458000    1.1467027   -3.7740741    417.43672  0.075952823  0.078024419            4 
  459000    1.1812582   -3.7863122      419.437  0.076150507   0.07801193            1 
  460000    1.1890256   -3.7714927    418.98142   0.07590243  0.077998094            1 
  461000    1.1587958   -3.7898793    419.08692  0.075756855  0.077983923            2 
  462000    1.1634318     -3.80357    420.26682  0.075805704  0.077969047            4 
  463000    1.1802624   -3.8017411    422.88075  0.076112445  0.077955757            2 
  464000    1.1533116   -3.7461997    423.67768  0.076091538  0.077943325            1 
  465000     1.161791   -3.7781277    425.64395  0.076280277   0.07793037            2 
  466000    1.1771209   -3.7777689    423.79374  0.075785719  0.077916321            2 
  467000    1.2043994   -3.7485374    426.28581  0.076068131  0.077902742            1 
  468000    1.1630324    -3.740979    425.76678  0.075813172  0.077890061            2 
  469000    1.1872105   -3.7596437    428.99687  0.076225456  0.077878483            2 
  470000    1.1680904   -3.8000147    428.90982   0.07604784  0.077867113            2 
  471000    1.1591452   -3.7754551    429.30139  0.075955659  0.077853833            8 
  472000    1.1936181   -3.7948309    430.46909  0.076000898   0.07783945            2 
  473000    1.1699994   -3.7875756    430.51858  0.075848939  0.077825745            2 
  474000    1.1722559   -3.8255138    428.38042  0.075313012  0.077809807            3 
  475000     1.188729   -3.7661215     431.9323  0.075777596  0.077795838            2 
  476000    1.1646621    -3.809053    432.11339  0.075650103  0.077781221            3 
  477000    1.1831094   -3.8045736    434.81198  0.075962959  0.077767233            2 
  478000    1.1686699   -3.8155406    433.56588  0.075586798  0.077751875            2 
  479000     1.177822   -3.7841091    435.71717  0.075803266  0.077737369            3 
  480000     1.187768   -3.7758679     436.5708  0.075793542  0.077722532            3 
  481000    1.1655444   -3.7864529    436.51775  0.075626775  0.077708383            2 
  482000    1.1717785   -3.8242169     437.6573  0.075666891  0.077693207            2 
  483000    1.1720976   -3.7584989    439.67682  0.075858665  0.077677686            1 
  484000    1.1770464   -3.7891593    439.63557   0.07569483  0.077663239            2 
  485000    1.1716178   -3.7601292    441.53088  0.075864413  0.077648225            1 
  486000    1.1679843     -3.75589    443.48734  0.076043782  0.077635401            3 
  487000    1.1663348   -3.7618973    441.69947  0.075581703  0.077621474            4 
  488000    1.1578619   -3.8084457    443.51907  0.075737546  0.077606731            1 
  489000     1.188191   -3.7971566    442.12799  0.075345602  0.077589282            3 
  490000    1.1583816   -3.7876262    445.06474  0.075691281   0.07757385            2 
  491000    1.1826224   -3.8254483    443.84776  0.075330577  0.077558445            1 
  492000    1.1649583   -3.8094192    444.24324  0.075244451  0.077542557            2 
  493000    1.1624491   -3.7832521    445.38664  0.075285098  0.077527782            2 
  494000    1.1740045   -3.7670415    446.40759  0.075304924  0.077511316            2 
  495000     1.163092   -3.7995426    448.10997  0.075439389  0.077495689            2 
  496000    1.1953067   -3.7984204    448.69575  0.075385711   0.07748092            1 
  497000    1.1968091   -3.7815757    453.03728  0.075961986  0.077465391            3 
  498000    1.1642277   -3.8222409    449.85026  0.075276147   0.07744961            4 
  499000     1.168694     -3.79542    450.51865  0.075236916  0.077432883            2 
  500000    1.1213037   -3.8043947     453.9344  0.075655733  0.077415876            2 
  501000    1.1924502   -3.7777223    455.03921  0.075688492  0.077399866            1 
  502000    1.1776719   -3.7979167    454.70821  0.075482771  0.077384106            2 
  503000    1.1756264   -3.7944465    454.42875  0.075286406  0.077368411            2 
  504000    1.1818499   -3.8187269    453.60736  0.075001216   0.07735148            3 
  505000    1.1595541   -3.8214753    454.78783  0.075047496  0.077333781            1 
  506000    1.1657493   -3.8076514    455.60767  0.075034201  0.077315926            3 
  507000    1.1650767   -3.8030834    457.83916  0.075252984  0.077299131            2 
  508000     1.169557    -3.817295    457.38418  0.075030213   0.07728193            1 
  509000     1.162089   -3.7808095    458.94526  0.075138385  0.077265364            1 
  510000    1.2002352   -3.7787204    460.45306  0.075237428  0.077249166            2 
  511000    1.1913414   -3.7810083    461.22203  0.075215595  0.077232513            2 
  512000    1.1653124   -3.8346982    459.40248  0.074772539  0.077214617            1 
  513000    1.1289703    -3.807195     461.4896  0.074965823  0.077196689            2 
  514000    1.1629093    -3.805436    463.34964  0.075121536  0.077179201            2 
  515000    1.1700679   -3.7817436    465.56399  0.075333979  0.077162673            4 
  516000     1.147076   -3.8082701    464.74885  0.075056339  0.077147221            2 
  517000    1.1637531      -3.7844     468.4184  0.075502643  0.077129504            2 
  518000    1.1778835   -3.7881561    467.81294  0.075259481  0.077113282            3 
  519000    1.1621118   -3.8286347    468.04022  0.075150967  0.077099557            1 
  520000    1.1512338   -3.7831485    468.91655  0.075146882  0.077084736            1 
  521000    1.1597333   -3.8060933    469.80683  0.075145046  0.077069559            3 
  522000    1.1507638   -3.8031615    471.09284  0.075206392  0.077053618            2 
  523000    1.2034118   -3.7683149    472.48936  0.075285111  0.077039084            2 
  524000    1.1467953   -3.8153368    472.19778  0.075095067  0.077024252            1 
  525000    1.1457863   -3.8056188    473.47001   0.07515397  0.077009899            2 
  526000     1.172525   -3.8055411    473.10413  0.074953126  0.076996031            1 
  527000    1.1524608   -3.8264658      476.436  0.075337761  0.076983365            3 
  528000    1.1586066   -3.8341832    475.99748  0.075125865  0.076969842            4 
  529000    1.1593532   -3.7886728    477.51308  0.075222603  0.076957823            1 
  530000    1.1785797   -3.8003875    479.87866  0.075452619  0.076946317            2 
  531000    1.1637879   -3.8120887    477.88039  0.074996923  0.076933211            1 
  532000    1.1624565   -3.8065293    479.05942  0.075040636  0.076920505            3 
  533000    1.1753471   -3.8035309    481.49362  0.075280429  0.076908547            3 
  534000    1.1661163   -3.8084647    481.72322  0.075175284  0.076895626            2 
  535000     1.168009    -3.806364    482.17513   0.07510516  0.076882104            2 
  536000    1.1761622   -3.7863967    485.61464  0.075499788  0.076867958            2 
  537000    1.1549307   -3.7885933    487.03537  0.075579666  0.076855764            2 
  538000    1.1734317   -3.7807682    486.36304  0.075335043   0.07684346            3 
  539000    1.1744253   -3.8209356    485.19462  0.075014628  0.076830843            8 
  540000     1.173759   -3.7731047    488.48705  0.075383803  0.076818133            2 
  541000    1.1585958   -3.8038734    488.80929    0.0752941  0.076806395            1 
  542000    1.1758838    -3.799783    488.72467  0.075142169  0.076794926            2 
  543000    1.1780222   -3.8030837      489.905  0.075184929  0.076784493            3 
  544000    1.1701706   -3.8015175    489.08381  0.074920927  0.076771473            3 
  545000    1.1721282   -3.8102339    492.49427  0.075304934  0.076758775            2 
  546000    1.1555166   -3.8091157    493.68044  0.075348053  0.076746452            2 
  547000    1.1674821   -3.8032782    494.04502  0.075265848  0.076734178            3 
  548000    1.1422049   -3.7738319    496.18667  0.075454177  0.076722943            2 
  549000    1.1815478    -3.837804     495.0646  0.075146418  0.076711581            1 
  550000     1.168272   -3.8084263    498.05179  0.075462393  0.076700761            1 
  551000     1.184233   -3.8245033    498.95962  0.075462738  0.076691583            2 
  552000    1.1723509   -3.7710502    502.31526  0.075832617  0.076682985            7 
  553000    1.1359514   -3.8301695    500.64553  0.075443872  0.076675436            2 
  554000    1.1478244   -3.7815336    502.03483  0.075516671   0.07666694            3 
  555000    1.1728797   -3.8022312    502.15357  0.075398433   0.07665908            2 
  556000    1.1684891   -3.8098349    504.73378  0.075649547  0.076651462            1 
  557000    1.1544192   -3.8006025    505.19772  0.075583142  0.076642772            3 
  558000    1.1808628   -3.8219597      506.101  0.075582586  0.076636515            3 
  559000     1.169459   -3.8073799    508.56036  0.075814007  0.076631351            3 
  560000    1.1802497   -3.8126659    510.58631  0.075980106  0.076625597            3 
  561000    1.1603366   -3.8382854    507.60187  0.075401348  0.076619581            2 
  562000    1.1433501   -3.8105908    508.48716  0.075398451  0.076611613            2 
  563000    1.1754032   -3.8138365    509.43743  0.075405185  0.076604512            3 
  564000    1.1626083   -3.8378982    512.14537  0.075671598  0.076597373            3 
  565000    1.1625443   -3.8263004    513.75803  0.075775521  0.076589841            3 
  566000    1.1604549   -3.8117632    512.93505  0.075520473  0.076583022            6 
  567000    1.1495769   -3.8175774    513.71528  0.075501952  0.076575908            4 
  568000    1.1562625   -3.8326876    515.06123  0.075566494   0.07656929            4 
  569000    1.1677821   -3.8423729    514.94385  0.075416498  0.076563067            1 
  570000    1.1526871   -3.8100899    518.95401   0.07587047  0.076557549            4 
  571000    1.1587882   -3.7920065    517.60206  0.075540289  0.076551102            2 
  572000    1.1539099   -3.8066692    519.06753  0.075621726  0.076544863            5 
  573000    1.1417232   -3.8189107    519.73845  0.075587325  0.076539556            4 
  574000    1.1488162   -3.8123618    520.92996  0.075628624  0.076534732            3 
  575000    1.1571921   -3.8274354    520.79767  0.075477924   0.07652823            2 
  576000    1.1685789   -3.8170048    522.94491  0.075657539  0.076523019            4 
  577000    1.1446668   -3.8091941    522.48342  0.075459766  0.076517716            3 
  578000    1.1791396   -3.8486725    524.09723  0.075561885  0.076511815            3 
  579000    1.1608268   -3.8057352    525.88842   0.07568918  0.076507681            1 
  580000    1.1672478   -3.8136635    526.21885  0.075606156  0.076501749            4 
  581000    1.1487946   -3.7936546    528.53581  0.075808349  0.076495937            2 
  582000    1.1400058   -3.8286722    529.46191  0.075810698  0.076491188            3 
  583000    1.1419883   -3.7877183     527.8058   0.07544394  0.076483356            2 
  584000    1.1745783   -3.8011154    528.66129  0.075436828   0.07647622            3 
  585000    1.1688404     -3.82395    529.33546  0.075403912  0.076468496            1 
  586000    1.1579628   -3.8012029    529.29024  0.075268806  0.076462067            1 
  587000    1.1615593   -3.7968668    531.61906   0.07547119  0.076455567            4 
  588000    1.1653142   -3.8288599    531.09811  0.075269006  0.076447657            2 
  589000    1.1613616   -3.8121783    533.35582  0.075460642  0.076438958            1 
  590000    1.1587291   -3.8168192    532.95414  0.075276008  0.076432273            3 
  591000    1.1643484    -3.804445    533.21375  0.075185243  0.076424224            3 
  592000     1.131527   -3.8287073    533.17132  0.075052268  0.076416027            2 
  593000    1.1575504   -3.7894596    536.26629  0.075360637  0.076407548            2 
  594000    1.1498392   -3.8126329    535.67873  0.075151337  0.076400169            2 
  595000    1.1238818   -3.8069657    541.27659  0.075809046  0.076391891            2 
  596000    1.1440098   -3.7903063    540.57006  0.075583063  0.076385531            1 
  597000    1.1543572   -3.8249364    539.55449  0.075314697  0.076379722            2 
  598000    1.1577732   -3.8038194    540.89447  0.075375484  0.076373848            1 
  599000    1.1801403   -3.8376395     541.4229  0.075323164  0.076366107            1 
  600000    1.1633219   -3.8338008    543.08811  0.075428905   0.07636039            2 
  601000    1.1752264   -3.8235873    542.18619  0.075178341  0.076353505            1 
  602000     1.141765   -3.8084684    545.24895  0.075477429  0.076347537            2 
  603000     1.181738   -3.8081868    546.86161  0.075575125  0.076341023            1 
  604000    1.1781282   -3.8845721    544.99637  0.075192656  0.076334752            4 
  605000    1.1540199   -3.8081008    547.93603  0.075473283  0.076328137            2 
  606000    1.1512944   -3.8159401    547.93644  0.075348795  0.076323581            1 
  607000    1.1716598   -3.7898981    548.63759  0.075320921  0.076315922            2 
  608000    1.1538335    -3.796138    550.96644  0.075516234   0.07630931            2 
  609000    1.1590595   -3.8110231    552.31986  0.075577431  0.076302607            2 
  610000    1.1605915   -3.8109728    549.42546  0.075058123  0.076294389            1 
  611000     1.141359   -3.8110068    551.40925  0.075205844  0.076285339            1 
  612000    1.1635072   -3.8331061     553.3601  0.075348598  0.076276926            3 
  613000    1.1457222   -3.7815694    553.91033   0.07530048  0.076268922            4 
  614000    1.1546311   -3.7977413    551.71184  0.074879457  0.076259611            1 
  615000    1.1610195    -3.800438    552.34087  0.074842936  0.076249694            3 
  616000    1.1477874    -3.826172    553.38274  0.074862384  0.076240322            3 
  617000    1.1630556   -3.8160986    552.09209  0.074566733  0.076229175            2 
  618000    1.1473946   -3.8570702    554.02715  0.074707005  0.076218406            3 
  619000    1.1639318   -3.8237363    558.08034  0.075131979  0.076207754            4 
  620000    1.1397327   -3.8417474    554.79252  0.074568887   0.07619758            2 
  621000    1.1598415   -3.8519868    559.60495  0.075094598  0.076187144            3 
  622000    1.1172154   -3.8623974    557.18388  0.074649501  0.076176843            2 
  623000    1.1593766   -3.8094309    561.22187  0.075069806  0.076165799            4 
  624000    1.1340371   -3.8621123    558.29135  0.074558139  0.076154856            2 
  625000    1.1523664   -3.8351285    560.66864  0.074755818  0.076144089            3 
  626000    1.1407326   -3.8120733    560.92091  0.074669983  0.076132305            4 
  627000    1.1237873   -3.8588006    562.48892  0.074759293  0.076121775            1 
  628000    1.1442527   -3.7807843    565.42527  0.075029893  0.076110571            3 
  629000    1.1530881   -3.7930641    565.86526    0.0749689  0.076101173            1 
  630000    1.1315691    -3.836934    564.38378  0.074653939  0.076091388            2 
  631000    1.1368388   -3.8292005    566.62192   0.07483121  0.076081793            3 
  632000    1.1590691   -3.8663961    565.28036  0.074535913  0.076072739            2 
  633000    1.1588742   -3.8402567     568.7964  0.074881043  0.076062722            5 
  634000    1.1340186    -3.832815    568.79204   0.07476236  0.076053365            3 
  635000    1.1507734   -3.8313266    570.88409  0.074919172  0.076042742            2 
  636000    1.1348758   -3.8009972    570.24366  0.074717461  0.076032498            1 
  637000     1.163716   -3.8613643    572.64067  0.074913745  0.076023573            4 
  638000    1.1248596    -3.859415     572.8792  0.074827482   0.07601481            1 
  639000    1.1817896   -3.8085928    577.24274  0.075279439  0.076006696            3 
  640000    1.1348183   -3.8144768    576.40126  0.075052247  0.075997481            1 
  641000    1.1471037   -3.8308442    573.06756  0.074501763  0.075987492            2 
  642000     1.143147   -3.8317333    575.65901  0.074722094  0.075975994            2 
  643000    1.1595612   -3.8369396    576.22792  0.074679616    0.0759659            4 
  644000    1.1438996   -3.8529465      574.881  0.074389363  0.075954878            1 
  645000    1.1637184   -3.8351472     576.9981  0.074547558   0.07594354            4 
  646000    1.1599673   -3.8488049    578.33649   0.07460481   0.07593248            3 
  647000    1.1264977   -3.8378911    577.29119  0.074354867   0.07592092            4 
  648000    1.1649711   -3.8074863    578.61482  0.074410342   0.07590916            2 
  649000     1.127091   -3.8048496    581.11107  0.074616213  0.075896611            4 
  650000    1.1394491   -3.8621267    581.15552  0.074507118  0.075884426            1 
  651000    1.1611752   -3.8551245      581.037  0.074377496  0.075871883            2 
  652000    1.1612454   -3.8223649    582.38037  0.074435119  0.075859456            4 
  653000    1.1516651   -3.8520344    582.46237  0.074331593  0.075846735            3 
  654000    1.1501576   -3.8138717    583.02591  0.074289743  0.075834326            2 
  655000     1.118875    -3.838493    585.76412  0.074524698  0.075822703            3 
  656000    1.1526273   -3.7947021    585.62136  0.074392957  0.075810835            2 
  657000    1.1274009   -3.8589938    586.23094  0.074357045  0.075799064            6 
  658000    1.1224728   -3.8441695     588.8541  0.074576253  0.075787869            3 
  659000    1.1524719   -3.8519016    589.19627  0.074506357  0.075776818            7 
  660000    1.1443495   -3.8492231    588.56759   0.07431409  0.075763686            3 
  661000    1.1132076   -3.8430058    588.34331  0.074173387  0.075751189            2 
  662000    1.1386367   -3.8242623    589.33987  0.074186791  0.075739577            1 
  663000    1.1546289   -3.8335116    590.99121  0.074282455  0.075727686            1 
  664000    1.1703587   -3.8203441    594.67772  0.074633248  0.075715646            2 
  665000    1.1349027   -3.8348087    597.27215  0.074846134  0.075704484            2 
  666000    1.1270038   -3.8163376    592.09509  0.074085973  0.075692963            3 
  667000    1.1691014   -3.8486689    594.19397  0.074237127  0.075680032            2 
  668000    1.1644165   -3.8589081    595.75992  0.074321347  0.075667862            7 
  669000    1.1533578   -3.8437319    599.17859  0.074636098  0.075655551            1 
  670000    1.1523301    -3.828409    594.35316  0.073924522  0.075642926            1 
  671000    1.1521438   -3.8166862    597.63581  0.074222033  0.075630825            3 
  672000    1.1353135   -3.8434223     598.8864  0.074266667  0.075617956            4 
  673000    1.1615723   -3.8178403    600.01706  0.074296317  0.075605727            1 
  674000    1.1619319   -3.8188735    601.54441  0.074374927  0.075593505            3 
  675000    1.1648422   -3.8802245    601.55177   0.07426565   0.07558124            1 
  676000    1.1391402   -3.8140557    602.23142  0.074239573  0.075570412            1 
  677000    1.1433313   -3.8308184    601.28647  0.074013598  0.075558608            1 
  678000    1.1380196   -3.8580114    602.27865  0.074026382  0.075546038            2 
  679000    1.1509045   -3.8522621    605.13608  0.074268051  0.075533039            1 
  680000     1.121681   -3.8250789    605.57745  0.074212923  0.075521173            2 
  681000    1.1488166   -3.8316126    608.51205  0.074463051  0.075510157            1 
  682000    1.1511772    -3.852767    607.28253  0.074203633  0.075498469            2 
  683000    1.1454189   -3.8666751    606.47659  0.073996656  0.075487227            2 
  684000     1.126869   -3.8564905    609.22077  0.074222804  0.075474828            2 
  685000    1.1431918   -3.8384331    608.98634  0.074085929  0.075462899            2 
  686000    1.1268009   -3.8257759    611.26421  0.074254642    0.0754513            2 
  687000    1.1570193    -3.842495    608.79217  0.073846697  0.075439606            3 
  688000    1.1585761   -3.8451694    610.80432  0.073983081  0.075428064            5 
  689000    1.1317263   -3.8249699    613.70183  0.074226153  0.075416469            2 
  690000    1.1483669   -3.8539536    613.35355  0.074076515  0.075404419            2 
  691000    1.1317118   -3.8337625    615.72947  0.074255846  0.075393103            2 
  692000    1.1491208   -3.8165246    616.46928   0.07423763  0.075380634            2 
  693000    1.1545253   -3.8689178     613.0749  0.073722331  0.075368253            2 
  694000    1.1233804   -3.8783168    614.25949  0.073758345  0.075355931            3 
  695000    1.1234369   -3.8716538    616.88555  0.073967093  0.075343712            1 
  696000    1.1468789   -3.8517802    617.65293  0.073952697  0.075330986            2 
  697000     1.153357   -3.8405031    619.37485  0.074052469  0.075319887            1 
  698000    1.1357266   -3.8200123    620.23513  0.074049084  0.075308414            3 
  699000    1.1344795   -3.8688237    620.64557  0.073992081  0.075295925            3 
  700000    1.1342166   -3.8198053    620.95951  0.073923751  0.075283429            1 
  701000    1.1527083    -3.838539    620.34483  0.073745225  0.075270838            2 
  702000    1.1331737   -3.8683125    622.31052  0.073873519  0.075258441            1 
  703000    1.1425285   -3.8562966    622.38036  0.073776714  0.075247001            3 
  704000    1.1548747   -3.8451981    623.39987  0.073792599  0.075234458            2 
  705000    1.1361447   -3.8573331    623.67739  0.073720732   0.07522207            2 
  706000    1.1510326   -3.8365925    625.88937  0.073877405  0.075209842            3 
  707000    1.1248336   -3.8284952    625.53454  0.073731086  0.075197992            3 
  708000    1.1494972   -3.8559062    626.91679  0.073789641  0.075185014            1 
  709000    1.1619171   -3.8372097    630.64879  0.074124211  0.075172932            1 
  710000    1.1482962   -3.8698783     628.2167  0.073734355  0.075160751            3 
  711000     1.126717   -3.8622184    629.44978  0.073775173  0.075148101            1 
  712000    1.1510059   -3.8237256    632.84388  0.074068806  0.075136171            1 
  713000    1.1481519   -3.8518615    631.63839  0.073824028   0.07512474            2 
  714000    1.1397588   -3.8330274     634.2376  0.074023996  0.075113616            2 
  715000    1.1459131   -3.8261187    634.23748  0.073920452  0.075102806            1 
  716000    1.1324446   -3.8055942    635.68801  0.073986035  0.075091202            2 
  717000    1.1298599   -3.8558356    635.36008  0.073844732  0.075079237            2 
  718000     1.139311   -3.8194809    638.51555  0.074108118  0.075066556            2 
  719000    1.1255405   -3.8616371    633.41062  0.073413377  0.075055249            1 
  720000     1.114587   -3.8661375    637.64451  0.073801448  0.075043261            2 
  721000     1.130432   -3.8439488    639.64635  0.073930461   0.07503116            3 
  722000    1.1496257   -3.8443696     637.6359  0.073596018  0.075019306            2 
  723000    1.1341853   -3.8341499    639.36745  0.073693805  0.075006753            4 
  724000    1.1609846   -3.8448129    638.67889  0.073512763  0.074994304            4 
  725000    1.1257322   -3.8687497    639.68809  0.073527366  0.074981551            2 
  726000    1.1731946   -3.8390567    639.04163  0.073351886   0.07496821            2 
  727000    1.1458924   -3.8419023    644.23028  0.073845745  0.074955865            3 
  728000    1.1593205   -3.8775043    643.23609  0.073630505  0.074942543            4 
  729000    1.1203986   -3.8662818    641.70019  0.073353931  0.074928602            3 
  730000    1.1122808   -3.8534813     645.6952  0.073709497  0.074914015            3 
  731000    1.1234259   -3.8536014    644.73347  0.073499027  0.074900345            7 
  732000    1.1265237   -3.8256288    645.93246  0.073535116  0.074886372            1 
  733000    1.1466233   -3.8944266    645.42048   0.07337659  0.074871945            3 
  734000    1.1186749   -3.8136026    650.31156  0.073831921  0.074858269            2 
  735000    1.1337389   -3.8463316    649.02678  0.073585803   0.07484511            1 
  736000     1.118391   -3.8433169    648.51044  0.073427359  0.074831377            2 
  737000    1.1197039   -3.8733035    648.84245   0.07336527  0.074817745            3 
  738000    1.1236418   -3.9006525    646.60427  0.073013128  0.074803863            3 
  739000    1.1274847   -3.8323546    652.90785  0.073625152   0.07478941            4 
  740000    1.1450673   -3.8800312    656.03725  0.073878068  0.074776342            2 
  741000    1.1387265   -3.8584578    653.48538  0.073491383   0.07476327            5 
  742000    1.1451107   -3.8361639    655.42254  0.073609898  0.074750014            3 
  743000    1.1066325   -3.8497114    652.85119  0.073222431  0.074736378            1 
  744000    1.1344565   -3.8354252    657.12964   0.07360323  0.074723906            2 
  745000    1.1214933   -3.8497855    655.15754  0.073283841  0.074711551            3 
  746000    1.1237534   -3.8608135    656.63946  0.073351146  0.074698734            3 
  747000    1.1514388   -3.8429672    659.24064  0.073543133  0.074687038            2 
  748000    1.1199799   -3.8643752    659.57117  0.073481636  0.074674675            4 
  749000    1.1194384   -3.8404364    660.20449  0.073453993  0.074661533            4 
  750000    1.1421625   -3.8681203    661.26061  0.073473402  0.074649437            3 
  751000    1.1091488   -3.8257588    661.43415  0.073394824   0.07463678            2 
  752000    1.1246707   -3.8402568    662.59128  0.073425453  0.074624171            3 
  753000    1.1235911   -3.8390183    664.25855  0.073512456  0.074611038            3 
  754000    1.1342593   -3.8536418     663.0083  0.073276779  0.074597636            1 
  755000    1.1268504   -3.8331128    663.10648  0.073190561   0.07458437            2 
  756000    1.1369471   -3.8348494    665.05261  0.073308268  0.074570434            2 
  757000     1.131937    -3.896067    663.21028  0.073008617  0.074557116            3 
  758000    1.0963301   -3.8544403    665.73038  0.073189356  0.074541899            6 
  759000    1.1420245   -3.8664739    667.24764  0.073259513  0.074527213            3 
  760000    1.1311234     -3.89178    665.32381  0.072952172  0.074512643            3 
  761000    1.1283123   -3.8440742    667.05103  0.073045448  0.074499277            2 
  762000    1.1284592    -3.840808    670.01367  0.073273586  0.074485986            5 
  763000     1.108547   -3.8509362    669.17814  0.073086298  0.074472836            5 
  764000    1.1243357   -3.8675066     671.0549  0.073195343  0.074460361            1 
  765000    1.1520276   -3.8859076     669.2856  0.072906928  0.074447757            3 
  766000    1.1359879   -3.8592763    673.70963   0.07329304   0.07443505            2 
  767000    1.1041631    -3.857977    674.89751  0.073326543  0.074423345            2 
  768000    1.1287083   -3.8928937    672.97889  0.073022882   0.07441063            1 
  769000    1.1356547   -3.8461753    679.27821  0.073610556  0.074398307            4 
  770000    1.1220775   -3.8870911    676.30793  0.073193499  0.074385066            2 
  771000    1.1169945   -3.9056156     674.7615   0.07293142  0.074372006            2 
  772000    1.1375049   -3.8789306    674.40839  0.072798833   0.07435893            3 
  773000    1.1292604    -3.834607    674.63065  0.072728617   0.07434567            3 
  774000    1.1497832   -3.8803946    677.73136  0.072968493  0.074332753            2 
  775000    1.1343046   -3.8472309    679.97494  0.073115585  0.074320374            1 
  776000    1.1423766   -3.8447201    683.13067  0.073360252  0.074308187            2 
  777000    1.1286988   -3.8331783    681.20453  0.073059259  0.074295966            1 
  778000    1.1494426    -3.890564    678.40842  0.072665855  0.074283306            3 
  779000    1.1276066   -3.8675301    682.96013  0.073059492  0.074270351            2 
  780000    1.1034881   -3.8744152    685.63782  0.073251904  0.074257983            2 
  781000    1.1231315    -3.839906    687.23434  0.073328462  0.074245318            1 
  782000    1.1314648   -3.8452023    685.89779  0.073092262  0.074233014            3 
  783000    1.1439239   -3.8683692    686.94749  0.073110631  0.074221245            2 
  784000    1.1260293   -3.8781618    687.01253  0.073024291  0.074209475            1 
  785000    1.1403603    -3.912377    687.85355  0.073020547  0.074197584            2 
  786000    1.1122355   -3.8732289    689.09327  0.073059083   0.07418547            3 
  787000     1.107473   -3.8465361    690.49283  0.073114447  0.074173144            2 
  788000    1.1299431   -3.8982019    687.77543  0.072734289  0.074160602            4 
  789000    1.1388951   -3.8739066    690.84127  0.072965914  0.074148017            1 
  790000     1.098659   -3.8675354    692.15429  0.073012056  0.074135517            2 
  791000    1.1299447   -3.8550552    694.13665  0.073128598   0.07412405            2 
  792000    1.1534872   -3.8811984    689.66278  0.072565528  0.074110959            1 
  793000    1.1247781   -3.8849544     693.7353  0.072901986  0.074098214            3 
  794000    1.1272481   -3.8520461    694.68217  0.072909547  0.074085662            2 
  795000    1.1342034   -3.8688002    694.36038  0.072784106  0.074072641            2 
  796000    1.1047684   -3.8861105    697.41511   0.07301247   0.07405935            4 
  797000    1.1458256   -3.8755404     693.4847  0.072509902  0.074045567            1 
  798000    1.1033219   -3.8897863    694.76396  0.072552627  0.074031235            4 
  799000    1.1375139   -3.8559263     696.3684  0.072629162  0.074017836            2 
  800000    1.1081252   -3.8773561    697.02461  0.072606731  0.074004639            2 
  801000    1.1215479   -3.8647308    700.86225   0.07291534  0.073991383            3 
  802000    1.1127161   -3.8619705     700.6718  0.072804635  0.073978113            3 
  803000    1.1011148    -3.867991    700.02953  0.072647316  0.073966145            3 
  804000    1.1273557   -3.8802707    698.60885  0.072409707  0.073953277            4 
  805000     1.136274   -3.8809404    702.41009  0.072713259  0.073940166            2 
  806000    1.1348836    -3.871798    705.03943  0.072894895  0.073926732            3 
  807000    1.1369497   -3.8624094    704.13027  0.072710685  0.073912454            1 
  808000    1.0964923   -3.8498973    705.53263  0.072765329  0.073899058            2 
  809000    1.1435465   -3.8711737    705.44747  0.072666612  0.073885865            2 
  810000    1.1158053   -3.9050187    705.83915  0.072617196  0.073873874            3 
  811000    1.1362055   -3.8368284    708.14582  0.072764676  0.073860946            2 
  812000    1.1346385   -3.8495651    711.49365  0.073018643  0.073848181            1 
  813000    1.1398282   -3.8538238    714.99998  0.073288231  0.073836576            1 
  814000    1.1346633   -3.8881433    707.66158  0.072446926  0.073824945            1 
  815000     1.130963   -3.8433518    711.60982   0.07276174  0.073812737            2 
  816000    1.1046932   -3.8667161     713.2663  0.072841738   0.07379984            5 
  817000    1.1012027   -3.8910257    710.97965  0.072519344   0.07378669            2 
  818000    1.1107973   -3.8887061    711.09409  0.072442348  0.073773589            6 
  819000    1.1038601   -3.9048153    710.73503  0.072317361  0.073759573            1 
  820000    1.1333074   -3.8507031    717.19731  0.072885906  0.073746368            2 
  821000    1.1527289   -3.8911305    714.84158  0.072558016   0.07373333            1 
  822000    1.1192125   -3.8490732    719.77248  0.072969635   0.07372147            4 
  823000    1.1237149   -3.8652912    718.15633  0.072717327  0.073709905            2 
  824000    1.1176922    -3.903694    715.54661  0.072365151  0.073698258            2 
  825000    1.1286565    -3.896017    720.00461  0.072727738   0.07368592            2 
  826000    1.1203856   -3.8689664    719.76781    0.0726158  0.073673686            3 
  827000    1.1261693   -3.8633268    722.29332  0.072782479  0.073661386            2 
  828000    1.1109823    -3.852172    720.66967  0.072531166  0.073649014            2 
  829000    1.1435145   -3.8415973    720.56374  0.072433026  0.073636566            3 
  830000    1.1140937   -3.9279122    717.96398  0.072084737  0.073623929            2 
  831000       1.1234   -3.8523307    721.32763  0.072335302   0.07361091            2 
  832000    1.1392711   -3.8458853     725.1861  0.072634826  0.073597438            4 
  833000    1.1189277   -3.8813784     722.8894  0.072317867  0.073583997            4 
  834000     1.117305   -3.8591201    722.28149  0.072170412  0.073570981            3 
  835000    1.1176091   -3.8409509    724.22153  0.072277597   0.07355785            1 
  836000    1.1254078    -3.919655    722.65903   0.07203539  0.073543371            3 
  837000    1.1186491   -3.8835465    722.65557  0.071948981  0.073528551            1 
  838000    1.1167783   -3.8533066    726.43538  0.072238999  0.073514771            2 
  839000    1.1503273   -3.9085983    728.97915  0.072405557  0.073501193            4 
  840000    1.0823943   -3.8727105    728.11846  0.072233974  0.073488023            2 
  841000    1.1006928    -3.851679    729.86945  0.072321587  0.073474237            1 
  842000    1.1113443   -3.8714335    730.06725  0.072255271  0.073460696            5 
  843000    1.1186468    -3.853151    732.95683  0.072455202  0.073446561            3 
  844000    1.1172375   -3.8594743    733.03747  0.072377317   0.07343359            3 
  845000    1.1393688   -3.9005766    734.34436  0.072420548  0.073420864            2 
  846000    1.0967214   -3.8786971     735.8766  0.072485875  0.073407417            3 
  847000    1.1412699   -3.8571756    735.23043  0.072336721  0.073394999            3 
  848000    1.1283058   -3.9021075    732.98128  0.072030393  0.073381309            4 
  849000    1.1191133   -3.8879875    738.12627  0.072450557  0.073367821            3 
  850000    1.1178698   -3.8831265    736.57737  0.072213468   0.07335557            1 
  851000     1.115021   -3.8868547    737.10853  0.072180624  0.073343105            2 
  852000    1.0890893   -3.8428889    741.11209  0.072487489  0.073329453            2 
  853000    1.1335335     -3.88712    740.76829  0.072368923  0.073316945            5 
  854000    1.1225798    -3.910111    738.20867  0.072034413  0.073304249            2 
  855000    1.1250769    -3.886058    741.54909  0.072275739  0.073291896            2 
  856000    1.1116328    -3.870769    740.75223  0.072113729   0.07327906            2 
  857000    1.1209643   -3.8927872     740.6771  0.072022277  0.073266391            5 
  858000    1.0969918   -3.8842652    741.98052   0.07206493  0.073254039            1 
  859000    1.1027626   -3.8893765    743.40234   0.07211897  0.073241497            3 
  860000    1.1127827   -3.8666304    744.31399  0.072123449  0.073229908            2 
  861000    1.1296279   -3.8747953    745.33887  0.072138876  0.073217262            1 
  862000    1.1330394   -3.8900446     746.9009  0.072206197  0.073205389            2 
  863000    1.1091015    -3.901191    744.13915  0.071855846  0.073192795            2 
  864000    1.0901718   -3.8808002    746.77677   0.07202708  0.073180835            2 
  865000    1.1067519   -3.8972281    751.55643   0.07240428  0.073169383            1 
  866000    1.1331926   -3.8809914    751.36884  0.072302621  0.073158398            3 
  867000    1.0995591   -3.9011848    751.59438  0.072240906  0.073146905            4 
  868000    1.1253294   -3.8925137    752.27845  0.072223354  0.073135684            1 
  869000    1.1011896   -3.8761608    754.38092  0.072341861    0.0731244            4 
  870000    1.0914123   -3.8800594     753.4411  0.072168687  0.073113131            2 
  871000    1.1077852   -3.8713223    758.35829  0.072556285  0.073101179            2 
  872000    1.1203932   -3.8852513    755.27902  0.072178805  0.073090043            4 
  873000    1.1196544   -3.8905933    753.97711  0.071971851  0.073078588            5 
  874000    1.1088338   -3.8861293    757.53849  0.072229071   0.07306789            2 
  875000    1.0996008   -3.8460022    759.68848  0.072351283  0.073056909            3 
  876000    1.1303456   -3.8900422    757.60096  0.072070107  0.073045595            2 
  877000    1.1312082   -3.8613004    756.53849  0.071886971  0.073033788            2 
  878000      1.12257    -3.888631    761.45005  0.072271265  0.073022217            1 
  879000    1.0950476   -3.8788643    762.47674  0.072286381  0.073010744            2 
  880000    1.1424447   -3.8582134    766.75093  0.072608989  0.072999984            1 
  881000      1.13186   -3.9067775    763.39173  0.072208828  0.072988439            2 
  882000    1.1150717   -3.9241646    762.98193   0.07208824  0.072975341            3 
  883000    1.1460745   -3.8925545    761.26336  0.071844409  0.072963017            3 
  884000     1.102834   -3.8579141    763.78791  0.072001123  0.072951324            4 
  885000    1.0882241   -3.8832358    766.22567  0.072149309  0.072939765            2 
  886000     1.112602   -3.8795849    765.94327  0.072041315   0.07292803            4 
  887000    1.0987041   -3.9531346     760.5506  0.071453457  0.072916042            4 
  888000    1.0832098    -3.889039    767.81412  0.072054628  0.072904091            1 
  889000    1.0931657   -3.9091998    768.20574  0.072010287  0.072892435            1 
  890000    1.1025473   -3.9124908    765.04381  0.071633315   0.07288018            4 
  891000    1.0959998   -3.9214772    768.13193  0.071841744  0.072868189            3 
  892000    1.1342125   -3.8767675    770.50734  0.071983122  0.072855565            3 
  893000     1.127335   -3.8696139    770.75057  0.071925212  0.072843166            2 
  894000     1.080429   -3.9087734    769.39078  0.071718007  0.072830799            4 
  895000    1.1048274   -3.9065481     771.4741  0.071831853   0.07281846            2 
  896000    1.1188769   -3.8984024    768.76452  0.071499676  0.072805196            2 
  897000    1.1026991   -3.8764033    772.87951  0.071802259   0.07279264            2 
  898000    1.1160017   -3.8674752    775.29982  0.071946902  0.072780303            2 
  899000    1.1162211   -3.9141052    771.13621  0.071480924  0.072768273            4 
  900000    1.1241179   -3.9009535     772.5193  0.071529565  0.072755525            2 
  901000     1.091627   -3.8688619    773.03891  0.071498234  0.072742512            3 
  902000     1.101973   -3.9190092    775.40854  0.071637892  0.072729494            1 
  903000    1.1070681   -3.8572488    776.95275  0.071701066  0.072716361            4 
  904000    1.1310415   -3.9280806    774.77256  0.071420774  0.072702939            1 
  905000    1.1066578   -3.9464703     775.6065  0.071418647  0.072688849            3 
  906000    1.0883068   -3.9023891    778.97168  0.071649345  0.072674808            1 
  907000    1.0770392   -3.9261209     777.1851  0.071406201  0.072660807            2 
  908000    1.1006916   -3.8936614     779.5329  0.071543034  0.072645604            2 
  909000    1.1013976   -3.8834219    775.01871  0.071050487  0.072631905            3 
  910000    1.1242882   -3.9157831    779.09085  0.071345316  0.072617259            2 
  911000    1.0956547   -3.9238479    781.67333  0.071503232  0.072602768            2 
  912000    1.0899844   -3.8955205    779.52992  0.071228977  0.072588584            2 
  913000    1.0782783    -3.876651    778.26697  0.071035685  0.072574505            2 
  914000    1.1079594   -3.8724063    784.44576  0.071521312  0.072560627            1 
  915000    1.1016618   -3.9232203    779.79113  0.071019229  0.072546532            3 
  916000    1.1237765   -3.9132189    784.46448  0.071366856  0.072532167            5 
  917000    1.0918016   -3.9127198    780.26998   0.07090785  0.072517811            3 
  918000    1.0960925   -3.9211694     784.1888  0.071186347   0.07250343            5 
  919000    1.1184783     -3.90363     786.9186   0.07135642  0.072489042            3 
  920000    1.1021001   -3.9122897    783.14252  0.070936823   0.07247405            3 
  921000     1.104114   -3.9083952    786.81275  0.071191888  0.072460109            2 
  922000     1.104708   -3.9062601    791.00729   0.07149379  0.072445184            2 
  923000    1.1078428   -3.8922124    786.50805  0.071010116  0.072430529            4 
  924000    1.0906834   -3.8870575    790.14551  0.071261319  0.072416531            2 
  925000    1.0954447   -3.9020051    787.84779  0.070977278  0.072403001            2 
  926000    1.1212172   -3.8914581    793.59394  0.071417741  0.072389159            3 
  927000    1.0944212   -3.9278559    791.55571  0.071157471  0.072375977            2 
  928000      1.09425   -3.8907491     795.6334  0.071446965  0.072361863            2 
  929000    1.0998061   -3.9101298    793.70371   0.07119696  0.072348721            1 
  930000    1.0860318   -3.9132809    795.29947  0.071263393   0.07233538            2 
  931000    1.0831028   -3.9077105    794.55497  0.071120209  0.072321017            3 
  932000    1.0988532   -3.8733078    793.92878  0.070987909  0.072307401            3 
  933000    1.1181027   -3.8908591     798.5519   0.07132475  0.072293592            2 
  934000    1.1005084   -3.8689044    797.09715  0.071118589  0.072279429            1 
  935000    1.1245061   -3.9197334    794.35018  0.070797699  0.072265549            2 
  936000    1.1033886   -3.8901488    796.51478  0.070914778  0.072250978            2 
  937000    1.1028042   -3.9234265     799.2971  0.071086544   0.07223708            2 
  938000    1.0924779   -3.9254493    799.50777  0.071029475  0.072222493            3 
  939000    1.1193695    -3.897228      797.744  0.070797302  0.072208311            6 
  940000    1.0910609   -3.9466844    797.11289  0.070666036  0.072194314            2 
  941000    1.0905698    -3.912018    798.76238  0.070737016  0.072179877            2 
  942000    1.0884899   -3.8707171    801.72361  0.070923886  0.072165626            2 
  943000    1.0989788   -3.9147655    802.17684  0.070888728  0.072152023            3 
  944000    1.0637743   -3.8782709    806.02658  0.071153477  0.072137714            2 
  945000    1.0823472   -3.9218135    804.17805  0.070915172  0.072123433            8 
  946000    1.0934258   -3.9130339    801.90327  0.070639823  0.072109062            3 
  947000      1.10679   -3.9101371    804.38087  0.070783251  0.072094276            5 
  948000    1.0893417   -3.9220314    808.04738  0.071030888  0.072080388            3 
  949000    1.0857243   -3.8552375    808.47698  0.070993763  0.072066807            1 
  950000    1.0996115   -3.8943004    808.84695  0.070951487   0.07205278            2 
  951000     1.089359   -3.9081511    806.89269  0.070705634  0.072038818            1 
  952000    1.0851514   -3.9227452     809.3624  0.070847549  0.072024356            3 
  953000    1.1246491   -3.9179944    810.42203  0.070865865   0.07201022            2 
  954000     1.100379      -3.8753    809.48892  0.070710074  0.071995864            2 
  955000    1.1140098   -3.9196314    808.75084  0.070571626  0.071981468            2 
  956000    1.1054669   -3.9114383    810.36024  0.070638096  0.071966955            4 
  957000    1.1021236   -3.9002687    814.87891  0.070957759   0.07195295            5 
  958000    1.1038225   -3.9114637    814.38443  0.070840677  0.071938858            1 
  959000    1.0928834   -3.9421458    812.80381  0.070629458  0.071924905            3 
  960000    1.0953235   -3.9224873    816.99051  0.070919315  0.071910481            4 
  961000    1.1165027   -3.8850051    818.70983  0.070994609  0.071896329            3 
  962000    1.1094415   -3.8984011    817.84522  0.070845913  0.071882768            2 
  963000    1.1018906     -3.93605     814.8492  0.070513084  0.071869065            4 
  964000    1.0854574   -3.9160047    816.23036  0.070559333  0.071854598            1 
  965000    1.0966062   -3.9203074    818.27462  0.070662748  0.071841108            2 
  966000    1.0993349    -3.914508    819.25802  0.070674432   0.07182691            3 
  967000    1.0858474   -3.9096858    822.08926  0.070845335  0.071813442            3 
  968000    1.0706306   -3.8707465     820.8415  0.070664729  0.071798862            2 
  969000    1.0814132    -3.944424    817.48143  0.070302841  0.071784198            3 
  970000    1.1056203   -3.9032016    821.40221    0.0705672  0.071769118            1 
  971000    1.1009997   -3.9080138    820.39126  0.070407763  0.071753038            3 
  972000    1.1185395   -3.8970802    822.28825  0.070497964  0.071737573            2 
  973000    1.0966847   -3.9098133    821.92964  0.070394796  0.071722307            2 
  974000    1.1193707   -3.9456703    817.42823  0.069937391  0.071706141            3 
  975000     1.119028   -3.9026471    819.44519   0.07003805  0.071690789            2 
  976000    1.0936744   -3.9043177    823.30346  0.070295719  0.071675771            2 
  977000    1.1073914   -3.8895266    826.11751  0.070463793  0.071660526            5 
  978000    1.0951516     -3.91004    822.92446  0.070119671  0.071644075            1 
  979000    1.0917732   -3.9281594    824.68254  0.070197696  0.071628835            4 
  980000    1.1092423   -3.9271387    827.39528  0.070356742  0.071613426            2 
  981000    1.0910588   -3.9162319     827.3258   0.07027912  0.071598076            1 
  982000    1.0956214   -3.9154224    827.69664  0.070239022  0.071582818            2 
  983000    1.1003553   -3.8882964     829.4954  0.070320057  0.071567345            3 
  984000     1.092066   -3.9056673    826.40964  0.069987266  0.071551323            2 
  985000     1.117001   -3.8588191    830.47407  0.070260074  0.071535556            3 
  986000    1.1036901   -3.9088484    830.29569   0.07017374  0.071519458            3 
  987000    1.0943945   -3.8862868    828.15706  0.069922076  0.071503239            3 
  988000    1.0931439   -3.9293841    830.27807  0.070030202  0.071486441            2 
  989000    1.0889218     -3.90561    828.27591   0.06979069  0.071471078            2 
  990000    1.1028671   -3.9153841    833.90524  0.070194044  0.071456013            6 
  991000    1.0719324   -3.9193522    832.66369   0.07001881  0.071440676            7 
  992000    1.1009904   -3.8954897    835.57672  0.070192937  0.071425728            1 
  993000    1.1043697   -3.9153581    835.67749  0.070130706  0.071409942            3 
  994000    1.0832971    -3.909013    834.49585  0.069961088  0.071394527            2 
  995000    1.0882173   -3.9222839    834.88517  0.069923381  0.071379029            4 
  996000    1.0847307    -3.919144     838.9988  0.070197356  0.071363706            5 
  997000    1.1262604   -3.9214721     839.4401  0.070163833  0.071348468            4 
  998000     1.066045    -3.892562    838.97939   0.07005506  0.071333207            2 
  999000    1.1006278   -3.8673572    844.56271  0.070450677  0.071318027            2 
 1000000    1.0916855   -3.9151676    840.81536  0.070067947  0.071302468            2 
 1001000    1.0699047   -3.9160392    842.28342  0.070120165  0.071286899            4 
 1002000    1.0836103   -3.9180858    839.60946    0.0698278  0.071271844            2 
 1003000    1.0909849   -3.9457944    842.98132  0.070038328  0.071256691            2 
 1004000    1.1035596   -3.9303465    841.70489  0.069862624  0.071242037            3 
 1005000    1.0896078   -3.9161861    844.48674  0.070023776  0.071227108            3 
 1006000    1.0913626   -3.9067813    842.49124   0.06978887  0.071212065            3 
 1007000    1.1015435   -3.9245259    846.58938  0.070058704  0.071196932            3 
 1008000    1.1020334   -3.9423455    845.41571  0.069892172   0.07118213            1 
 1009000    1.0858444   -3.8940975     849.9392  0.070196499  0.071167905            5 
 1010000    1.1092438   -3.9492284    846.52559  0.069845346  0.071153494            2 
 1011000    1.0811752    -3.942979    848.14517  0.069909757  0.071138641            2 
 1012000    1.0719401   -3.9029513    853.61502  0.070291092  0.071124011            2 
 1013000    1.0712495   -3.9021756    851.70709  0.070064749  0.071108886            1 
 1014000     1.075327   -3.9137748    848.19613  0.069707112  0.071093816            3 
 1015000     1.099366   -3.9229159    849.01098  0.069705335  0.071078686            3 
 1016000    1.1209823   -3.9281613    851.98629  0.069880765   0.07106387            2 
 1017000     1.109989    -3.928453    851.65305  0.069784747  0.071049141            2 
 1018000     1.114405   -3.9223394     851.1972   0.06967888  0.071034234            7 
 1019000    1.0817202    -3.919284    855.53509  0.069965251  0.071019366            1 
 1020000     1.059495   -3.9324486    852.97207   0.06968726  0.071003576            1 
 1021000    1.0813644   -3.9340933    854.33976  0.069730637   0.07098807            2 
 1022000    1.0835156   -3.9217822    852.27556  0.069494094  0.070972912            3 
 1023000    1.0894516   -3.9921562    852.02481  0.069405735  0.070956923            2 
 1024000    1.0757922   -3.9028327    854.56146   0.06954439  0.070940953            4 
 1025000    1.0845974   -3.9094843    858.48636  0.069795639  0.070926069            6 
 1026000    1.0844687   -3.9415571    855.79311  0.069508862  0.070910545            2 
 1027000    1.0904078   -3.9341775    857.99067  0.069619496  0.070895364            2 
 1028000    1.0727348   -3.9185645    859.72187   0.06969211  0.070880506            2 
 1029000    1.1023169   -3.9173901    860.70558  0.069704048  0.070865027            3 
 1030000    1.0809876   -3.9421283    859.91163  0.069572138  0.070849268            6 
 1031000      1.07839   -3.9156698    859.44655  0.069467067  0.070833055            1 
 1032000    1.0828009   -3.9252602    859.08888  0.069370872  0.070816846            1 
 1033000    1.0855648   -3.9580536    858.44412  0.069251704  0.070801015            2 
 1034000    1.0922375    -3.930195    862.37094  0.069501204  0.070784813            3 
 1035000    1.0803553   -3.9201634     863.6473  0.069536819  0.070768846            1 
 1036000    1.0900265   -3.8976255    860.38383  0.069207194  0.070752662            3 
 1037000    1.0905033   -3.8858643    865.32051  0.069537167  0.070736638            2 
 1038000     1.084059    -3.932745    863.22018  0.069301556  0.070720455            4 
 1039000    1.0762445   -3.9223296    861.20471  0.069073204  0.070704196            3 
 1040000    1.0701513   -3.9208788    862.47936  0.069108923  0.070686938            1 
 1041000    1.0996571   -3.9615156    861.20222    0.0689403  0.070669507            2 
 1042000    1.0869536   -3.9140341    865.79124  0.069241142  0.070652688            2 
 1043000    1.0739679   -3.9329004    863.27231  0.068973499  0.070635666            2 
 1044000    1.1015026   -3.9250788    870.24976  0.069464381  0.070619312            3 
 1045000    1.0784233   -3.9388649    866.09615  0.069066678  0.070602793            3 
 1046000    1.0638465   -3.9445819    863.11963  0.068763514  0.070585764            6 
 1047000    1.0697217   -3.9374221    868.72872  0.069144279  0.070568703            4 
 1048000    1.0899276   -3.9232451    871.61451  0.069307769  0.070552188            4 
 1049000    1.0638537   -3.9322334     870.1984  0.069129202  0.070535685            2 
 1050000    1.0818424    -3.915917    871.63835  0.069177647  0.070519267            1 
 1051000    1.0739929   -3.9218154    868.22161  0.068840914  0.070502246            3 
 1052000     1.093006   -3.9253341    868.56916  0.068803007  0.070485198            1 
 1053000    1.1089001   -3.9182926    872.24072   0.06902823   0.07046795            3 
 1054000    1.0836107   -3.9406649    871.13593   0.06887539  0.070450743            2 
 1055000    1.0802671   -3.8986742    875.13587  0.069126056  0.070433888            1 
 1056000    1.0846605   -3.9308437    875.62904  0.069099514  0.070416924            3 
 1057000    1.0931302   -3.9325951    875.39337  0.069015561  0.070400317            2 
 1058000    1.0785567   -3.9425498    875.64293  0.068969985  0.070383549            3 
 1059000    1.0895699    -3.929374    876.92398  0.069005664  0.070366746            2 
 1060000    1.0517043   -3.9223003     878.2141  0.069041989  0.070349676            3 
 1061000    1.0661587   -3.9622545    873.45949  0.068603478  0.070332983            3 
 1062000    1.0780006   -3.9511127    877.80993  0.068880252  0.070316228            1 
 1063000     1.087085   -3.9257254    878.09534  0.068837828    0.0702993            3 
 1064000    1.0984411   -3.9226645    877.61571  0.068735566  0.070282214            3 
 1065000    1.0645715   -3.9352248    883.06743  0.069097608  0.070266224            5 
 1066000    1.0893074   -3.9265492    882.85256  0.069015992  0.070250239            2 
 1067000    1.0855229   -3.9191144    882.35673  0.068912584   0.07023337            1 
 1068000    1.1007344   -3.8998944    884.89416  0.069046048  0.070216895            2 
 1069000    1.0932455   -3.9266033    880.80422  0.068662631  0.070200489            2 
 1070000    1.0710183   -3.9034361    886.36753  0.069031739  0.070184175            1 
 1071000    1.0716771   -3.9396607    883.72628  0.068761771  0.070167881            3 
 1072000    1.0695099   -3.9433822    884.84163  0.068784331  0.070151596            2 
 1073000    1.0792628   -3.9536216    884.46511  0.068690984  0.070135372            4 
 1074000     1.093083   -3.9291458     886.2237  0.068763478  0.070119893            3 
 1075000    1.0853702   -3.9358321    889.91546  0.068985695  0.070104438            1 
 1076000     1.072049   -3.9559239    888.43774  0.068807136  0.070088057            2 
 1077000    1.0755281   -3.9127544     891.3907  0.068971735  0.070072281            2 
 1078000    1.0595176   -3.9018908    894.24462  0.069128372   0.07005684            1 
 1079000    1.0776821   -3.9246067    891.11331  0.068822468  0.070041168            3 
 1080000     1.085002   -3.9498942    891.72741  0.068806127   0.07002521            2 
 1081000    1.0890845   -3.9273656    889.41274  0.068564041  0.070009318            2 
 1082000    1.0846004    -3.951106    892.14551  0.068711145  0.069993332            2 
 1083000    1.0758014   -3.9225619    893.25591  0.068733142  0.069977256            7 
 1084000    1.0524276    -3.993955    888.78939  0.068326368  0.069960881            2 
 1085000    1.1099733   -3.9431878    891.50261  0.068471782  0.069944333            2 
 1086000    1.0963574   -3.9314192    894.93986  0.068672488  0.069927997            2 
 1087000    1.1003755   -3.9541257    890.28827  0.068252704  0.069911347            2 
 1088000    1.0761336   -3.9444513    892.71205  0.068375616  0.069893993            1 
 1089000    1.0907027   -3.9071468    898.85697  0.068783056  0.069877188            1 
 1090000    1.0849287   -3.9407802    895.34417  0.068451389  0.069860998            2 
 1091000    1.0645682   -3.9336952    895.61908  0.068409645  0.069844786            2 
 1092000    1.0599747   -3.9383733     900.3779  0.068710157  0.069828305            1 
 1093000    1.0927859   -3.9029372    895.43477  0.068270415  0.069811424            3 
 1094000    1.0709617   -3.9399665    898.95121  0.068475869  0.069794985            2 
 1095000    1.0809594   -3.9166236    897.14855  0.068276145  0.069778179            3 
 1096000    1.0689044   -3.9150462    898.87638  0.068345223  0.069760754            5 
 1097000    1.0814824   -3.9436721    898.67119  0.068267334  0.069743992            1 
 1098000    1.1014275   -3.9353124    902.22024  0.068474517  0.069726939            3 
 1099000     1.101146   -3.9334824    904.27805  0.068568247  0.069710163            2 
 1100000    1.0573991   -3.9223784    904.71679  0.068539151  0.069693902            1 
 1101000    1.0778639   -3.9372045    904.97193   0.06849621  0.069678051            3 
 1102000    1.0652004   -4.0113879    901.89804  0.068201606  0.069661914            4 
 1103000    1.0681292   -3.9239462    908.02918   0.06860299  0.069645344            4 
 1104000     1.055786   -3.9396469    904.37147  0.068264755  0.069629106            3 
 1105000    1.0804596    -3.966746    905.91144  0.068319113  0.069612859            3 
 1106000    1.0953278   -3.9207555    907.63474  0.068387186  0.069596657            2 
 1107000    1.0738293    -3.968432    908.95228  0.068424592  0.069580154            1 
 1108000    1.0883358   -3.9594065    909.61859   0.06841295  0.069563754            2 
 1109000    1.0844702   -3.9449101    909.23055  0.068322103  0.069548247            3 
 1110000    1.0672102   -3.9532499    910.91229  0.068386809  0.069531949            2 
 1111000    1.1106853   -3.9604196    910.52091  0.068295898  0.069516183            2 
 1112000    1.0968925   -3.9394122    914.09423  0.068502266  0.069500247            3 
 1113000    1.0847212   -3.9621199    911.26634  0.068228986  0.069484475            1 
 1114000    1.0753078   -3.9284915    913.29654  0.068319609  0.069468484            3 
 1115000    1.0548882   -3.9036716    920.65844  0.068808553  0.069453078            2 
 1116000    1.0672865   -3.9697918    911.52083  0.068064578   0.06943689            2 
 1117000     1.083048   -3.9344926    915.19939   0.06827808  0.069420618            5 
 1118000     1.085078   -3.9263242    915.14126  0.068212676  0.069404313            1 
 1119000    1.0989926   -3.9616717    916.69906  0.068267728  0.069387996            6 
 1120000    1.0382782   -3.9302825    915.80558  0.068140296  0.069372548            3 
 1121000    1.0804254   -3.9481912    920.24199  0.068409306  0.069357195            1 
 1122000    1.0887143   -3.9571687    915.53538  0.067998766  0.069341703            2 
 1123000    1.0776042   -3.9441146    914.88606  0.067890031  0.069325758            3 
 1124000    1.0655214   -3.9258913    920.60834   0.06825388  0.069310096            3 
 1125000    1.0722984   -3.9737619    920.48067  0.068183753  0.069294394            5 
 1126000    1.0731502   -3.9568292    923.81309  0.068369826  0.069278315            3 
 1127000    1.0738292   -3.9470036     920.3149  0.068050496   0.06926219            4 
 1128000    1.0686006   -3.9825239    917.14823  0.067756223   0.06924644            3 
 1129000    1.0451441   -3.9480626    922.11119  0.068062532  0.069230807            4 
 1130000    1.0694867   -3.9376347    923.06953  0.068072974   0.06921539            4 
 1131000    1.0750541   -3.9417394    927.64166  0.068349665  0.069199923            2 
 1132000    1.0584315    -3.958464    923.88156  0.068012482   0.06918454            3 
 1133000    1.0704483   -3.9723859    925.07957  0.068040569  0.069168875            2 
 1134000    1.0663704   -3.9631972    925.33418  0.067999279  0.069153751            2 
 1135000    1.0768549   -3.9223345    926.59592  0.068032006  0.069138456            1 
 1136000    1.0689102   -3.9567575    928.91223  0.068142036  0.069123096            2 
 1137000    1.0807435    -4.000325    922.48895  0.067611327  0.069108221            2 
 1138000    1.0594525    -3.969557    927.51879  0.067920239  0.069092512            7 
 1139000    1.0711404    -3.967293    925.97567  0.067747708   0.06907723            2 
 1140000    1.0876206   -3.9756904    928.42387  0.067867242  0.069061693            3 
 1141000    1.0713308   -3.9292461    930.73533   0.06797658  0.069046306            2 
 1142000    1.0629332   -3.9474612    932.62709    0.0680551  0.069031012            2 
 1143000    1.0760545   -3.9345778    930.80927  0.067863026  0.069014743            6 
 1144000    1.0444489   -3.9325387    931.95076  0.067886856  0.068998765            1 
 1145000    1.0713518     -3.95669    932.21252  0.067846617   0.06898357            4 
 1146000    1.0481283   -3.9549204    935.33564  0.068014517  0.068968457            6 
 1147000    1.0443031   -3.9593605    930.40204  0.067596777  0.068953251            4 
 1148000    1.0507041   -3.9581068    939.43573   0.06819365   0.06893778            3 
 1149000     1.074585   -3.9389792    936.63237  0.067930982  0.068923106            2 
 1150000    1.0849416   -3.9350008    935.99364  0.067825626   0.06890767            3 
 1151000    1.0664406    -3.954892     940.7436  0.068110599  0.068892366            2 
 1152000    1.0638251   -3.9561325     933.9627  0.067560959  0.068876903            5 
 1153000    1.0629378   -3.9529783    940.16129  0.067950368  0.068861953            3 
 1154000    1.0645008   -3.9737444    936.42453  0.067621644  0.068846843            2 
 1155000     1.061544   -3.9398815    944.18105  0.068122731  0.068831345            1 
 1156000    1.0781386   -3.9594988    941.13761  0.067844407  0.068816137            3 
 1157000    1.0828412   -3.9594775    943.27537  0.067939742   0.06880116            2 
 1158000    1.0621918   -3.9535962    940.34879  0.067670465   0.06878592            2 
 1159000    1.0606651   -4.0079761    939.54058  0.067553968   0.06877067            2 
 1160000    1.0633994   -3.9159739    947.93873  0.068099046  0.068755288            3 
 1161000     1.060065   -3.9177071    944.41547  0.067787501  0.068740446            1 
 1162000    1.0709342    -3.962913    947.16513  0.067926358  0.068725485            1 
 1163000    1.0759846   -3.9793269    945.60637   0.06775626  0.068710677            4 
 1164000    1.0407546   -3.9679566    946.32623  0.067749587  0.068696181            5 
 1165000    1.0714445   -3.9776163    944.66237  0.067572415  0.068681345            2 
 1166000    1.0703013   -3.9645287    942.86625  0.067386095   0.06866659            2 
 1167000    1.0735386   -3.9737785    949.69629  0.067816073  0.068652031            1 
 1168000    1.0878229   -3.9547975    949.97741  0.067778069   0.06863754            1 
 1169000    1.0741275    -3.953415    952.43273  0.067895119   0.06862283            2 
 1170000    1.0561189   -3.9733452    951.18203  0.067748008  0.068608198            2 
 1171000    1.0626742    -3.976626    949.81863  0.067593127  0.068593558            3 
 1172000    1.0637904   -3.9549067    951.12632  0.067628435  0.068579242            4 
 1173000    1.0689524   -3.9411214    950.84879  0.067551065  0.068564153            2 
 1174000    1.0628561   -3.9651684    952.42293  0.067605262  0.068549894            4 
 1175000    1.1041387   -3.9964978    952.99927  0.067588601  0.068534337            2 
 1176000    1.0582191   -3.9399563    953.12165  0.067539799  0.068519214            5 
 1177000    1.0597897   -3.9964537    955.30668   0.06763712  0.068504788            2 
 1178000    1.0515894   -3.9495323    955.82459   0.06761634  0.068490673            2 
 1179000    1.0535522   -3.9365445    957.71196  0.067692392  0.068476149            2 
 1180000    1.0581735     -3.94766    961.44112  0.067898384  0.068462088            3 
 1181000    1.0872791   -3.9588756    959.57968  0.067709545  0.068447957            2 
 1182000    1.0687183    -3.988576    952.29704  0.067138821  0.068433376            3 
 1183000    1.0393712   -3.9600657    958.18437  0.067496786  0.068418388            1 
 1184000    1.0784873   -3.9597253    959.27264  0.067516374  0.068403044            1 
 1185000    1.0498943   -3.9642158    959.47655  0.067473737  0.068388104            3 
 1186000    1.0711999   -3.9384968     958.8169  0.067370496  0.068373211            3 
 1187000    1.0429731   -3.9626581    962.46011   0.06756951  0.068358516            3 
 1188000    1.0607691   -3.9728091    957.45992  0.067161891   0.06834383            5 
 1189000    1.0516221   -3.9670038    959.71061  0.067263149  0.068328684            2 
 1190000    1.0746824   -3.9440965    962.99122   0.06743636  0.068313403            2 
 1191000    1.0695374   -3.9725202     963.4637  0.067412798  0.068298254            2 
 1192000    1.0518202   -3.9635061    961.92808  0.067248887  0.068283003            2 
 1193000    1.0552222   -3.9913699    961.28221  0.067147402  0.068267049            2 
 1194000     1.068209   -3.9643722    962.82533  0.067198864  0.068251182            4 
 1195000    1.0640553    -3.941301    964.47705  0.067257814  0.068235377            5 
 1196000    1.0715061   -3.9646516    963.03571  0.067101151  0.068219503            2 
 1197000    1.0530163   -3.9399085    965.44458  0.067212795  0.068204148            3 
 1198000    1.0457114   -3.9590555    964.28132  0.067075774  0.068188807            3 
 1199000    1.0689731   -3.9647119    966.50492  0.067174376  0.068173041            3 
 1200000    1.0530524    -3.974419    966.45471  0.067114911  0.068157812            3 
 1201000    1.0712612   -3.9630799    967.38441  0.067123537  0.068142817            3 
 1202000    1.0330738   -3.9518703    969.23591  0.067196056  0.068127619            3 
 1203000    1.0546268   -3.9593769    971.28906  0.067282423  0.068112295            3 
 1204000    1.0509083   -3.9830726    968.05184   0.06700248  0.068096903            3 
 1205000     1.053239    -3.975233    969.34806  0.067036518  0.068081289            2 
 1206000    1.0807357    -3.981251    970.21498  0.067040836  0.068066006            1 
 1207000     1.055887   -3.9670504    969.16688   0.06691293  0.068050591            1 
 1208000    1.0177586    -3.959131    972.19373  0.067066345  0.068035266            5 
 1209000     1.061632   -3.9748228    973.36891  0.067091874  0.068020215            2 
 1210000      1.03967    -3.985342    973.16874   0.06702264  0.068004697            4 
 1211000    1.0549538   -4.0007371    971.20179  0.066831943  0.067989256            3 
 1212000    1.0816509   -3.9719215    974.68676  0.067016417  0.067973805            2 
 1213000    1.0622095   -3.9837276    975.11122  0.066990328  0.067958548            3 
 1214000    1.0414443   -3.9669989    972.26722  0.066739925  0.067943801            2 
 1215000    1.0709177   -3.9659864    972.61324  0.066708727  0.067928562            2 
 1216000    1.0807607   -3.9894421    973.84744  0.066738448  0.067912944            4 
 1217000    1.0820175   -3.9425764    977.02986  0.066901524  0.067897429            2 
 1218000    1.0673901   -3.9517845    977.75204  0.066896007  0.067882502            2 
 1219000    1.0652325   -3.9900813    977.10045  0.066796586  0.067867404            8 
 1220000    1.0653034    -3.931457    978.71211   0.06685192  0.067852444            2 
 1221000    1.0432418   -4.0089445    975.43462  0.066573479  0.067836801            6 
 1222000    1.0354487   -3.9896347    976.70823  0.066605853  0.067821282            1 
 1223000    1.0763907   -3.9838956    981.20095  0.066857519  0.067806014            2 
 1224000    1.0542054   -3.9594606    981.80506  0.066844027  0.067790926            5 
 1225000    1.0597259   -3.9797043    982.93798  0.066866529    0.0677757            4 
 1226000     1.066141   -3.9938173    984.15879  0.066894969  0.067760739            2 
 1227000    1.0572695    -3.981454    981.04685  0.066629099  0.067744943            3 
 1228000    1.0298528    -3.992693    983.88754  0.066767613  0.067729741            3 
 1229000    1.0407101   -3.9503033    987.11392  0.066932053  0.067714616            1 
 1230000    1.0452538   -3.9811426    982.42282  0.066559812  0.067699519            2 
 1231000    1.0448465   -3.9706675    981.09074  0.066415566  0.067683994            6 
 1232000    1.0475933   -3.9434374    989.55199  0.066933982  0.067669053            8 
 1233000    1.0415972   -3.9965857    987.15258   0.06671753  0.067653652            2 
 1234000    1.0368346   -3.9855522     990.5366  0.066891991  0.067638392            1 
 1235000    1.0643921   -4.0066017    984.19692  0.066410049  0.067623115            2 
 1236000    1.0826334   -3.9599976    988.19864  0.066626122  0.067608496           11 
 1237000    1.0435387    -3.965379    991.82667  0.066816671  0.067593456            2 
 1238000     1.049253   -3.9899909    991.19312  0.066720054  0.067578524            1 
 1239000    1.0447023   -3.9854242    992.72094  0.066768963  0.067563611            2 
 1240000    1.0351465   -3.9627251    993.32006   0.06675538  0.067549076            2 
 1241000     1.049905   -3.9787916    993.09679  0.066686596  0.067534206            3 
 1242000    1.0582239   -3.9643048    996.92046  0.066889456  0.067519412            2 
 1243000    1.0335186   -3.9857729    997.06677  0.066845452  0.067504865            3 
 1244000    1.0481628   -3.9962683    990.56601  0.066356244  0.067490249            4 
 1245000    1.0561659   -3.9815306    994.90566  0.066593418  0.067475683            4 
 1246000    1.0542794   -3.9724154    995.06724  0.066550779  0.067461164            4 
 1247000    1.0479295   -3.9827254     998.8728  0.066751724  0.067446946            3 
 1248000    1.0523282   -3.9853469    1000.6909  0.066819637  0.067432761            2 
 1249000    1.0591723    -3.994382    1001.0454  0.066789793  0.067418895            2 
 1250000    1.0438513   -3.9723947     1001.003  0.066733532  0.067405162            3 
 1251000    1.0596723   -3.9589218    1003.0037  0.066813461  0.067391272            4 
 1252000    1.0577532   -3.9636407    1001.7914  0.066679407  0.067377708            4 
 1253000    1.0343575   -3.9967193    1006.9343  0.066968231  0.067363848            1 
 1254000    1.0400851    -3.976238    1005.1797  0.066798225  0.067350894            6 
 1255000    1.0652086   -3.9812102    1006.5073  0.066833156  0.067337773            1 
 1256000    1.0554057   -3.9763579    1006.8185  0.066800592  0.067324066            2 
 1257000    1.0426892   -3.9887786     1007.741  0.066808604  0.067310721            4 
 1258000    1.0255327    -3.988505    1006.0332  0.066642367  0.067297207            2 
 1259000    1.0428668   -3.9758609    1009.6083  0.066826072  0.067283735            6 
 1260000    1.0513262   -3.9809691    1008.0485  0.066669875  0.067270336            4 
 1261000    1.0697499    -3.935868    1010.9628  0.066809595  0.067257084            2 
 1262000    1.0273516   -3.9913838    1007.7598  0.066545152  0.067242998            2 
 1263000    1.0719674   -3.9866917      1010.08  0.066645553  0.067229167            2 
 1264000    1.0630994   -3.9342106    1011.2767   0.06667172  0.067215589            3 
 1265000    1.0399189   -3.9583312    1009.7464  0.066518211   0.06720254            5 
 1266000    1.0827159   -3.9927681    1010.7316  0.066530519  0.067189398            5 
 1267000    1.0301048   -3.9642343    1015.8868  0.066817074  0.067176126            2 
 1268000    1.0416108   -4.0050988    1011.8678  0.066500253  0.067162759            2 
 1269000    1.0643747   -4.0082142    1013.1848  0.066534329  0.067149597            3 
 1270000    1.0561048   -4.0072486    1013.4351  0.066498365  0.067136342            2 
 1271000    1.0449314   -4.0091658    1012.6501  0.066394577  0.067122776            2 
 1272000    1.0390213   -3.9874108    1016.4529  0.066591515   0.06710945            3 
 1273000    1.0570336   -3.9945903    1015.8483  0.066499626  0.067095651            2 
 1274000    1.0656395   -3.9693182    1019.0946  0.066659769    0.0670827            3 
 1275000      1.01914   -3.9631929    1023.3178  0.066883518  0.067069298            3 
 1276000    1.0459717   -3.9750577    1020.9625  0.066677282  0.067056401            1 
 1277000    1.0435709   -4.0043784    1021.0903  0.066633403  0.067043396            3 
 1278000    1.0370983   -3.9686857    1020.3461  0.066532737  0.067030555            4 
 1279000    1.0583149   -3.9706004    1020.9119  0.066517586  0.067017943            4 
 1280000    1.0482469   -4.0071054    1020.2753  0.066424171  0.067004814            3 
 1281000    1.0582479   -4.0051834    1022.0513  0.066487856  0.066991215            1 
 1282000    1.0578527   -4.0267465    1017.4352  0.066135936  0.066977555            2 
 1283000    1.0535678    -4.001199    1025.0568  0.066579423  0.066963635            6 
 1284000    1.0367051   -3.9744704     1022.005  0.066329502  0.066950256            3 
 1285000    1.0318394   -4.0100242    1024.4595  0.066437064  0.066937275            5 
 1286000     1.071783    -3.985918    1024.6954  0.066400684  0.066924609            4 
 1287000    1.0395987    -3.989561    1024.8103  0.066356533  0.066911268            3 
 1288000    1.0321745   -4.0036463    1022.9223  0.066182861  0.066897886            2 
 1289000     1.011744    -3.972004    1029.6347  0.066565468  0.066884866            2 
 1290000    1.0433729   -3.9725316    1030.7358  0.066585001  0.066871731            2 
 1291000    1.0472858   -3.9767681    1024.0963  0.066104848  0.066858201            4 
 1292000    1.0546682   -3.9967707    1025.5815   0.06614948   0.06684495            2 
 1293000     1.039624   -4.0114783    1029.9585  0.066380411  0.066831559            3 
 1294000     1.053004    -3.982392    1029.3925  0.066292664  0.066818193            3 
 1295000    1.0236893   -3.9878712     1027.211  0.066101094  0.066804576            5 
 1296000    1.0462998   -4.0045278    1029.2541  0.066181461  0.066790902            2 
 1297000     1.021725   -4.0046042     1033.214  0.066384864  0.066777332            3 
 1298000    1.0142085   -4.0216495    1030.4846  0.066158486    0.0667638            2 
 1299000    1.0406129   -4.0056824    1026.7809  0.065869958  0.066750089            4 
 1300000    1.0550543   -3.9730163    1029.9514  0.066022526  0.066736256            3 
 1301000    1.0258648   -3.9904923    1030.4826  0.066005801  0.066722186            4 
 1302000    1.0559039   -3.9836807    1031.5652  0.066024397  0.066708247            5 
 1303000    1.0442273   -4.0090674    1028.3102  0.065765556  0.066694223            2 
 1304000    1.0367742   -4.0114725    1030.6804  0.065866591  0.066680079            2 
 1305000     1.041384    -3.991068    1037.4668  0.066249475  0.066666087            3 
 1306000    1.0483108   -3.9970165    1036.5382  0.066139499  0.066651795            3 
 1307000     1.059447   -3.9922661    1037.0976  0.066124558  0.066638105            2 
 1308000    1.0530456   -3.9912932    1031.7521  0.065733441  0.066623752            3 
 1309000    1.0507353    -3.964888     1032.458  0.065728164  0.066609118            3 
 1310000    1.0250021   -3.9696125    1037.5866  0.066004235  0.066594993            2 
 1311000    1.0209021   -3.9677278    1039.1454  0.066052974   0.06658111            2 
 1312000    1.0585021    -3.982896    1036.0851   0.06580825  0.066567257            2 
 1313000    1.0414667   -3.9745817    1036.6535  0.065794206  0.066553232            2 
 1314000    1.0338057   -4.0265068    1040.8303  0.066009021  0.066538915            1 
 1315000    1.0650643   -3.9986956    1037.3934  0.065741026  0.066524302            9 
 1316000    1.0454079   -3.9730178    1041.9276  0.065978191  0.066510026            7 
 1317000    1.0543719   -4.0081673    1039.4244  0.065769704  0.066495531            4 
 1318000    1.0430598   -3.9964352    1038.1278  0.065637823  0.066481405            3 
 1319000    1.0540032   -4.0053515    1040.4838  0.065736909  0.066467469            2 
 1320000    1.0378692   -4.0031205    1039.8816  0.065649088  0.066453357            3 
 1321000     1.076764    -3.990846    1045.3659  0.065945363  0.066439468            2 
 1322000    1.0578599   -3.9520817    1048.4287  0.066088546  0.066426378            4 
 1323000     1.025567   -3.9978836    1043.8491  0.065750134  0.066412584            3 
 1324000    1.0352024   -4.0098146    1044.6862  0.065753161  0.066398668            3 
 1325000    1.0437514   -4.0268101    1046.5236  0.065819096  0.066384629            1 
 1326000    1.0381038   -3.9813557    1048.0725    0.0658668  0.066371229            5 
 1327000    1.0332389   -3.9976547    1046.0677  0.065691267  0.066357424            3 
 1328000     1.041532   -4.0070403    1048.6581  0.065804346   0.06634339            5 
 1329000    1.0643682   -3.9707146    1043.8903  0.065455877  0.066329276            3 
 1330000     1.027278   -3.9850217    1048.5061  0.065695874   0.06631542            2 
 1331000    1.0312619   -3.9864061    1046.9872  0.065551413  0.066301981            2 
 1332000    1.0193427   -4.0039877    1049.6759  0.065670411  0.066288367            1 
 1333000    1.0519743   -3.9896693    1050.6468  0.065681848  0.066274831            4 
 1334000    1.0405368   -3.9819258    1053.9162  0.065836842  0.066260638            7 
 1335000     1.030266   -4.0053932    1054.4473  0.065820681  0.066246854            4 
 1336000    1.0592364    -3.974145    1056.3574  0.065890555  0.066233377            2 
 1337000    1.0554296   -3.9880462    1053.6444  0.065672179  0.066220116            2 
 1338000     1.028634   -3.9810464    1052.4775  0.065550416  0.066206624            2 
 1339000    1.0677712   -3.9904893    1058.4468  0.065872964  0.066193003            1 
 1340000    1.0129771   -4.0076508    1054.6883  0.065590069  0.066179798            2 
 1341000    1.0278845   -4.0148202    1054.8106  0.065548754  0.066166008            1 
 1342000    1.0570174   -4.0164738    1051.7032  0.065306956  0.066152096            2 
 1343000    1.0461301   -3.9823347     1056.183  0.065536297    0.0661384            1 
 1344000    1.0381522   -3.9910844    1057.2418  0.065553186  0.066125162            3 
 1345000    1.0537478   -4.0065617    1059.4474  0.065641102  0.066111476            4 
 1346000    1.0515101   -3.9960865    1058.4135  0.065528322  0.066098033            2 
 1347000    1.0144894   -4.0046275    1060.8855  0.065632612  0.066084421            2 
 1348000    1.0344636   -4.0317402    1058.9584  0.065464788  0.066070924            4 
 1349000     1.049294   -4.0353821    1060.2022  0.065493091  0.066057045            4 
 1350000    1.0229607   -3.9976839    1058.3753  0.065331807  0.066043192            2 
 1351000    1.0275004   -3.9753374    1064.3283  0.065650646  0.066030086            3 
 1352000    1.0237806   -3.9901942    1062.6523  0.065498784  0.066016609            3 
 1353000    1.0575085   -3.9951537    1059.2454   0.06524054   0.06600268            3 
 1354000    1.0007472   -4.0018745    1059.7182  0.065221456  0.065988944            5 
 1355000    1.0515792    -4.038435    1062.4306  0.065340136  0.065975517            1 
 1356000    1.0483725   -4.0180486    1063.4661  0.065355584  0.065961855            8 
 1357000    1.0359128   -4.0049826    1066.1043  0.065469437  0.065948074            2 
 1358000    1.0190964   -4.0061615    1063.4437  0.065257959  0.065934007            1 
 1359000    1.0181007   -4.0216851    1064.4015   0.06526867  0.065919815            3 
 1360000    1.0121364   -4.0140186    1064.8733   0.06524959  0.065905769            2 
 1361000    1.0417351   -3.9950419    1064.4477   0.06517559  0.065891743            5 
 1362000    1.0142445    -4.007063    1066.0767  0.065227404  0.065878139            2 
 1363000    1.0387553   -4.0314591    1065.8409  0.065165135  0.065863765            3 
 1364000    1.0407996   -4.0112312    1068.4748  0.065278272  0.065849741            5 
 1365000    1.0373165   -4.0097165    1067.1903  0.065152035   0.06583589            5 
 1366000    1.0524224   -4.0070713    1070.6574   0.06531585  0.065821894            2 
 1367000    1.0252236   -4.0336166    1064.4995  0.064892679  0.065807942            1 
 1368000    1.0421771    -4.025003    1070.7119  0.065223681  0.065793683            2 
 1369000    1.0310889   -3.9825088    1070.7346  0.065177415  0.065779454            2 
 1370000    1.0257941   -4.0237824    1069.0033  0.065024534  0.065765657            2 
 1371000    1.0444347   -3.9947395    1073.0325  0.065222011  0.065751888            3 
 1372000    1.0239433   -4.0163102     1073.884  0.065226188  0.065738444            3 
 1373000    1.0300289   -3.9735078    1076.2006  0.065319288  0.065725103            4 
 1374000    1.0207204   -3.9979618    1075.5227  0.065230634  0.065711382            2 
 1375000    1.0334601   -4.0239372    1073.0489  0.065033264  0.065697599            2 
 1376000    1.0253467   -3.9937542    1075.4324  0.065130351  0.065684227            1 
 1377000    1.0520172   -4.0135391    1072.3319  0.064895418  0.065670591            1 
 1378000    1.0455865   -4.0211747    1075.6453  0.065048698  0.065657016            3 
 1379000    1.0249231    -4.059072    1074.3396  0.064922624  0.065644076            3 
 1380000    1.0192022   -4.0104173     1075.395  0.064939309  0.065630674            2 
 1381000    1.0564824   -4.0247805    1081.9677  0.065288904  0.065617491            2 
 1382000    1.0411068   -4.0262509    1077.8959  0.064996132  0.065603747            3 
 1383000    1.0563533   -3.9925839    1079.1883   0.06502701  0.065589995            1 
 1384000    1.0224307   -4.0296691    1079.0159  0.064969646  0.065576288            5 
 1385000    1.0274181   -3.9809424     1082.918  0.065157522  0.065562421            4 
 1386000    1.0222816   -4.0164219    1077.6977   0.06479664   0.06554869            3 
 1387000     1.028577   -4.0001966    1075.9845  0.064646991  0.065534838            3 
 1388000    1.0388556   -4.0057018    1083.5423  0.065054171  0.065520713            2 
 1389000    1.0036725    -4.005001    1079.5911  0.064770287  0.065506234            2 
 1390000    1.0511972   -4.0205465    1081.9438  0.064864736  0.065491904            4 
 1391000    1.0360932   -4.0380078    1085.0906  0.065006626   0.06547761            3 
 1392000    1.0180256    -4.023446    1080.9307  0.064710892  0.065463825            5 
 1393000    1.0400192    -4.027495    1081.2816  0.064685428  0.065449734            4 
 1394000    1.0252978   -3.9785186    1087.1247  0.064988324  0.065435933            4 
 1395000    1.0575255   -4.0107901    1083.5727  0.064729552  0.065421934            3 
 1396000    1.0208925   -4.0372279    1082.7703  0.064635284  0.065408382            3 
 1397000    1.0415435   -4.0365776    1086.7995  0.064829368  0.065394946            3 
 1398000    1.0449782   -4.0296936    1086.8225  0.064784365  0.065381203            1 
 1399000    1.0076156   -4.0095805    1094.1356  0.065173671  0.065367917            2 
 1400000    1.0337823    -4.002809    1090.2518  0.064895938  0.065355001            2 
 1401000    1.0132258   -4.0030093    1089.3525  0.064796127  0.065341417            3 
 1402000    1.0473207   -4.0043165    1092.1327  0.064915165  0.065328291            2 
 1403000    1.0267439   -4.0260318    1091.0716  0.064805866  0.065315013            3 
 1404000    1.0460662   -4.0093004     1088.575  0.064611524  0.065301584            1 
 1405000    1.0029891   -4.0054987    1087.6087  0.064508228  0.065287996            2 
 1406000    1.0506377   -4.0121793    1092.6445  0.064760817  0.065274674            2 
 1407000     1.061419   -4.0410533    1094.4462  0.064821498  0.065261097            4 
 1408000    1.0115501   -4.0238576    1088.6784  0.064434094   0.06524739            2 
 1409000    1.0391179   -4.0109104    1094.9831  0.064761243  0.065233727            2 
 1410000    1.0617728   -4.0348431    1093.7328  0.064641416  0.065220291            4 
 1411000    1.0524801   -4.0377731     1095.788  0.064716988  0.065206804            2 
 1412000     1.018381   -4.0432307    1096.5566  0.064716511  0.065193279            3 
 1413000    1.0202461   -4.0262067    1099.8618  0.064865638  0.065179913            1 
 1414000     1.027481    -4.005916    1101.0363  0.064888983  0.065166721            3 
 1415000    1.0102806   -3.9965818    1104.0621  0.065021327  0.065153244            2 
 1416000    1.0072778   -4.0415138    1100.5861   0.06477084  0.065139789            1 
 1417000   0.99881759   -4.0232861    1100.3806  0.064713043  0.065126567            2 
 1418000    1.0516093   -4.0166989     1104.504  0.064909734  0.065113595            4 
 1419000    1.0475099   -3.9928572    1102.9586   0.06477323  0.065100485            3 
 1420000    1.0281774   -4.0442515    1103.1849  0.064740898  0.065087144            2 
 1421000    1.0005122   -4.0338896    1103.9462  0.064739985   0.06507407            6 
 1422000    1.0552193   -4.0585044    1102.1405  0.064588639  0.065060425            5 
 1423000    1.0150151   -3.9994417    1105.5152  0.064740878  0.065047328            1 
 1424000    1.0220589   -4.0551406    1104.7642  0.064651463  0.065034279            5 
 1425000    1.0097256   -4.0480626    1103.8674   0.06455365  0.065020898            3 
 1426000    1.0102779   -4.0528775    1104.2702  0.064531916   0.06500776            3 
 1427000    1.0377397   -4.0256792    1106.0287   0.06458939  0.064995035            2 
 1428000    1.0461162   -4.0078047    1108.9496   0.06471461  0.064982011            2 
 1429000    1.0388214   -4.0458041    1105.5313  0.064469983  0.064969119            2 
 1430000    1.0232404   -3.9966151    1112.1847  0.064812626  0.064956309            3 
 1431000    1.0202218   -4.0342408    1108.4808  0.064551644  0.064943505            4 
 1432000    1.0353953   -4.0193536    1113.0764     0.064774  0.064930707            2 
 1433000    1.0020229   -4.0413085    1109.0299  0.064493483  0.064918021            5 
 1434000    1.0453162   -4.0553467    1109.7547  0.064490627  0.064904982            3 
 1435000    1.0096551   -3.9848045    1112.4757  0.064603697  0.064892414            2 
 1436000    1.0179749   -4.0515341    1107.6676  0.064279688   0.06487919            4 
 1437000   0.99615066    -4.025868    1110.1619  0.064379607  0.064866359            4 
 1438000    1.0237208   -4.0406918    1110.4906  0.064353882  0.064853404            3 
 1439000    1.0533515   -4.0208533    1108.9785  0.064221593  0.064840158            2 
 1440000     1.027288   -4.0128588    1115.1201  0.064532415  0.064827042            3 
 1441000    1.0075568   -4.0209576    1114.1774  0.064433116  0.064813737            4 
 1442000    1.0177909   -4.0387496    1114.3305  0.064397277  0.064800399            6 
 1443000    1.0119409   -4.0374196    1114.2684  0.064349064  0.064787061            1 
 1444000    1.0166629    -4.041068    1112.4712  0.064200787  0.064773919            2 
 1445000    1.0233518   -4.0185827    1117.1858  0.064428247  0.064761026            3 
 1446000    1.0175095   -4.0135515     1117.245  0.064387102  0.064748223            6 
 1447000    1.0058555   -4.0397981    1119.5533  0.064475543  0.064734826            5 
 1448000    1.0263044    -4.025583    1116.0815  0.064231207  0.064721733            3 
 1449000    1.0250395   -4.0246537    1117.2359   0.06425327   0.06470877            3 
 1450000    1.0033746   -4.0512437     1117.207  0.064207301  0.064695528            2 
 1451000    0.9865992     -4.03631    1119.6592  0.064303883  0.064682688            6 
 1452000    1.0219256   -4.0115106    1124.1473  0.064517177  0.064669931            4 
 1453000    1.0273733   -4.0488474    1122.2578  0.064364409  0.064656968            8 
 1454000    1.0305464   -4.0327325     1121.607  0.064282842  0.064644179            3 
 1455000    1.0150028   -4.0433948    1122.4363  0.064286157  0.064631815            1 
 1456000     1.012676    -4.017513    1120.3057  0.064120062  0.064619154            3 
 1457000   0.99850537   -4.0634351    1119.7047  0.064041678  0.064606386            2 
 1458000    1.0375651   -4.0001168      1120.14  0.064022636  0.064593161            2 
 1459000    1.0341311   -3.9955026     1125.216  0.064268677  0.064580071            3 
 1460000    1.0042807    -4.026828    1123.1726  0.064108028   0.06456664            4 
 1461000    1.0123052   -4.0556758    1123.9214  0.064106859    0.0645535            4 
 1462000    1.0165198   -4.0563639    1119.4426  0.063807717  0.064539571            2 
 1463000    1.0278649   -4.0346685    1120.9043  0.063847363  0.064525657            1 
 1464000     1.014654   -4.0257811    1121.1113  0.063815535  0.064512008            1 
 1465000    1.0231895   -4.0217521    1125.2847  0.064009369  0.064498482            4 
 1466000    1.0291912   -4.0106971    1129.5459   0.06420793  0.064485048            1 
 1467000    1.0414046   -4.0371179    1123.0083  0.063792794   0.06447127            1 
 1468000    1.0239066   -4.0502536    1126.0446  0.063921698  0.064457792            2 
 1469000   0.99941111    -4.030657    1128.5868  0.064022396   0.06444453            2 
 1470000    1.0136684   -4.0320017    1126.6039  0.063866435  0.064431154            2 
 1471000    1.0173084   -4.0656537    1125.5508  0.063763359  0.064417839            3 
 1472000    1.0028627   -4.0275873    1130.1802  0.063982123  0.064404229            5 
 1473000    1.0121722   -4.0331256    1132.1591  0.064050641  0.064391028            2 
 1474000    1.0351716   -4.0479645    1131.3175  0.063959603  0.064377969            2 
 1475000    1.0016485   -4.0439933    1131.4732  0.063925041  0.064364946            4 
 1476000    1.0049985   -4.0492921    1129.4063  0.063765035   0.06435162            3 
 1477000    1.0017143   -3.9967908    1136.1907  0.064104646  0.064337969            1 
 1478000    1.0205436   -4.0267727    1135.2506  0.064008263  0.064324753            3 
 1479000   0.99230892   -4.0379988    1135.4108  0.063974013  0.064311463            4 
 1480000    1.0034791   -4.0578786    1133.0773  0.063799395  0.064298165            4 
 1481000    1.0110171   -4.0458031    1131.6778  0.063677572  0.064284939            2 
 1482000    1.0054684   -4.0253175    1135.7195  0.063861869  0.064271436            3 
 1483000    1.0159095    -4.044968    1135.6823  0.063816717  0.064258135            3 
 1484000    1.0058358   -4.0391487    1139.0468  0.063962647  0.064244769            3 
 1485000    1.0039469   -4.0331567    1140.5663  0.064004845  0.064231971            4 
 1486000    1.0117099   -4.0506708     1138.313  0.063835411  0.064218697            3 
 1487000    1.0120999   -4.0044964    1144.3598  0.064131351  0.064205818            6 
 1488000    1.0133647   -4.0392247    1139.6993  0.063827248  0.064193156            4 
 1489000    1.0118797   -4.0374051     1143.276  0.063984553  0.064180239            4 
 1490000    1.0089542   -4.0477907    1138.8029  0.063691436  0.064167303            2 
 1491000    1.0193119   -4.0345023    1142.1299  0.063834668  0.064154599            2 
 1492000    1.0067973   -4.0606003    1142.7105  0.063824315  0.064142031            3 
 1493000    1.0016631   -4.0403914    1142.1825  0.063752095  0.064129006            6 
 1494000    1.0217149   -4.0068957    1145.2399  0.063879961  0.064116072            2 
 1495000    1.0147258    -4.043314    1140.6519  0.063581488   0.06410322            7 
 1496000    1.0194072   -4.0257882    1145.6827  0.063819223  0.064090228            2 
 1497000   0.99350576   -4.0463284    1141.0106  0.063516512  0.064077243            3 
 1498000    1.0097412   -4.0255335    1148.0484  0.063865622  0.064064577            2 
 1499000    1.0105234    -4.049333     1146.837  0.063755669  0.064051732            2 
 1500000    1.0128426   -4.0411242    1147.4464   0.06374702  0.064038822            6 
 1501000    1.0077296   -4.0341836    1146.9879  0.063679098  0.064026008            2 
 1502000    1.0210359    -4.018741    1151.9502  0.063912016  0.064013053            4 
 1503000    1.0187281   -4.0092562    1151.5884  0.063849434  0.064000262            5 
 1504000    1.0322779   -4.0454311    1149.7938  0.063707545  0.063987782            4 
 1505000    1.0231968   -4.0432919    1148.7845  0.063609328  0.063974847            4 
 1506000    1.0108298   -3.9911155    1151.3201  0.063707396   0.06396218            4 
 1507000    1.0076986   -4.0713069    1151.9931  0.063702337   0.06394916            3 
 1508000    1.0205195   -4.0498181    1146.2292  0.063341576  0.063935767            2 
 1509000    1.0209152   -4.0329388    1152.9879  0.063672848  0.063922726            2 
 1510000    1.0190045   -4.0510661    1151.0297   0.06352261  0.063909414            2 
 1511000    1.0130244   -4.0543564    1152.2578  0.063548302  0.063896347            2 
 1512000   0.99887719   -4.0314429    1152.5174  0.063520581  0.063883256            5 
 1513000   0.99048771   -4.0384805    1154.8338  0.063606181  0.063870459            4 
 1514000    1.0080671   -4.0278947    1159.5591  0.063824257  0.063857758            3 
 1515000     1.011777   -4.0554577     1156.522  0.063615072  0.063845079            2 
 1516000    1.0254112   -4.0660856    1153.2385  0.063392619  0.063832757            1 
 1517000    1.0183214    -4.052225    1155.2228  0.063459831  0.063820832            2 
 1518000    1.0033499   -4.0560271     1155.451  0.063430557  0.063808306            4 
 1519000    1.0181408   -4.0517009    1161.8543  0.063740085  0.063795847            4 
 1520000    1.0189266   -4.0610157    1159.1604   0.06355046  0.063783543            3 
 1521000    1.0170215   -4.0196195    1160.4031  0.063576766  0.063771456            3 
 1522000    1.0038015   -4.0450783    1159.7333   0.06349832  0.063759245            3 
 1523000    1.0265836   -4.0335285    1164.4281  0.063713511  0.063746522            2 
 1524000   0.97322773    -4.064171     1161.092  0.063489282  0.063734082            3 
 1525000    1.0323711   -4.0678681    1157.6458  0.063259332  0.063721051            5 
 1526000    1.0282912   -4.0344901    1161.8262  0.063446167  0.063708225            2 
 1527000    1.0433727   -4.0553627    1162.9212  0.063464377   0.06369593            5 
 1528000    1.0098643   -4.0648013    1162.6415  0.063407586  0.063683427            3 
 1529000   0.99670241   -4.0546607    1160.6457  0.063257339  0.063670501            3 
 1530000    1.0081591    -4.015755    1164.1667  0.063407772  0.063657806            3 
 1531000     1.008677   -4.0502719    1162.4361   0.06327216  0.063644735            2 
 1532000      1.00439   -4.0455715     1162.579  0.063238632  0.063631603            5 
 1533000    1.0284859   -4.0324651    1163.7057  0.063258624   0.06361864            2 
 1534000      1.01966   -4.0195462    1167.8426  0.063442122  0.063605714            2 
 1535000   0.99158536    -4.037624     1165.414  0.063268945  0.063593361            2 
 1536000    1.0156287   -4.0373861    1169.3168  0.063439497   0.06358058            2 
 1537000   0.99388497   -4.0240765    1170.9217  0.063485238  0.063568048            7 
 1538000    1.0256906   -4.0659785    1170.9905  0.063447688  0.063555483            1 
 1539000    1.0139061   -4.0575804    1170.1072  0.063358631  0.063543109            3 
 1540000    1.0030624   -4.0439618    1170.8127  0.063355665  0.063530575            3 
 1541000    1.0094782   -4.0344125    1171.6707  0.063360952  0.063518196            2 
 1542000    1.0033386   -4.0661331    1168.0164  0.063122375  0.063505492            4 
 1543000    1.0208552      -4.0657    1169.5017  0.063161681  0.063492854            5 
 1544000    1.0022654   -4.0510307    1172.7535  0.063296284  0.063480251            2 
 1545000    1.0180259   -4.0664593     1171.753  0.063201347  0.063467991            2 
 1546000    1.0187705   -4.0773798    1171.8647   0.06316649  0.063455224            2 
 1547000   0.99837176   -4.0593217    1175.4217  0.063317263  0.063442505            2 
 1548000   0.99844813   -4.0537622    1172.4993  0.063119041  0.063429819            1 
 1549000    1.0085153   -4.0608057    1176.6144  0.063299678  0.063417109            3 
 1550000   0.99408596   -4.0762703     1173.019  0.063065539  0.063404576            4 
 1551000    1.0074855    -4.066128    1179.0176  0.063347171  0.063391927            5 
 1552000    1.0040268   -4.0261839    1178.4628  0.063276568  0.063379414            2 
 1553000   0.99754184   -4.0603572    1179.5528   0.06329431  0.063366956            5 
 1554000    1.0041148   -4.0533862    1176.6611  0.063098517  0.063354929            2 
 1555000    0.9922535   -4.0605272    1178.4868  0.063155775  0.063342309            2 
 1556000    1.0053954   -4.0484255     1179.212  0.063154028  0.063329899            4 
 1557000    1.0123486   -4.0597557    1182.5833  0.063293902  0.063317623            1 
 1558000    1.0211205   -4.0109954    1185.1298  0.063389485  0.063305446            4 
 1559000   0.99980195   -4.0690327     1174.231  0.062766252   0.06329319            1 
 1560000    1.0169867   -4.0444028    1185.9867   0.06335399  0.063281138            1 
 1561000    1.0029888   -4.0843965    1180.3923  0.063014752  0.063268614            2 
 1562000    1.0051538   -4.0858022    1181.7794  0.063048409  0.063256312            2 
 1563000    1.0040849   -4.0715012    1182.5767   0.06305058  0.063243852            4 
 1564000   0.99906983   -4.0342885    1188.5352  0.063327751  0.063231516            3 
 1565000    1.0083984   -4.0723009    1182.6366  0.062973196  0.063218961            2 
 1566000    0.9974064   -4.0209361    1184.4058  0.063027131  0.063206487            3 
 1567000    1.0070388   -4.0478681    1188.9026  0.063226047   0.06319398            3 
 1568000    1.0059354   -4.0720758    1187.8622  0.063130431  0.063181829            3 
 1569000   0.97826937   -4.0936995    1186.8211  0.063034902  0.063169444            4 
 1570000   0.98931343   -4.0525105    1185.8579  0.062943628  0.063157176           10 
 1571000   0.99332319    -4.070446    1188.6268  0.063050435  0.063144928            2 
 1572000   0.99410977   -4.0608141    1189.5955  0.063061678  0.063132735            3 
 1573000    0.9888434   -4.0827558    1188.8493  0.062982057  0.063120262            2 
 1574000    0.9920093   -4.0390867      1190.84  0.063047437    0.0631083            3 
 1575000    1.0160425   -4.0551285     1192.102  0.063074181   0.06309609            4 
 1576000   0.97459326    -4.061535    1186.1386  0.062718832  0.063083876            7 
 1577000   0.99096005   -4.0676396    1188.1132  0.062783409  0.063071683            3 
 1578000    1.0116287   -4.0449326    1188.9374  0.062787144  0.063059087            2 
 1579000    1.0063362   -4.0634152    1188.8603  0.062743313  0.063046338            4 
 1580000    1.0176601   -4.0586911    1194.6255  0.063007674  0.063033642            4 
 1581000   0.99147648   -4.0576052    1191.0194  0.062777747  0.063020942            3 
 1582000   0.95731914   -4.0836052    1193.4336  0.062865235  0.063008453            8 
 1583000   0.99043729   -4.0650877    1193.2702  0.062816917  0.062995877            5 
 1584000   0.99679151    -4.079452    1194.2547  0.062829059   0.06298325            2 
 1585000    1.0115625   -4.0582529    1195.6264  0.062861535  0.062971164            2 
 1586000    1.0294248   -4.0400493    1195.9558  0.062839208  0.062958582            4 
 1587000     1.001853   -4.0792027      1195.02  0.062750474  0.062945799            3 
 1588000    1.0050792   -4.0905798     1193.852  0.062649664  0.062933199            2 
 1589000   0.99741421   -4.1009394    1191.5511  0.062489569  0.062920357            3 
 1590000   0.98214683    -4.058236    1200.6914  0.062929318  0.062907562            3 
 1591000    0.9827889   -4.0912229    1191.7971  0.062423898   0.06289484            2 
 1592000   0.98367496   -4.0467974    1199.0551  0.062764609  0.062882266            2 
 1593000    1.0089379   -4.0427699    1198.4173  0.062691842  0.062869914            4 
 1594000   0.99435382   -4.0765677    1194.7355  0.062460032  0.062857487            4 
 1595000   0.99060039   -4.0265881    1203.4513  0.062876241  0.062845179            3 
 1596000   0.97829524   -4.0135861    1203.9297  0.062861829   0.06283291            4 
 1597000    1.0090924   -4.0416116    1199.9046  0.062612429  0.062820787            2 
 1598000    1.0091184   -4.0488257    1199.5905  0.062556867  0.062808035            1 
 1599000    1.0041804   -4.0856734    1201.1275  0.062597846  0.062795608            4 
 1600000   0.98925725   -4.0808964     1202.573   0.06263401  0.062782839            3 
 1601000   0.98738847    -4.097688     1204.224  0.062680824  0.062770345            1 
 1602000    1.0001973   -4.0650018    1204.9636  0.062680171  0.062757776            1 
 1603000    1.0000014   -4.0631298    1202.9948  0.062538717  0.062745399            7 
 1604000   0.99255258   -4.0739532    1200.9922   0.06239569  0.062733068            2 
 1605000    1.0031898   -4.0776445    1207.9844  0.062719856  0.062720608            4 
 1606000   0.99334759   -4.0948322    1203.3973  0.062442782  0.062708204            4 
 1607000   0.99463019   -4.0875928    1208.6668  0.062677182  0.062695991            4 
 1608000   0.99485279   -4.0851033    1205.0369  0.062450091  0.062683663            2 
 1609000    1.0065835    -4.036029    1209.0886  0.062621123  0.062671483            5 
 1610000    1.0072934   -4.0536226    1209.8292  0.062620558  0.062659677            2 
 1611000    1.0011356   -4.1089235    1207.8382  0.062478697  0.062648113            4 
 1612000    1.0040028   -4.0871816    1210.3085  0.062567646  0.062636199            3 
 1613000    0.9892691   -4.0581846    1214.5741  0.062749228  0.062624589            2 
 1614000    1.0149984    -4.099888    1212.3374  0.062594866  0.062612874            2 
 1615000   0.99029729   -4.0411612    1216.3036  0.062760763  0.062601483            5 
 1616000   0.99088227   -4.0554813    1214.0917  0.062607862   0.06259025            1 
 1617000   0.98496977   -4.0633758    1218.7519  0.062809314  0.062579033            3 
 1618000    1.0019588   -4.0624519    1216.9788  0.062679173  0.062567573            4 
 1619000    1.0025818   -4.0584455    1218.0488  0.062695534  0.062555917            2 
 1620000    1.0237936   -4.0837207    1219.7592  0.062744813  0.062544638            5 
 1621000   0.99562229    -4.060351    1219.1987  0.062677292  0.062533136            3 
 1622000   0.97438669   -4.0672941    1214.6803  0.062406508  0.062521829            4 
 1623000   0.96372949   -4.0640661    1221.8532  0.062736353  0.062510379            3 
 1624000   0.97492407   -4.0639513    1218.3231  0.062516578  0.062499219            5 
 1625000   0.98179166   -4.0663512    1225.1429  0.062827839  0.062487955            3 
 1626000   0.98808781   -4.0800158     1221.895  0.062622746  0.062476676            2 
 1627000   0.99316972   -4.0625408    1225.9129  0.062790049   0.06246558            3 
 1628000   0.97630295   -4.0924105    1224.9373   0.06270154  0.062454381            3 
 1629000   0.98579712   -4.0602106    1226.9886  0.062767987  0.062443197            3 
 1630000    0.9911669   -4.0665545    1227.0711  0.062733696  0.062431989            4 
 1631000   0.96592121   -4.0917769    1223.9142  0.062533938  0.062420795            2 
 1632000   0.99947593   -4.0610343    1225.6635  0.062584941  0.062409256            4 
 1633000    1.0052976   -4.1219213    1221.8007  0.062349492  0.062397665            9 
 1634000   0.99106972   -4.0868249    1224.0548  0.062426295  0.062385991            2 
 1635000   0.99608208   -4.0783786    1223.8098  0.062375628  0.062374392            2 
 1636000    1.0024556   -4.0648245     1224.279    0.0623614  0.062362631            3 
 1637000   0.98477305   -4.0940778    1230.1404  0.062621684   0.06235121            2 
 1638000   0.96956427   -4.0917192    1229.1136  0.062531219  0.062339975            4 
 1639000   0.99578649   -4.0725526    1229.9115  0.062533631  0.062328604            3 
 1640000   0.98986385   -4.0773152    1227.6022  0.062378162  0.062317417            3 
 1641000   0.98874776   -4.0800293     1228.545  0.062388026  0.062306316            4 
 1642000   0.99555405   -4.0903413    1230.0707  0.062427463  0.062294794            4 
 1643000   0.99693313   -4.0970273    1229.3044  0.062350599  0.062283335            3 
 1644000   0.98141639   -4.1001206    1229.1318  0.062303921  0.062272009            4 
 1645000   0.99338151   -4.0675259    1234.1195  0.062518718  0.062260703            3 
 1646000   0.96636637   -4.0944604    1232.1943  0.062383267  0.062249332            2 
 1647000    0.9937254   -4.1088119    1230.2254  0.062245772  0.062237883            4 
 1648000   0.96375412   -4.0783223    1233.3813  0.062367582  0.062226797            3 
 1649000   0.97465539    -4.090575    1234.1668  0.062369458  0.062215509            3 
 1650000   0.99183784   -4.0754765    1233.3185  0.062288813  0.062204114            4 
 1651000    1.0061924   -4.0878551    1234.7087  0.062321257  0.062193164            5 
 1652000   0.99098465   -4.0956934    1238.0748   0.06245333  0.062181941            4 
 1653000    1.0132258   -4.0699806    1235.4537  0.062283408  0.062170653            3 
 1654000    1.0124775   -4.0824658    1237.2965  0.062338598  0.062159475            2 
 1655000   0.99148795   -4.1138286     1236.518  0.062261734  0.062148453            3 
 1656000   0.99037629   -4.0557837    1237.5153  0.062274323  0.062137334            2 
 1657000   0.97952531   -4.0952464    1238.0669  0.062264477  0.062126449            3 
 1658000    1.0013566   -4.1009062     1235.446  0.062095195  0.062115223            3 
 1659000   0.98525494   -4.0860524    1241.0171  0.062337609  0.062103946            2 
 1660000   0.98447771   -4.1021102    1239.6275  0.062230297  0.062092709            3 
 1661000   0.99165574   -4.0922752    1237.2365  0.062072872  0.062081364            3 
 1662000   0.98439984   -4.0621432    1240.8532  0.062216868  0.062070341            3 
 1663000   0.99154273   -4.0707424    1247.1746  0.062496224  0.062059562            2 
 1664000   0.99662949   -4.0561764    1244.2323  0.062311314   0.06204887            9 
 1665000    1.0037239    -4.080436    1243.1499  0.062219717  0.062038128            3 
 1666000    1.0027649   -4.0749402    1243.8222  0.062215998  0.062027427            3 
 1667000    1.0042237   -4.1093547    1248.2089  0.062397967  0.062016885            5 
 1668000   0.98551343   -4.0937804    1244.4359  0.062172057   0.06200641            4 
 1669000   0.98457927   -4.0906538    1247.6869  0.062297128  0.061995604            5 
 1670000   0.98349823   -4.1155487    1246.8535  0.062218239  0.061984974            2 
 1671000   0.95267876   -4.0715904    1249.7269  0.062324303  0.061974213            2 
 1672000   0.98000089   -4.0811173    1247.3269  0.062167412  0.061964051            3 
 1673000   0.97958149   -4.0640361    1251.4945  0.062337839  0.061953414            3 
 1674000   0.99065253   -4.0611894    1253.8192  0.062416331  0.061942654            4 
 1675000    1.0044126   -4.1219632    1247.9219  0.062085665  0.061932014            2 
 1676000   0.97508075   -4.0886867    1253.0369  0.062302949  0.061920994            4 
 1677000   0.95629286   -4.0980134    1252.3495  0.062231638  0.061910157            6 
 1678000   0.98153534   -4.0917245    1254.7866  0.062315582  0.061899425            2 
 1679000    0.9748674   -4.1060117    1255.7114  0.062324369  0.061888912            5 
 1680000   0.96366916   -4.0838534    1256.1163  0.062307359  0.061878537            3 
 1681000   0.95567868   -4.0696788    1258.2973   0.06237841  0.061868107            2 
 1682000    1.0016207   -4.1023953    1249.9509  0.061927808  0.061857517            7 
 1683000   0.98794996   -4.0899587    1252.9523  0.062039626  0.061846914            3 
 1684000   0.96524765   -4.0939209    1252.7828  0.061994398  0.061836358            3 
 1685000   0.99392173   -4.0961763    1260.8166  0.062354924  0.061825736            4 
 1686000   0.99087788   -4.0884191     1258.062  0.062181789  0.061815271            2 
 1687000   0.99875668   -4.0512604    1262.3394  0.062356223   0.06180489            3 
 1688000    0.9825331   -4.1191413    1252.3282  0.061825047  0.061794169            3 
 1689000   0.98760115   -4.0654317    1257.6367  0.062050361  0.061783247            2 
 1690000   0.97666719   -4.1092477    1257.8133  0.062022353  0.061772453            3 
 1691000   0.97725101   -4.0956293    1257.9739  0.061993587  0.061761883            5 
 1692000   0.98723098   -4.1040886    1260.7766  0.062094986  0.061751191            4 
 1693000   0.99521867   -4.0863326    1265.5904  0.062295255  0.061740713            4 
 1694000   0.98439755   -4.0623553    1268.4821  0.062400731  0.061730442            5 
 1695000     0.974213   -4.0809191    1265.5516  0.062219841  0.061720222            4 
 1696000   0.97536852   -4.0953112    1264.3684  0.062125018  0.061710178            1 
 1697000   0.96505959   -4.0733645    1261.9267  0.061968506  0.061699563            2 
 1698000   0.96926938   -4.1283123    1265.6877  0.062116595  0.061689466            3 
 1699000   0.97966853   -4.0944445    1265.3771  0.062064797    0.0616793            4 
 1700000    1.0000997   -4.0857337    1266.6746  0.062091893  0.061669191            3 
 1701000    1.0049963   -4.1024579    1266.9662  0.062069674  0.061659099            4 
 1702000   0.97674336   -4.1022787    1266.0414  0.061987925  0.061649102            3 
 1703000   0.97987284   -4.1070245    1263.5973   0.06183193  0.061639137            2 
 1704000   0.96873681   -4.1059011    1263.4796  0.061789886  0.061628882            4 
 1705000   0.98944968   -4.1133306    1270.1522  0.062079773  0.061618561            3 
 1706000    1.0025692   -4.1114314    1268.1191  0.061944076  0.061608417            3 
 1707000   0.95305258   -4.1081005    1271.9537  0.062094987   0.06159839            5 
 1708000   0.95982797   -4.0795388    1272.4532  0.062083003  0.061588458            2 
 1709000   0.99545484   -4.0793743    1272.7988  0.062063524  0.061578518            5 
 1710000   0.97640586   -4.1241381     1267.451  0.061766619  0.061568562            4 
 1711000   0.99142657   -4.1026446    1270.1157  0.061860301  0.061558646            2 
 1712000   0.95369677   -4.1085136    1270.6763  0.061851456  0.061548694            4 
 1713000   0.99868341   -4.0626818    1280.1282  0.062275159   0.06153876            4 
 1714000   0.98565092   -4.1259114    1271.2901  0.061809128  0.061528563            8 
 1715000   0.97881806   -4.0692405    1277.7945  0.062089138  0.061518424            2 
 1716000   0.96360587   -4.1059594    1273.9802  0.061867727  0.061508198            5 
 1717000   0.96478742   -4.0827064    1282.6444  0.062252203  0.061498037            2 
 1718000   0.98378837   -4.0985853    1274.5109  0.061821443  0.061488048            4 
 1719000   0.97303825   -4.1021338    1275.8249   0.06184918  0.061478088            3 
 1720000   0.98934031    -4.108273    1275.7464  0.061809419  0.061468073            7 
 1721000   0.97135768   -4.0839698    1281.6605  0.062059872  0.061458143            2 
 1722000    0.9777103   -4.1150168    1280.8089  0.061982621  0.061448404            2 
 1723000   0.98026192   -4.0973351    1275.6106  0.061695232  0.061438239            5 
 1724000   0.98316604   -4.1192924    1277.6037  0.061755785  0.061428352            4 
 1725000   0.96832394   -4.1314158    1285.6733  0.062109822  0.061418412            4 
 1726000   0.96508638   -4.0935551     1288.364  0.062203745  0.061408616            3 
 1727000   0.98372566   -4.1165163    1287.7706  0.062139097  0.061398715            3 
 1728000   0.98671933   -4.0904524    1279.9177  0.061724428  0.061389164            2 
 1729000   0.98233907   -4.1175297    1287.2012  0.062039771    0.0613795            4 
 1730000   0.96842511   -4.0888079    1286.5899  0.061974467  0.061369927            4 
 1731000     0.982456   -4.1258663    1283.5259  0.061791155  0.061360168            2 
 1732000   0.95787635   -4.0980434    1291.4545  0.062136958  0.061350645            3 
 1733000   0.96998947    -4.117736     1286.791   0.06187685  0.061341115            3 
 1734000   0.97081968   -4.1168889    1288.3897     0.061918  0.061331615            2 
 1735000   0.96198233   -4.1241331    1291.2887  0.062021551   0.06132252            4 
 1736000   0.97306645    -4.096488      1293.48  0.062091014  0.061313135            4 
 1737000   0.97792695   -4.1308257     1288.611  0.061821676  0.061303749            4 
 1738000   0.96796306   -4.0947725    1288.9011  0.061800012  0.061294529            3 
 1739000   0.96821517   -4.1189227    1292.1695  0.061921101  0.061285295            6 
 1740000     0.982708   -4.1237258    1291.8101  0.061868299   0.06127582            3 
 1741000   0.97084932   -4.0920857    1297.7767  0.062118358  0.061266465            2 
 1742000   0.98551201   -4.0943663     1292.405  0.061825729   0.06125732            4 
 1743000   0.97941792    -4.110883     1292.672  0.061803019  0.061247644            4 
 1744000   0.97734711   -4.1393866    1293.4962  0.061806968  0.061238084            5 
 1745000   0.98051397   -4.0857785    1300.0588  0.062084946  0.061228473            2 
 1746000   0.98014413   -4.1005332    1298.0876  0.061955306  0.061219118            3 
 1747000    0.9548046   -4.1279156    1291.1531  0.061589062  0.061209555           10 
 1748000   0.95257789   -4.0987453    1296.5624  0.061811707  0.061200301            8 
 1749000   0.99375562   -4.1258365    1297.4938  0.061820744  0.061190911            4 
 1750000   0.95374721   -4.0834072    1304.0316  0.062096744  0.061181547            3 
 1751000   0.99805101   -4.1289369    1300.1782   0.06187789  0.061172428            3 
 1752000   0.97950662   -4.1023218    1299.2226  0.061797116  0.061163106            5 
 1753000   0.98124731   -4.1110933    1300.9841  0.061845602  0.061153959            3 
 1754000   0.97642807   -4.1056036    1302.8829  0.061900556  0.061144816            5 
 1755000   0.97502165   -4.0867532     1303.362  0.061888034  0.061135662            3 
 1756000   0.98145562   -4.1144967     1300.063   0.06169623  0.061126475            4 
 1757000   0.96125311   -4.1089788     1300.935  0.061702475  0.061116983            2 
 1758000   0.95906357   -4.0999198    1298.7305  0.061562877  0.061107467            5 
 1759000   0.96823383    -4.093378    1299.3271  0.061556143  0.061098171            2 
 1760000   0.96734687   -4.1130794    1302.8396  0.061687479  0.061088946            4 
 1761000   0.96283033   -4.1462211     1301.971  0.061611348  0.061079523            2 
 1762000   0.97796914   -4.1178155    1304.9793  0.061718656  0.061070087            2 
 1763000   0.97785501   -4.1230677    1306.8259  0.061770934  0.061060875            4 
 1764000   0.96586122    -4.129896    1304.8134  0.061640846  0.061051763            4 
 1765000    0.9465345   -4.1094002    1308.2241  0.061766955  0.061042757            4 
 1766000   0.97736145   -4.1105499    1308.1551  0.061728723  0.061033519            5 
 1767000   0.95891776    -4.123111    1305.9432  0.061589474  0.061024258            4 
 1768000   0.98294353   -4.1126878    1311.2756  0.061805976  0.061014853            2 
 1769000   0.96326719   -4.1184981    1303.7714  0.061417535  0.061005489            2 
 1770000   0.98266812   -4.1168599    1307.3739  0.061552443   0.06099552            3 
 1771000   0.95870597   -4.1299245    1304.6067   0.06138748   0.06098566            1 
 1772000    0.9638856   -4.1312317    1305.9795  0.061417394  0.060975911            3 
 1773000   0.96349238   -4.1181901    1312.9754   0.06171157  0.060966449            2 
 1774000   0.98602849   -4.1264552    1310.7821  0.061573755  0.060957094            4 
 1775000   0.94886389   -4.1401408    1311.0604  0.061552132  0.060947742            4 
 1776000   0.95184901   -4.1024084    1315.2739  0.061715179   0.06093854            2 
 1777000    0.9747771   -4.1050867    1313.9745  0.061619514  0.060929106            2 
 1778000   0.95557764   -4.1331455    1311.5446  0.061470969  0.060919843            3 
 1779000   0.99596799   -4.1443363    1309.2779  0.061330236   0.06091032            7 
 1780000   0.95259832   -4.1129983    1311.9807  0.061422316  0.060900879            2 
 1781000   0.96042047   -4.1686203    1311.1171  0.061347424  0.060891363            7 
 1782000   0.96204554   -4.0872047    1316.3806  0.061559138  0.060881786            3 
 1783000   0.96504811   -4.1317264    1317.7991  0.061590908   0.06087226            5 
 1784000   0.95972398   -4.0992875    1317.9489  0.061563383  0.060862989            4 
 1785000   0.96402265   -4.1177392    1316.5497  0.061463569  0.060853353            3 
 1786000   0.95271098   -4.1112607    1317.4677  0.061471992   0.06084351            2 
 1787000   0.97587271   -4.1084362    1318.9303  0.061505795  0.060834037            5 
 1788000   0.97890946   -4.1324565    1315.8113   0.06132603  0.060824482            1 
 1789000   0.96973433    -4.088339    1317.6438   0.06137711  0.060814744            3 
 1790000   0.97513514    -4.117468    1316.2098   0.06127606  0.060804973            2 
 1791000   0.95880898     -4.10991    1316.6628  0.061262928  0.060795363            3 
 1792000   0.98901637   -4.1230173    1317.7312  0.061278425  0.060785928            2 
 1793000   0.96232611   -4.1122071      1318.15   0.06126371  0.060776323            5 
 1794000   0.95677993    -4.105047    1320.9544   0.06135983  0.060766673            3 
 1795000   0.95916288   -4.1484333    1316.8886  0.061136889  0.060756964            2 
 1796000   0.95894134   -4.1312916    1319.8894  0.061242085   0.06074752            3 
 1797000   0.96920876    -4.140558    1322.2616  0.061318013  0.060738092            4 
 1798000    0.9759775   -4.1197138    1323.1714  0.061326075  0.060728822            4 
 1799000   0.97110162   -4.1286928    1322.1871  0.061246392  0.060719302            3 
 1800000   0.96970411   -4.0950727     1326.709  0.061421713   0.06071009            4 
 1801000    0.9692311   -4.1222915    1323.7827  0.061252208  0.060700936            2 
 1802000   0.96790749   -4.1367878     1324.672  0.061259341  0.060691657            4 
 1803000   0.96517008   -4.1128248    1325.6281  0.061269557  0.060682433            4 
 1804000   0.96014292    -4.108102    1327.9147  0.061341219  0.060673068            3 
 1805000   0.98363152   -4.1007259    1328.6598  0.061341637  0.060663718            3 
 1806000    0.9501427   -4.1110404     1326.261   0.06119698  0.060654548            3 
 1807000    0.9541454   -4.1240426    1328.3029  0.061257284  0.060645685            4 
 1808000   0.96876075   -4.1236278    1331.6655  0.061378386  0.060636532            5 
 1809000     0.964024   -4.1357073    1330.0859   0.06127169   0.06062736            9 
 1810000   0.98259825   -4.0865883    1333.0645  0.061374977  0.060618266            2 
 1811000   0.93594877   -4.1020956    1330.1823  0.061208461  0.060609162            4 
 1812000   0.96678439    -4.093333    1333.1631  0.061311769  0.060599944            2 
 1813000   0.95940574   -4.1516379    1332.9963  0.061270283  0.060590779            4 
 1814000   0.95282141   -4.1319827    1333.6248   0.06126538  0.060581624            5 
 1815000   0.97218345   -4.1256387    1334.3735     0.061266  0.060572583            6 
 1816000   0.97346932    -4.136555     1335.126  0.061266796  0.060563629            2 
 1817000   0.95855261   -4.1347839    1330.7556  0.061032636  0.060554458            3 
 1818000    0.9568579   -4.0902611    1335.6932  0.061225395  0.060545606            2 
 1819000   0.94292375   -4.0871384    1334.6295  0.061143003  0.060536422            2 
 1820000    0.9833545   -4.1310205    1338.1008   0.06126835  0.060527363            4 
 1821000   0.95857321   -4.1168948    1336.0788  0.061142173   0.06051818            5 
 1822000   0.97869419    -4.131193    1337.5115  0.061174147  0.060508605            3 
 1823000   0.96275983   -4.1433163    1337.0428  0.061119164  0.060499176            3 
 1824000   0.95823599   -4.1483682    1336.7443  0.061072017  0.060489744            4 
 1825000   0.95997038   -4.1317849     1338.538  0.061120459  0.060480381            4 
 1826000   0.96086676    -4.128546     1337.778  0.061052299   0.06047091            3 
 1827000    0.9595421   -4.0967278    1346.0783  0.061397478  0.060461815            3 
 1828000   0.94400391   -4.1542215    1336.0698  0.060907632   0.06045258            2 
 1829000   0.98621893   -4.1149311    1342.5963  0.061171691  0.060443309            3 
 1830000    0.9691957   -4.1264554    1340.7492  0.061054154  0.060433755            5 
 1831000   0.95112885   -4.0974961    1340.4079  0.061005276  0.060424088            3 
 1832000   0.96685741   -4.1547056    1337.4281  0.060836432  0.060414632            5 
 1833000    0.9456385   -4.1373298    1344.5815  0.061128457  0.060405005            3 
 1834000   0.96040922   -4.1445063    1338.0326  0.060797557  0.060395402            2 
 1835000   0.95389841   -4.1370163    1340.9111  0.060895145  0.060385548            2 
 1836000   0.93336998   -4.1650904    1334.2115  0.060557891  0.060375827            8 
 1837000   0.94084278   -4.1384752    1338.4775   0.06071845  0.060366206            3 
 1838000   0.94525489   -4.1386455    1338.4364  0.060683552  0.060356321            4 
 1839000   0.98819544   -4.1521388    1340.3891   0.06073904  0.060346509            2 
 1840000   0.96053459    -4.162101    1337.2653  0.060564554  0.060336742            4 
 1841000   0.94611696   -4.1516979    1341.2406  0.060711598  0.060326959            5 
 1842000   0.93834297   -4.1498625    1344.0302  0.060804842  0.060317224            3 
 1843000    0.9412656    -4.132116    1345.3145  0.060829919   0.06030716            4 
 1844000   0.95521936   -4.1232205    1344.5892  0.060764155  0.060297287            3 
 1845000   0.95545738     -4.11328    1345.4581  0.060770466  0.060287481            4 
 1846000   0.96027173   -4.1728417    1346.3745  0.060778916  0.060277526            3 
 1847000   0.98265499   -4.1442122    1343.6879   0.06062479  0.060267679            2 
 1848000   0.97226295   -4.1268413    1344.1766  0.060614023  0.060257631            2 
 1849000   0.94163235   -4.1468457    1344.2336  0.060583813  0.060247649            2 
 1850000   0.95166666    -4.131283    1348.5336  0.060744757  0.060237498            3 
 1851000   0.96871856   -4.1512674    1344.0699   0.06051098  0.060227404            3 
 1852000   0.93808718   -4.1090201    1350.2319  0.060755574  0.060217441            2 
 1853000   0.96216496    -4.116608    1348.1658   0.06062987  0.060207603            4 
 1854000   0.94594926   -4.1148798    1350.4422  0.060699488  0.060197697            2 
 1855000   0.95545667   -4.1864174    1345.7496  0.060455958  0.060187754            4 
 1856000   0.97112251   -4.1394437    1350.2734  0.060626499  0.060177603            2 
 1857000   0.95483069   -4.1107907    1351.3069  0.060640231  0.060167561            3 
 1858000   0.96108115   -4.1537853    1352.3564  0.060654667  0.060157515            5 
 1859000    0.9540374   -4.1358971    1346.3512  0.060352843  0.060147568            4 
 1860000   0.94290274   -4.1567792    1357.5735  0.060823186  0.060137737            2 
 1861000   0.96230337   -4.1358057    1351.9105   0.06053692  0.060127762            5 
 1862000   0.95356965   -4.1662781    1350.8012  0.060454764  0.060117988            3 
 1863000   0.94500206   -4.1197945     1356.417  0.060673508  0.060108206            4 
 1864000    0.9535943   -4.1207131    1355.0024  0.060577717  0.060098216            3 
 1865000   0.95446473   -4.1309188    1352.7382  0.060444064  0.060088696            7 
 1866000   0.95074303   -4.1191171    1360.0535  0.060738366  0.060078578            3 
 1867000   0.94933273   -4.1389557    1361.1371    0.0607542  0.060068585            3 
 1868000   0.95030217   -4.1511829    1357.3158  0.060551205  0.060058918            5 
 1869000   0.96999956   -4.1405125    1359.4539   0.06061414  0.060049095            4 
 1870000    0.9633209   -4.1142185    1361.9775  0.060694185  0.060039357            3 
 1871000   0.94830626   -4.1412969    1358.8925  0.060524341  0.060029726            3 
 1872000   0.96685853     -4.14235    1356.5489  0.060387684  0.060019782            5 
 1873000   0.95669948   -4.1651293    1357.2971  0.060388731  0.060009776            3 
 1874000   0.96285795   -4.1388637    1363.8733  0.060648935   0.05999983            5 
 1875000   0.94468316   -4.1658832    1360.1536  0.060451271  0.059989882            4 
 1876000   0.96806808   -4.1620246     1356.711  0.060266125  0.059979914            4 
 1877000   0.94165422   -4.1254234    1360.2968  0.060393217  0.059969633            2 
 1878000   0.94915578    -4.143287    1361.3541  0.060407974  0.059959726            2 
 1879000   0.95417915   -4.1604082    1359.2743  0.060283586  0.059949658            5 
 1880000   0.95940639   -4.1601703    1359.3232  0.060253689  0.059939373            3 
 1881000   0.94485404   -4.1454883    1359.8665  0.060245727  0.059929006            5 
 1882000   0.96047682   -4.1359591     1358.735  0.060163611   0.05991902            4 
 1883000   0.94875404   -4.1611482      1359.46  0.060163747  0.059908848            3 
 1884000    0.9267749   -4.1639213    1360.6976  0.060186555  0.059898454            4 
 1885000   0.96607646   -4.1596736    1364.0625  0.060303381   0.05988823            5 
 1886000   0.96123611   -4.1538763    1365.0965  0.060317095  0.059878221            3 
 1887000   0.93722812    -4.173693     1364.475  0.060257685  0.059868192            1 
 1888000   0.96788645   -4.1374713    1367.5431   0.06036119  0.059857992            3 
 1889000    0.9556711   -4.1448574    1362.8775   0.06012341   0.05984778            3 
 1890000   0.98144919   -4.1349179    1363.8363  0.060133874   0.05983731            3 
 1891000   0.97050285   -4.1620583    1363.9877  0.060108746   0.05982698            4 
 1892000   0.94765149   -4.1528885      1358.68    0.0598432  0.059816383            2 
 1893000   0.94917687    -4.145254    1364.9153  0.060086076  0.059805875            3 
 1894000   0.95482651   -4.1434566    1369.8141   0.06026989  0.059795603            4 
 1895000   0.92751744   -4.1550607    1359.8081  0.059798069   0.05978546            3 
 1896000   0.96188063   -4.1561512    1370.0648  0.060217333  0.059775314            3 
 1897000    0.9381868   -4.1435538    1373.1585  0.060321495  0.059765221            3 
 1898000   0.94321878   -4.1493344    1373.2285  0.060292787  0.059755077            4 
 1899000   0.95746767   -4.1465263     1369.921  0.060115895  0.059744794            2 
 1900000   0.94499763   -4.1251614    1372.1597  0.060182441  0.059734773            2 
 1901000   0.96006013   -4.1467419    1371.7324  0.060132054  0.059724875            3 
 1902000   0.95101788   -4.1765878     1369.356  0.059996317  0.059714672            2 
 1903000   0.93912869   -4.1315302    1373.7683   0.06015801  0.059704515            2 
 1904000    0.9569149    -4.154898    1370.4308  0.059980341  0.059694658            3 
 1905000   0.93484583   -4.1556427    1367.5083  0.059821009  0.059684372            3 
 1906000   0.94814929   -4.1480403     1370.455  0.059918458  0.059674002            3 
 1907000   0.94636206    -4.177238    1369.3627  0.059839305  0.059663312            3 
 1908000   0.95972706   -4.1338949    1370.6837  0.059865639  0.059653036            2 
 1909000   0.96290555   -4.1488429    1374.0653  0.059981895  0.059642673            3 
 1910000   0.93926805   -4.1712217    1374.5777   0.05997285  0.059632485            7 
 1911000   0.96682448   -4.1183092    1379.2019  0.060143114  0.059622004            5 
 1912000   0.92366567   -4.1287532    1375.1159  0.059933572  0.059611731            2 
 1913000   0.94485368   -4.1511629    1377.1519  0.059990936  0.059601378            4 
 1914000   0.93559538   -4.1211284    1372.4664   0.05975559  0.059590819            2 
 1915000   0.93595129   -4.1569011    1374.6334  0.059818684  0.059580456            5 
 1916000   0.97679513   -4.1377303    1375.6635  0.059832267  0.059569888            3 
 1917000   0.93363965   -4.1473371     1376.433  0.059834506  0.059559377            4 
 1918000   0.92915558   -4.1637992    1370.9519  0.059565166  0.059548988            3 
 1919000   0.94392743   -4.1528444     1377.959  0.059838413  0.059538519            3 
 1920000   0.93725842   -4.1852987    1377.1252  0.059771059  0.059528304            6 
 1921000   0.96208957   -4.1582396    1380.0237  0.059865683  0.059517716            2 
 1922000   0.94260366   -4.1438994    1380.4109  0.059851322  0.059507405            5 
 1923000   0.91527698   -4.1613495    1376.2288  0.059638969  0.059497149            3 
 1924000   0.92858159   -4.1631729    1378.6965  0.059714852  0.059486646            3 
 1925000   0.95722948   -4.1867259    1381.7182  0.059814643  0.059476263            2 
 1926000   0.94292976   -4.1712856    1382.4212     0.059814  0.059466114            4 
 1927000   0.96593083   -4.1597156    1378.5519  0.059615633  0.059455709            4 
 1928000   0.95256455   -4.1370685    1380.6546  0.059675595  0.059445298            5 
 1929000    0.9518747   -4.1351034    1381.8362  0.059695705  0.059435056            4 
 1930000   0.95121242   -4.1577557    1386.0071  0.059844865  0.059424861            2 
 1931000   0.94649318    -4.132632    1381.7603  0.059630602  0.059414554            5 
 1932000   0.93511283   -4.1417799     1385.891  0.059777907   0.05940412            8 
 1933000   0.95689656   -4.1583808    1380.9111  0.059532294  0.059393773            2 
 1934000    0.9536143   -4.1427961    1383.0819  0.059595049  0.059383562            4 
 1935000   0.93112631   -4.1498328    1386.7056  0.059720312  0.059373336            3 
 1936000   0.95898663   -4.2064708    1383.2078  0.059538902  0.059363042            5 
 1937000    0.9490739   -4.1778802    1385.3232  0.059599175  0.059352625            3 
 1938000    0.9474899   -4.1630022    1385.5008  0.059576057  0.059341971            4 
 1939000   0.96357648   -4.1485789    1391.7355  0.059813286  0.059331474            5 
 1940000   0.95148943    -4.121545    1385.5946  0.059518668  0.059320917            2 
 1941000   0.92954812   -4.1722995    1381.7079  0.059321135   0.05931033            2 
 1942000    0.9361589   -4.1442279    1392.8852   0.05977022  0.059299604            7 
 1943000   0.95142195   -4.1394222     1390.264  0.059627039  0.059289308            3 
 1944000   0.94892923   -4.1612722    1392.7982  0.059704999  0.059278841            2 
 1945000   0.92777457   -4.1602241    1389.4356  0.059530233  0.059268233            5 
 1946000   0.93584285   -4.1602773    1389.6045  0.059506874  0.059257658            4 
 1947000   0.92440244    -4.164085    1388.1352  0.059413422  0.059246915            6 
 1948000   0.94968901   -4.1696868    1385.8842  0.059286627  0.059235858            5 
 1949000   0.92800881   -4.1625692    1386.8748  0.059298563  0.059225076            9 
 1950000   0.95257881   -4.1711094    1387.2078  0.059282386  0.059214069            4 
 1951000   0.93855461   -4.1233808    1393.1543  0.059505994  0.059203251            2 
 1952000   0.95645335   -4.1789967    1390.0235   0.05934185  0.059192467            5 
 1953000   0.94244097   -4.1580468    1389.6251  0.059294467  0.059181631            3 
 1954000   0.92002736     -4.19476    1386.7667  0.059142216  0.059170752            5 
 1955000   0.93219182   -4.1330025     1393.377  0.059393736  0.059160131            4 
 1956000   0.94120252   -4.1796269    1389.6477  0.059204487  0.059149406            4 
 1957000   0.95053539   -4.1814731      1389.59  0.059171777  0.059138816            5 
 1958000   0.94371637   -4.1671774    1392.4809  0.059264594  0.059128157            2 
 1959000   0.95046086   -4.1424781     1393.362  0.059271821   0.05911752            4 
 1960000    0.9528382    -4.160874    1391.9356  0.059180934  0.059106623            4 
 1961000    0.9479689   -4.1554878    1399.6231  0.059477438  0.059095883            3 
 1962000   0.92295229   -4.1829638      1391.77  0.059113574  0.059085028            3 
 1963000     0.924329    -4.146574    1395.6286  0.059247266  0.059074471            4 
 1964000   0.95951654   -4.1875577    1397.5027   0.05929662  0.059063907            4 
 1965000   0.93745053   -4.1925033    1393.0918  0.059079382  0.059052969            6 
 1966000   0.94764053   -4.1591709    1396.0181  0.059173369   0.05904201            5 
 1967000   0.94353889   -4.1580302     1395.001  0.059100196  0.059031165            2 
 1968000    0.9676284   -4.1567248    1403.1785  0.059416433   0.05902041            3 
 1969000     0.915142   -4.1759402     1393.209  0.058964324  0.059009564            5 
 1970000   0.95153383   -4.1485807    1400.1582  0.059228349  0.058998707            2 
 1971000   0.93607255   -4.1454128    1397.0248  0.059065822  0.058987702            2 
 1972000   0.95350533   -4.1598004    1397.7232  0.059065382  0.058976744            2 
 1973000   0.92513545   -4.1703813    1396.7719  0.058995266  0.058965657            1 
 1974000   0.92097275   -4.1552172    1397.9455  0.059014925  0.058954673            3 
 1975000   0.91793958   -4.1704078    1396.3552  0.058917941    0.0589439            5 
 1976000   0.91684046   -4.1492294    1396.5227  0.058895189  0.058933024            6 
 1977000   0.94024804   -4.1644276    1399.3795  0.058985814  0.058922206            3 
 1978000   0.95220439   -4.1734196    1402.0107  0.059066847  0.058911195            3 
 1979000   0.91705832    -4.167292    1405.8792  0.059199899  0.058900383            6 
 1980000   0.92828874   -4.1728854    1401.1371  0.058970418  0.058889696            4 
 1981000   0.95424222   -4.1702607    1401.0367  0.058936426  0.058878973            8 
 1982000    0.9457179   -4.1621603    1405.5231   0.05909532  0.058868385            2 
 1983000   0.94309215   -4.1721456    1403.4377  0.058977882  0.058857835            2 
 1984000   0.91689694   -4.1849273    1404.4749  0.058991721  0.058847167            6 
 1985000   0.93847674   -4.1739504     1408.479  0.059130101  0.058836542            3 
 1986000   0.92327238   -4.1832033    1407.2388  0.059048288  0.058825981            8 
 1987000   0.92510125    -4.169127    1406.1274  0.058971959  0.058815299            6 
 1988000   0.93457174   -4.1690768    1411.1234  0.059151717  0.058804825            3 
 1989000   0.93240893   -4.1897013    1408.3505  0.059005801  0.058794176            3 
 1990000   0.94465637   -4.1929557    1402.5586  0.058733608  0.058783383            3 
 1991000   0.94249268   -4.2060928     1408.523   0.05895375   0.05877269            4 
 1992000   0.94403637   -4.1782038     1409.001  0.058944152   0.05876205            4 
 1993000   0.92384861    -4.213069    1404.9097  0.058743508  0.058751222            2 
 1994000   0.93416108     -4.20178    1408.9236  0.058881795   0.05874023            2 
 1995000   0.92472658   -4.1837034    1411.6871  0.058967713  0.058729293            5 
 1996000   0.91837779   -4.1551616    1412.7741  0.058983555  0.058718642            5 
 1997000   0.93542571   -4.1602301    1408.9004  0.058792374    0.0587081            3 
 1998000   0.95445457   -4.1788009    1409.6705  0.058795068   0.05869743            2 
 1999000   0.93835585   -4.1604477     1414.676  0.058974322  0.058686777            4 
 2000000    0.9017917   -4.1795861     1416.762  0.059031752  0.058676148            2 
 2001000   0.91798439   -4.1545325    1417.1717  0.059019311  0.058665749            3 
 2002000   0.93068777   -4.1687271    1409.3966  0.058666193  0.058655145            5 
 2003000   0.91193626   -4.1601044    1419.9357  0.059075375   0.05864442            3 
 2004000   0.90848754   -4.2122897    1416.4545  0.058901135   0.05863393            2 
 2005000   0.92410645   -4.1864573    1417.4992  0.058915178  0.058623462            6 
 2006000   0.93826049   -4.1566927     1418.086  0.058910185  0.058613052            7 
 2007000   0.93583951   -4.1906447    1414.9174  0.058749268  0.058602736            4 
 2008000   0.96327457   -4.1816841    1420.4728  0.058950564  0.058592424            2 
 2009000    0.9291174   -4.1483864    1419.2906  0.058872185   0.05858202            3 
 2010000   0.92156958   -4.1952926    1422.9768  0.058995722  0.058571678            3 
 2011000   0.93557276    -4.191135    1416.8698  0.058713318  0.058561473            5 
 2012000   0.92345092   -4.1664844    1425.6767  0.059048903  0.058551026            2 
 2013000   0.95075033   -4.1650833    1420.1888  0.058792381  0.058540977            3 
 2014000   0.93698156   -4.1807015     1420.593  0.058779917  0.058530722            4 
 2015000   0.91438657   -4.1961256    1421.7348  0.058797964  0.058520357            3 
 2016000   0.93211887   -4.1565116      1424.85  0.058897571  0.058510083            2 
 2017000    0.9368686   -4.1687588    1421.3604  0.058724194  0.058499678            2 
 2018000   0.93045062   -4.2122512    1423.4994  0.058783423  0.058489297            4 
 2019000   0.89083826   -4.1586077    1422.4046  0.058709123  0.058479342            5 
 2020000   0.92262322    -4.188193    1427.0054  0.058869862  0.058469231            5 
 2021000   0.93413811   -4.1803354    1430.2524  0.058974618  0.058458989            6 
 2022000   0.93673833   -4.1732265    1426.6105  0.058795357  0.058448824            6 
 2023000   0.93579534   -4.1783922    1423.9696  0.058657504  0.058438559            3 
 2024000   0.94553575   -4.1611741    1427.5287   0.05877506  0.058428326            2 
 2025000   0.92788606   -4.1864025    1430.2099  0.058856376  0.058418128            6 
 2026000   0.94250857   -4.1504032    1433.6128   0.05896729  0.058407847            4 
 2027000   0.92410197   -4.1867637    1427.7003  0.058695127  0.058397642            2 
 2028000   0.92046445   -4.1672774    1428.1995  0.058686698  0.058387171            6 
 2029000   0.93101418   -4.1830437    1427.5048  0.058629244  0.058376752            2 
 2030000   0.94327071   -4.1629951    1431.5495    0.0587664  0.058366337            3 
 2031000   0.93521967   -4.1928979    1427.5123  0.058571816  0.058356208            5 
 2032000   0.94899004   -4.1725142    1430.7193  0.058674514  0.058345996            3 
 2033000   0.92269223   -4.1749049    1430.4103  0.058632987  0.058335651            4 
 2034000   0.95266046   -4.1982728    1432.1119  0.058673875  0.058325303            2 
 2035000   0.90904392    -4.174508    1432.9519  0.058679438  0.058314822            2 
 2036000   0.90449092   -4.1857792    1431.9929  0.058611365  0.058304174            3 
 2037000   0.95190377   -4.1919172    1427.9094  0.058415536  0.058293557            7 
 2038000   0.91344017   -4.1862896    1432.6978  0.058582673  0.058283177            3 
 2039000   0.94366383   -4.2106686    1433.7305  0.058596148  0.058272655            6 
 2040000    0.9234052   -4.1927026    1433.5015  0.058558068   0.05826206           10 
 2041000   0.91669474   -4.1700304    1438.3084  0.058725639  0.058251828            3 
 2042000    0.9286957   -4.2036143     1435.932  0.058599904   0.05824134            1 
 2043000    0.9474291   -4.1900817    1436.5342  0.058595784  0.058231092            4 
 2044000    0.9146978   -4.1986383    1436.0373  0.058546856  0.058220637            2 
 2045000   0.92256477    -4.199256    1438.2858  0.058609852   0.05821027            2 
 2046000   0.93594922   -4.1945021    1431.5992  0.058308861  0.058199782            4 
 2047000   0.93982758   -4.1842237    1434.0097   0.05837851   0.05818925            5 
 2048000   0.94768578   -4.1968342    1436.2339  0.058440505  0.058178864            3 
 2049000   0.92212573   -4.1727739     1436.729  0.058432122  0.058168602            3 
 2050000   0.93348876   -4.1643513    1436.6728  0.058401335  0.058158145            1 
 2051000    0.9172378   -4.1827962    1437.4074  0.058402706  0.058147617            2 
 2052000   0.90279715   -4.1977159    1439.5954  0.058463102  0.058137313            3 
 2053000   0.93578199   -4.1871223    1442.9967  0.058572684  0.058127186            5 
 2054000   0.90095425   -4.1941421     1441.291  0.058474968  0.058116921            2 
 2055000      0.90451   -4.1853709    1439.7907  0.058385674  0.058106604            5 
 2056000   0.92743937    -4.191057    1439.0805  0.058328488  0.058096244            3 
 2057000   0.93041846   -4.1892047    1445.6631  0.058566809  0.058085949            4 
 2058000   0.91300597   -4.2091659    1442.4898  0.058409855  0.058075658            2 
 2059000   0.92018096   -4.1793805     1440.935  0.058318562  0.058065439            3 
 2060000   0.94788787   -4.1551394    1447.9216  0.058572878  0.058055318            6 
 2061000   0.95896557   -4.2034076    1438.6107  0.058167989  0.058044962            2 
 2062000   0.91857328    -4.200964    1441.2609  0.058246882  0.058034622            4 
 2063000   0.91414367   -4.2228707      1439.95  0.058165698  0.058024202            6 
 2064000   0.93044372   -4.2315279    1446.0332  0.058383123  0.058013846            3 
 2065000   0.93370127   -4.1829602    1445.4046  0.058329482  0.058003661            3 
 2066000   0.93168063   -4.1943833    1440.6044  0.058107633  0.057993286            3 
 2067000   0.95951701   -4.2275177    1443.2526  0.058186283   0.05798303            3 
 2068000   0.92379559   -4.2079237    1443.3956  0.058163911  0.057972603            9 
 2069000   0.93181994   -4.1905811         1442  0.058079589  0.057962235            4 
 2070000   0.90798879   -4.1957436    1445.5968   0.05819633  0.057951861            2 
 2071000   0.92779571   -4.1737147    1448.3258  0.058278039  0.057941234            2 
 2072000   0.89877195   -4.1846029    1451.5573  0.058379878  0.057930727            2 
 2073000   0.91779226   -4.1788367    1447.8361  0.058202127  0.057920213            5 
 2074000    0.9089722   -4.2019833    1446.0589  0.058102656  0.057909815            2 
 2075000   0.93736703   -4.1983218    1449.2197  0.058201593  0.057899296            5 
 2076000   0.93493301   -4.1975226    1450.5557  0.058227187  0.057888746            6 
 2077000   0.90059791   -4.1856213    1453.4729  0.058316196  0.057878229            3 
 2078000   0.91062082   -4.1866197     1446.892  0.058024223  0.057867718            3 
 2079000   0.91976692   -4.2358902    1450.4759  0.058139966  0.057857279            2 
 2080000    0.9019488   -4.1832699    1445.7173  0.057921364  0.057846762            2 
 2081000   0.90495901   -4.1728012    1448.8415  0.058018642  0.057836269            2 
 2082000   0.92801401    -4.187461    1450.3744  0.058052131  0.057825872            4 
 2083000   0.92916401   -4.1854187    1453.2609  0.058139739  0.057815294            2 
 2084000   0.92461512   -4.1952529    1452.6874  0.058088908  0.057805019            4 
 2085000   0.92093384   -4.1848258    1452.6027  0.058057663  0.057794612            3 
 2086000   0.93905846   -4.2171151    1452.9207  0.058042533  0.057784011            3 
 2087000   0.93171243   -4.2156563    1451.8537  0.057972118  0.057773539            2 
 2088000   0.91936633   -4.2097229    1453.8172  0.058022718   0.05776321            3 
 2089000   0.90505284   -4.2137484    1449.3876  0.057818239  0.057752625            5 
 2090000    0.9157125   -4.2050136    1456.0884   0.05805775  0.057742225            5 
 2091000    0.9009346   -4.1822576    1456.4242  0.058043369  0.057731759            5 
 2092000   0.92246554   -4.1614838    1453.8554  0.057913298  0.057721268            2 
 2093000   0.90851398    -4.226985    1449.5932  0.057715925  0.057710705            1 
 2094000   0.90317175   -4.2353957    1453.9063  0.057860007       0.0577            2 
 2095000   0.90395482   -4.2269708    1455.5023  0.057895876  0.057689439            4 
 2096000   0.90512158     -4.19372    1458.1733  0.057974448  0.057679059            5 
 2097000   0.91305633   -4.1973189     1458.936  0.057977109  0.057668721            5 
 2098000   0.94040932   -4.2084406    1457.5236  0.057893374  0.057658324            4 
 2099000   0.91727279   -4.1956379    1458.9901  0.057924017  0.057647967            5 
 2100000   0.91332095   -4.2123268    1456.9191  0.057814248  0.057637434            3 
 2101000   0.93177953   -4.1649154    1464.1782  0.058074654  0.057627073            4 
 2102000   0.91325361   -4.1834631    1464.8458  0.058073493   0.05761669            5 
 2103000   0.89632306   -4.2192464    1458.9524  0.057812349  0.057606309            3 
 2104000   0.92680571   -4.1770583    1460.2982  0.057838173  0.057595914            2 
 2105000   0.93242827   -4.1824178    1466.5562  0.058058439  0.057585683            4 
 2106000   0.91613075   -4.1689941    1462.7365   0.05787973  0.057575221           12 
 2107000   0.90614701   -4.1991397    1462.0212  0.057823966  0.057564684            6 
 2108000   0.93888802   -4.2007671     1464.192  0.057882353  0.057554204            4 
 2109000   0.91817276   -4.2123367    1463.2692  0.057818446  0.057543739            3 
 2110000   0.91417338   -4.1941468    1463.0137  0.057780952  0.057533165            9 
 2111000   0.91631304   -4.2161387    1464.4384  0.057809821  0.057522631            2 
 2112000   0.91892522   -4.1875988    1466.4973  0.057863687  0.057512171            5 
 2113000   0.92625444    -4.197126    1464.9554  0.057775492   0.05750166            1 
 2114000   0.90959571   -4.2149116    1462.7521  0.057661311   0.05749109            3 
 2115000   0.89910123   -4.2328076    1467.4342  0.057818527  0.057480459            3 
 2116000   0.91097023   -4.2306088    1462.1787  0.057584227  0.057469751            5 
 2117000   0.90800539   -4.1859821    1464.8852  0.057663566  0.057459011            9 
 2118000   0.90227745   -4.2098777    1469.8082  0.057830037  0.057448373            2 
 2119000   0.90427572   -4.2064174    1460.6084  0.057440948  0.057437563            2 
 2120000   0.89550609   -4.2010713    1467.2925  0.057676591  0.057426913            4 
 2121000   0.92485744   -4.2213653    1466.6679   0.05762486  0.057416224            4 
 2122000   0.92103366   -4.2150534    1464.5675  0.057515219  0.057405327            2 
 2123000   0.91805351   -4.2526658    1464.0406  0.057467443  0.057394612            5 
 2124000   0.91815309    -4.193202    1465.6331  0.057502869  0.057383904            2 
 2125000   0.92069331   -4.2010528    1473.6062  0.057788478  0.057373351            2 
 2126000   0.91499489   -4.2198979    1465.3201  0.057436505  0.057362757            6 
 2127000   0.93918281   -4.2089426    1470.1397  0.057598328  0.057352148            5 
 2128000   0.92073574   -4.1969737    1468.9869  0.057526118  0.057341573            4 
 2129000   0.91503643   -4.2055015    1464.9323  0.057340389  0.057330668            4 
 2130000   0.89103652   -4.2087357     1471.331   0.05756381   0.05731997            2 
 2131000   0.89744366   -4.1535846    1474.6912  0.057668201  0.057309229            3 
 2132000   0.90167943   -4.2276256    1465.3854  0.057277416  0.057298478            5 
 2133000   0.92321997   -4.2057906     1468.588  0.057375683  0.057287663            8 
 2134000   0.90595507   -4.1815343    1468.8944  0.057360761  0.057276823            3 
 2135000   0.91720918   -4.2148446    1467.6845  0.057286671  0.057265986            3 
 2136000   0.91289372   -4.2067202     1468.585  0.057294983   0.05725512            2 
 2137000   0.91846024   -4.2219319    1468.3616  0.057259459  0.057244177            6 
 2138000   0.92405418   -4.1968974    1467.9626  0.057217128  0.057233174            4 
 2139000   0.90653407   -4.2082926     1470.725  0.057297997  0.057222066            5 
 2140000   0.91774815   -4.2338566    1475.3819  0.057452566  0.057211137            6 
 2141000   0.92074096   -4.2325734    1468.9744  0.057176333  0.057200139            3 
 2142000   0.91054193   -4.2198256     1470.705  0.057216968   0.05718922            3 
 2143000   0.90841165   -4.2039726    1474.3812  0.057333224  0.057178377            2 
 2144000   0.91865126   -4.2073112    1479.3151  0.057498256  0.057167566            2 
 2145000   0.90367741   -4.2151288    1467.5204  0.057013224  0.057156632            6 
 2146000   0.90706249   -4.2033471    1478.8775  0.057427675  0.057145652            1 
 2147000   0.89815592   -4.2112335    1474.2661  0.057221941  0.057134815            2 
 2148000   0.89966101   -4.2409236    1474.7173  0.057212807  0.057123847            9 
 2149000   0.89910941   -4.2426714    1478.6537   0.05733883  0.057112883            3 
 2150000   0.91457001   -4.2295606    1476.2319  0.057218291  0.057102129            4 
 2151000   0.92142442   -4.2215666    1478.8019  0.057291258  0.057091498            2 
 2152000   0.90298019   -4.2298338     1478.279  0.057244385  0.057080599            9 
 2153000    0.8983173    -4.219197    1477.0872  0.057171669   0.05706978            6 
 2154000   0.92102078    -4.228423    1478.7228  0.057208401   0.05705897            2 
 2155000   0.90018177   -4.2085897    1479.3883  0.057207593  0.057048077            9 
 2156000   0.91256471    -4.220912    1483.5411  0.057341571  0.057037189            3 
 2157000   0.91932989   -4.2044933    1481.3402  0.057229955  0.057026583            3 
 2158000   0.90962349   -4.2516022    1477.1502  0.057041635  0.057015812           10 
 2159000   0.88736742   -4.2291247    1477.6773  0.057035562  0.057004925            3 
 2160000   0.91169721   -4.2253306    1478.8834  0.057055687  0.056994002            4 
 2161000   0.90910213   -4.2219177    1480.6707  0.057098209  0.056982932            3 
 2162000   0.92381387   -4.2335475    1479.4145  0.057023376  0.056971965            7 
 2163000   0.90095786    -4.240823    1476.9987  0.056903939  0.056960977            3 
 2164000   0.88734413   -4.2419276    1484.0014  0.057147314  0.056950088            4 
 2165000   0.91920723   -4.2120011    1483.1481  0.057088071  0.056938917            3 
 2166000   0.89632596   -4.2143712    1483.6353  0.057080461   0.05692819            3 
 2167000   0.90410731   -4.2100431    1480.8939  0.056948697  0.056917319            9 
 2168000   0.90399141   -4.2149768     1481.052  0.056928506  0.056906329            3 
 2169000   0.91382458   -4.2320489    1486.2056  0.057100262  0.056895413            7 
 2170000   0.90195015    -4.215859    1481.4156  0.056889999  0.056884485            3 
 2171000   0.92212388   -4.1813111    1486.2041    0.0570476   0.05687348            4 
 2172000   0.92003698   -4.2296318    1480.8759   0.05681691   0.05686248            3 
 2173000   0.88396229    -4.208923    1482.9632   0.05687081  0.056851402            3 
 2174000   0.92132335   -4.2282728    1483.2682  0.056856341  0.056840275            4 
 2175000   0.91769362   -4.2283282    1484.3111  0.056870159  0.056829347            5 
 2176000     0.902196   -4.2203577    1482.8377  0.056787596  0.056818216            5 
 2177000   0.88619391   -4.2078799    1484.5768  0.056828081  0.056807092            4 
 2178000   0.89670407   -4.2273297    1480.6307  0.056651006  0.056796062            2 
 2179000   0.90435101   -4.2549132    1485.5582  0.056813453  0.056784932            7 
 2180000   0.91636562   -4.2243711    1485.1536  0.056771928    0.0567737            2 
 2181000   0.88776749   -4.2303694    1483.7944  0.056693962  0.056762563            4 
 2182000   0.90946416   -4.2426566    1491.1917  0.056950493  0.056751464            3 
 2183000   0.90944034   -4.2088811    1490.4013  0.056894232  0.056740222            4 
 2184000   0.88056435   -4.2249035    1487.5491  0.056759352  0.056729026            5 
 2185000     0.905973   -4.2301012    1491.5971  0.056887761  0.056717836            2 
 2186000   0.88376431   -4.2065657    1489.2202  0.056771127  0.056706841            3 
 2187000   0.91443762   -4.2325997    1489.1719  0.056743327   0.05669593            2 
 2188000   0.91767189   -4.2351966    1487.2939  0.056645867  0.056684988            5 
 2189000   0.90519032   -4.2204253     1492.554  0.056820239  0.056674108            7 
 2190000   0.91409427    -4.243283    1491.9262  0.056770404  0.056663014            6 
 2191000   0.89667209   -4.2531726    1493.8243  0.056816687  0.056651936            3 
 2192000   0.91431958   -4.2019605    1492.9106   0.05675603  0.056640897            5 
 2193000   0.88635554   -4.2422668    1486.9522  0.056503732  0.056629891            4 
 2194000   0.90716741    -4.231833    1494.6609  0.056770772  0.056618659            5 
 2195000   0.89012742   -4.2228281    1491.1663  0.056612237  0.056607767            3 
 2196000   0.90885448   -4.2584483    1490.7015  0.056568819  0.056596947            2 
 2197000   0.88392953   -4.2050826    1490.0424  0.056518072  0.056585782            5 
 2198000   0.89604585   -4.2243333    1493.4415  0.056621229  0.056574657            5 
 2199000   0.89671801   -4.2322158    1490.3725  0.056479178  0.056563815            3 
 2200000   0.88659274    -4.225818    1492.9577  0.056551429  0.056552664            3 
 2201000   0.87256506   -4.2065685    1495.0514  0.056605006  0.056541407            2 
 2202000   0.87786704   -4.2431261     1491.788  0.056455799  0.056530171            4 
 2203000   0.90190513    -4.235522    1491.7014  0.056426893  0.056518974            2 
 2204000   0.90728866   -4.2255258    1497.7763  0.056630985  0.056507957            5 
 2205000   0.87763232   -4.2450644    1498.8806  0.056647039   0.05649694            4 
 2206000   0.90778802   -4.2097622    1496.9584  0.056548747   0.05648579            4 
 2207000   0.89228894   -4.2374088    1495.7227  0.056476466  0.056474398            8 
 2208000   0.89831636   -4.1930092    1498.0197  0.056537578  0.056463135            3 
 2209000   0.88429809   -4.2388628    1498.3872  0.056525849  0.056451872            3 
 2210000   0.89187845   -4.2317892    1495.6856  0.056398402  0.056440657            4 
 2211000   0.88411972   -4.2232457    1491.6233  0.056219783   0.05642943            5 
 2212000   0.90275685   -4.2415071    1497.9783   0.05643378  0.056418402            4 
 2213000   0.92511305   -4.2343404    1494.0185  0.056259169  0.056407193            3 
 2214000   0.89277175   -4.2369602    1496.9039  0.056342362  0.056396191           11 
 2215000    0.8926004   -4.2485997    1498.6816  0.056383809  0.056384928            9 
 2216000   0.91112556   -4.2595719    1499.2628  0.056380221  0.056373717            5 
 2217000   0.91018594   -4.2513838    1500.3839   0.05639693  0.056362636            5 
 2218000   0.89211475   -4.2385371    1495.9698  0.056205657  0.056351433            6 
 2219000   0.91260984   -4.2320673     1496.596  0.056203847  0.056340171           11 
 2220000    0.9037633   -4.2227217    1501.3321  0.056356309  0.056328948            4 
 2221000   0.88910862   -4.2420828    1507.1854  0.056550557  0.056317627            5 
 2222000   0.88359157   -4.2599509    1493.1116  0.055997284  0.056306196            3 
 2223000   0.89798556   -4.2377548    1497.9499  0.056153468  0.056294734            6 
 2224000   0.90570226   -4.2089224     1506.726   0.05645706  0.056283523            6 
 2225000   0.90119794   -4.2268078    1500.2063  0.056187502  0.056272241            3 
 2226000   0.90768944   -4.2047115    1501.6426   0.05621603  0.056261031            3 
 2227000   0.88566762   -4.2498891    1507.7066    0.0564177  0.056249846            4 
 2228000   0.89451857    -4.216797    1500.6689  0.056129146  0.056238524            2 
 2229000   0.90051207   -4.2093466    1507.1645  0.056346813  0.056227282            5 
 2230000   0.87370598   -4.2160128    1505.5928   0.05626281   0.05621591            3 
 2231000   0.88485027   -4.2226211    1502.3548  0.056116646  0.056204535            4 
 2232000   0.89315896   -4.2075212    1505.3989  0.056205155  0.056193178            6 
 2233000   0.90058045   -4.2402791    1503.7219  0.056117402  0.056181835            4 
 2234000   0.88145943   -4.2431799    1500.1658  0.055959633  0.056170412            2 
 2235000   0.88156429    -4.253207    1505.7554  0.056143005  0.056159127            2 
 2236000   0.87815878   -4.2511863    1506.1077  0.056131025  0.056147965            9 
 2237000   0.88761901      -4.2191    1503.6684  0.056015065  0.056136869           10 
 2238000   0.89750068   -4.2489774     1504.842  0.056033735  0.056125641            6 
 2239000   0.88712131   -4.2288163    1501.7402  0.055893263  0.056114413            4 
 2240000   0.88989915   -4.2241703    1508.6502  0.056125378  0.056103218            3 
 2241000   0.88911308   -4.2498803    1508.5283  0.056095801  0.056091935            4 
 2242000    0.9010432   -4.2280115    1512.1846  0.056206683  0.056080834            4 
 2243000   0.87998788   -4.2241646    1512.6128  0.056197534  0.056069616            6 
 2244000   0.89503471   -4.2337466    1505.2935  0.055900679  0.056058682            2 
 2245000   0.88221657   -4.2550591    1506.5496  0.055922405  0.056047612            5 
 2246000   0.89582478   -4.2407612    1511.5854  0.056084351  0.056036334            4 
 2247000   0.89308856   -4.2421255    1517.4748  0.056277807  0.056025299            4 
 2248000   0.89069516   -4.2359164     1512.229  0.056058312  0.056014512            4 
 2249000   0.88816784   -4.2567986    1516.0909  0.056176484  0.056003441            2 
 2250000   0.87774914   -4.2628974    1511.2525  0.055972314  0.055992359            3 
 2251000   0.87512745   -4.2359387    1510.7039  0.055927141  0.055981005            5 
 2252000   0.90186941   -4.2183226    1512.6168  0.055973089  0.055969938            4 
 2253000   0.89826034   -4.2356106    1515.0928   0.05603983  0.055958701            3 
 2254000   0.90543428   -4.2415849    1510.1847  0.055833505  0.055947647            7 
 2255000   0.90082589   -4.2522721    1516.0635  0.056025998  0.055936587            3 
 2256000   0.91628916   -4.2397642    1515.7278  0.055988762  0.055925422            8 
 2257000    0.8836368   -4.2413842    1519.0986  0.056088413  0.055914304            5 
 2258000   0.87283735   -4.2542221    1518.3891  0.056037389  0.055903307            5 
 2259000    0.8944778   -4.2472826    1513.4886  0.055831805  0.055892014            4 
 2260000   0.89445669    -4.240665    1512.9876   0.05578863  0.055880991            1 
 2261000    0.8937055   -4.2422099    1519.8095  0.056015389  0.055869861            5 
 2262000   0.88909777     -4.27691    1508.9065  0.055588952  0.055858546            4 
 2263000   0.89130413   -4.2510437    1517.1398  0.055867574  0.055847179            3 
 2264000   0.90600718   -4.2422084     1515.466  0.055781288  0.055835947            5 
 2265000   0.88144544   -4.2552248    1517.0179  0.055813758    0.0558245            5 
 2266000   0.88957859   -4.2427023    1515.3726  0.055728619  0.055813223            2 
 2267000    0.8815717   -4.2320271     1517.423  0.055779407  0.055802074            7 
 2268000   0.88871653   -4.2742456     1514.131  0.055633855  0.055790763            3 
 2269000   0.86577174   -4.2546714    1519.6817  0.055813197  0.055779332            6 
 2270000   0.88036336   -4.2398421     1520.246  0.055809325   0.05576806            4 
 2271000   0.88002179   -4.2576666    1523.1507  0.055891337  0.055757054            3 
 2272000    0.8820963   -4.2266317    1524.2244  0.055906119  0.055746042            3 
 2273000   0.88643808   -4.2500286    1520.9836  0.055762706  0.055735087            6 
 2274000   0.86903001   -4.2466735    1524.5758  0.055869824  0.055724147            3 
 2275000   0.87657044   -4.2424954    1523.3375   0.05579991   0.05571312            5 
 2276000   0.89511137   -4.2456745    1524.5629   0.05582026  0.055702196            3 
 2277000   0.88064946   -4.2801741    1523.7869  0.055767344  0.055691204            3 
 2278000   0.88355589   -4.2608668    1524.1929  0.055757713   0.05567995           10 
 2279000   0.88457931   -4.2509673    1520.6506  0.055603721  0.055668788            3 
 2280000   0.88951834   -4.2648134    1525.5553    0.0557586  0.055657715            5 
 2281000   0.88150281   -4.2539823    1526.2983  0.055761301  0.055646679            6 
 2282000   0.90230965   -4.2391301    1528.2902  0.055809604  0.055635497            4 
 2283000   0.86237591   -4.2455081     1524.183  0.055635239  0.055624354            3 
 2284000   0.91473912   -4.2370067    1526.0365  0.055678507  0.055613161            3 
 2285000    0.8880817   -4.2642638    1524.3549  0.055592813  0.055601816            5 
 2286000   0.87210446   -4.2738291    1523.5387   0.05553874  0.055590559            2 
 2287000   0.88290454   -4.2602728    1522.4715  0.055475568  0.055579189            4 
 2288000   0.88505319    -4.252346    1525.7179  0.055569561  0.055568137            3 
 2289000   0.88613355   -4.2307505    1529.4254   0.05568026  0.055557099            3 
 2290000   0.87694968   -4.2471186    1532.5667  0.055770259  0.055546076            4 
 2291000   0.88121336   -4.2394166    1530.3815  0.055666432  0.055535149            5 
 2292000   0.90911176   -4.2369809    1525.6422  0.055469831  0.055524147           10 
 2293000   0.86866613   -4.2458934    1528.9056  0.055564241  0.055513229            3 
 2294000   0.87397358   -4.2597629    1530.3059  0.055590887  0.055502288            6 
 2295000   0.87485584   -4.2552616    1531.3383  0.055604151  0.055491391            5 
 2296000   0.87302981    -4.270232    1528.1438  0.055463989  0.055480437            2 
 2297000   0.88248213   -4.2663877     1529.506  0.055489261  0.055469346            2 
 2298000   0.88790155   -4.2870354    1525.9655  0.055336724  0.055458072            9 
 2299000   0.85739178   -4.2555373     1534.354  0.055616717  0.055446989            3 
 2300000   0.88802631   -4.2738497    1530.5409  0.055454381  0.055435752            3 
 2301000   0.86891307   -4.2518858    1530.7215   0.05543682  0.055424559            2 
 2302000   0.86862711   -4.2607721     1536.811  0.055633182  0.055413525            4 
 2303000   0.87718583   -4.2559252    1534.2901  0.055517807  0.055402159            5 
 2304000   0.89445701   -4.2550146    1531.2639  0.055384257  0.055391132            4 
 2305000   0.88146687   -4.2510389    1530.1293  0.055319207  0.055379997            4 
 2306000   0.88188234   -4.2674993    1526.2982  0.055156772  0.055368768            3 
 2307000   0.88666371   -4.2555752    1536.9366  0.055517143  0.055357552            5 
 2308000   0.90640144   -4.2694445    1531.5053  0.055296985  0.055346405            3 
 2309000   0.88520682   -4.2658668    1532.0335  0.055292101  0.055335331            4 
 2310000   0.86001473    -4.304679    1533.3595  0.055315998  0.055324117            6 
 2311000   0.88816121   -4.2721808    1535.1632  0.055357105  0.055313036            5 
 2312000   0.85950109   -4.2436508    1528.5129  0.055093459  0.055301915            3 
 2313000   0.89796735    -4.286714    1530.0451  0.055124841  0.055290713            7 
 2314000   0.87916679   -4.2688453    1533.5013  0.055225485  0.055279356            4 
 2315000   0.88505283   -4.2915772    1534.0839  0.055222604  0.055267954            4 
 2316000   0.88520825   -4.2781209    1533.6418   0.05518285  0.055256515            4 
 2317000   0.86771298   -4.2816371    1537.2554  0.055289003  0.055245237            5 
 2318000   0.88130251   -4.2664424    1536.0139  0.055220517  0.055234042            5 
 2319000   0.87645666   -4.2717053    1533.5009    0.0551064  0.055222659            4 
 2320000   0.86902318   -4.2522797    1538.2292  0.055252487  0.055211483            3 
 2321000   0.89331766   -4.2786145    1537.4839  0.055201922  0.055200333            3 
 2322000   0.88425297   -4.2856657    1535.3883  0.055102939  0.055189223            2 
 2323000   0.86984373   -4.2520945    1545.1922  0.055430916  0.055178031            4 
 2324000   0.87865015   -4.2593361    1538.4656  0.055165864  0.055167023            5 
 2325000   0.88130367   -4.2742927     1530.268  0.054848317  0.055155832            3 
 2326000   0.87250182   -4.2723802    1536.9383  0.055063711  0.055144584            3 
 2327000   0.85997204   -4.2728246    1534.8401   0.05496491  0.055133373            5 
 2328000   0.87615328     -4.24272    1543.1105  0.055237345  0.055122222            6 
 2329000   0.87424222   -4.2699157    1540.6655  0.055126144  0.055111019            4 
 2330000   0.86691636   -4.2614876    1542.0539  0.055152143  0.055099959            6 
 2331000   0.86040044   -4.2466164    1547.7042  0.055330482  0.055088917            7 
 2332000   0.86430816   -4.2867461      1546.63  0.055268369  0.055077904            4 
 2333000   0.88904459   -4.2632278    1549.0787  0.055332144  0.055066979            5 
 2334000   0.87460025   -4.2394745    1548.5509  0.055289593  0.055056091            4 
 2335000   0.88321387   -4.2523589    1540.3378  0.054972799  0.055045022            4 
 2336000   0.87983734   -4.2570712    1543.5175  0.055062696  0.055033879            3 
 2337000   0.86596888     -4.28461     1545.441  0.055107724  0.055022707            7 
 2338000   0.86345083   -4.2718803    1544.6893  0.055057362   0.05501165            3 
 2339000   0.85686835   -4.2863271    1545.6609  0.055068436  0.055000641            3 
 2340000   0.86876694   -4.2669299    1548.7181  0.055153778  0.054989624            3 
 2341000   0.88136899   -4.2723957    1549.0563  0.055142257  0.054978716            6 
 2342000   0.87000421   -4.2631274    1548.2174  0.055088861  0.054967721            4 
 2343000   0.85625181   -4.2915556    1547.2764  0.055031883   0.05495667            5 
 2344000   0.87226034   -4.2819878    1545.5627  0.054947481  0.054945736            2 
 2345000   0.89448962   -4.2654859     1550.008  0.055082018  0.054934707            6 
 2346000   0.89290224    -4.275846    1552.7559  0.055156148  0.054923727            7 
 2347000   0.88496105   -4.2568303     1556.918  0.055280428   0.05491288            4 
 2348000   0.87856496    -4.276496    1546.4535  0.054885486  0.054902039            6 
 2349000   0.84932773   -4.2500275    1550.6746   0.05501187  0.054891281            4 
 2350000   0.88032948    -4.301738    1547.2652  0.054867559  0.054880586            6 
 2351000   0.87868071   -4.2608515    1555.6289   0.05514068  0.054869938            2 
 2352000   0.84784558   -4.3098856    1549.8902  0.054913911  0.054859152            7 
 2353000   0.88108888   -4.2926247    1551.9456  0.054963367  0.054848363            7 
 2354000     0.897768   -4.3051961     1553.603  0.054998692  0.054837589            5 
 2355000   0.85105572   -4.3068418    1553.5479  0.054973386  0.054826804            6 
 2356000   0.85832012   -4.2755646     1553.134  0.054935412  0.054816047            4 
 2357000   0.86258756   -4.2825717    1553.4175   0.05492213  0.054805436            6 
 2358000   0.86914986   -4.2855951    1557.9355  0.055058507  0.054794624            3 
 2359000   0.88092849   -4.2841106    1560.0198  0.055108796  0.054784031            3 
 2360000   0.87014728   -4.2804508    1557.9725  0.055013155  0.054773428            3 
 2361000   0.85560301     -4.30148    1558.4692  0.055007383  0.054762997            4 
 2362000   0.85417609   -4.3072181    1552.9394  0.054788999  0.054752343            5 
 2363000   0.88379796   -4.2880515     1557.223  0.054916877  0.054741682            4 
 2364000    0.8876824   -4.2722249    1560.0197  0.054992236  0.054731077            4 
 2365000   0.89033162   -4.2583764    1558.5978  0.054918881  0.054720517            2 
 2366000   0.85903093   -4.2384027    1565.1916   0.05512791  0.054710082            5 
 2367000   0.86472884   -4.2625359    1562.2312  0.055000394  0.054699499            7 
 2368000   0.86627731   -4.2792471    1564.6245  0.055061391  0.054688791            3 
 2369000   0.86577996   -4.2491204    1565.7171  0.055076585  0.054677942            2 
 2370000   0.85759999   -4.2822608    1561.1408  0.054892433  0.054667277            4 
 2371000   0.86731797    -4.273165    1563.6198  0.054956409  0.054656541            5 
 2372000   0.86862835   -4.2485289    1562.6278   0.05489839  0.054645898            3 
 2373000   0.86119076   -4.2632632    1558.5789  0.054733069  0.054635368            6 
 2374000   0.87867966   -4.2518212    1565.7089  0.054960295  0.054624645            4 
 2375000    0.8670627   -4.2701681    1563.6114  0.054863559  0.054614103            3 
 2376000   0.87542529   -4.2726773    1565.0794  0.054891954  0.054603363            3 
 2377000   0.90694454    -4.288497    1559.7708   0.05468275   0.05459264            3 
 2378000   0.88884925    -4.267796     1562.881  0.054768749  0.054581923            5 
 2379000   0.87089795   -4.2587184    1570.6116  0.055016521   0.05457114            2 
 2380000   0.86223815   -4.2798253     1568.699  0.054926436  0.054560487            4 
 2381000   0.86746234   -4.2696319    1566.2624  0.054818088  0.054549767            6 
 2382000   0.87452684   -4.3076593    1562.6342  0.054668144  0.054538881            3 
 2383000   0.83675392   -4.2587162     1567.809  0.054826164  0.054528326            3 
 2384000   0.86649744   -4.2967622    1562.4847  0.054617055   0.05451767            4 
 2385000   0.87767606   -4.2863291    1562.0884  0.054580308  0.054506779           10 
 2386000   0.87651928   -4.2823039    1567.3564  0.054741421  0.054496093            9 
 2387000   0.86221453    -4.302242    1565.3188  0.054647354  0.054485299            7 
 2388000   0.86586804   -4.2760434    1565.5315  0.054631891  0.054474658            6 
 2389000   0.88225052   -4.3056294    1563.1037  0.054524338  0.054463941            7 
 2390000    0.8856607   -4.2758867    1568.5492  0.054691395  0.054453112            4 
 2391000   0.85494104   -4.2803594    1561.5269  0.054423773  0.054442382            8 
 2392000   0.86251556   -4.2996092     1565.661  0.054545048  0.054431427            4 
 2393000    0.8544664   -4.2627184    1569.6288  0.054660426  0.054420698            2 
 2394000   0.87897946   -4.2883154    1565.7285  0.054501828  0.054410245            4 
 2395000   0.88039329   -4.2883189    1569.6859  0.054616769  0.054399532            3 
 2396000   0.87277025   -4.2712809    1568.0116  0.054535739  0.054388736            4 
 2397000   0.88245853   -4.2741866    1576.1522  0.054796003  0.054378026            3 
 2398000   0.87463352   -4.2862018    1571.5512  0.054613262  0.054367505            5 
 2399000   0.85986039   -4.2897104    1571.1412  0.054576253  0.054356934            4 
 2400000   0.85798653   -4.2834452    1571.9979  0.054583262  0.054346515            3 
 2401000     0.878873   -4.3018941    1570.1549  0.054496562  0.054335983            5 
 2402000   0.87188545   -4.2962411    1576.8445  0.054705958  0.054325649            8 
 2403000   0.86756033   -4.2933497    1577.1288  0.054693049   0.05431536            6 
 2404000   0.84509778    -4.253342    1573.4702  0.054543475  0.054305035            4 
 2405000   0.85590504   -4.2793614    1575.9167  0.054605568  0.054294526            3 
 2406000   0.87113772   -4.3041866    1575.4725  0.054567487  0.054283973            7 
 2407000   0.86160152   -4.2941661    1580.0177  0.054702178  0.054273561            2 
 2408000   0.87256871    -4.297158    1574.0731  0.054473736  0.054262956            9 
 2409000    0.8654184   -4.3051026    1572.2233  0.054387135  0.054252267            2 
 2410000   0.86995301    -4.275968    1575.6285  0.054482313   0.05424154            2 
 2411000    0.8787011   -4.2710849    1579.2933  0.054586386  0.054231089            5 
 2412000   0.87346784   -4.2973355    1576.8298  0.054478642  0.054220639            5 
 2413000    0.8734886   -4.2980453    1578.3165  0.054507409  0.054210075            3 
 2414000   0.86398931   -4.2908782    1575.7902  0.054397618  0.054199522            3 
 2415000   0.85907184   -4.3073297     1580.285  0.054530192  0.054188896            3 
 2416000   0.85545136   -4.2785138    1579.2307  0.054471257  0.054178269            5 
 2417000   0.86301581   -4.2830932    1577.2873  0.054381716  0.054167668            3 
 2418000   0.86124406   -4.2732944    1579.2052  0.054425324  0.054157292            4 
 2419000   0.84916073   -4.2864181    1578.3981   0.05437502  0.054146697            5 
 2420000   0.86003892   -4.2849202    1580.4807  0.054424266  0.054136107            5 
 2421000   0.87578511   -4.2971107    1576.8519  0.054276879  0.054125741            2 
 2422000   0.87162275   -4.2908555    1582.3568  0.054443874  0.054115144            4 
 2423000   0.88229389   -4.2773959     1583.911   0.05447486  0.054104715            5 
 2424000   0.87333817   -4.2902754    1578.5955  0.054269647  0.054094254            3 
 2425000   0.85418111   -4.2695896    1587.2652  0.054545197  0.054083853           15 
 2426000    0.8618682   -4.2746863    1581.9134  0.054338878  0.054073624            3 
 2427000   0.86475103   -4.2855238    1587.7697  0.054517569  0.054063195            5 
 2428000   0.85932593   -4.2737655    1585.0231  0.054400847  0.054052768            4 
 2429000   0.87493327    -4.296783    1583.2557  0.054317817  0.054042469            9 
 2430000   0.87753265   -4.2999895    1585.4354  0.054370214  0.054031982            4 
 2431000   0.86437809   -4.2995632    1584.5337  0.054316938  0.054021514            5 
 2432000   0.85356918   -4.2662603    1581.9644  0.054206566  0.054011138            7 
 2433000   0.85614093   -4.2960711    1583.2026  0.054226696  0.054000665            4 
 2434000   0.87531188   -4.3140063    1583.3245  0.054208588  0.053989977            7 
 2435000   0.86233566   -4.3007737     1585.631  0.054265264  0.053979178            4 
 2436000   0.87831183    -4.278111    1582.7302  0.054143753  0.053968464            3 
 2437000   0.84507294   -4.2782322    1580.0858   0.05403111  0.053957707            8 
 2438000   0.87534896   -4.3030896    1581.6007  0.054060729  0.053946971            3 
 2439000   0.85534988   -4.3008793    1582.2397  0.054060398  0.053936256            3 
 2440000   0.86575414   -4.2949735    1583.0997  0.054067611  0.053925474            3 
 2441000   0.86804453   -4.3013391    1576.9707  0.053836224   0.05391467            4 
 2442000   0.88116002   -4.2884293    1583.7211  0.054044535  0.053903984            5 
 2443000    0.8684906    -4.295067    1586.9902  0.054133926  0.053893283            4 
 2444000   0.86895982   -4.3022724    1591.9391   0.05428052  0.053882585            3 
 2445000   0.86468177    -4.311471    1585.4433  0.054036923  0.053871704            3 
 2446000   0.86532851    -4.284741    1585.9882  0.054033394  0.053861053            2 
 2447000   0.85681357     -4.30308    1586.6411  0.054033547  0.053850395            7 
 2448000   0.87052209   -4.3081354    1583.8974  0.053918074  0.053839696            4 
 2449000   0.86173357   -4.3194255    1583.8326  0.053893855  0.053828985            4 
 2450000    0.8618588   -4.2834834    1586.5908  0.053965674   0.05381825            2 
 2451000   0.85304127   -4.3137139     1590.218   0.05406698  0.053807581            5 
 2452000   0.86271685   -4.2964408    1592.9332  0.054137208  0.053796773            6 
 2453000   0.85036094   -4.3101326      1587.51    0.0539309  0.053786186           11 
 2454000   0.88118978   -4.3018975     1584.786  0.053816422  0.053775511            2 
 2455000   0.86690372   -4.2765313    1595.7998  0.054168358  0.053764991            6 
 2456000    0.8790429   -4.3088885     1589.995  0.053949341  0.053754434            9 
 2457000   0.85493234   -4.2960613    1595.0644  0.054099321   0.05374392           15 
 2458000   0.87970839   -4.2721581    1595.4178  0.054089293  0.053733409            4 
 2459000   0.85132439   -4.3087896    1595.9692  0.054085982  0.053723002            4 
 2460000   0.85660477   -4.3221398    1590.4751  0.053877883   0.05371246            4 
 2461000   0.86349257   -4.2906388    1590.8571  0.053868926  0.053701892            8 
 2462000   0.85565539   -4.3119809      1596.43  0.054035675  0.053691403            5 
 2463000   0.85263804   -4.3034069    1597.8182  0.054060705  0.053680892            5 
 2464000   0.86763974   -4.3074801    1593.4039  0.053889472  0.053670432            3 
 2465000   0.84997952   -4.2880819    1589.3229  0.053729647  0.053659989            3 
 2466000   0.87706066   -4.2715703     1596.092  0.053936604  0.053649495            5 
 2467000   0.85388194    -4.305637      1592.67  0.053799148  0.053638967            3 
 2468000   0.85089887   -4.2907961    1594.6517  0.053844263  0.053628386            6 
 2469000    0.8374736   -4.3239583    1595.0929  0.053837347  0.053617627            4 
 2470000   0.85512875   -4.3037518     1601.967   0.05404747  0.053607156            6 
 2471000   0.84378374   -4.2898479    1599.6442   0.05394726  0.053596681            4 
 2472000   0.85351687   -4.3064479    1596.9743  0.053835433  0.053586158            8 
 2473000   0.85711542   -4.3075343    1601.7149  0.053973408  0.053575636            2 
 2474000   0.85189596   -4.3161272    1595.7572  0.053750915  0.053565093            4 
 2475000   0.86882213   -4.3218043     1597.988  0.053804311  0.053554716            4 
 2476000   0.87826155    -4.308336    1605.7275  0.054043064  0.053544383            4 
 2477000   0.86146068    -4.301065    1600.7629  0.053854222  0.053533954            3 
 2478000   0.85812961   -4.3189173    1600.2776  0.053816167  0.053523485            4 
 2479000   0.84954567   -4.3145759    1595.8434  0.053645402  0.053512879            9 
 2480000   0.84651452   -4.2745083    1605.3853  0.053944399  0.053502421            2 
 2481000   0.86757133   -4.3107429    1603.5252  0.053860178  0.053491931            6 
 2482000   0.85134518   -4.2828996    1600.9673  0.053752596   0.05348151            3 
 2483000   0.87011172   -4.3001516    1607.4277   0.05394777  0.053471045            3 
 2484000   0.86476899   -4.2833429    1605.9572  0.053876718  0.053460609            4 
 2485000   0.86902458   -4.3124871    1602.2971  0.053732298   0.05345015            3 
 2486000   0.87228039   -4.3100458    1608.1306  0.053906227  0.053439628            6 
 2487000   0.86601657    -4.336373    1599.8904  0.053608445  0.053429268            5 
 2488000   0.84377849   -4.2980505    1606.9265  0.053822565  0.053418963            4 
 2489000   0.85667647   -4.3219019    1603.1148  0.053673324  0.053408347            6 
 2490000   0.84614222   -4.3341279    1606.7917  0.053774822   0.05339778            7 
 2491000   0.85000369   -4.3056749    1608.0623  0.053795743  0.053387231            7 
 2492000   0.85559684   -4.3307681    1602.8396  0.053599504  0.053376897            8 
 2493000   0.85479374   -4.2966434    1605.8538  0.053678762  0.053366492            5 
 2494000   0.85502222   -4.3256121    1605.0516  0.053630433  0.053355891            4 
 2495000   0.81682722   -4.2923986    1605.6466   0.05362881  0.053345482            4 
 2496000   0.87328795   -4.3209956    1601.8856  0.053481757  0.053335022            3 
 2497000   0.85285209    -4.305043    1608.6342  0.053685562  0.053324566            4 
 2498000   0.86509387   -4.3004747    1610.0634   0.05371175  0.053313984            5 
 2499000   0.84583077   -4.3048149    1608.4498  0.053636448   0.05330351            3 
 2500000   0.83209564   -4.3183805    1605.9259  0.053530864  0.053292948            4 
 2501000   0.84786944   -4.2938886    1605.4536  0.053493723  0.053282462            7 
 2502000   0.85474424   -4.2954612    1609.9809  0.053623132   0.05327194            8 
 2503000   0.86527568    -4.334464    1604.3392  0.053413875  0.053261482            8 
 2504000   0.84567673   -4.3351555    1608.1658  0.053519894  0.053250971            4 
 2505000   0.85234998   -4.3290647    1609.3152  0.053536767  0.053240432            4 
 2506000   0.83804373   -4.3161671     1607.275   0.05344756  0.053230019            4 
 2507000   0.86081441   -4.3039943    1606.3215  0.053394546  0.053219551            5 
 2508000   0.86065866   -4.3341225    1612.3967  0.053575115  0.053209149            4 
 2509000   0.86951318   -4.3007845    1614.7818  0.053632982   0.05319878            7 
 2510000   0.86668837   -4.3276556     1612.862  0.053547876  0.053188338            9 
 2511000    0.8386283   -4.3220111    1609.4454  0.053413163  0.053177873            5 
 2512000   0.83751992   -4.3014894    1612.6712  0.053498912  0.053167541           11 
 2513000   0.85153404   -4.3215719    1610.1582   0.05339429  0.053157115            4 
 2514000   0.86631254   -4.3056474    1617.5851  0.053619235    0.0531467            5 
 2515000   0.85287847   -4.3001999    1610.1903  0.053352894  0.053136199            5 
 2516000   0.87716157   -4.3310811    1616.4445  0.053538836  0.053125754            7 
 2517000   0.86893279   -4.3206801    1619.8107  0.053629012  0.053115422            3 
 2518000   0.82708507   -4.2967554    1616.3893  0.053494484  0.053105165            3 
 2519000   0.86574609   -4.3550262    1611.5056  0.053311683    0.0530948            6 
 2520000   0.84155833   -4.3005742    1617.4645  0.053487583  0.053084426            3 
 2521000   0.86588094   -4.3170563    1619.4777  0.053532914   0.05307409            7 
 2522000   0.83866055   -4.3224468    1611.6542   0.05325318  0.053063815            4 
 2523000   0.84339299   -4.3170063    1617.4855  0.053424675  0.053053512            4 
 2524000    0.8551625   -4.3284942    1613.5855  0.053274745  0.053043173            2 
 2525000   0.86392687   -4.3114876    1611.1947  0.053174742  0.053032727            6 
 2526000   0.85630056   -4.3202289    1612.5988  0.053200014  0.053022288            4 
 2527000   0.84823341   -4.3219096    1612.2187  0.053166427   0.05301176           10 
 2528000   0.87219975   -4.2979986    1619.9208  0.053399287   0.05300141            4 
 2529000   0.86390429   -4.3224954    1613.4107  0.053163659  0.052991102            4 
 2530000   0.83891684   -4.3283945    1614.9653   0.05319385  0.052980603            6 
 2531000   0.85516164   -4.3240568    1616.9258  0.053237384  0.052970101            5 
 2532000   0.83464228   -4.3132796    1619.0515  0.053286318   0.05295961            3 
 2533000   0.83352068   -4.3462048    1616.6342  0.053185756  0.052949122            6 
 2534000   0.87183899   -4.3185224    1619.6727  0.053264689  0.052938659            5 
 2535000   0.82776651   -4.3243014    1615.3906  0.053102913  0.052928137            8 
 2536000   0.85635187   -4.3388334    1619.1632  0.053205942  0.052917567            2 
 2537000   0.83092064   -4.3193379     1617.208  0.053120748   0.05290711            7 
 2538000   0.86510724   -4.3315894    1619.1906  0.053164914  0.052896471            4 
 2539000   0.85839381   -4.3000841    1623.1767  0.053274803  0.052886029            4 
 2540000   0.83925472   -4.3287883    1623.7592  0.053272939  0.052875705            3 
 2541000   0.84017754   -4.3187449      1619.99  0.053128363  0.052865338            6 
 2542000    0.8256416   -4.3159721    1625.1815  0.053277652  0.052854924            8 
 2543000   0.84357928   -4.3200647    1622.8551  0.053180467  0.052844522            4 
 2544000   0.84712231   -4.3677134    1615.9157  0.052932248  0.052834213            5 
 2545000   0.84817268   -4.3137045    1628.0229  0.053307888  0.052823652            3 
 2546000   0.86106062   -4.3017396    1623.7514  0.053147138  0.052813256            4 
 2547000   0.84647354    -4.330896    1621.7214  0.053059854  0.052802821            3 
 2548000   0.83787039   -4.3034699      1624.75  0.053138081  0.052792389            3 
 2549000   0.86077441   -4.3107499    1623.6953  0.053082754  0.052781986            5 
 2550000     0.842214   -4.3315737     1620.489  0.052957158  0.052771513            3 
 2551000   0.84497327   -4.2953113    1626.2435  0.053124381  0.052760989            6 
 2552000   0.85398197   -4.3328765     1625.154  0.053067985   0.05275058            2 
 2553000   0.83220836    -4.333494    1618.0879  0.052816553   0.05274003            9 
 2554000   0.85412082   -4.2780887    1629.7826  0.053177455  0.052729607            4 
 2555000   0.83719174   -4.3062559    1623.4083  0.052948738  0.052719131            3 
 2556000   0.84301106   -4.3049761    1628.5901  0.053096963  0.052708778           11 
 2557000    0.8364134   -4.3433125    1622.9955  0.052893871  0.052698381            6 
 2558000   0.83032733   -4.3383804    1628.1416   0.05304084  0.052687719            4 
 2559000   0.83470646   -4.3346844    1622.2313  0.052827644  0.052677177            4 
 2560000   0.84569105   -4.3330203    1622.5429  0.052817153  0.052666594            5 
 2561000   0.82463533   -4.3204625    1626.9827  0.052940995  0.052656029            2 
 2562000   0.84063434   -4.3004689    1626.6591  0.052909806   0.05264556            6 
 2563000   0.83849608   -4.3199923    1621.3467  0.052716437  0.052634934            6 
 2564000   0.83287641   -4.3338032    1634.6383  0.053127871  0.052624472            6 
 2565000   0.84996144   -4.3350317    1627.3095  0.052869054  0.052613988            3 
 2566000   0.84311594   -4.3257975    1629.6418  0.052924196  0.052603411            4 
 2567000    0.8450433   -4.3529479    1626.3088  0.052795376  0.052593019            9 
 2568000   0.84729325   -4.2973078    1634.5193  0.053041253  0.052582417            6 
 2569000   0.86213726   -4.3537449    1630.5366  0.052891418  0.052572056            4 
 2570000   0.82630872   -4.3519976    1628.2152  0.052795563  0.052561646            3 
 2571000   0.83903509   -4.3489507    1623.5389  0.052623457  0.052551136            6 
 2572000   0.84929956   -4.3553497    1629.0676  0.052782127  0.052540644            4 
 2573000   0.84086744      -4.3313    1636.2049  0.052992775   0.05253023            3 
 2574000   0.83954739   -4.3427486    1627.5734  0.052692743  0.052519778            2 
 2575000   0.83710635   -4.3312003    1635.5076  0.052929049  0.052509271            4 
 2576000   0.83780389   -4.3455596    1629.9456  0.052728573  0.052498683            4 
 2577000    0.8537744   -4.3300748    1633.5239  0.052823824  0.052488204            4 
 2578000   0.83610483   -4.3259142    1631.3266  0.052732305  0.052477668            4 
 2579000   0.85430894   -4.3635887    1631.3133  0.052711428   0.05246709            3 
 2580000   0.83479839   -4.3618655    1631.0141  0.052681332  0.052456472            3 
 2581000   0.83462966   -4.3247113    1635.3817  0.052801941  0.052445961            3 
 2582000   0.84204569   -4.3332279    1636.4472  0.052815878  0.052435421            6 
 2583000   0.83112582   -4.3190097    1634.3667  0.052728309  0.052424933            2 
 2584000    0.8283185   -4.3350799    1629.3067  0.052544719  0.052414333            2 
 2585000   0.84417837   -4.3296577    1634.6092  0.052695332  0.052403893            3 
 2586000   0.82060076   -4.3169303    1635.3532  0.052698929  0.052393567            5 
 2587000   0.82842677   -4.3503575    1635.3278  0.052677743   0.05238303            5 
 2588000   0.83155167   -4.3330187    1639.3191  0.052785907  0.052372619            6 
 2589000   0.83653857   -4.3521407    1633.7479  0.052586193   0.05236224            5 
 2590000   0.83300221   -4.3381187     1636.777  0.052663351  0.052351735            6 
 2591000   0.84075252   -4.3530341    1632.7631  0.052513929    0.0523412            4 
 2592000   0.84035963   -4.3406749    1636.8764  0.052625915    0.0523307            4 
 2593000   0.84159234   -4.3203597    1640.2221  0.052713142  0.052320203            7 
 2594000   0.82771056   -4.3668046     1625.802  0.052229569  0.052309649            7 
 2595000   0.84304834   -4.3546401    1639.3211  0.052643582   0.05229908            4 
 2596000   0.82390027   -4.3459916    1635.6883  0.052506687  0.052288643            6 
 2597000   0.84129978   -4.3265154     1643.395  0.052733764   0.05227826            3 
 2598000   0.82766653   -4.3257002    1638.0943   0.05254344  0.052267844            4 
 2599000   0.83167137    -4.347053    1636.7908  0.052481429  0.052257409            3 
 2600000   0.82854164   -4.3507554    1638.3196  0.052510243  0.052246905            2 
 2601000   0.85753557   -4.3501767    1635.3762  0.052395751  0.052236242            3 
 2602000   0.82998311   -4.3386217    1643.7859   0.05264495  0.052225735            6 
 2603000   0.82127195   -4.3348691    1635.8503  0.052370673  0.052215235            4 
 2604000   0.81612879   -4.3623154    1638.9827  0.052450804  0.052204662            4 
 2605000   0.84024878   -4.3230762    1643.2379  0.052566791  0.052194227            5 
 2606000   0.82102603   -4.3559077    1638.5112  0.052395471  0.052183665            7 
 2607000   0.82661824   -4.3497005    1639.3625  0.052402586  0.052173123            4 
 2608000   0.84716925   -4.3634435    1632.0237  0.052147996  0.052162576            3 
 2609000   0.82053752    -4.345491    1640.8475  0.052409847  0.052152016            6 
 2610000   0.81219397   -4.3273561    1645.5725  0.052540631  0.052141547            3 
 2611000    0.8443894   -4.3445967    1645.2297  0.052509566  0.052131174            4 
 2612000    0.8281774   -4.3654151    1635.6926   0.05218519   0.05212073            5 
 2613000   0.85337316   -4.3544125    1640.7708  0.052327171  0.052110275            2 
 2614000   0.84913514   -4.3559206    1638.9912   0.05225042  0.052099988            8 
 2615000   0.84544559   -4.3692018    1642.4622  0.052341053  0.052089421            4 
 2616000   0.82198057   -4.3648884    1640.5502  0.052260136  0.052078886            7 
 2617000    0.8188903   -4.3488201     1646.586  0.052432365  0.052068582            5 
 2618000   0.83907339   -4.3568695    1641.6384   0.05225485   0.05205824           11 
 2619000   0.82912658   -4.3571135    1643.8784  0.052306172  0.052047754            5 
 2620000   0.83140772   -4.3614404    1647.6341  0.052405666  0.052037277            7 
 2621000   0.84114744   -4.3134743    1644.5539  0.052287737  0.052026719            4 
 2622000   0.84417427   -4.3290431    1641.6924  0.052176851   0.05201629            3 
 2623000   0.83881912   -4.3680598    1643.9848  0.052229789  0.052005755            6 
 2624000   0.83213552   -4.3271947    1643.7122  0.052201227  0.051995427           10 
 2625000   0.82738723   -4.3600548    1642.5669  0.052144982  0.051984824            5 
 2626000   0.82972656   -4.3332761    1645.6251  0.052222173  0.051974224            9 
 2627000   0.83250714   -4.3635878    1649.1586  0.052314384  0.051963728           10 
 2628000   0.84270736   -4.3000591    1644.9843  0.052162109  0.051953254            6 
 2629000   0.82849747   -4.3722068     1645.923  0.052172023  0.051942706            4 
 2630000   0.82576786   -4.3451542    1647.7782  0.052210968  0.051932208            5 
 2631000   0.84525205   -4.3697991    1640.9036  0.051973382  0.051921616            4 
 2632000   0.79832188   -4.3415232    1648.4048  0.052191134  0.051910974            6 
 2633000   0.83426752    -4.343726    1644.8948  0.052060224   0.05190036            6 
 2634000   0.82430399   -4.3727336    1641.5959  0.051936088  0.051889781            4 
 2635000   0.82943971   -4.3555803    1643.7614  0.051984864  0.051879048            6 
 2636000   0.84360672   -4.3477378    1651.0127  0.052194381  0.051868325            5 
 2637000   0.82657159   -4.3760444    1647.1704  0.052053167  0.051857675            6 
 2638000   0.81144447   -4.3385866    1650.6427  0.052143122  0.051846967            6 
 2639000   0.81730032   -4.3409114    1647.4244   0.05202174  0.051836247            3 
 2640000   0.84560694   -4.3673359    1644.4776  0.051909015  0.051825564            4 
 2641000   0.83011895   -4.3672661    1639.2493  0.051724389  0.051814767            4 
 2642000   0.83038815   -4.3709505    1650.3822  0.052055961    0.0518039            3 
 2643000    0.8236092   -4.3576475    1653.2973  0.052128179   0.05179318            5 
 2644000   0.84125417   -4.3430622    1648.5728  0.051959556  0.051782561            4 
 2645000   0.83783082   -4.3539336    1649.2336   0.05196073  0.051771959            3 
 2646000   0.84848839   -4.3705063     1648.966  0.051932667  0.051761191            6 
 2647000   0.83353562   -4.3725841     1647.786  0.051875896   0.05175026            5 
 2648000   0.84145099   -4.3465469    1651.1664  0.051962687  0.051739542            2 
 2649000   0.83541609   -4.3609364    1650.2477  0.051914172  0.051728909            6 
 2650000   0.84282223   -4.3530311    1647.4601  0.051806922    0.0517181            9 
 2651000   0.81802681   -4.3453986    1650.6108  0.051886421  0.051707428            5 
 2652000   0.82712087   -4.3301219    1655.1183  0.052008494  0.051696651            4 
 2653000   0.82550706    -4.363959    1646.3682  0.051714039  0.051685991            6 
 2654000   0.83528931   -4.3453618     1651.487  0.051855281  0.051675207            4 
 2655000   0.81847772   -4.3693574    1650.4294  0.051802554  0.051664518            7 
 2656000   0.84020914   -4.3687554     1650.153  0.051774378  0.051653605            6 
 2657000   0.82450818   -4.3707522    1654.2729  0.051884109  0.051642958            2 
 2658000   0.80611322   -4.3517624    1654.5222  0.051872404  0.051632246            5 
 2659000   0.82225627   -4.3480064    1658.7583  0.051985654  0.051621555            8 
 2660000   0.81937305   -4.3632375    1653.6388  0.051805728  0.051610709            5 
 2661000   0.83424298   -4.3555198    1649.3312  0.051651359  0.051599919            4 
 2662000   0.82633196   -4.3712527    1649.5294  0.051638159  0.051589181            5 
 2663000   0.83361098   -4.3331557    1653.9934  0.051758463  0.051578567            4 
 2664000   0.83502629   -4.3727494    1653.4365  0.051721614  0.051567934            5 
 2665000   0.82491971    -4.353841     1652.665  0.051678081   0.05155726            9 
 2666000   0.82519755   -4.3441731    1655.0878  0.051734427  0.051546707            3 
 2667000   0.83124455   -4.3473855    1657.8318  0.051800769  0.051536075            2 
 2668000   0.82902265   -4.3369836    1657.5927  0.051773884  0.051525417            6 
 2669000   0.82540804   -4.3412918    1656.4821   0.05171981  0.051514721            6 
 2670000   0.84533899   -4.3564592    1653.1758  0.051597246  0.051503868            5 
 2671000   0.81793852    -4.385508    1647.4704  0.051399924  0.051492971            4 
 2672000     0.827245   -4.3725999    1660.3716  0.051783046  0.051482095            8 
 2673000   0.83206066   -4.3525559    1653.1384  0.051538171  0.051471224            4 
 2674000   0.83434266   -4.3571965    1648.0412  0.051360046  0.051460431            3 
 2675000   0.81894289   -4.3464234    1651.9731  0.051463336  0.051449601            5 
 2676000   0.81082273    -4.348832    1657.1489  0.051605284  0.051438709            3 
 2677000   0.80991175     -4.35376    1653.1656  0.051462008  0.051427908            5 
 2678000   0.82853917   -4.3434472    1663.1802  0.051754425  0.051417035            5 
 2679000   0.83063191   -4.3594683    1651.0243  0.051356985  0.051406193            3 
 2680000   0.81979105    -4.347399    1657.7841  0.051548015  0.051395324            2 
 2681000   0.81202921   -4.3754627    1653.5532  0.051397278   0.05138448            7 
 2682000   0.81700079    -4.348127    1657.7985  0.051510022  0.051373491            4 
 2683000   0.83451062   -4.3945571    1660.2905  0.051568223   0.05136271            5 
 2684000   0.81942639   -4.3580156    1659.9722  0.051539128  0.051351805            5 
 2685000   0.82721144   -4.3772246    1657.0884  0.051430429   0.05134084            5 
 2686000    0.8295578     -4.34998    1660.0271  0.051502453  0.051330001            3 
 2687000   0.82051171   -4.3831485    1653.9265  0.051294085  0.051319085            9 
 2688000   0.81077468    -4.375738    1654.0459  0.051278703  0.051308057            7 
 2689000   0.82407394   -4.3505392    1660.4376  0.051457715  0.051297038            5 
 2690000   0.83012502   -4.3630403    1658.7765  0.051387128  0.051286074            3 
 2691000   0.82490335   -4.3839713    1652.5026  0.051173746  0.051275056            8 
 2692000   0.79686515   -4.3544567    1660.8585    0.0514134  0.051264005            3 
 2693000   0.81596817   -4.3744938    1658.9546  0.051335393  0.051252983            4 
 2694000   0.83032041   -4.3653095    1654.9854   0.05119356   0.05124208            6 
 2695000   0.82472909    -4.354856    1657.6545  0.051257096  0.051231176            3 
 2696000   0.81182949   -4.3617932     1660.558   0.05132783  0.051220098            4 
 2697000     0.820673   -4.3378299    1660.4576  0.051305697  0.051209132            6 
 2698000    0.8167376    -4.372581    1663.8245  0.051390674  0.051198093            3 
 2699000   0.82024095   -4.3643943    1660.9419  0.051282631  0.051187147            4 
 2700000   0.82865003   -4.3737006     1661.392   0.05127753  0.051176185            6 
 2701000   0.82555459   -4.3847401    1657.7689  0.051146763  0.051165137            4 
 2702000   0.82540092   -4.3529388     1657.063  0.051106064  0.051154124            4 
 2703000   0.81753932   -4.3612325    1665.6359  0.051351459  0.051143229            4 
 2704000   0.81442087    -4.383772    1651.2197  0.050888181  0.051132389            3 
 2705000   0.81650209   -4.3602213    1665.8366  0.051319673  0.051121424            9 
 2706000   0.81991143   -4.3875964    1660.6755  0.051141769  0.051110435            6 
 2707000    0.8102932   -4.3922662    1663.2644  0.051202574  0.051099418            3 
 2708000   0.82037485   -4.3723908     1663.413  0.051188237  0.051088426            6 
 2709000   0.83359727   -4.3548153    1662.9883  0.051156278  0.051077514            4 
 2710000   0.81318284   -4.3513983    1666.5199     0.051246  0.051066669            3 
 2711000   0.81344031   -4.3552335    1662.2782  0.051096709  0.051055794            3 
 2712000   0.82056854   -4.3790431    1664.4997  0.051146132  0.051044931            7 
 2713000   0.82434391   -4.3743703    1655.8246  0.050860812  0.051033859            6 
 2714000   0.83815735   -4.3922871    1661.4623  0.051015177  0.051022793           10 
 2715000    0.8083627   -4.3914654    1662.1449  0.051017339  0.051011639            3 
 2716000   0.81628821   -4.3637456    1660.4309  0.050945966  0.051000493            8 
 2717000    0.8269338   -4.3685563    1666.9443  0.051126989  0.050989471            7 
 2718000   0.80459724   -4.3931442    1662.6242  0.050975724   0.05097847            4 
 2719000   0.81514499   -4.3684852      1665.63    0.0510491  0.050967355            3 
 2720000   0.80444517   -4.3966768    1666.5964  0.051059939  0.050956313            2 
 2721000   0.80744644   -4.3561192    1667.3919  0.051065537  0.050945339            5 
 2722000   0.83030143    -4.380603    1664.1001  0.050945999  0.050934266            6 
 2723000   0.82078982   -4.3986965    1666.3438  0.050995953  0.050923295            3 
 2724000   0.81672959   -4.3813571    1669.4004  0.051070742  0.050912408            6 
 2725000   0.82260448   -4.3824982    1664.1537   0.05089155  0.050901259            6 
 2726000   0.80993513     -4.39944     1663.531  0.050853847  0.050890247            6 
 2727000     0.811234   -4.3679342    1663.8464  0.050844836   0.05087918           12 
 2728000    0.8145926   -4.3348452    1666.4232  0.050904913   0.05086804            7 
 2729000   0.82367757   -4.3758048    1668.3742  0.050945835   0.05085699            6 
 2730000   0.80999305   -4.3836698     1668.698  0.050937056  0.050846026            8 
 2731000   0.80444093   -4.4033311    1666.6511  0.050855946  0.050835051            7 
 2732000   0.80946818   -4.3811955    1663.4972   0.05074113  0.050824044            3 
 2733000   0.80825614    -4.395398    1668.4756  0.050874362   0.05081303            4 
 2734000   0.82439642   -4.3777031    1666.2405  0.050787628  0.050802122            6 
 2735000   0.81128042   -4.3736254    1671.5952  0.050932211  0.050791102            8 
 2736000   0.81673226   -4.3923244    1669.2048  0.050840791  0.050780086            3 
 2737000    0.8118872   -4.3874876    1674.6387  0.050987659    0.0507691           16 
 2738000   0.79500809   -4.4023533    1667.2069  0.050742845  0.050758116            5 
 2739000   0.81367564   -4.3907384    1667.1779  0.050723437  0.050747047            6 
 2740000   0.80127266   -4.3812216    1666.7482  0.050691856  0.050736077            5 
 2741000    0.8206523   -4.3967118    1668.9973  0.050741738  0.050725216            3 
 2742000   0.80181122   -4.3864573    1665.6944  0.050622856  0.050714197            4 
 2743000   0.81490085   -4.3724559    1669.7297  0.050726992  0.050703294            4 
 2744000   0.82507091   -4.3936277    1670.7874  0.050740628  0.050692267            7 
 2745000   0.80307936   -4.4156486    1673.2869  0.050798023  0.050681354            5 
 2746000    0.8278548    -4.399524    1672.3383  0.050750737  0.050670468            7 
 2747000    0.8215134   -4.3817605    1671.1524  0.050696287  0.050659496            3 
 2748000   0.81750582   -4.4013579    1666.2413  0.050528908  0.050648544           10 
 2749000   0.82873268   -4.3834198    1674.9502   0.05077453  0.050637622            9 
 2750000   0.80291864   -4.3736324    1673.5776  0.050714473  0.050626628            4 
 2751000   0.79325958    -4.405668    1668.1161  0.050530596  0.050615602            8 
 2752000   0.82466301   -4.3789025    1675.8531  0.050746521  0.050604593            5 
 2753000   0.81058855   -4.3750456    1675.1954  0.050708179  0.050593681           12 
 2754000   0.80784242   -4.4044216    1669.3518  0.050512943  0.050582718            2 
 2755000   0.82667404   -4.3639706    1674.9422   0.05066371  0.050571701            4 
 2756000   0.80439503   -4.3921471    1671.9681  0.050555396  0.050560663            4 
 2757000   0.82134133   -4.3872874    1674.7647   0.05062159  0.050549591            6 
 2758000   0.79687434   -4.3680173    1674.2117  0.050586526  0.050538435            5 
 2759000   0.80504241   -4.3892423    1670.3028  0.050450128  0.050527387            3 
 2760000   0.82757893   -4.3919087    1676.0446  0.050605213  0.050516177            4 
 2761000   0.80705342   -4.3937959    1674.4113  0.050537587  0.050505162            6 
 2762000   0.81562224   -4.3849975    1670.3111  0.050395579  0.050494181            5 
 2763000   0.80015027   -4.4163673     1671.374  0.050409399  0.050482989            9 
 2764000   0.81184186   -4.3844442    1674.9832  0.050499975  0.050471764            6 
 2765000   0.81937871   -4.3872776    1675.7813  0.050505767  0.050460544            3 
 2766000   0.81896354   -4.3933232    1668.0176  0.050253602  0.050449388            6 
 2767000   0.81363246   -4.3925659    1674.6174  0.050434207  0.050438251            3 
 2768000   0.82100833   -4.4037531    1673.8025  0.050391453   0.05042709            3 
 2769000   0.82434315    -4.386704    1678.2323   0.05050657  0.050415906            5 
 2770000   0.79657653   -4.3878798    1676.3356  0.050431275  0.050404683            6 
 2771000   0.80946309    -4.375701    1680.1303  0.050527196  0.050393652            3 
 2772000   0.79427021   -4.3756226    1679.1122  0.050478362  0.050382593            5 
 2773000   0.79571134   -4.3946126    1674.9961  0.050336461  0.050371442            6 
 2774000   0.83396771   -4.4081456     1675.477  0.050332763  0.050360439            5 
 2775000   0.81370867   -4.3851772    1675.0588  0.050302066   0.05034928            5 
 2776000   0.79489315   -4.3979347    1675.2866  0.050290786  0.050338212            2 
 2777000   0.81799728   -4.3955217    1678.3762  0.050365387  0.050327187            3 
 2778000   0.81458498   -4.3966654    1674.2949  0.050224829  0.050316155            7 
 2779000   0.81680285   -4.4134065    1677.1473   0.05029229  0.050304995            6 
 2780000   0.80653051   -4.4219579    1680.1761  0.050364991  0.050293885            8 
 2781000   0.81301538   -4.3990785    1680.1378  0.050345734  0.050282893            3 
 2782000   0.81433807   -4.3959866    1675.4068  0.050185922  0.050271737            3 
 2783000   0.79756276   -4.4077807    1682.0833  0.050367806  0.050260654            8 
 2784000   0.79702535   -4.3809551    1684.9168   0.05043453  0.050249523            8 
 2785000    0.7774877   -4.4030076    1677.0714  0.050181669  0.050238368            3 
 2786000   0.81779229   -4.3929819    1680.5835  0.050268711  0.050227339            8 
 2787000   0.81632847    -4.407561     1675.169  0.050088776  0.050216106            5 
 2788000   0.80014922    -4.405475    1676.0995  0.050098622  0.050204954            3 
 2789000   0.80466965   -4.4088569    1680.4016  0.050209202  0.050193753           17 
 2790000   0.80307832   -4.4083808    1683.6616  0.050288578  0.050182521            7 
 2791000   0.80663897   -4.3875501    1676.8746  0.050067913   0.05017136            6 
 2792000   0.79421439   -4.4004693    1679.0461  0.050114796  0.050160129            5 
 2793000   0.80814164    -4.388396    1680.1034  0.050128397  0.050148977            4 
 2794000   0.82482985   -4.4153465    1683.7074   0.05021795  0.050137798            4 
 2795000   0.79098644   -4.3957533     1676.681   0.04999049  0.050126737            6 
 2796000    0.7820112    -4.396688     1680.387  0.050083067  0.050115595            4 
 2797000   0.77131648   -4.4063905    1684.8582  0.050198375  0.050104388            4 
 2798000    0.7988411   -4.4058829    1678.8875  0.050002606  0.050093236            4 
 2799000    0.8096702   -4.3899406    1678.4768  0.049972513  0.050081951            3 
 2800000   0.79098848   -4.3830394    1679.0988  0.049973178  0.050070655            5 
 2801000    0.8179753   -4.3879555    1685.5246  0.050146515  0.050059519            8 
 2802000   0.78741708   -4.4234123    1675.3256   0.04982529  0.050048297            6 
 2803000   0.81050471   -4.4127774     1683.415  0.050048013  0.050037008            6 
 2804000   0.81241567   -4.4250009    1681.4102  0.049970584  0.050025813           10 
 2805000   0.81839329   -4.4122182    1682.6665  0.049990091  0.050014697            5 
 2806000   0.80220242   -4.4153162    1682.6334  0.049971294  0.050003479            7 
 2807000   0.79427233   -4.3923626    1684.5627  0.050010767  0.049992279            7 
 2808000    0.8124358   -4.4163021    1686.0661  0.050037573  0.049981303            4 
 2809000   0.81533417   -4.4069804    1684.5861  0.049975853  0.049970298            4 
 2810000    0.7916234   -4.3857295    1686.6546  0.050019414  0.049959408           10 
 2811000    0.8003968   -4.3819241    1688.5573  0.050058024  0.049948443            6 
 2812000   0.80542899   -4.4025098    1687.3195  0.050003542  0.049937548            8 
 2813000   0.80512471   -4.4032792     1680.771  0.049791772  0.049926449            6 
 2814000   0.79403703    -4.384339    1688.9819  0.050017231  0.049915421            5 
 2815000   0.79253706   -4.4124763    1687.3384  0.049950812  0.049904407            5 
 2816000   0.80246028   -4.4194903    1688.2786  0.049960896  0.049893387            5 
 2817000   0.79538194   -4.4036828    1694.2176  0.050118851    0.0498824            3 
 2818000    0.8002829   -4.3950056    1690.1885  0.049981917  0.049871471            3 
 2819000   0.78471908   -4.4045156    1685.1666  0.049815733  0.049860343            6 
 2820000   0.79006242   -4.3910697    1684.4988  0.049778334  0.049849374            8 
 2821000    0.8026002   -4.4250237    1687.2582  0.049842203  0.049838275            6 
 2822000   0.78282075    -4.394557    1689.4504  0.049889276  0.049827218            6 
 2823000   0.80186218   -4.4159889    1684.9681  0.049739286  0.049816124            9 
 2824000    0.7983135   -4.3983062    1690.0088   0.04987042  0.049805185           10 
 2825000   0.77969563    -4.407037    1686.8782   0.04976042   0.04979421            7 
 2826000   0.79339881   -4.4256661    1695.1833  0.049987712  0.049783197            3 
 2827000   0.80397644   -4.3982274    1686.4336  0.049712111  0.049772021            4 
 2828000   0.81468697   -4.3937674    1690.8664  0.049825154  0.049760974            6 
 2829000   0.80451387   -4.3940436    1688.1771  0.049728324  0.049749947            7 
 2830000    0.8100743   -4.4191166    1685.8115  0.049641091  0.049738937            4 
 2831000   0.79631863   -4.3917107    1692.3643  0.049816447  0.049727947            8 
 2832000    0.7995422   -4.3947682     1695.282  0.049884711  0.049716968            3 
 2833000   0.77182291   -4.3904831    1689.1219    0.0496859  0.049705883           10 
 2834000   0.78155235   -4.3998646    1692.9569  0.049781136  0.049694739            4 
 2835000   0.80668017   -4.4296052     1691.061   0.04970785  0.049683762            9 
 2836000   0.79687558   -4.3873319    1692.1731  0.049722999  0.049672739            7 
 2837000    0.7997333   -4.4207356    1688.8204  0.049606992  0.049661668            6 
 2838000   0.80412373   -4.4042788    1686.4327  0.049519401  0.049650624            3 
 2839000   0.80833642   -4.3881175    1689.9066  0.049603927  0.049639619            8 
 2840000   0.80247628   -4.4079753    1692.3576  0.049658382  0.049628632            6 
 2841000   0.80450951   -4.4246457    1698.5751  0.049823276  0.049617744           13 
 2842000   0.79703937   -4.4145221    1693.1608  0.049646986  0.049606762            4 
 2843000    0.8014269   -4.4331752    1690.7206  0.049557995  0.049595805            8 
 2844000    0.8034174   -4.4209532    1696.1799  0.049700536  0.049584906            4 
 2845000   0.80655952   -4.4062213    1694.7728   0.04964185  0.049573938            4 
 2846000   0.80633481   -4.4252353     1692.859  0.049568371  0.049562864            8 
 2847000   0.80662596   -4.4188011    1694.3294  0.049594001  0.049551759           12 
 2848000   0.80297734   -4.4167753    1699.5571  0.049729551   0.04954089            4 
 2849000   0.79938203   -4.4027356    1698.4259  0.049679009  0.049529955            5 
 2850000   0.81423668     -4.43544     1697.904  0.049646315  0.049518959            5 
 2851000   0.79494083   -4.3871635    1703.6926    0.0497981  0.049508046            5 
 2852000   0.78627851   -4.4288456     1697.548    0.0496011  0.049497129            4 
 2853000   0.80034885   -4.4027181    1697.5542  0.049583894  0.049486304            4 
 2854000   0.79839926   -4.4106908    1691.6048  0.049392804  0.049475388            8 
 2855000   0.78818434   -4.4389263    1694.1743  0.049450504  0.049464467           12 
 2856000   0.80054716   -4.4200126    1701.4785  0.049646314  0.049453526            5 
 2857000   0.79393523   -4.4175067    1699.2966  0.049565295  0.049442635            8 
 2858000   0.79201068   -4.4324243    1699.0697  0.049541338  0.049431755            7 
 2859000   0.79671497   -4.4013447    1697.2635  0.049471361   0.04942094            7 
 2860000     0.789402   -4.4004097    1702.4853  0.049606216  0.049410088            3 
 2861000    0.7960117   -4.4201835    1698.9053  0.049484601  0.049399378            4 
 2862000    0.7929622   -4.4328363    1704.2965  0.049624287  0.049388522            9 
 2863000   0.77981874   -4.4334209    1699.5613  0.049469126  0.049377556           10 
 2864000   0.80770207   -4.4247607    1700.5043  0.049479292  0.049366572            5 
 2865000   0.79475771   -4.3826516    1703.6746  0.049554235  0.049355655            5 
 2866000   0.79280274   -4.4369329    1701.1862   0.04946459  0.049344791            4 
 2867000   0.79806206   -4.4206973    1699.6108  0.049401546  0.049333964            4 
 2868000   0.80795928   -4.4431377    1698.8096   0.04936104  0.049323122            6 
 2869000   0.78285059   -4.4253055    1702.9756  0.049464844   0.04931234            6 
 2870000   0.81093235   -4.4419743    1699.3684  0.049342869  0.049301532            3 
 2871000   0.79448958   -4.4323472    1704.4269  0.049472509  0.049290738            4 
 2872000   0.78222882   -4.4000737    1704.8933  0.049468818  0.049279935            7 
 2873000    0.7816139   -4.4238283     1704.213  0.049431864  0.049269385           12 
 2874000   0.79374212   -4.4245439    1701.6767  0.049341123  0.049258573           13 
 2875000   0.78860972   -4.4452873    1709.6134  0.049554011  0.049247695            6 
 2876000   0.79601547   -4.4248883    1708.2334  0.049496794  0.049236968            2 
 2877000   0.79166026    -4.423578    1700.5405  0.049256764  0.049226127            3 
 2878000   0.78886976   -4.4257533    1704.8659  0.049364891  0.049215422            4 
 2879000   0.80139968   -4.4274395    1705.4165  0.049363682  0.049204522            3 
 2880000   0.77357874   -4.4250817     1707.232  0.049399074  0.049193812            4 
 2881000   0.79475363   -4.4336362    1701.6665  0.049220946  0.049183111            4 
 2882000   0.77397997   -4.4321908      1699.39  0.049138041  0.049172338            4 
 2883000   0.78352221   -4.4215341    1707.3836  0.049352051  0.049161582            5 
 2884000   0.79068631    -4.415194    1704.7901      0.04926  0.049150881            4 
 2885000    0.8000737   -4.4149413    1706.0104  0.049278173  0.049140118            4 
 2886000   0.78664326   -4.4292757    1709.1898  0.049352904  0.049129292            4 
 2887000   0.80479015   -4.4123023    1708.1043  0.049304476  0.049118553            3 
 2888000   0.78738163   -4.4092972    1714.6298  0.049475698  0.049107834           10 
 2889000   0.78953827   -4.4684027    1699.8925  0.049033474  0.049097153            5 
 2890000   0.78436997   -4.4440728    1712.2356  0.049372422  0.049086366            7 
 2891000   0.79158587     -4.43645     1708.602  0.049250605  0.049075685            5 
 2892000   0.78448686   -4.4187253     1705.501  0.049144221     0.049065           10 
 2893000   0.79549667   -4.4113713     1713.593  0.049360324  0.049054253            3 
 2894000   0.79464187   -4.4534453    1707.7084  0.049173818  0.049043439            5 
 2895000   0.78939771   -4.4777141    1708.7321    0.0491863  0.049032831            8 
 2896000   0.78910234   -4.4224056    1711.6012  0.049251876  0.049022109            8 
 2897000   0.78996911    -4.434045     1712.774   0.04926861  0.049011524            5 
 2898000   0.78434442   -4.4369749    1713.0805  0.049260423  0.049000874            8 
 2899000   0.79434741   -4.4299382    1717.6484  0.049374737  0.048990178            9 
 2900000   0.80391617   -4.4283924    1712.8091  0.049218652  0.048979472            5 
 2901000   0.78359169   -4.4375782    1716.0093  0.049293614   0.04896887            8 
 2902000   0.76374979   -4.4329892    1719.9256  0.049389089  0.048958269            4 
 2903000    0.7856051   -4.4250252    1713.3418   0.04918308  0.048947613            2 
 2904000   0.76947694   -4.4358657    1718.3079  0.049308652  0.048936995            3 
 2905000   0.78901367   -4.4195653    1710.5351  0.049068706  0.048926429            4 
 2906000   0.80902127   -4.4204223    1713.8253  0.049146171  0.048915855            4 
 2907000   0.78355531   -4.4390278    1716.1666  0.049196381  0.048905203            7 
 2908000   0.77207561    -4.422384    1716.4029  0.049186236  0.048894571            5 
 2909000   0.76796188   -4.4434597    1718.3544  0.049225233  0.048883959            3 
 2910000   0.78056667   -4.4361781    1716.6585  0.049159752  0.048873316            4 
 2911000   0.78030714   -4.4259387    1715.1314  0.049099148  0.048862714            5 
 2912000   0.78668656   -4.4426692    1716.4262  0.049119339  0.048852084            6 
 2913000   0.78712929   -4.4126568    1714.3938  0.049044336  0.048841487           11 
 2914000   0.78627746   -4.4387771    1710.6564  0.048920624  0.048830938            6 
 2915000   0.79251988   -4.4441037    1711.3721  0.048924302  0.048820334           10 
 2916000   0.79035928   -4.4515713     1710.317  0.048877373   0.04880962            6 
 2917000   0.79293804   -4.4270737    1715.4144   0.04900624  0.048798995            5 
 2918000   0.77942618   -4.4475846    1711.5049  0.048877795  0.048788346            2 
 2919000    0.7884392   -4.4452527    1719.8192  0.049098413  0.048777702            6 
 2920000   0.79133245   -4.4355177    1712.2253  0.048864879  0.048767053            6 
 2921000   0.78215407   -4.4563351    1710.7064  0.048804816  0.048756328            4 
 2922000   0.77825356   -4.4215512    1720.2468  0.049060197  0.048745612            4 
 2923000   0.79093398   -4.4637738    1714.7928  0.048887924  0.048735022            6 
 2924000   0.79964219   -4.4314331    1716.2557  0.048912895  0.048724295            5 
 2925000    0.7861802   -4.4195169    1712.8833  0.048800094  0.048713553            6 
 2926000   0.77652336   -4.4533329    1718.3332  0.048938631  0.048702869            5 
 2927000    0.7778411   -4.4317317    1720.2717    0.0489771  0.048692122            8 
 2928000   0.78379337   -4.4348525    1719.7556  0.048945684  0.048681411            4 
 2929000   0.76386646   -4.4326368    1716.9399  0.048848866  0.048670684            4 
 2930000   0.80311501   -4.4546135    1713.6855  0.048739632  0.048659882            8 
 2931000   0.78309433   -4.4324298    1721.2743  0.048938768  0.048649092            7 
 2932000   0.78181145   -4.4632219    1712.3612  0.048668748  0.048638375            5 
 2933000    0.7879387   -4.4315392    1721.7168  0.048917968  0.048627728            7 
 2934000   0.79046469   -4.4464536    1714.1744   0.04868707  0.048617065            5 
 2935000   0.77449457   -4.4139948    1722.0152  0.048893105  0.048606328            6 
 2936000   0.77118552   -4.4525098    1721.0697  0.048849616  0.048595597            6 
 2937000   0.77321569   -4.4396129    1713.7658  0.048625746  0.048584846            5 
 2938000   0.77219021   -4.4513111    1714.0622  0.048617603  0.048574051           13 
 2939000   0.78542575   -4.4575639    1714.5416  0.048614654  0.048563353            7 
 2940000   0.76731015   -4.4377095    1721.8105  0.048804153   0.04855264            4 
 2941000    0.7681008   -4.4661227    1724.4374  0.048861991  0.048541934            6 
 2942000   0.78486348   -4.4305474    1726.8531   0.04891381  0.048531239            4 
 2943000   0.78476614   -4.4614532    1716.7456  0.048610986  0.048520586            5 
 2944000   0.78446596    -4.454114     1719.116  0.048661572  0.048509877            3 
 2945000   0.78483671   -4.4304787    1719.8176  0.048664901  0.048499164            5 
 2946000   0.79081232   -4.4471356    1718.6052  0.048614086  0.048488504            7 
 2947000   0.77367146   -4.4218863    1719.4021  0.048620124  0.048477772            6 
 2948000   0.78095069   -4.4612629    1720.1724  0.048625408  0.048467074            6 
 2949000   0.76942551   -4.4488762    1723.1628  0.048693423  0.048456382            7 
 2950000   0.78196487   -4.4232097     1725.828  0.048752204  0.048445688            4 
 2951000   0.76860579    -4.443488    1723.0541  0.048657351  0.048435054            9 
 2952000   0.77958551   -4.4678437    1722.5073  0.048625432  0.048424434           13 
 2953000   0.75925492   -4.4308776    1719.9907  0.048537948  0.048413709            4 
 2954000   0.76678302   -4.4530939    1724.3893  0.048645603  0.048403022            3 
 2955000   0.79659523   -4.4369189    1722.8021  0.048584379  0.048392424            4 
 2956000   0.77069658   -4.4600611    1725.3547  0.048639905  0.048381826            6 
 2957000   0.76954575   -4.4661437    1722.0884  0.048531407  0.048371282            5 
 2958000   0.76868484   -4.4706855    1728.3008  0.048690016  0.048360791            3 
 2959000   0.77858833   -4.4670177    1727.6227  0.048654464  0.048350188            2 
 2960000    0.7740942   -4.4236112    1731.4631  0.048746146  0.048339652            8 
 2961000   0.77344166   -4.4683617    1729.3068  0.048668998  0.048329153            4 
 2962000   0.75892827   -4.4159434    1726.7864  0.048581656  0.048318664            6 
 2963000   0.79139982   -4.4653731    1724.6509    0.0485052  0.048308204            3 
 2964000   0.77397709   -4.4641937    1722.9636  0.048441396  0.048297583            4 
 2965000   0.78469971   -4.4588145    1729.7583  0.048616028  0.048286971            3 
 2966000   0.78586479   -4.4530705    1731.3185  0.048643474  0.048276511            8 
 2967000   0.78844553   -4.4755958    1727.5563  0.048521411  0.048265963            3 
 2968000    0.7764274   -4.4368713    1730.6194  0.048591066  0.048255421            6 
 2969000   0.77970127    -4.461841    1731.4403  0.048597739  0.048244854            6 
 2970000   0.78935291   -4.4594043    1726.3308  0.048438014  0.048234324            6 
 2971000   0.76335632   -4.4621638    1723.8523   0.04835219  0.048223733            3 
 2972000   0.78360012   -4.4318872    1731.5199  0.048550916  0.048213101            8 
 2973000   0.79555691   -4.4615908    1727.0406  0.048409031  0.048202611            6 
 2974000   0.77764638   -4.4732303    1722.4666  0.048264587  0.048191959            3 
 2975000   0.76662539   -4.4590536    1724.8979  0.048316469  0.048181344            7 
 2976000   0.77382509   -4.4555433    1731.2287  0.048477505  0.048170778            3 
 2977000   0.77750295   -4.4463849    1734.9859  0.048566394   0.04816024            6 
 2978000   0.75891471   -4.4575855    1728.2857  0.048362596  0.048149688            3 
 2979000   0.76400384   -4.4625559    1726.1971  0.048287935  0.048139077            5 
 2980000   0.78186048   -4.4591176    1725.5555  0.048253791  0.048128489            6 
 2981000   0.75398816   -4.4498893    1732.9766  0.048445058  0.048117773            7 
 2982000   0.76870386   -4.4723162    1728.1732  0.048294578  0.048107039            9 
 2983000   0.77731006   -4.4532265    1726.7329  0.048238153  0.048096449            6 
 2984000   0.75804179   -4.4383039    1730.0394  0.048314326  0.048085801            4 
 2985000   0.77056276   -4.4509347    1728.6128  0.048258314  0.048075178            3 
 2986000   0.76399436   -4.4703206    1726.3858      0.04818  0.048064532            3 
 2987000   0.77574322   -4.4479357     1725.618  0.048142449  0.048053732            2 
 2988000   0.77267022   -4.4696252    1723.4591  0.048066128  0.048043056            4 
 2989000    0.7986245   -4.4365514    1731.0138  0.048260674  0.048032335           13 
 2990000   0.77630516   -4.4477255    1732.9825  0.048299401  0.048021624            6 
 2991000   0.78082508   -4.4498791    1729.3536  0.048182145  0.048010909            5 
 2992000   0.78206329   -4.4733901    1723.5765   0.04800514  0.048000134            7 
 2993000   0.77584942     -4.45473    1726.6422  0.048074458   0.04798947            6 
 2994000   0.77464945   -4.4485935     1735.682  0.048310009  0.047978692            5 
 2995000   0.77274699   -4.4501923    1732.6458    0.0482094  0.047968001            6 
 2996000    0.7769716   -4.4656314    1728.5907  0.048080515  0.047957376            6 
 2997000   0.77714763   -4.4722161    1729.5252  0.048090457  0.047946715            7 
 2998000   0.78749839   -4.4597126    1727.4146  0.048015748  0.047935881            5 
 2999000   0.76057403   -4.4419788    1727.5788  0.048004302  0.047925088            7 
 3000000   0.76184248   -4.4756024    1729.6111  0.048044754   0.04791442            5 
 3001000   0.78181145    -4.444679    1737.9317  0.048259794  0.047903882            3 
 3002000   0.78546974   -4.4543931    1730.8524  0.048047201  0.047893236            4 
 3003000   0.75907674   -4.4747434    1726.4357   0.04790864  0.047882455           10 
 3004000   0.78033502   -4.4338573    1739.8073  0.048263628  0.047871798            3 
 3005000   0.76588793   -4.4739269    1728.3567  0.047930025  0.047861186            6 
 3006000   0.76059809   -4.4377842    1736.7364  0.048146385  0.047850576            3 
 3007000   0.77525034   -4.4826495    1735.8117  0.048104747  0.047839947            4 
 3008000   0.77008904   -4.4634359    1730.2941  0.047935895  0.047829323            4 
 3009000   0.76403766   -4.4715286    1735.2233  0.048056477  0.047818709           11 
 3010000   0.76620678   -4.4671837    1731.5607  0.047939112  0.047808018           10 
 3011000   0.77158457   -4.4486809    1733.7053  0.047982544  0.047797347           12 
 3012000   0.76426228   -4.4743922    1732.3178  0.047928227  0.047786744           18 
 3013000   0.78389585   -4.4536548    1734.3131  0.047967506  0.047776211            7 
 3014000   0.77976811   -4.4771879    1736.3151  0.048006943  0.047765551            6 
 3015000   0.77851705   -4.4984435    1736.4394  0.047994454   0.04775488            6 
 3016000   0.76286865   -4.4467263     1738.257  0.048028763  0.047744213            9 
 3017000   0.76808211   -4.4433947    1738.2275   0.04801203  0.047733568            3 
 3018000   0.76653647   -4.4703311    1734.5794  0.047895389  0.047723013            6 
 3019000   0.76181582   -4.4717574    1733.3512  0.047845623  0.047712362            4 
 3020000   0.77125917   -4.4796712    1740.0487  0.048014588  0.047701655            4 
 3021000   0.76586823   -4.4680107    1735.4332  0.047871378   0.04769111           22 
 3022000   0.75347554   -4.4600514    1738.3265  0.047935321  0.047680421            4 
 3023000   0.76238421   -4.4621935    1739.0367  0.047939042  0.047669803            6 
 3024000   0.75517305    -4.442523    1743.7362  0.048052696  0.047659204            4 
 3025000   0.78028264   -4.4770665    1732.7783   0.04773494  0.047648638            4 
 3026000   0.76077332   -4.4652229     1735.399  0.047791335   0.04763795            6 
 3027000   0.76943324   -4.4536081    1739.6793  0.047893384  0.047627367            7 
 3028000   0.78224208   -4.4815159     1737.216  0.047809777  0.047616661            4 
 3029000   0.77410574   -4.5066471    1734.2285  0.047711799  0.047605954            4 
 3030000   0.76206061   -4.4635655    1737.8328  0.047795181  0.047595301            4 
 3031000   0.76198481   -4.4783689    1738.1517   0.04778818  0.047584599            4 
 3032000   0.77571732     -4.48423     1735.501  0.047699565   0.04757397           10 
 3033000   0.75334169   -4.4727398    1739.9259  0.047805415  0.047563382            5 
 3034000    0.7657732   -4.4597064    1740.6767  0.047810282  0.047552826            6 
 3035000   0.77281679    -4.461541    1739.5344  0.047763162  0.047542305           10 
 3036000   0.78138182   -4.4580393    1741.0956  0.047790284   0.04753175            2 
 3037000   0.75387533   -4.4576384    1741.8751  0.047795935  0.047521254            6 
 3038000   0.77342158   -4.4527813    1742.8082  0.047805799    0.0475108            5 
 3039000   0.77229595    -4.447117    1742.3854  0.047778473  0.047500282            5 
 3040000   0.75575746   -4.4693215    1741.4889  0.047738181  0.047489741            6 
 3041000   0.77212307   -4.4841368    1743.0076  0.047764102  0.047479216            7 
 3042000   0.76515733   -4.4919207    1742.1378  0.047724573   0.04746865            6 
 3043000   0.76245676   -4.4817303    1741.3863   0.04768831  0.047458132            6 
 3044000   0.76948211   -4.4637685    1744.2869   0.04775205  0.047447491            4 
 3045000   0.76497568   -4.4760819    1740.1543   0.04762327  0.047437004            7 
 3046000   0.75223234   -4.4817729    1744.7374  0.047733022  0.047426478            5 
 3047000   0.76600072   -4.5074753    1742.8739  0.047666391  0.047415973            5 
 3048000   0.76880322   -4.4529045    1747.3441  0.047772968  0.047405519            7 
 3049000   0.76095219   -4.4747691     1747.418   0.04775932  0.047395034            4 
 3050000   0.75104335   -4.4728442     1745.693   0.04769653  0.047384571            6 
 3051000   0.73317923   -4.4677186    1744.6973  0.047653701  0.047374095            4 
 3052000   0.74511918   -4.4734903    1740.6113  0.047526522  0.047363642           10 
 3053000   0.76926945    -4.446596    1746.1801  0.047662958  0.047353177            3 
 3054000   0.76379522   -4.4574454    1744.6398  0.047605321  0.047342694            4 
 3055000   0.77049401   -4.4708982    1749.0464  0.047709939  0.047332211            5 
 3056000   0.75316603   -4.4837805    1750.8177  0.047742628  0.047321743            5 
 3057000   0.78558397    -4.476168     1742.521  0.047500846   0.04731118            7 
 3058000   0.75572886   -4.4862843    1742.4314  0.047482869   0.04730065            4 
 3059000   0.74828655    -4.473446    1744.5926  0.047526224  0.047290153            5 
 3060000   0.75905769   -4.4994178    1745.5223  0.047536011  0.047279631           11 
 3061000    0.7765935   -4.4835106    1743.0744  0.047453839  0.047269005            5 
 3062000   0.76872403   -4.4745756    1746.7064  0.047537186  0.047258395            6 
 3063000   0.74590145   -4.4644747    1752.0194  0.047666216   0.04724798            3 
 3064000   0.76632531   -4.4997626     1739.989   0.04732346  0.047237523            5 
 3065000   0.75922872   -4.4949764    1748.5489  0.047540752  0.047227002            7 
 3066000    0.7740403   -4.4811241    1745.7491  0.047449149  0.047216448            5 
 3067000   0.76288763   -4.4686711    1745.0444  0.047414531  0.047205883            4 
 3068000   0.75473918   -4.4920564    1746.7015  0.047444088  0.047195393            4 
 3069000   0.73746635   -4.4810549    1752.0168  0.047572956  0.047184828            3 
 3070000    0.7614204    -4.484643     1748.625   0.04746539  0.047174323            2 
 3071000   0.75917121   -4.4750163    1752.6072  0.047557993  0.047163807            8 
 3072000   0.75007275    -4.523828    1751.2348  0.047505284  0.047153274            7 
 3073000    0.7562958   -4.4530167    1757.1477  0.047650171  0.047142779            5 
 3074000   0.77684978   -4.4873071    1749.4511  0.047426023  0.047132486            4 
 3075000    0.7727728   -4.4711165    1751.2339  0.047458913  0.047122095            7 
 3076000   0.75095011   -4.4712241    1748.5302  0.047370237  0.047111727            4 
 3077000   0.75826808    -4.497638    1748.5843  0.047356309  0.047101284            6 
 3078000   0.76952928   -4.4864787    1752.2235   0.04743945  0.047090955            4 
 3079000   0.77585787   -4.4694993    1756.0034  0.047526344  0.047080613            6 
 3080000   0.76702716   -4.5044408     1749.356  0.047331061    0.0470703            9 
 3081000    0.7883233   -4.4757362    1756.8228  0.047517657  0.047059905            3 
 3082000   0.77204914   -4.4707975    1754.9012  0.047450281  0.047049593            8 
 3083000   0.74365437   -4.4761787    1755.9445  0.047463092  0.047039274            6 
 3084000    0.7702797   -4.5062491    1759.2308  0.047536501   0.04702901            5 
 3085000   0.75446535   -4.4731085    1753.3874  0.047363247  0.047018682            4 
 3086000   0.76433697   -4.5111518    1752.9672  0.047336552  0.047008346            9 
 3087000   0.77514096   -4.4995598    1751.2359  0.047274482  0.046998008            5 
 3088000   0.75686791   -4.5142332    1749.0311  0.047199672  0.046987591            4 
 3089000   0.75845683   -4.4978627    1747.7108  0.047148774  0.046977103           11 
 3090000    0.7548005   -4.5145762    1755.3323  0.047339059  0.046966732            5 
 3091000   0.75562314   -4.5055006     1757.386   0.04737911  0.046956335           20 
 3092000   0.75699979   -4.4954503    1757.6415  0.047370673  0.046945932            8 
 3093000    0.7591257   -4.4947107    1755.3425  0.047293417  0.046935446            4 
 3094000   0.75133646   -4.4920845    1751.5196  0.047175168  0.046924994            7 
 3095000   0.74170337   -4.4843843    1750.9719  0.047145178  0.046914688            5 
 3096000     0.770886   -4.4871059    1756.4462  0.047277298  0.046904366            4 
 3097000   0.74712918   -4.4707894    1753.7987  0.047190794  0.046893937            5 
 3098000    0.7563186   -4.4807082    1751.1088  0.047103206  0.046883589            4 
 3099000   0.77358878   -4.4910834    1756.0632  0.047221232  0.046873171            2 
 3100000   0.76492334   -4.5037852    1754.1608  0.047154859  0.046862819            4 
 3101000   0.75164409   -4.4846761    1756.9693  0.047215128  0.046852543            6 
 3102000   0.75984327   -4.4636713    1754.0718  0.047122066  0.046842232           13 
 3103000   0.75051117   -4.4958715    1756.1177  0.047161826  0.046831855           10 
 3104000   0.74674433   -4.5174802    1756.2597  0.047150444  0.046821501            9 
 3105000   0.75225171    -4.509071    1755.9371    0.0471266  0.046811194            5 
 3106000   0.75284961   -4.4753317    1756.8756  0.047136606  0.046800841            4 
 3107000   0.74981044   -4.4719941    1763.4132  0.047296782  0.046790675            6 
 3108000   0.77116171   -4.4596592    1768.9629  0.047430366  0.046780568           10 
 3109000   0.74447621   -4.4840014    1761.6488  0.047219064  0.046770442            7 
 3110000   0.74717662   -4.4966225    1760.2455  0.047166277  0.046760174            3 
 3111000   0.74962203   -4.4900529    1760.2054  0.047150042  0.046749872            6 
 3112000   0.75954227    -4.479932     1759.975  0.047128723  0.046739676            3 
 3113000   0.75697312   -4.5039499    1755.8609   0.04700345  0.046729361            7 
 3114000   0.73758219   -4.4894137    1759.9047  0.047096572  0.046719013           10 
 3115000   0.77067816    -4.511446    1757.4988  0.047017088  0.046708766            4 
 3116000   0.74716154   -4.4964707    1760.9428  0.047094105  0.046698544            7 
 3117000   0.75463557   -4.4968003     1768.108   0.04727056  0.046688328            3 
 3118000   0.75908393   -4.4829139    1764.0111  0.047145903  0.046678034            6 
 3119000   0.73745025   -4.4968522    1763.8343  0.047126064  0.046667829            3 
 3120000     0.762955   -4.4991902    1763.4514  0.047100731  0.046657611            9 
 3121000   0.74326034   -4.4785434    1763.6855  0.047091891   0.04664744            5 
 3122000   0.75545055   -4.4443638    1770.0495  0.047246676  0.046637342            4 
 3123000   0.76451255   -4.4953116    1765.4915  0.047109924  0.046627215           10 
 3124000   0.75730181   -4.4689902    1766.3082   0.04711663  0.046616931            6 
 3125000   0.75401871   -4.5079333    1761.1058  0.046962822  0.046606642            7 
 3126000   0.75843331   -4.5058592    1762.4147  0.046982692  0.046596374            6 
 3127000   0.75033798   -4.4883291    1763.3314  0.046992095  0.046586109            9 
 3128000   0.74308327   -4.5124759    1759.5598  0.046876594  0.046575772           12 
 3129000   0.75031089   -4.5025162    1763.1898  0.046958289  0.046565449            3 
 3130000    0.7452529    -4.515369    1762.7762  0.046932275  0.046555173            8 
 3131000   0.74091692    -4.504354    1769.4169  0.047094031  0.046544918            6 
 3132000   0.74858239   -4.5099325    1760.4369  0.046840063  0.046534627           10 
 3133000   0.74139139   -4.4956522    1768.0076  0.047026481  0.046524404            4 
 3134000   0.75300343   -4.5089264    1765.1486  0.046935455  0.046514223            4 
 3135000   0.74674383   -4.5075938    1764.1708  0.046894493  0.046504006            6 
 3136000   0.75080372   -4.4984813    1768.3968  0.046991836   0.04649382            3 
 3137000   0.74941624   -4.5148376     1760.898  0.046777654  0.046483603           10 
 3138000   0.74658873   -4.5179192    1766.0881  0.046900576  0.046473353           12 
 3139000   0.74358902   -4.5004989    1762.8345   0.04679926  0.046463114            7 
 3140000    0.7684587    -4.482939    1766.4134  0.046879337  0.046452974            3 
 3141000   0.74367796   -4.5087631    1767.2617  0.046886919  0.046442826           13 
 3142000   0.75200552   -4.5036918    1767.6776  0.046883025  0.046432683            4 
 3143000   0.74282959   -4.5127491    1763.2317   0.04675023  0.046422481            3 
 3144000   0.73506066   -4.5068396    1766.2239   0.04681467  0.046412302            7 
 3145000   0.75323173   -4.5129879    1769.6406  0.046890318  0.046402055            3 
 3146000   0.73341121   -4.4965257    1772.7917  0.046958883  0.046391918            4 
 3147000   0.75057066   -4.5145976    1763.9017  0.046708551  0.046381791            5 
 3148000   0.75334886   -4.5039028    1765.6689  0.046740494  0.046371583            3 
 3149000   0.75316223   -4.4963789    1769.9802  0.046839743  0.046361404            7 
 3150000   0.74146323   -4.4872304    1768.5116   0.04678602  0.046351071            5 
 3151000   0.75581374   -4.4930742    1771.8843  0.046860371  0.046340789            3 
 3152000   0.74656825   -4.4873427    1765.0554  0.046664959   0.04633053            7 
 3153000   0.74314591   -4.5005343    1769.2684  0.046761507  0.046320324            7 
 3154000   0.74671742   -4.5143241    1764.5224  0.046621284  0.046310004            2 
 3155000   0.76393772   -4.5036431    1769.9829  0.046750738  0.046299771            3 
 3156000   0.75875042   -4.5526842    1766.2376  0.046637029  0.046289463           10 
 3157000    0.7305344   -4.5214781    1763.6427  0.046553762  0.046279211           18 
 3158000   0.74678125   -4.5068379    1769.0286  0.046681142  0.046268866            5 
 3159000   0.73931055   -4.4935119    1768.0418  0.046640333  0.046258614           13 
 3160000   0.74854956   -4.4800723    1776.1563  0.046839564  0.046248348           10 
 3161000   0.75445448   -4.4935476    1766.2139  0.046562636   0.04623815           13 
 3162000   0.75045929   -4.5044763     1769.348  0.046630508  0.046227844            6 
 3163000   0.75173346   -4.5241683     1763.962  0.046473866  0.046217644            7 
 3164000   0.73873812   -4.5060526    1765.9984  0.046512811  0.046207431            9 
 3165000   0.76201751   -4.5132691    1770.9054  0.046627315   0.04619723            5 
 3166000   0.76798318   -4.5151562    1768.8811  0.046559303  0.046186936            7 
 3167000   0.73365209   -4.5252247    1773.2722  0.046660147  0.046176749           14 
 3168000   0.73679489   -4.5172525    1773.6169  0.046654485  0.046166557            9 
 3169000   0.75216712   -4.5049598    1771.9043  0.046594729  0.046156388            5 
 3170000   0.75934105   -4.5286309    1773.3316  0.046617549  0.046146173            9 
 3171000   0.74168749   -4.5036843    1770.4955  0.046528316  0.046135872            7 
 3172000    0.7558085    -4.524055    1766.4317  0.046406885  0.046125609            5 
 3173000   0.73717465   -4.5057553    1774.3452  0.046600094  0.046115326           10 
 3174000   0.74052781   -4.5219948     1776.164  0.046633165  0.046105081            4 
 3175000   0.74302344   -4.4826014      1775.41  0.046598687  0.046094873            6 
 3176000   0.75342211   -4.4909256     1775.628  0.046589735  0.046084814            6 
 3177000   0.74839314   -4.4865682    1774.4765  0.046544866  0.046074628            4 
 3178000   0.74670107    -4.501714     1773.549    0.0465059  0.046064466            5 
 3179000   0.73756763   -4.5192375    1771.5573  0.046439062  0.046054289            6 
 3180000    0.7456509   -4.5108748    1774.5584  0.046503102  0.046044188            5 
 3181000   0.74623755   -4.4925666    1773.7249  0.046466648  0.046033938            5 
 3182000   0.74147984   -4.5187816    1774.1527   0.04646325  0.046023668            5 
 3183000   0.74909696    -4.495692    1771.8725  0.046388955  0.046013409            4 
 3184000   0.73317258   -4.5385081    1772.0051  0.046377855  0.046003128            8 
 3185000   0.74765696   -4.5276002    1776.7676  0.046487903  0.045992842            6 
 3186000   0.73558594   -4.5090003    1776.3705  0.046462925  0.045982591            3 
 3187000   0.73092025    -4.525791    1769.0015  0.046255661  0.045972262            4 
 3188000   0.73477414   -4.5284802    1772.2695  0.046326576  0.045961924            5 
 3189000   0.74498884   -4.5099143    1771.1418  0.046282581  0.045951584            7 
 3190000   0.74136774   -4.5151285     1771.342  0.046273302  0.045941275            6 
 3191000   0.74870777   -4.5336855    1771.9805  0.046275475  0.045930928            6 
 3192000   0.74803875   -4.5165467    1776.8336  0.046387678  0.045920601            5 
 3193000   0.73456284   -4.5213899    1772.8962  0.046270387  0.045910238            6 
 3194000   0.73884964    -4.521951     1772.573  0.046247469  0.045899959            6 
 3195000   0.74557566   -4.5191287    1771.3423  0.046200894  0.045889631            5 
 3196000   0.72793944   -4.5520304    1771.0175   0.04617797  0.045879244            6 
 3197000   0.74732896   -4.5256533    1775.0543  0.046268749  0.045868808            4 
 3198000   0.75372108   -4.5225492    1770.5257  0.046136275  0.045858518            4 
 3199000   0.72843031   -4.5270425    1776.0067  0.046264631  0.045848195            4 
 3200000   0.74174531   -4.5082653    1773.1399  0.046175517  0.045837869            5 
 3201000   0.74729352   -4.4894925    1778.4165  0.046298461  0.045827712            4 
 3202000   0.75368556   -4.5221213    1772.2279  0.046122942  0.045817537            6 
 3203000   0.75954424   -4.5252653    1774.9037  0.046178158  0.045807251            6 
 3204000   0.74112276   -4.5401109    1777.4892  0.046230992  0.045796968            9 
 3205000   0.73963527   -4.5427618    1779.1362  0.046259391  0.045786629            4 
 3206000   0.73970721   -4.5358629    1781.5308  0.046307205  0.045776439            4 
 3207000   0.73537706   -4.5086865    1778.7461  0.046220407  0.045766192            8 
 3208000   0.74269434   -4.5332055    1776.2397   0.04614089  0.045755891            7 
 3209000   0.74113607   -4.5486809    1774.8004  0.046089134  0.045745555           10 
 3210000   0.73119279   -4.5177697    1778.9842  0.046183389  0.045735247            7 
 3211000   0.73437168   -4.5223911    1780.0475  0.046196602  0.045724986            5 
 3212000   0.73094923   -4.5218306    1779.4076  0.046165618  0.045714661            9 
 3213000   0.72485578   -4.5310325    1781.0955  0.046195029  0.045704448            6 
 3214000   0.73066281   -4.5218319    1778.3743  0.046110099   0.04569415            8 
 3215000   0.72953497   -4.5285345    1774.1574  0.045986455  0.045683841            6 
 3216000   0.74332477   -4.5431196    1777.0951  0.046048276  0.045673571            9 
 3217000   0.72631897   -4.5031777    1779.5148  0.046096643  0.045663321            4 
 3218000   0.72706467   -4.5432874    1777.5781  0.046032164  0.045653135            7 
 3219000   0.73877958   -4.5061508     1781.314   0.04611458  0.045642881           12 
 3220000   0.72983763   -4.5195129    1783.2589  0.046150592  0.045632696            6 
 3221000   0.73577225   -4.5335798    1778.9906  0.046025836  0.045622467           16 
 3222000   0.75414643   -4.5132048    1778.6892  0.046003756  0.045612339            3 
 3223000   0.72893277   -4.5270242    1780.5794  0.046038354  0.045602183            4 
 3224000   0.74387473   -4.5073795    1783.6137  0.046102505  0.045592173           13 
 3225000   0.74136976   -4.5303352    1782.1885  0.046051382  0.045581998            5 
 3226000   0.73419862   -4.5374143    1782.4922  0.046044954  0.045571712            9 
 3227000   0.74488473   -4.5246076    1780.2633  0.045973126  0.045561422            7 
 3228000    0.7331801   -4.5296236    1779.2855   0.04593364  0.045551153            8 
 3229000   0.75298466   -4.5340593    1784.3347  0.046049724  0.045540842            9 
 3230000   0.73239706   -4.5132732    1778.1483   0.04587586  0.045530572            5 
 3231000   0.72865353   -4.5465061     1779.253  0.045890154  0.045520286            5 
 3232000   0.71949885   -4.5504495    1775.4512   0.04577793  0.045510005            7 
 3233000   0.72678137   -4.5610937     1777.584  0.045818744  0.045499679           21 
 3234000   0.73064826     -4.52176    1785.3393  0.046004413  0.045489441            6 
 3235000   0.72723431   -4.5429603       1782.3  0.045911902  0.045479183            3 
 3236000   0.73111183   -4.5189775    1784.9841  0.045966835  0.045468932            2 
 3237000   0.73830656   -4.5396085    1781.4968  0.045862855  0.045458786            5 
 3238000   0.74674119   -4.5165191    1784.2301  0.045919036  0.045448569            7 
 3239000   0.73043315   -4.5431387    1773.5053  0.045628931  0.045438318            3 
 3240000   0.72628325   -4.5454808    1779.3746  0.045765808  0.045428074            5 
 3241000   0.73082983   -4.5275094    1777.7603   0.04571018  0.045417847            5 
 3242000   0.73374775   -4.5449639     1782.884  0.045827781  0.045407605            6 
 3243000   0.74653994   -4.5463693    1780.1107  0.045742385  0.045397293            3 
 3244000   0.74262818   -4.5325608    1777.3516  0.045657408  0.045386978           12 
 3245000   0.74818415   -4.5345299    1783.0675  0.045790126  0.045376653            5 
 3246000   0.73090401   -4.5364838    1784.7503  0.045819221  0.045366368           10 
 3247000   0.73063553   -4.5546805    1780.7461  0.045702344  0.045356055            5 
 3248000    0.7308237   -4.5468371    1778.9039  0.045641007  0.045345789            6 
 3249000   0.71748812   -4.5504302    1783.6065  0.045747576   0.04533553            3 
 3250000   0.73437503    -4.514374     1782.855   0.04571423  0.045325241            5 
 3251000   0.74027956   -4.5468012    1780.4993  0.045639785  0.045315058            6 
 3252000    0.7449921   -4.5216976    1780.7762  0.045632848   0.04530476            4 
 3253000   0.72524808   -4.5567715    1779.9379  0.045597343  0.045294497            3 
 3254000   0.73681661   -4.5433528    1784.8227  0.045708427  0.045284261            6 
 3255000   0.72188838   -4.5377505    1786.6295  0.045740643   0.04527397            8 
 3256000   0.71489249   -4.5442956    1782.7783  0.045628027  0.045263691            7 
 3257000   0.71997682   -4.5371801    1787.4826  0.045734382  0.045253473            3 
 3258000   0.73344499   -4.5662199    1782.2143  0.045585591   0.04524328            7 
 3259000   0.73730745   -4.5398313    1783.4966  0.045604393  0.045233027            9 
 3260000   0.72605665   -4.5374011    1788.2072  0.045710818  0.045222886            5 
 3261000    0.7358749   -4.5400537    1788.3736  0.045701052  0.045212763            7 
 3262000   0.72443146   -4.5302318    1783.1792  0.045554342  0.045202625            7 
 3263000    0.7309886   -4.5428044     1785.989  0.045612141  0.045192518            7 
 3264000   0.71728245   -4.5332429     1785.228  0.045578738  0.045182388            8 
 3265000   0.72556541   -4.5579066    1787.4662  0.045621905  0.045172242            9 
 3266000   0.72587823   -4.5382386    1780.6155  0.045433138  0.045162056           12 
 3267000   0.74303326   -4.5383185     1786.408  0.045566983  0.045151904            7 
 3268000   0.74908596   -4.5384318    1791.9033   0.04569317  0.045141708            4 
 3269000   0.73552317   -4.5245809    1789.4582  0.045616861   0.04513161            5 
 3270000   0.72902848   -4.5487767    1788.8143  0.045586502  0.045121434            5 
 3271000    0.7312188    -4.532932    1789.6215  0.045593129  0.045111263            7 
 3272000   0.72090401   -4.5619697    1783.4897  0.045423025  0.045101112           14 
 3273000   0.71531152   -4.5523646    1788.8902   0.04554665  0.045090969            7 
 3274000   0.72757176     -4.56155    1791.3872  0.045596294  0.045080858            9 
 3275000   0.72524954   -4.5049174    1792.5359  0.045611602  0.045070751            5 
 3276000    0.7286781   -4.5487113    1786.3595  0.045440564  0.045060582            9 
 3277000   0.73209257   -4.5301858    1784.3549  0.045375721  0.045050439            4 
 3278000   0.73194993   -4.5615453     1786.673   0.04542081  0.045040221            4 
 3279000   0.73586934   -4.5540577    1786.0423   0.04539093  0.045030041            6 
 3280000   0.72988129   -4.5506839    1790.5496  0.045491606  0.045019956            8 
 3281000   0.72331553   -4.5409807    1785.0406  0.045337819  0.045009793            7 
 3282000   0.73195716   -4.5251266    1791.1407  0.045478894  0.044999665            9 
 3283000   0.73031714   -4.5427706    1793.3464  0.045521026  0.044989539            8 
 3284000   0.73609897   -4.5434537     1794.613  0.045539306  0.044979484            9 
 3285000   0.73872817   -4.5480008    1786.5434  0.045320735  0.044969394           12 
 3286000   0.72774192   -4.5648115     1789.873  0.045391383  0.044959293            5 
 3287000   0.71533407   -4.5391725    1793.1336  0.045460238  0.044949146           13 
 3288000   0.72812856   -4.5617949    1793.8269  0.045463983  0.044939029            5 
 3289000   0.73337634   -4.5548912    1791.2797  0.045385621  0.044928965           22 
 3290000   0.73786975   -4.5454151    1789.9658  0.045338545  0.044918797            6 
 3291000   0.70512818   -4.5438891    1790.8905  0.045348185  0.044908707            9 
 3292000   0.74220547   -4.5422225    1794.8115  0.045433664  0.044898682            5 
 3293000   0.73132001   -4.5694298    1795.0183  0.045425101  0.044888615           11 
 3294000   0.73133314   -4.5477897     1790.068  0.045286077  0.044878618            8 
 3295000   0.72903196   -4.5482797    1798.8456  0.045494325  0.044868579           10 
 3296000   0.71628188   -4.5312249    1794.0073  0.045358195  0.044858603            7 
 3297000   0.72287853   -4.5516283    1795.4171  0.045380069  0.044848476            8 
 3298000   0.73344275   -4.5273653    1796.9973  0.045406239  0.044838432            7 
 3299000   0.72403694    -4.565644    1787.1674   0.04514417  0.044828371           14 
 3300000   0.73494526   -4.5418762    1799.4071  0.045439574  0.044818367            3 
 3301000   0.72100273   -4.5487688    1788.2112  0.045143169  0.044808346           10 
 3302000   0.72947182   -4.5477302    1791.5918  0.045214814  0.044798261           10 
 3303000   0.71831396   -4.5509836    1797.4918   0.04534998  0.044788184            4 
 3304000   0.72427029   -4.5448764    1791.7872  0.045192373  0.044778079            4 
 3305000   0.73529548   -4.5621088    1793.3591  0.045218333  0.044768052            4 
 3306000   0.73157916   -4.5436606    1797.7457  0.045315227  0.044758097            5 
 3307000   0.73813558   -4.5307812    1797.5807  0.045297367  0.044748144            5 
 3308000   0.72279642   -4.5655576    1797.7251   0.04528731  0.044738233            4 
 3309000   0.72692644   -4.5719345    1798.6801  0.045297675   0.04472829           16 
 3310000   0.73623904   -4.5440668    1794.2848  0.045173333  0.044718285            7 
 3311000     0.724528    -4.545648    1800.4364  0.045314518  0.044708342           15 
 3312000   0.72196018   -4.5631289     1802.669   0.04535701  0.044698374           23 
 3313000   0.72918442   -4.5906295    1795.9003  0.045173062  0.044688354            3 
 3314000   0.70992285   -4.5541703    1801.9322   0.04531111  0.044678338           11 
 3315000   0.71902565   -4.5658324    1796.4436  0.045159468  0.044668292            9 
 3316000   0.71404921   -4.5619359     1798.906  0.045207729  0.044658398            5 
 3317000    0.7165448   -4.5711642    1800.7611  0.045240708  0.044648483            9 
 3318000   0.71814846   -4.5539961    1797.9251  0.045155843  0.044638523            8 
 3319000   0.70722305   -4.5342648    1806.2173  0.045350441   0.04462861            7 
 3320000   0.72021768   -4.5711661    1797.0462   0.04510658  0.044618679            6 
 3321000   0.73371557   -4.5744811    1805.0131  0.045292912  0.044608707            8 
 3322000    0.7256422   -4.5337975    1803.2056  0.045233935  0.044598769           11 
 3323000    0.7189759   -4.5859498    1799.9868  0.045139603  0.044588885            4 
 3324000   0.70744224   -4.5497307    1797.0605  0.045052659  0.044578921           12 
 3325000   0.72672323   -4.5735194    1799.9325  0.045111089  0.044568978           10 
 3326000   0.70190607   -4.5656861    1804.2492  0.045205682  0.044559025           11 
 3327000   0.71253952   -4.5796031     1799.318   0.04506858  0.044549077            9 
 3328000   0.71537892   -4.5668795    1797.6072  0.045012199  0.044539173            4 
 3329000   0.71601703   -4.5432225    1802.5074  0.045121344  0.044529166            6 
 3330000   0.71308785   -4.5532872    1798.9279  0.045018215  0.044519187           12 
 3331000   0.72469187   -4.5660473    1801.1611  0.045060571  0.044509216            6 
 3332000   0.73021228   -4.5782961    1801.3721  0.045052324  0.044499257            8 
 3333000    0.6998436   -4.5760978     1799.524  0.044992599  0.044489232            9 
 3334000   0.71660575   -4.5589361    1802.8304  0.045061748  0.044479294           14 
 3335000   0.72724997   -4.5706602    1798.4989  0.044940003  0.044469231            7 
 3336000   0.69926187   -4.5697334    1801.5007  0.045001516  0.044459232            6 
 3337000   0.71751272   -4.5757107    1797.3665  0.044884789  0.044449221            9 
 3338000   0.71855292   -4.5522749    1801.9489  0.044985741  0.044439324            9 
 3339000   0.69743231   -4.5431894    1805.5539  0.045062242  0.044429367            6 
 3340000   0.71741779   -4.5585563    1809.2931  0.045142045  0.044419432            5 
 3341000   0.71657236   -4.5683896    1803.5517  0.044985326   0.04440952            8 
 3342000   0.72122991   -4.5681144    1804.1264  0.044986195  0.044399585            6 
 3343000   0.72437231   -4.5771434    1803.8353  0.044965483   0.04438962           12 
 3344000   0.73734735   -4.5697549    1799.9402   0.04485497  0.044379646            9 
 3345000   0.72896846   -4.5651988    1800.8752  0.044864852   0.04436976            5 
 3346000   0.73820982   -4.5550987    1804.0634  0.044930849  0.044359833            4 
 3347000   0.71740981    -4.564621    1800.1752  0.044820616  0.044349857            5 
 3348000   0.70335489   -4.5684581     1803.937  0.044900861  0.044339913            7 
 3349000   0.71894834   -4.5621324    1805.1933  0.044918715  0.044329995           10 
 3350000   0.70906979   -4.5566071    1803.5684  0.044864886  0.044320064            8 
 3351000   0.72048447   -4.5511366    1804.5047  0.044874782  0.044310202            4 
 3352000   0.71957652   -4.5706764    1805.3244  0.044881773  0.044300322            8 
 3353000   0.71806987    -4.571768    1803.6202   0.04482603  0.044290384            8 
 3354000   0.72741116   -4.5900146    1806.3206   0.04487976  0.044280507           11 
 3355000   0.73050874    -4.577031    1801.3241  0.044742277  0.044270544            7 
 3356000   0.72792537   -4.5726248    1803.6698  0.044787193  0.044260565            3 
 3357000   0.71546203   -4.5893224    1803.1149  0.044760076  0.044250511           11 
 3358000   0.71504706    -4.581306     1802.377  0.044728434   0.04424053            4 
 3359000   0.71172266   -4.5614222     1805.134  0.044783516  0.044230588           10 
 3360000   0.69578831   -4.6011249    1807.2605  0.044822928   0.04422064            3 
 3361000   0.70754389   -4.5579128    1807.7995  0.044822958  0.044210638           14 
 3362000   0.70099064   -4.5683795    1802.3466  0.044674464  0.044200689            7 
 3363000   0.71266588   -4.5747873    1802.3072  0.044660205  0.044190701            8 
 3364000    0.7134542   -4.5804865    1805.3707  0.044722818  0.044180753            5 
 3365000   0.72199733   -4.5690548     1810.939  0.044847424  0.044170864            3 
 3366000   0.72112176   -4.5806291    1805.0455  0.044688193    0.0441609            9 
 3367000    0.7204034    -4.576587    1805.9396  0.044697049  0.044151005            5 
 3368000   0.71716707   -4.5835029    1806.1929  0.044690046  0.044141049            4 
 3369000   0.70562234   -4.5628134    1810.8021   0.04479079  0.044131066            8 
 3370000   0.69966012     -4.58636    1804.4541  0.044620527  0.044121061            5 
 3371000   0.70577929   -4.5586143    1807.1996  0.044675161  0.044111069            9 
 3372000   0.71795566   -4.5711353    1806.7811   0.04465157  0.044101094            7 
 3373000   0.72154143   -4.5701649    1804.2358  0.044575446  0.044091168           13 
 3374000    0.7210898   -4.5565352    1806.0706  0.044607553  0.044081258            4 
 3375000   0.71084015   -4.5917247    1805.9427  0.044591177  0.044071347            7 
 3376000   0.70545602   -4.5809703    1808.7147  0.044646393  0.044061373            4 
 3377000   0.72459789   -4.5850931    1809.0031   0.04464029   0.04405149            5 
 3378000   0.70642473   -4.5716501    1804.5462  0.044517125  0.044041577            7 
 3379000   0.71858545   -4.5882588    1804.6344  0.044506126  0.044031646            5 
 3380000   0.72077223    -4.579847    1802.5778  0.044442254  0.044021661           11 
 3381000   0.71313728   -4.5752825    1804.9583  0.044487783  0.044011649            6 
 3382000   0.69842378   -4.5893691    1808.9838  0.044573817   0.04400163           23 
 3383000   0.71003461   -4.5661574    1804.5734  0.044452001  0.043991553            7 
 3384000   0.71665725   -4.5556173    1807.8039  0.044518418  0.043981536            9 
 3385000   0.71454723   -4.5752158     1806.146  0.044464452  0.043971564            8 
 3386000   0.72345541   -4.5797289    1811.1826  0.044575275   0.04396155            8 
 3387000   0.70976223   -4.5685212    1815.4922  0.044668148   0.04395159            9 
 3388000   0.72020954   -4.5461474    1812.5131  0.044581689   0.04394165            6 
 3389000   0.70337988   -4.5692627     1808.354  0.044466263  0.043931799            8 
 3390000   0.70493511   -4.5733044    1807.6759  0.044436476  0.043921813           10 
 3391000   0.70465846   -4.5923809     1810.814  0.044500491  0.043911838            7 
 3392000   0.70347568   -4.5767161    1808.4102  0.044428316  0.043901874            4 
 3393000   0.69664056    -4.580844     1805.673  0.044347996  0.043891903            3 
 3394000   0.70043539   -4.5842666    1808.1696   0.04439623  0.043881839           11 
 3395000   0.69039883   -4.5862333    1808.4296  0.044389534  0.043871799            6 
 3396000   0.71377596   -4.5893695    1802.4592  0.044229956  0.043861741            4 
 3397000   0.71522783   -4.5966795    1807.9617   0.04435192  0.043851642            7 
 3398000   0.71817171   -4.5875078    1806.1278  0.044293895   0.04384165            5 
 3399000   0.71077607   -4.5763177    1807.8175  0.044322288  0.043831699            9 
 3400000   0.69943501   -4.6035524    1811.9468  0.044410461  0.043821737            8 
 3401000   0.71504607   -4.5951725    1807.1815  0.044280641  0.043811731            5 
 3402000   0.72000572   -4.5878153    1808.6763   0.04430424   0.04380164           10 
 3403000   0.71650191   -4.5966688    1806.9089  0.044247941  0.043791666            4 
 3404000   0.70560478   -4.5770445    1811.7459  0.044353355  0.043781668           13 
 3405000   0.71824786   -4.5872684    1806.1304  0.044202898  0.043771661            3 
 3406000   0.71453095   -4.5926604    1808.2761  0.044242417  0.043761626            6 
 3407000   0.71713115   -4.5951965    1807.8733   0.04421958  0.043751571           15 
 3408000   0.70781664   -4.5933103     1810.912  0.044280907  0.043741557            8 
 3409000   0.70754777   -4.6016026    1808.9399  0.044219709  0.043731485            6 
 3410000   0.68994666   -4.5887731    1811.2794  0.044263916   0.04372149            6 
 3411000   0.70713426   -4.6113267    1810.9304  0.044242411  0.043711457            6 
 3412000   0.71008276   -4.6166742    1808.4104  0.044167897  0.043701364            7 
 3413000   0.71197313   -4.5866055    1811.3262  0.044226149  0.043691361            7 
 3414000   0.73103812   -4.5715895    1806.9117  0.044105441   0.04368134            8 
 3415000   0.70590528   -4.5788564    1812.6284  0.044232026  0.043671367            5 
 3416000   0.70190396   -4.6095622    1809.6247  0.044145802  0.043661376            7 
 3417000   0.71829177   -4.5951973    1813.0923  0.044217449  0.043651431            9 
 3418000   0.70554916    -4.588688    1811.2752  0.044160212  0.043641503            6 
 3419000   0.70647166   -4.5813053    1816.3719  0.044271521  0.043631479            7 
 3420000   0.69793258   -4.6137766    1810.1443  0.044106831  0.043621493            6 
 3421000   0.69119878   -4.5925833    1810.0078  0.044090613  0.043611487            8 
 3422000   0.69661766   -4.5731665    1811.2788  0.044108678  0.043601569            7 
 3423000   0.69970066   -4.5694884    1808.6624  0.044032098  0.043591642            8 
 3424000   0.70247725   -4.5735867    1810.9072   0.04407387  0.043581671            3 
 3425000   0.69849435    -4.593458     1810.516  0.044051485  0.043571706           11 
 3426000   0.69252854   -4.5979636    1811.3439  0.044058764  0.043561623            3 
 3427000   0.71735273   -4.5876692    1808.2322  0.043970241   0.04355156            6 
 3428000   0.71707286   -4.5799531     1812.742  0.044067047  0.043541579           16 
 3429000   0.69942565   -4.5937909    1812.2983  0.044043411  0.043531661           10 
 3430000   0.69459003   -4.5881084    1810.8885  0.043996319  0.043521733            6 
 3431000   0.69011704   -4.5992417    1812.0435  0.044011549  0.043511741            4 
 3432000   0.70038198    -4.607113    1810.9729   0.04397273  0.043501625            5 
 3433000   0.69000128   -4.5928839    1808.4192  0.043897931  0.043491554            6 
 3434000    0.7064431   -4.6081296    1811.8163  0.043967586  0.043481497           17 
 3435000   0.71565801   -4.6098402    1810.0942  0.043913008  0.043471429           10 
 3436000   0.70276898   -4.5758446    1815.9583  0.044042449  0.043461407            5 
 3437000    0.7051286   -4.5801508    1818.3786  0.044088319  0.043451453            4 
 3438000   0.70297376   -4.6197145    1810.9954  0.043896534  0.043441385            6 
 3439000   0.69792945   -4.5940586    1814.3292  0.043964554  0.043431304            8 
 3440000   0.69554229   -4.5955297    1810.3533  0.043855458  0.043421294           10 
 3441000   0.70575634   -4.6223812    1814.3429  0.043939332  0.043411243            7 
 3442000   0.69485852   -4.6183365    1811.1653  0.043849633   0.04340114            9 
 3443000   0.69196558    -4.596936    1816.3546  0.043962499  0.043391082            6 
 3444000   0.70422633    -4.604189    1817.6324  0.043980652  0.043381125           12 
 3445000   0.69554489    -4.611122    1812.1039  0.043834153  0.043371109            6 
 3446000   0.69924794   -4.5828743    1816.9606  0.043938881  0.043361155            8 
 3447000   0.69453356   -4.5876563    1813.2411  0.043836214  0.043351264            9 
 3448000   0.71188887   -4.5945276    1815.6105  0.043880764  0.043341322            5 
 3449000   0.69936805   -4.6272711    1812.1883  0.043785355  0.043331371           12 
 3450000   0.71844778   -4.5996103    1813.7737  0.043810958  0.043321355           13 
 3451000     0.708931   -4.5968893    1818.1344  0.043903564  0.043311402            6 
 3452000   0.69986378   -4.5674371    1814.4696  0.043802376  0.043301458           11 
 3453000   0.70287428   -4.5956805    1818.3038  0.043882223  0.043291541           11 
 3454000   0.70625914   -4.5938768    1817.1332  0.043841276  0.043281622            6 
 3455000    0.7155162   -4.5988699    1817.2826  0.043832191  0.043271752            5 
 3456000    0.6974684   -4.5852732    1822.0068  0.043933419  0.043261884            5 
 3457000   0.68994728   -4.6136892    1815.4573   0.04376283  0.043251969           11 
 3458000   0.69184633   -4.5636811    1818.3404  0.043819655  0.043242067           11 
 3459000   0.69054628   -4.6089148    1819.3659  0.043831693  0.043232224           10 
 3460000    0.7009421    -4.605795    1818.3346  0.043794187   0.04322239           16 
 3461000   0.71046956   -4.5957212    1819.4546    0.0438085  0.043212475            5 
 3462000   0.69050441   -4.6018277    1819.8333  0.043804961  0.043202599            6 
 3463000   0.69179534   -4.6289425    1813.8664  0.043648725  0.043192613            9 
 3464000   0.69598827   -4.6114357    1812.3159  0.043598823  0.043182569            6 
 3465000   0.70056675   -4.5930511    1821.1449  0.043798578  0.043172599            5 
 3466000   0.68713429   -4.6060794     1819.669  0.043750457  0.043162629            5 
 3467000   0.68241398   -4.6087889    1812.9883  0.043577259    0.0431527            7 
 3468000   0.70197357   -4.6175491     1821.053  0.043758482  0.043142772            3 
 3469000   0.69282637   -4.6101224    1815.7206  0.043617771  0.043132803            4 
 3470000   0.69010179   -4.6017636    1819.7461  0.043701875   0.04312281            6 
 3471000   0.69187856   -4.6077994    1814.9159   0.04357332  0.043112813            9 
 3472000   0.69351629   -4.6195507    1811.4484  0.043477543  0.043102775            7 
 3473000   0.68369384   -4.6144238    1818.7903  0.043641191  0.043092784            7 
 3474000   0.70811935   -4.6001318    1815.4146  0.043547655  0.043082838            5 
 3475000   0.69903489   -4.6171139    1817.2362  0.043578805  0.043072911           10 
 3476000   0.69110784   -4.5990947    1823.1785  0.043708729  0.043063002           12 
 3477000   0.69751912   -4.5849225    1821.8865  0.043665193  0.043053064           20 
 3478000   0.69477756    -4.609429    1817.0045  0.043535664  0.043043153           20 
 3479000   0.69111912   -4.6041812    1824.0668  0.043692315  0.043033208           11 
 3480000   0.69506437   -4.6255862     1821.068  0.043607949  0.043023213           12 
 3481000   0.70856485   -4.6274605    1816.4033  0.043483752  0.043013236           13 
 3482000   0.69712284   -4.6053505    1815.7318  0.043455192  0.043003257            6 
 3483000   0.69561629   -4.6157271    1819.7004   0.04353767   0.04299331            6 
 3484000   0.68752775   -4.5878383    1823.6102  0.043618691  0.042983455            4 
 3485000   0.70004526    -4.614705    1816.9824  0.043447689  0.042973552            6 
 3486000   0.69755992   -4.6247519     1822.921   0.04357719  0.042963694            4 
 3487000   0.68440336   -4.6166758    1821.6779  0.043534984  0.042953767           12 
 3488000   0.69483597   -4.6123789    1820.5174  0.043494777  0.042943833            5 
 3489000   0.69359649   -4.6039836    1822.7286  0.043535124   0.04293393            7 
 3490000   0.68637053   -4.6110864    1822.4499  0.043515995  0.042924043           13 
 3491000   0.68530385   -4.6233064    1818.2534  0.043403356  0.042914165            3 
 3492000   0.68038457   -4.6171777    1820.4534  0.043443427  0.042904284            6 
 3493000   0.69971247   -4.5962361    1827.6829  0.043603466  0.042894455            6 
 3494000   0.68926694   -4.6180417     1818.458  0.043370969  0.042884616            9 
 3495000    0.7038771   -4.5809263    1824.8303  0.043510498  0.042874708            8 
 3496000   0.68709543   -4.6370205    1820.0817  0.043384861  0.042864823            6 
 3497000   0.69217421    -4.612773    1822.3697  0.043426978  0.042854857            5 
 3498000    0.6915812    -4.643422    1817.2782  0.043293268  0.042844857            6 
 3499000   0.69241003   -4.6330626    1815.9598  0.043249495    0.0428348            5 
 3500000   0.67656076   -4.6215493    1818.3203  0.043293342  0.042824829            6 
 3501000   0.68229513   -4.6123428    1817.0977  0.043251874  0.042814852            8 
 3502000   0.67803356   -4.6228013    1821.2678  0.043338755   0.04280491           11 
 3503000   0.69064321   -4.6147094    1818.1005  0.043251035  0.042794909           21 
 3504000   0.69353712   -4.6130395    1822.4176  0.043341363  0.042784991            6 
 3505000   0.69643874   -4.6229043    1820.3058  0.043278787  0.042775057            5 
 3506000   0.70827835   -4.6312441    1822.6397  0.043321917    0.0427651            6 
 3507000   0.70193395   -4.6009802    1821.9232  0.043292538   0.04275512            9 
 3508000   0.71072951    -4.634851    1823.6386  0.043320947  0.042745198            4 
 3509000   0.69593997   -4.6297288    1822.0149  0.043270042  0.042735292            8 
 3510000   0.69027476   -4.6369173    1820.3406  0.043217963  0.042725389            4 
 3511000   0.71921916   -4.6327169    1825.4719  0.043327445  0.042715486            3 
 3512000   0.68223432   -4.6255621    1822.9702  0.043255746  0.042705625            9 
 3513000   0.67620572   -4.5922811    1825.8952   0.04331282  0.042695744            5 
 3514000   0.68804182   -4.6293157    1822.4466  0.043218711  0.042685855            9 
 3515000   0.68453878   -4.6115084     1828.334  0.043345994  0.042675969           16 
 3516000   0.67990355   -4.6330626    1823.5786  0.043220957  0.042666062            6 
 3517000   0.67573588   -4.6097509    1827.9265  0.043311688  0.042656194            7 
 3518000   0.69009346   -4.6016241    1824.7488  0.043224104  0.042646268            5 
 3519000   0.67664212   -4.6283821     1821.909  0.043144572  0.042636313            6 
 3520000   0.68974657   -4.6014508    1826.6328  0.043244147  0.042626345            6 
 3521000   0.69910116   -4.6011723    1829.7963  0.043306738    0.0426165            5 
 3522000   0.67995534   -4.6189314    1823.2834  0.043140341  0.042606595           16 
 3523000   0.67964979   -4.6457219    1824.4014  0.043154542  0.042596734            4 
 3524000   0.69867115   -4.6362432    1822.6286  0.043100374  0.042586811           13 
 3525000   0.68066536   -4.6144994    1823.6455  0.043112186  0.042576927           12 
 3526000   0.68313198   -4.6188747    1828.3874   0.04321203  0.042567129            6 
 3527000   0.68042289   -4.6160788    1831.8209  0.043280901  0.042557312           20 
 3528000   0.69337369   -4.6038473    1830.7959  0.043244424  0.042547465            5 
 3529000   0.68918921   -4.6256354    1826.5661  0.043132288  0.042537702            6 
 3530000   0.69877118   -4.6347947    1827.2461  0.043136122   0.04252789           10 
 3531000   0.69726051   -4.6164077    1831.7315  0.043229762   0.04251813            4 
 3532000   0.67932671   -4.6203291    1827.5297  0.043118386  0.042508384            9 
 3533000   0.69594634   -4.6346604     1827.509  0.043105694  0.042498629            8 
 3534000   0.69308102   -4.6511211    1827.8938  0.043102571  0.042488871           11 
 3535000   0.67414346   -4.6317846    1831.2973   0.04317061  0.042479056            3 
 3536000   0.69218953   -4.6560135    1823.0902  0.042964985  0.042469227           12 
 3537000   0.68749255   -4.6144098    1832.4974  0.043174475  0.042459545            5 
 3538000   0.69236941   -4.6298532    1830.1607  0.043107233  0.042449877            5 
 3539000   0.67891483   -4.6198822    1830.2162  0.043096359  0.042440197            8 
 3540000   0.68256077   -4.6607492    1825.1596   0.04296515  0.042430399           10 
 3541000   0.69464741   -4.6242968    1829.5801  0.043057049  0.042420613            5 
 3542000   0.70601553   -4.6351839    1834.9592  0.043171448  0.042410871           10 
 3543000   0.68090402   -4.6280827    1834.2934  0.043143603  0.042401169           11 
 3544000   0.69565062   -4.6479988     1828.588  0.042997273   0.04239147            4 
 3545000   0.68302856    -4.666059    1828.6509  0.042986623   0.04238182           10 
 3546000   0.69523545   -4.6142836    1838.4906  0.043205738  0.042372122           11 
 3547000   0.68066403   -4.6170487    1831.7774  0.043035837  0.042362522            6 
 3548000   0.67459149   -4.6257911    1830.4787  0.042993205  0.042352885            6 
 3549000   0.69244572   -4.6284891    1834.5236  0.043076069  0.042343227           10 
 3550000   0.68389695   -4.6358063    1830.5102  0.042969723  0.042333542            5 
 3551000   0.67748694   -4.6230414    1838.0358  0.043134229  0.042323957            4 
 3552000   0.68482658   -4.6199671    1829.8141  0.042929198  0.042314352           13 
 3553000   0.67914135   -4.6529001    1831.5356   0.04295749  0.042304694            5 
 3554000   0.69073071   -4.6321303    1826.9997  0.042839047  0.042294999            5 
 3555000   0.67273532   -4.6309839    1830.6256  0.042911993  0.042285259            7 
 3556000   0.67984085   -4.6272099    1834.9747  0.043001844  0.042275578           20 
 3557000   0.67841802   -4.6156094    1833.8108  0.042962486  0.042265946            7 
 3558000   0.67821771   -4.6484081    1835.0263  0.042978882   0.04225632           11 
 3559000   0.68901437   -4.6563328    1838.2262  0.043041729   0.04224675           18 
 3560000   0.67663932   -4.6223564    1836.5102  0.042989471  0.042237072            7 
 3561000   0.68614302   -4.6267261    1831.3134  0.042855784   0.04222733            5 
 3562000   0.68536244   -4.6295907    1836.1649  0.042957254  0.042217691           10 
 3563000   0.69647895   -4.6316885    1831.7912  0.042842904  0.042208045           10 
 3564000   0.68874247   -4.6409363    1830.1813   0.04279324  0.042198444           12 
 3565000    0.6704079   -4.6311441    1835.2376  0.042899429  0.042188829           13 
 3566000   0.66897251   -4.6438735    1837.4435  0.042938949   0.04217916            6 
 3567000   0.67970357   -4.6193238    1831.8781  0.042796891  0.042169592           15 
 3568000   0.67475256   -4.6166392    1832.6002  0.042801761  0.042160021            8 
 3569000   0.67582048   -4.6355233     1834.751  0.042839989  0.042150455            4 
 3570000   0.67624299   -4.6309537    1839.6478  0.042942292  0.042140871            7 
 3571000   0.68830286   -4.6803345     1832.316  0.042759172  0.042131237            8 
 3572000   0.69855344   -4.6502835    1838.5679  0.042893055  0.042121608           17 
 3573000    0.6858267   -4.6462286    1837.1969  0.042849075  0.042112017            8 
 3574000   0.69512693    -4.635051    1833.9627  0.042761673  0.042102417            7 
 3575000   0.66396025   -4.6525238    1837.8173  0.042839564  0.042092799            5 
 3576000   0.66557738   -4.6499529     1837.828  0.042827833  0.042083194            7 
 3577000   0.68111263   -4.6267402    1838.3895  0.042828942   0.04207364            6 
 3578000    0.6972312   -4.6590668    1840.6545  0.042869725  0.042064069            5 
 3579000      0.67063   -4.6652111    1836.8373  0.042768867  0.042054468           13 
 3580000    0.6749333   -4.6471115    1838.5447  0.042796664  0.042044903            9 
 3581000   0.67675696   -4.6360796    1839.0421  0.042796289  0.042035371            7 
 3582000   0.67037357   -4.6298312     1842.125  0.042856063  0.042025885           11 
 3583000   0.65351695   -4.6336955    1838.7466  0.042765526  0.042016335           11 
 3584000   0.68990214   -4.6375157    1838.2822  0.042742798  0.042006823            7 
 3585000   0.67020463    -4.648936    1839.4866   0.04275887  0.041997251            8 
 3586000   0.68644221   -4.6456728    1843.4916  0.042840016  0.041987778           12 
 3587000   0.67281723   -4.6422366    1836.9746   0.04267667  0.041978296            6 
 3588000   0.67489347   -4.6345111    1840.5325  0.042747411  0.041968792            9 
 3589000   0.67845465   -4.6392587    1839.8062  0.042718635  0.041959362            9 
 3590000   0.69160204   -4.6584649    1835.4654  0.042605974  0.041949822            9 
 3591000    0.6613821   -4.6470814    1839.8145  0.042695037  0.041940285           10 
 3592000   0.67982223   -4.6388144     1837.403  0.042627205  0.041930778            7 
 3593000   0.67987436   -4.6461821    1845.5849  0.042805106  0.041921259           10 
 3594000    0.6828492    -4.630628    1842.2067  0.042714865  0.041911788            6 
 3595000    0.6662451   -4.6461753    1841.1242  0.042677891  0.041902342            7 
 3596000   0.65159428   -4.6412611    1842.8565  0.042706167  0.041892827           11 
 3597000   0.67891548   -4.6658534    1843.9792  0.042720303  0.041883407           18 
 3598000   0.65786607   -4.6547583    1846.3979  0.042764451  0.041874018            8 
 3599000   0.66493217   -4.6555775    1844.7177  0.042713663  0.041864586           13 
 3600000   0.68160985   -4.6614329    1838.0463  0.042547368   0.04185515           10 
 3601000   0.67335217   -4.6504767    1841.0925  0.042606047  0.041845767           11 
 3602000   0.68514351   -4.6572511     1847.037  0.042731747    0.0418363            5 
 3603000   0.66770356   -4.6601882     1840.786  0.042575308   0.04182684            5 
 3604000   0.67730564   -4.6429738    1846.0435  0.042685062  0.041817394            6 
 3605000   0.66562466   -4.6383815    1847.8913  0.042715934   0.04180791           34 
 3606000    0.6834357   -4.6412476    1849.2069  0.042734491  0.041798502            8 
 3607000    0.6588831   -4.6481792    1844.6342  0.042616999  0.041789115            7 
 3608000    0.6709898   -4.6351246    1841.9889   0.04254409   0.04177971           11 
 3609000   0.65876842   -4.6496177    1847.6068   0.04266202  0.041770357           16 
 3610000   0.68037144   -4.6580048    1846.2601  0.042619117  0.041760908           12 
 3611000   0.67943669    -4.645903    1847.7129   0.04264084   0.04175147            4 
 3612000   0.66957683   -4.6465284    1841.0995  0.042476456  0.041742091           17 
 3613000   0.67972972   -4.6332287    1841.5486  0.042475058  0.041732629            8 
 3614000   0.66894833   -4.6602863    1837.7305  0.042375266  0.041723135            6 
 3615000   0.67234927   -4.6516432    1845.6043  0.042545051  0.041713735           14 
 3616000   0.66227495   -4.6742499    1846.7828  0.042560443  0.041704374           14 
 3617000   0.66485336   -4.6432652    1845.7426  0.042524711  0.041694937            8 
 3618000   0.69048119   -4.6501699    1842.8001  0.042445185  0.041685443            9 
 3619000   0.66136785   -4.6583458    1840.8961  0.042389614  0.041675953            5 
 3620000   0.66940821   -4.6699132    1840.4534  0.042367712  0.041666423            9 
 3621000   0.67563093   -4.6631133    1849.4747  0.042563627   0.04165694           12 
 3622000   0.65944155     -4.66772    1842.5411  0.042392351  0.041647451           11 
 3623000   0.66821277   -4.6556962     1843.092  0.042393321  0.041638007            9 
 3624000   0.67462076   -4.6398388    1848.1829  0.042498688  0.041628504            4 
 3625000   0.65942914   -4.6632235    1841.8827   0.04234213  0.041619078            5 
 3626000   0.67421849   -4.6555074     1843.129  0.042359096  0.041609708            6 
 3627000    0.6791334   -4.6576164    1847.2775  0.042442732  0.041600275            5 
 3628000   0.67707413   -4.6432986    1850.4043  0.042502856  0.041590863            8 
 3629000   0.67784541   -4.6621376    1843.7721  0.042338848  0.041581508           10 
 3630000   0.67614406   -4.6598117    1841.9917  0.042286312  0.041572041           10 
 3631000   0.66751101   -4.6665208    1845.6599  0.042358852  0.041562586           15 
 3632000   0.68748161    -4.672553    1845.2174  0.042337036  0.041553082            9 
 3633000   0.67321131   -4.6443799    1849.3729    0.0424207  0.041543621            8 
 3634000   0.66557025   -4.6486058     1841.608  0.042230968  0.041534206            8 
 3635000   0.67647537   -4.6583957     1846.094  0.042322192  0.041524678            4 
 3636000   0.66264141   -4.6626994    1845.6102  0.042299465  0.041515261            6 
 3637000   0.66440942   -4.6537427    1846.6505  0.042311669  0.041505793           11 
 3638000   0.67189059   -4.6541884    1845.0564  0.042263523  0.041496375            5 
 3639000   0.66477708   -4.6558489    1850.9427  0.042386707  0.041486944            7 
 3640000   0.66782545   -4.6761597    1844.4887  0.042227305  0.041477438            5 
 3641000    0.6763655   -4.6591884    1847.0051  0.042273303  0.041467929           13 
 3642000   0.65456799   -4.6922789    1846.8655    0.0422585  0.041458477            6 
 3643000   0.66038045   -4.6738277    1841.6233  0.042126985  0.041448999           12 
 3644000   0.66313536   -4.6614943    1845.1367  0.042195773  0.041439447            5 
 3645000   0.67071089   -4.6789313    1844.0183  0.042158625  0.041429964           10 
 3646000   0.66617756   -4.6687254    1848.5481  0.042250597  0.041420476            6 
 3647000   0.66748863   -4.6676394    1844.6143  0.042149126  0.041411009            9 
 3648000   0.67262789   -4.6834751    1844.0948  0.042125704  0.041401492           19 
 3649000   0.68469479    -4.660299    1844.8975   0.04213249  0.041392038            6 
 3650000   0.66802514   -4.6371723     1846.506  0.042157672   0.04138258            4 
 3651000    0.6708775   -4.6840348    1845.0506  0.042112904  0.041373072            5 
 3652000   0.68304688   -4.6727452    1851.6188   0.04225125   0.04136359            6 
 3653000   0.66361005   -4.6770775    1848.4915  0.042168343  0.041354171           14 
 3654000   0.66073969   -4.6453416    1847.1051  0.042125185   0.04134466            9 
 3655000   0.66171224   -4.6522373    1844.8725  0.042062755  0.041335205            7 
 3656000    0.6594517   -4.6751615    1845.8152  0.042072738  0.041325741           10 
 3657000   0.66917468   -4.6623297    1849.3697  0.042142231  0.041316256           12 
 3658000    0.6600544   -4.6913341    1846.9948  0.042076608  0.041306837            6 
 3659000   0.68066448   -4.6776562    1847.5134   0.04207692  0.041297352            6 
 3660000    0.6748464    -4.674094     1850.281  0.042128437  0.041287894            4 
 3661000   0.66975353    -4.668026    1855.2425  0.042229866  0.041278438           11 
 3662000   0.65050907   -4.6840466    1848.5927  0.042067009  0.041268955            7 
 3663000   0.68182132   -4.6618409    1852.2931  0.042139711   0.04125948            9 
 3664000   0.65407193   -4.6611281    1850.7527  0.042093175  0.041250108           12 
 3665000   0.67144986   -4.6568276    1851.9772  0.042109531  0.041240761            3 
 3666000   0.65200733   -4.6596043    1855.6832  0.042182288  0.041231375            7 
 3667000   0.66350886   -4.6509985    1852.6928  0.042102826   0.04122198            7 
 3668000   0.65294061    -4.682741     1845.426  0.041926254  0.041212497            4 
 3669000   0.65728565   -4.6866689    1844.2195  0.041887424  0.041203021           12 
 3670000   0.66790979   -4.6788548    1845.6899  0.041909398  0.041193534            3 
 3671000   0.66980987   -4.6611645    1847.4832  0.041938691  0.041184059           14 
 3672000   0.66324127   -4.6735948    1845.9819  0.041893198  0.041174587            6 
 3673000    0.6681048   -4.6559692    1847.2726  0.041911077  0.041165104           10 
 3674000   0.65956921   -4.6596278    1845.8471  0.041867336  0.041155569            9 
 3675000    0.6533942   -4.6807876    1844.9972  0.041836671  0.041146059           12 
 3676000    0.6690615   -4.6919022    1842.0869  0.041759315   0.04113648           13 
 3677000   0.66469097   -4.6736001    1847.9074  0.041879869  0.041126959            4 
 3678000   0.67074831   -4.6667724    1848.5888  0.041883921   0.04111746            8 
 3679000   0.65755416    -4.691384    1844.9984  0.041791211  0.041107974            8 
 3680000   0.67757783   -4.6666753    1853.2397  0.041966478  0.041098456            8 
 3681000   0.66470443   -4.6781371    1850.8262  0.041900439  0.041089025            6 
 3682000   0.66655648   -4.6792573    1851.1754  0.041896964  0.041079562            7 
 3683000   0.66405403    -4.676141    1849.9719  0.041858356  0.041070137           12 
 3684000   0.66454274   -4.6627808    1849.3151  0.041832137  0.041060689            9 
 3685000   0.65551049   -4.6590901     1847.536  0.041780552  0.041051202            7 
 3686000   0.65419225     -4.70712     1846.323  0.041741793  0.041041756            7 
 3687000   0.66559962   -4.6766872    1848.3816  0.041777001  0.041032283            6 
 3688000   0.65543355   -4.6571828    1852.9037  0.041867853  0.041022843           17 
 3689000   0.67155174   -4.6591602    1854.0526  0.041882456  0.041013454            5 
 3690000   0.66268226   -4.6720552    1852.2933  0.041831375  0.041003991           10 
 3691000   0.65479613   -4.6660197    1850.0407  0.041769184  0.040994539            9 
 3692000   0.65797105   -4.6663336    1850.7481  0.041773837  0.040985127            6 
 3693000   0.67309622   -4.6650905    1853.6119  0.041827149  0.040975743            8 
 3694000   0.65931276    -4.677385    1857.2618  0.041898164  0.040966353            7 
 3695000   0.66163808   -4.6509679    1852.0882  0.041770144  0.040956905           10 
 3696000   0.65756691   -4.6889656    1855.6406  0.041838938  0.040947511           12 
 3697000   0.66382908      -4.6773     1852.037  0.041746394  0.040938052           12 
 3698000   0.66258067   -4.6841939    1850.6827  0.041704586  0.040928612            5 
 3699000   0.65710702   -4.6794484     1853.475  0.041756218  0.040919107            6 
 3700000   0.65960544   -4.6775791    1854.2706  0.041762852  0.040909668            9 
 3701000   0.65511241   -4.6951876    1850.6404  0.041669827  0.040900189           22 
 3702000   0.66084909   -4.6730022     1850.106  0.041646543  0.040890771           16 
 3703000   0.65724343   -4.7038102    1854.4785  0.041733696  0.040881373            6 
 3704000   0.65575183   -4.6638467    1856.1748  0.041760591  0.040871942            7 
 3705000   0.65894062   -4.6606573    1854.9406   0.04172156   0.04086257            5 
 3706000    0.6658881   -4.6827533    1855.6263  0.041725722  0.040853216           12 
 3707000    0.6647062   -4.6844607     1855.862  0.041719764  0.040843883            8 
 3708000   0.65967822   -4.6709325      1859.24  0.041784429  0.040834534            6 
 3709000   0.66575004    -4.686276    1852.5578   0.04162303  0.040825212            8 
 3710000   0.66339598   -4.6911254    1852.6425  0.041613714  0.040815782           10 
 3711000   0.65503572   -4.6971117    1858.8109  0.041741016  0.040806349            5 
 3712000   0.64675766   -4.6919237    1855.9708  0.041666011  0.040796941            6 
 3713000   0.65763723   -4.6873002    1856.2272  0.041660544  0.040787587           10 
 3714000   0.66015173    -4.666802     1852.578  0.041567448  0.040778212           11 
 3715000     0.649439   -4.6834899    1856.4949   0.04164412  0.040768779           10 
 3716000   0.65147404   -4.6788664    1856.2127  0.041626586  0.040759379           11 
 3717000   0.66370907   -4.6958269     1853.658  0.041558112  0.040749984           11 
 3718000   0.65571707   -4.6925558    1853.8234  0.041550641  0.040740595            6 
 3719000   0.65861271   -4.6912225    1852.2159  0.041503448  0.040731161            8 
 3720000   0.64943737   -4.6765135    1852.7269   0.04150374  0.040721767            8 
 3721000   0.64642906   -4.6894272    1859.2974  0.041639733  0.040712385            7 
 3722000   0.64588539   -4.6744273    1855.4251  0.041541849  0.040703033           10 
 3723000   0.64895761   -4.6839498    1852.5365  0.041466034  0.040693615            9 
 3724000   0.66416143   -4.6899091    1851.9313  0.041441356  0.040684222            8 
 3725000   0.65508091   -4.6986536    1855.9814  0.041520837  0.040674858            5 
 3726000   0.65355295   -4.6848509    1851.1532  0.041401709  0.040665463            7 
 3727000   0.66084617    -4.655563    1857.3648  0.041529487  0.040656065           27 
 3728000   0.65978537   -4.7021293    1856.8062  0.041505862  0.040646753            9 
 3729000   0.65872654    -4.681344    1861.5778  0.041601364  0.040637414           10 
 3730000    0.6670014   -4.6862678    1855.1854  0.041447395  0.040628089            9 
 3731000   0.65644708   -4.6920275    1856.4968  0.041465578   0.04061872            6 
 3732000   0.64183844   -4.6952843    1853.9546  0.041397701  0.040609321            6 
 3733000   0.65861425   -4.6853576    1857.3848  0.041463183  0.040599928            7 
 3734000   0.65139757   -4.6714415    1858.0385  0.041466669  0.040590504            8 
 3735000   0.65030704    -4.676396    1858.4964  0.041465782  0.040581167            8 
 3736000   0.64832234   -4.6884571    1855.3472   0.04138444  0.040571807           12 
 3737000   0.64545124   -4.6833287    1857.3958  0.041419049  0.040562381           11 
 3738000   0.65304889   -4.7039847    1852.1952  0.041292028  0.040553019            7 
 3739000   0.65167181   -4.6811231    1856.4508  0.041375831  0.040543599            6 
 3740000   0.64244223   -4.6910118    1851.3072   0.04125016  0.040534205            5 
 3741000   0.65266446   -4.7166936    1847.7874  0.041160728  0.040524792            8 
 3742000   0.65712472   -4.6963992    1854.1644  0.041291742  0.040515362           14 
 3743000    0.6537362   -4.6891184    1855.0036  0.041299394  0.040505945            9 
 3744000   0.62603621   -4.7085046    1853.3505  0.041251568  0.040496459            5 
 3745000   0.65807763   -4.7148459    1855.9599  0.041298619  0.040486977           13 
 3746000   0.64540427   -4.7045767    1859.7856  0.041372699  0.040477566            8 
 3747000   0.65044601   -4.6809338    1856.4745   0.04128802  0.040468156            9 
 3748000   0.64858047    -4.683474    1852.8043  0.041195399  0.040458749            5 
 3749000   0.64321172   -4.7005343    1849.4709  0.041110317  0.040449308            7 
 3750000   0.65294201   -4.7019089    1856.3402  0.041252004  0.040439876            8 
 3751000   0.63975378   -4.7027241     1854.766  0.041206034  0.040430452            7 
 3752000   0.64273366   -4.7207725    1857.4151  0.041253888  0.040421022           15 
 3753000   0.65551492   -4.7057713    1859.4306  0.041287649  0.040411611            6 
 3754000   0.64518203   -4.6893837    1853.6812  0.041149024  0.040402226            8 
 3755000   0.64179899   -4.7052328    1857.5808  0.041224607  0.040392876            3 
 3756000   0.64396563   -4.7005117    1856.4717  0.041189024  0.040383492            6 
 3757000   0.64337381   -4.6864678     1854.913  0.041143488  0.040374154           10 
 3758000   0.65445861    -4.710902    1858.7764  0.041218211  0.040364824            9 
 3759000   0.65586302   -4.7120507    1855.0056   0.04112365  0.040355533            8 
 3760000   0.64556145   -4.6735924    1855.3292  0.041119884  0.040346202           15 
 3761000   0.65670036   -4.6867982    1859.1758  0.041194182  0.040336851           13 
 3762000   0.65057409   -4.6965137    1857.9145  0.041155292  0.040327509           10 
 3763000   0.64490637   -4.6881127    1859.6017  0.041181718  0.040318135            9 
 3764000   0.64947427   -4.6977813    1855.7292  0.041085043  0.040308844           11 
 3765000   0.64023789   -4.7011108    1852.6819  0.041006682  0.040299451            9 
 3766000   0.64584853    -4.690055    1857.6141  0.041104933  0.040290045            6 
 3767000     0.661427   -4.7068717    1862.6409  0.041205223  0.040280672           10 
 3768000   0.65203383   -4.7210233    1856.3951  0.041056155   0.04027129           10 
 3769000   0.64524957   -4.7406722    1854.8377  0.041010826  0.040261841            7 
 3770000   0.62940129   -4.6972841    1856.9661  0.041046997  0.040252394            7 
 3771000   0.64098781   -4.7102095    1858.1491  0.041062254  0.040242956            8 
 3772000   0.66938595   -4.6844425     1858.212  0.041052758  0.040233562            5 
 3773000   0.64635517   -4.6996361    1858.0597  0.041038512  0.040224182           10 
 3774000    0.6535611   -4.7101316    1853.6615  0.040930521  0.040214749            8 
 3775000   0.64727583   -4.6929604     1856.552  0.040983489  0.040205431           12 
 3776000    0.6368089   -4.6872057    1861.5815  0.041083631  0.040196095           25 
 3777000    0.6441301    -4.715728    1862.1067  0.041084342  0.040186738           13 
 3778000   0.63469486   -4.7266478    1854.4568   0.04090473   0.04017736            9 
 3779000   0.64901699   -4.7012815    1856.9055  0.040947904  0.040168003            9 
 3780000   0.64360941   -4.7236136    1860.6277  0.041019129  0.040158682            7 
 3781000   0.63413233   -4.7179397    1858.7007  0.040965808  0.040149314            7 
 3782000   0.63382708   -4.7259415    1858.4563  0.040949592  0.040139913            8 
 3783000   0.65366463   -4.7199215    1858.7119  0.040944398  0.040130563            6 
 3784000   0.64189395   -4.6974221    1857.2944  0.040902362  0.040121266           10 
 3785000   0.64965684   -4.7245463    1863.8956   0.04103689  0.040111969            9 
 3786000   0.64767346   -4.7063553     1865.884  0.041069819  0.040102637            7 
 3787000   0.66072428   -4.7150902    1860.6817  0.040944496  0.040093324           15 
 3788000   0.65036782   -4.7194982    1857.7965  0.040870215  0.040083983           23 
 3789000   0.64596183   -4.7232722    1860.5133  0.040919179  0.040074592           12 
 3790000   0.63632353   -4.7206093    1858.6624  0.040867686  0.040065265            7 
 3791000   0.63694236   -4.6846999    1862.7499  0.040946757  0.040055926           11 
 3792000   0.63595206   -4.7082196    1867.1158  0.041031905  0.040046592            8 
 3793000   0.63898387   -4.7300487    1858.2773  0.040826902  0.040037288            9 
 3794000   0.63741879   -4.7287364    1855.1691  0.040747871  0.040027971           19 
 3795000   0.64586927   -4.6811216    1865.9545  0.040973968  0.040018675            4 
 3796000    0.6492303   -4.7112546     1860.052  0.040833597  0.040009402            8 
 3797000   0.64219852    -4.758778    1855.8698  0.040731055  0.040000092            5 
 3798000   0.65064878   -4.7199025    1856.2079  0.040727748  0.039990724           14 
 3799000   0.63602366   -4.7209763    1863.0026  0.040866075  0.039981375            8 
 3800000   0.65277912   -4.6989523    1863.0553  0.040856476  0.039972085            9 
 3801000   0.63938839    -4.717933    1868.0359  0.040954922  0.039962771           10 
 3802000   0.65491206   -4.7339899    1861.3867  0.040798412  0.039953419            9 
 3803000   0.64301502    -4.704848    1860.4027  0.040766122  0.039944026            7 
 3804000   0.64565229   -4.7039761    1863.5703  0.040824796  0.039934685           11 
 3805000   0.63807905    -4.695673    1859.0338  0.040714714  0.039925379            8 
 3806000   0.65364331   -4.7064082    1870.0431  0.040945066   0.03991611            4 
 3807000   0.64427677   -4.7167923      1862.24  0.040763506   0.03990682            7 
 3808000   0.64320406   -4.7210365    1863.6411  0.040783463  0.039897522           14 
 3809000   0.65333699   -4.7177384    1859.2733  0.040677196  0.039888227           21 
 3810000   0.65075576   -4.7170524    1864.9694  0.040791106  0.039878905            9 
 3811000   0.63830727   -4.7314352    1865.4079  0.040789991  0.039869576            4 
 3812000    0.6496345   -4.7483304    1857.2984  0.040602012  0.039860254           11 
 3813000   0.64702292   -4.7313955    1865.2931  0.040766087  0.039850928            8 
 3814000   0.63975273   -4.7386047    1865.5134  0.040760213  0.039841621            8 
 3815000   0.64289789    -4.716921    1863.2003  0.040699002  0.039832378           10 
 3816000   0.64607431    -4.726667     1863.109  0.040686342  0.039823098            9 
 3817000   0.65464541   -4.7359552     1862.397  0.040660139  0.039813777           11 
 3818000   0.63127212   -4.7365939    1862.3408  0.040648262  0.039804493           14 
 3819000    0.6394104   -4.7252993    1861.3659  0.040616346  0.039795183            8 
 3820000   0.64416031   -4.7210396    1864.5341  0.040674827  0.039785914            7 
 3821000   0.63640312   -4.7385373    1863.2747  0.040636716   0.03977663            5 
 3822000   0.63301571   -4.7230617    1860.8158   0.04057247  0.039767352            9 
 3823000   0.64329831   -4.7368699      1860.26  0.040549742  0.039758043           17 
 3824000   0.64455247   -4.7236117    1861.9441   0.04057584  0.039748727           10 
 3825000   0.65455873   -4.7190007    1867.0552  0.040676584  0.039739393           10 
 3826000   0.63512841   -4.7152389    1864.5314  0.040610982   0.03973011            9 
 3827000   0.64123068   -4.7215066    1868.7815  0.040692917  0.039720817           12 
 3828000    0.6394433   -4.7218839    1858.2148  0.040452256  0.039711441           15 
 3829000   0.64101591   -4.7340744    1865.1453  0.040592523  0.039702082            9 
 3830000     0.652374   -4.7265663    1863.6158  0.040548646  0.039692717           10 
 3831000   0.64953591   -4.7426111    1862.1336  0.040505822  0.039683349           13 
 3832000   0.64284397   -4.7221717     1863.906  0.040533795  0.039674038            8 
 3833000   0.65184045   -4.7237028     1863.195  0.040507762  0.039664708           12 
 3834000   0.62928816   -4.7277274    1866.3387  0.040565526  0.039655344           24 
 3835000   0.62381189   -4.7090138    1867.9538  0.040590044  0.039646127            4 
 3836000   0.62996569   -4.7173963    1865.9001  0.040534847  0.039636784            6 
 3837000   0.64207855   -4.7191366     1864.724   0.04049874   0.03962744            6 
 3838000   0.63814542   -4.7250948    1861.2133  0.040411962  0.039618126            8 
 3839000   0.64961767   -4.6997084     1868.976   0.04056994  0.039608817           11 
 3840000   0.63444612   -4.7267741    1866.5582  0.040506905  0.039599597            5 
 3841000   0.62662859   -4.7233876    1862.2669  0.040403256  0.039590353            8 
 3842000   0.64017872   -4.7241016    1864.1225  0.040432989  0.039581044           10 
 3843000     0.641905   -4.7302967    1865.2517  0.040446953   0.03957179           10 
 3844000   0.63276397   -4.7314388    1858.5573  0.040291304  0.039562444            8 
 3845000   0.64144544   -4.7116681    1862.9609  0.040376265  0.039553096            8 
 3846000   0.62860716   -4.7221304    1863.2454  0.040371931  0.039543779            7 
 3847000   0.63597378   -4.7171076    1863.5155  0.040367287  0.039534436            9 
 3848000   0.62306257   -4.7335208    1858.0666  0.040238795  0.039525064            6 
 3849000    0.6373263   -4.7275598    1862.2919   0.04031982  0.039515692           13 
 3850000   0.63396106   -4.7164529    1863.5026  0.040335555  0.039506434            6 
 3851000   0.63729895    -4.720911    1867.3979  0.040409373  0.039497184            8 
 3852000   0.64072326   -4.7288682    1868.0896  0.040413845  0.039487923           15 
 3853000   0.64800812   -4.7294758    1861.8789  0.040269031  0.039478595            7 
 3854000   0.62825777   -4.7200319    1863.3021  0.040289354  0.039469272           16 
 3855000   0.63516454   -4.7620237    1859.4544  0.040195727  0.039459916           19 
 3856000   0.64054529   -4.7430936    1868.0763  0.040371635  0.039450537            7 
 3857000   0.63448164    -4.749557    1864.2403  0.040278288  0.039441095            7 
 3858000   0.63288383   -4.7219723    1862.2759  0.040225417  0.039431694            8 
 3859000   0.62667857   -4.7350819    1864.0315  0.040252905  0.039422337            7 
 3860000   0.63334551   -4.7215708     1866.497  0.040295705   0.03941299            6 
 3861000   0.63072346   -4.7550879    1863.9088  0.040229404  0.039403655            6 
 3862000   0.64608972   -4.7377131     1865.514  0.040253626  0.039394288           16 
 3863000    0.6465501   -4.7391979    1865.6829  0.040246849   0.03938492           31 
 3864000   0.62571418   -4.7529085    1865.4323  0.040231028  0.039375603           12 
 3865000   0.63332549   -4.7220585    1863.6428  0.040182036  0.039366256            9 
 3866000   0.64430696   -4.7181264    1867.0036  0.040244086  0.039356925            7 
 3867000   0.63645914   -4.7147506    1862.9248  0.040145781  0.039347606            9 
 3868000   0.64275638   -4.7540248    1867.3862   0.04023152  0.039338277            8 
 3869000     0.656402   -4.7485558    1865.7861  0.040186657   0.03932891            6 
 3870000     0.629376   -4.7185166    1858.4166  0.040017585  0.039319575           13 
 3871000   0.63158106    -4.730245    1861.7754  0.040079552  0.039310246           19 
 3872000   0.63117371   -4.7500961    1865.6931   0.04015352  0.039300874            4 
 3873000   0.63738355   -4.7297359    1868.7595   0.04020913  0.039291499            4 
 3874000   0.62924523   -4.7451741    1865.7008  0.040132955   0.03928213           12 
 3875000   0.63862833   -4.7411682    1867.5541  0.040162453  0.039272763           10 
 3876000    0.6290427   -4.7347746    1866.2193  0.040123394  0.039263392           21 
 3877000    0.6436551   -4.7294486    1864.4702   0.04007545  0.039254035            6 
 3878000   0.61836059    -4.752453    1865.1321  0.040079338  0.039244656           10 
 3879000   0.62339028   -4.7292861    1866.8965   0.04010691  0.039235335            6 
 3880000   0.63884283   -4.7373495    1862.9012  0.040010764  0.039225986            5 
 3881000    0.6277423    -4.740119    1863.0967  0.040004652  0.039216583           11 
 3882000   0.63054359   -4.7488101    1858.8291  0.039902736  0.039207169           14 
 3883000   0.63470206   -4.7418307    1863.4995  0.039992693  0.039197763            8 
 3884000   0.62937783   -4.7334112    1860.3701  0.039915253  0.039188348            6 
 3885000   0.64463855   -4.7534643    1862.4388  0.039949352  0.039178921            8 
 3886000   0.64698656   -4.7478915    1860.1926  0.039890903  0.039169477            8 
 3887000   0.60796954   -4.7439998    1861.1169  0.039900456  0.039159992           18 
 3888000   0.63319756   -4.7724972    1863.6873  0.039945288  0.039150531            9 
 3889000    0.6170954    -4.756659    1859.0858  0.039836415  0.039141085            6 
 3890000   0.64225519   -4.7568299    1861.8571  0.039885542  0.039131661            7 
 3891000   0.62526109    -4.744409    1866.8086  0.039981336  0.039122206            8 
 3892000   0.62164135   -4.7256518    1863.0021  0.039889563  0.039112843            6 
 3893000   0.64001744   -4.7375379    1866.5776  0.039955853  0.039103553            6 
 3894000   0.62477378    -4.736534    1868.7046  0.039991111  0.039094284            7 
 3895000   0.64107292   -4.7462112    1864.2576  0.039885699  0.039084912            7 
 3896000   0.63967788   -4.7537496    1865.4615  0.039901214  0.039075557            9 
 3897000   0.61680305   -4.7213369    1867.1331   0.03992672  0.039066212           12 
 3898000   0.63043477   -4.7581041    1866.0233  0.039892751  0.039056818           11 
 3899000   0.62828913   -4.7246754    1865.2876  0.039866795  0.039047512            9 
 3900000   0.62890593   -4.7288557    1870.0398  0.039958114  0.039038281            7 
 3901000   0.63806632   -4.7492015    1859.4344   0.03972132  0.039028972           15 
 3902000   0.62509429   -4.7372852    1866.5756  0.039863651  0.039019713            7 
 3903000   0.61957222    -4.734693    1865.2698  0.039825557  0.039010429            8 
 3904000   0.63131424   -4.7646934    1867.5052  0.039863071  0.039001167           15 
 3905000    0.6209294   -4.7509823    1868.3976  0.039871907   0.03899187            9 
 3906000   0.62869967   -4.7487387    1866.5405  0.039822079    0.0389826           16 
 3907000   0.61797004   -4.7433891    1867.3714   0.03982961  0.038973352           13 
 3908000   0.61662549   -4.7640954    1866.5322  0.039801522  0.038964059            7 
 3909000   0.63441351   -4.7475759    1866.9053  0.039799294  0.038954761           20 
 3910000   0.60873561   -4.7508097    1867.3808   0.03979925  0.038945459           10 
 3911000   0.63159185   -4.7544231    1868.9225  0.039821923  0.038936131           14 
 3912000   0.62357169   -4.7312052    1869.6569  0.039827388  0.038926868           15 
 3913000   0.62396814   -4.7690308     1865.083  0.039719801  0.038917544           12 
 3914000   0.63241458   -4.7429865    1867.9338   0.03977035  0.038908248            6 
 3915000   0.62878998   -4.7499031    1868.9145  0.039781067  0.038898952           21 
 3916000   0.61442536   -4.7543817    1868.3108  0.039758061  0.038889616           12 
 3917000    0.6217193    -4.733585    1865.0089  0.039677664   0.03888032           13 
 3918000   0.62167402   -4.7583655     1868.752   0.03974715  0.038871036           11 
 3919000   0.61876698   -4.7426566    1869.0928  0.039744255  0.038861768            7 
 3920000    0.6361199   -4.7617233    1866.0177  0.039668743  0.038852451            6 
 3921000   0.64049897    -4.751692    1872.3033  0.039792215  0.038843149            8 
 3922000   0.64264958   -4.7506403    1868.8571  0.039708846  0.038833865            8 
 3923000   0.62397904   -4.7556107    1870.4715  0.039733017  0.038824592           12 
 3924000   0.61617278   -4.7556182    1868.8596  0.039688659  0.038815306           13 
 3925000   0.63091352   -4.7331701    1870.9511  0.039722953  0.038805992            6 
 3926000   0.62651151   -4.7512368    1870.6679  0.039706824  0.038796731            9 
 3927000   0.61921578   -4.7450727     1869.888  0.039680163  0.038787461           12 
 3928000   0.62752368   -4.7400964    1871.6423   0.03970728  0.038778192           10 
 3929000   0.63733348   -4.7564322     1867.566  0.039610716  0.038768943           21 
 3930000   0.62816397   -4.7467163    1868.5537   0.03962158  0.038759726           11 
 3931000   0.61764761   -4.7696179    1866.5645  0.039569332   0.03875044            9 
 3932000   0.61766596    -4.776199    1870.4111   0.03964079  0.038741112           17 
 3933000   0.62408257   -4.7500099    1868.4004  0.039588109  0.038731786           16 
 3934000   0.61175182   -4.7623602    1869.1625  0.039594189  0.038722458           14 
 3935000   0.61919345   -4.7538841    1871.2426   0.03962818  0.038713261           10 
 3936000   0.63594017   -4.7452538    1866.3599  0.039514734  0.038704028           23 
 3937000   0.62639816   -4.7554709    1869.1077  0.039562859  0.038694761           11 
 3938000   0.63491435   -4.7409564    1871.3874  0.039601055  0.038685542            6 
 3939000   0.61240145   -4.7379272    1871.4426  0.039592169  0.038676301            7 
 3940000   0.62482963   -4.7811814     1867.595   0.03950074  0.038667047           10 
 3941000   0.60512246   -4.7777481    1866.5866  0.039469394  0.038657781            9 
 3942000   0.61639691    -4.769701    1869.0242  0.039510913  0.038648467           15 
 3943000   0.62110927   -4.7649681    1867.5625  0.039469999  0.038639169           10 
 3944000   0.61665134   -4.7683683    1866.0317  0.039427648  0.038629904            6 
 3945000   0.62690549   -4.7711092    1868.0731  0.039460776  0.038620538           17 
 3946000   0.62267018    -4.770221     1868.704  0.039464099  0.038611191            6 
 3947000   0.61894411   -4.7531924    1866.1921  0.039401066  0.038601883            9 
 3948000   0.61006027   -4.7610593    1870.9251  0.039490989  0.038592551           16 
 3949000   0.61979985   -4.7633679    1868.7563  0.039435221  0.038583254            5 
 3950000   0.62884263     -4.77043    1864.2133  0.039329395  0.038573958            9 
 3951000   0.62485869   -4.7670737    1871.7928  0.039479304  0.038564644           23 
 3952000   0.61206407   -4.7654514    1868.8285   0.03940681  0.038555368           16 
 3953000   0.61295683   -4.7605468    1873.6606  0.039498705  0.038546095           14 
 3954000   0.62717976   -4.7856812     1866.852  0.039345221  0.038536781           10 
 3955000   0.61999087   -4.7619524    1864.9911  0.039296061  0.038527502            9 
 3956000   0.61205339   -4.7697617    1868.2073  0.039353878  0.038518199           11 
 3957000   0.60606325   -4.7693555    1869.2252  0.039365369  0.038508909            7 
 3958000   0.61556912   -4.7769238    1872.1683  0.039417388  0.038499647            9 
 3959000   0.61956861   -4.7651552    1871.3177  0.039389528  0.038490448           12 
 3960000   0.61934497   -4.7716671    1866.8838  0.039286274  0.038481172            7 
 3961000   0.61562998   -4.7729422    1873.2415  0.039410112  0.038471896            9 
 3962000   0.61128483   -4.7674637    1869.2995  0.039317253  0.038462645            9 
 3963000   0.61214189   -4.7506271    1871.8135  0.039360195  0.038453386           11 
 3964000   0.61243043    -4.747966    1871.7335  0.039348586  0.038444152           21 
 3965000   0.61099487   -4.7863901    1875.2144   0.03941182  0.038434909           15 
 3966000   0.61671199   -4.7847887     1871.653  0.039327052  0.038425626           14 
 3967000   0.60819274   -4.7538405    1873.7129  0.039360409   0.03841635           13 
 3968000   0.60967794   -4.7610914    1867.8111  0.039226544   0.03840711           10 
 3969000   0.61298777   -4.7866691    1872.8283  0.039322001  0.038397872           13 
 3970000   0.61702793   -4.7742372    1866.7085  0.039183638  0.038388603           13 
 3971000   0.60709377   -4.8047998    1868.8136  0.039217946  0.038379261           14 
 3972000   0.62221248   -4.7680472    1867.7359  0.039185464  0.038369964           11 
 3973000   0.62081709   -4.7820506    1872.0989  0.039267114  0.038360722            9 
 3974000   0.62604683   -4.7705649    1870.9593  0.039233335  0.038351461           11 
 3975000   0.61551407   -4.7884582    1871.8311  0.039241741  0.038342275           21 
 3976000   0.60985386   -4.7736729    1869.4075  0.039181075  0.038333029           12 
 3977000   0.61271535   -4.7936272    1870.6043  0.039196301  0.038323831           14 
 3978000   0.61456838   -4.7778305     1871.874  0.039213048  0.038314574           11 
 3979000   0.61007534   -4.7666698     1869.721    0.0391581  0.038305347           13 
 3980000    0.6086444   -4.7905283    1866.4425  0.039079617  0.038296153           12 
 3981000   0.62637788   -4.7880723    1869.2143  0.039127822  0.038286872            8 
 3982000   0.60655968   -4.7840867    1874.4711  0.039228007  0.038277615            9 
 3983000   0.61602547   -4.7868927     1864.712  0.039013977  0.038268351           12 
 3984000   0.63912301   -4.7720418    1872.0574  0.039157828  0.038259047           11 
 3985000   0.62496376   -4.7782362    1870.8413  0.039122569  0.038249818            8 
 3986000   0.62006048   -4.7826611    1872.7887  0.039153469  0.038240579            9 
 3987000   0.61423969   -4.8012816    1868.6563  0.039057275  0.038231287            5 
 3988000   0.62509432   -4.7688333    1873.3715  0.039146012  0.038222046            8 
 3989000   0.61805585   -4.7552212     1870.577  0.039077818  0.038212816           15 
 3990000   0.60089114   -4.7846902    1875.5713  0.039172334  0.038203621           39 
 3991000    0.6102528   -4.7901527    1870.1446  0.039049207  0.038194394           26 
 3992000   0.59381684   -4.7801834    1869.0549  0.039016678  0.038185103            9 
 3993000   0.61218272   -4.7979839    1866.0795   0.03894481  0.038175804            9 
 3994000   0.60692351   -4.7796905     1869.389   0.03900411  0.038166469           17 
 3995000   0.61093359   -4.7856933     1869.259  0.038991636  0.038157165           16 
 3996000    0.6291393   -4.7907464    1869.6645  0.038990333  0.038147856            8 
 3997000   0.63255967   -4.7836022    1870.2034  0.038991816  0.038138578           12 
 3998000   0.61261237   -4.7989024    1871.9654  0.039018788  0.038129268           11 
 3999000   0.61812495   -4.7885621    1867.3391  0.038912625  0.038119934           13 
 4000000   0.60090788   -4.7803942    1873.0042  0.039020921  0.038110613            8 
 4001000    0.6101554   -4.7674952    1869.1252  0.038930375  0.038101345            9 
 4002000   0.60839953   -4.7808288    1874.9393  0.039041715  0.038092075           17 
 4003000   0.62048472   -4.7655082    1867.6188  0.038879566  0.038082794           19 
 4004000   0.61058647   -4.7866329    1871.9614  0.038960236  0.038073475           16 
 4005000    0.6185971   -4.7840071    1867.7222  0.038862301  0.038064167           24 
 4006000   0.61466338   -4.7806879    1873.1532  0.038965576  0.038054867           13 
 4007000   0.60375343   -4.7844208    1870.6907  0.038904639  0.038045576            8 
 4008000   0.60133629   -4.7634648    1871.5199  0.038912174  0.038036289           13 
 4009000     0.608397    -4.782735    1869.2743  0.038855789  0.038026982            9 
 4010000   0.60236296   -4.7675506    1868.4725  0.038829437  0.038017682            8 
 4011000   0.61151353   -4.7939913    1869.6813  0.038844871  0.038008331            7 
 4012000   0.61752578   -4.7993096    1866.6033  0.038771255     0.037999           27 
 4013000   0.61368467   -4.7853631    1865.4656  0.038737968  0.037989703            7 
 4014000   0.61061651   -4.7840638    1870.4926  0.038832681   0.03798037           13 
 4015000   0.61458098   -4.8023478    1868.8336  0.038788577  0.037971062           12 
 4016000   0.61794796   -4.7675294    1867.5391  0.038752055  0.037961761           10 
 4017000   0.62253366   -4.7665069    1869.7077  0.038787398  0.037952437            8 
 4018000   0.60584216   -4.7719127    1870.4592  0.038793331  0.037943201            5 
 4019000   0.60992461   -4.7714359    1871.7154  0.038809724   0.03793395            9 
 4020000   0.59571368   -4.7830051    1873.4811  0.038836674  0.037924732            7 
 4021000   0.61070498   -4.7724555     1870.465  0.038764508  0.037915478            6 
 4022000   0.60329112   -4.7770872    1875.6606  0.038862519  0.037906257           13 
 4023000   0.59863751   -4.7974892    1866.3765  0.038660547  0.037896994            4 
 4024000   0.60445434   -4.8014478    1870.8148  0.038742851  0.037887708           23 
 4025000    0.6089439   -4.7938421    1869.0907   0.03869753  0.037878406           19 
 4026000   0.60646588    -4.771124         1870   0.03870674  0.037869131           10 
 4027000   0.60462972   -4.7749293    1871.4672   0.03872749  0.037859904           26 
 4028000   0.61773068   -4.7823727    1871.5426  0.038719436   0.03785066           15 
 4029000   0.60289782   -4.7922809     1870.235   0.03868278  0.037841414           38 
 4030000    0.5998467   -4.7841913    1871.4009  0.038697288   0.03783219            8 
 4031000    0.6011293   -4.8014123    1874.8174  0.038758318   0.03782297            8 
 4032000   0.59564253   -4.7964128    1874.9982  0.038752443  0.037813805           12 
 4033000   0.59932589   -4.7966113    1865.5387  0.038547375  0.037804546            6 
 4034000   0.60280362   -4.7773564    1873.1066  0.038694155  0.037795318            8 
 4035000   0.60804634   -4.8163986    1869.6713  0.038613616  0.037786093           11 
 4036000   0.60714466   -4.8084254    1865.5387  0.038518722  0.037776855            9 
 4037000   0.59872733    -4.792659    1873.6389  0.038676386  0.037767642           10 
 4038000   0.60922706    -4.813484    1873.9837  0.038673925  0.037758421           11 
 4039000   0.59697492   -4.7922974    1871.9624  0.038622647   0.03774917           13 
 4040000   0.59863189   -4.8098631    1866.4073    0.0384985  0.037739911           14 
 4041000   0.60733496   -4.7916555    1871.9531  0.038603339  0.037730598            6 
 4042000   0.59684656   -4.8013526    1869.8122  0.038549649  0.037721319           34 
 4043000   0.59486831   -4.7999247    1872.4719  0.038594936  0.037712074           23 
 4044000   0.60027719   -4.7901493    1871.9014  0.038573636  0.037702851            9 
 4045000   0.60577051   -4.8111619     1869.658  0.038517882  0.037693599           29 
 4046000   0.62418667   -4.7877941    1870.5372  0.038526472  0.037684321           19 
 4047000   0.59316298   -4.7975398    1870.5194  0.038516585  0.037675063            5 
 4048000   0.61591156   -4.8195066    1869.2329  0.038480586  0.037665772           10 
 4049000   0.61493919    -4.804313    1871.8841  0.038525645  0.037656499           29 
 4050000   0.61687321   -4.7912173    1868.9087  0.038454911  0.037647262           15 
 4051000   0.59557851   -4.7922522     1873.171  0.038533098   0.03763801           10 
 4052000   0.60908991   -4.7889132    1870.0373  0.038459141  0.037628756           19 
 4053000    0.5974996     -4.82094    1875.0768   0.03855327  0.037619482           13 
 4054000   0.59752566   -4.7832127    1873.1598  0.038504353  0.037610204           10 
 4055000   0.59054275   -4.7907295    1874.0835  0.038513841  0.037601016            5 
 4056000   0.61508041   -4.8010673    1866.4749  0.038348021  0.037591773           13 
 4057000   0.59729225   -4.8052559    1872.5611  0.038463583  0.037582511            9 
 4058000   0.61275599   -4.8028967    1873.0615  0.038464382  0.037573268            8 
 4059000   0.59816343   -4.7771874    1874.4055  0.038482497  0.037564071           11 
 4060000   0.59349062   -4.7973086    1876.0212  0.038506183  0.037554876            6 
 4061000   0.60798973   -4.8017499    1869.9831  0.038372796   0.03754562            9 
 4062000   0.60066878   -4.8362512    1872.0295  0.038405331  0.037536379           11 
 4063000   0.61301516   -4.8198934    1867.9055  0.038311294  0.037527118           10 
 4064000   0.59938042   -4.7855164    1875.5585  0.038458796  0.037517897           10 
 4065000   0.59206145   -4.8018892    1867.7121  0.038288481  0.037508684           11 
 4066000   0.60079095   -4.8127769    1869.4594  0.038314876  0.037499489            8 
 4067000   0.60412762   -4.7879693    1869.5355  0.038307014  0.037490267            5 
 4068000   0.60142802   -4.8055996    1875.4464  0.038418682  0.037480989           15 
 4069000    0.6010709   -4.8094974    1871.1045  0.038320318  0.037471703           16 
 4070000    0.5806324   -4.8056614    1870.2065  0.038292516  0.037462419           11 
 4071000   0.59217643   -4.7997596    1874.4025  0.038369003  0.037453129           23 
 4072000   0.60392493   -4.8219214    1870.2918  0.038275455  0.037443858           27 
 4073000   0.60455149   -4.8355549    1869.0857   0.03824138    0.0374346           11 
 4074000   0.60064547   -4.7997901    1873.9526  0.038331546  0.037425366           10 
 4075000   0.60400407   -4.7753944    1870.6747  0.038255107  0.037416239           20 
 4076000   0.59554088   -4.8110647    1872.9625  0.038292494  0.037407042            7 
 4077000   0.60177037   -4.8269107    1870.9458  0.038241881  0.037397799           16 
 4078000   0.60629058   -4.8014371    1868.6618   0.03818583  0.037388571           20 
 4079000   0.60510537   -4.8267331    1876.2923  0.038332358  0.037379297           15 
 4080000    0.5908884   -4.8188043    1872.6993  0.038249577   0.03737003            7 
 4081000   0.61803937   -4.8096773    1873.5391  0.038257352  0.037360814           19 
 4082000   0.60537595   -4.8220356    1872.0204  0.038216978  0.037351611           12 
 4083000   0.59386027   -4.8032889    1872.1996  0.038211273   0.03734235            9 
 4084000   0.60536314   -4.8170791    1871.2329  0.038182193  0.037333138           16 
 4085000   0.59880853   -4.7941913    1870.3297   0.03815442  0.037323943            7 
 4086000   0.59792426   -4.7885412    1875.7686  0.038256008  0.037314751            8 
 4087000   0.59002387   -4.8212506    1873.0418  0.038191048  0.037305574            8 
 4088000   0.59787831   -4.8142579    1874.2345   0.03820602  0.037296432           13 
 4089000   0.59627259   -4.7735926    1871.9694  0.038150514  0.037287235            7 
 4090000   0.58973564   -4.8309169    1876.0366  0.038224054  0.037278069           11 
 4091000   0.59611476   -4.7975831    1876.5009   0.03822417  0.037268946            8 
 4092000   0.60722481   -4.8012549    1872.4975  0.038133299  0.037259763           21 
 4093000    0.5974925   -4.8122046    1871.4826   0.03810332  0.037250565           16 
 4094000   0.58033358   -4.7906569    1872.2685  0.038110009   0.03724138            9 
 4095000   0.59917243   -4.8227853    1869.6869  0.038048166  0.037232201           15 
 4096000   0.59394852   -4.8154058    1874.7512  0.038141911  0.037223014            6 
 4097000   0.60549034   -4.8192153    1872.5833  0.038088505  0.037213818           14 
 4098000   0.58754629   -4.7966993    1871.7807  0.038062891  0.037204669           33 
 4099000   0.60638894   -4.8173002    1869.1981    0.0380011  0.037195443           15 
 4100000   0.59095114   -4.8200234    1861.5185  0.037835742   0.03718624           10 
 4101000   0.59174926   -4.8069187    1872.4997  0.038049656  0.037177054           19 
 4102000    0.5863915   -4.7953449    1871.5371  0.038020825  0.037167863           12 
 4103000    0.5945604    -4.812769    1874.7888  0.038077602  0.037158642           13 
 4104000   0.60154859   -4.8135095    1872.3918  0.038019651  0.037149444           11 
 4105000   0.59033424   -4.8392163    1870.9027  0.037980161  0.037140226            7 
 4106000   0.58996339   -4.8331283    1869.0803  0.037933924  0.037130997           14 
 4107000   0.58892851   -4.8047268    1873.9669  0.038023839  0.037121812           10 
 4108000    0.5872654   -4.8139462    1874.3258  0.038021863  0.037112658           14 
 4109000   0.58141748   -4.8361756    1871.6412  0.037958166  0.037103505           14 
 4110000   0.58816945   -4.8101343    1877.4369  0.038066442   0.03709434           23 
 4111000   0.58505036   -4.8092389    1871.9897  0.037946763   0.03708515           12 
 4112000   0.58870372   -4.8102293    1876.2829   0.03802454   0.03707603           13 
 4113000    0.5926509   -4.8294959    1873.3814  0.037956508  0.037066871           10 
 4114000   0.58394592    -4.833409    1878.0963  0.038042786  0.037057691            7 
 4115000   0.57432347   -4.8293349    1874.6275  0.037963295  0.037048496           12 
 4116000   0.60741919   -4.8207815    1874.6946   0.03795543  0.037039271           14 
 4117000   0.59486737   -4.8074419    1872.8187   0.03790824  0.037030097           11 
 4118000   0.59313382   -4.8130433    1876.5374  0.037974289  0.037020923            6 
 4119000   0.59063967   -4.7790656    1878.2636  0.037999992  0.037011767           11 
 4120000   0.59594667   -4.8049432    1879.0528  0.038006731  0.037002694           14 
 4121000   0.59646611   -4.8065837    1877.8976  0.037974149  0.036993572           10 
 4122000   0.58309264   -4.8283107    1872.5041  0.037855897  0.036984414            9 
 4123000   0.59609521   -4.8047202    1878.7179  0.037972308    0.0369753           10 
 4124000   0.58549692   -4.8090323    1874.3305  0.037874443  0.036966185           12 
 4125000   0.57714058   -4.8180092    1873.6806  0.037852134  0.036957065           14 
 4126000   0.60467993   -4.8278596    1872.1327  0.037811695  0.036947928            9 
 4127000   0.59801978   -4.8133729    1875.6256  0.037873064   0.03693881           36 
 4128000   0.60120852   -4.8283511     1873.523  0.037821443  0.036929701            9 
 4129000   0.58941473   -4.8274667    1874.6136  0.037834295  0.036920539           20 
 4130000    0.5932863   -4.8342775    1874.1208   0.03781519  0.036911396            9 
 4131000   0.57855757   -4.8334683     1874.712  0.037817963  0.036902242           10 
 4132000   0.57954922   -4.7955449    1875.1005  0.037816644  0.036893137            9 
 4133000   0.58174332   -4.8122196    1876.8618  0.037843008  0.036884044           18 
 4134000   0.59265765   -4.8366248    1873.6477  0.037769064   0.03687491           22 
 4135000   0.58994903   -4.8391097    1872.7061  0.037740954  0.036865758           14 
 4136000   0.57908631   -4.8252278    1874.2116  0.037762162  0.036856634           11 
 4137000   0.59637427   -4.8125334    1877.8578  0.037826482  0.036847486           19 
 4138000   0.58749377   -4.8508304    1871.0157  0.037679548   0.03683834           13 
 4139000   0.58223561   -4.8211208    1874.7776  0.037746186  0.036829215           26 
 4140000   0.57915077   -4.8108286    1877.6268   0.03779442  0.036820068           11 
 4141000   0.58605382   -4.8171199    1876.0648  0.037753859  0.036810956           17 
 4142000   0.58271858   -4.8252769    1870.4866  0.037632516  0.036801836           10 
 4143000   0.59454798   -4.8196193    1876.1612  0.037737573  0.036792712           12 
 4144000   0.58386601   -4.8471393    1875.0611  0.037706345  0.036783555           14 
 4145000   0.59945665   -4.8344255    1874.3249  0.037682446  0.036774415           15 
 4146000    0.5840646   -4.8325992    1874.2763  0.037672381   0.03676526            9 
 4147000   0.59162958   -4.8427305    1873.3438  0.037644559  0.036756152           13 
 4148000   0.58978176   -4.8452053     1873.125  0.037631087  0.036747027           10 
 4149000   0.59174282   -4.8281802     1871.332  0.037586006  0.036737919            5 
 4150000    0.5831854   -4.8389931    1875.9902  0.037670485  0.036728824            8 
 4151000   0.58471469   -4.8424004    1876.9358  0.037680394  0.036719707            5 
 4152000   0.59401001    -4.834389    1873.2548  0.037597439  0.036710614           10 
 4153000   0.60210559   -4.8502282    1875.9168  0.037641801  0.036701493           19 
 4154000   0.58730498   -4.8468966    1868.3247  0.037480435  0.036692355           11 
 4155000   0.58380882    -4.837341    1874.9328  0.037603947  0.036683265           16 
 4156000   0.58019269   -4.8283324    1875.5325  0.037606924  0.036674204           11 
 4157000   0.58903519   -4.8327041    1875.7375  0.037601987  0.036665107            6 
 4158000   0.57795016   -4.8551513    1872.3442  0.037524936  0.036656009           12 
 4159000   0.57572172   -4.8363022    1873.6671   0.03754242  0.036646905           20 
 4160000   0.58277662   -4.8413176    1877.5168  0.037610512  0.036637809           14 
 4161000   0.58579454   -4.8428355    1875.8556  0.037568206  0.036628714            8 
 4162000   0.59450071   -4.8462581    1872.5432  0.037492857  0.036619602           10 
 4163000   0.58610209   -4.8262215    1881.2008  0.037657154  0.036610533            8 
 4164000   0.58652108   -4.8411184    1878.9976  0.037604018  0.036601476           23 
 4165000   0.58126367   -4.8218054    1880.7821  0.037630694  0.036592407           13 
 4166000   0.57974136   -4.8253051    1879.8597  0.037603211  0.036583366           13 
 4167000   0.58500365   -4.8326528     1871.959  0.037436184  0.036574298           12 
 4168000   0.57350354   -4.8261831    1875.2586  0.037493174  0.036565227           13 
 4169000   0.57743132   -4.8540658    1870.7933  0.037394925  0.036556119           33 
 4170000   0.57249837     -4.83435    1877.7432  0.037524845  0.036547027           13 
 4171000   0.58092733   -4.8355174    1875.4152  0.037469336   0.03653794           31 
 4172000   0.58193653   -4.8263136    1882.7374  0.037606612    0.0365289           12 
 4173000   0.58681407   -4.8297684    1875.7242  0.037457548  0.036519852           11 
 4174000   0.58627845   -4.8395922    1877.7676  0.037489372  0.036510831           16 
 4175000   0.59101381   -4.8498938    1874.6839   0.03741884  0.036501781           18 
 4176000   0.58398871   -4.8358114    1879.7492   0.03751096  0.036492756            7 
 4177000   0.56803213    -4.839989    1872.1211  0.037349794  0.036483681           13 
 4178000   0.58321062   -4.8345979    1875.2646  0.037403555  0.036474637           12 
 4179000   0.58961491    -4.835173    1879.1129  0.037471342    0.0364656           14 
 4180000   0.58569727   -4.8305626    1878.1545  0.037443271  0.036456583           26 
 4181000   0.58180562   -4.8280355    1880.3655  0.037478385  0.036447586           18 
 4182000   0.57543948    -4.856841    1876.7615  0.037397606  0.036438596           12 
 4183000   0.58613462   -4.8442079    1874.7427  0.037348448  0.036429555           33 
 4184000    0.5941443   -4.8466651     1879.293   0.03743015   0.03642054            9 
 4185000   0.58367484   -4.8464142    1873.3076  0.037302023  0.036411488            9 
 4186000   0.57465143   -4.8239489    1879.3787  0.037413974  0.036402436           12 
 4187000   0.58369117    -4.855162    1876.3121  0.037344004  0.036393383           20 
 4188000   0.57380647   -4.8315143    1879.6575  0.037401654  0.036384364           10 
 4189000    0.5617978   -4.8624642    1876.2706  0.037325349    0.0363753           15 
 4190000   0.58477605    -4.858894    1871.1784  0.037215163  0.036366244           10 
 4191000   0.57650941   -4.8421082     1876.209  0.037306311  0.036357167            8 
 4192000   0.58820161   -4.8389008    1877.7101  0.037327253  0.036348113           21 
 4193000    0.5907625   -4.8615115    1876.3794  0.037291904  0.036339018            6 
 4194000   0.57879522   -4.8401522    1875.5192  0.037265921   0.03632994            8 
 4195000   0.57703924    -4.857925    1877.6648  0.037299658  0.036320903           13 
 4196000   0.57339362   -4.8336343    1875.7967  0.037253668  0.036311927           14 
 4197000   0.58032958   -4.8431513    1875.2054  0.037233051  0.036302892           21 
 4198000   0.56959347   -4.8505717     1874.526  0.037210695  0.036293823           12 
 4199000   0.57558071   -4.8482215    1875.1623  0.037214462  0.036284767            9 
 4200000   0.58864462   -4.8370082    1879.5591  0.037292839  0.036275755            6 
 4201000   0.58494484   -4.8365389    1876.3986  0.037221269  0.036266736           17 
 4202000   0.58965042   -4.8574421    1878.5511  0.037255099  0.036257724           27 
 4203000   0.56947482   -4.8367449    1877.6305  0.037227983  0.036248731            8 
 4204000   0.60553827    -4.851544    1881.6394  0.037298592  0.036239713           10 
 4205000   0.58066288   -4.8724485    1873.4625  0.037127675  0.036230635            9 
 4206000   0.58253927   -4.8488623    1876.7421  0.037183826  0.036221611            7 
 4207000   0.58763569   -4.8382853    1872.2443  0.037085894  0.036212553            9 
 4208000   0.58059098   -4.8567595    1878.7607  0.037206129  0.036203527           30 
 4209000   0.56895015   -4.8580819    1875.8664  0.037139985  0.036194506           15 
 4210000   0.57651097   -4.8584283    1876.8769  0.037151165  0.036185429           51 
 4211000   0.57018816   -4.8640203    1881.0305  0.037224541  0.036176401           21 
 4212000   0.57958418   -4.8282021    1884.0555  0.037275551  0.036167382           10 
 4213000   0.58479976   -4.8608834    1876.1659  0.037110647  0.036158325           23 
 4214000   0.58297429   -4.8385307    1875.5379  0.037089423  0.036149284            9 
 4215000   0.58313622    -4.857858    1876.0685  0.037091113  0.036140226           18 
 4216000   0.55914743   -4.8702718    1872.2205  0.037006256  0.036131203           15 
 4217000   0.57913722    -4.869719    1874.8975  0.037050382  0.036122132           13 
 4218000   0.56554997   -4.8823547    1875.3203   0.03704995  0.036113063           26 
 4219000   0.57546705    -4.872083    1874.0188  0.037015462  0.036103956           14 
 4220000   0.59833887   -4.8681519    1880.2863  0.037130456    0.0360949           34 
 4221000   0.56910193   -4.8512106    1875.3805  0.037024807  0.036085827           10 
 4222000   0.57643087   -4.8584991    1876.5565  0.037039248  0.036076775           11 
 4223000   0.56580709   -4.8657281    1873.1869  0.036963984  0.036067711           17 
 4224000   0.56588722    -4.869358    1879.1207    0.0370723  0.036058643           14 
 4225000   0.57515516   -4.8615665    1875.9113  0.037000222   0.03604961            7 
 4226000   0.57857302   -4.8259818    1881.7539  0.037106679  0.036040669           10 
 4227000   0.58443553   -4.8452615    1880.1064  0.037065421  0.036031704            5 
 4228000    0.5705527   -4.8603428    1874.8947  0.036953932  0.036022696           10 
 4229000   0.57028869   -4.8552293    1870.9719  0.036867895  0.036013677           22 
 4230000   0.57376081   -4.8375101     1876.884   0.03697565  0.036004678           12 
 4231000   0.56463442   -4.8417524    1878.9846  0.037008284  0.035995724            9 
 4232000   0.57256973   -4.8347944    1877.3684  0.036967715   0.03598672           18 
 4233000   0.58084138   -4.8522204    1877.7802  0.036967087  0.035977718           31 
 4234000   0.57270724   -4.8626162    1877.6373  0.036955544  0.035968737           14 
 4235000   0.58138653   -4.8822944     1876.885  0.036932016   0.03595974           14 
 4236000   0.58137449   -4.8427491    1877.9536  0.036944318  0.035950727           13 
 4237000   0.57425976   -4.8451873    1882.2853  0.037020796  0.035941763           20 
 4238000   0.57798957   -4.8587216    1881.0948  0.036988651   0.03593283           22 
 4239000   0.57781372   -4.8650544    1878.8231  0.036935265   0.03592386           14 
 4240000   0.57337151   -4.8610203    1876.9288  0.036889323  0.035914896           10 
 4241000   0.58291186    -4.866451     1873.754  0.036818242  0.035905884           13 
 4242000   0.57690584   -4.8774584     1875.994  0.036853568  0.035896874           10 
 4243000   0.57533377   -4.8771825    1876.9139   0.03686295  0.035887886           21 
 4244000   0.57296233   -4.8663887    1877.9015  0.036873654  0.035878895           10 
 4245000    0.5812576   -4.8605596    1876.1842  0.036831256   0.03586994           12 
 4246000   0.57314999   -4.8833943    1877.8213  0.036854712  0.035860942            7 
 4247000   0.57020021   -4.8369163    1875.8499  0.036807352  0.035851923           12 
 4248000   0.57306859   -4.8729214    1878.2834  0.036846426  0.035842937           43 
 4249000   0.56746439   -4.8637763    1877.1184  0.036814906  0.035833943           36 
 4250000   0.58087869    -4.859636    1872.0856   0.03670756   0.03582493           17 
 4251000   0.56676291   -4.8759602    1875.3661  0.036763235  0.035815916           46 
 4252000   0.56946815   -4.8549954    1873.9052  0.036725957  0.035806883           16 
 4253000   0.56978047   -4.8555282    1882.3797  0.036883371  0.035797869           31 
 4254000   0.57504947    -4.868576    1878.7006  0.036802629  0.035788857           17 
 4255000   0.56817509   -4.8585137    1877.2207  0.036764996  0.035779866           10 
 4256000   0.56092006   -4.8644761    1878.9048  0.036789333  0.035770901           13 
 4257000    0.5661958    -4.852604    1880.2903  0.036807813  0.035761928            9 
 4258000   0.57704206   -4.8461755    1879.3691  0.036781139  0.035752942           13 
 4259000   0.57246802   -4.8550271    1876.2468  0.036711412   0.03574396           20 
 4260000   0.57241889   -4.8613016    1877.2914  0.036723228  0.035734944            8 
 4261000   0.55637943   -4.8816558    1876.7973  0.036704946  0.035725952           14 
 4262000   0.56207839   -4.8791841    1874.6946   0.03665522  0.035716979            9 
 4263000   0.57907016   -4.8639633    1880.5195  0.036760487  0.035708007           28 
 4264000   0.57196709   -4.8880589    1874.3649  0.036631585  0.035699036           26 
 4265000   0.57874874   -4.8925195    1881.7738  0.036767757   0.03569004           52 
 4266000   0.56643544   -4.8618999    1878.3055  0.036691387  0.035681067           17 
 4267000   0.55949402   -4.8916038    1876.1457  0.036640609  0.035672081           30 
 4268000   0.56202591    -4.888956     1875.432  0.036618088  0.035663121           26 
 4269000   0.56683013   -4.8828724    1871.1446  0.036525817  0.035654124           32 
 4270000   0.55528727   -4.8737782     1877.153  0.036634523   0.03564513           22 
 4271000   0.57555376   -4.8611015    1882.1336  0.036723125  0.035636172           13 
 4272000   0.57419325    -4.868593    1883.4131  0.036739487  0.035627261            9 
 4273000   0.56406163   -4.8739517    1877.5002  0.036615575  0.035618289           25 
 4274000   0.57796446   -4.8741445    1882.9719  0.036713693  0.035609326            9 
 4275000   0.57309387   -4.8829362    1874.7612  0.036545053  0.035600382           10 
 4276000   0.56472226    -4.878592    1875.7389  0.036555561  0.035591412           47 
 4277000   0.56176392   -4.8864015    1880.9992  0.036649504  0.035582458           17 
 4278000   0.56515729   -4.8707288    1882.1454  0.036663266  0.035573522            7 
 4279000   0.56504373   -4.8579044    1876.8633   0.03655183  0.035564571           10 
 4280000   0.57178022   -4.8625361    1879.9611  0.036603604  0.035555626           14 
 4281000   0.57040299   -4.8631446    1876.4341  0.036526397  0.035546673            9 
 4282000   0.56773352   -4.8594664    1877.9862  0.036548073   0.03553771           12 
 4283000   0.57040087   -4.8783254    1878.0327  0.036540444  0.035528783           13 
 4284000   0.56451977   -4.8893184    1874.0052  0.036453571  0.035519822            6 
 4285000   0.56716218   -4.8755002     1877.416  0.036511396  0.035510849           14 
 4286000   0.56124421   -4.9018143     1875.094   0.03645773  0.035501905           18 
 4287000   0.57203135   -4.8683587    1881.9621  0.036582733  0.035492933           21 
 4288000   0.55495305   -4.8970436     1876.314  0.036464437  0.035484007           12 
 4289000   0.56796314   -4.8838351     1874.841  0.036427315  0.035475071           10 
 4290000   0.57620687   -4.8746669    1881.4168  0.036546557   0.03546616           13 
 4291000   0.57170608   -4.8756318    1880.7734  0.036525547  0.035457268           17 
 4292000    0.5763863   -4.8608916    1877.9994  0.036463176  0.035448386           13 
 4293000   0.56846737   -4.8812305    1876.3791  0.036423229   0.03543948           13 
 4294000   0.55936192   -4.8848999    1879.3927  0.036473232   0.03543056           19 
 4295000   0.55319662   -4.8614672    1877.6339  0.036430615  0.035421688           11 
 4296000   0.56532146   -4.8795059    1885.3206  0.036571241  0.035412836           15 
 4297000   0.57006635   -4.8885099    1878.0745  0.036422203  0.035403986           11 
 4298000   0.55674093   -4.8813401     1879.066  0.036432953  0.035395096           13 
 4299000   0.56055445   -4.8717094    1878.8976  0.036421215  0.035386192            8 
 4300000   0.56511551   -4.8876331    1881.6207  0.036465518  0.035377314           20 
 4301000   0.56060881   -4.8767254    1880.5806  0.036436888  0.035368394           13 
 4302000   0.56253036   -4.8874347    1876.8921  0.036356969  0.035359459            6 
 4303000     0.579017   -4.8819413    1879.5297    0.0363996  0.035350534           13 
 4304000   0.56811354   -4.8912601    1879.2034  0.036384825  0.035341619           16 
 4305000   0.55549285   -4.8704873    1880.8852  0.036408927  0.035332706           22 
 4306000   0.57031655   -4.8936533    1874.7835  0.036282386  0.035323793           17 
 4307000   0.56630572   -4.9014635    1875.8463  0.036294526  0.035314818           18 
 4308000   0.56359997   -4.8948463    1877.2684  0.036313611   0.03530584            9 
 4309000   0.56133159   -4.9036674    1879.9897  0.036357812  0.035296931           10 
 4310000   0.56640956   -4.8763407    1876.8558  0.036288781  0.035288031           10 
 4311000   0.56793736   -4.9024123    1880.0431  0.036341976  0.035279103           14 
 4312000   0.56627196   -4.8983562     1875.712  0.036249846  0.035270183           12 
 4313000    0.5503055   -4.9042761    1884.0591  0.036402718   0.03526129           10 
 4314000    0.5636937    -4.887912    1877.0127  0.036258165  0.035252426           16 
 4315000   0.56376588   -4.8960439    1877.3894  0.036257038  0.035243515           17 
 4316000   0.56601434   -4.8892394    1886.2354  0.036419436  0.035234618           10 
 4317000   0.55783893   -4.8744901    1878.8433  0.036268305  0.035225792           19 
 4318000    0.5531313   -4.8764553    1881.5525  0.036312191  0.035216953           17 
 4319000   0.55598884    -4.877119    1884.1644  0.036354179  0.035208158            9 
 4320000   0.55932028   -4.8873084    1880.4931  0.036274943  0.035199369           15 
 4321000   0.56907523   -4.9016364    1881.1577  0.036279367  0.035190543           13 
 4322000   0.55532393   -4.9085204    1881.8165  0.036283674  0.035181725           16 
 4323000   0.57076594   -4.8917433    1882.0771  0.036280304   0.03517292           13 
 4324000   0.54443411   -4.9028493    1881.6924    0.0362645  0.035164064            9 
 4325000   0.55858764   -4.8928491    1883.3134  0.036287348  0.035155219           13 
 4326000   0.56301271   -4.9037829    1881.6599  0.036247108  0.035146375           13 
 4327000   0.56658318   -4.8863592    1881.7588  0.036240636  0.035137541            9 
 4328000    0.5606582   -4.8733259    1880.1294  0.036200889  0.035128725            4 
 4329000   0.55993172   -4.8825142    1880.1674  0.036193259  0.035119932            7 
 4330000   0.55533754   -4.8983069    1881.2303  0.036205356  0.035111083            8 
 4331000   0.55483701   -4.8812183    1877.1633  0.036118743   0.03510225           13 
 4332000   0.56206087   -4.8826586    1880.1062  0.036167018  0.035093398            8 
 4333000   0.55057294   -4.8837936    1881.8851  0.036192883  0.035084574            8 
 4334000   0.55259952   -4.8852579    1881.2781   0.03617286  0.035075761            8 
 4335000   0.55905699   -4.9010924    1881.8613  0.036175726  0.035066927           11 
 4336000   0.55174576   -4.8972497    1877.6542  0.036086528  0.035058075           10 
 4337000    0.5598437   -4.8860989    1879.8426  0.036120256  0.035049221           19 
 4338000   0.55345688    -4.897916    1882.0195  0.036153747  0.035040379           25 
 4339000   0.54557317    -4.903374    1880.6077  0.036118301  0.035031535           35 
 4340000   0.55857216   -4.8951732    1882.8453  0.036152943  0.035022716            8 
 4341000   0.56692328   -4.8881022    1878.8887  0.036068661  0.035013896           12 
 4342000   0.54301848    -4.872474    1880.5824   0.03609286  0.035005058           10 
 4343000   0.57746863   -4.8962468    1882.5763  0.036122809  0.034996303           14 
 4344000   0.56662829   -4.8945116    1879.5946  0.036057293  0.034987488           15 
 4345000   0.55712115   -4.9054962     1880.538  0.036067089  0.034978634           14 
 4346000   0.55806345   -4.9232816    1881.8454  0.036083858  0.034969769           14 
 4347000   0.55600171    -4.887007    1878.7886  0.036016959  0.034960906           38 
 4348000   0.56218524   -4.8955339    1881.1983  0.036054858   0.03495208           18 
 4349000   0.55644267    -4.906672    1876.1485  0.035949806  0.034943224           20 
 4350000   0.55504251    -4.891463    1883.0515  0.036073784  0.034934386           12 
 4351000   0.56344318   -4.8999078    1879.3362  0.035994335  0.034925571            9 
 4352000   0.54984932   -4.8949563    1878.8269  0.035976312  0.034916754           24 
 4353000   0.56079264    -4.901643     1881.497  0.036019162  0.034907966           14 
 4354000   0.56097076   -4.9172903    1878.4498  0.035952568  0.034899187           24 
 4355000    0.5840166    -4.896274    1880.1747  0.035977319  0.034890385           32 
 4356000   0.55929358    -4.918582    1882.8345  0.036019943  0.034881578           38 
 4357000   0.53917631   -4.9033288    1879.8554  0.035954697  0.034872787           11 
 4358000   0.55355821   -4.9115137    1882.6361  0.035999619  0.034863984           21 
 4359000   0.55695895   -4.9182467    1881.9593  0.035978422  0.034855198           15 
 4360000    0.5498483   -4.9278851    1878.3522  0.035901226  0.034846397           32 
 4361000   0.56753301   -4.9105575    1882.2449  0.035967379  0.034837629           21 
 4362000   0.55065824   -4.9001007    1878.9224   0.03589566  0.034828872           13 
 4363000   0.55680821   -4.9249632    1882.6479   0.03595859  0.034820068           14 
 4364000   0.55032866   -4.9073711    1879.8243  0.035896431   0.03481131           14 
 4365000   0.55464615   -4.9170754    1880.4444  0.035900047  0.034802528           24 
 4366000    0.5515261   -4.9172627    1880.7961  0.035898537  0.034793717           24 
 4367000   0.54720356    -4.882136    1881.4637  0.035903055   0.03478491           20 
 4368000   0.54383782   -4.8852239    1881.3023  0.035891757  0.034776118           36 
 4369000   0.55814952   -4.8959805    1881.1724  0.035881064  0.034767347           35 
 4370000   0.54673718   -4.9010023     1883.055  0.035908752   0.03475862            5 
 4371000   0.54918226   -4.9022392     1880.347   0.03584891  0.034749856           23 
 4372000   0.55029413   -4.9228737    1881.1226  0.035855493   0.03474104           14 
 4373000   0.55779975   -4.9143748    1880.0523  0.035826899  0.034732245            8 
 4374000   0.55363549   -4.8866119    1881.7145  0.035850375   0.03472348           11 
 4375000   0.55173403   -4.9123829    1880.5488  0.035819976  0.034714719           19 
 4376000   0.54750418   -4.9126635    1879.0026  0.035782347  0.034705942           19 
 4377000   0.54639729   -4.8937203    1884.4444  0.035877777  0.034697162           33 
 4378000   0.55789612   -4.9017454    1883.0199  0.035842469  0.034688407           20 
 4379000   0.55711839   -4.9048701    1878.5724  0.035749646  0.034679642           18 
 4380000   0.55789662    -4.907331    1878.1382  0.035733222  0.034670873           18 
 4381000   0.55607235   -4.9308591    1879.2335  0.035745901  0.034662078           13 
 4382000   0.55099413   -4.9135872    1882.6672  0.035803043  0.034653303           20 
 4383000    0.5558008   -4.9029977    1880.1901  0.035747777  0.034644552           11 
 4384000   0.54779227   -4.9244654    1882.0165   0.03577434  0.034635802           16 
 4385000   0.54915549   -4.8907098    1877.5873  0.035682009  0.034627013            6 
 4386000    0.5528579   -4.9159439    1881.5557  0.035749273   0.03461826           10 
 4387000   0.53481633   -4.9135658    1882.0406  0.035750334  0.034609524           10 
 4388000   0.55663041    -4.939076    1878.7581  0.035679848  0.034600777           10 
 4389000   0.53568499   -4.9181047    1877.2127  0.035642377  0.034592003           14 
 4390000   0.54885241   -4.9201296    1876.8855  0.035628046   0.03458322           13 
 4391000   0.54638701   -4.9145755    1880.2898  0.035684541  0.034574414            6 
 4392000   0.55469818   -4.9014525    1877.7246  0.035627743  0.034565627            7 
 4393000   0.55403578    -4.927483    1878.5648  0.035635571  0.034556869           15 
 4394000    0.5484756   -4.9072899    1880.6764  0.035667509  0.034548102           11 
 4395000   0.55318775   -4.9199483    1877.1844  0.035593182  0.034539367           10 
 4396000   0.54345063   -4.8945316    1884.1571  0.035717264  0.034530617           11 
 4397000   0.54499403   -4.8846686    1886.9115  0.035761342  0.034521914           23 
 4398000   0.55304008   -4.8942178     1885.312  0.035722904  0.034513233            9 
 4399000   0.55354105   -4.8980911    1880.1243   0.03561651   0.03450455           13 
 4400000   0.54408706   -4.8918113    1888.3828  0.035764825  0.034495815           14 
 4401000   0.55896788   -4.9028174    1883.5785  0.035665729  0.034487083           13 
 4402000   0.55403415   -4.9157815    1880.8197  0.035605401  0.034478342           24 
 4403000   0.54493308   -4.9019167    1886.0385  0.035696089  0.034469599           11 
 4404000   0.53888822   -4.9152306    1882.3528  0.035618241  0.034460855           30 
 4405000   0.55613409   -4.9001394    1881.4878  0.035593791  0.034452148           30 
 4406000     0.546775   -4.9055999    1880.1579  0.035560559  0.034443416           28 
 4407000   0.54482879   -4.8990104     1882.278   0.03559258  0.034434703           37 
 4408000   0.54684125    -4.902031    1886.5081  0.035664475  0.034425965           39 
 4409000   0.54086015   -4.9234489    1882.1709  0.035574409  0.034417239           12 
 4410000   0.55335863    -4.910678    1881.6818  0.035557102  0.034408506           45 
 4411000    0.5463118   -4.9054784    1879.1486  0.035501183  0.034399739           22 
 4412000   0.56531135   -4.9266964    1881.2423  0.035532682  0.034390981           16 
 4413000   0.54373888     -4.91596    1878.0312  0.035463992  0.034382214           17 
 4414000   0.53759787   -4.9499549    1880.0953  0.035494928  0.034373436           20 
 4415000   0.54214633   -4.9179489    1884.5066  0.035570151  0.034364715           13 
 4416000   0.55200927   -4.9195342    1881.0586   0.03549703  0.034356013           19 
 4417000   0.53721282   -4.9128167    1878.8433  0.035447198  0.034347273           11 
 4418000   0.54439607    -4.917004    1882.0292  0.035499267  0.034338573           13 
 4419000   0.55684301   -4.8900855    1879.3815  0.035441305  0.034329886           11 
 4420000   0.54574911   -4.9265808    1883.0589  0.035502619  0.034321191           13 
 4421000    0.5431306   -4.9142329    1879.2506  0.035422803  0.034312473            8 
 4422000   0.55150302   -4.9120778    1881.3543  0.035454439  0.034303762           37 
 4423000   0.54165332   -4.9000779    1883.4431  0.035485777  0.034295055           28 
 4424000   0.53743752   -4.9174628    1880.7819  0.035427627  0.034286381           13 
 4425000   0.53814749   -4.9225299    1882.2581  0.035447421  0.034277702            7 
 4426000   0.55781849   -4.9101231    1883.3406  0.035459795  0.034269013           13 
 4427000   0.53877403   -4.9167007    1884.9155   0.03548143  0.034260327           12 
 4428000   0.53433274   -4.8975858    1883.4866  0.035446526  0.034251653           30 
 4429000   0.55622285   -4.9202126      1882.09  0.035412244  0.034242983           15 
 4430000   0.54193116   -4.9160019    1883.3148   0.03542729  0.034234288           17 
 4431000   0.54690095   -4.9138023    1880.3091  0.035362769  0.034225616           25 
 4432000   0.54378877   -4.9205919    1880.5035  0.035358445  0.034216938            8 
 4433000   0.53673609   -4.9382226    1878.4304  0.035311496  0.034208268            9 
 4434000   0.54755074   -4.9301097    1878.3208  0.035301473  0.034199543           13 
 4435000   0.53221691   -4.9314542    1879.2642   0.03531124  0.034190834           12 
 4436000   0.54912511    -4.930897    1878.5579  0.035290011  0.034182137           23 
 4437000   0.54222143    -4.909543    1885.1462  0.035405797  0.034173433           15 
 4438000   0.54621327   -4.9051712    1880.3389  0.035307551  0.034164756           10 
 4439000   0.53505952   -4.9335016    1881.2585  0.035316859  0.034156068           17 
 4440000   0.53490451   -4.9222284    1878.3117  0.035253597  0.034147334           10 
 4441000   0.53735599   -4.9361895    1879.2391  0.035263061  0.034138601           18 
 4442000   0.54027188   -4.9277562    1878.8736  0.035248267   0.03412987           19 
 4443000   0.54165168   -4.9351279    1880.1971  0.035265156  0.034121154            8 
 4444000   0.56107096   -4.9502096    1877.1665  0.035200392  0.034112433           18 
 4445000   0.53734555   -4.9147055    1884.2274  0.035324849  0.034103752           12 
 4446000   0.53725527   -4.9152963    1882.7186  0.035288623  0.034095075           13 
 4447000   0.52774822    -4.939447    1878.8401  0.035208007  0.034086385            8 
 4448000   0.54465311   -4.9285814    1881.1163  0.035242737  0.034077702           21 
 4449000   0.52627546   -4.9248519    1880.7516  0.035227983  0.034069025            7 
 4450000    0.5333537   -4.9281927    1881.6139  0.035236216  0.034060341           16 
 4451000   0.54656259   -4.9215423    1884.8773  0.035289398  0.034051678           10 
 4452000    0.5275865   -4.9484844    1879.7036   0.03518463  0.034042979           21 
 4453000   0.53791799   -4.9307355    1879.8373   0.03517923  0.034034247            8 
 4454000   0.54697744   -4.9448731    1876.7541  0.035113645  0.034025531            8 
 4455000   0.53493142    -4.941788    1879.8894  0.035164411  0.034016832           16 
 4456000   0.53234463   -4.9238366    1882.2025  0.035199778  0.034008142           10 
 4457000   0.54218369   -4.9439463    1883.8347  0.035222398  0.033999439           22 
 4458000   0.54101242   -4.9102872    1881.0009  0.035161524   0.03399077           20 
 4459000   0.54114744   -4.9260021    1885.8488   0.03524424  0.033982115           21 
 4460000   0.53262428    -4.930509    1884.2807  0.035207039  0.033973453           26 
 4461000   0.53811351   -4.9248071    1884.5811  0.035204758  0.033964797           12 
 4462000   0.54300665   -4.9354758     1878.928   0.03509129  0.033956147           17 
 4463000   0.54699422   -4.9374383    1875.9572  0.035027956  0.033947474            7 
 4464000   0.53683652   -4.9508065    1880.0293  0.035096126  0.033938811           11 
 4465000   0.53369597   -4.9331948    1881.5288  0.035116252  0.033930134           19 
 4466000   0.52790477   -4.9388748    1880.9508  0.035097604  0.033921473            7 
 4467000   0.53220448   -4.9581579    1878.2928  0.035040162  0.033912789           13 
 4468000    0.5431103   -4.9314105    1880.4067  0.035071745  0.033904095           25 
 4469000   0.52576373   -4.9313772    1880.9273  0.035073604  0.033895405           12 
 4470000   0.53795702   -4.9538878    1879.3521  0.035036392  0.033886713           10 
 4471000   0.53111142   -4.9309188    1877.7877  0.034999398  0.033877985           23 
 4472000   0.54447979   -4.9409004    1880.8475   0.03504859    0.0338693            7 
 4473000   0.53082467     -4.93281    1883.1396  0.035083456  0.033860615           25 
 4474000   0.53847341   -4.9467106     1878.787  0.034994542   0.03385193           18 
 4475000   0.54267882   -4.9204183    1880.4155  0.035017049  0.033843264           21 
 4476000   0.53732057   -4.9321916    1882.4927  0.035047898  0.033834595           18 
 4477000   0.53128897   -4.9225674    1880.0136  0.034993925  0.033825939           32 
 4478000   0.53598477   -4.9488605    1878.2811  0.034953868  0.033817248           42 
 4479000   0.53542919   -4.9451942    1875.7567  0.034899097  0.033808549           12 
 4480000   0.53474264   -4.9574332    1875.9404  0.034894725   0.03379985           32 
 4481000    0.5476238   -4.9527781    1878.8693  0.034941406  0.033791145            8 
 4482000   0.54051353   -4.9503393    1882.7034  0.035004897  0.033782448           16 
 4483000   0.53799157   -4.9365114    1877.1556  0.034893962  0.033773747           15 
 4484000    0.5399747    -4.945169    1878.9017  0.034918631  0.033765072           21 
 4485000   0.54223791   -4.9413728    1877.5463  0.034885662  0.033756405           24 
 4486000   0.53471529   -4.9265401    1876.7679  0.034863426  0.033747737           27 
 4487000   0.54422275    -4.942107    1881.5558  0.034944577  0.033739094           30 
 4488000   0.53047568   -4.9585559    1884.0344  0.034982813  0.033730447           15 
 4489000   0.54202708   -4.9447736    1874.7363  0.034802411  0.033721792           33 
 4490000   0.53667973   -4.9524151    1877.0082  0.034836826   0.03371311           15 
 4491000   0.52093986   -4.9501061    1876.0538   0.03481136  0.033704446           34 
 4492000   0.53085347   -4.9531237    1884.9989  0.034969555   0.03369581           15 
 4493000   0.53799613   -4.9462125    1881.0319  0.034888195  0.033687178           11 
 4494000   0.51852832   -4.9246029    1885.6654  0.034966351  0.033678549           15 
 4495000   0.53493213   -4.9380047    1881.1013  0.034873957  0.033669908           18 
 4496000   0.54005659   -4.9421177    1883.5465  0.034911523  0.033661299           18 
 4497000   0.53298619    -4.950183     1878.534  0.034810875  0.033652669           17 
 4498000   0.53442116   -4.9333758    1885.0953  0.034924695  0.033644015           14 
 4499000   0.53620938   -4.9413063    1877.8122  0.034782029  0.033635368           26 
 4500000    0.5289778    -4.953039    1880.2607  0.034819643   0.03362675            9 
 4501000   0.53552455   -4.9456359    1879.7969   0.03480332    0.0336181           15 
 4502000   0.51907203   -4.9580352    1882.4791  0.034845238  0.033609447           14 
 4503000   0.54242269   -4.9157531     1881.588  0.034821008  0.033600806           15 
 4504000   0.54021208   -4.9354578    1878.5626  0.034757301  0.033592164           14 
 4505000    0.5274681   -4.9455169    1884.6124  0.034861494  0.033583549            7 
 4506000   0.53703915   -4.9563604    1881.0786  0.034788405  0.033574916           19 
 4507000   0.54055651   -4.9488907    1877.3809  0.034712317  0.033566266           26 
 4508000   0.52404343   -4.9257393    1882.4095  0.034797573  0.033557625           15 
 4509000   0.53445703   -4.9439473    1879.3126   0.03473262   0.03354902           13 
 4510000   0.53282943   -4.9659096    1879.0601  0.034720254  0.033540376           33 
 4511000   0.53102796   -4.9394919     1877.754  0.034688428  0.033531715           25 
 4512000    0.5277075   -4.9432335    1877.5089  0.034676213  0.033523074           14 
 4513000   0.52638159   -4.9559317    1883.6102  0.034781191  0.033514466           22 
 4514000   0.53143114   -4.9480591      1882.28   0.03474893  0.033505832           18 
 4515000   0.54279083   -4.9484164    1873.6701  0.034582319  0.033497179           12 
 4516000   0.53017384   -4.9653942    1879.6658    0.0346853  0.033488522            6 
 4517000   0.52757491   -4.9519426     1881.666  0.034714523  0.033479851           11 
 4518000    0.5281343   -4.9662904     1877.967  0.034638611  0.033471208            8 
 4519000   0.52371126   -4.9536234    1877.0973   0.03461491  0.033462549            7 
 4520000      0.52311   -4.9517633    1877.4488  0.034613731   0.03345391           10 
 4521000   0.53047555   -4.9505792      1880.18  0.034656419  0.033445314           19 
 4522000   0.52798364   -4.9470815    1881.0756  0.034665259  0.033436704           22 
 4523000   0.54713496    -4.965878    1874.9304  0.034544373   0.03342807           11 
 4524000   0.52428254   -4.9516766    1880.7796  0.034644481   0.03341941           16 
 4525000    0.5256921   -4.9521652    1881.5698  0.034651377  0.033410771           26 
 4526000   0.52203551    -4.966856    1878.2742  0.034583043  0.033402131           22 
 4527000   0.53078695   -4.9686043    1876.1781  0.034536818  0.033393465           30 
 4528000    0.5309621   -4.9454973    1881.8715  0.034633971  0.033384845           12 
 4529000    0.5154414     -4.94966    1879.7415  0.034587134  0.033376203           10 
 4530000   0.51489468   -4.9702095    1880.5393  0.034594174  0.033367578           23 
 4531000   0.53389309   -4.9597741    1878.7347  0.034553349  0.033358947           12 
 4532000   0.53029183   -4.9723701     1878.205  0.034535985  0.033350315           27 
 4533000   0.52608731   -4.9670457    1876.9845  0.034505929   0.03334167           21 
 4534000   0.53511667   -4.9708855    1875.6399  0.034473605   0.03333303           30 
 4535000   0.53059566   -4.9460071    1881.7264  0.034577847  0.033324408           13 
 4536000   0.51737837   -4.9530834    1880.2568  0.034543224  0.033315819           30 
 4537000   0.53448706   -4.9732948    1879.7616  0.034526515   0.03330721           19 
 4538000   0.53241833   -4.9523377    1878.2532  0.034491208  0.033298598           15 
 4539000   0.52719907    -4.957439    1878.3995  0.034486294  0.033289975           10 
 4540000   0.51864696    -4.966967    1876.0762  0.034436053  0.033281357           21 
 4541000    0.5224268   -4.9791338    1880.2321  0.034504737  0.033272757           26 
 4542000   0.52598057    -4.961719    1878.5281  0.034465876  0.033264138            7 
 4543000   0.52748838   -4.9667697    1878.3369  0.034454782  0.033255536           26 
 4544000   0.51683001   -4.9599134    1879.7735  0.034473545  0.033246911           18 
 4545000   0.52548662   -4.9600121    1879.6501  0.034463698  0.033238287           28 
 4546000   0.51250657   -4.9649288    1875.9048  0.034387461  0.033229698           37 
 4547000   0.52439077   -4.9571527    1879.7924  0.034451147  0.033221082           35 
 4548000   0.52729562   -4.9529534    1876.7533  0.034387887  0.033212479           34 
 4549000   0.53139286    -4.976165     1876.652  0.034378471  0.033203881           26 
 4550000   0.52401808   -4.9594803    1883.3023  0.034492716  0.033195308           55 
 4551000   0.53017629   -4.9532884    1882.6429  0.034473063  0.033186727           38 
 4552000   0.52238135   -4.9506541    1878.7633  0.034394465  0.033178144            8 
 4553000   0.52434971   -4.9528827    1877.3506  0.034361054  0.033169551           13 
 4554000   0.52321355   -4.9592956    1878.9657  0.034383065  0.033160952           13 
 4555000    0.5188001   -4.9527031    1880.4039  0.034401828  0.033152385           23 
 4556000   0.51293252   -4.9583836     1881.458  0.034413557  0.033143829           37 
 4557000   0.51610024    -4.987791    1877.8646  0.034340294  0.033135267           82 
 4558000   0.51003754   -4.9761952    1878.4081  0.034342696  0.033126668           39 
 4559000   0.51157602   -4.9764242    1875.2458   0.03427736  0.033118068           32 
 4560000   0.51243351    -4.981428    1878.1153  0.034322283  0.033109474           30 
 4561000   0.53411543   -4.9836072    1875.8488  0.034273347  0.033100864           14 
 4562000   0.52233623   -4.9719069    1873.9354  0.034230883  0.033092279           28 
 4563000   0.51216529   -4.9758107    1875.7512  0.034256541   0.03308368           60 
 4564000   0.52270199   -4.9767855    1879.8706  0.034324252  0.033075075           13 
 4565000   0.51849124   -4.9673941      1875.38  0.034234758  0.033066506           22 
 4566000   0.52763846   -4.9719538     1877.843  0.034272212  0.033057931           17 
 4567000   0.51592853   -4.9681338    1879.1277  0.034288149  0.033049351           27 
 4568000   0.52091089   -4.9701934     1878.106  0.034262004  0.033040772           33 
 4569000    0.5236564   -4.9692881    1878.2807  0.034257692  0.033032207           29 
 4570000     0.514389   -4.9868129     1873.932  0.034170896  0.033023644           23 
 4571000   0.51796945   -4.9619506    1884.0554  0.034347979  0.033015079           16 
 4572000   0.53086129   -4.9828025    1879.1562  0.034251171  0.033006525           13 
 4573000   0.52068493   -4.9725271    1882.3166  0.034301272  0.032997962           37 
 4574000   0.51657007    -4.960647    1881.4016  0.034277102  0.032989395           35 
 4575000   0.52959126   -4.9901832     1876.908  0.034187759  0.032980813           24 
 4576000   0.51691933   -4.9939597    1879.5479  0.034228364  0.032972224           24 
 4577000   0.52613581   -4.9826432    1876.8417  0.034171613  0.032963655           16 
 4578000   0.51800083   -4.9836228    1878.6598  0.034197243  0.032955099           34 
 4579000    0.5248248   -4.9917639    1879.0797  0.034197417  0.032946542           22 
 4580000   0.51860256   -4.9863668    1878.3809  0.034177236  0.032937977           39 
 4581000   0.50545959   -4.9642946    1880.7007  0.034211975   0.03292939           27 
 4582000    0.5254766   -4.9608312    1874.3006  0.034088109   0.03292084           15 
 4583000   0.52552356   -4.9728625    1877.6685  0.034141911  0.032912277           42 
 4584000   0.52159113   -4.9803308    1876.9497  0.034121394  0.032903701           26 
 4585000   0.51518389    -4.989791    1874.3287  0.034066316  0.032895138           39 
 4586000   0.51067719   -4.9753407    1878.0728  0.034126923  0.032886586           42 
 4587000   0.52830059    -4.980388    1876.2883  0.034087064  0.032878063           18 
 4588000   0.51679081   -4.9683109    1879.8548  0.034144414  0.032869563           27 
 4589000   0.52523218   -4.9496895    1881.9493  0.034175008  0.032861056           20 
 4590000   0.51347122   -4.9570915    1879.8741  0.034129885  0.032852573           19 
 4591000   0.50797161   -4.9657119    1880.0225  0.034125145  0.032844099           21 
 4592000   0.51947453   -4.9840174    1881.7762  0.034149539  0.032835586           23 
 4593000   0.51670555   -4.9820438    1875.0711  0.034020449  0.032827051           17 
 4594000   0.51975122   -4.9856688    1874.8681  0.034009361  0.032818497           25 
 4595000   0.52265454   -4.9730237    1880.9464  0.034112194  0.032809982           12 
 4596000   0.51654123   -4.9981819    1877.9336  0.034050144  0.032801436           15 
 4597000   0.51142775   -4.9948364    1877.7343  0.034039125   0.03279288           17 
 4598000   0.51496578   -4.9906514    1877.5201   0.03402784  0.032784315           15 
 4599000   0.51279197   -4.9933219    1878.6769  0.034041402  0.032775779           23 
 4600000   0.51516208   -4.9719875    1877.7711  0.034017593   0.03276727           23 
 4601000   0.51512602   -4.9981916    1876.8168  0.033992915  0.032758753           20 
 4602000   0.51447808   -4.9749564    1880.0856  0.034044719  0.032750265           22 
 4603000   0.51240415   -4.9819028    1876.2195  0.033967331  0.032741763           35 
 4604000   0.51452546   -4.9902139    1880.2526  0.034032953  0.032733268           55 
 4605000   0.50877766   -4.9871585    1877.2185  0.033970657  0.032724793           19 
 4606000   0.51471799    -4.966597    1879.0837  0.033997028  0.032716316           33 
 4607000   0.51378922   -4.9778703    1881.1204  0.034026489  0.032707839           47 
 4608000   0.52285959    -4.978378      1880.26  0.034003544  0.032699373           15 
 4609000   0.51338004   -4.9919934    1878.4004  0.033962544  0.032690908           20 
 4610000   0.51617251    -4.982594    1881.0271   0.03400266  0.032682417           12 
 4611000   0.50923415   -4.9989239    1883.1996  0.034034548  0.032673935           25 
 4612000   0.52522872   -4.9840847    1882.5507  0.034015444  0.032665475           35 
 4613000   0.50492348   -4.9914309    1876.9512  0.033906915  0.032657001           16 
 4614000   0.52120946   -4.9842833    1880.3404  0.033960779  0.032648529           13 
 4615000   0.51774862   -4.9981013    1880.0551  0.033948268  0.032640048           17 
 4616000   0.51660994   -4.9804118    1877.0688  0.033887001  0.032631569           16 
 4617000    0.5218689   -5.0090672    1877.8659  0.033894049  0.032623077           21 
 4618000   0.50726916   -5.0186162    1880.6609  0.033937146  0.032614564           53 
 4619000   0.51424012   -5.0024099    1880.0013    0.0339179  0.032606092           31 
 4620000   0.51123557   -4.9932088    1877.3109  0.033862029  0.032597602           22 
 4621000   0.50676735   -4.9781905    1881.9438  0.033938249  0.032589146           21 
 4622000   0.51262064   -4.9882562    1880.2263   0.03389994  0.032580712           10 
 4623000   0.51112601    -4.979511    1880.1665  0.033891529  0.032572268           13 
 4624000   0.51485398   -4.9871718    1877.6942  0.033839644  0.032563838           21 
 4625000   0.51821132   -4.9944738    1880.5178  0.033883204  0.032555387           23 
 4626000   0.50648023   -4.9975486    1878.4316  0.033838298  0.032546945           24 
 4627000   0.50593879   -4.9878281    1878.8926  0.033839287  0.032538511           50 
 4628000   0.52034339   -4.9838544    1880.7082  0.033864669  0.032530084           39 
 4629000   0.51676781   -4.9906781    1880.5228  0.033854014  0.032521635           57 
 4630000   0.50128835   -4.9910791    1878.5073  0.033810427  0.032513205           26 
 4631000   0.51476033   -5.0064713    1881.4001  0.033855181  0.032504727           18 
 4632000   0.51108467   -4.9935234    1882.4836  0.033867365  0.032496229           58 
 4633000   0.50792971   -5.0037883    1873.9003  0.033705668  0.032487733           66 
 4634000   0.51490913   -5.0052732    1879.1034  0.033791961   0.03247923           53 
 4635000   0.51233632   -5.0072527    1876.7599  0.033742537   0.03247075           66 
 4636000   0.51062341    -5.005902    1879.9491  0.033792584  0.032462257           58 
 4637000   0.50909162   -5.0063581    1877.9836  0.033749974  0.032453765           89 
 4638000    0.5059721    -5.008005    1872.8294   0.03365009  0.032445259           23 
 4639000   0.50656087   -4.9995006    1875.8075  0.033696334  0.032436742          119 
 4640000   0.51574555   -5.0302228    1874.5415  0.033666335  0.032428236           32 
 4641000   0.50449187   -4.9943592    1878.0009  0.033721197  0.032419757           60 
 4642000   0.52666075   -5.0017447    1878.3352  0.033719934  0.032411292           43 
 4643000   0.50684613   -5.0198809    1880.7937  0.033756797  0.032402827           66 
 4644000   0.51786807   -5.0038033    1875.2608  0.033650245  0.032394364           20 
 4645000   0.50596826   -5.0096803    1878.4168   0.03369962  0.032385908           16 
 4646000   0.51911507   -5.0029031    1877.3136  0.033672578  0.032377434           19 
 4647000    0.5032988   -4.9947302    1874.5139  0.033615126  0.032369003           16 
 4648000   0.52227155   -5.0107428    1871.5638  0.033555002  0.032360544           18 
 4649000   0.49944268   -4.9966342    1876.1223  0.033629496  0.032352077           21 
 4650000    0.5067514   -5.0019211    1881.2163  0.033713554  0.032343657           44 
 4651000   0.51724389   -5.0070187    1877.4383  0.033638614   0.03233523           15 
 4652000   0.50556797   -4.9986293    1877.0459  0.033624353  0.032326799           11 
 4653000   0.50601669   -5.0080153    1873.6073  0.033555544  0.032318374           14 
 4654000   0.50686771    -5.002395     1876.994  0.033608975  0.032309931           46 
 4655000   0.51245907   -4.9993924    1876.7198  0.033596846  0.032301487           13 
 4656000   0.51667084   -4.9744292    1880.2259  0.033652382  0.032293091           15 
 4657000   0.50969795   -4.9877731    1874.9384  0.033550541   0.03228469           17 
 4658000   0.50134464   -5.0200025    1878.5237   0.03360748  0.032276263           26 
 4659000   0.49943549   -5.0236769    1879.1903   0.03361219  0.032267818           22 
 4660000   0.50017903   -5.0101453    1878.5058  0.033592735   0.03225939           41 
 4661000   0.49576882   -4.9975741    1879.9091  0.033610618  0.032250963           20 
 4662000   0.50554603   -5.0169953    1873.7595  0.033493484  0.032242536           43 
 4663000   0.50481493   -5.0001799    1876.0416  0.033527085  0.032234121           17 
 4664000   0.50801306   -4.9970772     1876.886  0.033534985  0.032225695           20 
 4665000   0.50633447   -5.0016569    1876.3497  0.033518216  0.032217281           15 
 4666000    0.5050507   -5.0028379    1876.7889  0.033518875  0.032208852           84 
 4667000   0.50812301   -5.0042118    1876.0643  0.033498756  0.032200422           31 
 4668000   0.49551139   -4.9942006    1878.3174  0.033531802  0.032192023           39 
 4669000   0.49975757   -4.9965743    1876.5334  0.033492778  0.032183602           39 
 4670000   0.50095432   -5.0020319    1878.2046  0.033515428  0.032175223           10 
 4671000   0.50210493   -5.0101885    1876.6921   0.03348127  0.032166822           40 
 4672000   0.50915996   -5.0156836    1878.0282  0.033497935  0.032158426           28 
 4673000   0.51245995   -5.0149025    1878.1471  0.033492886  0.032150018           47 
 4674000    0.5073554    -5.032618    1874.4268  0.033419391  0.032141602           80 
 4675000   0.51543397   -5.0051424    1874.0497  0.033405521  0.032133171           51 
 4676000   0.50621786   -5.0087122    1875.3306  0.033421204  0.032124747           19 
 4677000   0.50588832   -4.9912775    1878.2757  0.033466532  0.032116374           14 
 4678000   0.49006622   -5.0099763    1878.9966  0.033472221  0.032107989           10 
 4679000   0.48920967   -5.0004272    1875.8384  0.033408819  0.032099608           29 
 4680000   0.51570205   -5.0124185     1875.814  0.033401247  0.032091223           16 
 4681000   0.49452501   -5.0076179    1877.2137  0.033419028  0.032082824           21 
 4682000   0.50126536   -4.9937329    1873.9723  0.033354199  0.032074422           18 
 4683000   0.50569899   -5.0269188    1878.9515  0.033435681  0.032066019           25 
 4684000   0.50238346   -5.0163319     1878.144  0.033414176  0.032057643           11 
 4685000    0.5078225   -5.0030189    1879.2508   0.03342673  0.032049278           20 
 4686000   0.50823413   -5.0104073    1878.9888  0.033414939  0.032040907           42 
 4687000   0.50837436   -4.9938452    1879.3978   0.03341508  0.032032553           42 
 4688000   0.51602875   -5.0002804    1875.6815  0.033341893  0.032024207           18 
 4689000   0.50889336   -5.0072866    1877.2795  0.033363182  0.032015855           39 
 4690000   0.49711269    -5.008541    1879.5087  0.033395676   0.03200748           23 
 4691000   0.49890378   -5.0178634    1877.2173  0.033347853  0.031999142           29 
 4692000    0.5065289   -5.0151377    1876.2095  0.033322845  0.031990785           22 
 4693000   0.49999767   -5.0134913    1874.8039  0.033290786  0.031982403           10 
 4694000   0.50941716   -5.0329584    1878.7419  0.033353606  0.031974035           33 
 4695000   0.50003889   -5.0169883    1876.1394  0.033300309  0.031965671           18 
 4696000   0.50428504   -5.0158033    1877.6962  0.033320844  0.031957313           23 
 4697000   0.50076665   -5.0156961    1874.7499  0.033261477  0.031948946            9 
 4698000   0.50070015   -5.0156659    1875.2096  0.033262552  0.031940582           13 
 4699000   0.50210864   -5.0224972    1876.5186  0.033278687   0.03193222            7 
 4700000   0.49849859    -5.005714    1878.9903  0.033315432  0.031923874           33 
 4701000   0.50051142    -5.008538    1876.9105  0.033271477  0.031915522           18 
 4702000   0.50027787    -5.017502    1877.6982   0.03327836  0.031907151           20 
 4703000   0.50337497   -5.0074436    1876.6713  0.033253088  0.031898786           25 
 4704000   0.51313956   -5.0217669    1876.6494  0.033245631  0.031890456           18 
 4705000   0.50845977   -5.0005029    1877.4546  0.033252828  0.031882113           23 
 4706000   0.49812416   -5.0204811      1876.66  0.033231689  0.031873774           41 
 4707000    0.4967183   -5.0090867    1875.6507  0.033206761  0.031865419           49 
 4708000   0.48904628   -5.0302532    1876.4717   0.03321424  0.031857064           37 
 4709000   0.49763085   -5.0179547    1873.5061  0.033154705  0.031848709           24 
 4710000   0.49321176     -5.03478    1871.3832  0.033110106  0.031840327           55 
 4711000   0.49635799   -5.0341891    1877.0557   0.03320342   0.03183193           43 
 4712000   0.49777281   -5.0433382    1875.1673  0.033162976  0.031823548           29 
 4713000     0.491401   -5.0290991    1877.0736  0.033189646  0.031815156           25 
 4714000   0.49380811   -5.0276744     1873.414  0.033117912  0.031806778           27 
 4715000   0.50104793   -5.0325515    1875.6557  0.033150508  0.031798388           16 
 4716000   0.49324021   -5.0252505    1874.3501  0.033120408   0.03179003           26 
 4717000   0.48993535   -5.0406684    1875.1632   0.03312775  0.031781673           14 
 4718000   0.50158189   -5.0225911    1875.0543  0.033118806  0.031773302           35 
 4719000   0.49825223   -5.0206125    1875.2691  0.033115581  0.031764947           39 
 4720000    0.4927129   -5.0253635    1879.9668  0.033191505  0.031756594           16 
 4721000   0.49803067   -5.0367185    1872.0101  0.033044026  0.031748249           24 
 4722000   0.49814271   -5.0282716     1879.302  0.033165713   0.03173989           22 
 4723000   0.50231152   -5.0238296    1871.2932  0.033017383  0.031731548           18 
 4724000   0.49472707   -5.0197029    1875.5885  0.033086165  0.031723205           34 
 4725000   0.49160387   -5.0297552    1875.0181  0.033069102  0.031714868           52 
 4726000   0.49661994   -5.0303196    1876.2905  0.033084541  0.031706518           30 
 4727000   0.49686473   -5.0250031    1875.5547  0.033064571  0.031698206           17 
 4728000   0.48803339   -5.0121131    1877.9036  0.033098978  0.031689882           27 
 4729000   0.49045945    -5.024794    1871.3145  0.032975867  0.031681576           18 
 4730000   0.50344511   -5.0127476    1876.5474   0.03306109  0.031673265           12 
 4731000   0.48711352   -5.0241666    1877.7801  0.033075813  0.031664969           18 
 4732000   0.49444474   -5.0229609    1875.4179  0.033027225  0.031656643           14 
 4733000   0.50028904   -5.0224811    1873.8533  0.032992698  0.031648331           10 
 4734000   0.50158258   -5.0178472    1880.3534  0.033100152  0.031640025           13 
 4735000   0.49793173   -5.0035521    1876.5747  0.033026658   0.03163173           13 
 4736000   0.49382588   -5.0231666    1872.9414  0.032955753  0.031623414           23 
 4737000    0.4905032   -5.0239658    1878.3686  0.033044272  0.031615131           29 
 4738000   0.49765376   -5.0410955    1873.5757  0.032952998  0.031606832           18 
 4739000   0.48395953   -5.0262314    1872.6503  0.032929772  0.031598515           36 
 4740000   0.49272996   -5.0236243    1873.8495  0.032943908  0.031590219           22 
 4741000    0.5052841   -5.0186972    1872.7134  0.032916989  0.031581908           13 
 4742000   0.49751396   -5.0319565    1876.2608  0.032972388  0.031573602           28 
 4743000   0.48690538   -5.0243207     1878.298   0.03300123  0.031565294           17 
 4744000   0.49962598    -5.032871    1872.2534  0.032888093  0.031557004           32 
 4745000   0.48964008   -5.0454698    1876.4713  0.032955239  0.031548689           47 
 4746000   0.48867643   -5.0356752    1873.5059  0.032896227   0.03154034           17 
 4747000    0.5042259   -5.0538349      1873.48  0.032888841  0.031531977           23 
 4748000   0.49438241    -5.038729    1876.1712  0.032929149  0.031523647           26 
 4749000   0.49369223    -5.031258    1873.6181  0.032877414  0.031515316           12 
 4750000   0.49625123   -5.0374571    1872.2184  0.032845938   0.03150701           17 
 4751000   0.48541377   -5.0317888    1874.3129  0.032875761  0.031498716           31 
 4752000   0.48927221   -5.0347067     1873.952  0.032862513  0.031490435           15 
 4753000   0.49386165   -5.0338521      1873.76  0.032852234  0.031482124           31 
 4754000   0.49669235   -5.0357257    1875.1752   0.03287013  0.031473832           17 
 4755000   0.48845104   -5.0365019    1875.5781  0.032870279  0.031465536           11 
 4756000   0.48790986   -5.0046617     1874.466  0.032843881  0.031457279            9 
 4757000   0.49409652   -5.0384771      1880.15   0.03293655  0.031449029            8 
 4758000   0.49236925    -5.040328    1879.9516  0.032926152  0.031440781           16 
 4759000   0.48328679   -5.0281132    1876.1509  0.032852681  0.031432535           12 
 4760000    0.5015308   -5.0366371    1874.7246  0.032820808  0.031424309           21 
 4761000    0.4938505   -5.0410957    1874.5145  0.032810238  0.031416071           37 
 4762000   0.48725154   -5.0343299    1872.4405  0.032767053   0.03140782           62 
 4763000   0.50128731   -5.0215396    1881.2982  0.032915148  0.031399593           29 
 4764000   0.50280756   -5.0267249    1877.5707  0.032843037  0.031391376           48 
 4765000   0.48933504   -5.0342897    1873.4974  0.032764907  0.031383128           23 
 4766000    0.4875394   -5.0253437    1877.1939  0.032822665  0.031374874           49 
 4767000   0.49145976     -5.01279    1874.7346  0.032772789  0.031366619           49 
 4768000   0.48102032   -5.0341763    1879.2051  0.032844048  0.031358393           40 
 4769000   0.48417175   -5.0270298    1875.9751   0.03278072  0.031350157           23 
 4770000    0.4841583     -5.03128    1878.1982  0.032812686  0.031341946           28 
 4771000   0.49192727   -5.0313549    1871.7089  0.032692464  0.031333708           23 
 4772000   0.48605301     -5.03167    1874.3928   0.03273248  0.031325475           57 
 4773000   0.50628178    -5.019309    1872.6396  0.032695014  0.031317224           36 
 4774000   0.48616096   -5.0404225    1873.1987  0.032697925  0.031308981           56 
 4775000   0.48698408   -5.0406761     1873.252  0.032692008  0.031300737           30 
 4776000   0.48081392   -5.0580988    1871.0377  0.032646525  0.031292478           22 
 4777000    0.4907997   -5.0380969    1870.3763  0.032628153  0.031284201           22 
 4778000   0.49064242     -5.03448    1877.7517  0.032749959  0.031275956           14 
 4779000   0.48555778   -5.0504797    1875.4312  0.032702643  0.031267717           26 
 4780000   0.49902008   -5.0405928    1870.9412  0.032617525   0.03125947           27 
 4781000   0.48882237   -5.0389281     1875.107  0.032683312  0.031251214           24 
 4782000   0.48594629   -5.0486768    1874.4506   0.03266504  0.031242946           18 
 4783000   0.49255193   -5.0537345    1872.6517  0.032626868  0.031234684           22 
 4784000   0.49326628    -5.046498    1870.9924  0.032591145  0.031226424           51 
 4785000   0.47208219    -5.065496    1874.7233  0.032649308  0.031218158           55 
 4786000   0.49098142   -5.0580684    1871.9474  0.032594153  0.031209905           43 
 4787000   0.48735551   -5.0321301    1872.2765  0.032593073  0.031201679           53 
 4788000   0.47945969   -5.0426086    1876.3573  0.032657291  0.031193456           18 
 4789000   0.48028232   -5.0705778    1874.7364  0.032622266  0.031185223           20 
 4790000   0.48021633     -5.04571    1870.5179  0.032542065  0.031176986           28 
 4791000   0.48333309   -5.0418266    1869.3925  0.032515697  0.031168766           52 
 4792000   0.48700948   -5.0504772    1872.6022   0.03256473  0.031160525           25 
 4793000   0.48360083   -5.0663399    1868.5573  0.032487609  0.031152281           53 
 4794000   0.49020583   -5.0640145     1874.742  0.032588339  0.031144024           42 
 4795000   0.48561428   -5.0389989     1874.656  0.032580049  0.031135796           33 
 4796000   0.49472129   -5.0407941     1876.275  0.032601387  0.031127556           45 
 4797000   0.49446522   -5.0710342    1872.6804  0.032532146  0.031119298           33 
 4798000   0.49276871    -5.062627     1876.121  0.032585122  0.031111069           57 
 4799000   0.48658849    -5.067843    1870.8244  0.032486359  0.031102825           54 
 4800000   0.47755396   -5.0610701    1873.8819  0.032532672  0.031094566           59 
 4801000   0.48814277   -5.0567382    1871.8405  0.032490462  0.031086316           24 
 4802000   0.47619671   -5.0470093    1872.9904  0.032503651  0.031078071           41 
 4803000   0.48110536   -5.0528418    1873.1502  0.032499656  0.031069835           30 
 4804000   0.48181233   -5.0514744    1874.9892  0.032524792  0.031061641           16 
 4805000   0.48632127   -5.0446076    1875.7562  0.032531325   0.03105345           29 
 4806000   0.48566277   -5.0606281    1873.3751  0.032483269  0.031045266           26 
 4807000   0.49459674   -5.0413648    1875.1681  0.032507595  0.031037065           13 
 4808000   0.47481368   -5.0436528    1879.6393  0.032578329  0.031028865           15 
 4809000   0.48144018   -5.0472345    1875.0771  0.032492498  0.031020662           40 
 4810000   0.47856673   -5.0596911    1875.4973  0.032493023  0.031012441           10 
 4811000   0.48518442    -5.064391    1871.1409   0.03241081  0.031004215           18 
 4812000   0.48133114   -5.0707922    1873.7673  0.032449558  0.030995986           25 
 4813000   0.47824105   -5.0574296    1873.6871  0.032441427  0.030987772           37 
 4814000   0.47984549   -5.0433185    1875.3241  0.032463027  0.030979588           20 
 4815000   0.48057031   -5.0587488    1874.9068  0.032449062  0.030971406           16 
 4816000    0.4718094   -5.0566735    1872.6577  0.032403406  0.030963223           18 
 4817000   0.47387654   -5.0465314    1872.4604  0.032393266  0.030955049           17 
 4818000   0.49419815   -5.0378652    1875.4007  0.032437399  0.030946882           33 
 4819000    0.4903562   -5.0599381    1872.2289   0.03237582  0.030938715           36 
 4820000   0.48092222   -5.0543126    1871.0884  0.032349385  0.030930538           20 
 4821000   0.48319527   -5.0626651    1873.1176   0.03237775  0.030922364           22 
 4822000   0.47725666   -5.0636465     1875.939  0.032419794   0.03091419           35 
 4823000    0.4800277   -5.0675382    1873.6338  0.032373243  0.030906009           33 
 4824000   0.47748462   -5.0405047    1874.2259   0.03237676  0.030897833           26 
 4825000   0.47519091   -5.0633573     1873.188  0.032352125   0.03088966           35 
 4826000   0.47619573   -5.0484436    1874.9719  0.032376224  0.030881497           29 
 4827000   0.46928767   -5.0589382    1873.7783  0.032348911  0.030873326           58 
 4828000    0.4817996   -5.0560585    1873.4113  0.032335875  0.030865157           53 
 4829000   0.48556793   -5.0485116    1872.1107  0.032306736  0.030857001           23 
 4830000   0.47813267   -5.0630004    1876.1792  0.032370241  0.030848815           58 
 4831000   0.47977664   -5.0549377     1872.289  0.032296435  0.030840631           35 
 4832000   0.48158744   -5.0646201    1873.7361   0.03231471  0.030832459           25 
 4833000   0.48255453   -5.0687328    1874.0906  0.032314135  0.030824292           33 
 4834000   0.48283663   -5.0550974    1876.1921  0.032343678  0.030816134           24 
 4835000   0.47742665   -5.0685924     1874.258  0.032303654  0.030807984           33 
 4836000   0.48319784     -5.05032    1873.3097  0.032280634  0.030799844           42 
 4837000   0.47615298   -5.0708601    1872.0705  0.032252611  0.030791702           60 
 4838000   0.47019747   -5.0588538    1873.9151  0.032277717  0.030783549           59 
 4839000   0.48102014   -5.0606436    1878.1555  0.032344071  0.030775398           56 
 4840000   0.48036118   -5.0556777    1872.8128    0.0322454  0.030767228           54 
 4841000   0.46739931   -5.0730326    1874.3393  0.032265016  0.030759078           75 
 4842000   0.46468379   -5.0702754    1874.3006  0.032257686  0.030750937           44 
 4843000   0.47902231   -5.0848966    1870.3493  0.032183036  0.030742792           93 
 4844000   0.47403216   -5.0599675    1873.5319  0.032231143  0.030734647           40 
 4845000    0.4714667   -5.0727176    1875.9768  0.032266544  0.030726526           81 
 4846000   0.47600538   -5.0584375    1868.2821  0.032127564  0.030718378           34 
 4847000   0.47106219   -5.0787069    1872.9802   0.03220171  0.030710225           18 
 4848000   0.47915994    -5.079273    1867.7463    0.0321051  0.030702065           35 
 4849000   0.48216577   -5.0822058    1872.5032  0.032180229  0.030693892           46 
 4850000   0.48119438   -5.0731309    1866.5555  0.032071401  0.030685725           33 
 4851000   0.48245481   -5.0664811    1870.0616   0.03212502  0.030677549           66 
 4852000   0.47458344    -5.062667    1875.5688  0.032212984  0.030669393           68 
 4853000   0.48286285     -5.08144    1874.7721  0.032192666   0.03066125           42 
 4854000   0.47587414   -5.0910202    1869.0811   0.03208833  0.030653103           27 
 4855000   0.48044636   -5.0854906    1870.8809  0.032112614  0.030644956           52 
 4856000   0.47606426   -5.0788301    1873.8483  0.032156925  0.030636806           28 
 4857000   0.47958645   -5.0790622    1871.0533  0.032102349  0.030628646           26 
 4858000   0.47386457   -5.0747819    1871.9121  0.032110472  0.030620486           21 
 4859000   0.46733162   -5.0902562    1871.2206  0.032092004  0.030612351           26 
 4860000   0.47560305   -5.0663959    1873.2909    0.0321209  0.030604226           26 
 4861000   0.46251611   -5.0955492    1873.4733   0.03211742  0.030596106           17 
 4862000     0.482102   -5.0706713    1874.0531   0.03212075  0.030587966           20 
 4863000   0.48012271   -5.0914662    1872.9441  0.032095143  0.030579843           27 
 4864000   0.47843527   -5.0749814    1873.2105  0.032093108  0.030571732           20 
 4865000   0.48048214   -5.0918198    1872.1624  0.032068557  0.030563615           26 
 4866000    0.4720502   -5.0858652    1868.0035  0.031990744  0.030555485           36 
 4867000   0.47268995   -5.0755001    1869.4173  0.032008379  0.030547371           53 
 4868000   0.45975602   -5.0812064    1872.7439  0.032058749  0.030539263           19 
 4869000   0.46787509   -5.0923125    1869.7873  0.032001562  0.030531144           68 
 4870000   0.47937961   -5.0884222      1869.82  0.031995551  0.030523027           90 
 4871000   0.47027013   -5.0949409    1874.4799  0.032068704  0.030514916           60 
 4872000   0.47863633   -5.0746605    1870.8549  0.032000118  0.030506792           48 
 4873000   0.46497183   -5.0898775    1872.0739  0.032014397  0.030498666           60 
 4874000   0.47264913   -5.0694777    1872.4148  0.032013658  0.030490537           21 
 4875000   0.46627213   -5.0805156    1866.1516  0.031900027  0.030482421           43 
 4876000   0.46875737   -5.0761917    1868.2887  0.031930009  0.030474296           26 
 4877000    0.4783823   -5.0856035    1871.3466  0.031975712  0.030466173           43 
 4878000   0.47206685    -5.084899    1871.1874  0.031966437   0.03045806           56 
 4879000   0.46515197    -5.082063    1868.1772  0.031908471  0.030449955           46 
 4880000    0.4698096   -5.0693109    1871.7109  0.031962276  0.030441869           63 
 4881000   0.47878199   -5.0800837    1869.8235  0.031923504  0.030433772           95 
 4882000   0.47290398   -5.0748038    1871.5196  0.031945917  0.030425686           42 
 4883000   0.46701435   -5.0759661    1871.5317  0.031939581   0.03041761           51 
 4884000   0.47509693   -5.0774388    1867.5439  0.031864999  0.030409535           34 
 4885000   0.47251922    -5.080901    1873.7159  0.031963765  0.030401469           33 
 4886000   0.47202279   -5.0688717    1875.9858  0.031995938  0.030393384           18 
 4887000    0.4677023   -5.0891807     1871.915  0.031919974  0.030385327           45 
 4888000   0.47981992   -5.0486194    1875.2635  0.031970532  0.030377283           22 
 4889000   0.47549639   -5.0749558    1871.8336  0.031905529  0.030369267           52 
 4890000   0.46306705   -5.0677912     1867.399  0.031823433  0.030361216           25 
 4891000   0.47402357   -5.0803185    1873.2778  0.031917089  0.030353156           32 
 4892000   0.45992488   -5.0725224    1875.7207  0.031952178  0.030345099           55 
 4893000   0.46968441   -5.0694532    1875.6593  0.031944603  0.030337054           38 
 4894000   0.46147356   -5.0813021    1870.2249   0.03184554  0.030328996           36 
 4895000   0.46943864   -5.0894776    1870.1267  0.031837363  0.030320925           46 
 4896000   0.47415555   -5.0902915      1872.34  0.031868531  0.030312844           23 
 4897000   0.47235333   -5.0928115    1870.5136  0.031830944  0.030304787           23 
 4898000   0.46273569   -5.0917593    1870.2448  0.031819872   0.03029672           61 
 4899000   0.45788919   -5.0879882    1871.6723   0.03183766  0.030288659           34 
 4900000   0.46805005   -5.0947706    1871.8024  0.031833375  0.030280594           24 
 4901000   0.46257143   -5.0933781    1868.3566  0.031768288  0.030272532           25 
 4902000   0.47035966   -5.0763102    1872.4699  0.031831734  0.030264486           15 
 4903000   0.47580975   -5.0790012    1870.8567  0.031797824  0.030256458           28 
 4904000   0.46736603   -5.1100062    1873.8177  0.031841655  0.030248416           28 
 4905000   0.47128694   -5.0930388    1871.7619  0.031800236  0.030240364           40 
 4906000   0.46367366   -5.0946657    1869.8113  0.031760621  0.030232328           27 
 4907000    0.4626491   -5.0927135    1871.2171  0.031778023   0.03022428           29 
 4908000   0.46528957    -5.081415     1871.602  0.031778083  0.030216234           60 
 4909000   0.47953572   -5.0909621    1871.5244  0.031770293  0.030208182           59 
 4910000   0.46565526   -5.1025297    1871.1762  0.031757913  0.030200147           68 
 4911000   0.45464419   -5.0910549     1868.204  0.031701011  0.030192119           47 
 4912000   0.45701631   -5.0935376    1870.1771  0.031728031  0.030184087           62 
 4913000   0.46788739   -5.1004561    1870.2633  0.031723035  0.030176037           47 
 4914000   0.47197934   -5.0881907    1869.9473  0.031711221  0.030167988           27 
 4915000   0.46927324   -5.1081058    1868.2843  0.031676574  0.030159942           49 
 4916000   0.46736127    -5.100025    1868.7103  0.031677351  0.030151908           48 
 4917000    0.4655048   -5.0698918    1867.7163  0.031654063  0.030143883           47 
 4918000   0.46545432   -5.0957549    1869.5511  0.031678715  0.030135845           41 
 4919000   0.45904297    -5.088583    1869.7992  0.031676478  0.030127809           51 
 4920000   0.47009733   -5.0975054     1871.152  0.031692954   0.03011978           37 
 4921000    0.4681665   -5.0994419    1867.4003  0.031622981  0.030111737           49 
 4922000   0.45776645    -5.116617    1870.0642  0.031661659  0.030103719           68 
 4923000   0.45633656   -5.0952637    1864.6142  0.031562973  0.030095673           64 
 4924000   0.47475337   -5.1194819     1869.011  0.031630974  0.030087641           64 
 4925000   0.45329695    -5.115751    1869.8852  0.031639343  0.030079602          121 
 4926000   0.45550812   -5.1027655    1864.7263  0.031545647  0.030071553           53 
 4927000   0.46454326   -5.1043247    1869.7977   0.03162502  0.030063506          191 
 4928000   0.45584875   -5.1182698     1866.681  0.031565899  0.030055469           44 
 4929000   0.45761837   -5.0859057    1866.4443  0.031555493  0.030047414           86 
 4930000   0.45632372   -5.1119126    1869.3821  0.031598751  0.030039364          127 
 4931000   0.46346067   -5.0974832    1865.8468  0.031532597  0.030031317          144 
 4932000   0.46261814   -5.0830165    1868.0631  0.031563651  0.030023287          168 
 4933000   0.46246565   -5.1350494    1869.7158  0.031585171  0.030015256          236 
 4934000   0.45818184   -5.1087791    1868.5626  0.031559292  0.030007225          136 
 4935000   0.45288814   -5.1244704    1868.8613  0.031557942  0.029999181           63 
 4936000    0.4519049   -5.1157929     1867.101  0.031521829   0.02999114          111 
 4937000   0.46679239   -5.1203874    1865.0373  0.031480611  0.029983083           65 
 4938000   0.46352345   -5.1193113    1867.9493  0.031523379  0.029975044          108 
 4939000   0.46728219   -5.1090325     1866.075  0.031485372  0.029967004          149 
 4940000    0.4566797   -5.1160892    1867.3826  0.031501056  0.029958958          111 
 4941000   0.45135531   -5.1078945    1867.6595  0.031499351   0.02995091          112 
 4942000   0.46216844   -5.1177919    1864.4708  0.031439208  0.029942836           32 
 4943000   0.45376067   -5.1262164    1871.5703  0.031552537   0.02993477          106 
 4944000    0.4590334   -5.1260441    1863.1733   0.03140462  0.029926702          129 
 4945000   0.45824913   -5.1162052     1863.711   0.03140733  0.029918618           75 
 4946000   0.45466225   -5.1209336     1866.045  0.031440305  0.029910567          163 
 4947000   0.45620143   -5.1307678    1864.7494  0.031412126  0.029902508          113 
 4948000    0.4576237   -5.1304838    1862.1025  0.031361199  0.029894438           54 
 4949000   0.45293415   -5.1257356    1864.2166   0.03139046  0.029886392          173 
 4950000   0.45554112   -5.1355919    1867.1075  0.031432787  0.029878334          141 
 4951000   0.46546208   -5.1256294    1864.7751   0.03138718  0.029870258           93 
 4952000   0.46053447   -5.1270816     1866.036   0.03140206  0.029862214           77 
 4953000   0.45712978    -5.115485    1864.8106  0.031375102  0.029854176           61 
 4954000   0.46356813   -5.1227673    1865.1593  0.031374634   0.02984615           54 
 4955000   0.45708349   -5.1091998    1867.8816  0.031414088  0.029838115           89 
 4956000   0.45342482   -5.1070881    1867.4501  0.031400492  0.029830077           83 
 4957000   0.46926629   -5.1304556    1865.3416  0.031358712  0.029822051          273 
 4958000   0.45250019   -5.1292599    1862.8024  0.031309708  0.029814023          173 
 4959000   0.45319112   -5.1157495    1864.5666   0.03133304  0.029805974          355 
 4960000   0.45160772   -5.1227222     1864.533  0.031326159  0.029797936          135 
 4961000   0.45701182   -5.1485171    1862.8453  0.031291495   0.02978989          153 
 4962000   0.47520446   -5.1469663    1865.5145  0.031330016  0.029781849          116 
 4963000   0.45083163   -5.1207415    1865.8545  0.031329413  0.029773822          164 
 4964000   0.45563864   -5.1089897    1865.9945  0.031325452  0.029765777          420 
 4965000   0.45478721   -5.1187646    1864.8878  0.031300567  0.029757746          170 
 4966000   0.45218266   -5.1269152    1862.4787  0.031253838  0.029749712          263 
 4967000   0.45461203   -5.1334687    1865.2883  0.031294683  0.029741676          145 
 4968000   0.45151653   -5.1261495    1860.8474  0.031213892  0.029733629          188 
 4969000   0.44860442   -5.1386434    1863.5741  0.031253339  0.029725601          127 
 4970000   0.46212807   -5.1172593    1864.6685  0.031265401  0.029717558          133 
 4971000   0.45721456    -5.129425    1862.3912  0.031220934  0.029709522          187 
 4972000   0.46485944   -5.1421642      1865.05  0.031259219   0.02970149          196 
 4973000   0.46720219   -5.1365355     1862.638  0.031212514  0.029693458          160 
 4974000   0.45119459    -5.139883     1862.997  0.031212253  0.029685428          317 
 4975000   0.46322923   -5.1367107    1864.5378   0.03123179  0.029677404          216 
 4976000   0.45280212   -5.1313633    1865.9975  0.031249958  0.029669374          218 
 4977000   0.44621375   -5.1423494    1863.8175  0.031207178  0.029661359          287 
 4978000   0.45629368    -5.124371    1863.2182  0.031190876  0.029653327          215 
 4979000   0.45592529    -5.126926    1864.4092  0.031204546   0.02964531          179 
 4980000   0.45516286    -5.126206     1862.909  0.031173177  0.029637293          260 
 4981000   0.45006204   -5.1228472    1865.8402  0.031215957  0.029629264          174 
 4982000   0.45980742   -5.1392285    1861.8467  0.031142892  0.029621244          220 
 4983000   0.46307685   -5.1363883    1865.5953  0.031199332  0.029613228          211 
 4984000   0.45100068   -5.1451688    1862.4997  0.031141315    0.0296052          474 
 4985000    0.4532686   -5.1507906    1858.4094  0.031066691  0.029597173          357 
 4986000   0.45078198   -5.1293673    1862.0525  0.031121347  0.029589141          246 
 4987000   0.45722788   -5.1386961    1861.1699   0.03110036  0.029581103          234 
 4988000   0.44532307   -5.1347207    1864.9257  0.031156872  0.029573098          327 
 4989000   0.45945212    -5.125754     1865.544  0.031160954  0.029565099          380 
 4990000   0.46689576   -5.1531089    1860.5019  0.031070507  0.029557089          219 
 4991000   0.45856606   -5.1466713    1865.7457  0.031151835  0.029549079          190 
 4992000   0.44273989   -5.1463057    1860.4156  0.031056617  0.029541079          243 
 4993000   0.45200219   -5.1465364    1863.6101  0.031103713  0.029533077          418 
 4994000   0.45512784   -5.1396151    1860.1867   0.03104036  0.029525077          348 
 4995000   0.45989407   -5.1378589    1861.9311  0.031063249  0.029517092          302 
 4996000    0.4550508   -5.1472951    1862.7835  0.031071249  0.029509102          251 
 4997000   0.46271067   -5.1269372    1863.0988  0.031070289  0.029501117          289 
 4998000   0.45282806   -5.1459684    1862.5218  0.031054453   0.02949313          507 
 4999000   0.45611693   -5.1274309    1862.6153  0.031049798  0.029485145          456 
 5000000   0.45705833   -5.1364845    1864.9083  0.031081805  0.029477169          387 
 5001000   0.43641912   -5.1160335    1860.1326   0.03099601  0.029469195          422 
 5002000   0.44791453   -5.1305177    1866.2083  0.031091035  0.029461214          510 
 5003000   0.45644806   -5.1488511    1860.9435  0.030997127  0.029453223          445 
 5004000    0.4658639   -5.1343073    1859.8128  0.030972102  0.029445231          249 
 5005000   0.45354973   -5.1412262    1860.8256  0.030982778  0.029437237          263 
 5006000   0.45684583   -5.1463498    1863.4094    0.0310196  0.029429254          587 
 5007000   0.45742727   -5.1493951    1863.1021  0.031008291  0.029421287          271 
 5008000   0.44546793   -5.1376681     1855.303  0.030872321  0.029413282          308 
 5009000   0.44302522   -5.1639065    1861.7856  0.030974006  0.029405295          554 
 5010000   0.45864885   -5.1503884    1859.5232  0.030930193  0.029397303          334 
 5011000   0.45280471   -5.1484965    1863.5307  0.030990666  0.029389316          427 
 5012000   0.45103607   -5.1389633    1863.0552  0.030976576   0.02938133          483 
Loop time of 12496.3 on 48 procs for 5000000 steps with 4000 atoms

Performance: 69140.724 tau/day, 400.120 timesteps/s
99.4% CPU use with 48 MPI tasks x no OpenMP threads

MPI task timing breakdown:
Section |  min time  |  avg time  |  max time  |%varavg| %total
---------------------------------------------------------------
Pair    | 850.26     | 918.3      | 973.91     |  96.9 |  7.35
Neigh   | 83.966     | 87.49      | 91.012     |  21.6 |  0.70
Comm    | 809.79     | 868.34     | 947.56     | 115.7 |  6.95
Output  | 14.186     | 14.191     | 14.285     |   0.4 |  0.11
Modify  | 10460      | 10490      | 10516      |  12.7 | 83.95
Other   |            | 117.4      |            |       |  0.94

Nlocal:        83.3333 ave          89 max          75 min
Histogram: 1 1 4 2 6 7 9 10 4 4
Nghost:        2295.33 ave        2315 max        2278 min
Histogram: 3 4 6 2 11 10 7 1 2 2
Neighs:        15488.1 ave       17375 max       13364 min
Histogram: 1 2 1 8 9 9 11 2 1 4
FullNghs:      30975.4 ave       33154 max       27663 min
Histogram: 1 3 1 4 4 9 11 5 5 5

Total # of neighbors = 1486820
Ave neighs/atom = 371.70500
Neighbor list builds = 269780
Dangerous builds = 0

#clear
#
#next RN
#
#jump SELF
Total wall time: 3:28:19
