
units lj                  # Use reduced LJ style units
atom_style atomic         # Uncharged point particles
atom_modify map hash      # Needed for indexing of clusters etc
                          # Used to be able to find where atoms are in relation to each other.

lattice fcc 1.0 spacing 1 1 1
Lattice spacing in x,y,z = 1.5874011 1.5874011 1.5874011
region box block 0 10 0 10 0 10 units lattice
create_box 2 box
Created orthogonal box = (0.0000000 0.0000000 0.0000000) to (15.874011 15.874011 15.874011)
  3 by 4 by 4 MPI processor grid
create_atoms 1 box
Created 4000 atoms
  using lattice units in orthogonal box = (0.0000000 0.0000000 0.0000000) to (15.874011 15.874011 15.874011)
  create_atoms CPU = 0.026 seconds
set type 1 type/fraction 2 0.19 78393
Setting atom values ...
  784 settings made for type/fraction
mass 1 1.0
mass 2 1.0
pair_style lj/cut  3.5
pair_modify tail  yes
pair_coeff 1  1  1.0  1.0   # Intearaction between 1 and 1 set with epsilon = 1 and sigma = 1
pair_coeff 1  2  1.5  0.8
pair_coeff 2  2  0.5  0.88

write_data data.0
System init for write_data ...
Neighbor list info ...
  update every 1 steps, delay 10 steps, check yes
  max neighbors/atom: 2000, page size: 100000
  master list distance cutoff = 3.8
  ghost atom cutoff = 3.8
  binsize = 1.9, bins = 9 9 9
  1 neighbor lists, perpetual/occasional/extra = 1 0 0
  (1) pair lj/cut, perpetual
      attributes: half, newton on
      pair build: half/bin/atomonly/newton
      stencil: half/bin/3d
      bin: standard
WARNING: Not all mixed pair coeffs generated from mixing. Use write_data with 'pair ij' option to store all pair coeffs. (../write_data.cpp:312)


#############################
#   M E L T   S Y S T E M   #
#############################

velocity all create 2.4 9580093 mom yes dist gaussian # Assign velocities
                                                    # Temperature 2.4, random number seed, zero linear momentum
                                                                                # Gaussian distribution

timestep 0.002   # simulation timestep
thermo 1000       # output thermodynamic data every 1000 steps bf 100

# Define a fix  in this case with index 1 applied to all
# particles in the simulation. This fix is for simulations
# in the anisotropic NPT ensemble. Note that we use the MTK
# correction.
fix 1 all npt temp 2.4 2.4 0.1 iso 5.68 5.68 0.5 mtk yes tchain 5 pchain 5 # Use NPT ensemble
                                                                         # Set temperature and pressure and damping
                                                                         # Numbers of thermostats in chain and in barostat
run 10000          # run for 10000 steps
Per MPI rank memory allocation (min/avg/max) = 3.642 | 3.644 | 3.648 Mbytes
Step Temp E_pair E_mol TotEng Press Volume 
       0          2.4   -7.1181064            0   -3.5190064   -3.5570023         4000 
    1000    2.4077357   -4.7448708            0   -1.1341703    5.6792196    4549.0236 
    2000     2.371453   -4.8041449            0   -1.2478548    5.5207876     4524.646 
    3000     2.373136   -4.8220594            0   -1.2632454    5.7483097    4503.3944 
    4000    2.3742102   -4.7854679            0   -1.2250429    5.8930041    4498.5566 
    5000    2.3912003   -4.7850048            0    -1.199101     5.778961    4517.2569 
    6000    2.4060013   -4.7674572            0   -1.1593574    5.7480083    4536.4565 
    7000    2.3801597    -4.828756            0   -1.2594089    5.5485947    4518.5662 
    8000    2.4156268   -4.8355381            0   -1.2130037    5.6313621    4516.1429 
    9000    2.4061407   -4.7646867            0    -1.156378    5.9643439    4504.7984 
   10000     2.377464   -4.8174838            0   -1.2521793    5.5378783    4535.4854 
Loop time of 2.48975 on 48 procs for 10000 steps with 4000 atoms

Performance: 694045.466 tau/day, 4016.467 timesteps/s
99.4% CPU use with 48 MPI tasks x no OpenMP threads

MPI task timing breakdown:
Section |  min time  |  avg time  |  max time  |%varavg| %total
---------------------------------------------------------------
Pair    | 0.97692    | 1.0257     | 1.0903     |   3.1 | 41.20
Neigh   | 0.19578    | 0.20212    | 0.21287    |   0.8 |  8.12
Comm    | 0.71766    | 0.82065    | 0.9577     |   5.8 | 32.96
Output  | 0.00024284 | 0.00024901 | 0.00039695 |   0.0 |  0.01
Modify  | 0.33581    | 0.4265     | 0.49886    |   6.8 | 17.13
Other   |            | 0.01455    |            |       |  0.58

Nlocal:        83.3333 ave          92 max          74 min
Histogram: 1 4 2 7 4 10 11 6 2 1
Nghost:        1512.92 ave        1539 max        1473 min
Histogram: 1 2 3 6 3 5 9 8 6 5
Neighs:        8406.65 ave        9538 max        7221 min
Histogram: 2 3 5 3 9 9 9 4 2 2

Total # of neighbors = 403519
Ave neighs/atom = 100.87975
Neighbor list builds = 904
Dangerous builds = 198

# Equilibrate just above the melting temperature to avoid step fn in T

fix 1 all npt temp 1.25 1.25 0.1 iso 5.68 5.68 0.5 mtk yes tchain 5 pchain 5
run 2000
Per MPI rank memory allocation (min/avg/max) = 3.642 | 3.644 | 3.648 Mbytes
Step Temp E_pair E_mol TotEng Press Volume 
   10000     2.377464   -4.8174838            0   -1.2521793    5.5378783    4535.4854 
   11000    1.2525133   -6.4795878            0   -4.6012875    5.4947912     3709.166 
   12000    1.2219669    -6.525374            0    -4.692882    5.4737667    3692.2809 
Loop time of 0.485569 on 48 procs for 2000 steps with 4000 atoms

Performance: 711741.863 tau/day, 4118.877 timesteps/s
99.7% CPU use with 48 MPI tasks x no OpenMP threads

MPI task timing breakdown:
Section |  min time  |  avg time  |  max time  |%varavg| %total
---------------------------------------------------------------
Pair    | 0.21642    | 0.24085    | 0.25637    |   1.8 | 49.60
Neigh   | 0.03162    | 0.03385    | 0.035819   |   0.5 |  6.97
Comm    | 0.14233    | 0.16141    | 0.19069    |   2.5 | 33.24
Output  | 4.8965e-05 | 5.0053e-05 | 6.235e-05  |   0.0 |  0.01
Modify  | 0.040759   | 0.044967   | 0.048443   |   1.1 |  9.26
Other   |            | 0.004439   |            |       |  0.91

Nlocal:        83.3333 ave          93 max          75 min
Histogram: 2 2 6 12 5 8 6 5 0 2
Nghost:        1733.90 ave        1760 max        1697 min
Histogram: 1 2 3 6 4 5 11 9 3 4
Neighs:        10349.3 ave       11759 max        9056 min
Histogram: 3 0 5 8 10 11 6 2 1 2

Total # of neighbors = 496767
Ave neighs/atom = 124.19175
Neighbor list builds = 142
Dangerous builds = 5

#############################
# L I N E A R  Q U E N C H  #
#############################

# Define solid atoms. This closely follows ten Wolde  Ruiz-Montero and Frenkel  Faraday Discuss  1996  104  93-110
# Compute components of the per-atom q6 vector
compute q6 all orientorder/atom degrees 1 6 components 6 nnn NULL cutoff 1.3 # compute the Q6 parameter.
                                                                             # Use all neighbours within 1.3 unit cell.

# get number of connections
compute coord_number all coord/atom orientorder q6 0.5

# An atom is solid if it has 8 or more connections (of a possible 14)
variable is_solid atom c_coord_number>=8
group solid dynamic all var is_solid    # Must be dynamic to update
dynamic group solid defined

# do clustering
compute cluster solid cluster/atom 1.3 # Create a cluster where all atoms within are solid and max 1.3 units from another member

# define chunks one chunk per cluster
compute clus_chunks solid chunk/atom c_cluster nchunk every compress yes  # Says which atoms are in which chunk

# count the size of each chunk
compute size_chunks solid property/chunk clus_chunks count


# Find the maximum entry in the vector of chunk sizes
variable max_n equal max(c_size_chunks)


# Thermo style which includes this variable
# thermo_style custom step temp pe vol v_max_n

thermo ${N}  # Print the thermo information every 100 steps
thermo 1000  

# Reset the npt fix at a lower temperature (below freezing)
fix 1  all npt temp  ${temp} ${temp}  0.1  iso  5.68  5.68  0.5  mtk yes tchain  5  pchain  5
fix 1  all npt temp  0.45 ${temp}  0.1  iso  5.68  5.68  0.5  mtk yes tchain  5  pchain  5
fix 1  all npt temp  0.45 0.45  0.1  iso  5.68  5.68  0.5  mtk yes tchain  5  pchain  5

dump dmp2 all dcd ${N} traj.dcd
dump dmp2 all dcd 1000 traj.dcd


compute msd all msd com yes
variable twopoint equal c_msd[4]/6/(step*dt+1.0e-6)
fix 9 all vector 10 c_msd[4]
variable fit equal slope(f_9)/6/(10*dt)
thermo_style custom step temp pe c_msd[4] v_twopoint v_fit v_max_n

fix 1 all npt temp 1.25 ${temp} 0.1 iso 5.68 5.68 0.5 mtk yes tchain 5 pchain 5
fix 1 all npt temp 1.25 0.45 0.1 iso 5.68 5.68 0.5 mtk yes tchain 5 pchain 5
run 2000000 # 5000000  # Run for this many steps
Neighbor list info ...
  update every 1 steps, delay 10 steps, check yes
  max neighbors/atom: 2000, page size: 100000
  master list distance cutoff = 3.8
  ghost atom cutoff = 3.8
  binsize = 1.9, bins = 9 9 9
  4 neighbor lists, perpetual/occasional/extra = 1 3 0
  (1) pair lj/cut, perpetual
      attributes: half, newton on
      pair build: half/bin/atomonly/newton
      stencil: half/bin/3d
      bin: standard
  (2) compute orientorder/atom, occasional
      attributes: full, newton on
      pair build: full/bin/atomonly
      stencil: full/bin/3d
      bin: standard
  (3) compute coord/atom, occasional
      attributes: full, newton on
      pair build: full/bin/atomonly
      stencil: full/bin/3d
      bin: standard
  (4) compute cluster/atom, occasional
      attributes: full, newton on
      pair build: full/bin/atomonly
      stencil: full/bin/3d
      bin: standard
Per MPI rank memory allocation (min/avg/max) = 9.769 | 9.777 | 9.782 Mbytes
Step Temp PotEng c_msd[4] v_twopoint v_fit v_max_n 
   12000    1.2219669    -6.525374 1.9721523e-34 1.3695501e-36 8.3333333e+20            3 
   13000    1.2432356   -6.5299794   0.52949688 0.0033942107  0.043887833            1 
   14000    1.2606451   -6.5262908    1.0386766 0.0061825984   0.04245317            3 
   15000    1.2628413   -6.5020241    1.5577733 0.0086542956  0.042755839            1 
   16000    1.2542189   -6.4884127    2.0990755  0.010932685  0.042991794            2 
   17000    1.2331205   -6.5524958    2.5944783  0.012718031  0.043340515            2 
   18000    1.2435012   -6.5109288    3.1322474  0.014501145  0.043322349            2 
   19000    1.2532085    -6.508948    3.7189587  0.016311222  0.043778535            1 
   20000    1.2651369   -6.5642001    4.1631212  0.017346338   0.04379788            2 
   21000    1.2418623   -6.5482311    4.6347833  0.018391997  0.043480144            2 
   22000    1.2427134   -6.5534723    5.1208403  0.019397122   0.04309083            1 
   23000    1.2458206    -6.513219    5.6380929  0.020427872  0.042880933            1 
   24000    1.2314724    -6.577678    6.1855127  0.021477474  0.042853557            1 
   25000    1.2449023   -6.5202757    6.7831067  0.022610355  0.042934403            2 
   26000    1.2233143   -6.5344889    7.2144346  0.023123187  0.043005146            2 
   27000     1.252825   -6.5068388    7.8064653  0.024094028  0.043009568            1 
   28000    1.2245991    -6.486213    8.3218915  0.024767534  0.043113697            2 
   29000    1.2112116   -6.5393436    8.7991716  0.025284975  0.043111272            3 
   30000    1.2532025   -6.5142012    9.3504318  0.025973421  0.043120417            1 
   31000    1.2160704    -6.539082    9.8533414  0.026487477  0.043096996            4 
   32000    1.2202613   -6.5194755    10.509592   0.02736873  0.043178357            4 
   33000     1.282125   -6.5546917      11.0825  0.027986111  0.043362868            1 
   34000    1.2650871   -6.5352386    11.559687  0.028332567  0.043477621            1 
   35000     1.275263   -6.5036429    12.057914  0.028709318  0.043529425            2 
   36000    1.2521556   -6.4925582    12.564944  0.029085518  0.043581023            2 
   37000    1.2573482   -6.5025288    13.085223  0.029471222  0.043573693            1 
   38000    1.2254864   -6.4832051    13.632547  0.029895935  0.043574867            1 
   39000    1.2435349   -6.5499917    14.106643  0.030142399  0.043585814            1 
   40000    1.2149887   -6.5559565    14.643956  0.030508241  0.043608251            1 
   41000    1.2199785   -6.5410193    15.135715  0.030763648  0.043640964            2 
   42000    1.2702568   -6.5201432    15.584851  0.030922324  0.043607783            2 
   43000    1.2411851   -6.5851181    16.008868  0.031024938  0.043537539            4 
   44000    1.2335305   -6.5328344    16.538429  0.031322782   0.04345911            1 
   45000    1.2497903   -6.5640587    16.924178   0.03134107  0.043352816            1 
   46000     1.225589   -6.5499517    17.344954  0.031422017  0.043228281            3 
   47000    1.2375318   -6.5538108    17.817573   0.03159144  0.043091734            1 
   48000    1.2324503   -6.5890816    18.248717    0.0316818  0.042974705            3 
   49000    1.2531158   -6.5430852     18.79795  0.031969303  0.042859872            4 
   50000    1.2391658   -6.5611951    19.240594  0.032067657  0.042730561            1 
   51000     1.222299   -6.5637916    19.618987  0.032057168  0.042601184            2 
   52000     1.219382   -6.5252177    20.081236  0.032181467  0.042451663            2 
   53000    1.2245824   -6.5546109    20.549445  0.032310448  0.042329647            3 
   54000    1.2532989    -6.553274    21.143374  0.032628663  0.042216578            2 
   55000    1.2268529   -6.5491457    21.841824  0.033093672  0.042156528            1 
   56000    1.2331013   -6.5378675    22.329704  0.033228726  0.042117575            1 
   57000    1.2300374   -6.5206672    22.817373  0.033358732   0.04207775            4 
   58000    1.2418133   -6.5662129    23.310153  0.033491599  0.042054781            1 
   59000     1.225826   -6.5352699    23.835078  0.033665364  0.042033858            2 
   60000     1.209159   -6.5361214      24.2134  0.033629721  0.042005133            2 
   61000    1.2415934   -6.5241818     24.75596  0.033819618  0.041975782            1 
   62000    1.2378842   -6.5783993    25.207934  0.033881631   0.04193982            1 
   63000    1.2046081   -6.5719938    25.698248  0.033992391  0.041901676            2 
   64000    1.2147221   -6.5448665    26.239234  0.034165668  0.041873522            1 
   65000    1.2375299     -6.57946    26.741307  0.034283727  0.041850107            2 
   66000    1.2225826   -6.5566479    27.058293  0.034164511  0.041830311            2 
   67000    1.2500103   -6.5573022    27.744214  0.034507728  0.041802779            2 
   68000    1.2371438   -6.5362089    28.515572  0.034945554  0.041810726            2 
   69000    1.2415167   -6.5776917    29.035024  0.035066454   0.04183406            1 
   70000    1.2442656   -6.5892613    29.474713  0.035088944  0.041856168            1 
   71000    1.2393304   -6.5638944    29.774461   0.03494655  0.041858036            2 
   72000    1.2552758   -6.5976639    30.189011  0.034940984  0.041849789            4 
   73000    1.2136434   -6.5724002    30.755378  0.035108879  0.041835496            5 
   74000    1.2266207   -6.5741486    31.301264  0.035249171  0.041818627            1 
   75000    1.2297632   -6.5748108    31.664694  0.035182993   0.04179965            1 
   76000    1.2400627    -6.596364    32.243374  0.035354577   0.04178782            1 
   77000    1.2309142   -6.5900945    32.813176  0.035512095  0.041790461            4 
   78000    1.2256028   -6.5705826      33.4174  0.035702351  0.041788486            1 
   79000    1.2220143   -6.5608944     33.98381    0.0358479  0.041790613            2 
   80000    1.2205094    -6.556767    34.273218  0.035701269  0.041792695            2 
   81000    1.1860587   -6.6188556    34.856564  0.035860662  0.041779374            2 
   82000    1.2349836   -6.5425279    35.555994   0.03613414  0.041786265            2 
   83000     1.211668   -6.5688296    35.830634  0.035974532  0.041790487            3 
   84000    1.2350778   -6.5029925    36.404822  0.036115894  0.041783682            2 
   85000    1.2333101   -6.5878484    36.874843  0.036151806  0.041782715            2 
   86000    1.2149367   -6.5770069    37.376913  0.036217939  0.041773328            2 
   87000    1.2350911   -6.5979756    37.772275   0.03618034   0.04176922            2 
   88000    1.2298231   -6.5939947    38.141931  0.036119253  0.041756649            2 
   89000     1.220044   -6.5715937    38.603441  0.036145544  0.041733491            2 
   90000    1.1911375   -6.5683853    38.979586  0.036092209  0.041711535            1 
   91000    1.2155827    -6.623648    39.278284  0.035969124  0.041675348            3 
   92000    1.2111177    -6.585275    39.924254  0.036163273  0.041649045            2 
   93000    1.2217659   -6.5603437     40.55636  0.036340824  0.041624849            1 
   94000    1.2111077    -6.547624    40.928933  0.036284515  0.041598386            2 
   95000    1.2237648   -6.6190198    41.306432  0.036233712  0.041574258            3 
   96000    1.2353526   -6.5858356     41.57551  0.036089852  0.041540804            3 
   97000    1.2361717   -6.5980611    42.047479  0.036123264  0.041496321            2 
   98000    1.2108986   -6.6182566    42.281397  0.035953569  0.041451427            3 
   99000     1.192852   -6.5647129    42.990045  0.036186906  0.041404141            2 
  100000    1.1945208   -6.5463861    43.675709  0.036396424  0.041363491            1 
  101000     1.215202   -6.5790976    44.082555  0.036371745  0.041332245            3 
  102000    1.2138183   -6.5950144    44.474482  0.036335361  0.041301837            3 
  103000    1.2172276   -6.6048558    44.994196  0.036403071  0.041270549            2 
  104000    1.2367979   -6.6002571    45.649069   0.03657778  0.041247879            2 
  105000    1.2232037   -6.6106529    45.980975  0.036492837  0.041226736            2 
  106000    1.2001393   -6.6210703    46.551711  0.036597257  0.041205133            3 
  107000    1.2088199   -6.5822035     47.13122  0.036706557  0.041190108            2 
  108000    1.2208135   -6.6087331    47.801317  0.036883732  0.041184024            1 
  109000    1.2236183   -6.5814099    48.317913    0.0369403  0.041176197            1 
  110000    1.1956009   -6.5665183    48.956477   0.03708824   0.04117094            3 
  111000    1.2215746   -6.5758361    49.191679   0.03693069  0.041165276            1 
  112000    1.2027543   -6.5913434    49.748645  0.037015361  0.041161846            2 
  113000    1.2199532   -6.6048577    50.282896  0.037081782  0.041163669            2 
  114000    1.1804755   -6.5914036    50.698305  0.037060164  0.041162909            2 
  115000    1.2052226   -6.6140789    51.292673  0.037168604  0.041160603            4 
  116000    1.2420993   -6.6145151     51.75663  0.037181487  0.041154456            2 
  117000    1.2223372   -6.6125639    52.263965  0.037225046  0.041150208            1 
  118000    1.2194526   -6.5789646    52.703934  0.037220292  0.041148042            2 
  119000    1.2014996    -6.629319     53.19728  0.037252997  0.041138011            1 
  120000    1.2372264   -6.5577696    53.481908  0.037140213  0.041128349            1 
  121000    1.2340596   -6.6200389    53.909101   0.03712748  0.041116421            3 
  122000    1.2060033   -6.6273008    54.238488  0.037048147  0.041100042            1 
  123000    1.1855272   -6.6303066    54.826515  0.037145335  0.041085672            2 
  124000    1.2069676   -6.6185673    55.301056  0.037164688  0.041072887            2 
  125000     1.188538    -6.583839    55.720194  0.037146796  0.041058578            1 
  126000    1.2232566   -6.6178029    56.236335  0.037193343   0.04103926            2 
  127000    1.1734183   -6.6336234     56.37817   0.03699355  0.041020303            2 
  128000    1.2155231   -6.6148409    57.229178  0.037258579  0.041001596            1 
  129000     1.217788   -6.5716325    57.823791   0.03735387  0.040983435            2 
  130000    1.1985764   -6.6076818    57.824298  0.037066858  0.040963169            1 
  131000    1.1692913   -6.5957442    58.418993  0.037162209    0.0409391            3 
  132000    1.2019267   -6.5916654    58.750471  0.037089944  0.040911117            2 
  133000    1.1905625   -6.6252902     58.71137  0.036786573  0.040879787            2 
  134000    1.2063057   -6.5807875    59.398058  0.036939091  0.040841534            2 
  135000     1.196156   -6.6280146    59.659125   0.03682662  0.040803218            2 
  136000    1.2187466   -6.6070382    60.208994  0.036892766  0.040765116            1 
  137000    1.1900136   -6.6081282    60.663543  0.036899965   0.04072895            4 
  138000    1.2076397   -6.6101229    61.128615  0.036913415  0.040695884            2 
  139000    1.2137169   -6.6306113     61.94753  0.037138807  0.040667477            2 
  140000    1.1956854   -6.6385499    62.205927  0.037027337  0.040641864            1 
  141000     1.176081   -6.6355301    62.448971  0.036908375  0.040617103            2 
  142000    1.2173814   -6.6223176    63.160439  0.037065985  0.040592204            2 
  143000    1.2069455   -6.6733768     63.49947  0.037004353  0.040565159            2 
  144000    1.1817315   -6.5754123    64.248586  0.037180894  0.040539314            3 
  145000    1.1586686   -6.6308336    64.486223  0.037061047  0.040514075            2 
  146000    1.2004715   -6.5731074    65.033647  0.037119662  0.040485779            4 
  147000    1.1974608   -6.6335018    65.447535  0.037101777  0.040458965            1 
  148000    1.1474304   -6.6417355     66.04294   0.03718634  0.040435911            6 
  149000    1.1844881   -6.5951108    66.496587  0.037190485  0.040416487            2 
  150000     1.184707   -6.6310185    67.202789  0.037334883  0.040396158            2 
  151000    1.1776594   -6.6404365    67.299742  0.037141138  0.040377819            5 
  152000    1.2094096   -6.6158102     68.20713   0.03739426  0.040361433            2 
  153000    1.2096014   -6.6583072    68.293744  0.037197028  0.040345132            2 
  154000    1.1982892   -6.6334823    68.850877  0.037256968  0.040328118            3 
  155000    1.1534055   -6.6268275    69.255973  0.037234394  0.040312354            1 
  156000    1.1919361   -6.6407305    69.664153  0.037213757  0.040295448            2 
  157000    1.1807206   -6.6236697    70.046738  0.037179797  0.040277133            3 
  158000    1.1892165   -6.6010538    70.660132  0.037268002  0.040258392            2 
  159000    1.2233554    -6.634564    71.066797  0.037246749   0.04023674            2 
  160000    1.1774182   -6.6373797    71.561797  0.037271769  0.040219412            2 
  161000    1.2026841    -6.643118    72.358645  0.037452715  0.040202003            3 
  162000     1.202341   -6.6487063    72.515794  0.037302363  0.040187297            2 
  163000    1.1873771   -6.6682448    73.065261  0.037354428  0.040171437            3 
  164000    1.1988117   -6.6693237    73.379444  0.037286303  0.040155217            1 
  165000    1.1943223   -6.5753905    74.071134  0.037409663  0.040140714            3 
  166000    1.1891923   -6.6287726     74.23569  0.037266913  0.040123858            1 
  167000    1.1825697   -6.6504419     74.49622  0.037173762  0.040104955            2 
  168000     1.208042   -6.6635615    75.178125  0.037290736   0.04008717            2 
  169000    1.1970676   -6.6302602    75.858361  0.037405503  0.040068165            3 
  170000    1.1770787   -6.6142931    76.553688  0.037526317  0.040054011            1 
  171000       1.1886    -6.587708      77.1082  0.037577095  0.040042167            2 
  172000    1.1963977   -6.6916537    77.060587  0.037335556  0.040027762            1 
  173000    1.1912023   -6.6332107    77.822587  0.037486795  0.040014086            3 
  174000    1.1849592   -6.6537538    78.120095  0.037413839  0.040001939            2 
  175000    1.1861763   -6.6480526    78.798184  0.037522945  0.039988128            2 
  176000    1.1853936   -6.6397203    79.049707  0.037428839  0.039976485            1 
  177000      1.19761   -6.6563406    79.828203  0.037583899  0.039965945            2 
  178000    1.2229947   -6.6344575    80.397073  0.037639079  0.039957774            4 
  179000    1.1820065    -6.631492    80.735777  0.037586488  0.039950777            7 
  180000     1.195467   -6.6334582    80.995717  0.037498017   0.03993908            1 
  181000    1.2238576   -6.6883224    81.223792  0.037395852  0.039926996            3 
  182000        1.193   -6.6176332    81.939975  0.037518304  0.039913663            1 
  183000    1.1960175   -6.6462346    82.127219  0.037398552  0.039899047            2 
  184000    1.1493263   -6.6416119    82.242669  0.037247585   0.03988211            1 
  185000    1.2085324   -6.6647764    82.942062  0.037361289  0.039864392            2 
  186000    1.1843152   -6.7179177    83.218807  0.037284412  0.039846309            2 
  187000    1.1978588   -6.6833255    83.703617  0.037301077  0.039830251            3 
  188000    1.1596026   -6.6296671    84.261491  0.037349952  0.039811343            2 
  189000    1.1655575   -6.6496773    84.782316  0.037381973  0.039793595            3 
  190000    1.1728356   -6.6635399    85.397195   0.03745491   0.03977717            2 
  191000    1.2112282   -6.6972278    85.520171  0.037312466  0.039760754            3 
  192000    1.1730629   -6.6567185    85.751353  0.037218469  0.039744233            2 
  193000    1.1481062   -6.6722702    86.917473  0.037529133  0.039727469            3 
  194000    1.2009996   -6.7169856    86.887284  0.037322716  0.039711514            1 
  195000    1.2100968   -6.6679663    87.362103  0.037334232  0.039698388            1 
  196000    1.1853506   -6.6627192    88.082744  0.037450146  0.039686656            1 
  197000    1.1941859   -6.6467753    88.924108  0.037615951  0.039674888            2 
  198000    1.2035521   -6.6515186    89.411088  0.037630929  0.039667265            1 
  199000    1.1910485   -6.6529027    89.932353  0.037660114  0.039657557            3 
  200000    1.1627907   -6.6661424    90.163783  0.037568243  0.039649006            2 
  201000    1.1818212   -6.6604279    90.268458  0.037424734  0.039638223            2 
  202000    1.1725256   -6.6856037    91.069668  0.037569995  0.039628538            3 
  203000    1.1652397   -6.6818866    91.633434  0.037616352  0.039621007            2 
  204000    1.1830966   -6.6561535     92.08689  0.037617193  0.039615999            2 
  205000    1.2051045   -6.6752072    92.722304  0.037691993   0.03960985            3 
  206000    1.1777862   -6.6937837    92.986007  0.037615699  0.039604461            1 
  207000    1.1730616   -6.6421184    93.290544   0.03755658  0.039597831            2 
  208000     1.144944   -6.6467331    94.030703  0.037672557  0.039589193            1 
  209000    1.1693056    -6.627276    94.336514   0.03761424  0.039582264            2 
  210000    1.1638258   -6.7058888    94.310629  0.037424853   0.03957081            2 
  211000    1.1507452   -6.6177686    95.084654  0.037553181  0.039558904            1 
  212000    1.1680029   -6.7013662     95.21866  0.037428719   0.03954533            3 
  213000    1.1576161   -6.6695205    95.408872  0.037327415  0.039528611            2 
  214000     1.170897   -6.6721153    95.885746  0.037338686  0.039512049            2 
  215000    1.1745096   -6.6410468    96.393253  0.037361726  0.039495906            4 
  216000    1.1626818   -6.6677826    97.225353  0.037509781  0.039481789            4 
  217000     1.154039   -6.7127647    97.228519  0.037338141  0.039466708            2 
  218000    1.1848366   -6.6974358      97.7327  0.037359595  0.039451702            1 
  219000    1.1334157   -6.6599811    98.652078  0.037538842  0.039441432            1 
  220000    1.1807673   -6.6560314    98.704322  0.037388001   0.03942629            3 
  221000    1.1520573   -6.6979543    98.842573  0.037270955  0.039409626            3 
  222000    1.1472575   -6.6943203    99.649243  0.037405872  0.039395519            2 
  223000    1.1612206   -6.6943362    100.14778  0.037424432   0.03938148            1 
  224000    1.1680665   -6.7084383    100.92075  0.037544921  0.039369845            4 
  225000    1.1726909   -6.6894745     101.1069  0.037446998  0.039358483            3 
  226000    1.1754492   -6.7149885    101.49227  0.037423403  0.039344739            3 
  227000    1.1681136   -6.6673429    101.90006  0.037408247  0.039330453            2 
  228000    1.1741298   -6.6704794    102.05228  0.037299812  0.039317574            1 
  229000    1.1528434    -6.672866    102.58646  0.037331319  0.039304696            3 
  230000    1.1707242   -6.6776155     103.1857  0.037386125  0.039290554            2 
  231000    1.1760333   -6.6671815    103.91109  0.037485963  0.039277973            2 
  232000    1.1686965   -6.6620901    104.38845  0.037495853  0.039265661            2 
  233000    1.1418536   -6.7075531    104.43179  0.037350425  0.039253708            1 
  234000    1.1665939   -6.6828249    105.09051  0.037425394  0.039242483            3 
  235000    1.1652455   -6.6849698    105.65479  0.037466239  0.039231387            1 
  236000    1.1444016   -6.6966218    106.12492   0.03747349  0.039220412            2 
  237000     1.165916   -6.6966619    106.05946  0.037292356  0.039207894            2 
  238000    1.1474079   -6.7021021    106.12897  0.037160004   0.03919224            3 
  239000    1.1826111   -6.6785014    107.22155  0.037385477  0.039177033            2 
  240000    1.1688993   -6.7046178    106.98688  0.037148221  0.039162124            1 
  241000    1.1640339   -6.7189805    107.80002  0.037275248  0.039146878            1 
  242000    1.1511543   -6.7181638    108.19257  0.037256396  0.039132951            2 
  243000    1.1445389    -6.694982    109.12175  0.037421725  0.039120231            3 
  244000    1.1581109   -6.7162068    108.83715  0.037171156  0.039106873            2 
  245000      1.12653   -6.6892099     109.8794  0.037373944  0.039092821            3 
  246000    1.1416349   -6.6708578    109.73327  0.037172516  0.039077311            1 
  247000    1.1645214   -6.6871198    110.40259  0.037247839  0.039062983            1 
  248000    1.1628279   -6.6944799    111.22495  0.037373976  0.039051527            2 
  249000    1.1704522   -6.7109416    111.45105   0.03729955  0.039039811            2 
  250000    1.1437864   -6.6781344    111.95829  0.037319428  0.039026846            2 
  251000    1.1667505   -6.6834815    112.39435  0.037315522  0.039014318            1 
  252000    1.1582116     -6.67904    112.47027   0.03719255  0.039000515            3 
  253000    1.1639296      -6.7142    112.64227  0.037102198  0.038985497            2 
  254000    1.1921285   -6.6981247    113.61828  0.037276337  0.038970807            3 
  255000    1.1757345   -6.7030806    113.99014  0.037251678  0.038957573            4 
  256000     1.140853   -6.7076884    114.45359  0.037257029  0.038943441            3 
  257000    1.1421101    -6.688491    114.48757  0.037123077  0.038928531            5 
  258000    1.1520635    -6.675969    115.54202  0.037319775  0.038915642            2 
  259000    1.1428235   -6.7336494    115.18242  0.037059979  0.038904144            7 
  260000    1.1620849   -6.6925666    116.24751  0.037258817  0.038890182            2 
  261000    1.1520194   -6.7224417    116.41085  0.037168214  0.038876659            2 
  262000    1.1678463   -6.7383578    116.83386  0.037160896  0.038863522            2 
  263000    1.1415766   -6.6808042    117.24109  0.037148634  0.038849255            4 
  264000    1.1598247   -6.7241348    117.10194  0.036963997  0.038833486            1 
  265000    1.1446735   -6.7228529    117.85775  0.037062186  0.038815639            2 
  266000    1.1488845   -6.6912018    118.61475  0.037160009  0.038798084            2 
  267000    1.1724941   -6.6944872    118.35409  0.036939478   0.03878143            2 
  268000    1.1377671   -6.6981838    118.60705  0.036880302  0.038763828            2 
  269000    1.1427799    -6.712765    119.25536   0.03694404  0.038744484            2 
  270000    1.1552359   -6.7191186    119.16169    0.0367783  0.038724465            3 
  271000    1.1821434   -6.7045325    119.53261  0.036756646  0.038703105            3 
  272000     1.138457   -6.6982569    120.11591  0.036800219  0.038682054            2 
  273000    1.1706318   -6.7405428    120.72114  0.036850164  0.038662199            3 
  274000      1.15068   -6.7163419    120.66993  0.036700101  0.038643124            2 
  275000    1.1294528   -6.7404977    121.68308  0.036873661  0.038623446            4 
  276000    1.1320045   -6.6877702    122.49906  0.036986431  0.038603792            3 
  277000    1.1370578   -6.7185367     122.6947  0.036911763   0.03858661            4 
  278000    1.1290828   -6.7178649    123.06428  0.036889772  0.038568673            2 
  279000     1.163539   -6.6990728     123.5083  0.036890173  0.038550825            3 
  280000    1.1477059   -6.7201942    123.31118  0.036699754  0.038532826            3 
  281000    1.1396096   -6.7441727    123.52357  0.036632139  0.038513892            4 
  282000    1.1515976   -6.7678729    124.05936  0.036660568  0.038494121            2 
  283000    1.1204092   -6.7338455    124.84356  0.036761944  0.038475299            1 
  284000    1.1499761   -6.7104956    124.87351  0.036641287  0.038456024            2 
  285000    1.1566119    -6.736386     125.3823  0.036661491  0.038435523            2 
  286000    1.1670949   -6.7511738     126.1165  0.036747232  0.038416291            2 
  287000    1.1291731   -6.7409185    126.35165  0.036687472  0.038396552            4 
  288000    1.1369769   -6.6958234    127.28451  0.036830007  0.038378219            2 
  289000    1.1459147   -6.7098265    127.11887  0.036654807  0.038359911            3 
  290000    1.1819948   -6.7144001    127.43896  0.036620391   0.03834049            2 
  291000    1.1443906   -6.7095034    128.12313  0.036690472  0.038320965            2 
  292000    1.1203126   -6.7223297    128.67189  0.036721431   0.03830265            2 
  293000    1.1538092   -6.7371989    128.89155  0.036658576  0.038285723            1 
  294000    1.1420975   -6.7208122    129.87855  0.036813649  0.038269906            1 
  295000    1.1133293   -6.6921001    130.64673  0.036905857  0.038255769            1 
  296000    1.1279522    -6.702557    131.06912  0.036900089  0.038241806            4 
  297000    1.1332723   -6.7299095    131.24794  0.036826021  0.038228866            1 
  298000    1.1152849   -6.7160745    131.83023  0.036865277  0.038216048            2 
  299000    1.1279292   -6.7070607    131.77651  0.036727009   0.03820238            1 
  300000    1.1343513   -6.7153492    132.62562  0.036840451  0.038188396            1 
  301000    1.1390629   -6.7243845    132.81739   0.03677115  0.038177017            1 
  302000    1.1432375   -6.8136019    132.61491  0.036593519   0.03816218            5 
  303000    1.1456467   -6.7218284     133.4605  0.036705308  0.038148212            5 
  304000    1.1280232   -6.7495052     133.7852  0.036673574    0.0381335            4 
  305000    1.1474406   -6.7457232    134.58599  0.036772128   0.03811827            2 
  306000    1.1390197   -6.7651155    134.37489  0.036594469  0.038102399            2 
  307000    1.1327572   -6.7816283    134.61372  0.036540096  0.038086166            7 
  308000    1.1164632   -6.7352368    135.30413   0.03660826   0.03806926            2 
  309000    1.1222186   -6.7148415    135.32464  0.036495319  0.038052209            6 
  310000    1.1236378   -6.7525837    135.54273  0.036436218  0.038034537            1 
  311000    1.1516343   -6.7201459    136.11027  0.036471133  0.038014808            2 
  312000    1.1173451   -6.7824157    136.35327  0.036419142  0.037995526            2 
  313000    1.1050156    -6.731698    136.93573  0.036457862  0.037975809            2 
  314000    1.1337123   -6.7738608    136.89969  0.036332189  0.037955076            1 
  315000    1.1317594   -6.7427983    136.99034  0.036240829  0.037935195            2 
  316000    1.1169821   -6.7458346    137.51471  0.036264427  0.037914805            4 
  317000    1.1270973   -6.7416418    137.99667  0.036276726  0.037893876            2 
  318000     1.142605   -6.7541089    138.27239  0.036234903  0.037872289            5 
  319000    1.1161717   -6.7616697    138.40232  0.036155256  0.037850383            3 
  320000    1.1282607   -6.7732874    138.85731  0.036160757  0.037828049            8 
  321000    1.1517024   -6.7526247     139.4206   0.03619434  0.037807136            1 
  322000    1.1493226   -6.7330839    139.89458  0.036204602  0.037787229            2 
  323000     1.130594   -6.7607844    140.12707  0.036152496  0.037766848            4 
  324000    1.1276222   -6.7997133    140.68276  0.036183838    0.0377461            2 
  325000    1.1327004   -6.7581996     141.3341  0.036239513  0.037725342            1 
  326000    1.1217673   -6.7621172    141.44125  0.036155738  0.037705109            2 
  327000    1.1138835   -6.7527241    141.52602  0.036066774   0.03768369            1 
  328000    1.1443332   -6.7726845    141.35076  0.035912285  0.037659949            1 
  329000    1.1443995   -6.8011405    142.03781  0.035977155  0.037636286            2 
  330000    1.1581243   -6.7738763    142.13027  0.035891482  0.037614148            4 
  331000    1.1211198   -6.7262107    142.74068  0.035936728  0.037590999            4 
  332000    1.1374319      -6.8168    142.82873  0.035850584   0.03756828            3 
  333000    1.1248268   -6.8014298    143.39811  0.035885412  0.037544606            3 
  334000    1.1434861   -6.7453852    143.84694  0.035889954  0.037521299            2 
  335000    1.1249827   -6.7722851    143.53194  0.035704463    0.0374977            1 
  336000    1.1113348   -6.7725177    144.20837  0.035765965  0.037473437            1 
  337000    1.1138524    -6.757396    144.04094  0.035618431  0.037449431            1 
  338000    1.1469194   -6.7620215    145.10751  0.035776012  0.037424988            1 
  339000    1.1204747   -6.7844599    145.22976  0.035700532  0.037401356            2 
  340000    1.0954228   -6.7914573    145.95683  0.035773733  0.037378879            7 
  341000    1.1260059     -6.76101    147.55589  0.036059601  0.037358227            2 
  342000    1.1394901   -6.7722594    147.55968  0.035955088  0.037339689            1 
  343000    1.1134843   -6.8188676    147.52277  0.035841295  0.037319336            2 
  344000    1.1288046   -6.7724116    148.29989  0.035925362  0.037299425            3 
  345000    1.0923893   -6.8117137    147.97279   0.03574222  0.037279343            3 
  346000    1.1084384   -6.7663161    148.57984  0.035785124  0.037259116            3 
  347000    1.1310182   -6.7778134    149.65833  0.035941002  0.037239343            2 
  348000    1.1164469   -6.8085303    148.73127  0.035615725  0.037219013            2 
  349000    1.1092477   -6.7872607    149.39718  0.035672679  0.037197416            3 
  350000    1.1263885   -6.7955545    149.92376  0.035696133  0.037175477            3 
  351000    1.1195626   -6.7777793    149.61253  0.035520543  0.037152878            1 
  352000    1.1373863   -6.7933553     150.1916  0.035556723  0.037129526            3 
  353000    1.1288998   -6.8040754     150.2972  0.035480925   0.03710595            1 
  354000    1.1131202   -6.8133531    150.24312  0.035367966  0.037081313            3 
  355000    1.0961324   -6.7582272    150.46781  0.035321082  0.037055381            3 
  356000    1.0870402   -6.8005759    150.65606  0.035265931  0.037028766            1 
  357000    1.1168585   -6.7812601    151.04257  0.035257369  0.037002116            2 
  358000    1.1514744   -6.8040152    151.14752  0.035183314  0.036975423            3 
  359000    1.0840542   -6.7604406    151.74586  0.035224202  0.036948769            1 
  360000    1.1321225   -6.8194666    151.61851  0.035096877  0.036921868            5 
  361000    1.1410179   -6.8003861    152.26191  0.035148178  0.036894523            3 
  362000    1.1005475   -6.7797592    152.74492  0.035162273  0.036866829            1 
  363000    1.0886037   -6.7793956     152.9322  0.035108403  0.036839956            3 
  364000    1.0845811   -6.8022182    153.68391  0.035184046  0.036813624            2 
  365000    1.1166958   -6.7906746    153.86139  0.035128172  0.036787378            2 
  366000     1.085335    -6.809006    154.75461  0.035235568  0.036762238            3 
  367000    1.0944334   -6.8080565    155.05027  0.035206691  0.036736885            2 
  368000    1.0932001   -6.7985267    155.51658  0.035216617  0.036711706            3 
  369000    1.1082902   -6.7854232    155.31934  0.035076636  0.036685931            4 
  370000    1.1260137   -6.7698159    156.46254  0.035239312  0.036660748            2 
  371000    1.0949344   -6.7848497    156.88327   0.03523883  0.036636275            3 
  372000    1.0924713   -6.8016534    156.83498  0.035133284   0.03661264            3 
  373000    1.1123714   -6.7901315    157.20457  0.035121665  0.036588712            2 
  374000    1.0976452   -6.8135367    157.78615  0.035157343  0.036565196            1 
  375000    1.1274905   -6.7951197    157.67988  0.035039974  0.036540522            2 
  376000    1.1166193   -6.8463487    157.54431  0.034916736   0.03651561            1 
  377000    1.1151561   -6.8248355    158.13688  0.034955101  0.036490498            3 
  378000    1.0945193   -6.8104935    158.93104  0.035037706  0.036465869            2 
  379000    1.0941213   -6.7943403    159.53488  0.035078029  0.036442898            2 
  380000    1.0863873   -6.7896111    160.18259  0.035127761  0.036419741            2 
  381000    1.1111542   -6.7941357    160.01727  0.034999403  0.036397082            1 
  382000    1.1004663   -6.8274226    160.53634  0.035021016  0.036375176            3 
  383000    1.0954328   -6.7740174    160.69833  0.034964825  0.036352924            2 
  384000     1.089053   -6.8032588    161.58325   0.03506581  0.036330977            2 
  385000    1.0761385   -6.7865278    161.91409   0.03504634  0.036309034            2 
  386000    1.1069235   -6.8022056    162.14035  0.035004393  0.036287333            3 
  387000    1.0969787   -6.8099577    161.79068  0.034838648  0.036265192            3 
  388000    1.1017626    -6.807394    162.57821  0.034918001  0.036242393            2 
  389000    1.0889157   -6.8274499    162.57183   0.03482687  0.036219198            4 
  390000    1.1206285   -6.7981714    163.19479  0.034870682  0.036196526            2 
  391000    1.1009219   -6.8248379    163.69444  0.034887989  0.036173889            2 
  392000    1.0891813   -6.8174885    163.16838  0.034687156  0.036150692            3 
  393000    1.0777568   -6.8481476    164.01985  0.034779442  0.036126746            3 
  394000    1.1188109    -6.789515    163.99031  0.034684921  0.036102626            1 
  395000    1.0643731   -6.8117649    164.33206  0.034669211   0.03607907            3 
  396000    1.1013181   -6.7993121    164.67812  0.034654487  0.036054762            4 
  397000    1.0984817   -6.8359166     164.9769  0.034629911   0.03603038            3 
  398000    1.1078942   -6.8335035    165.45352  0.034642697  0.036007441            3 
  399000    1.1074452   -6.7885319     166.5616  0.034787302   0.03598409            7 
  400000    1.1025274   -6.8024502    165.94913  0.034572736  0.035960918            1 
  401000    1.0781314   -6.8379391    165.93579  0.034483747  0.035936568            2 
  402000    1.1044404   -6.7983645    166.05912  0.034423531  0.035912144            2 
  403000    1.0798408   -6.7855869     166.9642  0.034525268  0.035888283            3 
  404000    1.1104454   -6.8042269    167.76709  0.034605424  0.035864992            2 
  405000    1.0864771   -6.8233424    167.04545  0.034371493    0.0358408            2 
  406000    1.1044305   -6.8318396    167.52755  0.034385786  0.035816196            1 
  407000    1.0763809   -6.8347437    167.97559  0.034393037  0.035791984            2 
  408000    1.0774881   -6.7755816    168.69783  0.034456256  0.035767791            4 
  409000    1.0947295   -6.8117148    168.97913  0.034429326  0.035744654            3 
  410000    1.0984974   -6.7943713     169.4084  0.034432602  0.035721361            3 
  411000    1.0960106   -6.8072325    169.75493  0.034419085  0.035697191            3 
  412000    1.0850271   -6.8211553    169.63585  0.034311458  0.035673119            5 
  413000    1.0925424   -6.8483148    169.69517   0.03424035  0.035649836            4 
  414000     1.080297    -6.830069    170.10662  0.034240463  0.035626905            6 
  415000    1.1095898   -6.8449115    171.23613  0.034384765  0.035603515            3 
  416000    1.0759882    -6.799565    171.51109   0.03435719  0.035580435            2 
  417000    1.0882525   -6.8284649    171.39205   0.03425101  0.035557728            3 
  418000    1.0914462   -6.8328353    171.71278  0.034233011  0.035533981            1 
  419000    1.0969355   -6.8608654    172.21542  0.034251276  0.035510892            3 
  420000    1.0893328   -6.8318467    172.68081  0.034262065  0.035488027            2 
  421000    1.0708635   -6.8026846    172.82322  0.034208871  0.035465515            2 
  422000     1.082881    -6.824952    173.50016  0.034261486  0.035443323            3 
  423000    1.1166412   -6.8273967    173.75652  0.034230993  0.035421369            3 
  424000     1.117115   -6.8614659    173.69621  0.034138407   0.03539886            3 
  425000    1.0932614   -6.8281446    174.87054  0.034288342  0.035376663            4 
  426000    1.0906373    -6.856998    174.99377  0.034231958  0.035354524            2 
  427000    1.0835419    -6.841605     175.1839  0.034188895  0.035332315            4 
  428000    1.0694218    -6.866764    175.50306  0.034171156    0.0353099            2 
  429000    1.0872544    -6.861564    175.92153  0.034172792  0.035287395            2 
  430000     1.079812   -6.8229346    175.71986  0.034054236  0.035264363            4 
  431000    1.0921697   -6.8277392     176.8143  0.034186832  0.035241965            6 
  432000    1.0775806   -6.8361879    177.11037  0.034164809  0.035220756            2 
  433000    1.0594515   -6.8367924    177.80029  0.034218686  0.035198649            3 
  434000    1.0790721   -6.8619427    177.07365  0.034000317  0.035176926            2 
  435000    1.0947247    -6.863257    177.54485  0.034012423  0.035155196            6 
  436000    1.0825907   -6.8437389    177.91249  0.034004681  0.035133727            3 
  437000    1.0632226   -6.8320156    178.37818  0.034015672  0.035112595            1 
  438000    1.0585092   -6.8476943    178.31117  0.033925261  0.035091177            2 
  439000    1.0812083   -6.8525622    178.67296  0.033916658  0.035068915            3 
  440000    1.0776337   -6.8457018    179.10881  0.033922124  0.035046369            2 
  441000    1.0791192   -6.8679413     179.4369  0.033907199  0.035024069            4 
  442000     1.079245   -6.8686586    179.50704   0.03384371  0.035001796            1 
  443000    1.0668923   -6.8361413    180.31597  0.033919483  0.034979258            1 
  444000    1.0759464   -6.8557873    180.65262  0.033906273  0.034957683            2 
  445000    1.0795122    -6.858224    180.68731  0.033836576  0.034936226            2 
  446000    1.0862578   -6.8597204    181.68034  0.033946252  0.034914962            3 
  447000    1.0780182   -6.8408586    181.30242  0.033799854  0.034893312            2 
  448000    1.0707848   -6.8491988    181.68591  0.033795743  0.034871662            3 
  449000    1.0768335   -6.8446104    182.31174  0.033836625  0.034849604            6 
  450000    1.0830406   -6.8566536    182.16719  0.033734665  0.034828197            2 
  451000    1.0794515    -6.848744    182.48624  0.033718817  0.034806441            3 
  452000    1.0837945   -6.8793118    182.92638  0.033725366  0.034784595            5 
  453000    1.0732288   -6.8763006    183.29665   0.03371903   0.03476301            5 
  454000    1.1018154   -6.8588664    183.70607   0.03371991  0.034741767            3 
  455000    1.0839416   -6.8479685     183.8438  0.033671025  0.034720438            2 
  456000    1.0655003   -6.8700917    184.57796  0.033731353   0.03469928            3 
  457000    1.0738003   -6.8544957    184.92833  0.033721431  0.034678486            5 
  458000    1.0465317   -6.8524964     184.7469  0.033614792  0.034658233            2 
  459000    1.0690501   -6.8747334     185.8788  0.033747059  0.034638006            2 
  460000    1.0737894   -6.8338188    186.06542  0.033707503  0.034617853            1 
  461000    1.0730042   -6.8787733    186.70745  0.033750444  0.034598321            2 
  462000     1.077905   -6.8976726    185.97334  0.033544976   0.03457747            3 
  463000    1.0861138    -6.829273    186.86347  0.033632733  0.034557063            4 
  464000    1.0711288   -6.9042913    186.85692  0.033559074  0.034536886            3 
  465000    1.0690986   -6.8887947    186.95135  0.033503826  0.034515257            5 
  466000    1.0913879   -6.8766061    187.07808  0.033454592   0.03449329            4 
  467000     1.078873   -6.8879378    187.89291  0.033528357  0.034471174            2 
  468000    1.0762107    -6.874223    187.81999   0.03344373  0.034449947            3 
  469000    1.0587454   -6.8815355    188.05549  0.033414267  0.034428911            8 
  470000    1.0847088   -6.8850841    188.43634  0.033410699  0.034407291            8 
  471000    1.0701329   -6.8605668    189.00777  0.033440866  0.034385486            1 
  472000    1.0701985   -6.8475884    188.89002  0.033349227  0.034363669            2 
  473000    1.0643486   -6.9074887    188.91405  0.033282954  0.034342304            3 
  474000    1.0640693    -6.901019    189.96366  0.033397269  0.034320111            2 
  475000    1.0685922   -6.9038769    189.97308   0.03332861  0.034298738            2 
  476000    1.0955804   -6.8389486     190.8381  0.033410031  0.034276824            4 
  477000     1.058943   -6.9093577    190.09263  0.033209754  0.034255483            3 
  478000    1.0636323   -6.8692363    190.79438  0.033262618  0.034234101            2 
  479000    1.0599377   -6.8892275    190.67001  0.033171539  0.034212209            3 
  480000    1.0342653   -6.9197086    190.66158  0.033100969  0.034189741            2 
  481000    1.0804855   -6.9061138    191.27073  0.033137686  0.034167343            1 
  482000    1.0729344   -6.9146971    191.38994  0.033089547  0.034144631            3 
  483000    1.0607417   -6.9003954     191.9901  0.033124587  0.034122419           10 
  484000    1.0473034   -6.8675471    193.35871  0.033291789  0.034100847            4 
  485000     1.048275   -6.8878905    192.92422  0.033148491  0.034079444            1 
  486000    1.0625156   -6.8632042    192.95939  0.033086316  0.034056965            3 
  487000    1.0580593   -6.8742549     193.3903  0.033092111  0.034035007            2 
  488000    1.0555712   -6.8731276    193.01047  0.032959438   0.03401273            6 
  489000    1.0527229   -6.8738092    193.58342  0.032989676  0.033990572            3 
  490000    1.0572712   -6.8611451    193.70395  0.032942849  0.033968866            5 
  491000    1.0625799    -6.819574    194.84873  0.033070049  0.033947236            4 
  492000     1.058058   -6.9173972    195.05534  0.033037828  0.033926265            1 
  493000    1.0796873   -6.8555488    195.06114  0.032971795  0.033905348            2 
  494000    1.0477662   -6.8947339    195.69372  0.033011761   0.03388482            3 
  495000    1.0665687   -6.8824461    195.58038   0.03292599  0.033863553            2 
  496000     1.052269    -6.935228    195.89044  0.032911701  0.033841977            2 
  497000    1.0684834   -6.9346745    196.06491  0.032874733  0.033820072            2 
  498000    1.0450354   -6.8696998     196.7478  0.032922992  0.033799172            2 
  499000    1.0618506    -6.939444    196.84435  0.032873139  0.033778145            1 
  500000    1.0557753   -6.8940203    197.50791  0.032917985  0.033757089            1 
  501000    1.0620043   -6.9249805    197.66599  0.032878574  0.033736311            4 
  502000    1.0730048   -6.8986254    197.72166  0.032822321  0.033715175            4 
  503000    1.0633929   -6.9251442    197.23493   0.03267643  0.033693886            2 
  504000    1.0462481   -6.8928206    198.19133  0.032769731  0.033672106            3 
  505000    1.0667252   -6.9340491    197.93828  0.032663083  0.033650438            1 
  506000    1.0275932   -6.8977755    198.51685  0.032693815  0.033628397            3 
  507000    1.0460888   -6.8498687    199.80622  0.032841259  0.033606498            3 
  508000    1.0563927   -6.9171388    199.23446  0.032682818  0.033584054            1 
  509000    1.0351792   -6.9372299     198.7256  0.032535298  0.033561321            1 
  510000    1.0593631   -6.9297551    199.01486  0.032518768  0.033538018            3 
  511000    1.0562088   -6.9072587    199.83343  0.032588621  0.033515286            3 
  512000     1.071701   -6.9226013    200.36116  0.032610866   0.03349299            2 
  513000    1.0552233   -6.9346766    199.76743   0.03245085  0.033470528            4 
  514000    1.0644306   -6.9323774    200.61641  0.032525359  0.033448233            3 
  515000    1.0505666   -6.8982232    201.21338  0.032558799  0.033426344            3 
  516000     1.034189   -6.9035421    202.20441  0.032655751  0.033404955            3 
  517000    1.0389969   -6.9267886    202.25506  0.032600751  0.033384275            2 
  518000    1.0451512   -6.9093595    202.33339  0.032550416  0.033363066            3 
  519000    1.0471047   -6.9090416    202.73039  0.032551443  0.033342403            2 
  520000    1.0585207   -6.9326673    202.93302  0.032521318  0.033321747            3 
  521000     1.025869   -6.9345398    202.76295  0.032431694  0.033300069            1 
  522000    1.0469946   -6.9368292    202.77736  0.032371864  0.033278497            2 
  523000    1.0501505   -6.8867922    203.54776  0.032432721  0.033257193            8 
  524000    1.0744698   -6.9414155    203.71366   0.03239721  0.033236146            2 
  525000    1.0392111   -6.9106339    203.74054  0.032339768  0.033215134            3 
  526000    1.0639105   -6.9171368    204.59747  0.032414048   0.03319411            2 
  527000    1.0395417   -6.9315555    204.47237  0.032332759  0.033172914            3 
  528000     1.034926   -6.9171197     204.7909  0.032321796  0.033151729            2 
  529000    1.0646206   -6.9333891    205.31401  0.032343102  0.033130687            2 
  530000    1.0294075   -6.9417039    206.23423  0.032426765  0.033109999            2 
  531000    1.0625477   -6.9486345    205.52301  0.032254082  0.033089397            6 
  532000    1.0414209   -6.8884595    207.17664  0.032452482  0.033069117            5 
  533000      1.06711   -6.8967949    207.07628  0.032375904  0.033049477            3 
  534000      1.03948    -6.929349    208.01812  0.032462254  0.033029922            3 
  535000    1.0601129   -6.9522311    207.16785  0.032269136  0.033010642            4 
  536000    1.0390048   -6.9335244    208.19968  0.032369354  0.032991654            2 
  537000    1.0482893   -6.9477443    208.49487  0.032354883  0.032972717            3 
  538000    1.0414777   -6.9287072    209.06203  0.032382594  0.032953359            2 
  539000    1.0327918   -6.9323104    208.70415  0.032267185  0.032934276            2 
  540000    1.0334145   -6.9559316    208.40103  0.032160653  0.032914849            3 
  541000    1.0467425   -6.9003982    209.31495  0.032241983   0.03289541            2 
  542000    1.0246705   -6.9300985    209.21919  0.032167772  0.032875879            1 
  543000    1.0505453    -6.944992    209.08192  0.032087465  0.032855952            2 
  544000    1.0293036   -6.9354463    209.30275  0.032062308  0.032835508            3 
  545000    1.0270474   -6.9457515    209.62634  0.032052957  0.032814891            3 
  546000    1.0431712   -6.9223027    210.32328  0.032100622  0.032794379            2 
  547000    1.0354532    -6.936755    210.59184  0.032082851  0.032774131            4 
  548000    1.0538763   -6.9556883    210.73773  0.032046491  0.032753952            4 
  549000    1.0357405   -6.9450944    210.42538  0.031940707  0.032733174            3 
  550000    1.0165195   -6.9303291    210.65224  0.031917006  0.032712595            4 
  551000    1.0398439   -6.9417063    211.33441  0.031962252  0.032692303            4 
  552000    1.0158488   -6.9255046    211.63173  0.031949234  0.032671782            2 
  553000    1.0425095   -6.9073984    212.41097  0.032008887  0.032651738            2 
  554000    1.0185588   -6.9823194    212.72195  0.031997887  0.032631701            2 
  555000    1.0395821    -6.935871    212.47154  0.031902634  0.032611756            4 
  556000    1.0576452   -6.9794837    212.94213  0.031915786   0.03259219            3 
  557000    1.0282477   -6.9503247    212.92763  0.031856318  0.032572449            2 
  558000    1.0291758    -6.927065     213.9632  0.031953883  0.032553029            2 
  559000    1.0163472   -6.9735109     214.2439  0.031938566  0.032533741            5 
  560000    1.0247946   -6.9454868    214.54972  0.031927042   0.03251442            2 
  561000    1.0137722    -6.934091    214.08649  0.031801321  0.032495502            4 
  562000    1.0421905   -6.9619221    215.85408  0.032006833  0.032476575            4 
  563000    1.0365565   -6.9760244    215.65696  0.031920805  0.032458346            6 
  564000     1.044507    -6.956088    216.42836  0.031978186  0.032440163            4 
  565000    1.0245804   -6.9524845    216.45751  0.031925886  0.032421834            2 
  566000    1.0167085   -6.9046169    217.71429  0.032054519  0.032403944            7 
  567000     1.040631   -6.9015099    217.05238  0.031900703  0.032386159            3 
  568000    1.0169283   -6.9410797    217.20243  0.031866554  0.032367927            1 
  569000    1.0390767   -6.9417684     217.1752  0.031806562  0.032349561            2 
  570000    1.0484222   -6.9342302    218.10309  0.031886417  0.032331596            2 
  571000    1.0183085   -6.9496915    218.19837  0.031844478  0.032313708            4 
  572000    1.0347637   -6.9705716    217.83924  0.031736486  0.032295435            4 
  573000    1.0233525    -6.962712    218.46117  0.031771548  0.032276806            3 
  574000    1.0299747   -6.9545238    218.69206  0.031749719  0.032258418            2 
  575000    1.0270869   -6.9684816    218.94087  0.031730561  0.032239766            2 
  576000     1.022323   -6.9473519     219.3077  0.031728545  0.032221342            4 
  577000     1.022507   -6.9662899    218.88631  0.031612696  0.032202741            2 
  578000    1.0264077   -6.9538533    218.99447  0.031573597  0.032183999            2 
  579000    1.0350561   -6.9453844    220.33011    0.0317113  0.032164755            5 
  580000    1.0633404   -6.9514089    219.95972  0.031603408  0.032145815            4 
  581000    1.0173317   -6.9784604    220.13974  0.031574834  0.032127015            2 
  582000    1.0170745   -6.9657363    220.02384  0.031503987  0.032108093            2 
  583000    1.0108495    -6.967923    220.66359  0.031541394  0.032088869            1 
  584000    1.0166898   -6.9618841    221.03662  0.031540614  0.032070107            5 
  585000    1.0180438    -7.001718    220.98835  0.031479821  0.032051001            1 
  586000    1.0016149   -6.9879819    221.54626  0.031505441  0.032031994            5 
  587000    1.0330216   -6.9809908    221.39575  0.031430401  0.032012828            3 
  588000    1.0077195   -6.9566896    223.37916  0.031658044  0.031994429            3 
  589000    1.0343574   -7.0028612    222.60448  0.031494691  0.031976221            3 
  590000    1.0330869   -6.9696936    223.13264   0.03151591  0.031958012            3 
  591000    1.0266758    -6.983355    223.54907  0.031521302  0.031940008            2 
  592000    1.0214581   -7.0010252    223.78284  0.031500963  0.031921917            3 
  593000     1.012601   -6.9946603    223.69068   0.03143489  0.031903404            2 
  594000    1.0265824   -6.9909035    223.47477  0.031351679  0.031884463            2 
  595000    1.0200886   -6.9626508     224.4346  0.031433418  0.031866088            2 
  596000    1.0121809    -6.970362    224.30009  0.031361869  0.031847522            4 
  597000     1.023434   -6.9738874    224.46443  0.031332277  0.031828862            6 
  598000   0.99086519   -6.9897706    224.54325  0.031290866  0.031809768            2 
  599000    1.0246626   -6.9829663    224.44613  0.031225116   0.03179092            3 
  600000     1.017424   -6.9551779    225.34928  0.031298511  0.031772025            2 
  601000    1.0210784    -6.999157     224.9261  0.031187756    0.0317531            6 
  602000    1.0109836   -6.9827649    225.37841  0.031198562  0.031734022            2 
  603000   0.98836692   -6.9777186    225.76351  0.031200042  0.031714704            5 
  604000    1.0247066   -6.9499779    225.60363  0.031126329  0.031695211            2 
  605000   0.99466432    -6.943212    226.26172  0.031165526  0.031675809            4 
  606000    1.0067748   -6.9745862     226.6723  0.031170558  0.031656519            4 
  607000    1.0295416   -6.9666758    226.57695  0.031106117  0.031636963            1 
  608000   0.99810032   -7.0039958    225.73678    0.0309398  0.031617383            2 
  609000    1.0190571   -6.9512185    226.06174  0.030933462  0.031597294            2 
  610000    1.0137263   -6.9878312    226.64784   0.03096282  0.031577353            3 
  611000    1.0175518   -6.9901237    226.20199  0.030851336  0.031557031            5 
  612000   0.98860214    -7.036175    226.63143  0.030859399  0.031536776            2 
  613000   0.98387899   -6.9841062    227.46643  0.030922571  0.031516072            2 
  614000    1.0200043   -6.9982534    227.62484  0.030893708  0.031495981            2 
  615000    1.0173529   -7.0146311    227.55331  0.030833781  0.031475934            2 
  616000    1.0090643   -6.9782732    228.42327  0.030901416  0.031456049            2 
  617000    1.0064508   -6.9880492    228.23066  0.030825319  0.031436475            1 
  618000    1.0029322   -6.9840087    229.54405  0.030952542   0.03141693            4 
  619000    1.0089404   -6.9857941    229.35756  0.030877431   0.03139723            2 
  620000    1.0016944   -7.0217614    229.50808   0.03084786  0.031377906            1 
  621000    1.0212221   -6.9847329    229.21692  0.030759114  0.031358002            3 
  622000    1.0090035   -7.0018088    230.07448  0.030824556  0.031338279            2 
  623000    1.0406355   -7.0418419      229.949  0.030758293   0.03131798            3 
  624000    1.0103182   -6.9889631    229.93311  0.030706878  0.031297476            4 
  625000    1.0184738    -6.989725    229.88927  0.030651903  0.031277144            2 
  626000    1.0179455   -6.9926618    230.26909    0.0306535   0.03125648            2 
  627000   0.99006932   -7.0118381    229.36753  0.030484786  0.031235753            6 
  628000    1.0049616   -7.0400188     229.2482  0.030420409   0.03121488            4 
  629000   0.96910234   -7.0029414    229.50969  0.030406689  0.031193896            1 
  630000    1.0113161   -7.0203588    229.78358  0.030394653  0.031172739            2 
  631000   0.99356506   -6.9795523    230.86913  0.030489849   0.03115115            1 
  632000    1.0100797   -7.0303136    230.00844  0.030328117  0.031129778            2 
  633000    1.0163721     -6.98033    231.28029  0.030447643  0.031108416            2 
  634000    1.0040903   -7.0365368     230.7846  0.030334464   0.03108716            8 
  635000   0.99081184   -7.0151705    231.47465   0.03037725  0.031066147            2 
  636000    1.0091047   -7.0254691    230.76366  0.030236329  0.031044765            3 
  637000    1.0129125   -7.0443113    231.64422  0.030304059  0.031023178            3 
  638000   0.99864333   -6.9694648    232.12408  0.030319237  0.031001565            2 
  639000   0.98302807   -7.0046075    231.86116  0.030237502  0.030980047            4 
  640000   0.96950883   -7.0261359    232.44852  0.030266734  0.030958903            2 
  641000    1.0257308   -6.9898186    233.11768  0.030306511   0.03093793            4 
  642000   0.98497549   -7.0157409    233.43484  0.030300472  0.030917228            2 
  643000    1.0173828   -7.0405141    233.30447  0.030236453  0.030896381            3 
  644000    1.0047589   -7.0157242    234.06927  0.030288466  0.030875242            3 
  645000    1.0105609   -7.0137691    234.00115  0.030232707  0.030854312            1 
  646000   0.99529931   -7.0158622     234.4266   0.03024079  0.030833582            2 
  647000   0.99997354   -7.0428398    234.28291  0.030175542  0.030813127            4 
  648000    1.0039902   -7.0320456    235.06293  0.030229286  0.030792484            2 
  649000   0.99917868   -7.0165252    234.72148  0.030138865  0.030771848            5 
  650000   0.97081256   -7.0173497    234.44137  0.030056586  0.030751002            3 
  651000   0.96777709   -7.0054257     235.0606  0.030089682  0.030729998            2 
  652000   0.99877974   -6.9910291     235.8178  0.030140311  0.030709495            1 
  653000    1.0039656    -7.037716    236.21819  0.030145252  0.030688945            3 
  654000    1.0038365   -7.0224822    236.24856  0.030103027  0.030668148            3 
  655000   0.98446723   -7.0653715    236.17103  0.030047205  0.030647846            4 
  656000   0.97775344    -7.061372    235.96301  0.029974975  0.030627475            2 
  657000    1.0045192   -7.0502107    236.49057  0.029996267  0.030607203            6 
  658000   0.97154919   -7.0574661     236.7342  0.029981534  0.030586949            3 
  659000   0.97266325   -7.0274695    237.15845  0.029989688   0.03056676            3 
  660000    1.0013427   -7.0249963    238.56272  0.030121555   0.03054693            3 
  661000   0.97183541   -7.0173856      237.969  0.030001135  0.030527194            3 
  662000    1.0028209   -6.9822257    238.22342  0.029987843  0.030507592            3 
  663000   0.98110328   -7.0289612    238.14515  0.029932774  0.030487661            3 
  664000   0.98837704   -7.0556013    238.47941  0.029929644  0.030467463            3 
  665000   0.98166378   -7.0450355    238.78148  0.029922492  0.030447655            3 
  666000   0.98455053   -7.0326477    239.56755  0.029975919  0.030427625            2 
  667000   0.97230599    -7.026379     239.6731  0.029944166  0.030407888            2 
  668000   0.99099862   -7.0319986    238.98019  0.029812898   0.03038805            1 
  669000   0.99529905   -7.0462954    239.55078  0.029839409    0.0303681            4 
  670000   0.98252758   -7.0212252    239.20191  0.029751481   0.03034794            3 
  671000    1.0020117   -7.0758612    239.24977  0.029713087  0.030327524            3 
  672000   0.98908931   -7.0292159    239.96681  0.029757789    0.0303071            5 
  673000   0.99025661   -7.0406577     240.0332  0.029721792  0.030286998            6 
  674000   0.97903198   -7.0851566    239.46051  0.029606888   0.03026646            2 
  675000   0.97768791    -7.050975    240.28362  0.029664644  0.030245896            2 
  676000   0.96858576   -7.0484569    240.57547   0.02965674  0.030225538            2 
  677000   0.99115372   -7.0675688    240.49769  0.029603359  0.030205206            2 
  678000   0.98708699   -7.0541945    240.94704  0.029614926  0.030185008            3 
  679000    1.0149609    -7.064485    241.00302  0.029578181   0.03016433            4 
  680000   0.97705527    -7.104788    240.79476  0.029509162  0.030143819            3 
  681000    0.9888041   -7.0244636    242.20263  0.029638109  0.030123661            1 
  682000    1.0009491   -7.0362902    242.37252  0.029615411  0.030103899            3 
  683000    0.9564892   -7.0514594    242.56078   0.02959502  0.030084155            2 
  684000   0.98375963   -7.0445864    242.74621  0.029574343  0.030064517            2 
  685000   0.97228833   -7.0340402    243.60616  0.029635786  0.030045226            1 
  686000   0.98491308   -7.0601976    243.66407   0.02959962  0.030026076            3 
  687000   0.97217008   -7.0780554    244.27096  0.029630151  0.030006819            3 
  688000   0.99522835   -7.0707543     243.7697  0.029526369  0.029987697            2 
  689000   0.97277028   -7.0540314    243.90373  0.029499725   0.02996867            3 
  690000   0.96379323   -7.0788945    244.43995  0.029521733  0.029949545            3 
  691000   0.99627429   -7.0651476    244.94023  0.029539342  0.029930254            2 
  692000    1.0037002   -7.0846675    244.43854   0.02943624  0.029911202            3 
  693000   0.96765618   -7.0838039    245.05861  0.029468328  0.029892204            2 
  694000    1.0019155    -7.048536     245.5199  0.029481256  0.029873159            2 
  695000   0.98626911   -7.0380868    247.23706  0.029644731  0.029854118            2 
  696000   0.99742548   -7.0606392    245.72237  0.029420782  0.029834824            2 
  697000     0.973205   -7.0301051    246.22526  0.029438697  0.029815643            3 
  698000   0.97098056   -7.0581965    245.81942  0.029348068  0.029796289            2 
  699000   0.97855634   -7.0227792     246.1331  0.029343479  0.029776875            2 
  700000   0.98391107    -7.083907    245.66292  0.029245585  0.029757348            6 
  701000   0.99472403   -7.0458752    246.04102  0.029248813  0.029737505            4 
  702000   0.98923138   -7.0459792    246.36452  0.029245551  0.029717776            5 
  703000   0.97511176   -7.0385956    247.18309  0.029300983  0.029698202            4 
  704000   0.97694556   -7.0587565    247.17948  0.029258934  0.029678712            2 
  705000    1.0032287   -7.0705582    247.38841  0.029242129  0.029659275            3 
  706000   0.97076891   -7.0688817    247.15284  0.029172904  0.029639877            2 
  707000    0.9600223   -7.0606572    247.89035   0.02921857  0.029620547            2 
  708000   0.98804298   -7.0985827    247.22798  0.029099338  0.029600964            2 
  709000   0.95660692   -7.0472712    248.48907   0.02920652  0.029581537            2 
  710000   0.98290837   -7.0727246    248.74179  0.029195046  0.029562173            6 
  711000   0.97635613   -7.0661457    248.43788  0.029118364  0.029542912            3 
  712000   0.94678197   -7.0848307    249.24811  0.029172298  0.029523605            1 
  713000   0.96010358     -7.11275    248.91026  0.029091895  0.029504428            6 
  714000   0.97708297   -7.0745433    249.07795  0.029070723  0.029485056            2 
  715000   0.98140394    -7.048605    249.37434  0.029064608  0.029465843            4 
  716000   0.95524035   -7.1017238    250.71131  0.029179622  0.029447051            1 
  717000   0.93994153   -7.0766884    249.96565   0.02905226  0.029428107            3 
  718000   0.97392169   -7.0777164    250.23846  0.029043461  0.029409186            2 
  719000   0.96465774   -7.0828677    250.75463  0.029062892  0.029390558            2 
  720000   0.95616522   -7.0317685    251.03363  0.029054819   0.02937221            2 
  721000   0.95496459   -7.0708199    251.74261  0.029096464  0.029353813            9 
  722000   0.94986739   -7.0658836     251.3826  0.029014613  0.029335259            1 
  723000   0.96987237   -7.1167388     251.5822  0.028997488  0.029316631            6 
  724000   0.96424518   -7.0835314    251.97372  0.029002499  0.029297931            5 
  725000   0.96794884   -7.0830757    251.86469  0.028949965  0.029279184            2 
  726000   0.96193036   -7.0693399    251.34926  0.028850925  0.029260066            3 
  727000    0.9445385   -7.0923126    252.34244  0.028925085  0.029241175            2 
  728000   0.95510442   -7.1078943     252.0848  0.028855861  0.029222029            4 
  729000   0.98146747   -7.0797431     252.7068   0.02888738  0.029203012            2 
  730000   0.96778823   -7.1008874    252.07999  0.028776255  0.029184103            2 
  731000   0.96482747   -7.0765748    253.19643  0.028864162   0.02916509            2 
  732000   0.94864058   -7.1004201    252.61911  0.028759007  0.029146243            3 
  733000   0.96233791   -7.0857263    253.46099  0.028815483   0.02912738            3 
  734000   0.97652564   -7.1120966    253.43971  0.028773809  0.029108675            3 
  735000   0.93759867     -7.09445    254.17566  0.028818102  0.029090046            2 
  736000   0.94268855    -7.077872    254.24876  0.028787224  0.029071725            2 
  737000   0.94320327   -7.1066564    253.18609  0.028628007  0.029053001            3 
  738000   0.96360465   -7.1332062    253.57874  0.028633552  0.029034294            2 
  739000   0.96826486   -7.1013247    254.50354  0.028699091  0.029015122            4 
  740000   0.96331891    -7.096292    254.09978   0.02861484   0.02899618            5 
  741000   0.98687625   -7.0721895    254.60575  0.028633125  0.028977145            2 
  742000    0.9678643   -7.1231507    254.32741  0.028563276  0.028958248            6 
  743000   0.97002464   -7.1023922    254.83254  0.028581487  0.028939572            3 
  744000   0.93638343    -7.084269    255.03845  0.028566135  0.028920869            3 
  745000    0.9464298   -7.0985043    255.23764  0.028550071   0.02890216            4 
  746000   0.93169568   -7.1044722    255.09267  0.028495607  0.028883006            4 
  747000   0.95175415   -7.1063516    255.72442  0.028527936  0.028863813            2 
  748000   0.96290262   -7.1058019    255.56663  0.028472218  0.028844659            6 
  749000    0.9380206   -7.1188946    255.52881  0.028429997  0.028825623            2 
  750000    0.9607854   -7.1439827     255.8532  0.028428133  0.028806295            4 
  751000   0.96032372   -7.1069275    256.49646  0.028461658  0.028787199            6 
  752000   0.95407762   -7.1267993    257.20992  0.028502872  0.028768236            2 
  753000    0.9385332   -7.1123788    256.71442  0.028410184  0.028749466            4 
  754000   0.97289353   -7.1353198    256.80288  0.028382281  0.028730538            3 
  755000    0.9487123    -7.114261    256.98495  0.028364785   0.02871163            3 
  756000   0.94623333   -7.1534513    256.77312  0.028303916  0.028692626            4 
  757000   0.95161509   -7.1182851    257.28953  0.028323374  0.028673345            3 
  758000   0.94619845   -7.1290461    257.29205  0.028286285  0.028654318            3 
  759000    0.9782101   -7.1097731    258.09167  0.028336811   0.02863534            3 
  760000   0.98212295   -7.0792958    258.57052  0.028352031  0.028616726            2 
  761000   0.96142187   -7.1134029    258.01884  0.028254363  0.028598032            3 
  762000   0.94692019   -7.0975406    259.05475  0.028330572  0.028579197            2 
  763000   0.96283734   -7.1212048    258.76656  0.028261966  0.028560593            2 
  764000   0.95057313   -7.1391023    258.91268  0.028240912  0.028541793            6 
  765000   0.96054817   -7.1298582    259.62371   0.02828145   0.02852305            5 
  766000   0.94168513   -7.1526331    258.71584  0.028145761  0.028504138            3 
  767000   0.94039253   -7.1397216    259.21708  0.028163524  0.028484974            2 
  768000   0.95207575   -7.1501341    259.15411   0.02812002  0.028465933            2 
  769000   0.94834855   -7.1135966    259.58559  0.028130212  0.028446746            2 
  770000   0.95638838   -7.1236451     259.4829  0.028082565  0.028427673            3 
  771000   0.97271077    -7.145445    259.68139  0.028067595  0.028408515            2 
  772000   0.94150468   -7.1370649    260.40607  0.028109464  0.028389294            2 
  773000   0.95761283   -7.1198521    259.46413  0.027971554  0.028369996            1 
  774000   0.93619092   -7.1329607    259.68157  0.027958826  0.028350708            4 
  775000   0.93541183   -7.1419037    259.93962  0.027950496   0.02833135            5 
  776000   0.92829046   -7.1344237    260.63894  0.027989577  0.028311926            2 
  777000   0.93407858   -7.1391304    260.15495  0.027901646  0.028292688            3 
  778000   0.97189447    -7.109132    261.70003   0.02803128  0.028273725            4 
  779000   0.93903029   -7.1489891    260.83836  0.027903119  0.028254647            3 
  780000    0.9655834   -7.1476743    260.79684   0.02786291  0.028235504            2 
  781000   0.96226676   -7.1493096     261.6341  0.027916571  0.028216144            4 
  782000   0.91692758   -7.1642781    260.65114  0.027776124  0.028196813            4 
  783000   0.92525178   -7.1510197    260.71031  0.027746947  0.028177357            4 
  784000   0.94366999   -7.1369848    261.79225  0.027826558  0.028157965            2 
  785000   0.93526609   -7.1347518     260.7634   0.02768189  0.028138714            4 
  786000   0.95704896   -7.1625756    261.24546   0.02769778   0.02811946            3 
  787000   0.93780877   -7.1397254    262.07906  0.027750854   0.02809996            2 
  788000   0.94361891   -7.1019099    262.82247  0.027794255  0.028080706            2 
  789000   0.93978387   -7.1198339    262.49089  0.027724006  0.028061521            3 
  790000   0.93561891    -7.140278    262.72255  0.027713349  0.028042234            1 
  791000   0.92304861   -7.1703357     262.7528    0.0276815  0.028022868            6 
  792000    0.9789267   -7.1523482    262.24658  0.027593285  0.028003326            8 
  793000   0.93574705   -7.1366973    262.97477  0.027635011  0.027983979            4 
  794000   0.92722926   -7.1303286    263.36544  0.027641209  0.027964806            2 
  795000   0.92926016   -7.1948197    262.43364  0.027508767  0.027945313            4 
  796000   0.93640913   -7.1770797    262.84971  0.027517767  0.027925748            7 
  797000   0.93305003    -7.151607    263.70324  0.027572484  0.027906457            3 
  798000   0.95856557   -7.1359173    264.17205  0.027586889   0.02788743            4 
  799000   0.94723589   -7.1475636    264.60094  0.027597095  0.027868458            1 
  800000   0.92457904   -7.1288096    264.62644  0.027565254   0.02784959            4 
  801000   0.91669737   -7.1953487    264.29074  0.027495916  0.027830759            3 
  802000   0.93159761    -7.164959    264.80766  0.027515343  0.027811643            4 
  803000    0.9345858   -7.1514721    264.86355  0.027486877   0.02779255            9 
  804000   0.92442065   -7.1336229    265.31126  0.027499094   0.02777343            2 
  805000   0.95355431   -7.1359265    265.31451   0.02746527   0.02775431            1 
  806000    0.9394243   -7.1614779    264.93544  0.027392001  0.027735319            2 
  807000   0.95177799   -7.1786296    265.39488  0.027405502  0.027716072            3 
  808000   0.92622912   -7.1579817     265.2217  0.027353724  0.027696768            2 
  809000   0.93768938   -7.1363456    265.94624  0.027394544   0.02767758            2 
  810000   0.92322039   -7.1775583    265.02525  0.027265972   0.02765841            2 
  811000    0.9582287   -7.1584662    265.59921  0.027291329  0.027639213            3 
  812000   0.93177584   -7.1799329    265.42158  0.027239489  0.027619912            2 
  813000   0.93505619   -7.1583929    265.36089  0.027199763  0.027600485            4 
  814000   0.93400153   -7.1593632    266.30629  0.027263133  0.027581232            3 
  815000   0.91727614   -7.1805564    266.38604  0.027237837  0.027562228            6 
  816000   0.93124438   -7.1493361    267.01319  0.027268504  0.027543238            2 
  817000   0.91943843   -7.1210079    267.54322   0.02728919  0.027524215            3 
  818000   0.93971412   -7.1493312    267.13965  0.027214716  0.027505412            4 
  819000   0.91263546   -7.1566282    267.62584  0.027230956  0.027486268            3 
  820000   0.92065549   -7.1748653    267.02791  0.027136982  0.027467188            4 
  821000   0.95087562   -7.1311101    267.64884  0.027166955  0.027448049            2 
  822000   0.92250288   -7.1608048    267.50085  0.027118902  0.027428871            2 
  823000   0.92251532   -7.1708202    267.10392   0.02704576  0.027409619            4 
  824000    0.9270325   -7.1780096    268.23679  0.027127507    0.0273905            1 
  825000   0.92407158   -7.1748304    268.69036   0.02714044  0.027371524            1 
  826000    0.9111096    -7.171724    268.01019  0.027038962  0.027352906            2 
  827000   0.92625032   -7.1662426    268.53915  0.027059568  0.027334136            3 
  828000   0.94107903   -7.1743013     268.8233  0.027055485  0.027315517            3 
  829000    0.9256274   -7.1628373    268.91887  0.027032456  0.027296979            2 
  830000   0.91620842   -7.1816331    268.88164  0.026996149  0.027278355            4 
  831000   0.92021732    -7.196364    269.40848  0.027016494  0.027259494            3 
  832000   0.94253314   -7.1985953    268.95513  0.026938615  0.027240772            4 
  833000   0.92011133   -7.1526757    270.04414   0.02701522  0.027222279            3 
  834000   0.92089754   -7.1871525    270.43318  0.027021701  0.027203742            2 
  835000   0.94273531    -7.162087     270.4272  0.026988742   0.02718536            2 
  836000   0.90580667   -7.1680964    270.55877  0.026969575  0.027166915            3 
  837000   0.91411081   -7.1989839    270.06354  0.026888047  0.027148377            5 
  838000   0.91976656   -7.1820954    270.84258  0.026933431  0.027129973            4 
  839000   0.91799365   -7.1845747    271.37362  0.026954075  0.027111652            3 
  840000   0.91561413   -7.1838542    270.91623  0.026876611  0.027093321            2 
  841000   0.91951657   -7.1803341    270.49795  0.026803205  0.027074716            3 
  842000   0.92708117   -7.1972168    270.76285   0.02679759  0.027056119            3 
  843000   0.91928274   -7.1908395    271.04612  0.026793803  0.027037633            3 
  844000   0.92234615   -7.2120752    270.95296   0.02675286  0.027018915            2 
  845000   0.89210416    -7.201597    271.95663  0.026820181  0.027000123            1 
  846000   0.91886764   -7.2063767    271.66308  0.026759563   0.02698141            4 
  847000    0.9198681   -7.1846438    271.21703  0.026684084  0.026962852            3 
  848000   0.90251795   -7.2032264    272.38864  0.026767752  0.026944372            4 
  849000   0.90584492   -7.1989106    272.58682  0.026755675  0.026925967           10 
  850000   0.91399513   -7.1927459    272.47957  0.026713683  0.026907721            4 
  851000   0.91970921   -7.1474159    273.93446  0.026824761  0.026889815            3 
  852000   0.90853803   -7.1715972    272.87909  0.026690051   0.02687202            3 
  853000   0.91065907   -7.1765024    273.37983  0.026707681  0.026854048            3 
  854000    0.8919833   -7.2090211    273.53547  0.026691595  0.026835981            4 
  855000   0.91505589   -7.1769678    273.26498  0.026634014  0.026817954            7 
  856000   0.89581071   -7.2008662    274.02963   0.02667734  0.026799943            4 
  857000   0.90594366   -7.1918015    274.86773  0.026727706  0.026782171            2 
  858000   0.90547694   -7.2043817    274.27087  0.026638585  0.026764544            4 
  859000    0.9334628   -7.2112763     274.8122  0.026660089  0.026746843            3 
  860000   0.89991976    -7.190911    275.16365  0.026663144  0.026729297            2 
  861000   0.89132155   -7.1953072    275.15647  0.026631482  0.026711754            3 
  862000    0.9017955   -7.2169439    274.96796  0.026582363  0.026694116            2 
  863000   0.90871044   -7.1876912    275.85594  0.026637306  0.026676471            1 
  864000   0.90395165   -7.1995218    275.94312  0.026614884  0.026659126            3 
  865000   0.90730308   -7.2092411     275.8008  0.026570405   0.02664179            4 
  866000   0.91036423   -7.2145165    276.19818  0.026577962  0.026624301            2 
  867000   0.90213917   -7.2361139    276.64503  0.026590256  0.026606979            3 
  868000   0.92873722   -7.2270581    276.25468  0.026522147  0.026589492            2 
  869000   0.91238138   -7.2130354    276.61238  0.026525928  0.026572069            4 
  870000    0.9229459   -7.2319259    276.36053  0.026471315  0.026554673            3 
  871000   0.92065696   -7.2045491    276.89906  0.026492448  0.026537264            3 
  872000   0.90973629   -7.1890793     276.2847  0.026403354  0.026520047            5 
  873000   0.90983856   -7.2269053    277.09814  0.026450758  0.026502807            4 
  874000   0.87799965   -7.1905429    277.68911  0.026476841  0.026485549            3 
  875000   0.91171014   -7.2110093     277.4408  0.026422933  0.026468373            4 
  876000   0.89259192   -7.2249237    278.13022  0.026458354  0.026451274            5 
  877000   0.92021961   -7.2332653    277.19308  0.026339137   0.02643407            4 
  878000   0.91563676   -7.2028938    278.36113  0.026420001  0.026416811            6 
  879000   0.90204036   -7.2217931     278.1064  0.026365795  0.026399726            4 
  880000   0.90681185   -7.2055544    278.66344  0.026388584  0.026382605            3 
  881000   0.89500585   -7.1871042    278.51776   0.02634485   0.02636543            2 
  882000   0.90669224   -7.2727368    278.30679  0.026295048  0.026348097            4 
  883000   0.89591758   -7.2301917    278.59296  0.026292277   0.02633098            8 
  884000    0.9002484   -7.2318722     279.1918  0.026318986   0.02631393            5 
  885000   0.88186117    -7.194477    279.78247  0.026344865  0.026296958            4 
  886000   0.88908446    -7.201654    279.01467  0.026242915  0.026280066            5 
  887000    0.8855867   -7.2454234    279.38986  0.026248578  0.026262976            6 
  888000   0.90106163   -7.2412683    279.97193  0.026273642  0.026245758            3 
  889000   0.89942883   -7.2252778    279.87758  0.026235244  0.026228555            3 
  890000   0.89733746   -7.2577557    280.09358  0.026225991  0.026211613            3 
  891000   0.90085935   -7.2295248    280.36537  0.026221976  0.026194774            4 
  892000   0.89895593   -7.2395343    280.79328  0.026232556  0.026177856            4 
  893000   0.89654794   -7.2346491    280.64266  0.026189125  0.026160845            4 
  894000   0.89595639   -7.2621731    279.73283  0.026075022  0.026143748            3 
  895000   0.90205326   -7.2020678    281.05941  0.026169405  0.026126732            5 
  896000   0.90659974   -7.2199827     280.6609  0.026103135  0.026109795            5 
  897000   0.88576577   -7.2331555    281.22108  0.026126076  0.026092838            2 
  898000   0.88015316    -7.240111    281.05669  0.026081727  0.026075858            5 
  899000   0.88449694   -7.2483327    281.19772  0.026065788  0.026058901            5 
  900000   0.87762608   -7.2339971    281.14173  0.026031642  0.026041904            4 
  901000   0.87533622   -7.2583111    281.35834  0.026022784  0.026024777            4 
  902000   0.88638412   -7.2215474    281.88247  0.026042356  0.026007625            6 
  903000   0.88988993   -7.2557014    281.11323  0.025942528  0.025990386            3 
  904000   0.88370637   -7.2452228    282.11017  0.026005731   0.02597333            4 
  905000   0.88339277   -7.2785168    281.64665  0.025934314  0.025956201            2 
  906000   0.87933324   -7.2292831     281.8348  0.025922995  0.025939022            5 
  907000   0.91182574   -7.2353577    282.24358  0.025931972  0.025921955            5 
  908000   0.88206588   -7.2490436    282.14117  0.025894013  0.025904858            2 
  909000   0.90365645   -7.2634601    282.21949  0.025872707  0.025887782            2 
  910000    0.8828443   -7.2686078    282.31794  0.025853291  0.025870543            2 
  911000   0.87049915   -7.2383263     281.8556   0.02578262   0.02585328            5 
  912000   0.88340321   -7.1999891    282.51146  0.025814278  0.025836026            3 
  913000   0.87232319   -7.2237077    282.94376  0.025825462  0.025818774            4 
  914000   0.87971792   -7.2609225    282.85131  0.025788778  0.025801559            9 
  915000   0.88059451   -7.2786891    282.75358  0.025751692  0.025784403            5 
  916000   0.89694318   -7.2264329     283.8801  0.025826064  0.025767142            4 
  917000   0.88755418   -7.2386319    283.14565  0.025731157  0.025749936            3 
  918000   0.89324792   -7.2580125    282.97269  0.025687427  0.025732689            2 
  919000   0.86807268   -7.2820256    283.21289  0.025681256  0.025715407            5 
  920000    0.8756483   -7.2600763    284.15914  0.025739052  0.025698037            7 
  921000   0.88255074   -7.2432698    283.88559  0.025686354  0.025680776            3 
  922000   0.88884584   -7.2494986    284.37054  0.025702326  0.025663609            2 
  923000   0.90076607   -7.2691933    283.92702  0.025634437   0.02564662            6 
  924000   0.87702472   -7.2479098    284.19691  0.025631034  0.025629629            5 
  925000   0.88300966   -7.2216131    284.65274  0.025644391  0.025612747            2 
  926000    0.9140007   -7.2470699    285.11007  0.025657853  0.025595747            3 
  927000   0.87498061   -7.2528441    284.02289  0.025532443   0.02557868            4 
  928000   0.88036171   -7.2378671    284.68828   0.02556468  0.025561462            3 
  929000   0.87852567   -7.3065517    283.73402  0.025451562  0.025544113            3 
  930000   0.87388391   -7.2734506    284.54107  0.025496511  0.025526818            2 
  931000   0.88238014   -7.2461659    285.86513  0.025587642  0.025509744            4 
  932000   0.87507255   -7.2696273    285.16129  0.025497254  0.025492754            3 
  933000   0.88073177   -7.2698616    285.41673  0.025492741  0.025475636            2 
  934000   0.89814243   -7.2826868    284.60827  0.025393315  0.025458424            6 
  935000   0.89252579   -7.2557466     285.8953  0.025480865  0.025441304            3 
  936000   0.87130382   -7.2786829    284.91713  0.025366553  0.025424186            2 
  937000   0.87816342    -7.283696    286.12149  0.025446593  0.025406903            6 
  938000   0.90858718   -7.2849407    286.36701  0.025441277  0.025389831            4 
  939000    0.8730455   -7.2664405    285.84457  0.025367818  0.025372809            7 
  940000   0.90731177     -7.25985    285.74559  0.025332056  0.025355847            7 
  941000   0.87781286   -7.2408023    285.63336  0.025295197  0.025338701            7 
  942000   0.88473123    -7.273291      286.615  0.025355184  0.025321561            4 
  943000   0.86941817   -7.2609697    287.27365  0.025386501  0.025304556            3 
  944000   0.88510473   -7.2744966    286.67783  0.025307012  0.025287562            2 
  945000   0.88742492   -7.2889188    287.19873  0.025326167  0.025270765            5 
  946000    0.8619758   -7.2790385    287.38185  0.025315526  0.025253971            2 
  947000   0.87699533    -7.289126    287.95297   0.02533905  0.025237109            5 
  948000   0.86119772   -7.2859545    287.51819  0.025274103  0.025220309            4 
  949000   0.87568107   -7.2861275    288.13979  0.025302054  0.025203311            2 
  950000   0.88683658   -7.2763821    288.46756  0.025304172  0.025186357            3 
  951000   0.87214565   -7.2941903    287.29448   0.02517477  0.025169327            2 
  952000   0.86920391   -7.2761301    287.49873  0.025166206  0.025152401            4 
  953000   0.85902341   -7.2985588    287.94021  0.025178403  0.025135459            4 
  954000   0.86820862   -7.2581105    287.41328  0.025105982  0.025118433            8 
  955000   0.86265119   -7.2961338    287.90804  0.025122866  0.025101465            3 
  956000   0.85258823   -7.2708908    288.58613  0.025155695  0.025084596            5 
  957000   0.87792447   -7.2697812    288.69541  0.025138924  0.025067543            4 
  958000   0.85865537   -7.2932877    288.05558  0.025057027  0.025050557            2 
  959000   0.87748364   -7.2788624    287.23651  0.024959724  0.025033341            3 
  960000    0.8714756   -7.2763241    288.59513  0.025051661  0.025016402            3 
  961000   0.87255009   -7.2800673    288.83922  0.025046758  0.024999609            4 
  962000   0.85692485   -7.2656538    288.29044  0.024973185  0.024982479            2 
  963000   0.87598789   -7.2921952    287.64979  0.024891813  0.024965102            2 
  964000   0.87822794    -7.291584    288.45293  0.024935419  0.024947718            3 
  965000   0.87351581    -7.301715    288.78185  0.024937984  0.024930366            3 
  966000   0.88632854   -7.2951547     288.0243  0.024846817  0.024912894            7 
  967000   0.86772809   -7.3246805    288.25014  0.024840585  0.024895418            5 
  968000   0.86394661    -7.289533    288.43567  0.024830895  0.024878106            4 
  969000   0.86810533   -7.2945695    288.62785  0.024821797   0.02486066            4 
  970000   0.85530939   -7.2963126    288.68718  0.024801305  0.024843302            4 
  971000   0.87335174    -7.291926    290.00177  0.024888583  0.024825935            4 
  972000    0.8570925   -7.3016279    289.05065  0.024781434   0.02480865            9 
  973000   0.86408325   -7.3032382    289.15574  0.024764965  0.024791344            7 
  974000   0.86416306    -7.298162     289.7274   0.02478845  0.024773997            5 
  975000   0.87374753   -7.3310174    289.68536  0.024759433  0.024756527            3 
  976000   0.86937079    -7.312982     289.6651  0.024732334  0.024739088            2 
  977000    0.8729082   -7.3303146    289.27954  0.024674134  0.024721824            3 
  978000   0.84788228   -7.3145543    289.34556  0.024654529  0.024704436            6 
  979000    0.8695722   -7.2999824    289.74878  0.024663669   0.02468709            8 
  980000   0.85878452   -7.2886815    290.67401  0.024717178  0.024669848            3 
  981000   0.86395931   -7.3293327    290.36945  0.024666111  0.024652514            6 
  982000   0.86546534   -7.3103158    291.22086  0.024713243  0.024635224            4 
  983000   0.84785802   -7.2890632    290.07727  0.024591156  0.024617853            3 
  984000    0.8640577   -7.3197635    289.72668  0.024536473  0.024600433            9 
  985000   0.85546287   -7.3175859    290.02773  0.024537033  0.024582952            4 
  986000    0.8551519   -7.3081226    290.24328  0.024530365  0.024565681            4 
  987000   0.86424961   -7.3303178    290.08374  0.024492041  0.024548242            4 
  988000   0.84688771   -7.3314301    290.61325  0.024511914  0.024530709            2 
  989000   0.86651735   -7.3266097    290.48651   0.02447645  0.024513104            9 
  990000   0.85060531   -7.3486101    290.34219  0.024439578  0.024495604            1 
  991000   0.85359971   -7.3085792    290.91573  0.024463146  0.024478242            4 
  992000   0.84832861   -7.3120648    290.83882  0.024432024  0.024460792            2 
  993000   0.85391991    -7.305033    291.23549  0.024440709  0.024443391            5 
  994000   0.85006334   -7.3291331    290.72673  0.024373469  0.024425999            5 
  995000   0.85931314   -7.3083315    291.22571  0.024390763  0.024408627            3 
  996000    0.8579739   -7.3181717     291.2758  0.024370465  0.024391222            6 
  997000   0.86480268    -7.320686    291.04929  0.024327089  0.024373839            4 
  998000   0.85034553   -7.3510777     291.0015  0.024298722  0.024356605            2 
  999000   0.85723236    -7.332853    292.10533  0.024366477  0.024339299            4 
 1000000   0.84750457   -7.3060771    291.98712   0.02433226  0.024322074            4 
 1001000     0.854154   -7.3016453    292.39684  0.024342061  0.024304726            2 
 1002000   0.84630227   -7.3625455    291.00511  0.024202021  0.024287272            3 
 1003000    0.8399235   -7.3476973    291.96003  0.024257231  0.024269678            4 
 1004000   0.83684526   -7.3097097    292.91134   0.02431203  0.024252357            5 
 1005000   0.85333873   -7.3140613     292.1421  0.024224054  0.024235018            4 
 1006000   0.87726241   -7.3151999    291.81894  0.024173205  0.024217634            2 
 1007000   0.85488154   -7.3304806    292.93625  0.024241662  0.024200436            4 
 1008000   0.86608678   -7.3283675    292.85978  0.024211292  0.024183049            3 
 1009000   0.83833664   -7.3499171     292.7705  0.024179923  0.024165614            9 
 1010000   0.84712216   -7.3450296    292.71123  0.024151091  0.024148203            5 
 1011000   0.85843264   -7.3084791    293.26347  0.024172723  0.024130988            2 
 1012000    0.8554397    -7.316943    293.58372  0.024175208   0.02411394            3 
 1013000   0.83455899   -7.3463157    293.45875  0.024141062  0.024096933            3 
 1014000   0.84282666   -7.3399198    292.98791  0.024078559  0.024079858            3 
 1015000    0.8471278   -7.3258039    293.24491  0.024075937  0.024062806            2 
 1016000   0.83557516   -7.3204773    293.65756  0.024086086  0.024045702            1 
 1017000   0.85969661   -7.3298049    293.85902   0.02407891  0.024028579           11 
 1018000   0.83608127   -7.3533662     293.3563  0.024014104  0.024011448            6 
 1019000   0.84511971   -7.3414286    294.23191  0.024062145  0.023994186            4 
 1020000   0.82704029   -7.3326049    294.35897  0.024048936  0.023977041            5 
 1021000    0.8261331   -7.3569472    294.21353   0.02401351   0.02395991            2 
 1022000   0.82968088   -7.3494845    294.33754  0.024000126   0.02394284            3 
 1023000   0.82815434   -7.3572025    294.18536  0.023964269  0.023925769            9 
 1024000   0.84293852   -7.3581485    294.11949  0.023935505   0.02390866            3 
 1025000    0.8499423   -7.3407261    294.88264  0.023974199  0.023891685            8 
 1026000   0.83760463   -7.3497292    294.28093   0.02390196  0.023874598           11 
 1027000   0.84179055    -7.333582    294.73395  0.023915446  0.023857452            8 
 1028000   0.82753359   -7.3272631    294.51366  0.023874324  0.023840374            5 
 1029000   0.83746349   -7.3288633     295.2648  0.023911954  0.023823459            5 
 1030000   0.82997459   -7.3360524    295.13691  0.023878391  0.023806759            6 
 1031000   0.83735363   -7.3407746    294.91117  0.023836984  0.023789925            5 
 1032000    0.8489812   -7.3462141    295.28977  0.023844458  0.023773027            2 
 1033000   0.82297613   -7.3517242    296.28413  0.023901592  0.023756273            5 
 1034000    0.8297163   -7.3372831    296.35816  0.023884443  0.023739621            5 
 1035000   0.85110071   -7.3614416    295.58909  0.023799444  0.023722915            3 
 1036000   0.85298907   -7.3873469    295.25371  0.023749494  0.023706057            9 
 1037000   0.83782746   -7.3671349    295.35159  0.023734458  0.023689104            7 
 1038000   0.85029381   -7.3714935    295.14208  0.023694772  0.023672153            4 
 1039000    0.8522362   -7.3536622    295.72365  0.023718612  0.023655165            4 
 1040000   0.84016093   -7.3363672    295.75654  0.023698441  0.023638094            6 
 1041000   0.84283814   -7.3706488    296.01429  0.023696309   0.02362113            8 
 1042000   0.83416166   -7.3228133    296.48178  0.023710955  0.023604233            2 
 1043000   0.84250549   -7.3593295    295.88007  0.023640146  0.023587302            4 
 1044000   0.84138067    -7.359762    295.92997  0.023621485  0.023570392            5 
 1045000   0.85178057   -7.3468356    296.69753   0.02366009  0.023553653            3 
 1046000   0.84038126   -7.3495893    296.77598   0.02364372  0.023536845            8 
 1047000    0.8187887   -7.3525262    297.26284  0.023659889  0.023520092            6 
 1048000   0.84197106   -7.3632115    296.63834  0.023587654  0.023503463            4 
 1049000   0.82572697   -7.3814813     296.9079  0.023586582  0.023486966            5 
 1050000   0.83734937   -7.3484052    297.91243  0.023643844  0.023470461            5 
 1051000   0.84709827   -7.3753871     297.3094  0.023573533  0.023453995            3 
 1052000   0.83783202   -7.3504149    297.68663  0.023581007  0.023437456            5 
 1053000   0.83692143   -7.3258502    298.42061  0.023616699   0.02342102            8 
 1054000   0.82569204   -7.3687298    298.38937  0.023591823  0.023404623            6 
 1055000    0.8342431   -7.3991099    297.86789  0.023528269  0.023388166            4 
 1056000   0.81616336   -7.3700653    298.37412  0.023545938  0.023371662            3 
 1057000   0.83311158   -7.3866857    297.49655  0.023454474  0.023355186            5 
 1058000   0.84273029   -7.3874621    297.97279  0.023469816  0.023338762            6 
 1059000   0.84782669   -7.3989051    298.13683  0.023460563   0.02332222            3 
 1060000     0.805096   -7.3666977    298.44774  0.023462873  0.023305762            5 
 1061000   0.83037761   -7.3990788     298.1125  0.023414428  0.023289334            2 
 1062000   0.81192795   -7.3844675    298.50625  0.023423278  0.023273026            2 
 1063000   0.83265087   -7.4264547    299.28318  0.023462149  0.023256842            3 
 1064000   0.83262048   -7.3628942    299.24279  0.023436935  0.023240757            2 
 1065000    0.8492075   -7.3584415    299.68585  0.023449597  0.023224606            5 
 1066000    0.8236909   -7.3855839    299.20039  0.023389649  0.023208505            5 
 1067000   0.84552826   -7.3810492    299.52332  0.023392949  0.023192453            4 
 1068000   0.81831136   -7.3751875      299.348  0.023357366   0.02317632           10 
 1069000   0.81781667   -7.3878767    300.21578  0.023403163  0.023160163            4 
 1070000   0.81115889   -7.4177182    299.59279  0.023332772  0.023143977            3 
 1071000   0.81650034   -7.3954911    299.09355   0.02327214  0.023127778            3 
 1072000   0.81378462   -7.3853458    299.63294  0.023292362  0.023111729            3 
 1073000   0.83337136   -7.3883427    300.00255  0.023299359  0.023095595            7 
 1074000   0.83157216   -7.3823571    299.80783  0.023262557  0.023079511            3 
 1075000   0.81196279   -7.3875148    299.14265  0.023189353  0.023063292            4 
 1076000   0.84349757   -7.3983955    300.10449  0.023242293  0.023047116            3 
 1077000   0.82431788   -7.3919661    300.71071  0.023267619  0.023030965            3 
 1078000   0.82100751   -7.4034804    300.61944   0.02323898  0.023014817            5 
 1079000   0.80656015   -7.3882901    300.45417  0.023204678  0.022998664            1 
 1080000   0.81586603   -7.4020475    300.43238  0.023181511  0.022982529            8 
 1081000   0.83048803   -7.4242273    300.18223  0.023140782  0.022966315            4 
 1082000   0.82271468    -7.386511    299.83146   0.02309238  0.022950105            3 
 1083000   0.81418089   -7.4200869    300.00674  0.023084544   0.02293385            5 
 1084000   0.80510424   -7.4122506    300.52384  0.023103001   0.02291759            6 
 1085000   0.82037129   -7.3950091    300.55299  0.023083947  0.022901431            3 
 1086000   0.82818426   -7.3784735    301.32092  0.023121618  0.022885379            4 
 1087000   0.80706425     -7.38052    301.51409  0.023115155    0.0228694            2 
 1088000   0.82933155   -7.4175663    301.55331  0.023096914  0.022853318           10 
 1089000    0.8191161   -7.4000874    300.82873  0.023020258  0.022837286            8 
 1090000   0.82076004   -7.4048613    300.66214  0.022986402  0.022821234           14 
 1091000   0.83627429   -7.4272736    300.51519  0.022954109  0.022805092            2 
 1092000   0.80691388   -7.4162164    300.69585  0.022946875  0.022788933            4 
 1093000   0.80564841   -7.4210575    301.40737  0.022980129  0.022772717            5 
 1094000   0.81809038   -7.3834849    301.07545   0.02293384  0.022756501            4 
 1095000   0.80969163   -7.3977842    301.54961  0.022948981  0.022740307            5 
 1096000   0.82640129    -7.406928    301.35897  0.022913547  0.022724172           13 
 1097000   0.81003915   -7.3961051    301.43785  0.022898652   0.02270803            4 
 1098000   0.81543359   -7.3890876    302.02893  0.022922657  0.022691953            3 
 1099000    0.8230979   -7.4218872    301.05358  0.022827842  0.022675718            2 
 1100000   0.80807879   -7.3962508    301.59486  0.022848096  0.022659462            3 
 1101000   0.81150013   -7.4131857    301.95958  0.022854948  0.022643169            5 
 1102000   0.82611092   -7.4305198    301.62892  0.022809205  0.022626992            3 
 1103000   0.80973573   -7.4025572    302.22136  0.022833285  0.022610798            7 
 1104000   0.80909372   -7.4168634    302.27458   0.02281662  0.022594645            4 
 1105000   0.83245078   -7.4151099    302.10729  0.022783355  0.022578506            6 
 1106000   0.81756088   -7.4442075    302.13998  0.022765219   0.02256239            6 
 1107000   0.80812234   -7.4204753     301.9382  0.022729464  0.022546415            3 
 1108000   0.79990583   -7.4002218    302.74936  0.022769958  0.022530491            3 
 1109000   0.79703452   -7.4320196    302.08741  0.022699685  0.022514457            3 
 1110000   0.81321935   -7.3998721    303.38932  0.022776976  0.022498426            8 
 1111000   0.79274274   -7.4190431    302.73827  0.022707641  0.022482374            5 
 1112000   0.82517349   -7.4582121    302.39391  0.022661414  0.022466334            6 
 1113000   0.81681813   -7.3965326    302.61962  0.022657953  0.022450302            6 
 1114000     0.804879   -7.4372166    302.40036  0.022621212  0.022434371            6 
 1115000   0.80860636   -7.4279198     303.3421  0.022671308  0.022418467            5 
 1116000   0.80084351   -7.4086909    303.57528  0.022668405  0.022402556            7 
 1117000   0.81035898   -7.4185485    302.83095   0.02259258  0.022386674            4 
 1118000   0.81678785   -7.4183317    303.57636  0.022627934   0.02237072            4 
 1119000   0.84072814   -7.4361548     303.4334  0.022597065  0.022354804            4 
 1120000   0.81131534   -7.4320375    303.49985  0.022581834  0.022338805            3 
 1121000   0.78855911   -7.4214171    303.78937  0.022583212  0.022322869            3 
 1122000   0.81320344   -7.4318713    303.56969  0.022546768  0.022306979            3 
 1123000   0.78530261   -7.4079659    303.38021   0.02251263  0.022290936            2 
 1124000   0.80953144   -7.4597787     303.3555  0.022490769  0.022274937            8 
 1125000   0.79579824   -7.4394802    303.03319  0.022446903  0.022258864            3 
 1126000   0.81246879   -7.4388698     304.3354  0.022523343  0.022242936            5 
 1127000    0.7919202   -7.4163571    304.23608  0.022496013  0.022227008            3 
 1128000   0.79200556   -7.4557729     303.1478  0.022395671  0.022211035            8 
 1129000   0.81341054   -7.3981303    305.05455  0.022516574  0.022195124            2 
 1130000   0.79021653   -7.4381028    304.44967  0.022452041  0.022179268            3 
 1131000   0.80985191    -7.436254    303.97206  0.022396998   0.02216336            2 
 1132000   0.80732344   -7.4388122    304.11273  0.022387569  0.022147473            3 
 1133000   0.79699376   -7.4653583    303.56685  0.022327659  0.022131474            5 
 1134000   0.83339806   -7.4478522    304.52685  0.022378517  0.022115506            4 
 1135000   0.78829966    -7.441444    303.97639  0.022318384  0.022099519            4 
 1136000   0.79567857   -7.4554737    303.76873  0.022283504  0.022083618            6 
 1137000   0.80231969   -7.4266736    304.26152  0.022300023   0.02206769            3 
 1138000   0.79374998   -7.4423501    303.99166  0.022260667  0.022051781            2 
 1139000   0.82477113   -7.4444327    304.55623  0.022282428  0.022035869            4 
 1140000   0.80723067   -7.3935197    304.66785  0.022271042  0.022019945            4 
 1141000   0.79968129   -7.4602229    304.01579    0.0222039  0.022003993            2 
 1142000   0.78766713   -7.4597781    304.65252   0.02223092  0.021987931            4 
 1143000   0.78634075   -7.4429466    303.93917  0.022159461  0.021971856            5 
 1144000   0.78397255   -7.4452434    303.90137  0.022137338  0.021955823            3 
 1145000   0.80170535   -7.4531853    304.81231  0.022184302  0.021939814            7 
 1146000   0.80403614   -7.4645852    305.09378  0.022185412  0.021923812            5 
 1147000   0.80953511   -7.5115296    304.63293  0.022132587  0.021907816            2 
 1148000   0.79824031   -7.4499939    304.80193  0.022125576   0.02189185            2 
 1149000   0.80791413   -7.4434044    304.99398  0.022120248  0.021875949            3 
 1150000   0.81062173   -7.4856515    304.20658  0.022043955  0.021859925            4 
 1151000   0.79762655   -7.4634597    304.15073   0.02202076  0.021843869            2 
 1152000    0.7882354   -7.4351325    305.10226  0.022070476  0.021827838            5 
 1153000    0.7940888   -7.4608174    304.69366  0.022021802  0.021811806            5 
 1154000    0.7979334   -7.4354595    304.21772  0.021968351  0.021795727            6 
 1155000   0.78299505   -7.4604221    305.32133  0.022028956  0.021779692            4 
 1156000    0.7907134   -7.4789417    304.78482  0.021971224   0.02176365            9 
 1157000   0.78681414   -7.4254578    305.60516   0.02201132  0.021747543            9 
 1158000     0.797015   -7.4739009    304.79239  0.021933822  0.021731587            5 
 1159000   0.80078784   -7.4352282    305.55245  0.021969546  0.021715664            4 
 1160000   0.78609614   -7.5100014    305.24825  0.021928754  0.021699652            5 
 1161000    0.7734725   -7.4762792    304.77176  0.021875665   0.02168364            6 
 1162000   0.78438855   -7.4609685    305.12236  0.021881982  0.021667623            5 
 1163000   0.80234004   -7.5077932    306.17389  0.021938513  0.021651631            6 
 1164000   0.79958249   -7.4911003    305.04482  0.021838833  0.021635658            7 
 1165000   0.78142844   -7.4765499    305.96267  0.021885742  0.021619678            4 
 1166000     0.793934   -7.4702158    305.35146  0.021823289   0.02160369            3 
 1167000   0.79009981   -7.4982762    305.45568  0.021812031  0.021587668            7 
 1168000   0.79602436   -7.4932228    305.21959  0.021776512  0.021571582            3 
 1169000   0.80660597   -7.4528847    305.60145  0.021785105   0.02155554            4 
 1170000   0.79031554   -7.4764297    305.28572  0.021743997  0.021539493            7 
 1171000   0.78459056   -7.4633684    305.44154  0.021736517  0.021523502            3 
 1172000     0.800747   -7.4715137    305.46781  0.021719838  0.021507515            2 
 1173000   0.78294578   -7.4779726     305.6638  0.021715246  0.021491445            2 
 1174000   0.78517319   -7.4611357    306.04998  0.021724161  0.021475456            4 
 1175000    0.7869239   -7.4821387    305.66661  0.021678483  0.021459465            5 
 1176000   0.79415345   -7.4810313    305.57433   0.02165351  0.021443395            7 
 1177000   0.78583058   -7.4796737    305.71826  0.021645303  0.021427313            4 
 1178000   0.79140116     -7.49361    304.99384  0.021575682  0.021411191            6 
 1179000   0.78416783   -7.4746566    305.63618  0.021602783  0.021395141            2 
 1180000   0.79035642   -7.5108699    305.79312  0.021595559  0.021379056            4 
 1181000   0.77743766   -7.4571114    306.00885  0.021592496  0.021363013            3 
 1182000    0.7813662   -7.4466275    306.25637  0.021591678  0.021347057            3 
 1183000   0.80704893   -7.4764654    306.03061  0.021557524  0.021331056            6 
 1184000   0.78086647   -7.4645793    306.23629  0.021553793  0.021315129           10 
 1185000   0.76844213   -7.5060048     306.2846  0.021539001  0.021299184            4 
 1186000   0.77308792    -7.510431    306.03632  0.021503395  0.021283109            7 
 1187000   0.78586213   -7.4840112    305.92222  0.021477269  0.021267037            9 
 1188000   0.78778523    -7.468022     305.8845  0.021456544  0.021250999            7 
 1189000   0.77783442   -7.4897448    305.49127  0.021410938  0.021234943            4 
 1190000   0.77270925   -7.5017587    306.18227  0.021441336  0.021218872            2 
 1191000   0.76685269   -7.4852345    306.29879  0.021431485  0.021202889            3 
 1192000   0.78000073   -7.4975505    305.88922  0.021384873  0.021187004            2 
 1193000   0.76698079   -7.5129427    305.65344  0.021350478  0.021171049            5 
 1194000   0.76598437   -7.4983172    306.73034  0.021407757  0.021155027            2 
 1195000   0.78190291   -7.5020678    306.37736  0.021365227  0.021139004            2 
 1196000   0.77835542   -7.4779747     306.9578  0.021387806  0.021123027            4 
 1197000   0.77747386   -7.4795102    306.07411  0.021308417  0.021107034           10 
 1198000    0.7845574   -7.4901323    306.31642  0.021307486  0.021091074            7 
 1199000   0.78118425   -7.4660403    307.18543  0.021350114  0.021075153            4 
 1200000   0.77334337   -7.4931896    306.60531  0.021292035  0.021059226            5 
 1201000   0.77291323   -7.4698943    307.44874   0.02133283   0.02104328            4 
 1202000   0.78382575    -7.501892    306.08318  0.021220409  0.021027339            9 
 1203000   0.76776893   -7.5235101    307.57854  0.021306355  0.021011371            4 
 1204000   0.76694958    -7.521148    306.85493  0.021238575  0.020995458            4 
 1205000   0.75825087   -7.5299725    306.72883  0.021212229  0.020979475            4 
 1206000   0.77382969   -7.5059165    307.15657  0.021224197  0.020963551            3 
 1207000   0.77808634   -7.4888719    307.57229  0.021235314  0.020947717            5 
 1208000   0.76311464   -7.5294406    307.35482  0.021202733  0.020931815            2 
 1209000   0.76468265   -7.5236226    307.04794  0.021164043  0.020915933            4 
 1210000   0.76670778   -7.5270226    306.61856  0.021116981  0.020899974            3 
 1211000   0.77723538   -7.5051965      306.556  0.021095238  0.020884116            4 
 1212000   0.76527968   -7.5328862    306.33384  0.021062558  0.020868236            8 
 1213000   0.77812016   -7.5130311    307.11986  0.021099193  0.020852418            4 
 1214000   0.78298274   -7.5327651    306.78438  0.021058785  0.020836525            7 
 1215000   0.75607299   -7.5324872    306.92963  0.021051415  0.020820717            4 
 1216000   0.77436136    -7.500239    307.61277  0.021080919   0.02080493            3 
 1217000   0.76878606   -7.5025408    307.81297  0.021077306  0.020789194            5 
 1218000   0.76584472   -7.5086818    307.68387  0.021051168  0.020773381           19 
 1219000   0.75303133   -7.5399815    307.21171  0.021001621  0.020757605            5 
 1220000   0.74547601   -7.5240594    307.89252   0.02103091  0.020741885           11 
 1221000   0.75472061   -7.5439705    307.50455  0.020987207  0.020726101            3 
 1222000   0.76981845   -7.5398152    307.62419  0.020978191  0.020710354            7 
 1223000    0.7611574   -7.5179573    308.34818  0.021010369  0.020694724            4 
 1224000   0.77687768   -7.5246031    308.25227  0.020986674  0.020679091            4 
 1225000   0.76402327   -7.4874948    308.25737  0.020969889  0.020663534            4 
 1226000   0.76560185   -7.5152394    307.78675  0.020920796  0.020647983            2 
 1227000    0.7670615   -7.5149582    308.65032  0.020962396  0.020632404            5 
 1228000   0.76323353   -7.5428265    308.38326  0.020927202  0.020616837           13 
 1229000    0.7735277   -7.5309939    308.90205  0.020945352  0.020601271            6 
 1230000   0.77552074   -7.5577232    307.70296  0.020847084  0.020585733            6 
 1231000   0.76775431    -7.546639    307.89949  0.020843453  0.020570092            5 
 1232000   0.75440914   -7.5076479    308.33471  0.020855974  0.020554469            4 
 1233000   0.74828661   -7.5499383    307.94517  0.020812731  0.020538827           14 
 1234000   0.76426116   -7.5460601     307.7221  0.020780801  0.020523188            5 
 1235000   0.77822351   -7.5165204    308.00627  0.020783149   0.02050759            3 
 1236000   0.77615313   -7.5455847    308.53324  0.020801863  0.020492012            7 
 1237000   0.75930875   -7.4965446    309.10076  0.020823279  0.020476476            5 
 1238000   0.76721087   -7.5186744    308.56686  0.020770521  0.020460914            3 
 1239000   0.75743758   -7.5367469    308.19349  0.020728645  0.020445334            5 
 1240000   0.75264083   -7.5192701    308.84535  0.020755736  0.020429713            6 
 1241000   0.75891114   -7.5348009     308.5485  0.020719077  0.020414094            3 
 1242000   0.77104777   -7.5621146    308.22437  0.020680647  0.020398531            6 
 1243000   0.74470651   -7.5410989    308.09576  0.020655387  0.020382969            2 
 1244000    0.7566495    -7.584084    308.69005  0.020678594  0.020367391            5 
 1245000   0.75050161   -7.5341671    308.52272  0.020650784  0.020351863            4 
 1246000   0.77486284   -7.5247371    309.55283  0.020703105  0.020336356            5 
 1247000   0.75479203   -7.5663255    308.62736  0.020624656  0.020320862           10 
 1248000   0.74413651   -7.5268783    308.45007  0.020596292  0.020305324            5 
 1249000   0.75190663   -7.5600024    308.68751  0.020595644  0.020289875            5 
 1250000   0.73411082   -7.5736667    309.38669  0.020625779   0.02027438            4 
 1251000   0.74883473   -7.5500086    309.08983  0.020589517  0.020258979            6 
 1252000   0.76542671   -7.5605371    308.80875  0.020554363  0.020243548            6 
 1253000    0.7574183   -7.5588755    309.44795   0.02058047  0.020228153            4 
 1254000   0.77373292   -7.5679885    309.42134   0.02056229  0.020212798            8 
 1255000   0.75379478   -7.5582504    308.81234  0.020505467  0.020197482            3 
 1256000   0.76184994    -7.534536    310.26638  0.020585614  0.020182204           11 
 1257000   0.75479206   -7.5346764    309.51538   0.02051945  0.020166959            5 
 1258000   0.76173402    -7.546766    308.84698  0.020458862  0.020151636           10 
 1259000   0.75315174   -7.5947032    308.46759    0.0204175  0.020136232           10 
 1260000    0.7479881   -7.5563176     309.8506  0.020492765  0.020120891            4 
 1261000   0.75783285   -7.5386473    308.68814  0.020399692  0.020105551            5 
 1262000   0.75789816   -7.6101612    309.52337   0.02043868  0.020090224            4 
 1263000   0.77596074   -7.5634416     310.2856   0.02047279   0.02007492            7 
 1264000   0.74101193   -7.5468231    310.22878  0.020452847  0.020059667            6 
 1265000   0.74332975   -7.5516604    309.86381  0.020412635  0.020044508            2 
 1266000   0.75884493   -7.5431372    310.73361  0.020453766  0.020029394            3 
 1267000   0.76234083   -7.5584522    310.58269  0.020427696  0.020014365            4 
 1268000     0.748175    -7.578156    310.71722  0.020420427  0.019999311            5 
 1269000   0.76184584   -7.5631958    310.26776   0.02037482  0.019984217            4 
 1270000   0.75663932     -7.57836    310.44235  0.020370233  0.019969135            2 
 1271000   0.75307033   -7.5468585    311.02946    0.0203927   0.01995411            9 
 1272000   0.72878673   -7.5703743    310.44702   0.02033851  0.019939124            3 
 1273000   0.72803887   -7.5624776    311.12488  0.020366908   0.01992409            4 
 1274000     0.739387   -7.5450038    310.49426  0.020309671  0.019909121            3 
 1275000   0.74152529   -7.5855877    310.73073  0.020309198  0.019894038            4 
 1276000   0.74645419   -7.5572843    310.66539  0.020289015  0.019878947            5 
 1277000   0.73797208   -7.5849782    310.43699  0.020258222  0.019863922            3 
 1278000   0.73152108   -7.5625969    310.83839  0.020268544  0.019848944            2 
 1279000   0.73976743   -7.5799505    310.57801  0.020235732  0.019833912            5 
 1280000   0.72769789    -7.559512    311.03127  0.020249431  0.019818924            4 
 1281000   0.74935347   -7.5755955    310.56795  0.020203483  0.019803981            5 
 1282000    0.7417194   -7.5865642    310.47414  0.020181626  0.019789033            4 
 1283000   0.74226739   -7.5747176    310.41239  0.020161886  0.019774132            5 
 1284000   0.73369465    -7.577308    310.59778  0.020158215  0.019759238            4 
 1285000   0.74360083   -7.5773891    311.00482  0.020168925  0.019744319            3 
 1286000   0.73383392   -7.5826695    310.83208  0.020142048  0.019729485            4 
 1287000   0.75643122   -7.5806008    311.05766  0.020141004  0.019714579           11 
 1288000   0.73833229   -7.5795545    311.07485  0.020126478  0.019699763            3 
 1289000   0.73519258   -7.5780868    311.15378  0.020115967  0.019684931            5 
 1290000   0.73376727   -7.6011298    311.55829  0.020126504  0.019670076            5 
 1291000   0.75461289   -7.5799057    311.01066  0.020075565   0.01965527            5 
 1292000   0.71599534   -7.5968127     311.3155  0.020079689  0.019640359            5 
 1293000   0.72364436   -7.6101359     311.1532    0.0200537  0.019625473            4 
 1294000   0.73868322   -7.5918273     311.4721  0.020058739  0.019610614            3 
 1295000   0.74157183   -7.5737089    311.92773  0.020072569  0.019595837            4 
 1296000   0.75201516   -7.6286824    311.33227  0.020018793  0.019581088            5 
 1297000   0.74418295   -7.5847293    311.84955  0.020036594  0.019566376            4 
 1298000   0.72525471   -7.5807665    311.44555   0.01999522  0.019551642            5 
 1299000   0.72657581   -7.5886031    311.56487  0.019987482  0.019536864            2 
 1300000   0.74161088    -7.630792    311.26381  0.019952808  0.019521989            6 
 1301000    0.7431163    -7.613936    312.29892  0.020003774  0.019507118            4 
 1302000   0.73640293   -7.6370271    311.12394  0.019913207   0.01949227            4 
 1303000   0.74551854   -7.6215744    311.00532  0.019890337  0.019477378            5 
 1304000   0.72915317   -7.6288536    311.55685   0.01991033  0.019462477            5 
 1305000   0.72211169   -7.6291719    311.18682  0.019871444  0.019447637            4 
 1306000   0.73220382   -7.6308942     311.2273  0.019858812  0.019432804            5 
 1307000   0.72867813   -7.6030785    311.96353  0.019890559  0.019418034            4 
 1308000   0.73833308   -7.6269712    311.60571  0.019852555  0.019403232            5 
 1309000   0.75215647   -7.6086825    311.68588  0.019842493  0.019388475            6 
 1310000   0.71905723   -7.6207833    311.51957  0.019816766  0.019373711            6 
 1311000   0.72519288   -7.6096651    312.02227  0.019833605  0.019358926            6 
 1312000   0.74420694   -7.6239412    311.90163  0.019810825  0.019344148            6 
 1313000   0.72338196   -7.6362468    311.98266  0.019800879  0.019329392            4 
 1314000   0.73380652   -7.5987257    312.63238  0.019827015  0.019314663            3 
 1315000   0.73357015   -7.6104976    312.04775  0.019774889  0.019299911            7 
 1316000   0.74387987   -7.6338196    312.08461  0.019762197  0.019285174            6 
 1317000   0.73238877   -7.5971168     312.1876  0.019753708  0.019270427            6 
 1318000   0.73753209   -7.6208804    311.81013  0.019714854  0.019255667            6 
 1319000   0.73835398    -7.634891    312.09482  0.019717894  0.019240918            9 
 1320000   0.72187377   -7.6164441    311.52246  0.019666822  0.019226144            5 
 1321000   0.72327904   -7.6447863    311.61436  0.019657731  0.019211423            8 
 1322000   0.72159931   -7.6346842    311.71317  0.019649091   0.01919672            6 
 1323000   0.71317059   -7.6473641    311.89279  0.019645553  0.019181974           17 
 1324000   0.72509145   -7.6435316     311.7358  0.019620833  0.019167283            3 
 1325000   0.74311036   -7.6208968    311.86484  0.019614141  0.019152598            6 
 1326000    0.7468512   -7.6251842    312.10646  0.019614534  0.019137978            5 
 1327000   0.73991677   -7.6239863    312.48891   0.01962377  0.019123349            5 
 1328000   0.72331308   -7.6203659    311.95212  0.019575309  0.019108771            6 
 1329000   0.71470676   -7.6146578    312.32928  0.019584229  0.019094232            7 
 1330000   0.72762949   -7.6235494    312.97732  0.019610107  0.019079711            7 
 1331000   0.72162496   -7.6022304     312.8942   0.01959017  0.019065182            7 
 1332000   0.71114719     -7.60027    312.75622  0.019566831   0.01905072            7 
 1333000   0.72512528   -7.6240474    312.23868  0.019519797  0.019036244            7 
 1334000   0.72052694   -7.6077586    312.53633  0.019523759  0.019021757            4 
 1335000   0.72368452   -7.6114283    312.72105  0.019520665  0.019007195            3 
 1336000   0.72368425   -7.6378051    312.42009  0.019487281  0.018992681            7 
 1337000   0.71455629   -7.6302702    311.77401  0.019432437  0.018978163            9 
 1338000   0.70792383   -7.6260861    312.04914  0.019435049  0.018963648            9 
 1339000   0.71449477   -7.6237678    313.12892  0.019487734  0.018949138            8 
 1340000   0.70923474   -7.6622106    312.17622  0.019413944  0.018934553            8 
 1341000     0.697646   -7.6388381    311.96412  0.019386287  0.018919938            3 
 1342000   0.72025194   -7.6381598    312.45307  0.019402202  0.018905331            4 
 1343000   0.72157644   -7.6621952      312.891  0.019414929  0.018890785            3 
 1344000   0.71271969   -7.6363785    313.01759  0.019408333  0.018876261            3 
 1345000   0.71282381   -7.6254341    313.18982  0.019404574  0.018861744            5 
 1346000   0.71607559   -7.6591939    313.01378  0.019379259  0.018847182            5 
 1347000   0.71399714   -7.6427439    311.95355  0.019299279  0.018832591            2 
 1348000     0.704696   -7.6422891    313.22924  0.019363825  0.018818142            6 
 1349000   0.71772621   -7.6322044    313.18945  0.019347013  0.018803668            4 
 1350000   0.68945496   -7.6796129    312.50541  0.019290457  0.018789154            4 
 1351000   0.71705617   -7.6807347    312.36657  0.019267615  0.018774596            8 
 1352000   0.72606147   -7.6451226    312.27933  0.019247986  0.018760096            5 
 1353000   0.71976425   -7.6324011    312.63098  0.019255419  0.018745558            9 
 1354000   0.72228776   -7.6461649    312.63404  0.019241386  0.018731059            7 
 1355000   0.71865972   -7.6414052    312.00409  0.019188443   0.01871656           11 
 1356000   0.71300963   -7.6215011     313.1639  0.019245569  0.018702105            7 
 1357000   0.70292769    -7.660018    312.76484   0.01920688  0.018687605            6 
 1358000   0.69645866   -7.6546007    312.80941  0.019195472  0.018673043            8 
 1359000   0.71174666   -7.6592384    312.83005  0.019182613  0.018658535            6 
 1360000   0.70891532   -7.6572289    312.68751  0.019159774  0.018644026            7 
 1361000   0.70122637   -7.6469885    312.84926    0.0191556  0.018629594            4 
 1362000   0.70491519   -7.6463518    312.40633  0.019114436  0.018615138           12 
 1363000   0.71227951   -7.6622697    313.05555  0.019140105  0.018600669            8 
 1364000   0.71339005   -7.6796037    312.25124  0.019076933  0.018586221            4 
 1365000   0.72141806   -7.6695629    312.74283  0.019092969  0.018571769            3 
 1366000   0.71210107    -7.651516    312.91238  0.019089335  0.018557385            4 
 1367000   0.69848035   -7.6191658    312.85394  0.019071808  0.018543029            8 
 1368000   0.69687325   -7.6356839    312.91158  0.019061378  0.018528748            4 
 1369000   0.71090001   -7.6709468    312.36482  0.019014172  0.018514445            9 
 1370000   0.70010663   -7.6369488    312.35037  0.018999414  0.018500129            8 
 1371000   0.71434936   -7.6583503    312.90854  0.019019483  0.018485827            3 
 1372000   0.70869293   -7.6479954    313.46064  0.019039155  0.018471495            7 
 1373000   0.70757885   -7.6387459    313.24052  0.019011927  0.018457176            5 
 1374000   0.70000779   -7.6302536    313.56203   0.01901759  0.018442912            6 
 1375000    0.6921717   -7.6510545    312.99214   0.01896922  0.018428632            9 
 1376000     0.706973   -7.6229365    313.17198  0.018966326  0.018414405            9 
 1377000   0.70377944   -7.6420327    313.60074  0.018978501  0.018400172            9 
 1378000   0.71077619   -7.6995917     312.8694  0.018920501  0.018385899            4 
 1379000   0.70592461   -7.6555929    312.35258  0.018875549  0.018371633            7 
 1380000   0.70237925   -7.6548677    313.84107  0.018951756  0.018357494            7 
 1381000   0.69504508   -7.6824029    313.31052  0.018906017  0.018343327            5 
 1382000   0.71513368   -7.6538183    313.67298  0.018914193  0.018329143            5 
 1383000   0.69723417   -7.6763306    313.22158  0.018873318  0.018314947            5 
 1384000   0.69704196   -7.6827799    312.98493  0.018845432  0.018300778            5 
 1385000   0.69337327   -7.6828073    313.89278  0.018886449  0.018286582            6 
 1386000   0.71225466   -7.6852638    312.89202  0.018812651  0.018272399            5 
 1387000   0.70051289   -7.6812044    313.33989  0.018825997   0.01825824           10 
 1388000   0.69850143   -7.6875476    313.45429  0.018819302  0.018244105            4 
 1389000    0.7040347   -7.6893487    313.13191  0.018786412  0.018229879           10 
 1390000   0.70865434   -7.6851371    313.17791  0.018775654  0.018215709            6 
 1391000   0.68300758   -7.7194693    313.56584  0.018785396  0.018201513            7 
 1392000   0.71642233   -7.7083161    312.94782  0.018734903  0.018187365            8 
 1393000   0.70148329   -7.6708813    313.07677  0.018729168  0.018173221            7 
 1394000   0.71222442   -7.7057261    313.23515  0.018725201  0.018159049            5 
 1395000   0.70398768   -7.7017673    312.63448  0.018675895  0.018144907            7 
 1396000   0.69962285    -7.725548    312.71781  0.018667491  0.018130728            9 
 1397000   0.71333347   -7.7159864    312.76643  0.018657029  0.018116572            6 
 1398000   0.69769573   -7.6914573    313.34715    0.0186783  0.018102403           14 
 1399000   0.68027511   -7.6998383    313.28048  0.018660977  0.018088219           17 
 1400000    0.6811534   -7.7041889    314.09436  0.018696093   0.01807408           15 
 1401000   0.69581153    -7.721953     313.2287  0.018631258  0.018059931            7 
 1402000   0.68717947   -7.7120392    313.40743  0.018628592  0.018045794            8 
 1403000   0.67179057   -7.7178429     313.0624  0.018594821  0.018031658            7 
 1404000   0.70729394   -7.7086204    313.25008  0.018592716  0.018017479            6 
 1405000   0.70718264   -7.7161925     312.9105  0.018559342  0.018003352            6 
 1406000   0.68133397   -7.6972775    312.69362  0.018533287  0.017989233            5 
 1407000   0.69010228   -7.7121246    314.00664  0.018597882  0.017975149            5 
 1408000   0.70082813   -7.7037383    314.10595  0.018590551  0.017961056           10 
 1409000    0.6823591   -7.7223036    312.61992  0.018489468  0.017946947            5 
 1410000   0.68712649   -7.6912261     313.9134  0.018552801  0.017932868            6 
 1411000   0.70638664   -7.6994722    313.30252  0.018503574  0.017918848            6 
 1412000   0.70602592   -7.7058161    313.40002  0.018496224  0.017904841            5 
 1413000   0.70466089   -7.7194127    314.15522  0.018527673  0.017890805            6 
 1414000   0.69664573   -7.7165409    313.68616  0.018486926  0.017876761            6 
 1415000   0.69641857   -7.7356224      313.719  0.018475795  0.017862758           13 
 1416000   0.68126275   -7.7264618    313.50798  0.018450328  0.017848742            5 
 1417000   0.66860991   -7.7078833    313.86418  0.018458256  0.017834785            9 
 1418000   0.71019662   -7.7220939    313.35234  0.018415159  0.017820786           17 
 1419000   0.68403333   -7.7348381     313.6128  0.018417477  0.017806747            9 
 1420000   0.67901154   -7.7117249     313.6848  0.018408732  0.017792719           11 
 1421000   0.69234065   -7.7245304    313.61934  0.018391939  0.017778747            5 
 1422000   0.69183099   -7.6952992    313.75378  0.018386884  0.017764786            8 
 1423000   0.68710685   -7.7038954     313.5079  0.018359563  0.017750873            4 
 1424000   0.67641067   -7.6816917    314.16138  0.018384912  0.017736964            6 
 1425000   0.67987643   -7.6973641     313.5394  0.018335637  0.017723062            9 
 1426000   0.68606171   -7.7123609    313.62558  0.018327815   0.01770915            5 
 1427000   0.68755334   -7.7187858    313.34633  0.018298664  0.017695243            8 
 1428000   0.68510231   -7.6999879    314.41036  0.018347943  0.017681364            5 
 1429000   0.67317916   -7.7282716    313.57937  0.018286644    0.0176675           10 
 1430000   0.67584865   -7.7158674     313.6146  0.018275909  0.017653633           10 
 1431000   0.68712198   -7.6799504    313.69724   0.01826795  0.017639731            5 
 1432000   0.67959283   -7.7072832    313.60688  0.018249935  0.017625858            3 
 1433000   0.66561862    -7.708614     313.8469  0.018251157  0.017611992            6 
 1434000   0.68184959   -7.7282965    313.39591  0.018212222  0.017598161            5 
 1435000   0.68472026    -7.723459    313.63278  0.018213286  0.017584403            7 
 1436000   0.69593812   -7.6925247     313.6089  0.018199217  0.017570666            3 
 1437000   0.68413492   -7.7038207    314.19977  0.018220817  0.017556935            7 
 1438000   0.67112763   -7.7111865    314.33497  0.018215981  0.017543221            4 
 1439000   0.68294928   -7.7211533     314.7968  0.018230067  0.017529553            4 
 1440000   0.67590297   -7.7149913     314.6978  0.018211678  0.017515881            4 
 1441000   0.68258772   -7.7393804     313.7863  0.018146328  0.017502163            6 
 1442000   0.68672795   -7.7190033     313.7674  0.018132651  0.017488478            4 
 1443000   0.66170737   -7.7375733    314.66764  0.018172074  0.017474845            2 
 1444000   0.67931048   -7.7409061    314.21934  0.018133618  0.017461169            4 
 1445000   0.67425225   -7.7270198    313.93489  0.018104665  0.017447501            6 
 1446000   0.66884512    -7.736312    313.95073  0.018093057  0.017433821            6 
 1447000   0.67354475   -7.7380752    313.42815  0.018050458  0.017420148            4 
 1448000   0.68004298   -7.7685586    313.23132  0.018026664  0.017406483            3 
 1449000   0.66368835   -7.7589343     314.3368  0.018077801  0.017392766            6 
 1450000   0.66666606   -7.7242833    313.84932  0.018037317  0.017379064           12 
 1451000   0.68213686   -7.7237028    313.54946  0.018007665  0.017365371            8 
 1452000   0.68004045   -7.7502179     313.7256  0.018005372   0.01735168            9 
 1453000   0.68439795   -7.7380917    313.49208  0.017979587  0.017338034            4 
 1454000   0.66751183   -7.7205121     313.6902  0.017978576  0.017324419            7 
 1455000   0.67142634   -7.7094363    314.46584  0.018010644  0.017310829            4 
 1456000   0.67643754   -7.7336944    314.13556   0.01797937  0.017297253            6 
 1457000   0.68481977    -7.749118    314.74705  0.018002005  0.017283646            5 
 1458000   0.65862966    -7.754003    314.25036  0.017961269   0.01727003            7 
 1459000    0.6641703   -7.7433966     313.8039  0.017923458  0.017256439            5 
 1460000   0.67823923   -7.7406654     314.3039  0.017939721  0.017242875            6 
 1461000   0.67992446   -7.7454341    314.12236  0.017917086  0.017229298            4 
 1462000   0.67008233   -7.7575577    314.58254  0.017931061  0.017215785            3 
 1463000   0.65055309   -7.7503597    314.21104  0.017897644  0.017202261            3 
 1464000   0.66226374   -7.7720702     313.8284  0.017863638  0.017188717           10 
 1465000   0.66591594   -7.7489629    314.23415  0.017874525  0.017175221            6 
 1466000   0.65951879   -7.7704173    313.44824  0.017817658  0.017161703            4 
 1467000   0.66026717   -7.7693125    314.44535  0.017862154  0.017148188            7 
 1468000    0.6858141   -7.7636365    314.26022  0.017839476  0.017134696            6 
 1469000   0.66272658    -7.758773    313.64405  0.017792379  0.017121198            6 
 1470000   0.67124601   -7.7628865      314.201  0.017811848  0.017107688            4 
 1471000   0.67253544   -7.7536292    314.99186  0.017844542  0.017094208            3 
 1472000   0.65996568   -7.7500715    314.35598  0.017796421  0.017080738            5 
 1473000   0.66821517   -7.7563836    314.29828  0.017781075   0.01706727            3 
 1474000   0.66325718   -7.7890837    314.96052  0.017806452  0.017053783            6 
 1475000   0.66183752   -7.7471335    314.53125  0.017770127  0.017040378            4 
 1476000   0.67682289   -7.7532798    314.86681  0.017777033  0.017026993            5 
 1477000   0.63902804   -7.7519864    314.56118  0.017747753  0.017013638            7 
 1478000   0.64910003    -7.741774    315.10755  0.017766551  0.017000336            4 
 1479000   0.66805225   -7.7429354    314.78576  0.017736407  0.016987051            4 
 1480000   0.65972552   -7.7351064    314.91617  0.017731766  0.016973806            4 
 1481000   0.65141754   -7.7569531    314.61503  0.017702849  0.016960547            7 
 1482000   0.65488148   -7.7561759    315.21278  0.017724515  0.016947316            4 
 1483000   0.66317911   -7.7560534    314.81331  0.017690116  0.016934044            5 
 1484000   0.64680261   -7.7610379    314.85048  0.017680283  0.016920797            6 
 1485000   0.66172797   -7.7484536    314.65614  0.017657471  0.016907504            9 
 1486000   0.66225595   -7.7708152    314.58508  0.017641604  0.016894181            4 
 1487000   0.65169267   -7.7907652     314.2606  0.017611556  0.016880901            9 
 1488000   0.64885021   -7.7653836    314.70732  0.017624738  0.016867616           10 
 1489000   0.65808862   -7.7712059     314.6254  0.017608317  0.016854385            5 
 1490000   0.65796267   -7.7534478    315.07971  0.017621908  0.016841165            3 
 1491000    0.6545656   -7.7787222    315.22049  0.017617957  0.016827966            3 
 1492000   0.65139567   -7.7913917    314.72138  0.017578272  0.016814776            4 
 1493000   0.66019999   -7.7868547    314.84575   0.01757344  0.016801575            5 
 1494000    0.6535282   -7.7902358    314.76308  0.017557066  0.016788362            5 
 1495000   0.66061149   -7.7713147     314.0176  0.017503768  0.016775147            3 
 1496000   0.66101788   -7.7922183    314.86384  0.017539207  0.016761987            4 
 1497000   0.65897725   -7.7900137    314.51975  0.017508336  0.016748837            4 
 1498000   0.64474468   -7.7880878    314.60489  0.017501385  0.016735684            4 
 1499000   0.65378317   -7.7887273    314.79093  0.017500052  0.016722513            4 
 1500000   0.65641864   -7.7938608    315.13309  0.017507394  0.016709338            5 
 1501000   0.65984325   -7.8048578    314.65333  0.017469094  0.016696173            6 
 1502000   0.64582773   -7.7834517      314.835  0.017467544  0.016682997            4 
 1503000    0.6375127   -7.7833733    314.48509  0.017436521  0.016669845            9 
 1504000   0.65350548   -7.8147114    314.69836  0.017436744  0.016656707            5 
 1505000   0.64954229   -7.7751348    314.82012    0.0174319   0.01664361            4 
 1506000   0.64803151   -7.7870077    315.37099  0.017450808  0.016630544            9 
 1507000   0.63926791   -7.7432807    315.03124   0.01742044  0.016617499            5 
 1508000   0.65530395   -7.8111717     314.4198    0.0173751  0.016604411            7 
 1509000   0.65331936   -7.7895028    314.01185  0.017341056  0.016591311           10 
 1510000   0.65293504   -7.8034415    314.41867  0.017352024  0.016578235            3 
 1511000   0.66093549    -7.792155    314.69763  0.017355925  0.016565151            7 
 1512000   0.63616915   -7.7910834    314.49769  0.017333426  0.016552107            5 
 1513000   0.67043108   -7.8187065    314.56028  0.017325417  0.016539073            5 
 1514000   0.64430245    -7.809106    315.41596  0.017361072  0.016526079            4 
 1515000   0.65297469   -7.7959929    315.06578  0.017330351  0.016513107            6 
 1516000   0.64146158   -7.7683486    315.14477  0.017323261   0.01650017            4 
 1517000   0.64107576   -7.7931026     315.1096   0.01730991  0.016487239            6 
 1518000   0.64347846   -7.7798975    315.49779  0.017319817  0.016474343            8 
 1519000   0.64451837   -7.7989883    315.07359  0.017285143   0.01646145            6 
 1520000   0.65242815   -7.8104558    314.42732   0.01723834  0.016448518            5 
 1521000   0.66322715   -7.7909582    314.56546  0.017234575  0.016435568            9 
 1522000   0.64673777   -7.8118941     315.2677    0.0172617  0.016422604            5 
 1523000   0.64972419   -7.8238105    314.42025  0.017203997  0.016409632            8 
 1524000   0.65901993   -7.8019839    314.48907  0.017196471  0.016396655            6 
 1525000   0.64199441   -7.8270159      314.791  0.017201694  0.016383726            7 
 1526000   0.65582445   -7.8041266    315.13988  0.017209474  0.016370824            3 
 1527000   0.64917442    -7.794603    315.15431  0.017198991  0.016357962           12 
 1528000   0.64599657   -7.7988613     314.6442  0.017159915  0.016345081            3 
 1529000   0.63681045    -7.793432     314.7604  0.017155025  0.016332246            5 
 1530000   0.63547786   -7.8236736    315.13234  0.017164071  0.016319399            8 
 1531000   0.63873766   -7.8067369    314.74279  0.017131656  0.016306563            2 
 1532000    0.6374664    -7.802131    315.00317  0.017134637  0.016293741            7 
 1533000   0.63524749   -7.8032005    314.92706  0.017119323  0.016280909            5 
 1534000   0.64064355   -7.8251399    314.89938  0.017106659    0.0162681            3 
 1535000   0.64960921   -7.7834418    315.42507  0.017124054  0.016255282            2 
 1536000      0.65037   -7.8112996    314.87799  0.017083224  0.016242462            6 
 1537000   0.62572104   -7.8117579    315.22097  0.017090705  0.016229679            5 
 1538000   0.63849738   -7.8107211    315.42101  0.017090432  0.016216921            8 
 1539000   0.63731943    -7.822756    314.58871   0.01703426  0.016204174            5 
 1540000   0.64910971   -7.8000835    314.99738  0.017045313  0.016191419           11 
 1541000   0.64190997   -7.8067592    315.04439  0.017036794  0.016178695            3 
 1542000   0.63685323     -7.82429    315.15812  0.017031891  0.016165981           13 
 1543000   0.64484802   -7.8426494    315.04257  0.017014613   0.01615328            6 
 1544000   0.63153688   -7.8193153    315.53569  0.017030208  0.016140586            4 
 1545000     0.630333   -7.8115003    315.64588  0.017025128  0.016127914            8 
 1546000   0.63688156   -7.8230324    315.39059  0.017000355  0.016115215            4 
 1547000   0.62751367    -7.815355    315.25865  0.016982259  0.016102532            5 
 1548000   0.64246295   -7.8166532    315.52222  0.016985477  0.016089866            4 
 1549000   0.63217332   -7.7883878    315.68083  0.016983044  0.016077249            5 
 1550000   0.64420873   -7.8389949    315.09252  0.016940458  0.016064579            4 
 1551000   0.63271155   -7.8473942    315.58853  0.016956186  0.016051961            5 
 1552000   0.61850992   -7.8506359    315.21092  0.016924985  0.016039321            5 
 1553000   0.64860686   -7.8014726    316.01114  0.016957026  0.016026703            4 
 1554000   0.63972722   -7.8227587    315.44681  0.016915852   0.01601411            5 
 1555000    0.6300448    -7.825012    315.27339   0.01689568  0.016001502            6 
 1556000   0.63631795   -7.8233334    315.22566  0.016882266  0.015988917            7 
 1557000   0.63674914    -7.825951    316.05834  0.016915989   0.01597637           10 
 1558000   0.63553703   -7.8156392     315.0164  0.016849401  0.015963807            5 
 1559000   0.63877782   -7.8468798    315.29771   0.01685363   0.01595123            3 
 1560000   0.63534122   -7.8373462     314.7221  0.016812078  0.015938648            3 
 1561000   0.63886119   -7.8510269    315.98133  0.016868531  0.015926119            4 
 1562000   0.63914527   -7.8153519    314.88789  0.016799396  0.015913601            3 
 1563000   0.62860544   -7.8140643    315.47166  0.016819773  0.015901098            5 
 1564000   0.64768958   -7.8400251    315.35727  0.016802923  0.015888593            6 
 1565000   0.62069311   -7.8601212    315.43907  0.016796542  0.015876085            4 
 1566000   0.63645578    -7.843295     315.5308  0.016790698  0.015863596            6 
 1567000   0.63283829   -7.8547941    315.04594  0.016754198  0.015851111            5 
 1568000   0.62097381   -7.8330024     314.7973  0.016730299  0.015838646            7 
 1569000   0.63388436   -7.8497359    315.86322  0.016776249  0.015826194            6 
 1570000   0.62434231   -7.8148245    315.99632  0.016772628  0.015813746            4 
 1571000   0.63807421   -7.8475498    315.25822    0.0167228  0.015801295            4 
 1572000   0.61830097    -7.843054    315.29796  0.016714269  0.015788855            5 
 1573000   0.62690916   -7.8598117    314.94935  0.016685174  0.015776395           11 
 1574000   0.62277296    -7.851399    314.93451  0.016673788  0.015763939            8 
 1575000   0.62881514    -7.849707     314.6438   0.01664782  0.015751487            8 
 1576000   0.62484129   -7.8509947    315.24447  0.016669018  0.015739033            4 
 1577000   0.61467643   -7.8371076    315.45362    0.0166695  0.015726601            4 
 1578000   0.62048702    -7.847577    314.88126  0.016628711  0.015714149            7 
 1579000   0.60438969   -7.8490993    314.97839  0.016623305   0.01570171            8 
 1580000    0.6111408    -7.830867    315.07227  0.016617736  0.015689283           10 
 1581000   0.62851356   -7.8548153    315.20386  0.016614161  0.015676885            6 
 1582000   0.61700526   -7.8689529    314.70654  0.016577462  0.015664474            4 
 1583000   0.63136096   -7.8427728    314.92277  0.016578373  0.015652087           10 
 1584000   0.62227971   -7.8697908    314.38586   0.01653966  0.015639688            6 
 1585000   0.61954433    -7.851751    315.33088  0.016578911  0.015627289            8 
 1586000   0.61565757   -7.8759954    314.72603  0.016536677  0.015614891            4 
 1587000   0.62738971   -7.8435359    314.72481  0.016526193  0.015602512            5 
 1588000   0.61236297   -7.8902879    314.91574  0.016525805  0.015590129           10 
 1589000   0.61963109   -7.8731728    314.73634  0.016505997  0.015577743           11 
 1590000   0.61605808   -7.8790067    314.77885  0.016497843   0.01556537           17 
 1591000   0.62439418   -7.8665604    314.72184  0.016484487  0.015553005            6 
 1592000   0.61745342   -7.8729696    314.89048  0.016482961  0.015540635            9 
 1593000    0.6055714    -7.884882    314.68328  0.016461774  0.015528271            5 
 1594000   0.60912541   -7.8521711     314.6546  0.016449948  0.015515947           11 
 1595000   0.61157845   -7.8661238    314.89392  0.016452138  0.015503632            5 
 1596000   0.61912598   -7.8753349    314.90308  0.016442308  0.015491295            8 
 1597000   0.60903401   -7.8436149    315.26871  0.016451091  0.015478985           10 
 1598000   0.61959303   -7.8609098    314.59274  0.016405545  0.015466679            7 
 1599000   0.60765051   -7.8474035    314.64063  0.016397781  0.015454408            6 
 1600000   0.61536794   -7.8596928    314.43185  0.016376659  0.015442132            5 
 1601000   0.60763818   -7.8651852    315.37919   0.01641574  0.015429877           11 
 1602000   0.61220811   -7.8607481    314.98297  0.016384882  0.015417599            8 
 1603000   0.61152797   -7.8705384    314.74172  0.016362119  0.015405341            6 
 1604000   0.60556125   -7.8849842    314.32751  0.016330399  0.015393071           14 
 1605000   0.61328621   -7.8903609    314.33402  0.016320562  0.015380794           10 
 1606000   0.60770228    -7.883008    314.70465  0.016329631  0.015368526            5 
 1607000   0.61417585   -7.8713674    314.03404  0.016284694  0.015356265            8 
 1608000   0.61303153   -7.8817852    314.40186  0.016293629  0.015343995            5 
 1609000   0.62249885   -7.8669161    314.49584   0.01628837  0.015331718            7 
 1610000   0.60704373   -7.9041522    314.41332  0.016273981  0.015319438           15 
 1611000   0.60522744   -7.8901793    313.54134  0.016218774  0.015307155           13 
 1612000      0.62598   -7.8766771    314.10711  0.016237961   0.01529489           17 
 1613000   0.61228263   -7.8997392    314.20346  0.016232871  0.015282638           10 
 1614000   0.61517863   -7.8979513       314.67  0.016246902    0.0152704            7 
 1615000   0.60666236   -7.8927251    314.47773  0.016226921  0.015258167           10 
 1616000   0.58962745   -7.8821591    314.03331  0.016193962  0.015245957            6 
 1617000   0.60328758   -7.9010868    314.05101  0.016184859  0.015233754            7 
 1618000   0.60769444   -7.8952338    313.55356  0.016149236  0.015221537            6 
 1619000    0.6011502    -7.896743    314.46803   0.01618633  0.015209311            4 
 1620000   0.59615219   -7.8870031    314.34028  0.016169767  0.015197142            7 
 1621000   0.60949751   -7.8838168    313.93409  0.016138911  0.015184956            6 
 1622000   0.60337134   -7.8948489    314.07772   0.01613634  0.015172779            8 
 1623000   0.60078555   -7.8740868    314.15518  0.016130375  0.015160625            6 
 1624000   0.62573927   -7.8798102    314.39972  0.016132991  0.015148466            7 
 1625000   0.60452783   -7.9196125    314.16503  0.016111027  0.015136315            5 
 1626000   0.59682622   -7.8808035    314.31297  0.016108701  0.015124169            7 
 1627000   0.59797886   -7.8817859    314.03628  0.016084628  0.015112041            7 
 1628000   0.60552189   -7.8829251    314.41097  0.016093928  0.015099961            6 
 1629000   0.61039473   -7.8955443    314.33565  0.016080195  0.015087872            5 
 1630000   0.59121067   -7.8925792    313.83689  0.016044831  0.015075784            9 
 1631000    0.5943689   -7.9033953    314.35452  0.016061441  0.015063709            7 
 1632000   0.60558764   -7.8890311    313.99349  0.016033164  0.015051665            5 
 1633000   0.61073393   -7.9121489    314.58755  0.016053661  0.015039621           10 
 1634000   0.60418582   -7.9264553    313.77795  0.016002547  0.015027578            7 
 1635000   0.59599964   -7.9093615    314.34905  0.016021868  0.015015561            6 
 1636000   0.59213147   -7.8943441    314.30698  0.016009932   0.01500356            8 
 1637000   0.59824191   -7.8985184    314.38279  0.016004011  0.014991577            6 
 1638000   0.60029204   -7.9015054    314.56127   0.01600332  0.014979599           10 
 1639000   0.59119552   -7.9170328    314.15081  0.015972687  0.014967618           21 
 1640000   0.61480942   -7.9071804    313.90694  0.015950556  0.014955633            8 
 1641000   0.59945307   -7.9063966    314.53549  0.015972755  0.014943668           10 
 1642000   0.59170028   -7.9013003     314.4592  0.015959155  0.014931721            6 
 1643000   0.58648165   -7.9085731    314.33492  0.015943139  0.014919767           11 
 1644000   0.60612605   -7.9256807    314.07202  0.015920114  0.014907812            7 
 1645000   0.60337566   -7.9084086    314.33372  0.015923694  0.014895891           11 
 1646000   0.59672784   -7.9365848    313.80572  0.015887288  0.014883957           10 
 1647000   0.61164583   -7.9268694    314.25697  0.015900474  0.014872025           13 
 1648000   0.59731548   -7.9007652    314.29021  0.015892507  0.014860117           11 
 1649000    0.5911768   -7.9134494    314.16377  0.015876479  0.014848201           15 
 1650000   0.58759638   -7.9323164    313.75846  0.015846387  0.014836278            8 
 1651000   0.60295629   -7.9275389    313.71437  0.015834564  0.014824351            6 
 1652000   0.59710532   -7.9210279     314.1971  0.015849329  0.014812451           12 
 1653000   0.60794383   -7.9115022    314.05826  0.015832741  0.014800554            7 
 1654000   0.59665819   -7.9352686    314.04588  0.015822545  0.014788674           16 
 1655000   0.59766596   -7.8950434    313.31628  0.015776248  0.014776798            7 
 1656000   0.58722703    -7.931992    313.57054  0.015779516  0.014764916            8 
 1657000   0.58828657   -7.9160837    313.66767  0.015774878  0.014753072            4 
 1658000   0.60023225   -7.9098417    314.18445  0.015791338  0.014741223            6 
 1659000   0.59046623   -7.9336117     313.6919  0.015757078  0.014729379            7 
 1660000   0.58950502   -7.9406266    313.72508  0.015749251  0.014717532            9 
 1661000   0.59891281   -7.9246734     313.6718  0.015737096  0.014705703            9 
 1662000   0.60086337   -7.9367551    313.64498  0.015726282  0.014693861           12 
 1663000   0.60326646   -7.9319947    313.86983  0.015728093  0.014682021            6 
 1664000   0.58774428   -7.9222814    313.47388  0.015698812  0.014670191            6 
 1665000   0.59677504   -7.9276703    313.69018  0.015700209  0.014658361            8 
 1666000   0.59447981   -7.9429352    313.43591  0.015678067   0.01464654            8 
 1667000   0.59996942   -7.9498711    313.71844  0.015682785  0.014634711            7 
 1668000   0.59053898   -7.9218311    313.62396  0.015668663  0.014622907            8 
 1669000    0.5923362    -7.947991    313.53381  0.015654774   0.01461113            7 
 1670000   0.59067092   -7.9669403    313.52541   0.01564498  0.014599358           13 
 1671000   0.59793715   -7.9488739    313.58894  0.015638786  0.014587596            6 
 1672000   0.58812766   -7.9332647    313.59486  0.015629728  0.014575848           15 
 1673000   0.58291721   -7.9388808    313.79094  0.015630152  0.014564092           12 
 1674000   0.59397201   -7.9557879    313.81106  0.015621817  0.014552355           13 
 1675000   0.57925919   -7.9510426    313.96064  0.015619932  0.014540624           18 
 1676000     0.587558   -7.9635647    313.46961  0.015586198  0.014528901           15 
 1677000   0.59569594   -7.9433099    313.36831   0.01557187  0.014517189           17 
 1678000    0.5936985   -7.9650178    312.88262  0.015538469  0.014505475            9 
 1679000   0.58247407   -7.9550278    313.54743  0.015562211  0.014493775            9 
 1680000   0.58828515   -7.9334502    313.24226  0.015537811  0.014482081           10 
 1681000   0.58767703    -7.968147    313.77472  0.015554963  0.014470411           14 
 1682000   0.59925806   -7.9314718    313.72333  0.015543169  0.014458749           15 
 1683000   0.58546854   -7.9551508    313.43512  0.015519663  0.014447091           10 
 1684000   0.58635919   -7.9463418    313.13828  0.015495758  0.014435457            8 
 1685000   0.57511919   -7.9457593    313.91806  0.015525127  0.014423812            8 
 1686000   0.58409966   -7.9377021    313.24305  0.015482555  0.014412188           11 
 1687000   0.57842079   -7.9522279    313.30186  0.015476282  0.014400571           14 
 1688000   0.58880765   -7.9465826     313.4452   0.01547419  0.014388981           21 
 1689000   0.57104156    -7.953267    313.77101  0.015481104  0.014377394           17 
 1690000   0.58300928   -7.9494557    313.75404  0.015471106  0.014365812            5 
 1691000   0.58864887   -7.9653326    313.70979  0.015459777  0.014354252           19 
 1692000   0.58874671   -7.9594723    313.67492  0.015448922  0.014342692            5 
 1693000    0.5803823    -7.985142    313.26386  0.015419564  0.014331138           20 
 1694000   0.58315435   -7.9392224    314.20543   0.01545678  0.014319596            6 
 1695000    0.5760724   -7.9555332     313.6065  0.015418215   0.01430807            7 
 1696000   0.56511285   -7.9848782     313.2734  0.015392757  0.014296546            3 
 1697000   0.58122291   -7.9469244    313.67766  0.015403539  0.014285018            5 
 1698000   0.57436055   -7.9580304    313.41434  0.015381544  0.014273484           10 
 1699000   0.57789774   -7.9539234    312.84514  0.015344572   0.01426199            6 
 1700000   0.56855496   -7.9380529    313.21541  0.015353696  0.014250528            6 
 1701000    0.5798815   -7.9406505    314.03275  0.015384713  0.014239067            9 
 1702000   0.56402228   -7.9338548    313.40301   0.01534484  0.014227613            5 
 1703000   0.58543456    -7.955445    313.30635  0.015331099   0.01421615            4 
 1704000   0.56456073   -7.9561411    313.77712  0.015345125  0.014204706           12 
 1705000   0.57385776   -7.9826893    313.62829  0.015328851  0.014193277            7 
 1706000   0.57216388   -7.9813989    313.51406  0.015314286  0.014181844            9 
 1707000   0.57777981   -7.9616934    313.49919  0.015304588  0.014170421            7 
 1708000   0.60020722   -7.9489945    313.14575  0.015278384  0.014159016            7 
 1709000    0.5633261   -7.9719783    313.27177  0.015275589  0.014147619            8 
 1710000   0.56729718   -7.9670813    313.26495  0.015266323  0.014136229            7 
 1711000   0.58013835   -7.9561231     312.5894  0.015224498  0.014124834            4 
 1712000   0.58102569   -7.9635519    313.51579  0.015260699  0.014113456            5 
 1713000   0.57811529    -7.984191    312.92989  0.015223287  0.014102078            9 
 1714000   0.57922845    -7.973526    313.24981   0.01522996  0.014090704           11 
 1715000   0.57085389   -7.9848229    313.82115  0.015248841  0.014079328            8 
 1716000   0.57024033   -7.9723606    313.11764   0.01520579  0.014067974           11 
 1717000   0.55944596   -7.9706815    312.63565  0.015173542  0.014056627           11 
 1718000   0.58540763   -7.9848925    312.88335  0.015176724  0.014045302            7 
 1719000    0.5519483   -7.9798354    313.39928  0.015192907  0.014033983            8 
 1720000    0.5792583   -7.9759006    313.07704  0.015168461  0.014022677            6 
 1721000   0.57214483   -7.9689423    313.20432  0.015165811  0.014011369            7 
 1722000   0.56494424   -7.9972235    312.77139  0.015136052   0.01400006           14 
 1723000   0.55089784   -7.9692767    312.93975  0.015135411  0.013988768            4 
 1724000   0.56267996   -7.9715789    312.68965  0.015114542  0.013977496            4 
 1725000   0.56012023   -7.9729886    313.49446   0.01514466   0.01396622            7 
 1726000   0.56959059   -7.9643778    313.55145  0.015138637  0.013954979            6 
 1727000   0.56609082   -7.9514967    312.75964  0.015091664  0.013943745            5 
 1728000   0.55512233   -7.9863931    313.79715  0.015132964  0.013932512            7 
 1729000   0.54364597   -7.9962705    313.37705  0.015103964  0.013921279            5 
 1730000    0.5606351   -7.9757111    312.74478  0.015064777  0.013910072            7 
 1731000   0.56037151   -7.9784698    313.21588  0.015078754  0.013898881           15 
 1732000   0.55787507   -7.9638242    313.29208  0.015073714  0.013887703            8 
 1733000   0.55449127   -8.0106747    312.98624   0.01505031  0.013876533           18 
 1734000    0.5693625   -7.9904504    313.32532  0.015057926  0.013865359            7 
 1735000   0.57482327   -7.9907079    312.84116  0.015025992  0.013854205            4 
 1736000   0.55767495   -7.9851435    312.87712  0.015019063  0.013843047            6 
 1737000   0.56063718   -7.9714391    312.88346  0.015010721  0.013831921            5 
 1738000   0.55161642   -8.0080086    312.75443  0.014995897  0.013820788            9 
 1739000   0.56763822   -7.9902998    313.39764  0.015018097  0.013809672            7 
 1740000   0.56337587   -7.9780778    312.37891  0.014960676  0.013798566            8 
 1741000   0.55475781   -7.9865649    312.87201  0.014975685  0.013787479            9 
 1742000    0.5616422   -7.9935909    313.11177  0.014978558  0.013776392            8 
 1743000   0.56639973   -7.9841113    312.92562  0.014961064  0.013765317           11 
 1744000   0.55537528   -7.9727124    313.24172   0.01496759   0.01375426            7 
 1745000   0.56392645    -7.981549    313.58569  0.014975439  0.013743197            7 
 1746000   0.55138946   -8.0010753    312.90177   0.01493422   0.01373215            6 
 1747000   0.56096833   -7.9918899     312.8964  0.014925415  0.013721101            9 
 1748000   0.55732735    -8.003892    312.62258  0.014903822  0.013710067            9 
 1749000    0.5524537   -7.9900863    312.91943  0.014909445  0.013699044            9 
 1750000   0.55946177   -7.9916357    312.81793  0.014896092  0.013688048            9 
 1751000   0.55018089    -7.991247    313.07398   0.01489977  0.013677054            6 
 1752000   0.54626564   -7.9939687    312.56496  0.014867055  0.013666073           11 
 1753000   0.56757013   -7.9922641    313.12413  0.014885156  0.013655098           11 
 1754000   0.55906757   -7.9991567    312.60795  0.014852145  0.013644115           11 
 1755000   0.56447504   -7.9844703    312.58003  0.014842356  0.013633141           11 
 1756000   0.54937082   -8.0030267    313.44564  0.014874983  0.013622185           15 
 1757000   0.54787484   -8.0053334    312.39331  0.014816605   0.01361124            8 
 1758000   0.54913092   -7.9888146    312.69675  0.014822561  0.013600301           23 
 1759000      0.56087     -8.00233    312.90976  0.014824226   0.01358937           13 
 1760000    0.5492186   -7.9913939    312.79406  0.014810325  0.013578425           18 
 1761000   0.55921651    -8.000796    313.22348  0.014822235   0.01356751           15 
 1762000   0.55559966   -7.9916604    313.45473   0.01482476   0.01355661           21 
 1763000   0.56835982   -8.0071738    312.60245  0.014776066  0.013545725           16 
 1764000   0.54588635   -7.9947586    312.87413  0.014780524  0.013534847           12 
 1765000   0.53453814    -7.969662    312.67286  0.014762647  0.013523978           12 
 1766000   0.54694539    -8.007445    313.48577  0.014792647  0.013513124           23 
 1767000   0.56425952   -8.0015411    313.21355  0.014771437  0.013502288           10 
 1768000   0.55899543   -8.0023155    313.13224   0.01475925  0.013491457           14 
 1769000   0.55241669   -7.9999875    312.83085  0.014736709  0.013480635            8 
 1770000   0.53794489   -7.9960602    312.59298  0.014717183   0.01346983            8 
 1771000   0.55347461   -7.9988084    312.97202  0.014726709  0.013459036            9 
 1772000   0.53178026   -8.0033519    313.26497  0.014732175  0.013448242            9 
 1773000   0.54573373   -8.0065214    313.17094  0.014719446  0.013437454           18 
 1774000   0.52716653   -8.0228252    313.11118  0.014708342  0.013426675           10 
 1775000   0.54432465   -7.9972121    312.92514  0.014691321  0.013415919           14 
 1776000   0.53192502   -8.0127524    312.65984    0.0146706  0.013405157           12 
 1777000   0.56173269   -7.9922438    312.47872  0.014653851  0.013394426           16 
 1778000   0.54774728   -8.0055177    312.47104  0.014645249  0.013383686           13 
 1779000   0.53460859   -8.0217601    313.02573     0.014663  0.013372959           14 
 1780000   0.54018067   -8.0201723    312.53781   0.01463192  0.013362251           12 
 1781000   0.54875547   -7.9960237    313.44336  0.014666075  0.013351557            5 
 1782000   0.55294275   -8.0081388    313.39658  0.014655658  0.013340876           10 
 1783000   0.54305889   -8.0261776    312.55894  0.014608289  0.013330206            8 
 1784000   0.55256313   -8.0145527    312.89511  0.014615803  0.013319572           10 
 1785000   0.55715276   -8.0190718    313.07766  0.014616137  0.013308918           14 
 1786000   0.54154072    -8.026713    313.20654  0.014613967  0.013298266           13 
 1787000   0.54213893   -8.0182973    312.73091  0.014583609  0.013287628            7 
 1788000   0.54367513   -8.0285952    312.44609  0.014562178  0.013276994           14 
 1789000   0.53821495   -8.0299631    312.39493  0.014551655  0.013266373           12 
 1790000   0.55325113   -8.0233255    313.06796  0.014574858  0.013255756            9 
 1791000   0.53684158   -8.0057791    312.70388   0.01454978  0.013245143           19 
 1792000   0.53129944   -8.0198321    312.71838  0.014542335  0.013234549           13 
 1793000   0.53606211   -8.0243089    313.17459  0.014555428  0.013223958           14 
 1794000   0.53811779   -8.0022604    313.06729   0.01454233  0.013213367           18 
 1795000   0.53234601   -8.0047439     313.2521  0.014542808  0.013202805           11 
 1796000    0.5279555   -8.0197461    312.98078  0.014522122  0.013192254           10 
 1797000   0.53991864   -8.0187197    312.46269  0.014490015  0.013181693           18 
 1798000   0.51973692   -8.0277367    312.74294  0.014494946   0.01317116           14 
 1799000   0.53076551    -8.013622    312.95643  0.014496777  0.013160629           16 
 1800000   0.53092474   -8.0405497    312.98081  0.014489852  0.013150102           12 
 1801000   0.53161209   -8.0149276    312.23965  0.014447513  0.013139575           10 
 1802000   0.54203599   -8.0257758    312.42323  0.014447985  0.013129055           10 
 1803000   0.52464916   -8.0176218    312.19259  0.014429312  0.013118545            6 
 1804000   0.52615867    -8.015271    312.59707  0.014439998  0.013108052           10 
 1805000   0.51947582   -8.0308187    313.04722   0.01445278  0.013097581           10 
 1806000   0.53066849   -8.0284183    312.76891  0.014431936  0.013087123            9 
 1807000   0.53408797    -8.024566    313.13495   0.01444083  0.013076672           10 
 1808000   0.53149686   -8.0162432    313.16458  0.014434208   0.01306623           11 
 1809000   0.53372454   -8.0358358    312.44085   0.01439289  0.013055784            6 
 1810000   0.53493895   -8.0673594    312.29994   0.01437845  0.013045364            9 
 1811000   0.53778178   -8.0433236    312.75282   0.01439135  0.013034965            7 
 1812000   0.53049419   -8.0253382    312.49398  0.014371504  0.013024556            8 
 1813000   0.52690487   -8.0344603    313.04666  0.014388981  0.013014177            8 
 1814000   0.52736296   -8.0412735    312.77646  0.014368636   0.01300381            8 
 1815000   0.51956589   -8.0327427    312.76671  0.014360271  0.012993452            8 
 1816000   0.53339793   -8.0287295    312.83896  0.014355679  0.012983108            6 
 1817000   0.53426765   -8.0229413    313.09961  0.014359733  0.012972767            7 
 1818000   0.52516543   -8.0162021    312.67975  0.014332588  0.012962429            4 
 1819000   0.53197599   -8.0406345    312.40403  0.014312078    0.0129521            7 
 1820000   0.52981527   -8.0496443    312.46525  0.014307017  0.012941787            6 
 1821000   0.54713137   -8.0341482    312.39478  0.014295935  0.012931478           12 
 1822000   0.53435503   -8.0414759    312.86407  0.014309553  0.012921186            8 
 1823000   0.52124186   -8.0199195    312.74593  0.014296303  0.012910906           11 
 1824000    0.5291175   -8.0295428    312.61444  0.014282458  0.012900622            8 
 1825000   0.52298216   -8.0292502    312.34344  0.014262258  0.012890356            7 
 1826000   0.51479692   -8.0406218    312.89202  0.014279482   0.01288011            8 
 1827000   0.51352983   -8.0494788    312.33065  0.014246061   0.01286984            6 
 1828000   0.52847101   -8.0503004    312.15292  0.014230166   0.01285958            6 
 1829000   0.52281666   -8.0685004    312.32801  0.014230363  0.012849321            4 
 1830000   0.52192958   -8.0519221    312.50579  0.014230683  0.012839079            8 
 1831000   0.52179985   -8.0459659    312.24364  0.014210979  0.012828849            8 
 1832000   0.51868691   -8.0372628    312.50555  0.014215136  0.012818624           11 
 1833000    0.5081426   -8.0262711    312.41229  0.014203141   0.01280841           11 
 1834000   0.51785231   -8.0470458    311.89882  0.014172066  0.012798207            8 
 1835000   0.51599222   -8.0357563    312.76585  0.014203717  0.012788028            7 
 1836000   0.51889893   -8.0522946    312.36402  0.014177742  0.012777845            8 
 1837000    0.5216869   -8.0569089    311.97999  0.014152603  0.012767669            6 
 1838000   0.51854089   -8.0461415    312.81843  0.014182918  0.012757496            8 
 1839000   0.51952048   -8.0537534    312.60063  0.014165336  0.012747347           11 
 1840000   0.51886428   -8.0515426     312.5537  0.014155512  0.012737183            8 
 1841000    0.5232288   -8.0406527    312.32217  0.014137342   0.01272704            8 
 1842000    0.5162296   -8.0606496    312.08068  0.014118742  0.012716903           12 
 1843000   0.50770104   -8.0318199    312.39863  0.014125458  0.012706766            7 
 1844000   0.52882038   -8.0495354    312.13783  0.014106012  0.012696636            6 
 1845000   0.52070065   -8.0429653    312.65204  0.014121592   0.01268652            8 
 1846000   0.51134237   -8.0438031    312.13479  0.014090592  0.012676415           15 
 1847000   0.51624544   -8.0542226    312.12411  0.014082481  0.012666331            6 
 1848000   0.51993016   -8.0618682    312.02305  0.014070303  0.012656239            9 
 1849000    0.5129215   -8.0504743    312.48514   0.01408352  0.012646167            6 
 1850000    0.5068993   -8.0576668    312.25936  0.014065737  0.012636103           10 
 1851000   0.51247005    -8.057914    312.16024  0.014053676  0.012626054            7 
 1852000   0.51660596   -8.0504121    312.06489  0.014041797  0.012616017            7 
 1853000   0.51291112   -8.0441245    312.12073   0.01403673  0.012605997            8 
 1854000   0.51574394   -8.0487084    312.36836  0.014040289   0.01259598            6 
 1855000   0.50480028   -8.0632109    312.01201  0.014016712  0.012585971            8 
 1856000   0.50865638   -8.0694043    312.44319   0.01402852   0.01257597           11 
 1857000   0.50068436   -8.0408049    311.83531  0.013993687  0.012565962            4 
 1858000    0.5241669   -8.0512664    312.45105  0.014013772  0.012555983           13 
 1859000   0.50844039   -8.0578472    311.94243  0.013983433  0.012546005            9 
 1860000   0.50621837   -8.0655769    312.06457  0.013981387  0.012536015           11 
 1861000   0.50888092   -8.0550577    312.33965  0.013986192  0.012526049            5 
 1862000   0.51815213   -8.0630483    312.43318  0.013982867  0.012516095            9 
 1863000   0.51739324   -8.0452381    311.87292  0.013950301  0.012506157           10 
 1864000   0.51107718   -8.0612354    312.00801  0.013948856  0.012496233            7 
 1865000   0.50490999   -8.0705053    312.24406  0.013951924  0.012486309            9 
 1866000   0.52140492   -8.0555838    311.84357  0.013926562  0.012476401           12 
 1867000    0.5065114    -8.071593    311.85957  0.013919817  0.012466495           11 
 1868000   0.50365539    -8.047486    312.15562  0.013925572  0.012456608            6 
 1869000   0.50245275    -8.075249     312.3151  0.013925232  0.012446724            7 
 1870000    0.5066604   -8.0727946    311.66612  0.013888865  0.012436843            9 
 1871000   0.50446207   -8.0808152    312.04752  0.013898429  0.012426963            7 
 1872000   0.49233176   -8.0632384    312.09479  0.013893108  0.012417099            6 
 1873000   0.50798739    -8.081288    312.41832  0.013900085  0.012407247            9 
 1874000     0.497708    -8.070624    311.65468   0.01385871  0.012397404           11 
 1875000   0.50675331   -8.0849055    312.39553  0.013884246  0.012387569            8 
 1876000   0.50374229   -8.0919833    312.50187  0.013881568  0.012377728            7 
 1877000   0.50130831   -8.0761068    311.94934  0.013849642  0.012367903            4 
 1878000   0.50119929   -8.0698828    312.05849  0.013847111  0.012358084            7 
 1879000   0.50769951   -8.0856723    311.96311  0.013835511  0.012348271            9 
 1880000   0.50181357    -8.065087    312.77499  0.013864139  0.012338477           11 
 1881000    0.4949912   -8.0732541    312.06229  0.013825194  0.012328687            7 
 1882000   0.49204498   -8.0958966    312.01479  0.013815745  0.012318899           10 
 1883000   0.49271989   -8.0954419    311.68329  0.013793737  0.012309129            9 
 1884000   0.50160236   -8.0706089    312.02408   0.01380149  0.012299362           11 
 1885000    0.5014571   -8.0822789    312.34638  0.013808416   0.01228962           15 
 1886000   0.48319075   -8.0692702    312.29999  0.013799045   0.01227988           12 
 1887000   0.50370802   -8.0547166    312.14274  0.013784788  0.012270153           12 
 1888000   0.50267537   -8.1015455    311.82856  0.013763619  0.012260427            6 
 1889000   0.49474516   -8.0832085    312.26991  0.013775803  0.012250711            9 
 1890000   0.49903775   -8.0820115    312.27743  0.013768846   0.01224101            8 
 1891000   0.48948347      -8.0629    311.90247  0.013745041  0.012231308           10 
 1892000   0.50505603   -8.0925113    312.04714  0.013744148   0.01222163            6 
 1893000   0.50740733   -8.1030203    312.04196   0.01373666  0.012211967           16 
 1894000   0.49894374    -8.078506    311.43423  0.013702668  0.012202297            7 
 1895000   0.48689411   -8.0915438    312.14858  0.013726851  0.012192641            8 
 1896000   0.48865958   -8.0723337    311.96758  0.013711655  0.012182998            9 
 1897000    0.4904563   -8.0917298    311.96565  0.013704342  0.012173355            8 
 1898000   0.48662845   -8.0796135    311.64922  0.013683229  0.012163728            7 
 1899000   0.50510344   -8.0650081    311.78878  0.013682148   0.01215411            6 
 1900000   0.50691967   -8.0834328    311.87491  0.013678724  0.012144498            8 
 1901000   0.48929242   -8.0774707    311.87287  0.013671439  0.012134907           10 
 1902000    0.4890266   -8.0863857    312.08939  0.013673738  0.012125324           10 
 1903000   0.48969659   -8.1064087    311.78684  0.013653304  0.012115733            9 
 1904000    0.4886804   -8.1073837    312.20229  0.013664316  0.012106145           13 
 1905000   0.49404336   -8.0850648    311.95902  0.013646501  0.012096569           11 
 1906000   0.49749307    -8.115487    311.62675  0.013624814  0.012086995           10 
 1907000   0.49359845   -8.0971599     311.2586  0.013601582  0.012077427           10 
 1908000   0.48881093   -8.0810268      312.037  0.013628451  0.012067879            7 
 1909000    0.5005523   -8.0936974    311.57921  0.013601327  0.012058334           10 
 1910000    0.4916322   -8.1087346     312.1967  0.013621147  0.012048801           12 
 1911000   0.49105657   -8.1024051    311.87942  0.013600184  0.012039265           10 
 1912000   0.49272684   -8.0892128    311.63347  0.013582351  0.012029743           13 
 1913000   0.48814969   -8.0842775    311.32938  0.013562005  0.012020227           11 
 1914000   0.48733062   -8.0967003    311.19616  0.013549119  0.012010717           10 
 1915000   0.49091029   -8.1031101    311.48136  0.013554454  0.012001231           13 
 1916000   0.48713923   -8.1075544    311.94734  0.013567647  0.011991752            8 
 1917000   0.49265522   -8.1077929    311.74788  0.013551899  0.011982282           12 
 1918000   0.48613561   -8.1100233    311.77341  0.013545942  0.011972819            9 
 1919000   0.48869713    -8.112366     311.3796  0.013521782  0.011963366            9 
 1920000   0.49140381   -8.1074286    311.56016  0.013522576  0.011953926           11 
 1921000   0.49283024   -8.1002422    311.22503  0.013500999  0.011944483            8 
 1922000   0.48478959   -8.1019796    311.49733  0.013505781  0.011935055           10 
 1923000   0.49367821   -8.1039139    311.73711  0.013509149  0.011925631            8 
 1924000   0.48468685    -8.105709    311.54305  0.013493722   0.01191621           11 
 1925000   0.49192562   -8.1083974    311.45379  0.013482848  0.011906799            7 
 1926000   0.48199715   -8.1200215    311.06315  0.013458946  0.011897391            9 
 1927000   0.48371284    -8.124191    311.49645  0.013470699  0.011887991           11 
 1928000   0.48489579    -8.121967    311.78113  0.013476017  0.011878604           13 
 1929000   0.48702676   -8.0937812    311.14211  0.013441425  0.011869226            7 
 1930000   0.48413536      -8.1075    311.69732  0.013458434  0.011859862           12 
 1931000   0.47643507   -8.1070751    311.19958  0.013429984  0.011850504           10 
 1932000   0.47446643   -8.1157758    311.50103  0.013436035  0.011841149           10 
 1933000   0.48658241   -8.0988378    311.54796  0.013431107   0.01183181           12 
 1934000   0.48149338   -8.1073128    311.17173  0.013407951  0.011822484           10 
 1935000   0.47386613   -8.1142856     311.0613  0.013396266  0.011813161            9 
 1936000    0.4896988   -8.1188335    311.47611  0.013407202  0.011803851           12 
 1937000   0.47455881   -8.1232201    311.49577  0.013401126  0.011794545           15 
 1938000   0.47922222   -8.1281104    311.97927  0.013415001  0.011785249            7 
 1939000   0.48253611   -8.1298834    311.47449  0.013386389  0.011775952            7 
 1940000   0.48217581   -8.1277759    311.06663  0.013361969  0.011766663           12 
 1941000   0.47847084   -8.1226079    311.45148  0.013371607    0.0117574           17 
 1942000    0.4679507   -8.1141975    310.51473  0.013324525   0.01174812           11 
 1943000    0.4753207   -8.1175736     311.1233  0.013343768  0.011738856           13 
 1944000   0.47073115   -8.1425626    311.33936  0.013346166  0.011729596           12 
 1945000   0.47861624   -8.1128716    311.59684  0.013350336  0.011720353            9 
 1946000   0.47551517   -8.1363431    310.72805  0.013306271  0.011711107            8 
 1947000   0.46674459   -8.1308763    310.97471  0.013309994  0.011701874           10 
 1948000   0.47131013   -8.1252211    311.19635  0.013312643  0.011692654           10 
 1949000    0.4618031   -8.1410781    311.09708  0.013301568  0.011683437           11 
 1950000   0.47752224   -8.1278455    311.35362   0.01330571  0.011674233           12 
 1951000   0.46382181   -8.1296733     311.5581  0.013307624  0.011665045           13 
 1952000   0.47717357   -8.1331431    311.41245  0.013294589  0.011655861            9 
 1953000   0.47151106   -8.1169616     311.2991  0.013282945  0.011646679           17 
 1954000   0.47315054   -8.1344944     311.3553  0.013278544  0.011637514            9 
 1955000   0.47753355   -8.1340521    311.28872  0.013268914   0.01162835            8 
 1956000   0.46683037   -8.1343718    311.12146  0.013255004    0.0116192            7 
 1957000   0.47764463   -8.1279051     310.8717  0.013237596  0.011610046            8 
 1958000   0.45876695   -8.1297172    311.50767  0.013257902  0.011600913            7 
 1959000   0.48029337   -8.1200304    310.82228  0.013221979  0.011591788            6 
 1960000   0.47970975   -8.1317454    311.40031  0.013239809  0.011582675           11 
 1961000   0.45353169   -8.1211836    311.57228  0.013240366  0.011573567            7 
 1962000   0.45793371   -8.1384345    311.10282  0.013213677  0.011564461           15 
 1963000   0.46866176   -8.1392593    310.83836  0.013195719  0.011555365           10 
 1964000   0.47167304   -8.1289121    310.56874   0.01317756  0.011546269           30 
 1965000   0.47066577   -8.1396697    310.72927  0.013177662  0.011537191           11 
 1966000   0.46493519   -8.1310679    311.17927  0.013190033  0.011528122           15 
 1967000   0.45504553   -8.1358538     310.9327  0.013172882  0.011519054           24 
 1968000   0.46216031   -8.1560062    310.99902  0.013168997      0.01151           11 
 1969000   0.47166069   -8.1363328    311.01459  0.013162967  0.011500947            7 
 1970000   0.46390561   -8.1287313    310.88037  0.013150608  0.011491906           10 
 1971000   0.47219709   -8.1433847    311.38824  0.013165408  0.011482881           11 
 1972000   0.46732669   -8.1596011    311.09137  0.013146187  0.011473862            9 
 1973000   0.45615135   -8.1470098    310.61311  0.013119324  0.011464858           10 
 1974000   0.46192703   -8.1366706    310.72637  0.013117459  0.011455858            8 
 1975000   0.46503247   -8.1532288     311.2822   0.01313427  0.011446872           14 
 1976000   0.47328866   -8.1432311    310.53402   0.01309607  0.011437891            7 
 1977000   0.45554155   -8.1446122     310.9563  0.013107246  0.011428921           31 
 1978000   0.46793613   -8.1260244    310.83659  0.013095576  0.011419956           15 
 1979000   0.46069726   -8.1392171    310.93222  0.013092986  0.011410994           17 
 1980000   0.45753307   -8.1431044    311.04146  0.013090971  0.011402048           18 
 1981000   0.45665956   -8.1576768    310.77348   0.01307309  0.011393103           14 
 1982000   0.46062035    -8.156702    311.31806   0.01308939   0.01138417           19 
 1983000   0.46862581   -8.1512429    310.97693  0.013068454  0.011375246           10 
 1984000   0.45808609   -8.1557066    310.87302  0.013057503   0.01136633            9 
 1985000   0.46808041   -8.1647176    310.70689   0.01304395  0.011357424            8 
 1986000   0.46383404   -8.1509352    310.87968  0.013044632  0.011348518           11 
 1987000   0.45687158   -8.1448623    310.87837  0.013038012  0.011339628            8 
 1988000   0.45880821   -8.1480474    310.79929  0.013028139  0.011330746           18 
 1989000    0.4620503   -8.1411049    310.42011  0.013005703  0.011321866           13 
 1990000   0.44981363   -8.1488486    311.03723   0.01302501  0.011312988           16 
 1991000   0.46367422   -8.1573012    310.75049  0.013006466  0.011304117           11 
 1992000    0.4498463   -8.1613551    310.55507  0.012991762  0.011295259           17 
 1993000   0.45422339   -8.1629611    310.43205  0.012980099  0.011286406           22 
 1994000   0.45830572   -8.1611641    310.28969   0.01296764  0.011277559           15 
 1995000   0.44762483   -8.1494497    310.66255  0.012976715  0.011268725           16 
 1996000   0.46082667   -8.1432606    310.43432  0.012960685    0.0112599           16 
 1997000   0.45923267   -8.1496105    310.47832  0.012956031  0.011251087           10 
 1998000   0.44300868   -8.1455213    310.49986  0.012950445   0.01124228           22 
 1999000   0.44783327   -8.1472163     310.7345  0.012953748   0.01123348           17 
 2000000   0.43961028    -8.153785    310.31309  0.012929712   0.01122469           14 
 2001000    0.4440164   -8.1615338    310.47104  0.012929828  0.011215902           12 
 2002000   0.46366857   -8.1572967    310.31276  0.012916781   0.01120712            8 
 2003000   0.44658078   -8.1650943    310.32614  0.012910889  0.011198345           16 
 2004000   0.45355448   -8.1634898     311.0688  0.012935329  0.011189583            9 
 2005000   0.45503069   -8.1663546    310.47203  0.012904074  0.011180832           11 
 2006000   0.44923141   -8.1783759    310.23559   0.01288782  0.011172092           26 
 2007000   0.46195383    -8.171217    310.46329  0.012890852  0.011163357           13 
 2008000   0.46088355   -8.1623399    310.39278  0.012881506  0.011154625           14 
 2009000   0.45672438   -8.1526436    310.24503  0.012868966  0.011145896           22 
 2010000   0.44634217   -8.1436555    310.83086  0.012886851  0.011137184           12 
 2011000   0.45401395   -8.1829775    310.38716  0.012862057  0.011128478           21 
 2012000   0.45629722   -8.1446617    310.87645   0.01287593  0.011119777           15 
Loop time of 4573.99 on 48 procs for 2000000 steps with 4000 atoms

Performance: 75557.632 tau/day, 437.255 timesteps/s
99.4% CPU use with 48 MPI tasks x no OpenMP threads

MPI task timing breakdown:
Section |  min time  |  avg time  |  max time  |%varavg| %total
---------------------------------------------------------------
Pair    | 275.89     | 295.27     | 320.91     |  59.0 |  6.46
Neigh   | 29.076     | 30.022     | 30.919     |   9.0 |  0.66
Comm    | 269.34     | 293.47     | 313.82     |  64.8 |  6.42
Output  | 4.0245     | 4.0261     | 4.0577     |   0.2 |  0.09
Modify  | 3892.1     | 3906       | 3919.2     |   8.7 | 85.40
Other   |            | 45.18      |            |       |  0.99

Nlocal:        83.3333 ave          93 max          76 min
Histogram: 4 4 9 6 8 7 2 2 5 1
Nghost:        1910.42 ave        1934 max        1882 min
Histogram: 2 2 2 2 11 11 3 10 3 2
Neighs:        12068.3 ave       14059 max       10708 min
Histogram: 4 5 8 9 7 5 4 4 1 1
FullNghs:      24136.2 ave       26914 max       21641 min
Histogram: 4 2 5 10 9 3 6 3 1 5

Total # of neighbors = 1158538
Ave neighs/atom = 289.63450
Neighbor list builds = 107445
Dangerous builds = 0

#clear
#
#next RN
#
#jump SELF
Total wall time: 1:16:17
