
units lj                  # Use reduced LJ style units
atom_style atomic         # Uncharged point particles
atom_modify map hash      # Needed for indexing of clusters etc
                          # Used to be able to find where atoms are in relation to each other.

lattice fcc 1.0 spacing 1 1 1
Lattice spacing in x,y,z = 1.5874011 1.5874011 1.5874011
region box block 0 10 0 10 0 10 units lattice
create_box 2 box
Created orthogonal box = (0.0000000 0.0000000 0.0000000) to (15.874011 15.874011 15.874011)
  3 by 4 by 4 MPI processor grid
create_atoms 1 box
Created 4000 atoms
  using lattice units in orthogonal box = (0.0000000 0.0000000 0.0000000) to (15.874011 15.874011 15.874011)
  create_atoms CPU = 0.002 seconds
set type 1 type/fraction 2 0.84 78393
Setting atom values ...
  3354 settings made for type/fraction
mass 1 1.0
mass 2 1.0
pair_style lj/cut  3.5
pair_modify tail  yes
pair_coeff 1  1  1.0  1.0   # Intearaction between 1 and 1 set with epsilon = 1 and sigma = 1
pair_coeff 1  2  1.5  0.8
pair_coeff 2  2  0.5  0.88

write_data data.0
System init for write_data ...
Neighbor list info ...
  update every 1 steps, delay 10 steps, check yes
  max neighbors/atom: 2000, page size: 100000
  master list distance cutoff = 3.8
  ghost atom cutoff = 3.8
  binsize = 1.9, bins = 9 9 9
  1 neighbor lists, perpetual/occasional/extra = 1 0 0
  (1) pair lj/cut, perpetual
      attributes: half, newton on
      pair build: half/bin/atomonly/newton
      stencil: half/bin/3d
      bin: standard
WARNING: Not all mixed pair coeffs generated from mixing. Use write_data with 'pair ij' option to store all pair coeffs. (../write_data.cpp:312)


#############################
#   M E L T   S Y S T E M   #
#############################

velocity all create 2.4 1741580 mom yes dist gaussian # Assign velocities
                                                    # Temperature 2.4, random number seed, zero linear momentum
                                                                                # Gaussian distribution

timestep 0.002   # simulation timestep
thermo 1000       # output thermodynamic data every 1000 steps bf 100

# Define a fix  in this case with index 1 applied to all
# particles in the simulation. This fix is for simulations
# in the anisotropic NPT ensemble. Note that we use the MTK
# correction.
fix 1 all npt temp 2.4 2.4 0.1 iso 5.68 5.68 0.5 mtk yes tchain 5 pchain 5 # Use NPT ensemble
                                                                         # Set temperature and pressure and damping
                                                                         # Numbers of thermostats in chain and in barostat
run 10000          # run for 10000 steps
Per MPI rank memory allocation (min/avg/max) = 3.642 | 3.644 | 3.648 Mbytes
Step Temp E_pair E_mol TotEng Press Volume 
       0          2.4   -3.4880302            0   0.11106983   -3.0192302         4000 
    1000    2.4144756   -2.6837098            0   0.93709815    5.6029341    3910.9326 
    2000    2.3970833   -2.6939348            0    0.9007913    5.7286376    3889.9919 
    3000    2.3641095   -2.7085775            0    0.8367003    5.7465987    3863.2673 
    4000    2.4025835   -2.7086125            0   0.89436175    6.1782988    3815.7691 
    5000    2.4197356   -2.6431079            0   0.98558804    5.8173755    3918.0188 
    6000    2.4136157   -2.6903318            0   0.92918661    5.7196732    3902.3332 
    7000    2.4442663   -2.7438987            0   0.92158421    5.7468412    3860.5541 
    8000    2.4090048   -2.7062042            0   0.90639958    5.6340056    3901.7976 
    9000    2.3876453   -2.7613506            0   0.81922197    5.6797985    3854.6361 
   10000    2.3899928   -2.7281285            0   0.85596456    5.7636991    3853.8431 
Loop time of 2.54932 on 48 procs for 10000 steps with 4000 atoms

Performance: 677828.612 tau/day, 3922.619 timesteps/s
99.6% CPU use with 48 MPI tasks x no OpenMP threads

MPI task timing breakdown:
Section |  min time  |  avg time  |  max time  |%varavg| %total
---------------------------------------------------------------
Pair    | 1.1196     | 1.1876     | 1.3135     |   3.3 | 46.59
Neigh   | 0.21015    | 0.21785    | 0.24075    |   0.9 |  8.55
Comm    | 0.77522    | 0.87393    | 0.96783    |   5.6 | 34.28
Output  | 0.00025305 | 0.00025705 | 0.00031901 |   0.0 |  0.01
Modify  | 0.19615    | 0.25458    | 0.30419    |   7.4 |  9.99
Other   |            | 0.01508    |            |       |  0.59

Nlocal:        83.3333 ave          96 max          75 min
Histogram: 4 6 6 7 11 7 5 1 0 1
Nghost:        1688.04 ave        1713 max        1665 min
Histogram: 2 4 7 4 4 10 8 5 2 2
Neighs:        9920.02 ave       11547 max        8744 min
Histogram: 4 6 7 4 9 7 5 3 2 1

Total # of neighbors = 476161
Ave neighs/atom = 119.04025
Neighbor list builds = 911
Dangerous builds = 234

# Equilibrate just above the melting temperature to avoid step fn in T

fix 1 all npt temp 1.25 1.25 0.1 iso 5.68 5.68 0.5 mtk yes tchain 5 pchain 5
run 2000
Per MPI rank memory allocation (min/avg/max) = 3.643 | 3.645 | 3.649 Mbytes
Step Temp E_pair E_mol TotEng Press Volume 
   10000    2.3899928   -2.7281285            0   0.85596456    5.7636991    3853.8431 
   11000    1.2406937   -4.0338423            0    -2.173267     5.731456    2976.5445 
   12000     1.242037   -4.0137624            0   -2.1511727      5.66149    2983.5149 
Loop time of 0.615931 on 48 procs for 2000 steps with 4000 atoms

Performance: 561101.591 tau/day, 3247.116 timesteps/s
99.6% CPU use with 48 MPI tasks x no OpenMP threads

MPI task timing breakdown:
Section |  min time  |  avg time  |  max time  |%varavg| %total
---------------------------------------------------------------
Pair    | 0.27965    | 0.30078    | 0.3344     |   2.3 | 48.83
Neigh   | 0.040308   | 0.042453   | 0.04505    |   0.6 |  6.89
Comm    | 0.18889    | 0.22471    | 0.24927    |   2.9 | 36.48
Output  | 5.1354e-05 | 5.2653e-05 | 6.7785e-05 |   0.0 |  0.01
Modify  | 0.03936    | 0.04308    | 0.046369   |   0.9 |  6.99
Other   |            | 0.004859   |            |       |  0.79

Nlocal:        83.3333 ave          92 max          76 min
Histogram: 2 2 4 10 5 13 9 2 0 1
Nghost:        2008.23 ave        2025 max        1985 min
Histogram: 2 3 2 1 9 8 4 7 7 5
Neighs:        12806.7 ave       14940 max       11415 min
Histogram: 4 4 8 7 12 8 2 1 1 1

Total # of neighbors = 614722
Ave neighs/atom = 153.68050
Neighbor list builds = 145
Dangerous builds = 15

#############################
# L I N E A R  Q U E N C H  #
#############################

# Define solid atoms. This closely follows ten Wolde  Ruiz-Montero and Frenkel  Faraday Discuss  1996  104  93-110
# Compute components of the per-atom q6 vector
compute q6 all orientorder/atom degrees 1 6 components 6 nnn NULL cutoff 1.3 # compute the Q6 parameter.
                                                                             # Use all neighbours within 1.3 unit cell.

# get number of connections
compute coord_number all coord/atom orientorder q6 0.5

# An atom is solid if it has 8 or more connections (of a possible 14)
variable is_solid atom c_coord_number>=8
group solid dynamic all var is_solid    # Must be dynamic to update
dynamic group solid defined

# do clustering
compute cluster solid cluster/atom 1.3 # Create a cluster where all atoms within are solid and max 1.3 units from another member

# define chunks one chunk per cluster
compute clus_chunks solid chunk/atom c_cluster nchunk every compress yes  # Says which atoms are in which chunk

# count the size of each chunk
compute size_chunks solid property/chunk clus_chunks count


# Find the maximum entry in the vector of chunk sizes
variable max_n equal max(c_size_chunks)


# Thermo style which includes this variable
# thermo_style custom step temp pe vol v_max_n

thermo ${N}  # Print the thermo information every 100 steps
thermo 1000  

# Reset the npt fix at a lower temperature (below freezing)
fix 1  all npt temp  ${temp} ${temp}  0.1  iso  5.68  5.68  0.5  mtk yes tchain  5  pchain  5
fix 1  all npt temp  0.45 ${temp}  0.1  iso  5.68  5.68  0.5  mtk yes tchain  5  pchain  5
fix 1  all npt temp  0.45 0.45  0.1  iso  5.68  5.68  0.5  mtk yes tchain  5  pchain  5

dump dmp2 all dcd ${N} traj.dcd
dump dmp2 all dcd 1000 traj.dcd


compute msd all msd com yes
variable twopoint equal c_msd[4]/6/(step*dt+1.0e-6)
fix 9 all vector 10 c_msd[4]
variable fit equal slope(f_9)/6/(10*dt)
thermo_style custom step temp pe c_msd[4] v_twopoint v_fit v_max_n

fix 1 all npt temp 1.25 ${temp} 0.1 iso 5.68 5.68 0.5 mtk yes tchain 5 pchain 5
fix 1 all npt temp 1.25 0.45 0.1 iso 5.68 5.68 0.5 mtk yes tchain 5 pchain 5
run 5000000 # 5000000  # Run for this many steps
Neighbor list info ...
  update every 1 steps, delay 10 steps, check yes
  max neighbors/atom: 2000, page size: 100000
  master list distance cutoff = 3.8
  ghost atom cutoff = 3.8
  binsize = 1.9, bins = 8 8 8
  4 neighbor lists, perpetual/occasional/extra = 1 3 0
  (1) pair lj/cut, perpetual
      attributes: half, newton on
      pair build: half/bin/atomonly/newton
      stencil: half/bin/3d
      bin: standard
  (2) compute orientorder/atom, occasional
      attributes: full, newton on
      pair build: full/bin/atomonly
      stencil: full/bin/3d
      bin: standard
  (3) compute coord/atom, occasional
      attributes: full, newton on
      pair build: full/bin/atomonly
      stencil: full/bin/3d
      bin: standard
  (4) compute cluster/atom, occasional
      attributes: full, newton on
      pair build: full/bin/atomonly
      stencil: full/bin/3d
      bin: standard
Per MPI rank memory allocation (min/avg/max) = 9.832 | 9.837 | 9.841 Mbytes
Step Temp PotEng c_msd[4] v_twopoint v_fit v_max_n 
   12000     1.242037   -4.0137624 1.6790904e-30 1.166035e-32 8.3333333e+20            4 
   13000    1.2120835    -4.029286   0.85575006 0.0054855771  0.071889495            3 
   14000    1.2297087   -4.0216038    1.8017906  0.010724943  0.075847485            1 
   15000    1.2608367   -4.0249448    2.7787986   0.01543777  0.078231629            1 
   16000    1.2736495   -4.0453885    3.6842315  0.019188705  0.079161843            1 
   17000    1.2515448   -4.0328891    4.6386933  0.022738692  0.078481055            2 
   18000    1.2402098   -4.0458371    5.4690697  0.025319766  0.077692967            1 
   19000    1.2485579   -4.0537558    6.3142029  0.027693872  0.076695655            1 
   20000    1.2457308   -4.0636234    7.1191195  0.029662997  0.075614791            4 
   21000    1.2353799   -4.0586743    8.0315607  0.031871272  0.074921346            4 
   22000    1.2568413   -4.0270543    9.0117421  0.034135386  0.074594607            2 
   23000    1.2411862   -4.0264649    10.022549  0.036313583   0.07483905            2 
   24000    1.2500628   -4.0228921    10.962159  0.038063051  0.075267285            2 
   25000    1.2559384   -4.0261617    11.804231  0.039347435  0.075462253            1 
   26000    1.2262263   -4.0405793    12.804668  0.041040603  0.075593209            2 
   27000    1.2629734   -4.0164939    13.907295  0.042923748  0.075936751            1 
   28000    1.2509515   -4.0442998    14.911866  0.044380553  0.076382971            2 
   29000     1.243232   -4.0482594     15.77922  0.045342586  0.076771402            3 
   30000    1.2445443   -4.0230825    16.862796  0.046841098   0.07713693            3 
   31000    1.2651532   -4.0641924    17.640693  0.047421217  0.077460828            4 
   32000    1.2275616   -4.0448252    18.534443  0.048266778  0.077576956            2 
   33000    1.2381604   -3.9888354    19.581909  0.049449263  0.077689351            2 
   34000    1.2519989   -4.0626462    20.383478  0.049959505   0.07773512            3 
   35000    1.2431623   -4.0160135    21.277363  0.050660388  0.077667365            1 
   36000    1.2504512   -4.0922216    22.012397  0.050954623  0.077606428            3 
   37000    1.2349401   -4.0418297    23.058796  0.051934224  0.077552387            3 
   38000    1.2725894   -4.0090463      24.0585  0.052759867  0.077518809            1 
   39000    1.2509791   -4.0514613    24.800577  0.052992686  0.077414501            1 
   40000    1.2387961   -4.0438058    25.861087  0.053877264  0.077343719            1 
   41000    1.2639927   -4.0431643    26.760829  0.054391929  0.077330475            2 
   42000    1.2253739   -4.0035456    27.815063  0.055188615    0.0772745            3 
   43000    1.2382459   -4.0513985    28.842327  0.055895981  0.077359098            1 
   44000    1.2299524   -4.0195638    29.898273  0.056625516   0.07747553            2 
   45000       1.2352   -4.0475223    30.937963  0.057292523  0.077621163            2 
   46000    1.2548031   -4.0403217    31.724391  0.057471722   0.07773376            2 
   47000    1.2495974   -4.0691383    32.547901  0.057709044  0.077781071            4 
   48000     1.252949   -4.0653534    33.295614  0.057804886  0.077792949            2 
   49000    1.2626328   -4.0261028     34.51042   0.05869119  0.077810954            3 
   50000    1.2609325   -4.0611602    35.254314  0.058757189  0.077810558            1 
   51000    1.2424169   -4.0686769     36.22885  0.059197467  0.077778525            2 
   52000    1.2358551   -4.0519605    37.389768    0.0599195  0.077797348            2 
   53000    1.2630634   -4.0205751    38.123639  0.059942828  0.077849407            2 
   54000    1.2396846   -4.0822246    39.053009  0.060266988  0.077877789            1 
   55000    1.2520336   -4.0249354    40.226816  0.060949721  0.077897056            2 
   56000    1.2358986   -4.0551595    40.894076  0.060854279  0.077904735            2 
   57000    1.2643079   -4.0671734     41.78589  0.061090481  0.077899829            5 
   58000    1.2503032   -4.0606396    42.632962  0.061254255    0.0778926            1 
   59000    1.2898274   -4.0562508    43.585011  0.061560749  0.077853403            1 
   60000    1.2589354   -4.1191709    44.559653  0.061888406  0.077837685            2 
   61000    1.2553947   -4.0439468    45.904077  0.062710488  0.077861262            2 
   62000     1.232674   -4.0285015    46.914152  0.063056655  0.077893131            2 
   63000    1.2510069   -4.0589288    47.637343  0.063012358  0.077916905            2 
   64000    1.2497221    -4.077979    48.676604  0.063380994  0.077953137            2 
   65000    1.2368583   -4.0408616    49.582126  0.063566827  0.078000028            3 
   66000    1.2388531   -4.0137155     50.62167  0.063916249  0.078035332            1 
   67000    1.2561988   -4.0243118    51.466112  0.064012577  0.078066016            2 
   68000    1.2537939   -4.0179675    52.927408   0.06486202  0.078122929            2 
   69000    1.2457219   -4.0468255    53.655926  0.064801843  0.078186597            1 
   70000    1.2579326   -4.0826549    54.275255  0.064613398  0.078221248            1 
   71000    1.2492252   -4.0583377    54.925557  0.064466616  0.078208901            2 
   72000    1.2444001   -4.0654481    55.749869  0.064525311  0.078197824            2 
   73000    1.2758808   -4.0115262     56.81293  0.064854943  0.078181662            2 
   74000    1.2431917   -4.0627821    57.828826  0.065122551  0.078171527            1 
   75000    1.2451747    -4.047959    58.371471   0.06485719  0.078142335            3 
   76000    1.2189171   -4.0387995    59.221131   0.06493545  0.078101793            3 
   77000    1.2391917    -4.061897    59.798658  0.064717162  0.078019684            2 
   78000    1.2603463   -4.0468867    60.704731  0.064855482  0.077927732            1 
   79000    1.2270853   -4.0496136    61.363809  0.064729756  0.077843553            1 
   80000    1.2678557   -4.0436553    62.836347  0.065454527   0.07777317            1 
   81000    1.2547409   -4.0670478    63.771413  0.065608449  0.077718374            2 
   82000    1.2427393   -4.0627296    64.684195  0.065735971  0.077660146            2 
   83000    1.2356056   -4.0611809    65.635009  0.065898603  0.077610889            2 
   84000    1.2108403   -4.0575526     66.69394  0.066164623  0.077575259            3 
   85000    1.2165126   -4.1055296    67.136878  0.065820469  0.077536976            1 
   86000    1.2289228   -4.0466814     68.05503  0.065944796   0.07749349            2 
   87000    1.2447316   -4.0805308    68.753959  0.065856282  0.077421977            1 
   88000    1.2219515   -4.0869734    69.383433  0.065704009  0.077357258            2 
   89000    1.2212935     -4.01792    70.636872  0.066139393  0.077296219            1 
   90000    1.2395822   -4.0672402    71.287753  0.066007179  0.077223225            1 
   91000    1.2440255   -4.0601781    72.363328  0.066266784  0.077136234            2 
   92000    1.2706075   -4.0304758    73.351641  0.066441704  0.077063398            2 
   93000    1.2301259   -4.0415005    74.347893  0.066619975  0.077015369            2 
   94000    1.2359886   -4.0777873    75.444731  0.066883626  0.076966225            2 
   95000    1.2492283   -4.0402831     76.45957  0.067069798  0.076913601            2 
   96000    1.2669638   -4.0844809    77.124727  0.066948548    0.0768645            1 
   97000     1.222478   -4.0350506    77.936374  0.066955647  0.076815784            2 
   98000    1.2179879    -4.035405     78.59508  0.066832551  0.076763383            1 
   99000    1.2224197   -4.0333512    79.556864  0.066967057  0.076709445            2 
  100000    1.2394781   -4.0507706    80.718026  0.067265021  0.076660436            3 
  101000    1.2890022   -4.0571297    81.228969  0.067020601  0.076621774            3 
  102000    1.2467896    -4.050915     82.45137   0.06736223  0.076591667            1 
  103000    1.2398779   -4.0664099    83.561463  0.067606361  0.076584881            1 
  104000    1.2209389   -4.1065464    83.947147  0.067265342  0.076567282            3 
  105000    1.2285819   -4.1113529    85.028059  0.067482586  0.076521081            1 
  106000    1.2190208   -4.0520546    85.546763  0.067253744  0.076474928            2 
  107000    1.2223542   -4.0607796     86.11619  0.067068683  0.076417788            2 
  108000    1.2444512   -4.0103206    87.799143  0.067746252  0.076371817            1 
  109000    1.2587809   -4.0815686    87.976862  0.067260598  0.076329581            1 
  110000    1.2420112    -4.064585    88.906708  0.067353566  0.076275733            2 
  111000    1.2371134   -4.0516715    90.570097  0.067995568  0.076240007            2 
  112000    1.2146028   -4.0529195    91.129738  0.067804864   0.07620407            2 
  113000    1.2376557   -4.0637354    91.890337  0.067765735  0.076170988            2 
  114000    1.2468285   -4.0653214     93.25174  0.068166476  0.076144095            2 
  115000    1.2278387   -4.0129899    94.453104  0.068444278  0.076132879            2 
  116000    1.2575454   -4.0394849    94.965814  0.068222568  0.076118813            2 
  117000    1.2224788   -4.0432933    95.842532  0.068263911  0.076105275            3 
  118000    1.2639992   -4.0875703    96.571227  0.068200019  0.076079075            3 
  119000    1.2278602   -4.0418997    97.790012    0.0684804   0.07605317            2 
  120000    1.2342012    -4.071166    98.594327  0.068468282  0.076033186            2 
  121000    1.2078159    -4.059499    100.20284   0.06901022  0.076024231            2 
  122000     1.205007   -4.0593396    101.13191  0.069079176  0.076025598            2 
  123000    1.2456783   -4.0537177    102.05724  0.069144474  0.076030518            2 
  124000    1.2262417   -4.0623438    103.23068  0.069375455  0.076028732            2 
  125000    1.2215556   -4.0450187    103.75205  0.069168031  0.076023942            2 
  126000    1.2350858   -4.0670186    104.13874  0.068874829  0.076015692            2 
  127000    1.2467184   -4.0302625     105.1078  0.068968371  0.076014027            3 
  128000    1.2505284   -4.0767568    105.81085  0.068887274  0.076007817            2 
  129000    1.2405368   -4.0861976    106.26685  0.068647839    0.0759876            2 
  130000    1.2450423    -4.048457    107.35438  0.068816909  0.075964712            1 
  131000    1.2230138    -4.031481    108.45558    0.0689921   0.07594096            2 
  132000    1.2276767   -4.0561502    108.68603   0.06861492  0.075916804            1 
  133000    1.2482707   -4.0737333    109.32064  0.068496641  0.075881249            2 
  134000    1.2237982   -4.0980687    110.25465  0.068566324  0.075847395            2 
  135000    1.2250743   -4.0297775    111.28431  0.068694017  0.075809809            2 
  136000    1.2176946     -4.04479    112.17661  0.068735665  0.075771417            4 
  137000    1.2210245   -4.0566194    113.14357   0.06882212  0.075732983            2 
  138000    1.2435794   -4.0991592    113.77148  0.068702583  0.075700926            2 
  139000    1.2255117   -4.0872342    115.27341  0.069108758  0.075676973            3 
  140000    1.2402667   -4.0802875    116.17242  0.069150249  0.075665334            3 
  141000    1.2428574   -4.0315188    117.51068  0.069450757   0.07564928            1 
  142000    1.2247762   -4.0616369    118.33372   0.06944467  0.075641794            2 
  143000    1.2392033   -4.0694955    119.39962  0.069580198  0.075630896            1 
  144000    1.2219987   -4.0789677    119.51525   0.06916392  0.075610468            2 
  145000    1.2060212   -4.0747342    120.87716  0.069469633  0.075596342            3 
  146000    1.2310177   -4.0425238    121.96743  0.069616111  0.075583478            1 
  147000    1.2276941   -4.0798214    122.59018  0.069495564  0.075562788            2 
  148000    1.2110233   -4.0496757    123.68834  0.069644334  0.075542057            1 
  149000    1.2274162   -4.0536038    124.13241  0.069425283  0.075521712            3 
  150000    1.2115637   -4.0657385    125.43686  0.069687142  0.075512166            1 
  151000    1.2039447   -4.0555872    126.25865  0.069679167  0.075505925            3 
  152000    1.2364261   -4.0882337    127.48956  0.069895592  0.075510815            1 
  153000    1.2006829   -4.0810788    128.16294   0.06980552  0.075506167            3 
  154000    1.2306463    -4.062192    129.32797  0.069982665  0.075504682            1 
  155000    1.2109164   -4.0789325     130.4842  0.070152798  0.075502696            3 
  156000    1.2185094   -4.0485759    131.49467  0.070242881  0.075504547            2 
  157000    1.2311922   -4.0783332    131.74324  0.069927412  0.075504264            1 
  158000    1.2134042   -4.0564779    132.84655  0.070066747  0.075501815            1 
  159000    1.2478563   -4.0374061    134.00568  0.070233583  0.075499426            1 
  160000    1.2405327   -4.0560549    134.48838   0.07004603  0.075494165            1 
  161000    1.2266485   -4.0924112    135.48948  0.070129129  0.075492628            4 
  162000    1.2062114    -4.093646    135.78262  0.069847027  0.075487175            3 
  163000    1.2096158   -4.0654018    137.45614  0.070274102  0.075484505            3 
  164000    1.1894575   -4.0808601     138.4483  0.070349745  0.075478596            2 
  165000    1.2239283    -4.037369    138.91692   0.07016006  0.075466704            1 
  166000    1.2338241   -4.0685307    139.78915  0.070175275  0.075458759            1 
  167000    1.2216001    -4.087922    140.26325   0.06999164  0.075452447            2 
  168000    1.2107543   -4.0605599     141.6147  0.070245386  0.075438627            2 
  169000    1.2083406   -4.0863279    141.82725  0.069934539  0.075426553            4 
  170000    1.2371389   -4.0646188    142.80297  0.070001458  0.075419667            3 
  171000     1.212692    -4.085432    144.08768  0.070218165  0.075408195            2 
  172000    1.2287011    -4.064038    144.68977  0.070101635  0.075399143       -1e+20 
  173000    1.2595548   -4.0718775    146.08762   0.07036976  0.075393063            3 
  174000    1.2305759   -4.0793616    146.67379  0.070246069  0.075378047            4 
  175000    1.2046059   -4.0645631    147.74248  0.070353562  0.075363363            1 
  176000    1.2240079   -4.0841528    148.98813   0.07054362  0.075356081            2 
  177000    1.2376158   -4.0729077    149.73591  0.070497135  0.075354576            2 
  178000    1.2057417   -4.0900324    149.63741  0.070054967  0.075349262            3 
  179000    1.2540646   -4.0709443     151.5923  0.070573696  0.075342524            2 
  180000    1.1791673   -4.0570657    152.77839  0.070730735  0.075335632            2 
  181000    1.1910148   -4.0939482    154.08299  0.070940602  0.075331148            1 
  182000    1.2091095   -4.0518285    154.34715   0.07067177  0.075325838            3 
  183000    1.2464725   -4.1033548     154.9753  0.070571631  0.075323386            3 
  184000    1.2285208   -4.0746545     155.5414  0.070444475  0.075311386            1 
  185000    1.2128348   -4.0538972    157.27301  0.070843699  0.075304786            2 
  186000    1.2129641   -4.0474507    158.25431  0.070902468  0.075304552            1 
  187000    1.2452728   -4.0687074    159.26489  0.070973659  0.075304272            1 
  188000    1.2222732   -4.0654277    160.72016  0.071241207  0.075306903            2 
  189000    1.2155642   -4.1146061    161.24431  0.071095374  0.075315868            2 
  190000     1.212585    -4.076488    161.47072  0.070820491  0.075317639            3 
  191000    1.2157395   -4.0756243    162.91814  0.071081214  0.075319759            2 
  192000    1.2214705   -4.0772957    162.96979  0.070733414  0.075318726            1 
  193000    1.2307345   -4.0680109    165.73338   0.07156018  0.075319818            1 
  194000    1.2265353    -4.087521    165.63727  0.071150031  0.075318539            2 
  195000    1.2058798   -4.0801133    165.67734   0.07080228  0.075311391            3 
  196000    1.2262441   -4.1240274    165.30322  0.070281981  0.075301456            4 
  197000    1.2055099   -4.0672002    167.51421  0.070860493  0.075289314            2 
  198000      1.23468   -4.0752972     167.8335  0.070636996  0.075278422            1 
  199000    1.2186217   -4.0851135    167.98476  0.070345375  0.075268986            1 
  200000    1.2411337   -4.0726576    170.14621  0.070894254  0.075256435            3 
  201000    1.2257293   -4.0637071    170.87356  0.070843099  0.075245702            1 
  202000    1.2242426   -4.1092848    171.23892  0.070643119  0.075234923            1 
  203000    1.2285273   -4.0572062     172.0126  0.070612727  0.075220179            3 
  204000    1.1984909   -4.0870866    172.90977  0.070633076  0.075202164            1 
  205000    1.2112245   -4.1074564    173.41725  0.070494815  0.075185357            1 
  206000    1.1966285   -4.0976688    175.14782  0.070852679  0.075170353            2 
  207000    1.2200043   -4.0974487    175.79379  0.070770448  0.075158881            1 
  208000    1.2247514   -4.0343625    177.44655  0.071092366  0.075146974            2 
  209000    1.2079816   -4.0990402    177.69083  0.070849613  0.075131039            3 
  210000    1.2249734   -4.0725195    178.74912  0.070932191  0.075117929            2 
  211000    1.2293836   -4.0417074    179.45798   0.07087598  0.075102688            2 
  212000    1.2167443   -4.0755228    179.75509  0.070658449  0.075090118            2 
  213000    1.2208416   -4.0558047    181.02884  0.070825054    0.0750785            2 
  214000    1.2164142   -4.0644153    182.30958  0.070992829  0.075069265            1 
  215000    1.2272941   -4.0589418    183.28199   0.07103953  0.075062453            1 
  216000     1.200017   -4.1164675    183.37626  0.070747015  0.075051603            2 
  217000    1.2070181   -4.0810277    185.01896  0.071051828  0.075042318            2 
  218000    1.2211101   -4.0946837    186.61472  0.071335901  0.075038284            4 
  219000    1.2112872   -4.0782359    187.81424  0.071466607  0.075036713            1 
  220000     1.227797   -4.0940044    189.07989  0.071621169  0.075042513            2 
  221000    1.2238683   -4.0799373      190.514  0.071837857  0.075048745            1 
  222000    1.2066836    -4.072897     191.2479  0.071789752  0.075057914            1 
  223000    1.2476586   -4.0579207    193.36443  0.072258754  0.075073296            5 
  224000    1.2123636   -4.0965578    193.01854  0.071807494  0.075086896            1 
  225000    1.2148785   -4.1064174    193.13865  0.071532835  0.075099659            2 
  226000    1.2383286   -4.0699641    195.60266  0.072124875  0.075114391            2 
  227000      1.22931   -4.0569743    196.51463  0.072141933  0.075129287            1 
  228000    1.2207903   -4.1134496    195.91441  0.071606143  0.075137826            1 
  229000    1.2106375   -4.0996915    196.37642   0.07146158   0.07514294            2 
  230000    1.2083427   -4.0564373    197.58648  0.071589304  0.075147874            1 
  231000    1.2063222   -4.1127004    198.46929  0.071597866  0.075148825            1 
  232000    1.2249312   -4.1131958    198.07721  0.071148425  0.075143245            1 
  233000    1.2232216    -4.081742    199.79611  0.071457837   0.07513949            1 
  234000    1.1998924   -4.0714683    200.42109  0.071375033  0.075131333            2 
  235000    1.2231019   -4.0683302    201.15181  0.071330428  0.075118858            1 
  236000    1.1932746   -4.1024108    201.82145  0.071264637  0.075105364            3 
  237000    1.2061905    -4.058474    202.65917  0.071258497  0.075091523            2 
  238000    1.2246286   -4.0928276    202.34362  0.070848607  0.075077376            5 
  239000    1.2200383   -4.0642658    203.42116  0.070927879  0.075060329            3 
  240000    1.2427188   -4.0756385    204.00037  0.070833463  0.075045105            2 
  241000    1.2363351   -4.0630329    204.99581  0.070883753  0.075025806            2 
  242000    1.1705736   -4.0945259    206.82951  0.071222284  0.075010001            3 
  243000     1.231344   -4.0609556     207.2377  0.071069169  0.074990116            1 
  244000    1.1681029   -4.0686638    208.05909  0.071058434  0.074971404            6 
  245000    1.1962933   -4.1191874    208.18891  0.070812556  0.074953561            5 
  246000    1.1965703   -4.0949732    210.12542  0.071180699  0.074936552            1 
  247000    1.2251168   -4.1203885     209.9558  0.070835291  0.074919504            2 
  248000    1.2235053   -4.0751419    212.04096  0.071250323  0.074903097            2 
  249000    1.2249371   -4.0761397    212.82796  0.071227565  0.074891126            2 
  250000    1.1845505   -4.0757634    213.85333  0.071284444  0.074876765            2 
  251000    1.1919538   -4.0815689    213.91413  0.071020626  0.074863151            1 
  252000    1.2245408   -4.0969331    214.33035  0.070876437  0.074847847            2 
  253000    1.1941628   -4.0595049    216.62964  0.071353638  0.074836085            2 
  254000     1.166048   -4.1291353    216.68393  0.071090527  0.074825925            1 
  255000    1.2451922   -4.0799186     218.6508  0.071454509  0.074820942            1 
  256000    1.2514562   -4.0942919    219.11192  0.071325496  0.074812124            1 
  257000    1.2261019   -4.0719809    220.92163  0.071634769  0.074805789            4 
  258000    1.1943375   -4.1099715     222.1329  0.071748354  0.074799157            2 
  259000    1.2299309   -4.0590223    223.64062  0.071956442  0.074797448            1 
  260000    1.2022214    -4.075307     223.5531  0.071651635  0.074795771            2 
  261000    1.1903638   -4.0896075    224.30479  0.071617111  0.074793444            3 
  262000    1.2202011   -4.1113143    224.68599   0.07146501  0.074786639            3 
  263000    1.2080198   -4.0861842    226.10017  0.071641373  0.074780454            4 
  264000     1.200479   -4.0906468    226.72604  0.071567564  0.074775056            1 
  265000    1.2486936   -4.0945818    227.77367  0.071626939  0.074771613            1 
  266000     1.207622   -4.0729073    229.24637  0.071819037  0.074766309            1 
  267000    1.2254968   -4.1087305    228.65129  0.071364321  0.074760838            2 
  268000    1.2117007   -4.0757138    230.97791  0.071821489  0.074756564            3 
  269000    1.2251689   -4.0966162    232.07844  0.071895427  0.074753628            2 
  270000    1.1948072   -4.1124167    232.50615  0.071761158  0.074749865            3 
  271000    1.2095394   -4.0952625     233.0348  0.071658917   0.07474396            2 
  272000    1.1899591   -4.0844618    233.37628  0.071500085  0.074739877            2 
  273000    1.2152587   -4.0875172    234.96561  0.071723325   0.07473536            3 
  274000    1.2310312   -4.0711691     235.6481   0.07166913  0.074725532            4 
  275000    1.2146052   -4.0814499    236.15537  0.071562234  0.074718097            2 
  276000    1.2072349   -4.0959456    237.44579  0.071692568  0.074710206            1 
  277000    1.1724593   -4.0885419    237.47759   0.07144332  0.074702599            1 
  278000    1.1697534   -4.0658504     237.8489   0.07129763  0.074693112            2 
  279000    1.1805798    -4.127314    238.31976  0.071182723   0.07467913            4 
  280000    1.1850281   -4.0650328    240.18803  0.071484532  0.074663385            2 
  281000    1.2212022   -4.0908249    240.43921  0.071304628  0.074646974            4 
  282000    1.2003506   -4.1073856    240.83101  0.071167555  0.074630918            1 
  283000     1.210739   -4.1106969    241.01633  0.070970649  0.074612871            3 
  284000    1.1982844   -4.0889161    243.99232  0.071593991  0.074597583            3 
  285000    1.2084506   -4.1139544    243.93138  0.071324966  0.074584027            1 
  286000    1.2015489   -4.0836087    244.97672  0.071380164  0.074571167            1 
  287000    1.2253207   -4.1087824    245.83891  0.071381796  0.074557716            3 
  288000    1.2265269     -4.14025    244.94036  0.070873946   0.07454169            2 
  289000    1.1568418   -4.0817549    247.87241  0.071474166  0.074529608            3 
  290000    1.1738022   -4.1461795    246.98687  0.070973239  0.074513193            2 
  291000    1.2149124   -4.0932484    249.11127  0.071337705  0.074497985            2 
  292000    1.1918704     -4.09317    249.28392   0.07114267  0.074483933            1 
  293000    1.2160482   -4.1022162    251.28419  0.071468768  0.074470163            3 
  294000    1.2019994   -4.1611996    251.26426  0.071220028  0.074458416            2 
  295000    1.1703371   -4.1106496    252.70823  0.071386507  0.074449074            2 
  296000    1.2162568    -4.102882    254.08875  0.071533994  0.074440052            2 
  297000    1.2160464   -4.0705772    255.23987  0.071616126  0.074432481            1 
  298000    1.1871106   -4.1057523    256.58951  0.071753219  0.074422457            3 
  299000    1.2214901   -4.0800934    256.80389  0.071572991  0.074411901            2 
  300000    1.1812667   -4.0665195    256.55993  0.071266647  0.074396832            1 
  301000    1.2238949   -4.1027316    257.40999  0.071265224  0.074385223            2 
  302000    1.2379372   -4.1320541    258.51079     0.071333  0.074372861            2 
  303000    1.2181423   -4.1390811    258.56785  0.071113269  0.074360195            5 
  304000    1.2089557    -4.106735    259.84534  0.071229535  0.074348145            4 
  305000    1.1968391   -4.1085292     260.9874  0.071308033    0.0743344            2 
  306000    1.2180792   -4.1085242    261.58071  0.071236576  0.074321751            3 
  307000     1.169576   -4.0798417    263.55606  0.071540734  0.074309195            4 
  308000     1.204456   -4.0857254    265.47046  0.071826422  0.074299356            1 
  309000    1.2106168   -4.0923646    264.80628  0.071414854  0.074291892            4 
  310000    1.2118886   -4.1541584    265.11962  0.071268714  0.074283644            3 
  311000    1.1789668   -4.1168785    266.38923  0.071379751  0.074273659            1 
  312000    1.2223923   -4.0828735    266.68619  0.071230285  0.074263123            1 
  313000    1.2119556   -4.1020522    268.06839   0.07137071  0.074251892            2 
  314000    1.2092057   -4.0681557    270.11149   0.07168564  0.074240895            1 
  315000    1.2372495   -4.1067952    269.56521  0.071313547  0.074232334            3 
  316000    1.2087928   -4.0952531    271.11293  0.071496024  0.074223333            3 
  317000    1.1944583   -4.1027365    273.10949  0.071795345  0.074220006            1 
  318000    1.1872915   -4.0833115     274.0985  0.071828747  0.074216292            1 
  319000     1.194809   -4.1403606    274.20794  0.071632169  0.074208457            1 
  320000    1.1932828   -4.0946017    274.37062  0.071450683  0.074198847            3 
  321000    1.1798329   -4.1394322     274.2658  0.071200883  0.074189904            2 
  322000    1.1864117   -4.1201504    274.97085  0.071162228  0.074178661            1 
  323000    1.1919336   -4.0813439    276.96797  0.071457165  0.074167576            3 
  324000      1.18262   -4.1343735    277.79237  0.071448656  0.074157392            3 
  325000    1.1982661   -4.1275086    279.14577  0.071575839  0.074145162            1 
  326000    1.1974239   -4.1572569    278.85566  0.071282121   0.07413332            2 
  327000    1.2198872   -4.0782306    280.09348  0.071379582  0.074122261            4 
  328000    1.1911959   -4.1179106    280.81576  0.071345466  0.074107661            2 
  329000    1.2181938   -4.1150837    280.90856  0.071152118  0.074096365            3 
  330000     1.216365   -4.1253549    283.02146  0.071470066  0.074082005            3 
  331000    1.2012035   -4.1393624    282.69157  0.071171091  0.074067091            2 
  332000    1.2123087   -4.1076564    282.94513  0.071020364  0.074052156            1 
  333000    1.1865164   -4.0926706    285.19956  0.071371262  0.074036621            4 
  334000    1.1898013   -4.0992198    285.01757  0.071112168   0.07401889            4 
  335000    1.1718568   -4.1069994    283.70916  0.070574417  0.074000752            2 
  336000    1.2011305   -4.1119667    286.97324  0.071173918  0.073981507            1 
  337000    1.2392214   -4.1119115    288.11909  0.071246065  0.073966335            4 
  338000    1.1812378    -4.117855    288.46996  0.071121785  0.073951451            1 
  339000    1.1859395   -4.1081967     291.0014  0.071534268  0.073938422            3 
  340000    1.1835159   -4.1159359    291.55906  0.071460553  0.073927044            3 
  341000    1.2120755   -4.1297789     291.1202  0.071143744   0.07391769            2 
  342000    1.1765742   -4.1046122    293.42083  0.071496304  0.073906944            3 
  343000    1.1895758   -4.0878723     293.2144  0.071237707  0.073897286            1 
  344000    1.2061904   -4.1176994    294.82625  0.071421088  0.073889221            7 
  345000    1.2033308   -4.1481598    294.72029  0.071188476  0.073879412            2 
  346000    1.2077088   -4.1419756    295.15009  0.071086245  0.073869045            3 
  347000    1.2201434   -4.1337982    296.12133  0.071114632  0.073857228            3 
  348000    1.2037074   -4.1260056    297.83468  0.071320565  0.073844951            1 
  349000    1.1770331   -4.1486511    297.85252  0.071120468  0.073832031            1 
  350000    1.1989605   -4.1064352    297.80225  0.070905298   0.07381693            3 
  351000      1.20199   -4.0817625    300.45388  0.071332829  0.073803658            1 
  352000    1.2031242   -4.1078347    299.62532  0.070934024  0.073790225            3 
  353000    1.1726435   -4.1013375     302.0599  0.071307815  0.073774052            3 
  354000     1.210987   -4.1327541    301.47265  0.070968139  0.073759867            2 
  355000    1.2158149   -4.0962725    302.95408  0.071115981  0.073744699            1 
  356000    1.1697314   -4.1332366    303.65946  0.071081334  0.073727569            1 
  357000    1.1977593      -4.1501    303.96389  0.070953288  0.073712345            3 
  358000    1.2004788   -4.1342719     304.8656   0.07096499  0.073697649            2 
  359000    1.1759096   -4.1247646    306.60576  0.071171254  0.073683363            5 
  360000    1.1961394   -4.1051066    308.27812  0.071360676  0.073670238            1 
  361000    1.2032325    -4.155436    308.15478  0.071134528  0.073662011            3 
  362000    1.1782871   -4.1474532    310.30425  0.071432838  0.073652791            2 
  363000    1.2002343   -4.1281642     310.8455  0.071360307   0.07364369            2 
  364000    1.2265316   -4.1078193    312.39936      0.07152  0.073633128            3 
  365000    1.1627472   -4.1288535     311.3424  0.071082739  0.073623588            3 
  366000    1.1935039   -4.1672116    311.89524  0.071014398  0.073614561            1 
  367000    1.1907567   -4.0993645    314.14166  0.071330985  0.073605414            2 
  368000    1.1766789   -4.1051836    315.15913  0.071367557  0.073600593            2 
  369000    1.1734697   -4.1081072     317.1845  0.071631549  0.073593381            3 
  370000    1.1516782   -4.1338051     317.0079  0.071398176  0.073585363            1 
  371000    1.1882233   -4.1429989    317.57048  0.071332094   0.07357593            3 
  372000    1.1985313     -4.11925    319.19797  0.071504923  0.073569001            2 
  373000    1.2011558   -4.1113968    320.19693  0.071536401  0.073562565            5 
  374000    1.1863501   -4.1361581    320.94726  0.071512314  0.073555242            3 
  375000    1.1883405   -4.1425215    320.00371  0.071111936  0.073546832            5 
  376000     1.214631   -4.1208921    322.69035  0.071518252  0.073538184            2 
  377000    1.1784567   -4.1108183    323.06332  0.071410991   0.07352751            3 
  378000     1.190963   -4.1350501    322.41521  0.071079191  0.073517169            3 
  379000    1.2123366   -4.1100316     324.1096  0.071264204  0.073506235            5 
  380000    1.2097649   -4.1147413    325.65853  0.071416345  0.073497302            1 
  381000    1.1913072   -4.1144496    326.69238  0.071455027  0.073490804            1 
  382000    1.2077377   -4.1677887    326.54732  0.071236326  0.073482755            2 
  383000    1.1831233   -4.1339502    327.13741  0.071178724  0.073474737            1 
  384000      1.16932   -4.1145138    328.86228  0.071367683  0.073466815            2 
  385000    1.1765596   -4.1478823    329.63676  0.071349948  0.073456523            2 
  386000    1.1811057   -4.0849107    330.20772  0.071288368  0.073444517            1 
  387000    1.1972916     -4.13209    331.19353  0.071316435  0.073435196            2 
  388000    1.1587326   -4.1161861    333.25641   0.07157569  0.073426618            1 
  389000    1.2054903   -4.1663131    331.80355  0.071080453  0.073420331            2 
  390000    1.1903782   -4.1372616     333.1424  0.071184273  0.073411777            1 
  391000    1.1752154   -4.1196413    333.80288  0.071142984  0.073402348            3 
  392000    1.1764538   -4.1113223    335.95493   0.07141899   0.07339329            2 
  393000    1.1868319   -4.0991416    336.24575  0.071298929    0.0733839            1 
  394000     1.212174   -4.1039759    336.30135  0.071129726  0.073374505            2 
  395000    1.2016251   -4.1288472     337.2014  0.071139535  0.073363473            2 
  396000    1.2004418   -4.1214856    338.05157  0.071138798   0.07335299            2 
  397000    1.1802229   -4.1654051    337.86194  0.070919803  0.073344287            3 
  398000    1.1990522   -4.1115313    340.43433   0.07128022  0.073336754            6 
  399000    1.2134279   -4.1381229    341.30722   0.07128388   0.07333055            2 
  400000    1.1728344    -4.131341    341.43224  0.071131716   0.07332214            4 
  401000    1.2058089   -4.1417663    341.97218  0.071066538  0.073313894            2 
  402000    1.1860299   -4.1472667    342.68778  0.071038096  0.073304616            2 
  403000    1.2008569   -4.1329386    344.89316  0.071317858  0.073293355            3 
  404000    1.1840928   -4.1362004    346.19691  0.071410253   0.07328422            6 
  405000    1.1839818   -4.1354353    345.33053  0.071055665   0.07327412            3 
  406000    1.1962469   -4.0910305    347.23682  0.071271925  0.073265703            3 
  407000    1.1556385    -4.126112    345.69612  0.070781351  0.073255301            2 
  408000    1.1918232   -4.1287381    347.42968  0.070961944  0.073245466            2 
  409000    1.1885915   -4.1588378    348.63352  0.071033724  0.073234097            4 
  410000    1.1778155   -4.1475956    349.05955  0.070947063  0.073223094            1 
  411000    1.1949284   -4.0747494    351.43956  0.071257008  0.073213089            2 
  412000    1.1785722   -4.1246213    350.91396  0.070977743   0.07320218            4 
  413000    1.1775768   -4.1467185    351.80301  0.070985273  0.073191216            1 
  414000    1.1719236   -4.0971054    354.53733  0.071364198  0.073180158            2 
  415000    1.1878098   -4.1501532    354.34368  0.071153348  0.073171098            2 
  416000    1.2042561   -4.1291929    355.37511  0.071188924  0.073161363            1 
  417000    1.1880069   -4.1523195    355.51512  0.071046186  0.073152366            2 
  418000    1.1914433   -4.1461866      357.276  0.071227272  0.073145079            1 
  419000    1.1792605   -4.1088709    358.73431  0.071347317  0.073137187            2 
  420000    1.1739187   -4.1356236    358.25838  0.071083011  0.073129638            2 
  421000    1.1878539   -4.0924765    361.74849  0.071605007  0.073120797            7 
  422000    1.1716735   -4.1465982    358.66139  0.070825709  0.073112298            2 
  423000    1.1734129   -4.1338141    361.71953  0.071260742  0.073101538            2 
  424000    1.1835365   -4.1502252    362.33652  0.071213939  0.073091184            3 
  425000    1.1897349   -4.1075865    362.67883  0.071113496  0.073082593            1 
  426000    1.1614253   -4.1159248    364.88524  0.071378177  0.073072464            2 
  427000    1.2070845   -4.1243987    363.62241  0.070964561   0.07306342            3 
  428000    1.1796406   -4.1143709    364.36224  0.070942804  0.073053253            4 
  429000    1.2004653   -4.1197556    366.78368  0.071247801  0.073043285            2 
  430000    1.1761824    -4.171957    366.97339  0.071118874  0.073032088            6 
  431000    1.1883513   -4.1317559    367.18484  0.070994749  0.073021166            2 
  432000    1.1834207   -4.1159553    367.90564  0.070969452  0.073011522            1 
  433000    1.1718817   -4.1327606    370.46077    0.0712973  0.073000584            4 
  434000     1.179422    -4.107989    369.53344  0.070954961  0.072989313            2 
  435000    1.1625515   -4.1353494    370.83972  0.071042092  0.072979041            3 
  436000    1.1476472   -4.1426182    371.32594  0.070972083   0.07296944            5 
  437000    1.1625144   -4.1481808     373.2699  0.071180377  0.072959091            1 
  438000    1.1763656   -4.1533572    372.56934  0.070884578  0.072949958            2 
  439000     1.169054   -4.1479321    373.35937  0.070873077  0.072938705            2 
  440000    1.2131238   -4.1502828    372.23763  0.070499552  0.072925702            4 
  441000    1.1735141   -4.1474809    373.57266  0.070591961   0.07291109            4 
  442000    1.1659551   -4.1088501    375.23679  0.070746001  0.072899082            2 
  443000    1.1693896   -4.1263224    376.36236  0.070798035  0.072885929            2 
  444000     1.184147    -4.144332    377.52568  0.070856922  0.072871728            5 
  445000    1.2032826   -4.1381246    377.51038  0.070694828    0.0728582            1 
  446000    1.1873074   -4.1410597    378.57766  0.070735735  0.072845078            3 
  447000    1.2101825   -4.1572719    378.97845  0.070652208  0.072833725            1 
  448000    1.1643666    -4.164195    379.20247  0.070536173  0.072820183            2 
  449000    1.1739408   -4.1469343    381.19754  0.070749357  0.072807782            3 
  450000    1.1840925    -4.109825     382.1226  0.070763444  0.072796701            1 
  451000    1.1929828    -4.167188     382.1433  0.070610366   0.07278257            3 
  452000    1.1621297   -4.1201427    384.68132  0.070922072  0.072770778            2 
  453000    1.1722521   -4.1479276    385.83185  0.070977162  0.072760326            3 
  454000    1.1717199   -4.1867299    384.96802  0.070662264  0.072749992            2 
  455000    1.1905735    -4.161682    386.64616  0.070814314  0.072738536            2 
  456000    1.1542222   -4.1606529    386.58758  0.070648315  0.072728984            4 
  457000    1.1619954   -4.1147435    388.99348  0.070932435  0.072717957            2 
  458000    1.1870404   -4.1025451    390.12696  0.070983798  0.072707696            2 
  459000    1.2071555    -4.121378    391.37365  0.071055493  0.072698227            1 
  460000    1.1876315   -4.1295017    389.14764  0.070497761  0.072687855            2 
  461000    1.1827686   -4.1260607    392.01043  0.070862334  0.072677936            1 
  462000    1.1896841   -4.1268434    393.14324  0.070913282  0.072666761            2 
  463000    1.1502946   -4.1334998    392.61631  0.070665282  0.072657031            3 
  464000     1.155459   -4.1713148    393.94895  0.070752326  0.072647056            3 
  465000    1.1936544   -4.1550273    396.82149  0.071114963  0.072637444            1 
  466000    1.1836088   -4.1592872    395.94369  0.070805381  0.072626611            6 
  467000    1.1847669   -4.1496524    398.15687  0.071048693   0.07261645            4 
  468000    1.1952987   -4.1412081     398.4557  0.070950089  0.072607024            2 
  469000    1.1444264    -4.136005     398.5038  0.070807356  0.072596057            2 
  470000    1.1916448   -4.1487736    397.82352  0.070536085  0.072585513            3 
  471000    1.1803379   -4.1259803    399.67863  0.070714549  0.072574688            3 
  472000    1.1719427   -4.1365161    399.19546  0.070479424   0.07256389            3 
  473000    1.2062011   -4.1607847    400.45832  0.070552911  0.072553509            2 
  474000    1.1695897   -4.1475121    401.50387  0.070587881  0.072541267            2 
  475000    1.1707761   -4.1355828    403.05638  0.070711645  0.072529864            1 
  476000    1.1701774   -4.1523313    403.44047  0.070630334  0.072519045            3 
  477000    1.1781098   -4.1253627    404.62778  0.070689688    0.0725092            4 
  478000    1.1712161    -4.151555    403.90947  0.070416574  0.072496779            3 
  479000    1.1550535   -4.1268365    405.13697   0.07048312  0.072483087            2 
  480000    1.1564196   -4.1693738     405.8817  0.070465572  0.072469059            2 
  481000    1.1560236   -4.1665608    404.36101  0.070055615  0.072454033            3 
  482000    1.1633933   -4.1376504    406.76892  0.070326577  0.072437989            1 
  483000    1.1829927   -4.1604169    405.60434  0.069980045  0.072422154            3 
  484000    1.1709612   -4.1424271    408.50747  0.070335308  0.072406355            3 
  485000    1.1435876   -4.1094148    408.92861  0.070262647  0.072388544            2 
  486000    1.1940256   -4.1601832    408.12466  0.069980224  0.072370702            3 
  487000     1.155478   -4.1444174    408.44406  0.069891181  0.072352799            2 
  488000    1.1848364    -4.170723     408.8836  0.069823018  0.072336659            2 
  489000    1.1831751   -4.1941636    410.82699  0.070011416  0.072317815            2 
  490000     1.164105   -4.1407403    410.64887  0.069838243  0.072298943            2 
  491000    1.1899259   -4.1856915    412.10977  0.069943953  0.072280513            1 
  492000     1.195725    -4.140933    413.15046  0.069978059  0.072263898            2 
  493000     1.183722   -4.1216118    416.36154  0.070378895  0.072247648            2 
  494000    1.1365986   -4.1824274    415.26802  0.070051961  0.072231963            2 
  495000    1.1742648   -4.1270872    417.79273  0.070335476  0.072216691            2 
  496000    1.1678647   -4.1295721    417.73337  0.070183697  0.072201411            1 
  497000    1.1549703   -4.1260757    417.48417  0.070000699  0.072185941            1 
  498000     1.166199   -4.1722145    417.52058  0.069866228  0.072170282            3 
  499000    1.1707545   -4.1455111    419.97443  0.070136011  0.072154069            5 
  500000     1.163063   -4.1453501    420.65141  0.070108569   0.07213695            2 
  501000    1.1978355   -4.1448643    422.40117  0.070259675  0.072121772            2 
  502000    1.1970626   -4.1046748    422.44971  0.070127774   0.07210794            2 
  503000    1.1741456    -4.166774     423.1833  0.070109891  0.072095904            2 
  504000    1.1820874   -4.1839485    424.41003  0.070173617  0.072082421            2 
  505000    1.1777741   -4.1228723    428.28447  0.070674006  0.072071125            2 
  506000      1.14141   -4.1366321    426.08591  0.070172251  0.072060374            2 
  507000    1.1410499   -4.1313301     426.9962  0.070183464  0.072048893            2 
  508000    1.1596475   -4.1340395    429.20155  0.070407079  0.072038805            1 
  509000    1.1522567   -4.1580063    429.11101   0.07025393  0.072027926            2 
  510000    1.1964283   -4.1455102    430.50294  0.070343617  0.072017438            2 
  511000    1.1394622   -4.1613167    432.47717  0.070527915  0.072006983            2 
  512000    1.1684635   -4.1639968    430.09328  0.070002162  0.071995817            2 
  513000    1.1569435   -4.1208036    434.19528  0.070532046  0.071985517            1 
  514000    1.1786002   -4.1915713    433.53348  0.070287529  0.071975314            2 
  515000     1.179321   -4.1595046    434.31601  0.070277672  0.071963277            3 
  516000     1.204473    -4.176643    435.13417  0.070273606  0.071951551            5 
  517000    1.1725233   -4.1854902    436.40482  0.070342491  0.071941387            3 
  518000    1.1801029   -4.1615586    436.91102  0.070288131  0.071930552            1 
  519000    1.1730869   -4.1593252    437.26316  0.070209242  0.071919514            1 
  520000    1.1995858   -4.1684425    437.22511  0.070068126  0.071908324            2 
  521000    1.1672292   -4.1687841    439.38188  0.070278612  0.071898026            2 
  522000     1.173339   -4.1446635     441.4032  0.070466666  0.071888218            1 
  523000    1.1491417   -4.1410213    440.61537  0.070206401  0.071878038            5 
  524000    1.1797904   -4.1516295    441.75959  0.070254388  0.071869644            2 
  525000    1.1475314   -4.1604744    443.80575  0.070445357  0.071860292            3 
  526000    1.1821391   -4.1585389    445.04207  0.070507299   0.07185014            5 
  527000    1.1926109   -4.1759037    444.55892   0.07029711  0.071840814            4 
  528000    1.1693168   -4.1999568    443.99701  0.070075286  0.071830436            2 
  529000    1.1885582   -4.1853853    446.71774  0.070371414  0.071819929            2 
  530000    1.1870291   -4.1687365    447.47375  0.070357507  0.071810927            3 
  531000    1.1672029   -4.1345782     447.9679  0.070302558  0.071801406            2 
  532000    1.1553248   -4.1998901    448.48734  0.070251776  0.071792076            1 
  533000    1.1952546   -4.1596021    450.63543  0.070455821  0.071783583            3 
  534000    1.1671525    -4.185317    447.54236  0.069841192  0.071774497            1 
  535000    1.1645061   -4.1430311    451.38916  0.070309837  0.071764143            2 
  536000    1.1624416   -4.1651368    449.85249  0.069939753  0.071752807            1 
  537000    1.1863102   -4.2071391    451.58186  0.070077879  0.071740936            3 
  538000    1.1466101   -4.1490079    452.13329  0.070033038  0.071728728            5 
  539000    1.1532169   -4.1477407    453.19487  0.070067234  0.071717975            1 
  540000    1.1517343   -4.1721069    453.30312  0.069954184  0.071705848            1 
  541000    1.1759963   -4.2087362     454.4897  0.070007655   0.07169346            4 
  542000    1.1750564   -4.1655308     455.1381  0.069978183  0.071681268            2 
  543000     1.153359   -4.1671438    455.73414  0.069940782  0.071670063            3 
  544000    1.1691858   -4.1603634    457.76665  0.070123568  0.071659684            2 
  545000    1.1600895   -4.1581697    460.14395  0.070358402  0.071650479            3 
  546000    1.1715954    -4.144467    460.50179  0.070284156  0.071641042            2 
  547000    1.1687937   -4.1732793    460.05374  0.070087407  0.071631934            2 
  548000    1.1612484   -4.1762707    463.37746  0.070464942   0.07162304            2 
  549000    1.1772519   -4.1435055    464.47737  0.070503547  0.071615356            2 
  550000    1.1824815   -4.1390618    461.71834  0.069957325  0.071606987            2 
  551000    1.1451815   -4.1694259    464.26658  0.070215756  0.071597355            3 
  552000    1.1634753   -4.1332179    465.06001  0.070208335   0.07158745            2 
  553000    1.1727768   -4.1815385    464.61333  0.070014065  0.071577514            1 
  554000    1.1850223   -4.1842699    464.23689   0.06983106  0.071566131            2 
  555000    1.1373382   -4.1664864    465.15779  0.069843511  0.071553643            2 
  556000    1.1568648   -4.1689279    465.91102  0.069830789  0.071541167            2 
  557000    1.1580794   -4.1869766    466.49575  0.069792901  0.071528677            2 
  558000    1.1537596      -4.1766     466.7362  0.069703734  0.071515386            2 
  559000    1.1355865   -4.1659779      468.388  0.069825283  0.071501906            1 
  560000    1.1491506   -4.1779464    471.05766  0.070097866  0.071489925            2 
  561000    1.1534837   -4.1511064    471.38935  0.070022186  0.071477345            2 
  562000    1.2046377   -4.1815448    470.64053  0.069786555  0.071464196            3 
  563000    1.1370137   -4.1215826    473.43253  0.070075863  0.071451664            3 
  564000    1.1353513   -4.1628232    470.36695  0.069498662  0.071439017            4 
  565000    1.1623723   -4.1680685    471.64257  0.069563801  0.071425912            1 
  566000    1.1370666    -4.188478    472.01476  0.069495694  0.071412876            4 
  567000    1.1653481   -4.1699131    474.15324  0.069687425  0.071399454            4 
  568000    1.1424295   -4.1680548    474.95633   0.06968256  0.071386598            3 
  569000    1.1282914   -4.2073787    473.56184  0.069355864  0.071373537            1 
  570000     1.166265   -4.2004753    476.83558  0.069712804  0.071358471            4 
  571000       1.1427   -4.1814359    476.44064  0.069533076  0.071345571            2 
  572000    1.1406328   -4.1769325     478.8766  0.069766404  0.071333479            4 
  573000    1.1944909   -4.2298922    476.84152   0.06934868  0.071320681            4 
  574000    1.1372761   -4.1715077    479.48866  0.069612175   0.07130709            2 
  575000    1.1794778   -4.1611311    483.08223  0.070011917    0.0712947            1 
  576000    1.1548736   -4.1325523    481.41562   0.06964925  0.071283213            1 
  577000    1.1393076   -4.1894006    482.28299  0.069653812  0.071270962            2 
  578000    1.1352902   -4.1727123    479.63056  0.069150889  0.071257349            3 
  579000    1.1540203   -4.1809336    481.46291   0.06929518  0.071242636            1 
  580000    1.1349073   -4.1591611    483.95357  0.069533559  0.071226318            2 
  581000    1.1801145   -4.1806644    485.47812  0.069632547  0.071211315            2 
  582000    1.1590402   -4.2243357    480.31304  0.068773345  0.071197198            2 
  583000    1.1586201   -4.1213578    488.39501  0.069810608  0.071182598            3 
  584000    1.1271735   -4.1701308    487.40757  0.069550167   0.07116926            2 
  585000    1.1455149   -4.2001994    485.87257  0.069212617   0.07115628            3 
  586000    1.1492953   -4.1714774    487.72224  0.069357543   0.07114263            3 
  587000    1.1537779   -4.1649712    489.53998  0.069497442  0.071128662            2 
  588000    1.1869427   -4.1998629    486.86729  0.069000466  0.071112883            3 
  589000    1.1752651    -4.200637    487.94959  0.069036445  0.071097085            3 
  590000     1.157909   -4.2246946     487.3134  0.068829577  0.071082329            1 
  591000    1.1540255   -4.1935918    487.90711  0.068796829   0.07106578            8 
  592000    1.1669959   -4.1835277    493.00328  0.069397985  0.071049668            3 
  593000    1.1537441   -4.1708363    493.56096  0.069359326  0.071032483            3 
  594000    1.1639984   -4.1820693    494.14254  0.069324149  0.071016586            3 
  595000    1.1597399   -4.1281276     492.2805  0.068946849  0.071001946            1 
  596000    1.1496391   -4.1781078    495.08546  0.069223359  0.070986812            2 
  597000    1.1578113   -4.1784918    494.42106  0.069014664  0.070971831            1 
  598000    1.1517026   -4.1813243    495.60035  0.069063594  0.070956299            2 
  599000    1.1359254    -4.182262    497.26995  0.069180572   0.07094147            1 
  600000    1.1573166   -4.2048458    497.30172  0.069069684  0.070925887            2 
  601000     1.145582   -4.1708407    498.70195  0.069148912  0.070910856            4 
  602000    1.1740117   -4.1587192    498.39543  0.068991615  0.070895404            3 
  603000    1.1623764   -4.1622112    501.37504  0.069288978  0.070880019            5 
  604000    1.1506257   -4.1707386    501.10774  0.069137381  0.070863799            3 
  605000    1.1329958   -4.2058993    499.29488  0.068773399  0.070846596            4 
  606000    1.1445587   -4.1855611    501.89511   0.06901748  0.070829995            3 
  607000    1.1764061   -4.1865221    501.60517  0.068863972  0.070814403            3 
  608000    1.1566843   -4.1751449    502.50117  0.068873515  0.070797816            2 
  609000    1.1515178   -4.1487422    504.29667  0.069006112  0.070781747            1 
  610000    1.1542232   -4.1784931    505.08013  0.069000017  0.070765768            2 
  611000    1.1524331   -4.2252514    502.13552  0.068485477  0.070748932            4 
  612000    1.1368388   -4.1738659    506.24199  0.068932733  0.070732393            3 
  613000    1.1749163   -4.2226734    505.99669  0.068786934  0.070716479            4 
  614000    1.1409933   -4.1934537    508.87406  0.069065427  0.070702107            2 
  615000       1.1637    -4.171566    510.30486     0.069147  0.070687642            2 
  616000    1.1427235   -4.1642732    509.42078  0.068915149  0.070673023            5 
  617000    1.1634374   -4.2249694    508.80386  0.068720132  0.070657493            2 
  618000    1.1541745   -4.1758159    512.24756  0.069073296  0.070643234            2 
  619000    1.1406338   -4.1957275    512.14244  0.068947555  0.070628715            2 
  620000    1.1314293   -4.1885467    514.00737  0.069087012  0.070614459            1 
  621000    1.1689657   -4.1743698    511.82501  0.068682905  0.070600059            3 
  622000    1.1364578   -4.2285161    514.79459  0.068970336  0.070585478            1 
  623000    1.1399845   -4.2016224    515.83544  0.068998854   0.07057131            1 
  624000    1.1591545   -4.1986758     517.8531  0.069157732  0.070557557            2 
  625000    1.1444532   -4.1725483    517.62958  0.069017277   0.07054368            2 
  626000    1.1659861   -4.1961818    517.74301  0.068922126  0.070530742            3 
  627000    1.1692128   -4.1736009     519.9904  0.069110899  0.070516418            2 
  628000    1.1541255    -4.166242    520.84715  0.069114537  0.070501837            2 
  629000    1.1504889   -4.1642285    521.96892  0.069153275  0.070487625            2 
  630000    1.1318995   -4.1798936    520.99607  0.068914824  0.070473533            2 
  631000    1.1456943   -4.2054993    521.03065  0.068810175  0.070458739            2 
  632000    1.1262599   -4.1751195    523.91449  0.069081552  0.070444454            1 
  633000    1.1649842   -4.1935106    523.19552  0.068877767  0.070431592            1 
  634000    1.1157773   -4.2013217    523.88906  0.068860286  0.070419344            3 
  635000    1.1331403   -4.1671571    525.07309   0.06890723  0.070406329            2 
  636000    1.1626354   -4.1861722    524.37949  0.068708005  0.070392954            3 
  637000    1.1515704   -4.1792647    527.87488  0.069057416  0.070379593            2 
  638000    1.1401001   -4.1815115    527.92315  0.068955479  0.070366814            1 
  639000    1.1522904   -4.1954033    530.29268  0.069156583  0.070353431            3 
  640000    1.1288522   -4.2174685    528.11534  0.068765018   0.07034058            3 
  641000    1.1367144   -4.2054693    528.89597  0.068759226  0.070326569            3 
  642000    1.1268037   -4.1836761    532.90293  0.069172239  0.070313662            2 
  643000    1.1714349   -4.1970302    531.05558  0.068825243   0.07030089            2 
  644000      1.17262   -4.1861128    532.30439  0.068879967  0.070287638            2 
  645000    1.1438385   -4.2068538    532.98032  0.068860507  0.070274307            3 
  646000    1.1250156   -4.1917593      532.503  0.068692337  0.070260239            2 
  647000    1.1446111   -4.1882086    533.93272  0.068770315  0.070246756            3 
  648000    1.1467768   -4.1817443    535.42102  0.068855584  0.070234025            1 
  649000    1.1418146   -4.1698298    539.10845  0.069222965  0.070221054            2 
  650000    1.1431402   -4.2015836    535.48854  0.068652376  0.070208317            3 
  651000      1.14074   -4.1889542    537.38773  0.068790031  0.070193874            4 
  652000    1.1201426   -4.1701655    536.75997  0.068604291  0.070180418            1 
  653000    1.1557714   -4.2089334    537.38321  0.068578766  0.070165128            5 
  654000    1.1431487   -4.1756687    540.16247  0.068828041   0.07014991            8 
  655000    1.1285053   -4.1962721    538.21461  0.068475142  0.070134932            2 
  656000     1.168779   -4.1994341    541.39665  0.068774981  0.070119742            2 
  657000    1.1577314    -4.166723    540.55489  0.068563533  0.070106321            2 
  658000    1.1362908   -4.1946188    541.20014  0.068541051  0.070091623            1 
  659000     1.171654   -4.1665149    542.45978   0.06859633   0.07007688            2 
  660000    1.1312151   -4.2101128    540.70574  0.068270927  0.070061854            2 
  661000    1.1234196   -4.2424588    542.11612  0.068345451   0.07004618            6 
  662000    1.1587259   -4.1662454    545.82852  0.068709532  0.070032195            3 
  663000    1.1458963   -4.1948672    542.52789  0.068191037  0.070017963            1 
  664000     1.128532    -4.197004     546.4863  0.068585128  0.070004527            3 
  665000    1.1443606   -4.2258604     546.0416  0.068426266  0.069991413            2 
  666000    1.1242781   -4.1948635    550.27749   0.06885354  0.069977799            2 
  667000    1.1551885   -4.1847383     548.7309  0.068557084  0.069965751            6 
  668000    1.1333946   -4.2068482    548.47671  0.068422743  0.069952012            2 
  669000    1.1391772   -4.2061253    549.27834  0.068420321  0.069938077            1 
  670000    1.1203035   -4.2117267     548.6832   0.06824418  0.069922986            1 
  671000    1.1237499   -4.2044422    552.74772  0.068647258  0.069908804            1 
  672000    1.1596002   -4.1913621    550.40173  0.068254183  0.069894764            1 
  673000    1.1323019   -4.2087978    551.48392  0.068286765  0.069880087            1 
  674000    1.1475449   -4.1639114    554.34851  0.068539628  0.069865737            3 
  675000    1.1330204   -4.1697601    558.03163  0.068892794  0.069852405            2 
  676000     1.137398   -4.2119622    554.58736  0.068366292   0.06983915            5 
  677000    1.1507888   -4.1918671    556.85254  0.068544133  0.069824372            2 
  678000    1.1567799   -4.2072541    556.70765  0.068425228   0.06981126            3 
  679000     1.157089   -4.2547751    556.38779  0.068285197  0.069798504            2 
  680000    1.1667743   -4.2009955    558.99565  0.068504369  0.069784498            4 
  681000    1.1549788   -4.1943638    558.26431  0.068314281  0.069771124            4 
  682000    1.1252794     -4.21177    560.15259  0.068444843  0.069757959            2 
  683000    1.1381651   -4.1824393    561.93486  0.068562086  0.069744961            2 
  684000    1.1619646    -4.182005    563.33122  0.068631972  0.069732112            2 
  685000    1.1426851   -4.1987337    561.23996  0.068277367  0.069720026            3 
  686000    1.1498823   -4.1961596    563.46418  0.068448029  0.069707697            3 
  687000    1.1493592   -4.1901459    565.39942  0.068583142  0.069695954            1 
  688000    1.1364727   -4.1936301      564.191  0.068337089  0.069684372            2 
  689000    1.1399666   -4.2220758    564.53799  0.068279873  0.069672749            1 
  690000    1.1287281   -4.1907302    566.13247  0.068373487  0.069660871            2 
  691000    1.1328911   -4.2267659    566.37872  0.068304236  0.069648541            2 
  692000    1.1063391   -4.2250367    567.31752  0.068318584  0.069637117            2 
  693000    1.1209209   -4.2239719    566.05021  0.068067606  0.069626228            3 
  694000    1.1414119   -4.2173432    571.57813  0.068633301  0.069614261            3 
  695000    1.1534229    -4.194114    572.22779  0.068612445  0.069602419            1 
  696000    1.1474356   -4.1980011    573.55489   0.06867276  0.069590317            5 
  697000    1.1352379   -4.1975157     571.8132  0.068365997  0.069578979            2 
  698000    1.1325993   -4.2458224    571.51895  0.068232921  0.069568323            6 
  699000    1.1365359   -4.2142947    573.27283  0.068344401  0.069557729            2 
  700000    1.1486776   -4.1942001    576.00271  0.068571751  0.069547561            1 
  701000    1.1268626   -4.1762189    577.54512  0.068657289  0.069537254            3 
  702000    1.1408121   -4.2008896    577.06945  0.068503022  0.069526904            3 
  703000    1.1259722   -4.2266194    580.62981  0.068827621  0.069516767            2 
  704000    1.1349967    -4.192026    578.55513  0.068484272  0.069507302            3 
  705000    1.1292112   -4.2100823    582.29371  0.068829043  0.069498347            2 
  706000    1.1443716   -4.2332433    580.93687  0.068571396  0.069488672            2 
  707000     1.136728   -4.1952891    581.75641  0.068571005  0.069479114            3 
  708000    1.1582743   -4.2296219    581.97771  0.068500202  0.069468847            3 
  709000    1.1287511   -4.1773953    586.53669  0.068939433  0.069460537            4 
  710000    1.1296154   -4.2064313      582.523  0.068371244  0.069451152            3 
  711000    1.1529679   -4.2096481    585.86396  0.068666662  0.069442633            2 
  712000    1.1219937   -4.2106336    588.57094  0.068887048  0.069434662            4 
  713000     1.163715    -4.219657    585.09707  0.068384416  0.069426722            3 
  714000    1.1298424   -4.1995547    588.54408  0.068690952  0.069418587            3 
  715000    1.1457351    -4.152891     592.6176   0.06906965  0.069411054            1 
  716000    1.1497156   -4.2107516    590.67428  0.068747007   0.06940341            3 
  717000    1.1631418   -4.1980803    592.70877  0.068887584   0.06939596            3 
  718000    1.1544725   -4.1934379    594.04613  0.068946858  0.069388741            6 
  719000    1.1234158   -4.2019488    592.40945  0.068661272  0.069381108            2 
  720000    1.1432912   -4.2016759     594.3954  0.068795763  0.069373528            2 
  721000     1.146973   -4.2105508     596.0681  0.068893678  0.069365852            2 
  722000    1.1366727   -4.2296925    594.40334   0.06860611   0.06935737            3 
  723000    1.1506841   -4.1738861    599.23576  0.069068207  0.069349866            5 
  724000    1.1232097   -4.1956047    596.45742  0.068653018  0.069342795            2 
  725000    1.1561015   -4.2061645    597.96203  0.068731268   0.06933557            4 
  726000     1.171758   -4.2154198    598.33538  0.068679451  0.069327881            3 
  727000    1.1460188   -4.2456897    600.16407  0.068794598  0.069320883            3 
  728000    1.1237916   -4.2057646    601.06921   0.06880371  0.069313701            4 
  729000    1.1337537   -4.1876305    602.78134  0.068905046  0.069307085            5 
  730000    1.1410312   -4.1913488    604.40882   0.06899644   0.06930149            2 
  731000    1.1288134   -4.2374245    599.76934  0.068373157  0.069294462            1 
  732000    1.1114297    -4.234618    605.31186  0.068910731  0.069288055            3 
  733000    1.1375154   -4.1994922    605.52465  0.068840911  0.069281845            2 
  734000    1.1297658   -4.2458865     604.1705  0.068593381  0.069275529            3 
  735000    1.1007084    -4.221684    607.56755   0.06888521  0.069269055            1 
  736000    1.1628422   -4.1925115    605.96098  0.068609713  0.069263102            5 
  737000    1.1349499   -4.1884243    608.16989  0.068766383  0.069256812            1 
  738000    1.1184313   -4.2246952    608.81081  0.068745575  0.069251296            1 
  739000    1.1301912   -4.2373851    609.02317  0.068676496  0.069245986            4 
  740000    1.1312283   -4.2346224    611.77541  0.068893627  0.069240835            2 
  741000    1.1248211   -4.2470405    612.45072  0.068876599  0.069235981            1 
  742000    1.1602609   -4.2219266     613.9076  0.068947394  0.069230411            2 
  743000    1.1192826   -4.2214222    615.83803  0.069071111   0.06922584            2 
  744000    1.1342362   -4.2429831    614.08436   0.06878185  0.069220361            2 
  745000    1.1251406   -4.2154547    616.12819  0.068918142  0.069215029            3 
  746000    1.1307276   -4.2031101    615.84615  0.068794252  0.069210698            4 
  747000    1.1198762   -4.1747891    618.07987  0.068951346  0.069206221            4 
  748000    1.1557636   -4.2120026    618.96537  0.068957817  0.069199783            5 
  749000    1.1162921   -4.2139149    616.68074  0.068611564  0.069193891            4 
  750000    1.1195047   -4.1954887    620.42411  0.068936012  0.069187899            2 
  751000    1.1364042   -4.2162654    619.41858  0.068732644  0.069182063            2 
  752000    1.1291813   -4.2114254    622.96477  0.069034217  0.069177146            3 
  753000    1.1430243   -4.2237184    624.54199  0.069117086  0.069171922            1 
  754000    1.1434281   -4.2623357    621.37406  0.068675293  0.069167033            2 
  755000    1.1218271    -4.231623    621.06398  0.068550108  0.069161467            3 
  756000    1.1417661   -4.2355627    621.47599  0.068504849  0.069155624            6 
  757000    1.1212256   -4.2490584    621.84688  0.068455182  0.069149152            5 
  758000    1.1226004   -4.2135279    623.52749  0.068549636  0.069141969            3 
  759000    1.1466908   -4.2301112    622.77098  0.068376261  0.069135026            6 
  760000    1.1513998   -4.2264119    628.19356  0.068880873   0.06912756            2 
  761000    1.1402987   -4.2075006    628.05837  0.068775555   0.06912075            1 
  762000    1.1302747   -4.2321897    627.40979  0.068614369  0.069115088            3 
  763000    1.1425698   -4.2007027    630.40277  0.068851329  0.069109847            2 
  764000    1.1283497   -4.2143997    632.11207  0.068947652  0.069103732            3 
  765000    1.1466416   -4.2192539    629.69994  0.068594765  0.069097297            2 
  766000     1.147902   -4.2710473    629.73048  0.068508538  0.069091085            2 
  767000    1.1583313   -4.2193889    630.26871  0.068477696  0.069085369            1 
  768000    1.1307202   -4.2063533    631.53249   0.06852566   0.06907874            2 
  769000    1.1384179   -4.2546093    630.59493  0.068334952  0.069071775            4 
  770000    1.1096474   -4.2176658    630.81071  0.068269558  0.069064682            1 
  771000    1.1498579   -4.2139291    635.45638  0.068683137  0.069057289            2 
  772000     1.107949   -4.2362546    633.95474  0.068432075  0.069049907            4 
  773000    1.1330056   -4.2181993     634.7911   0.06843371  0.069041296            3 
  774000    1.1307787   -4.2035915    638.19801  0.068712103  0.069033432            5 
  775000    1.1487541   -4.2224571    636.45086  0.068435577  0.069024924            2 
  776000    1.1001222   -4.2094294    636.30525   0.06833175  0.069017165            2 
  777000    1.1332063   -4.2103848     641.0873  0.068756681  0.069009755            2 
  778000    1.1334901   -4.2216118    638.30805  0.068370614  0.069001694            3 
  779000     1.093132   -4.2222501    639.93171  0.068456537  0.068993384            2 
  780000    1.1294166   -4.2383641    637.68604   0.06812885  0.068984722            1 
  781000     1.131676   -4.2506962    636.22218  0.067885423  0.068975656            1 
  782000     1.106133   -4.2561002    641.06557  0.068314745   0.06896702            4 
  783000    1.1343244   -4.2325301    642.98081  0.068431334  0.068958994            2 
  784000    1.0951052   -4.2424585    642.70902  0.068315159  0.068951757            6 
  785000    1.1437027   -4.2268098    642.67075  0.068224071   0.06894398            3 
  786000    1.1345516   -4.2096773    646.34593  0.068526922  0.068936012            2 
  787000    1.1320885   -4.2133236    647.59199   0.06857179   0.06892813            3 
  788000    1.1128058   -4.2386041    644.24948   0.06813129   0.06892037            2 
  789000    1.1217759   -4.1942796     647.0393  0.068339597  0.068913148            4 
  790000    1.1128725   -4.2185198     648.4472  0.068401603  0.068905806            2 
  791000    1.1183928   -4.2453091    648.19592  0.068288655  0.068898729            3 
  792000    1.1200017    -4.211631    649.22517  0.068310729  0.068890834            4 
  793000    1.1136457   -4.2111377    649.08958  0.068210338  0.068882176            3 
  794000    1.1154942   -4.2470673    651.45079  0.068372249  0.068873454            3 
  795000    1.1090415   -4.2076323    649.49655  0.068081399  0.068864255            1 
  796000    1.1345371   -4.2326096     650.2406  0.068073764  0.068855528            2 
  797000    1.1381885   -4.2370562    649.83048   0.06794547    0.0688465            1 
  798000    1.1338682   -4.2448902    652.95611  0.068186728  0.068837842            2 
  799000    1.1253187   -4.2452617    654.75317  0.068288817  0.068829489            2 
  800000    1.1069836   -4.2022783    653.29836  0.068051912  0.068819971            5 
  801000    1.1324624   -4.2578542    653.38324  0.067975784  0.068810636            7 
  802000    1.1069553   -4.2365683    653.77558  0.067931794  0.068800485            2 
  803000    1.1219096   -4.2646536    653.50448  0.067819062  0.068789748            2 
  804000    1.0926104   -4.2152501    652.58073  0.067638965  0.068778715            3 
  805000    1.1016012   -4.2744603    652.03955  0.067498919  0.068767805            7 
  806000    1.1447114   -4.2526596    654.52974  0.067672636   0.06875662            3 
  807000    1.1356085   -4.2616738    653.75424  0.067508699  0.068745059            5 
  808000    1.1278844   -4.2322335    657.38618   0.06779973  0.068733997            1 
  809000    1.1088616   -4.2766484    655.00206   0.06747034  0.068723352            2 
  810000    1.1261526   -4.2363852    660.01792  0.067903078  0.068712484            3 
  811000    1.1109343   -4.2366146    657.62754   0.06757373   0.06870103            5 
  812000    1.1437598   -4.2436757    655.24383  0.067245877  0.068688936            2 
  813000    1.1422467   -4.2217224    661.72327  0.067827314  0.068677808            2 
  814000    1.1425625   -4.2156705    661.35923  0.067706719  0.068667491            2 
  815000    1.1506032   -4.2533519    664.95956  0.067991775  0.068657111            3 
  816000    1.1277404   -4.2160105    662.41178  0.067648261  0.068647524            2 
  817000    1.1126308   -4.2544465    664.01434  0.067728921  0.068636914            2 
  818000    1.0980912   -4.2432582    664.81543  0.067727734   0.06862728            2 
  819000    1.1222034   -4.2587408    665.11492  0.067675511  0.068617189            2 
  820000    1.1330408   -4.2362099    665.26931  0.067608669  0.068607071            3 
  821000     1.124582   -4.2595594    665.92246  0.067592616   0.06859717            3 
  822000    1.1240766   -4.2490641    669.07725  0.067830215  0.068587894            3 
  823000    1.1224592   -4.2175817    671.83555  0.068027091  0.068579606            2 
  824000    1.1502742   -4.1947453    671.12913  0.067873092  0.068571489            4 
  825000    1.1045821   -4.2405838    670.14157  0.067691068  0.068562488            3 
  826000    1.1352554   -4.2418635    672.94104   0.06789155  0.068553716            2 
  827000    1.1179296   -4.2531043    675.95357  0.068113016  0.068544849            3 
  828000    1.1257327   -4.2509346    676.01499  0.068036935  0.068536344            2 
  829000    1.1282143   -4.2352521    676.30053  0.067983568  0.068527728            2 
  830000    1.1411718   -4.2502328    675.63019  0.067834357  0.068519216            1 
  831000    1.1050089   -4.2601015    676.15871  0.067805727  0.068511154            3 
  832000    1.1178422   -4.2299485     678.0002  0.067908673  0.068503552            1 
  833000    1.1041527   -4.2556498    676.09397  0.067636451   0.06849618            2 
  834000    1.0934708   -4.2455323    678.93229  0.067838958  0.068488098            2 
  835000    1.1106595   -4.2254341    682.81614  0.068145323  0.068481363            2 
  836000    1.1256366   -4.2525265     681.1362  0.067896352   0.06847533            3 
  837000    1.1219431   -4.2520959    684.49861  0.068150001  0.068468201            2 
  838000    1.0965052   -4.2449181     682.8747  0.067907189  0.068461077            1 
  839000    1.0940893   -4.2327324    685.95996  0.068132694  0.068453885            1 
  840000    1.1305788   -4.2426087    684.19749  0.067876735  0.068446924            7 
  841000    1.1417516   -4.2402292    684.31638  0.067807806  0.068439821            4 
  842000    1.1083409   -4.2210164    688.06993  0.068098766  0.068432926            2 
  843000    1.1371052   -4.2239854    686.41929  0.067854813  0.068426126            2 
  844000    1.1362255   -4.2163316    685.26438  0.067660385   0.06841796            3 
  845000     1.141509   -4.2351581     688.7291  0.067922002  0.068410358            5 
  846000    1.1297103   -4.2472583    690.05999  0.067972812  0.068403466            3 
  847000    1.1036813   -4.2552829    689.81773  0.067868726  0.068395912            2 
  848000    1.1248024   -4.2308577    688.84939  0.067693533  0.068388154            2 
  849000    1.1305537   -4.2611004    688.40184  0.067569871  0.068380675            2 
  850000    1.1350859   -4.2712444    688.75515  0.067525014  0.068372223            6 
  851000    1.1090607   -4.2405956    691.16221  0.067681376  0.068364297            1 
  852000    1.1176092   -4.2758545    690.30152  0.067517754  0.068356135            3 
  853000    1.1258607   -4.2673046    694.43853  0.067842763  0.068348384            4 
  854000    1.1061172   -4.2614925    695.85694  0.067901731  0.068340842            1 
  855000     1.111664   -4.2601975    695.62933   0.06780013  0.068333348            4 
  856000    1.1003779   -4.2702154    695.80632  0.067738154  0.068325942            2 
  857000     1.107723   -4.2205137    698.69257  0.067939768  0.068318056            3 
  858000    1.1270437   -4.2728664    697.43998  0.067738925   0.06831035            3 
  859000     1.109116   -4.2445952    695.86227  0.067507011  0.068302584            3 
  860000     1.101711   -4.2589726    697.23978  0.067561994  0.068294374            4 
  861000    1.1152577   -4.2191745    699.87238  0.067738326  0.068286069            2 
  862000    1.1367313   -4.2432284    701.41011  0.067808402  0.068278378            2 
  863000    1.1120016   -4.2293549    703.61204  0.067942452   0.06827135            2 
  864000    1.1204438   -4.2305786    701.85914  0.067694747  0.068263767            4 
  865000    1.1317775   -4.2755928    701.38294  0.067570611  0.068256331            2 
  866000    1.1036041   -4.2607345    704.50506  0.067793019  0.068249523            3 
  867000    1.1179504   -4.2805156    705.08957  0.067771009  0.068242596            2 
  868000    1.1039136    -4.269572    707.23573  0.067898976  0.068235813            2 
  869000    1.1274727   -4.2627952    706.25691  0.067726977  0.068228546            3 
  870000    1.1244991    -4.265585    703.86702  0.067420213  0.068221128            3 
  871000    1.1002297   -4.2731069    706.74286  0.067617955  0.068213463            3 
  872000    1.0928873   -4.2766904    706.40041  0.067507684  0.068205792            2 
  873000    1.1115152   -4.2444759    709.17586   0.06769529  0.068198255            2 
  874000    1.1398268   -4.2645118    710.52626  0.067746592  0.068190318            2 
  875000    1.0998556   -4.2560987    710.61467  0.067677587  0.068182639            3 
  876000    1.1234451   -4.2459746     711.7627  0.067709541  0.068175536            2 
  877000    1.1066205   -4.2549876    715.50428  0.067987864  0.068168165            2 
  878000    1.0956009   -4.2510848    714.78795   0.06784244  0.068161014            2 
  879000    1.0863901   -4.2575749    714.83508  0.067769727   0.06815294            3 
  880000    1.1349395   -4.2335855    712.72677  0.067493065  0.068145282            5 
  881000    1.1120841   -4.2628665    713.53765  0.067493156  0.068136267            2 
  882000    1.1103548   -4.2299779    716.60302  0.067706256  0.068127478            2 
  883000    1.1165839   -4.2642337     715.9309  0.067566148  0.068118947            4 
  884000    1.1218928   -4.2529718    715.43592  0.067443054  0.068110825            2 
  885000    1.1035833   -4.2409211    716.10518  0.067429866   0.06810291            1 
  886000    1.1074108   -4.2862434    716.77209  0.067416487  0.068095659            4 
  887000    1.1072217   -4.2741963    716.68434  0.067332238  0.068086827            2 
  888000    1.1042787   -4.2771387    717.74717  0.067356153  0.068078732            2 
  889000      1.08574   -4.3005706     716.6875  0.067181055  0.068070194            5 
  890000    1.1070853   -4.2413732    718.33897  0.067260203  0.068060857            6 
  891000    1.1141801   -4.2085418     720.2363  0.067362168  0.068052245            2 
  892000    1.0950422   -4.2547582    722.54733  0.067502554  0.068043609            3 
  893000    1.1022515   -4.2615612    723.77152  0.067541202  0.068034847            2 
  894000    1.1174259   -4.2906216    722.97072  0.067391007  0.068026329            3 
  895000     1.120184   -4.2532897     726.3252  0.067628045  0.068018057            8 
  896000    1.1068351   -4.2545025    722.84993  0.067229346  0.068010004            2 
  897000    1.0975519   -4.2499289    726.99575  0.067539553  0.068001269            2 
  898000     1.094224   -4.2590112    726.67532  0.067434606  0.067993666            3 
  899000    1.0978671   -4.2657265    724.42909  0.067151381  0.067985701            4 
  900000    1.1276638   -4.2700656    724.73541  0.067105131  0.067976966            2 
  901000    1.1309047   -4.2670412    725.65283  0.067115504  0.067968943            2 
  902000    1.1288867   -4.2628119    727.35828  0.067198659  0.067960356            6 
  903000     1.118547   -4.2573055    731.20113  0.067478879  0.067951507            2 
  904000    1.1067687   -4.2531486    729.73432  0.067269019   0.06794303            3 
  905000    1.1039542   -4.2758392    730.76146  0.067289269  0.067934461            2 
  906000    1.0976195   -4.2746882    731.46469  0.067279681  0.067925527            4 
  907000    1.1137841   -4.2163477    732.17532  0.067270794  0.067916582            4 
  908000     1.098816   -4.2927223    732.09454  0.067189293  0.067907789            5 
  909000    1.1079456   -4.2625257    733.39202  0.067234325  0.067898652            3 
  910000    1.1087285    -4.301466    734.71399  0.067281501  0.067889343            2 
  911000    1.1227784   -4.2795225    733.09119  0.067059201  0.067881044            4 
  912000    1.1114629   -4.2611413    735.07563  0.067166998  0.067872379            3 
  913000    1.1065745   -4.2612398    737.31955  0.067298243  0.067863711            2 
  914000    1.0876649    -4.291141    737.44398  0.067235957  0.067854579            2 
  915000    1.1005832   -4.2650727    737.37106  0.067155834  0.067845902            3 
  916000    1.0974324   -4.2728895    735.28345  0.066892599  0.067837101            2 
  917000    1.0845238    -4.247219    742.03895  0.067433565  0.067828236            3 
  918000    1.1003142   -4.2277893    738.24898  0.067016066  0.067819026            2 
  919000    1.1258892   -4.2515599    738.61303  0.066976154  0.067809455            1 
  920000    1.1170075   -4.2857074    739.11943  0.066949224  0.067800586            3 
  921000    1.0839982   -4.2536567    741.47003  0.067089217  0.067791397            1 
  922000    1.0842789   -4.2615194    744.12898  0.067256777  0.067782279            3 
  923000    1.1342795   -4.2734816     743.3955  0.067117687  0.067773322            1 
  924000    1.1155537    -4.238549    746.40792  0.067316732  0.067763971            2 
  925000    1.1168084   -4.2354235    743.03238  0.066939854  0.067754991            3 
  926000    1.0914937    -4.284024    743.31902   0.06689336    0.0677458            1 
  927000    1.1064938   -4.2742441    742.53482  0.066750703    0.0677365            2 
  928000    1.1189422   -4.2331252    747.99161  0.067168787  0.067727484            2 
  929000    1.1188432   -4.2553385    747.71932   0.06707206  0.067718295            2 
  930000    1.0746654   -4.2766363    745.91745  0.066838481  0.067708642            1 
  931000    1.0948981    -4.277611    744.57187  0.066646247  0.067698816            1 
  932000    1.0751733   -4.2774668    747.43014  0.066830305  0.067688957            2 
  933000    1.0879513   -4.2854191    750.96772  0.067074644   0.06767943            3 
  934000    1.0944694   -4.2686936    748.76521  0.066806318  0.067669072            1 
  935000    1.1106619     -4.29123    747.86327  0.066654481  0.067658777            2 
  936000    1.1067652   -4.2585821    750.50826  0.066818756  0.067647723            2 
  937000    1.1083949   -4.2825297    748.99254  0.066612641  0.067636604            3 
  938000    1.1100595   -4.3019073    748.87132  0.066530857  0.067625397            1 
  939000    1.1011277   -4.2769571    749.32056  0.066499872  0.067613646            4 
  940000    1.0905088   -4.2652536    753.40041  0.066790816  0.067602669            3 
  941000    1.1116707   -4.2512523    749.61941  0.066384999  0.067591434            3 
  942000    1.1022414   -4.2846615     755.8015   0.06686142  0.067580478            3 
  943000    1.1145147   -4.2568245    753.23005  0.066563278   0.06756971            2 
  944000    1.0981124   -4.2626645    753.89267   0.06655126  0.067558637            2 
  945000    1.0921515   -4.2975741    754.25602  0.066512876   0.06754734            1 
  946000    1.1110246   -4.2928772    758.67493  0.066831829  0.067535899            5 
  947000    1.1216953   -4.2956973    756.31909   0.06655395  0.067524433            1 
  948000    1.1180257   -4.2389835    758.67482  0.066690824  0.067513594            2 
  949000    1.1127298   -4.2685062    761.87791  0.066901819  0.067502916            3 
  950000     1.096526   -4.2594256    761.06858  0.066760402  0.067492213            1 
  951000    1.1078111   -4.2772513    755.10183  0.066167353  0.067480225            2 
  952000    1.1010072   -4.2770952    756.39823   0.06621133  0.067468661            3 
  953000    1.0948271   -4.2800779    758.36264  0.066313627  0.067457258            2 
  954000    1.0732952   -4.2923398    758.89238  0.066290389  0.067445651            3 
  955000    1.0984348   -4.2874256     760.4488  0.066356789  0.067434169            3 
  956000    1.1126095   -4.2776875    761.66199   0.06639313  0.067422367            1 
  957000    1.0806339   -4.2890841    762.39046  0.066387188  0.067410874            1 
  958000    1.1110629   -4.2758137    762.60143  0.066336242  0.067398801            2 
  959000    1.0920825   -4.2660039    763.27073  0.066325228  0.067386467            1 
  960000    1.1061507   -4.2730503    759.92961  0.065966112   0.06737419            3 
  961000    1.0968084   -4.2554532    767.85321  0.066584566  0.067361507            4 
  962000    1.1275443   -4.2959421    762.75959  0.066074115  0.067348504            2 
  963000    1.0746839   -4.2512997    763.04072  0.066029831  0.067336445            1 
  964000    1.1081656   -4.2490141    766.98528  0.066302323  0.067324012            2 
  965000    1.0826818   -4.2586899    768.64957  0.066377338  0.067311542            1 
  966000    1.0978276   -4.2648117    764.29345  0.065932837  0.067299362            2 
  967000    1.0813044   -4.2833806    766.64046  0.066066913   0.06728611            3 
  968000    1.0967978   -4.2593629    766.62129  0.065997012  0.067272855            2 
  969000    1.0924425   -4.2505063    769.43861  0.066171191  0.067259618            4 
  970000    1.0943861   -4.2348421    769.42189  0.066101537  0.067246874            3 
  971000    1.0962633   -4.2502202    771.40908  0.066204006  0.067234122            3 
  972000    1.1039828   -4.2829657    769.04262   0.06593301  0.067221548            4 
  973000     1.104955   -4.2845954    771.71033  0.066093724  0.067208942            4 
  974000    1.1293657   -4.2828067    771.57708  0.066014466  0.067195733            1 
  975000     1.080194   -4.2847295    771.15708  0.065910861  0.067183364            5 
  976000    1.0972022   -4.2675444    770.59139  0.065795029  0.067170339            4 
  977000     1.106012   -4.2782778    772.03663  0.065850958  0.067157164            5 
  978000    1.1199478   -4.2689126    772.59395  0.065831114  0.067145049            4 
  979000     1.108373   -4.2994595    773.94607  0.065878964  0.067132259            5 
  980000    1.1013172   -4.2842515    775.67785  0.065959001  0.067119424            4 
  981000    1.0816318   -4.2890806    773.84945  0.065736447  0.067106445            2 
  982000    1.1177671    -4.292973    775.19321  0.065783537  0.067092684            3 
  983000    1.0767097    -4.302972     776.5806  0.065834232  0.067080017            5 
  984000    1.1018269   -4.2732364    778.45383  0.065925968  0.067067095            4 
  985000    1.0925377   -4.2735083    778.04674  0.065824598  0.067053623            4 
  986000    1.0771786   -4.2949877    777.50615  0.065712149  0.067040106            5 
  987000    1.0931683   -4.2919814    778.62285  0.065739856   0.06702655            3 
  988000     1.095669   -4.2879668    781.95218  0.065954131  0.067013161            3 
  989000    1.0751926   -4.2771668    781.26148  0.065829245  0.066999418            4 
  990000    1.1040278   -4.2715794    779.70154  0.065631443  0.066985555            2 
  991000    1.0921431    -4.283522     781.9626  0.065755348  0.066971421            2 
  992000    1.0737475   -4.2964963    780.73441  0.065585888  0.066957307            1 
  993000    1.1023131   -4.2766822    780.20184  0.065475146   0.06694247            2 
  994000    1.0922712   -4.2595336    783.43052  0.065679957  0.066928359            5 
  995000    1.0880485   -4.2954026     784.8878  0.065735997  0.066914246            4 
  996000    1.0633304   -4.2902381    780.67338  0.065317385  0.066899723            2 
  997000    1.1122755   -4.2796138     783.2624  0.065468272  0.066884923            2 
  998000    1.1153929   -4.2515642    784.23426  0.065483823  0.066870559            3 
  999000     1.104409   -4.2832404    786.67419  0.065621804  0.066856696            1 
 1000000    1.0972409   -4.3269742    782.82626  0.065235522  0.066842265            2 
 1001000    1.0749765   -4.2851714      783.263   0.06520671  0.066827563            4 
 1002000     1.090763   -4.2677649     789.5002  0.065660363  0.066813401            2 
 1003000    1.1161417   -4.2968573    789.41656   0.06558795  0.066799708            2 
 1004000    1.1065947   -4.2749556    789.50668  0.065530103  0.066785797            2 
 1005000     1.081951   -4.2866235    787.67802  0.065313269  0.066772737            5 
 1006000    1.0935616   -4.2641659    791.41004  0.065557492  0.066759309            2 
 1007000    1.1003168   -4.2479442    792.96349  0.065620944  0.066746451            3 
 1008000    1.1014447   -4.2594532    793.03387  0.065561662  0.066733721            3 
 1009000    1.0872474   -4.3148296    791.11683  0.065338357  0.066720391            2 
 1010000     1.079701   -4.2934206     794.4215  0.065546328  0.066707456            4 
 1011000      1.07814   -4.2883877    794.64995  0.065500326  0.066694405            2 
 1012000    1.0972341   -4.3046319     793.4795  0.065339221  0.066681169            5 
 1013000    1.1011336    -4.311163    794.64141  0.065370304  0.066667824            2 
 1014000    1.1126855   -4.2790987    796.75138  0.065479239  0.066654541            2 
 1015000    1.1144138   -4.2908262    797.01923  0.065436718  0.066641944            2 
 1016000     1.095428   -4.2986053    793.99138  0.065123965  0.066628693            4 
 1017000    1.1079828   -4.3053085    797.29175  0.065330363  0.066615045            4 
 1018000    1.1083314   -4.2758519    796.07391  0.065166496  0.066601627            2 
 1019000    1.0909782   -4.2915205    799.52563  0.065384824   0.06658749            2 
 1020000    1.1022721   -4.2896187    803.47234  0.065643165  0.066573899            5 
 1021000    1.0596602   -4.2815972    801.13412  0.065388028  0.066560511            4 
 1022000    1.1028315    -4.288369    799.78521  0.065214058  0.066547289            5 
 1023000    1.1054838   -4.2453446    806.68992  0.065712766  0.066534413            3 
 1024000    1.0764118   -4.2711092    803.06936  0.065353952   0.06652146            2 
 1025000    1.0706873   -4.2900415    802.47253  0.065241669  0.066508517            2 
 1026000    1.0748919   -4.2833397    801.78525  0.065122258  0.066495467            1 
 1027000    1.0667122   -4.2767142    805.24975  0.065339967  0.066482774            4 
 1028000    1.0803636   -4.3009978    806.83124  0.065404608  0.066469251            3 
 1029000    1.0712622   -4.2939168    803.37907  0.065061473  0.066455538            2 
 1030000    1.0775688   -4.2772989    806.91601  0.065284467  0.066442148            2 
 1031000    1.0939744   -4.3010033    808.08527  0.065315654  0.066428369            3 
 1032000    1.0761476   -4.2837512    809.75855  0.065387479  0.066415008            2 
 1033000     1.084498    -4.272383    806.98708  0.065100604  0.066401476            2 
 1034000    1.0841489   -4.2650935    808.84145  0.065187093  0.066387643            2 
 1035000    1.0656431   -4.3184061    808.02941  0.065058728  0.066373621            2 
 1036000    1.1032965   -4.3110474    811.18608  0.065249845  0.066359351            3 
 1037000    1.0815862   -4.3017193    808.49344  0.064970543  0.066345385            2 
 1038000    1.0842612    -4.284461    812.33475  0.065216341  0.066332412            4 
 1039000    1.0871728   -4.2935358    807.63667  0.064776762  0.066318245            3 
 1040000    1.0719536   -4.2794467    810.40769  0.064936514  0.066304077            2 
 1041000    1.1010521   -4.2963287    810.96846  0.064919025  0.066289849            1 
 1042000    1.1045463   -4.2959348    811.77635  0.064921333  0.066275299            3 
 1043000    1.0788188   -4.2860701    811.85506  0.064865377  0.066260776            2 
 1044000    1.0681101   -4.2630403    813.09596  0.064902296   0.06624591            2 
 1045000    1.0853076   -4.2880905    810.83208  0.064659656  0.066231317            2 
 1046000    1.0883797   -4.2781408    811.96084  0.064687766  0.066216078            7 
 1047000    1.0741895   -4.2586722    815.59608   0.06491532  0.066200325            3 
 1048000    1.0728846   -4.3002896    818.35671  0.065072894   0.06618539            3 
 1049000    1.0757962   -4.2872582    812.99294  0.064584759  0.066170218            2 
 1050000    1.0805385    -4.302864    812.76772  0.064505374  0.066154974            1 
 1051000    1.0862831   -4.2731127    818.80143   0.06492241   0.06614002            3 
 1052000    1.0821494   -4.2983284    814.22542  0.064498211  0.066124865            3 
 1053000    1.0937521   -4.3106041    818.75241  0.064795221  0.066109983            3 
 1054000    1.0712961   -4.3088107    818.75227  0.064733734  0.066095397            2 
 1055000    1.0648965   -4.2791073    818.73551  0.064671051   0.06608055            1 
 1056000    1.0818613   -4.2863199    819.76807  0.064691293  0.066065648            1 
 1057000    1.0915129   -4.3204944      817.793  0.064474377  0.066050524            2 
 1058000    1.0744888   -4.2799321    823.71053  0.064879531  0.066035983            3 
 1059000    1.0919863   -4.3043694    819.60829  0.064495459  0.066021203            2 
 1060000    1.0930191   -4.3058733    818.90691  0.064379474   0.06600606            4 
 1061000    1.1046156   -4.2968696    816.90412  0.064161492  0.065990463            3 
 1062000    1.0816395    -4.311101    817.75527  0.064167865  0.065975164            3 
 1063000    1.1020839   -4.3194212    823.68185  0.064572111   0.06595991            2 
 1064000    1.0794214   -4.2944054    823.16136  0.064470658  0.065944941            3 
 1065000    1.0955577    -4.268282     826.0531  0.064636393  0.065930145            3 
 1066000    1.0679581   -4.3044756    825.17047   0.06450676  0.065915697            2 
 1067000    1.0893448   -4.3248267    822.87675  0.064267163  0.065900624            1 
 1068000    1.0782207    -4.315555    825.31653  0.064397357  0.065885875            3 
 1069000    1.1033665   -4.2835964    828.26949  0.064567313  0.065871233            3 
 1070000    1.0796701   -4.3168473    827.77662  0.064468584  0.065857135            2 
 1071000    1.0711545   -4.3255328     826.2006  0.064285761  0.065842259            2 
 1072000    1.0662777   -4.3201376     830.6573   0.06457224  0.065826623            2 
 1073000    1.0607627   -4.3373703    828.78662  0.064366777  0.065810961            6 
 1074000    1.0916153   -4.3303735    829.18088  0.064337436  0.065796112            3 
 1075000    1.0697818   -4.3181137    829.09447  0.064270889  0.065781382            1 
 1076000    1.0858866    -4.257013    833.14342  0.064524738  0.065766914            2 
 1077000    1.0937784   -4.3057633    829.92798  0.064216031   0.06575186            3 
 1078000    1.0720497   -4.3101791    831.27069  0.064260258  0.065737283            3 
 1079000    1.0889469   -4.3025505    835.44813  0.064523334  0.065723242            2 
 1080000    1.0965061   -4.3045168    837.40438  0.064614536  0.065709134            2 
 1081000    1.0901803   -4.3355348    836.64646  0.064496336  0.065694958            5 
 1082000    1.0633429   -4.3014238    836.44488  0.064421201   0.06568145            4 
 1083000    1.0853754   -4.2874947     838.8563  0.064547268  0.065667601            4 
 1084000    1.0677183   -4.3257199    835.23059  0.064208994  0.065653705            3 
 1085000    1.0702121   -4.3182551     837.2127  0.064302051   0.06563966            3 
 1086000    1.0781769   -4.3425714    836.64669  0.064199408  0.065625062            2 
 1087000    1.0500737    -4.296387    843.02479  0.064629315  0.065610899            2 
 1088000    1.0810867   -4.2973994    841.21203  0.064431068  0.065597338            1 
 1089000    1.0881719   -4.3041592    842.65521  0.064482339   0.06558337            2 
 1090000    1.0810313   -4.3138766    839.58311  0.064188311  0.065569233            2 
 1091000    1.0802424   -4.3118071    841.23055  0.064255312  0.065555128            4 
 1092000    1.0660022   -4.3056495     841.1044  0.064186844  0.065541037            2 
 1093000     1.078332   -4.2988776    845.39918  0.064455564  0.065527095            3 
 1094000    1.1018093   -4.3158898    845.08953  0.064373059  0.065512417            3 
 1095000    1.0885089   -4.3497224    841.15815   0.06401508  0.065497337            2 
 1096000     1.069271   -4.3235543    841.96016  0.064017652  0.065482652            2 
 1097000    1.0888808    -4.302578    845.63832  0.064238706  0.065468367            2 
 1098000    1.0840107   -4.3313689    844.79518   0.06411621  0.065454446            3 
 1099000    1.0729024   -4.3026639    847.38633  0.064254347  0.065440497            4 
 1100000    1.0891044   -4.2754039    847.71783  0.064221047  0.065427052            2 
 1101000     1.088673   -4.2893503    850.53109  0.064375651  0.065412912            3 
 1102000    1.0944632   -4.3431264    846.25409  0.063993806  0.065398635            5 
 1103000    1.0808427   -4.3419257    845.70341  0.063894183  0.065384403            3 
 1104000    1.0556173   -4.3204803    849.42378  0.064117133  0.065369447            2 
 1105000    1.0719069   -4.3161065    848.28756  0.063973421  0.065354528            2 
 1106000    1.0605986   -4.3089293    848.70806  0.063947262  0.065340167            2 
 1107000    1.0670219   -4.2890662    852.83633  0.064200266  0.065325662            3 
 1108000    1.0845378   -4.3224014    852.19789  0.064094306  0.065311573            8 
 1109000    1.0590798   -4.2720611    854.07466  0.064177537  0.065297036            1 
 1110000    1.0849238   -4.3482062    850.38149  0.063842454   0.06528262            3 
 1111000    1.0741834   -4.2872467     853.5226  0.064020597  0.065268127            2 
 1112000    1.0873359   -4.3135743    852.89222  0.063915784  0.065253886            1 
 1113000    1.0809669   -4.2965518    853.63091  0.063913665  0.065239358            4 
 1114000    1.0651668   -4.3018391    854.63306  0.063931258  0.065224696            1 
 1115000    1.0907539   -4.2799357    857.03858  0.064053706  0.065210253            2 
 1116000    1.0862746   -4.3114957    855.08769  0.063850634  0.065195344            5 
 1117000    1.0717609   -4.3011895    858.86372  0.064075181  0.065180881            7 
 1118000    1.0650111   -4.2668367    859.83308  0.064090122  0.065166678            3 
 1119000    1.0676962   -4.3324935    857.31971  0.063845674  0.065152315            3 
 1120000    1.0462867   -4.2995287    859.77803   0.06397158  0.065137936            4 
 1121000    1.0654769   -4.3096308    860.08776  0.063937538  0.065123073            4 
 1122000     1.066546    -4.312855    860.79963  0.063933425  0.065108794            4 
 1123000    1.0474982   -4.3345254    861.92843  0.063960258  0.065094011            5 
 1124000    1.0624227   -4.3282591    861.14388  0.063845187  0.065079292            1 
 1125000     1.063408   -4.3197914    860.46198  0.063737925  0.065064342            5 
 1126000    1.0568324    -4.333375    860.50426  0.063684448  0.065049703            3 
 1127000    1.0831722   -4.3403154     861.1414  0.063675052  0.065035185            4 
 1128000    1.0927809   -4.3480216    861.96904  0.063679746  0.065020467            3 
 1129000    1.0867341   -4.3248522    864.11716  0.063781898  0.065005803            3 
 1130000    1.0673864    -4.333341    862.62399  0.063615338  0.064990931            3 
 1131000    1.0786272   -4.3036106    863.37907  0.063614727  0.064975924            3 
 1132000    1.0434144   -4.3336362    862.29361  0.063478623  0.064961236            3 
 1133000    1.0641737   -4.3270081    865.70912   0.06367381  0.064946229            1 
 1134000      1.06199    -4.299044     868.6285  0.063832194  0.064932047            4 
 1135000    1.0797216   -4.3280613     864.2974  0.063457959  0.064917561            2 
 1136000    1.0482339   -4.3051512    866.91164   0.06359387  0.064903023            3 
 1137000     1.098663   -4.3331346    867.86729  0.063607981  0.064888093            2 
 1138000    1.0702475   -4.3107579    867.99259  0.063561262  0.064873766            3 
 1139000    1.0683688   -4.3147869    869.67786  0.063628757  0.064859255            2 
 1140000    1.0433926   -4.3291028     869.1359  0.063533326  0.064844989            2 
 1141000    1.0799187   -4.3110384    869.89216  0.063532877  0.064830491            5 
 1142000    1.0575072   -4.3387076    868.80092  0.063397615  0.064816011            8 
 1143000    1.0691988   -4.3329718    870.23904  0.063446999  0.064801637            5 
 1144000     1.087671     -4.31764    873.04675  0.063596063   0.06478683            4 
 1145000    1.0453425   -4.3090855    875.65898  0.063730639  0.064772249            4 
 1146000    1.0924024    -4.320321    874.00573  0.063554809  0.064757713            2 
 1147000    1.0785076   -4.3157291      872.265  0.063372929  0.064743518            3 
 1148000    1.0774249   -4.3136734    874.05287  0.063447508   0.06472884            3 
 1149000     1.036094   -4.3033691    876.44323  0.063565653  0.064714257            4 
 1150000     1.061812   -4.3131158    876.26112  0.063497183  0.064699555            4 
 1151000    1.0833486   -4.3513905    872.52857  0.063171776  0.064684589            3 
 1152000    1.0925541   -4.3162459    875.46667  0.063329476  0.064669401            3 
 1153000    1.0765677   -4.2984367    877.77788  0.063441593  0.064654472            2 
 1154000    1.0764474   -4.3105104    876.94381  0.063326387  0.064640031            3 
 1155000    1.0648679   -4.3516689    876.70537  0.063254356   0.06462507            2 
 1156000    1.0554374   -4.3284877    877.48742  0.063256014  0.064610084            2 
 1157000    1.0688421   -4.3400076    877.72208  0.063218243  0.064595217            2 
 1158000    1.0658384   -4.3161862    879.63306   0.06330117  0.064580364            4 
 1159000    1.0630549   -4.3386718    882.51536  0.063453794   0.06456543            1 
 1160000    1.0548074   -4.3326537    880.67377  0.063266794  0.064550684            3 
 1161000    1.0519641   -4.3469924    882.39851  0.063336097   0.06453602            1 
 1162000    1.0838079   -4.3254863    884.06729  0.063401269  0.064520948            2 
 1163000    1.0630731   -4.3411854    880.19221  0.063069089  0.064506846            2 
 1164000    1.0572189   -4.3054365    884.65601   0.06333448  0.064491961            2 
 1165000     1.060748   -4.3414905    884.31134  0.063255461  0.064477187            2 
 1166000    1.0477712   -4.3214962    888.71175  0.063515706  0.064463183            5 
 1167000    1.0691288   -4.3323865    888.06313  0.063414962  0.064448843            2 
 1168000    1.0543769   -4.3575888     885.8127  0.063200107  0.064434454            2 
 1169000    1.0741905   -4.2920465     887.5093  0.063266987  0.064419765            3 
 1170000    1.0465848    -4.308678    887.75055  0.063230096  0.064406011            2 
 1171000    1.0808155   -4.2799391    892.23237  0.063495045  0.064391857            4 
 1172000     1.063963   -4.3110895    891.95592  0.063421211  0.064377818            2 
 1173000    1.0515698   -4.3308137     888.1206  0.063094672  0.064363545            2 
 1174000    1.0413238   -4.3311165     890.3832  0.063201533   0.06434929            2 
 1175000    1.0551903   -4.3518655    890.92595  0.063186238  0.064334597            3 
 1176000    1.0565562   -4.3559807    889.75747  0.063049708  0.064320552            2 
 1177000    1.0354949    -4.346171    890.09319  0.063019908   0.06430648            3 
 1178000     1.061075   -4.3138335    894.83365  0.063301758  0.064292482            2 
 1179000    1.0770497   -4.3582323    889.73942     0.062888   0.06427776            2 
 1180000      1.07613   -4.3491909    896.00734  0.063277354  0.064263187            7 
 1181000    1.0713993   -4.3387962    895.95762  0.063220267  0.064249166            2 
 1182000    1.0561506   -4.3523495    893.76281  0.063012042  0.064234787            1 
 1183000      1.05772   -4.3188984    899.59449  0.063369575  0.064220234            4 
 1184000    1.0708153   -4.3363615    897.60341  0.063175915  0.064206231            2 
 1185000    1.0556964   -4.3067981    898.13679  0.063160112   0.06419244            2 
 1186000    1.0699557   -4.3435811    897.71188  0.063077001    0.0641788            4 
 1187000    1.0613136   -4.3564155     898.7752  0.063098511  0.064165198            2 
 1188000    1.0563893    -4.359481    898.72672  0.063041998  0.064152203            6 
 1189000    1.0732727   -4.3566207    898.36368  0.062963532  0.064138414            4 
 1190000    1.0544886   -4.3455106    900.02445  0.063026923  0.064124574            2 
 1191000    1.0725528   -4.3603966    901.28428  0.063062152  0.064111175            3 
 1192000    1.0732497    -4.360827    904.28612  0.063219108   0.06409764            3 
 1193000    1.0498456   -4.3532189    898.53682  0.062764517  0.064083729            2 
 1194000    1.0778864   -4.3140652    903.97368  0.063091407    0.0640704            3 
 1195000    1.0616329   -4.3121178    907.49829  0.063284399  0.064057211            2 
 1196000    1.0822884   -4.3490191    904.59892  0.063029467  0.064044789            2 
 1197000    1.0655328   -4.3850374    904.53461  0.062972334  0.064032171            3 
 1198000    1.0492533   -4.3128499    908.94523  0.063226574  0.064019276            2 
 1199000    1.0403996   -4.3598384    904.49768  0.062864726  0.064006773            5 
 1200000    1.0432652   -4.3627555    906.47319  0.062949527  0.063993829            2 
 1201000    1.0699224   -4.3538566    907.47636  0.062966719  0.063980733            2 
 1202000    1.0621781   -4.3480109    907.57396  0.062921101  0.063967137            4 
 1203000    1.0681674   -4.3239147    910.20305  0.063050918  0.063953917            3 
 1204000    1.0478116   -4.3317445    908.61285  0.062888486  0.063941062            1 
 1205000    1.0646347   -4.3408752    913.21365  0.063154471  0.063928632            4 
 1206000    1.0269417   -4.3271404    911.44233  0.062979708  0.063916194            3 
 1207000    1.0669513   -4.3118502    914.88831  0.063165446   0.06390335            5 
 1208000    1.0610483   -4.3349603    914.77578  0.063105393  0.063891074            4 
 1209000    1.0527278    -4.309326    910.89226  0.062785516  0.063878202            3 
 1210000    1.0538652   -4.3339614     917.3926  0.063181308  0.063864984            1 
 1211000     1.049983   -4.3560323    913.17701  0.062839046  0.063851725            2 
 1212000    1.0414919   -4.3129684    915.71272  0.062961545  0.063838569            2 
 1213000    1.0507073   -4.3437718    917.24055  0.063014602  0.063825568            3 
 1214000     1.078189   -4.3442657    914.14402  0.062750139  0.063812559            3 
 1215000    1.0608496   -4.3881605    917.16932  0.062905989  0.063799155            5 
 1216000    1.0710498   -4.3577991    921.05994  0.063120884  0.063786529            3 
 1217000    1.0525513   -4.3241102    918.61015   0.06290127  0.063773758            2 
 1218000    1.0541227   -4.3152976    918.87773  0.062867935  0.063760711            3 
 1219000     1.056582    -4.369449    919.29559  0.062844927  0.063746959            4 
 1220000     1.073923   -4.3402747    916.69337  0.062615668  0.063733455            2 
 1221000    1.0813477   -4.3044091    921.06143  0.062862506  0.063720501            5 
 1222000    1.0660691   -4.3730504    919.71136  0.062718996  0.063707393            6 
 1223000    1.0660963   -4.3523433    922.27463  0.062842371  0.063694017            8 
 1224000    1.0590293   -4.3888992    921.93993  0.062768241  0.063680802            2 
 1225000     1.046751   -4.3635192    921.60521  0.062694232   0.06366769            3 
 1226000    1.0500201   -4.3364094    926.04751  0.062945045   0.06365528            4 
 1227000    1.0769804   -4.3697231    917.37322   0.06230462  0.063642583            6 
 1228000    1.0629523   -4.3772809    921.51946  0.062535251  0.063629849            3 
 1229000    1.0324267   -4.3339557    924.86716  0.062711362  0.063616801            6 
 1230000    1.0621821   -4.3363202    928.26829  0.062890806  0.063604036            6 
 1231000    1.0596878   -4.3402643    927.27313  0.062772349  0.063591605            3 
 1232000    1.0600501   -4.3241772    929.18296  0.062850579  0.063578216            3 
 1233000     1.064126   -4.3601197    929.05615  0.062791035   0.06356532            3 
 1234000    1.0467872   -4.3752443    926.81085  0.062588523  0.063551987            6 
 1235000    1.0364305   -4.3625471    929.03948  0.062688224  0.063538879            4 
 1236000    1.0555201   -4.3186737    930.50486  0.062736304  0.063526095            2 
 1237000    1.0557074    -4.343348    932.66543  0.062831139  0.063512853            6 
 1238000    1.0540095   -4.3701034    929.88514  0.062593238  0.063500124            2 
 1239000    1.0517469   -4.3568092    929.40875  0.062510677   0.06348714            1 
 1240000    1.0492727   -4.3592275    930.28687  0.062519279  0.063473965            2 
 1241000    1.0513942   -4.3475771    932.86867  0.062642269  0.063461294            3 
 1242000     1.043519   -4.3576933    933.24065  0.062616791  0.063448257            2 
 1243000    1.0523309   -4.3628857    929.17488  0.062293837  0.063435014            1 
 1244000    1.0454953   -4.3722042    929.04625  0.062235145  0.063421391            2 
 1245000    1.0448307   -4.3651384     930.8708  0.062307282  0.063407779            5 
 1246000    1.0649986    -4.379833    932.21214  0.062346986  0.063393963            2 
 1247000    1.0422852   -4.3610339    932.94283  0.062345819  0.063380375            2 
 1248000    1.0551813   -4.3637591    938.02998  0.062635549  0.063367053            3 
 1249000    1.0424845   -4.3631129    933.21527  0.062264163    0.0633535            2 
 1250000    1.0399189   -4.3571368    939.03509  0.062602339  0.063339803            6 
 1251000    1.0579543    -4.379504     935.8073  0.062337283  0.063326566            2 
 1252000    1.0579332   -4.3814406    933.57661  0.062139018  0.063313289            2 
 1253000    1.0601382    -4.359166    936.69526  0.062296838  0.063299821            4 
 1254000    1.0476983   -4.3617317    938.00665  0.062334307  0.063286521            2 
 1255000    1.0667341   -4.3510898    941.20628  0.062497097  0.063273422            4 
 1256000    1.0530762   -4.3111592    943.51106  0.062600256  0.063260418            2 
 1257000    1.0497477   -4.3144957     943.9282  0.062578109  0.063247549            1 
 1258000    1.0557667   -4.3265696    943.73218   0.06251538  0.063234837            2 
 1259000    1.0461402   -4.3445342     942.0977  0.062357539  0.063221732            3 
 1260000    1.0480068   -4.3919911    941.91889  0.062296223  0.063208515            2 
 1261000    1.0525815   -4.3627281    941.35443  0.062209518  0.063195228            2 
 1262000    1.0375109    -4.393819    936.76147  0.061856938  0.063181346            3 
 1263000    1.0643895   -4.3562393    940.64966  0.062064506  0.063167567            3 
 1264000    1.0547845   -4.3290495    944.85968  0.062292964  0.063154254            1 
 1265000     1.068495   -4.3940245    943.32946  0.062142916  0.063140972            3 
 1266000    1.0549348   -4.3340194    946.56712  0.062306946  0.063127639            3 
 1267000    1.0432398   -4.3753711     944.1398  0.062098119  0.063114246            3 
 1268000    1.0587044   -4.3767825    946.35103  0.062194468  0.063100783            4 
 1269000    1.0462705   -4.3397234     947.7362   0.06223642   0.06308702            3 
 1270000     1.042688   -4.3402157    944.97729  0.062006384  0.063073569            5 
 1271000    1.0564757    -4.365057    947.42424  0.062118033  0.063059892            6 
 1272000    1.0632794   -4.3381255    946.85602  0.062031972  0.063046811            5 
 1273000    1.0502261   -4.3896684    946.46586  0.061957702  0.063033026            4 
 1274000    1.0741052   -4.3426925    947.08176  0.061949356  0.063018995            4 
 1275000    1.0359735   -4.3431181    951.17013  0.062167982  0.063005375            3 
 1276000    1.0369857   -4.3919988     948.8944  0.061970638  0.062992064            3 
 1277000    1.0665838   -4.3721263    949.76976  0.061979232  0.062978232            2 
 1278000    1.0660136   -4.3753851     951.2739  0.062028815  0.062964641            2 
 1279000    1.0344805    -4.347597     951.7154  0.062009083  0.062950435            6 
 1280000    1.0530574   -4.3323712    952.59102  0.062017644  0.062936478            2 
 1281000    1.0744943   -4.3664232    953.43745  0.062024294  0.062922463            3 
 1282000    1.0538705   -4.3577632    954.17715  0.062023995   0.06290864            1 
 1283000    1.0163678   -4.3611096      955.667  0.062072422  0.062894714            4 
 1284000    1.0649014   -4.3549778     955.8831  0.062038103   0.06288102            3 
 1285000    1.0890934   -4.3690779     953.9321  0.061863301  0.062867694            3 
 1286000    1.0613328   -4.3819698    957.34099  0.062036093  0.062853759            4 
 1287000     1.013195   -4.3257568    957.93255  0.062026195  0.062840205            5 
 1288000    1.0456222   -4.3614763    955.59154  0.061826575  0.062826784            1 
 1289000    1.0468826   -4.3552879    960.25588  0.062080158  0.062812982            2 
 1290000     1.040626   -4.3700407     957.4628  0.061851602  0.062799403            2 
 1291000    1.0628576   -4.3889713    957.00118  0.061773895  0.062785313            2 
 1292000    1.0467917   -4.3753287    957.63486  0.061766954  0.062772034            2 
 1293000     1.053952   -4.3646394    957.58847  0.061716194  0.062757847            3 
 1294000    1.0489262    -4.341556    961.81319  0.061940571  0.062744097            2 
 1295000    1.0532301   -4.3576474    959.97834  0.061774668  0.062730401            3 
 1296000    1.0304911   -4.3586923    961.15827  0.061802872  0.062716922            3 
 1297000     1.048875   -4.3568779    961.06042  0.061748935  0.062703511            1 
 1298000    1.0456751   -4.3755879    964.56371  0.061926278  0.062689635            2 
 1299000    1.0345993   -4.3852753    960.89336  0.061643146  0.062675952            6 
 1300000    1.0397814   -4.3753614    963.87232  0.061786687  0.062661701            5 
 1301000    1.0338172   -4.3843753    960.11455  0.061498498  0.062647526            3 
 1302000    1.0358785   -4.3678724    961.44108  0.061536167  0.062634034            1 
 1303000    1.0335906   -4.3494342    965.54034  0.061751109  0.062620126            2 
 1304000    1.0249921   -4.3398048    963.16244  0.061551792   0.06260654            3 
 1305000    1.0549438   -4.3843635    965.63418  0.061662464  0.062592758            4 
 1306000    1.0349257   -4.3346139    967.78604  0.061752555  0.062578446            1 
 1307000    1.0423585   -4.3588734    968.14935  0.061728472  0.062564162            1 
 1308000    1.0412187   -4.3849281    966.25815  0.061560789  0.062549702            3 
 1309000    1.0434926   -4.3565752    968.86473    0.0616797  0.062535785            4 
 1310000    1.0402171   -4.3605538    969.23721  0.061656311  0.062522449            9 
 1311000    1.0444324   -4.3648491    968.75255  0.061578474  0.062508716            2 
 1312000    1.0452547   -4.3691697     967.9285  0.061479198  0.062495561            5 
 1313000    1.0366682   -4.3926366    971.50628  0.061659449  0.062481989            5 
 1314000    1.0363201   -4.3410846    972.04599  0.061646753  0.062468304            3 
 1315000    1.0382791   -4.3763639     969.7106  0.061451876  0.062454661            3 
 1316000    1.0362126    -4.365231    974.05335  0.061680176   0.06244099            4 
 1317000    1.0256971    -4.363792    973.72488  0.061612559  0.062427187            4 
 1318000    1.0377983   -4.3638291    973.19484  0.061532299  0.062413286            8 
 1319000    1.0658071   -4.3945599    968.45202  0.061186001  0.062399524            2 
 1320000    1.0416914   -4.3698381    971.88165  0.061356165  0.062385795            5 
 1321000    1.0379456   -4.3756258    973.66679  0.061422331  0.062372388            3 
 1322000     1.021156   -4.3759423    976.10806  0.061529756  0.062359089            2 
 1323000    1.0312557   -4.4084276    972.49172  0.061255462  0.062345636            4 
 1324000    1.0355982   -4.3589797    976.38828  0.061454449   0.06233215            6 
 1325000    1.0496898    -4.371018     979.3728  0.061595774    0.0623182            2 
 1326000    1.0548845    -4.368747    976.00134  0.061337439  0.062304879            2 
 1327000    1.0446092   -4.3972451    981.46606  0.061634392  0.062291515            2 
 1328000    1.0532638   -4.3706529    980.63228   0.06153566  0.062278182            3 
 1329000    1.0077221   -4.3654455    979.54143  0.061420957  0.062264903            2 
 1330000    1.0409038   -4.3848785    980.06032  0.061407288  0.062251472            2 
 1331000    1.0362872   -4.4222407    980.37351  0.061380761  0.062238367            2 
 1332000    1.0403409   -4.3580337    983.72323  0.061544246  0.062225458            1 
 1333000    1.0565107    -4.363896    980.47327  0.061294903  0.062212404            3 
 1334000    1.0285728   -4.3617819    986.04431  0.061596971   0.06219964            3 
 1335000    1.0384916   -4.3611845     988.8703  0.061727235  0.062186608            2 
 1336000    1.0314896   -4.3936243    981.54457  0.061224087  0.062173243            3 
 1337000    1.0405307    -4.392263    982.86749  0.061260751  0.062160115            5 
 1338000    1.0383474   -4.3456141    988.17508  0.061545533  0.062146885            6 
 1339000    1.0396904   -4.3920069    983.90888   0.06123406  0.062134062            2 
 1340000    1.0456168   -4.3436039    993.05709  0.061757282  0.062121288            2 
 1341000    1.0210057   -4.3566088    991.03605  0.061585635  0.062108315            5 
 1342000    1.0318647   -4.3845375    988.51911  0.061383452  0.062095215            3 
 1343000    1.0602187   -4.3931493    988.88837  0.061360658  0.062082203            5 
 1344000    1.0453871    -4.384409    989.79153  0.061371003  0.062069074            4 
 1345000    1.0419139   -4.3863951     985.8281  0.061079808  0.062055986            4 
 1346000    1.0119136    -4.358956    992.50961  0.061448094  0.062042774            2 
 1347000     1.026009   -4.3572542    990.71034  0.061291162  0.062029454            4 
 1348000    1.0318973   -4.3570214    991.34834  0.061285134  0.062016022            3 
 1349000    1.0389001   -4.4080428    990.28266  0.061173873  0.062002603            4 
 1350000    1.0413084   -4.4026736    991.69822  0.061215939  0.061989329            7 
 1351000    1.0321221   -4.3843242    989.96339  0.061063619  0.061975862            3 
 1352000    1.0296343   -4.3975968    993.96137  0.061264877  0.061962394            3 
 1353000    1.0472327   -4.3507946    994.28839  0.061239738  0.061949078            3 
 1354000    1.0266252   -4.4001966    993.78899  0.061163773  0.061935413            2 
 1355000    1.0450138   -4.3623045    994.82383  0.061182278  0.061922281            3 
 1356000     1.027881    -4.361847    994.63799  0.061125737  0.061909273            2 
 1357000    1.0369578   -4.4092556     992.6241  0.060957019  0.061895934            2 
 1358000    1.0213336   -4.3774838    995.12112  0.061065361  0.061882414            2 
 1359000     1.036042   -4.3772141    994.50635  0.060982729  0.061869147            1 
 1360000    1.0440704    -4.375855    995.04452  0.060970865  0.061855577            3 
 1361000    1.0066371   -4.3781618    998.05981  0.061110691  0.061842098            3 
 1362000    1.0236032   -4.3669028    996.82368  0.060990191   0.06182864            3 
 1363000    1.0478107   -4.4039598    994.96266  0.060831662  0.061815481            3 
 1364000    1.0365672   -4.3860069    994.05459  0.060731586  0.061802467            2 
 1365000    1.0170693   -4.4000421     998.1492   0.06093707  0.061788719            2 
 1366000    1.0295568   -4.3847206    1001.0646  0.061070316  0.061775266            4 
 1367000    1.0278057   -4.3640586    1001.4133  0.061046895  0.061761954            3 
 1368000    1.0304492   -4.4067861    1000.0539  0.060919461  0.061748564            1 
 1369000    1.0292759   -4.3789556    1000.7777  0.060919024   0.06173497            6 
 1370000    1.0214256    -4.394735    999.53556     0.060799  0.061721645            2 
 1371000    1.0401092   -4.3832521    1004.1145  0.061032975  0.061707784            6 
 1372000    1.0322913   -4.4006147    1000.7839  0.060786195  0.061694323            2 
 1373000    1.0425647    -4.389057    999.79321  0.060681793  0.061680622            5 
 1374000    1.0450991   -4.3799296    1001.2649  0.060726885  0.061667068            1 
 1375000    1.0338345   -4.4041111     1004.073  0.060852911  0.061653804            1 
 1376000    1.0241804   -4.3902454     1004.345  0.060825155    0.0616404            3 
 1377000    1.0175079   -4.3698863    1002.8846  0.060692607  0.061627139            4 
 1378000     1.028207   -4.3599644    1005.5925  0.060812316  0.061613148            2 
 1379000    1.0247719    -4.384078    1004.1155  0.060678965  0.061599401            2 
 1380000    1.0561326   -4.3853882    1004.9404  0.060684805  0.061585855            4 
 1381000    1.0303488   -4.3829839    1005.3149  0.060663465  0.061572061            5 
 1382000    1.0415009   -4.3709059    1005.6936    0.0606424  0.061558193            4 
 1383000    1.0164715   -4.4129995    1001.8741  0.060368408  0.061544268            3 
 1384000    1.0203101   -4.3895745    1004.1576  0.060462282  0.061530051            5 
 1385000    1.0363368   -4.3953217    1007.7066  0.060632167  0.061516549            3 
 1386000    1.0358759   -4.4177761    1005.8184  0.060474894  0.061502551            3 
 1387000    1.0222113   -4.3806077    1006.4982  0.060472134   0.06148918            1 
 1388000    1.0348783   -4.3855919    1011.7206  0.060742109    0.0614758            2 
 1389000    1.0335781   -4.3874434    1011.0305  0.060656977  0.061462896            2 
 1390000    1.0361877   -4.4395188     1009.885  0.060544663  0.061449677            4 
 1391000    1.0312657   -4.3955262      1012.09  0.060633235  0.061436206            4 
 1392000    1.0217978   -4.4059277    1014.0358  0.060706168  0.061422695            2 
 1393000    1.0253729   -4.3704588    1013.2082  0.060613076   0.06140956            2 
 1394000    1.0316688   -4.4125321    1012.6853  0.060538338  0.061396371            2 
 1395000    1.0491304   -4.3985246    1014.1748  0.060583917  0.061383098            9 
 1396000    1.0153594   -4.3967173    1018.5785  0.060803396  0.061369873            2 
 1397000     1.019413   -4.3954546     1013.664  0.060466716  0.061356728            3 
 1398000    1.0381853   -4.4233188    1014.1249  0.060450939  0.061343176            4 
 1399000    1.0376606   -4.3868835    1019.2942   0.06071564  0.061329629            3 
 1400000    1.0379106   -4.3913768    1019.7077  0.060696889  0.061316361            2 
 1401000     1.023381   -4.4007414    1017.8472  0.060542897  0.061303404            4 
 1402000     1.053708   -4.3906578     1017.918  0.060503925  0.061290231            2 
 1403000    1.0271572    -4.374663     1016.753    0.0603916  0.061276804            2 
 1404000    1.0292021   -4.3704163    1021.7478  0.060645051  0.061263536            5 
 1405000     1.046073   -4.3964087    1017.5387  0.060352237  0.061250265            2 
 1406000    1.0262348   -4.4088273    1020.0421  0.060457687  0.061237085            3 
 1407000    1.0138258   -4.3986715    1021.2471  0.060486087  0.061223812            2 
 1408000    1.0323417   -4.3703556    1019.7779  0.060356176  0.061210238            4 
 1409000    1.0409389   -4.3504708    1023.7718  0.060549551  0.061196623            4 
 1410000    1.0125478   -4.4046356    1021.7396    0.0603865  0.061183359            4 
 1411000     1.014444   -4.4176356    1021.1627   0.06030963  0.061169828            3 
 1412000    1.0108026   -4.4230838    1022.9364  0.060371601    0.0611564            3 
 1413000   0.99432837   -4.4000021    1021.9066  0.060268144  0.061143386            4 
 1414000    1.0223948   -4.4131105    1024.1376  0.060356999  0.061130373            3 
 1415000    1.0179103   -4.4000398    1024.8848  0.060358349   0.06111735            4 
 1416000    1.0319087   -4.4022496    1028.2391  0.060513131  0.061104234            1 
 1417000    1.0257752   -4.3922666    1026.8184  0.060386875  0.061091302            2 
 1418000    1.0354525   -4.4117292    1026.2136  0.060308747  0.061078104            4 
 1419000     1.019235   -4.4074818    1024.0763  0.060140725  0.061065023            4 
 1420000    1.0296076   -4.4162303     1026.815  0.060259094  0.061051949            5 
 1421000    1.0172537   -4.4193522    1029.5446  0.060376767  0.061038849            3 
 1422000    1.0438667   -4.4041883    1027.7193  0.060227339  0.061025565            3 
 1423000    1.0295849   -4.3985529    1028.9543  0.060257337  0.061012522            2 
 1424000    1.0403507   -4.3930204    1032.1763  0.060403574  0.060999351            4 
 1425000    1.0137052   -4.3980492     1030.483  0.060262166  0.060986806            2 
 1426000     1.044933   -4.3955538    1027.3204  0.060035086  0.060973791            6 
 1427000   0.99141669   -4.3988803    1032.2878  0.060283099  0.060960414            2 
 1428000    1.0300016   -4.3776536    1031.5502  0.060197838  0.060947495            2 
 1429000    1.0326995    -4.404308    1033.4468  0.060266319  0.060934116            4 
 1430000    1.0248943   -4.4121367    1030.2888  0.060040139  0.060921096            4 
 1431000    1.0194755   -4.4012252    1033.3531  0.060176632  0.060907911            2 
 1432000    1.0288237   -4.3962378    1033.9213  0.060167671  0.060894821            3 
 1433000    1.0318172   -4.4327176    1034.2132   0.06014266  0.060881673            6 
 1434000    1.0219011   -4.4289493    1037.8519  0.060312173  0.060868274            3 
 1435000    1.0369318   -4.3916126    1042.2369  0.060524791  0.060855427            3 
 1436000    1.0267787   -4.4051736    1037.2478  0.060193116  0.060842542            3 
 1437000    1.0075792   -4.3979517    1040.2281  0.060324059  0.060829506            7 
 1438000    1.0313773   -4.3690267    1040.5344  0.060299863  0.060816887            2 
 1439000    1.0494802   -4.4008976    1036.6062  0.060030471   0.06080415            5 
 1440000     1.025404   -4.3984633    1040.1528  0.060194027  0.060791481            4 
 1441000    1.0270096   -4.4617088    1036.4665  0.059939078  0.060778626            4 
 1442000    1.0021001   -4.3653669    1040.1213  0.060108718  0.060765875            6 
 1443000    1.0131874    -4.387765    1038.8925  0.059996105  0.060753093            3 
 1444000    1.0144613   -4.4054666    1042.7944  0.060179735  0.060740384            4 
 1445000    1.0350109   -4.4106282    1040.2081  0.059988936  0.060727691            3 
 1446000     1.036242   -4.3862929    1045.4717  0.060250792  0.060715019            3 
 1447000    1.0147074   -4.4258336    1040.3088  0.059911816  0.060702628            2 
 1448000    1.0129455   -4.3733737      1050.72  0.060469611   0.06068986            3 
 1449000    1.0439202   -4.3783054    1045.4256  0.060123395  0.060677122            3 
 1450000    1.0311232   -4.4423764    1043.9975  0.059999857  0.060664379            3 
 1451000     1.028991   -4.3934197    1046.0204  0.060074686  0.060651847            5 
 1452000    1.0139971   -4.4022478    1047.5902  0.060123405  0.060639439            6 
 1453000    1.0162438   -4.4114138    1047.7165  0.060089272  0.060626395            7 
 1454000    1.0236163   -4.4086278    1049.2882  0.060138021  0.060613636            1 
 1455000    1.0045074   -4.4156595    1051.2519  0.060209161   0.06060096            5 
 1456000    1.0323672   -4.4175325    1048.4495  0.060007413  0.060588361            4 
 1457000    1.0373857   -4.3769419    1051.4333  0.060136883  0.060575846            5 
 1458000    1.0047224   -4.3877451    1047.7709  0.059886311  0.060563083            2 
 1459000     1.021607   -4.3866514    1052.0166  0.060087765    0.0605504            3 
 1460000    1.0249202   -4.4049274    1051.0196  0.059989702  0.060537788            7 
 1461000    1.0166751   -4.3850434    1049.5376  0.059864111  0.060524756            2 
 1462000    1.0008353   -4.4323532    1047.3151  0.059696485  0.060511855            3 
 1463000    1.0221263   -4.4316899    1050.3954  0.059831133  0.060498931            2 
 1464000    1.0261126   -4.4218263    1053.0615  0.059942024  0.060485913            3 
 1465000   0.99675294    -4.422228    1050.0562  0.059730162  0.060472716            5 
 1466000    1.0344831   -4.3913019    1053.4377  0.059881636  0.060459528            5 
 1467000    1.0171977   -4.4452428    1051.4017   0.05972516  0.060446287            5 
 1468000    1.0369326   -4.4185537    1046.6067  0.059412276  0.060433049            3 
 1469000    1.0271257   -4.3934491    1057.6452  0.059998026  0.060419917            4 
 1470000   0.99503588   -4.4011098    1055.0981  0.059812819  0.060406665            3 
 1471000    1.0277346   -4.4155098    1051.0973  0.059545507  0.060393641            2 
 1472000    1.0399254   -4.4388406    1053.0862  0.059617654  0.060380603            2 
 1473000    1.0015668   -4.3872484    1059.8168  0.059957954  0.060367785            1 
 1474000    1.0196032   -4.4046585    1054.7973  0.059633496  0.060354747            4 
 1475000    1.0133563   -4.4239294    1057.4434  0.059742563  0.060341948            2 
 1476000    1.0146398   -4.4318982    1056.8048  0.059666035  0.060328926            4 
 1477000    1.0054264   -4.4281141    1057.8927  0.059687015  0.060316109            3 
 1478000    1.0183109   -4.4023673    1059.7651  0.059752205  0.060303206            3 
 1479000    1.0163791   -4.4157047    1059.1759  0.059678606  0.060290166            5 
 1480000     1.019514   -4.4118397    1059.7026  0.059667939  0.060277159            2 
 1481000    1.0162521   -4.4115653    1059.8111  0.059633757  0.060264369            2 
 1482000    0.9940288   -4.3987069    1059.5383  0.059578177  0.060251444            3 
 1483000    1.0062125   -4.4304139    1061.6684  0.059657696  0.060238795            4 
 1484000    1.0087703    -4.405586    1063.2787  0.059707924  0.060225941            3 
 1485000    1.0218236   -4.4059832    1063.0466  0.059654693  0.060213736            5 
 1486000    1.0154292   -4.4007202    1064.1354  0.059675603  0.060201333            2 
 1487000    1.0216537   -4.4213345    1061.3569  0.059479764  0.060188586            3 
 1488000    1.0203685   -4.4178171    1063.8838  0.059581304  0.060175869            3 
 1489000    1.0158192   -4.4514488    1063.8431  0.059539014  0.060163107            3 
 1490000   0.99499133   -4.4352375    1060.3041  0.059301123  0.060150032            2 
 1491000    1.0262411   -4.3704225    1069.9568  0.059800852  0.060137544            4 
 1492000    1.0137696   -4.4364953     1067.263  0.059610309  0.060124853            2 
 1493000    1.0073925   -4.4259187    1068.0529  0.059614473  0.060112163            3 
 1494000    1.0182507   -4.4071173    1069.2582  0.059641801   0.06009955            2 
 1495000    0.9812644   -4.3938819    1070.5963  0.059676493  0.060087096            3 
 1496000    1.0292262   -4.4263676    1068.9109  0.059542721  0.060074729            3 
 1497000    1.0154694   -4.4541605    1067.3916   0.05941837  0.060061994            3 
 1498000    1.0054662   -4.4497491     1067.348  0.059376277  0.060049459            5 
 1499000    1.0011274   -4.4116789    1074.0131  0.059707201  0.060036904            5 
 1500000    1.0343767   -4.4329022    1069.0001  0.059388896  0.060024174            2 
 1501000    1.0327713   -4.4391221    1072.3597  0.059535851  0.060011352            3 
 1502000   0.99007446   -4.4288737    1068.7868  0.059297981  0.059998636            2 
 1503000    0.9941981   -4.4467784    1071.6809  0.059418991  0.059985768            4 
 1504000    1.0190739    -4.401844    1074.7488  0.059549467  0.059972777            5 
 1505000   0.98199099   -4.4239168    1068.7622  0.059178414  0.059959694            6 
 1506000    1.0348884   -4.4119411    1070.8507  0.059254685  0.059946662            4 
 1507000     1.024599   -4.4187024    1078.6573  0.059647053  0.059934288            3 
 1508000    1.0162326   -4.4375425    1070.4526  0.059154099  0.059921656            3 
 1509000    1.0388653   -4.4201744    1077.3616  0.059496442  0.059908987            4 
 1510000    1.0297395   -4.3957917    1075.4963  0.059354101  0.059896421            4 
 1511000     1.021271   -4.3768448    1076.3777   0.05936343  0.059883948            2 
 1512000   0.99650639   -4.4509191     1073.394   0.05915972  0.059871647            3 
 1513000    1.0109354   -4.4200485    1076.5697  0.059295531  0.059858988            3 
 1514000   0.99190255   -4.4645464    1076.9101  0.059275103  0.059846327            5 
 1515000    1.0275968   -4.4474857    1073.0124  0.059021586   0.05983314            6 
 1516000   0.99671797   -4.4142574    1082.0342   0.05947857  0.059820619            2 
 1517000    1.0041603   -4.4215778    1077.7526  0.059204164  0.059807937            5 
 1518000    1.0238863   -4.4026182     1077.978  0.059177535  0.059795308            8 
 1519000   0.98948956   -4.4104856     1075.463  0.059000602  0.059782422            2 
 1520000    1.0286295    -4.414054     1079.809  0.059200053  0.059769449            4 
 1521000   0.99908787    -4.423173    1077.2554  0.059021225  0.059756417            3 
 1522000     1.022964   -4.4082752     1080.389  0.059154016  0.059743634            2 
 1523000   0.99901685   -4.3970536    1081.0751  0.059152718  0.059730886            3 
 1524000   0.98839803   -4.4011684    1080.3381  0.059073608   0.05971786            3 
 1525000     1.008909   -4.4254875     1081.528   0.05909989   0.05970516            2 
 1526000    1.0076977   -4.4052792    1086.8476  0.059351662  0.059692446            5 
 1527000    1.0118643   -4.4294574    1082.2203  0.059060263  0.059679855            4 
 1528000    1.0128589   -4.4154635    1081.6124  0.058988462  0.059667228            4 
 1529000    1.0313195   -4.4497615    1078.7032  0.058791321   0.05965457            1 
 1530000     1.018506   -4.4418704    1082.1593   0.05894114  0.059641854            4 
 1531000    1.0129617    -4.447322    1085.0101  0.059057808  0.059628931            2 
 1532000    1.0243447   -4.4726245    1083.2525  0.058923656  0.059616029            8 
 1533000    1.0305026    -4.413643    1089.7579  0.059238851  0.059603405            2 
 1534000    1.0055004   -4.4406464    1083.4054  0.058855139  0.059590529            5 
 1535000   0.98767845   -4.4389023    1087.8209  0.059056512  0.059577796            3 
 1536000    1.0115689    -4.420905    1088.4658  0.059053048  0.059565307            4 
 1537000    1.0211569   -4.4213173    1093.2354  0.059273229  0.059552853            3 
 1538000   0.99678749   -4.4645432     1087.064  0.058900303  0.059540052            4 
 1539000    1.0192234   -4.4006443    1090.3373  0.059039272  0.059527542            3 
 1540000    1.0080645   -4.4415451    1091.0801  0.059041131  0.059514761            3 
 1541000    1.0236967   -4.4110293    1091.6056  0.059031237  0.059502256            4 
 1542000    1.0128374   -4.4430546    1089.1089  0.058858027  0.059489498            2 
 1543000   0.99487605   -4.4278859    1088.3212  0.058777339  0.059476683            3 
 1544000    1.0302426   -4.4357238    1089.2217   0.05878787  0.059463654            3 
 1545000    1.0211277   -4.4256415    1096.2339   0.05912804  0.059450686            2 
 1546000    1.0018553   -4.4587222     1092.679  0.058898179  0.059437941            5 
 1547000    1.0215317   -4.4327078    1094.4282  0.058954329  0.059425388            4 
 1548000    1.0014447   -4.4233935    1094.9454  0.058944089  0.059412766            2 
 1549000   0.99680205    -4.427435    1094.3831  0.058875783   0.05939997            2 
 1550000    1.0114522   -4.4426503    1094.2783  0.058832169  0.059387108            7 
 1551000    1.0277202   -4.4269341    1094.1184  0.058785644  0.059374465            6 
 1552000    1.0042128    -4.442317    1095.5855   0.05882654   0.05936161            5 
 1553000   0.98786985   -4.4099132    1098.7193  0.058956821  0.059348922            6 
 1554000    1.0299144   -4.4600795    1094.2918  0.058681456  0.059336353            4 
 1555000    1.0005199   -4.4432438    1092.3279  0.058538475  0.059323516            3 
 1556000   0.99863693    -4.434922    1098.6717  0.058840599  0.059310736            2 
 1557000    1.0259294   -4.4058277    1102.5273  0.059009166  0.059298235            3 
 1558000    1.0092977   -4.4334768    1096.6185  0.058655245  0.059285992            3 
 1559000    1.0019699   -4.4520823    1101.8261  0.058895984  0.059273444            7 
 1560000   0.99686846   -4.4347182     1097.226  0.058612501  0.059260471            3 
 1561000    1.0052236   -4.4522277    1096.0557  0.058512476  0.059247658            6 
 1562000    1.0090557   -4.4428322    1101.4213  0.058761272    0.0592347            2 
 1563000    1.0245609   -4.4641226    1094.6017   0.05836008  0.059221882            3 
 1564000    1.0039704   -4.4386511    1100.7968  0.058652857  0.059209254            2 
 1565000   0.99504723   -4.4108915    1105.2114  0.058850447  0.059196824            4 
 1566000    1.0398846   -4.4334313    1106.5323  0.058883159  0.059184577            4 
 1567000    1.0036929   -4.4365031    1102.8294  0.058648661  0.059171948            2 
 1568000   0.99525416   -4.4271894    1102.9424  0.058617264  0.059159208            3 
 1569000    1.0313314   -4.4113346    1103.5033  0.058609692  0.059146481            3 
 1570000   0.97300965   -4.4887279    1099.0947   0.05833836  0.059133852            5 
 1571000   0.99056506   -4.4422208    1103.3247  0.058525603   0.05912133            1 
 1572000    1.0136263   -4.4249932    1104.4004  0.058545396  0.059108645            2 
 1573000   0.98745434   -4.4619096     1102.126  0.058387689  0.059096243            2 
 1574000    1.0020053   -4.4714273    1104.9928  0.058502371  0.059083885            6 
 1575000    0.9938154   -4.4495705    1108.2771  0.058639002   0.05907153            4 
 1576000   0.97893803   -4.4576894    1106.2727  0.058495805  0.059058992            4 
 1577000    1.0210856   -4.4464651    1106.4054  0.058465727   0.05904659            3 
 1578000   0.99736274   -4.4067049    1111.5799  0.058701938  0.059034536            4 
 1579000   0.99780521   -4.4406176    1107.1888  0.058433016  0.059021976            4 
 1580000    1.0001414   -4.4253829    1113.5894  0.058733619  0.059009415            3 
 1581000    1.0279228   -4.4379522    1109.9342  0.058503806  0.058996886            3 
 1582000    1.0081452    -4.441996    1110.8562  0.058515392  0.058984492            3 
 1583000   0.99840433   -4.4575686    1108.7146  0.058365686  0.058972003            2 
 1584000   0.98567396   -4.4251453     1110.815  0.058439339  0.058959581            2 
 1585000     1.016673   -4.4581822    1109.3194  0.058323841  0.058947176            2 
 1586000    1.0021943   -4.4337347    1111.5193  0.058402656  0.058934553            2 
 1587000    1.0125761    -4.457327     1113.286  0.058458624   0.05892198            5 
 1588000     1.006792   -4.4331575    1113.4917  0.058432604  0.058909312            3 
 1589000    1.0165508   -4.4492347    1114.7309   0.05846082  0.058896756            3 
 1590000    0.9936203   -4.4785596    1108.7878   0.05811257   0.05888401            2 
 1591000    1.0087987    -4.457398    1116.2528  0.058467043  0.058871455            3 
 1592000   0.98415782   -4.4506113    1115.0275  0.058366181  0.058858808            3 
 1593000    1.0106433   -4.4334422    1117.5732  0.058462712  0.058846464            2 
 1594000    1.0032295   -4.4426507    1114.7056  0.058276119  0.058834307            3 
 1595000    1.0259399   -4.4330374    1118.2328  0.058423868    0.0588218            2 
 1596000   0.98285916   -4.4500867    1117.4429  0.058346016  0.058809606            2 
 1597000   0.98208292   -4.4527778    1116.2539   0.05824744  0.058797089            3 
 1598000   0.98144644   -4.4572118    1118.0497  0.058304634  0.058784534            3 
 1599000   0.97009215   -4.4115818    1119.6129  0.058349643  0.058771995            3 
 1600000   0.98347766   -4.4455872    1116.3447  0.058142953  0.058759621            4 
 1601000   0.98390982   -4.4458622    1119.2702  0.058258912  0.058747115            4 
 1602000    0.9856285   -4.4440288    1120.1657  0.058269128  0.058735013            4 
 1603000   0.98628656   -4.4815924    1118.9339  0.058168738  0.058722541            9 
 1604000   0.97390674   -4.4290568    1126.0222  0.058500737   0.05871003            2 
 1605000   0.98462933   -4.4401615    1121.6795  0.058238809  0.058697735            3 
 1606000   0.97459742   -4.4705493    1120.0712  0.058119096  0.058685291            5 
 1607000   0.97558706   -4.4230715    1124.2124  0.058297676  0.058672958            2 
 1608000    1.0029709   -4.4332481    1121.8011  0.058136456  0.058660522            4 
 1609000   0.97878483    -4.452664    1125.2326  0.058278048  0.058647784            1 
 1610000   0.97473234   -4.4564007    1121.8681  0.058067709  0.058635283            4 
 1611000    1.0064062   -4.4509553    1123.4968   0.05811591   0.05862258            4 
 1612000   0.98916408    -4.433685    1125.9758  0.058208014  0.058610091            4 
 1613000   0.99724141   -4.4580473    1127.1366  0.058231897   0.05859767            3 
 1614000   0.99525633   -4.4585049    1125.1313  0.058092282  0.058584646            6 
 1615000   0.98938095   -4.4676164    1128.9495  0.058253328  0.058572104            1 
 1616000   0.99202858   -4.4519737    1124.5649  0.057991179  0.058559686            3 
 1617000   0.97537758   -4.4750806    1123.2728  0.057888722  0.058547074            4 
 1618000    1.0042646   -4.4576212    1124.0015  0.057890477  0.058534316            3 
 1619000   0.99996264   -4.4426134     1127.726   0.05804643  0.058521779            4 
 1620000   0.99809774   -4.4740761    1123.8977  0.057813669  0.058508872            3 
 1621000    0.9939974   -4.4259712    1128.0159  0.057989711  0.058496211            2 
 1622000    1.0062958   -4.4538969    1125.2012  0.057809351  0.058483427            2 
 1623000    1.0143055   -4.4522296    1127.8908  0.057911829  0.058470325            4 
 1624000    1.0012945   -4.4720774    1128.1112  0.057887479   0.05845718            3 
 1625000   0.96963459   -4.4532215    1130.7138  0.057985323  0.058444239            5 
 1626000   0.96719219   -4.4560953    1128.5995  0.057841303  0.058431327            3 
 1627000   0.99867178   -4.4539636     1128.119   0.05778114  0.058418564            5 
 1628000   0.98273809   -4.4490557    1130.2312   0.05785377  0.058405824            4 
 1629000   0.98932151   -4.4707958    1126.5692   0.05763092  0.058393054            3 
 1630000   0.97867211   -4.4284202    1131.8621  0.057866159  0.058380314            2 
 1631000    1.0168049    -4.431954    1135.2326   0.05800289  0.058367444            4 
 1632000    1.0096026   -4.4482775     1129.285  0.057663653  0.058354591            5 
 1633000   0.99092204   -4.4672147    1129.9365  0.057661589  0.058341349            2 
 1634000    0.9825948   -4.4424965    1127.5494  0.057504558  0.058327625            3 
 1635000   0.97576687   -4.4400883    1130.2493  0.057606999  0.058314269            2 
 1636000    1.0089394   -4.4582225    1129.7764  0.057547697  0.058300974            3 
 1637000   0.98734745   -4.4506436    1137.6328  0.057912482  0.058287732            3 
 1638000   0.96886742   -4.4680773    1130.2208  0.057500042  0.058274775            4 
 1639000   0.98208765   -4.4726023    1132.0298  0.057556934  0.058261515            4 
 1640000   0.97974724   -4.4422588    1129.6183  0.057399306  0.058248176            9 
 1641000   0.98914749   -4.4693591    1131.7927  0.057474748  0.058234912            2 
 1642000   0.99217571   -4.4599046    1130.6476  0.057381627  0.058221706            5 
 1643000    1.0025488   -4.4608655    1132.9985  0.057465943   0.05820817            4 
 1644000   0.99999869   -4.5012965     1130.041  0.057281073  0.058194873            2 
 1645000    0.9834316    -4.477564     1133.138  0.057403143  0.058181525            3 
 1646000    0.9810698   -4.4707952    1132.7841  0.057350349  0.058168146            3 
 1647000   0.99012534   -4.4653258    1132.4659  0.057299427  0.058154706            2 
 1648000    0.9841222   -4.4814113    1134.7578  0.057380552  0.058141145            3 
 1649000   0.99625982   -4.4949323    1132.6247  0.057237956  0.058127688            2 
 1650000   0.97128275   -4.4402762    1136.1093  0.057379257  0.058114127            6 
 1651000    1.0037556   -4.4657969    1133.8513  0.057230532   0.05810053            3 
 1652000   0.98000542   -4.4651041    1131.9989  0.057102444   0.05808701            3 
 1653000     0.975563   -4.4595989    1139.8532  0.057463866  0.058073149            7 
 1654000   0.98418432   -4.4744927    1139.3591  0.057404227  0.058059378            4 
 1655000    1.0127676   -4.4656872     1137.967  0.057299444  0.058045625            2 
 1656000   0.99741948    -4.464246    1133.0033  0.057015061  0.058032112            2 
 1657000   0.98495782   -4.4576357     1141.427  0.057404296  0.058018583            5 
 1658000    1.0111874   -4.4573352    1144.2114  0.057509622  0.058005291            4 
 1659000   0.97770549   -4.4798061    1140.5104   0.05728905  0.057991932            3 
 1660000   0.98352707   -4.4807946    1139.7344  0.057215583  0.057978183            3 
 1661000   0.98272793   -4.4675514     1141.912  0.057290387  0.057964715            2 
 1662000   0.99187017   -4.4848367    1140.7195  0.057196123  0.057951086            7 
 1663000   0.97719615   -4.4253982     1141.442  0.057197936  0.057937479            6 
 1664000     0.985208   -4.4618511    1145.6581  0.057374707  0.057924091            6 
 1665000   0.98510433   -4.4851048    1140.8109  0.057097644  0.057910559            4 
 1666000   0.99243741   -4.4940051    1140.9397  0.057069812  0.057897011            4 
 1667000   0.98864777   -4.4564422    1145.3617  0.057256634  0.057883407            3 
 1668000   0.99112759   -4.4880086    1141.5468  0.057031715  0.057869768            3 
 1669000   0.97908992   -4.4843484    1147.1123   0.05727543  0.057855958            5 
 1670000    0.9718151   -4.4903681    1143.5705  0.057064395  0.057842158            1 
 1671000    1.0042434   -4.4478445    1143.8118  0.057042278  0.057828743            3 
 1672000    1.0192949   -4.4611402    1145.8656  0.057110524  0.057815194            2 
 1673000   0.98878827   -4.4689934    1146.5262  0.057109297  0.057801598            3 
 1674000   0.99046684   -4.4729129    1141.4697  0.056823462  0.057787912            6 
 1675000   0.97326989   -4.4779702    1145.1118  0.056970737  0.057774136            4 
 1676000   0.98917175    -4.474875     1146.992  0.057030231  0.057760252            3 
 1677000   0.97771812   -4.4511272    1148.0194  0.057047276  0.057746776            7 
 1678000   0.99896145   -4.4797969    1146.6173   0.05694365  0.057733264            3 
 1679000   0.97313198   -4.4701559    1150.1076  0.057082967  0.057719702            2 
 1680000   0.97247545   -4.4592158    1149.3286  0.057010347  0.057706172            2 
 1681000   0.98452294   -4.4934778    1148.8639  0.056953394  0.057692594            2 
 1682000   0.98792939   -4.4991572    1148.8463  0.056918665  0.057678952            3 
 1683000   0.97826303   -4.4544321    1152.4002  0.057060812  0.057665487            3 
 1684000   0.97542398   -4.5111255    1150.2198  0.056919034  0.057652109            2 
 1685000   0.99217133    -4.484008    1151.1142  0.056929486  0.057638814            3 
 1686000   0.97044036   -4.4770826    1145.9061  0.056638303  0.057625588            6 
 1687000   0.95211548    -4.456937    1152.4879  0.056929848  0.057612338            2 
 1688000   0.99089678   -4.4487592     1156.166  0.057077706  0.057599308            2 
 1689000    0.9922988   -4.4953912     1149.929  0.056736187  0.057586071            2 
 1690000   0.98111047   -4.4503916    1154.6879  0.056937273  0.057572841            7 
 1691000   0.99114355   -4.4619379    1153.3323  0.056836797  0.057559467            4 
 1692000    0.9585626   -4.4414584    1159.4577  0.057104891  0.057546084            7 
 1693000   0.94939346   -4.4722868    1154.0734  0.056806132  0.057532609            4 
 1694000   0.99081953   -4.4933164    1152.5119  0.056695785  0.057519205            3 
 1695000   0.98956101   -4.4626982     1155.791  0.056823549  0.057505877            2 
 1696000   0.96274399   -4.4917945    1154.4698  0.056725127  0.057492767            5 
 1697000   0.97951378   -4.4669109    1158.2005  0.056874903  0.057479602            3 
 1698000   0.96516936   -4.4544902    1158.8285  0.056872227  0.057466298            4 
 1699000   0.98186769   -4.4364843    1168.7217  0.057323997  0.057453041            8 
 1700000   0.97589873   -4.5001745    1156.3095  0.056681839  0.057439925            4 
 1701000   0.96527377   -4.4653767    1158.1175  0.056737091  0.057426767            3 
 1702000   0.97470515   -4.4914954    1159.4241   0.05676773  0.057413653            2 
 1703000   0.97409062    -4.473427    1163.3154   0.05692481  0.057400365            3 
 1704000   0.97747511   -4.4737028    1162.4943  0.056851248  0.057387269            1 
 1705000    0.9778712    -4.461617    1161.0689  0.056748234   0.05737416            2 
 1706000   0.97472538    -4.473334    1159.5587  0.056641201   0.05736113            3 
 1707000   0.98372757   -4.4896459    1158.5503  0.056558793  0.057347774            1 
 1708000   0.96724343   -4.4871503    1162.5953  0.056723033  0.057334682            3 
 1709000   0.96776108   -4.4451309    1161.1601   0.05661986   0.05732147            3 
 1710000   0.98305348   -4.4604683    1164.6686  0.056757728  0.057308572            3 
 1711000    0.9658565   -4.4962176    1162.4178  0.056614931  0.057295393            4 
 1712000   0.96636126   -4.4907426     1163.722  0.056645345  0.057282007            1 
 1713000   0.98242973   -4.4987418    1160.3756  0.056449486  0.057268735            4 
 1714000   0.99140066   -4.5088039    1165.3369  0.056657762  0.057255248            1 
 1715000   0.96377829   -4.4778735    1162.9783   0.05651012  0.057241849            6 
 1716000   0.96791617   -4.4836745    1168.6628  0.056753244  0.057228539            4 
 1717000   0.97529812    -4.475547    1168.0426  0.056690089  0.057215497            7 
 1718000   0.98015124    -4.504193    1166.4365  0.056579184  0.057202265            5 
 1719000   0.99257559   -4.4958427    1162.3519  0.056348257  0.057189057            3 
 1720000   0.96266048   -4.4432959     1170.421  0.056706445  0.057176062            5 
 1721000   0.96125039   -4.4817885    1169.1898  0.056613877  0.057162901            2 
 1722000   0.98681895   -4.5178532     1165.017  0.056379067  0.057149758            2 
 1723000   0.98793275   -4.4668684    1167.5714  0.056469889  0.057136602            4 
 1724000    0.9939374   -4.4864344    1171.1781  0.056611469  0.057123294            2 
 1725000   0.96926191   -4.4853814    1169.7341  0.056508892  0.057110306            2 
 1726000   0.99558522   -4.4589732    1172.3688  0.056603363  0.057097274            3 
 1727000   0.97011819   -4.4983125     1169.425  0.056428538  0.057084426            4 
 1728000   0.95869211   -4.4555012    1176.0696  0.056716321  0.057071539            5 
 1729000    0.9549344   -4.4769885    1174.2398  0.056595325  0.057058587            5 
 1730000   0.97172604   -4.4942502    1169.7222  0.056345002  0.057045802            5 
 1731000   0.98182498   -4.4694314    1176.0149  0.056615389  0.057033087            2 
 1732000   0.96392724   -4.4842002    1174.3871  0.056504385  0.057020272            3 
 1733000   0.99204403   -4.4657904    1176.0701  0.056552708   0.05700755            7 
 1734000   0.96387511   -4.4487936    1177.9938  0.056612546  0.056994885            5 
 1735000   0.95407887   -4.5053529    1172.6342   0.05632249  0.056982409            2 
 1736000   0.98561718   -4.4890329    1179.1703  0.056603798  0.056969968            2 
 1737000   0.97226531   -4.5088136    1174.5556  0.056349819  0.056957243            2 
 1738000   0.97842253   -4.5123423    1177.5553  0.056461227  0.056944541            5 
 1739000   0.95843008   -4.5055253     1179.367  0.056515575  0.056931972            3 
 1740000   0.97316406   -4.4597481    1177.2621  0.056382286  0.056919286            2 
 1741000   0.96423708   -4.4984484    1180.7683  0.056517725  0.056906561            2 
 1742000   0.95482667   -4.5007005    1181.0846  0.056500413  0.056894054            2 
 1743000   0.96582897   -4.4992581     1177.995  0.056320279  0.056881406            4 
 1744000   0.99250443   -4.5192555     1179.943  0.056381068  0.056868944            3 
 1745000   0.95808374   -4.4896884    1183.6233  0.056524513  0.056856347            5 
 1746000   0.99310779   -4.5044846    1180.1106  0.056324485  0.056843703            3 
 1747000   0.99272331   -4.5009151    1181.6232  0.056364394  0.056830865            3 
 1748000    0.9905789   -4.4808464    1180.3043  0.056269273  0.056818304            3 
 1749000   0.97294399   -4.5133348    1181.3439  0.056286633  0.056805483            5 
 1750000   0.98968545   -4.4576749    1184.0562   0.05638363  0.056793111            8 
 1751000   0.97528633   -4.4988032    1182.8134  0.056292281  0.056780516            6 
 1752000   0.99073235   -4.5047096    1184.1317  0.056322854  0.056767813            9 
 1753000   0.98291111   -4.4898187     1183.229  0.056247811  0.056755007            2 
 1754000   0.96359772   -4.4949948    1184.8461  0.056292575  0.056742334            3 
 1755000   0.99796435   -4.4922362    1186.4704  0.056337625  0.056729801            5 
 1756000   0.97153183   -4.4685901    1187.5956  0.056358938  0.056717131            2 
 1757000   0.94805843   -4.5195229    1181.2271  0.056024808  0.056704318            3 
 1758000   0.96895924    -4.519133    1185.6559  0.056202878  0.056691472            2 
 1759000   0.96450714   -4.4861829    1186.1688  0.056195223   0.05667874            3 
 1760000   0.98631531   -4.5321569    1183.6722  0.056045084  0.056666067            4 
 1761000   0.95493563   -4.4655953    1192.5717  0.056434398  0.056653465            4 
 1762000   0.96831037   -4.4982064    1189.0688  0.056236702  0.056640631            3 
 1763000   0.97453232   -4.4638305    1190.4303  0.056269157  0.056628056            2 
 1764000    0.9573312   -4.4796425    1188.8649  0.056163306  0.056615478            3 
 1765000   0.97051704   -4.5197224    1186.7858  0.056033324  0.056603022            2 
 1766000    0.9763662   -4.5006881    1183.2371  0.055834141  0.056590255            8 
 1767000   0.99119082   -4.4980978    1189.7283  0.056108671  0.056577317            4 
 1768000   0.97716099   -4.4695096    1192.6323  0.056213817   0.05656438            4 
 1769000    0.9856232   -4.4607086    1190.4127  0.056077479  0.056551625            3 
 1770000   0.96961255   -4.4967702    1189.9443  0.056023745  0.056538588            4 
 1771000   0.97611787   -4.4705589    1190.3411  0.056010781  0.056525972            5 
 1772000   0.98000473   -4.5092284    1189.4223  0.055935963   0.05651291            5 
 1773000   0.96213706   -4.5197153    1191.3392   0.05599451  0.056499846            5 
 1774000   0.95581039   -4.5036623    1192.9517  0.056038694  0.056486952            4 
 1775000      0.98473   -4.5226986    1193.3182   0.05602433  0.056474002            3 
 1776000   0.97862117   -4.4970961    1190.5237   0.05586166  0.056461108            5 
 1777000   0.96337643   -4.4752635    1196.6977  0.056119756  0.056448487            3 
 1778000   0.95989888    -4.515923    1192.3552  0.055884665  0.056435453            1 
 1779000   0.97684945   -4.5150385    1194.4516   0.05595145  0.056422522            2 
 1780000   0.95518695   -4.5298261     1193.202  0.055861517  0.056409677            5 
 1781000   0.97162121   -4.5106922    1195.0916  0.055918568  0.056396933            2 
 1782000   0.97153849   -4.5247243    1194.9067  0.055878538  0.056384082            8 
 1783000   0.95727664   -4.5111583    1192.6716  0.055742737  0.056371162            2 
 1784000   0.96936658   -4.4888631    1193.6738  0.055758306  0.056358315            4 
 1785000   0.93582217   -4.5396147    1192.4587  0.055670341  0.056344953            7 
 1786000   0.97058809   -4.5224574    1197.2506  0.055862756  0.056331958            2 
 1787000   0.94643656   -4.4731654    1193.6039  0.055661438  0.056319118            3 
 1788000   0.98810311   -4.5002797    1194.7782   0.05568504  0.056305884            3 
 1789000   0.98681865   -4.5094329    1196.0302  0.055712232  0.056292997            3 
 1790000   0.97023692   -4.4894567    1198.6257   0.05580194  0.056279948            2 
 1791000   0.96414134   -4.4767015    1201.2289  0.055891907  0.056267154            6 
 1792000    0.9665463   -4.4710197    1202.4017  0.055915257  0.056254403            2 
 1793000   0.96146275   -4.5350178    1197.5445  0.055658324  0.056241348            3 
 1794000   0.95583052    -4.486174    1197.8968  0.055643662  0.056228412            5 
 1795000   0.96609735    -4.538391    1198.7916  0.055654204  0.056215246            3 
 1796000   0.97845868   -4.5148776    1193.2519   0.05536618  0.056202063            5 
 1797000   0.97190215   -4.5269995    1196.1169  0.055468232  0.056188772            3 
 1798000   0.97056326   -4.5046774    1200.8974  0.055658947  0.056175638            6 
 1799000   0.96397828   -4.5279783    1203.5095  0.055749002  0.056162832            2 
 1800000   0.97071767   -4.5018928    1199.5373  0.055534134  0.056150046            4 
 1801000   0.97432343   -4.5196048    1200.9359  0.055568015  0.056137019            5 
 1802000   0.96985452   -4.5469323    1203.2184  0.055642732  0.056124225            6 
 1803000   0.95727887   -4.5172792     1204.849  0.055687233  0.056111204            4 
 1804000   0.97168941   -4.5197939    1203.0642  0.055573918  0.056098272            4 
 1805000   0.97005834   -4.4831829    1206.2975  0.055692404  0.056085431            5 
 1806000   0.96225398   -4.5166229    1203.7542  0.055544212  0.056072497            7 
 1807000   0.96012204    -4.506713    1208.3422   0.05572506  0.056059766            5 
 1808000   0.95659158   -4.5153331    1204.3144  0.055508591  0.056046644            3 
 1809000   0.98569568   -4.4860534    1206.7595  0.055590542  0.056033705            4 
 1810000   0.96834429   -4.4960478     1210.582  0.055735819  0.056020902            5 
 1811000    0.9673128   -4.4902504    1203.3164  0.055370716  0.056007948            4 
 1812000     0.959379   -4.5223235    1207.9623  0.055553823  0.055995034            3 
 1813000   0.96235994   -4.4933109    1205.6711  0.055417867  0.055982332            9 
 1814000   0.96076706   -4.5027082    1208.1677  0.055502007   0.05596966            4 
 1815000    0.9586958   -4.5341397    1204.2383  0.055291016  0.055956916            2 
 1816000   0.96083356   -4.5018781    1209.3229   0.05549389  0.055943779            3 
 1817000   0.96060887   -4.5196849    1205.7155  0.055297904  0.055930608            3 
 1818000   0.97119347   -4.5416131      1207.08  0.055330032   0.05591776            4 
 1819000   0.97439796   -4.5191704    1206.7119  0.055282752  0.055904655            5 
 1820000   0.95620369   -4.5141343    1209.6628  0.055387492  0.055891561            4 
 1821000   0.99317524   -4.4942667     1212.678  0.055495059  0.055878654            5 
 1822000    0.9594226   -4.5467995    1207.9725  0.055249381  0.055865534            4 
 1823000   0.96620296   -4.5036642    1206.1777  0.055137029  0.055852272            6 
 1824000   0.95117245   -4.5142381     1211.676  0.055358005  0.055839351            2 
 1825000   0.93954673   -4.4901436     1209.642  0.055234794  0.055826146            4 
 1826000   0.94684406   -4.5126316    1208.0014  0.055129675  0.055813005           11 
 1827000   0.96334269   -4.4981341    1210.2227  0.055200815  0.055799791            4 
 1828000   0.93181226   -4.5296382    1209.0642  0.055117806  0.055786574            3 
 1829000   0.95637441   -4.4979661    1215.7434  0.055391991  0.055773769            4 
 1830000   0.95737789   -4.5418986    1210.9839  0.055144987  0.055760737            2 
 1831000   0.95767584   -4.5213428    1213.1715  0.055214431  0.055747569            4 
 1832000    0.9686802   -4.5194001    1211.1284  0.055091358  0.055734739            5 
 1833000   0.95947104   -4.4827746    1217.1448  0.055334822  0.055722075            4 
 1834000    0.9640631   -4.5053334    1220.3002  0.055448027  0.055709411            4 
 1835000    0.9676332   -4.5310048    1213.0948  0.055090591  0.055696608            5 
 1836000   0.94002234   -4.5082552    1214.8497  0.055140238  0.055683648            2 
 1837000   0.95548191   -4.5277131    1214.7521  0.055105791  0.055670665            7 
 1838000   0.94289482    -4.497674    1218.0669  0.055226103  0.055657506            3 
 1839000   0.97358491   -4.5241881    1218.0221  0.055194039   0.05564456            4 
 1840000   0.94010207   -4.5173888    1216.8027  0.055108818  0.055631559            4 
 1841000   0.97484873   -4.5059324    1218.9507  0.055176115  0.055618591            2 
 1842000   0.96337081   -4.4893165     1215.599  0.054994525  0.055605563            3 
 1843000    0.9507187   -4.5219325    1217.8916  0.055068348  0.055592741            3 
 1844000   0.95344887   -4.4879614    1217.1203   0.05500363  0.055579874            4 
 1845000   0.94937131   -4.5320299    1215.7094  0.054910091  0.055567106            3 
 1846000   0.95389933   -4.5321829    1217.0331  0.054940098  0.055554039            3 
 1847000   0.97535506   -4.5366265    1218.1319  0.054959932  0.055541108            7 
 1848000   0.96355113   -4.5162917    1222.3659  0.055121119   0.05552822            3 
 1849000   0.95790223   -4.5147339    1222.6673  0.055104891  0.055515618            2 
 1850000   0.94568811   -4.5474067    1218.6003  0.054891904  0.055502847            1 
 1851000   0.95757346   -4.5351855    1223.1561  0.055067357  0.055490011            4 
 1852000   0.97628151   -4.5191737    1222.6244  0.055013698  0.055477201            5 
 1853000   0.93796368   -4.5201743    1223.9328  0.055042848  0.055464518            4 
 1854000   0.93595257   -4.5213364    1221.3101  0.054895275  0.055451557            4 
 1855000   0.96122977   -4.5321338    1223.7244  0.054974141  0.055438558            5 
 1856000    0.9609121   -4.5097047    1228.9268  0.055178105  0.055425638            3 
 1857000   0.93589442     -4.52841    1221.4284  0.054811902  0.055412868            3 
 1858000   0.95710437   -4.5083793    1222.3235  0.054822547  0.055400027            2 
 1859000   0.97393307   -4.5262849    1226.5749  0.054983632  0.055386989            9 
 1860000   0.95854653   -4.5064404     1226.992   0.05497276  0.055374111            3 
 1861000      0.95887   -4.5256704    1224.5059  0.054831894  0.055361256            2 
 1862000   0.95736613   -4.5012928    1225.3267  0.054839181  0.055348395            2 
 1863000   0.95111544    -4.521119    1223.2939  0.054718819  0.055335633            3 
 1864000   0.95760903   -4.5341094    1224.9473  0.054763381  0.055322546            3 
 1865000   0.93231428   -4.5566633    1227.7211  0.054857958  0.055309623            2 
 1866000   0.93002593   -4.4928421    1231.1014  0.054979521  0.055296621            6 
 1867000   0.95062866   -4.5288282    1226.8729  0.054761333  0.055283973            3 
 1868000   0.93847478   -4.5193962    1226.3388  0.054708191  0.055271183            8 
 1869000   0.95669713   -4.5514545    1226.2012  0.054672782  0.055258051            3 
 1870000   0.95700442   -4.4994578    1232.7998  0.054937603  0.055245086            3 
 1871000    0.9559202   -4.5041706    1226.2803  0.054617866  0.055232413            4 
 1872000   0.95129054   -4.5052778    1228.8812   0.05470447  0.055219455            3 
 1873000   0.95577523    -4.532372    1230.5147   0.05474794  0.055206576            3 
 1874000     0.960566   -4.4915709    1230.5785  0.054721564  0.055193749            1 
 1875000   0.93942701   -4.5455274    1226.9601   0.05453156  0.055181015            4 
 1876000   0.94812557   -4.5409497    1227.5249   0.05452758  0.055168162            6 
 1877000   0.94363092   -4.5342614    1233.2971  0.054754801  0.055155183            3 
 1878000   0.96283591   -4.5279691    1233.5823  0.054738299  0.055142404            4 
 1879000   0.97088346   -4.5454933    1234.6344  0.054755829  0.055129461            4 
 1880000    0.9247122   -4.5366379     1235.373  0.054759443  0.055116679            1 
 1881000    0.9492153   -4.5024902    1237.7163  0.054834144  0.055103904            4 
 1882000   0.94245158    -4.496363    1237.1371  0.054779362  0.055091403            2 
 1883000   0.94425691   -4.5272728    1237.8999   0.05478403  0.055078631            3 
 1884000   0.94640436   -4.5183622    1238.8823  0.054798404  0.055065912            5 
 1885000   0.94710928   -4.5038188    1236.7834  0.054676545  0.055053026            3 
 1886000   0.94992613   -4.5418186    1232.9985  0.054480315  0.055040104            2 
 1887000   0.93395625   -4.5411986    1235.0853  0.054543601   0.05502717            4 
 1888000   0.94063093   -4.5636861    1233.9719  0.054465568  0.055014293           11 
 1889000   0.93826917   -4.5189545    1228.8918  0.054212628  0.055001271            3 
 1890000    0.9261637   -4.5187335    1234.9904  0.054452842   0.05498836            3 
 1891000   0.96356226   -4.5136878    1239.1773  0.054608553  0.054975317            4 
 1892000    0.9561002   -4.5257304    1234.7207  0.054383399  0.054962315            8 
 1893000   0.93990147   -4.5553164    1232.6589  0.054263907  0.054949019            6 
 1894000   0.94325894   -4.5655492    1235.2372    0.0543487  0.054935683            2 
 1895000   0.93318393   -4.4912856    1239.1051  0.054490108  0.054922581            3 
 1896000   0.96700363   -4.5330559    1233.0481  0.054195151   0.05490924            4 
 1897000   0.95287251    -4.545015     1236.042    0.0542981  0.054895901            2 
 1898000   0.96219389   -4.5433946    1238.4227  0.054374021  0.054882801            6 
 1899000   0.95399569   -4.5489966     1238.163  0.054333989  0.054869898            4 
 1900000   0.94456857   -4.5038463    1240.9718  0.054428588  0.054856764            6 
 1901000   0.95049685   -4.5339211    1238.9307  0.054310482   0.05484378            6 
 1902000   0.93815835   -4.5409729    1238.8303  0.054277528  0.054830512            4 
 1903000    0.9419074   -4.5191151    1240.0582  0.054302774  0.054817372            7 
 1904000   0.95885418    -4.531618    1241.9573  0.054357373  0.054804141            2 
 1905000   0.96006186   -4.5520262    1237.1523  0.054118646  0.054790744            5 
 1906000   0.94016064   -4.5676511    1236.5668  0.054064654  0.054777367            2 
 1907000   0.93767292   -4.5337945    1240.0767  0.054189684  0.054763999            4 
 1908000    0.9339415   -4.5448389    1240.7491  0.054190649  0.054750765            4 
 1909000   0.94559605   -4.5360961    1241.1185  0.054178388  0.054737911            5 
 1910000   0.94784034   -4.5602221    1244.6229  0.054302917  0.054725084            1 
 1911000   0.92820999   -4.5419139    1246.5851  0.054360067  0.054712229            3 
 1912000   0.93461284   -4.5460676     1245.597  0.054288574  0.054699304            3 
 1913000   0.93327899   -4.5261811     1242.354  0.054118923    0.0546863            7 
 1914000   0.92529322   -4.5460013     1245.787  0.054240117   0.05467345            4 
 1915000   0.95880262   -4.5364854    1243.8501  0.054127506  0.054660418            7 
 1916000   0.93577853    -4.544834    1245.3473  0.054164374  0.054647394            4 
 1917000   0.93546957   -4.5693454    1246.2559  0.054175618  0.054634476            2 
 1918000   0.94072968   -4.5665671    1240.1078   0.05388025  0.054621342            4 
 1919000   0.93519638   -4.5470832    1247.6173  0.054178274  0.054608431            5 
 1920000   0.94097516   -4.5670497     1244.212  0.054002259  0.054595262            4 
 1921000   0.93014172   -4.5420176    1247.0247  0.054096161  0.054582333            2 
 1922000    0.9538528   -4.5345903    1247.2492   0.05407775  0.054569169            4 
 1923000   0.92566905   -4.5398548     1249.061  0.054128141  0.054556067            4 
 1924000   0.93013752   -4.5229373    1253.2053  0.054279507  0.054543196            2 
 1925000   0.95836712    -4.560497    1255.3132  0.054342563   0.05453032            9 
 1926000   0.95793043   -4.5297687    1250.6038  0.054110583   0.05451745            3 
 1927000   0.91444353   -4.5203406    1247.1577  0.053933476  0.054504511            3 
 1928000   0.94975502   -4.5398506    1246.8891  0.053893894  0.054491363            3 
 1929000   0.93664499   -4.5236181    1248.6638  0.053942622  0.054478485            2 
 1930000   0.94741978   -4.4983797    1253.7957  0.054136258  0.054465632            6 
 1931000   0.94202654   -4.5484449    1253.7146  0.054104723  0.054452792            4 
 1932000   0.94222452   -4.5424469    1248.3975  0.053847372  0.054439783            2 
 1933000   0.94252503   -4.5520793    1245.1864  0.053681083  0.054426784            4 
 1934000   0.94594536   -4.5398895    1256.1109  0.054124047  0.054413839            7 
 1935000    0.9316701   -4.5497189    1251.2969  0.053888756  0.054400928            9 
 1936000   0.93166442   -4.5542615     1257.234  0.054116475  0.054388147            2 
 1937000   0.93724625   -4.5646091    1248.2637   0.05370262  0.054375325            4 
 1938000   0.93757189   -4.5301912    1254.4534  0.053941066  0.054362435            3 
 1939000   0.94376608   -4.5458979    1256.1671  0.053986898  0.054349597            9 
 1940000   0.93265594   -4.5469665     1254.172  0.053873367  0.054336807            3 
 1941000   0.95327266   -4.5548885     1252.997  0.053795165   0.05432387            3 
 1942000   0.94343442   -4.5222588    1256.1827  0.053904165  0.054310864            5 
 1943000    0.9428757   -4.5343712    1253.1944  0.053748257  0.054298005            4 
 1944000   0.93328703   -4.5722238    1256.3714  0.053856799  0.054285161            3 
 1945000   0.92432553   -4.5264924    1258.9841  0.053941048  0.054272311            3 
 1946000   0.92925136   -4.5441128    1260.6083  0.053982882  0.054259726            6 
 1947000   0.94026047   -4.5467758    1258.9303   0.05388334  0.054247034            3 
 1948000   0.94416268   -4.5540467    1255.6324  0.053714598   0.05423406            3 
 1949000   0.92628358   -4.5235546    1257.6497  0.053773288  0.054221272            3 
 1950000   0.91714642   -4.5605675    1258.3456  0.053775453  0.054208336            4 
 1951000   0.93181963   -4.5448566    1256.8343  0.053683337  0.054195272            6 
 1952000   0.92783556   -4.5432945    1256.2396  0.053630449  0.054182537            3 
 1953000    0.9289485   -4.5182263    1262.8986  0.053887123  0.054169801            2 
 1954000   0.93940645    -4.553851    1258.6594  0.053678752  0.054157131            2 
 1955000   0.93541171   -4.5808718    1263.9244  0.053875722  0.054144293            5 
 1956000    0.9400414   -4.5674432     1259.037  0.053639956  0.054131565            3 
 1957000   0.95290529   -4.5609772    1264.6087  0.053849798  0.054118753            3 
 1958000   0.94185045   -4.5826835    1260.8594  0.053662727  0.054105925            3 
 1959000   0.96039497   -4.5656288    1266.0111   0.05385448  0.054093304            5 
 1960000   0.93491349   -4.5559194    1261.4462  0.053632918  0.054080776            3 
 1961000   0.93073596   -4.5598518    1261.9574  0.053627292  0.054068049            3 
 1962000   0.91807538   -4.5524093    1261.4585  0.053578768  0.054055274            3 
 1963000   0.93965425   -4.5480501    1264.4435  0.053678191  0.054042547            4 
 1964000   0.93379261   -4.5355882    1262.9433  0.053587206  0.054029469            5 
 1965000   0.94243225   -4.5510701    1265.5686  0.053671273  0.054016781            2 
 1966000   0.93112234    -4.571551    1265.7841  0.053653107  0.054004178            2 
 1967000   0.95707774   -4.5533675    1266.4355  0.053653426  0.053991376            3 
 1968000   0.94129384   -4.5258907    1264.8528  0.053559148  0.053978424            4 
 1969000   0.94689327   -4.5801985    1268.6742  0.053693677  0.053965832            4 
 1970000   0.91525458   -4.5576884    1266.5717  0.053577483   0.05395308            4 
 1971000   0.93371614   -4.5290294    1267.8967  0.053606322  0.053940328            2 
 1972000   0.93858773   -4.5415262    1272.0138   0.05375312  0.053927651            4 
 1973000   0.92251642   -4.5516825    1267.2708  0.053525546  0.053915083            5 
 1974000   0.94116913   -4.5666711    1271.5469  0.053678947  0.053902313            9 
 1975000    0.9571395   -4.5481079    1267.0292  0.053461149  0.053889763            3 
 1976000   0.92765578   -4.5382732    1268.6645  0.053503058  0.053877297            4 
 1977000   0.94687444   -4.5695003    1270.6093  0.053557972  0.053864743            2 
 1978000   0.91369268   -4.5281745    1272.7956  0.053623003  0.053852287            4 
 1979000   0.96350924   -4.5220341     1273.255  0.053615252  0.053839841            3 
 1980000   0.93290651   -4.5803079    1267.5664  0.053348755  0.053827222            4 
 1981000   0.94259377   -4.5522172    1272.9627  0.053548827  0.053814277            4 
 1982000    0.9441737   -4.5650982    1269.2807     0.053367  0.053801517            5 
 1983000   0.93866966   -4.5426855    1276.1196  0.053627483  0.053788731            4 
 1984000   0.94242774   -4.5505784    1270.8756   0.05338019  0.053776099            2 
 1985000   0.93723878   -4.5753901    1268.1407  0.053238485  0.053763627            6 
 1986000    0.9358864   -4.5478157    1270.0183  0.053290462  0.053750872            3 
 1987000   0.93891811   -4.5574761    1269.5319  0.053243242   0.05373828            7 
 1988000   0.92840071    -4.583011    1271.8409  0.053313251  0.053725352            5 
 1989000   0.92366478   -4.4898852    1275.1707  0.053425954  0.053712779           13 
 1990000   0.94550702   -4.5607853    1272.0634  0.053268985  0.053700213            3 
 1991000    0.9294974    -4.572263    1272.6783  0.053267967  0.053687674            3 
 1992000   0.92944764   -4.5513523    1274.5299  0.053318686  0.053675191            3 
 1993000   0.94661823   -4.5830059    1274.1685  0.053276821  0.053662482            3 
 1994000    0.9224159   -4.5680566     1274.079  0.053246363   0.05364999            4 
 1995000   0.93665158   -4.5816637    1274.8143  0.053250388  0.053637315            4 
 1996000    0.9178146   -4.5507195    1278.3183  0.053370004  0.053624857            6 
 1997000   0.92389581   -4.5680031    1277.4135  0.053305522  0.053612321            2 
 1998000   0.95337863   -4.5496947    1280.8889  0.053423793  0.053599821            5 
 1999000   0.92231447   -4.5712011    1279.0912   0.05332213  0.053587363            3 
 2000000   0.94994674   -4.5892278    1279.9014  0.053329224  0.053575067            3 
 2001000   0.95402886   -4.5750466    1279.2094  0.053273754  0.053562599            5 
 2002000   0.93622595   -4.5686433    1277.9384  0.053194237  0.053550424            8 
 2003000   0.93657416   -4.5891766    1280.2623  0.053264366  0.053538132            4 
 2004000   0.90562738    -4.592512    1276.9801  0.053101302  0.053525803            2 
 2005000   0.92589249   -4.5597716    1285.9108  0.053446001  0.053513428            3 
 2006000   0.91689633   -4.5585062    1283.2895  0.053310465  0.053501214            4 
 2007000   0.92839781   -4.5643675    1280.8212  0.053181417  0.053488925            4 
 2008000   0.91493722   -4.5462875    1284.6249  0.053312787  0.053476657            3 
 2009000   0.94187174   -4.5525036    1284.6351  0.053286674  0.053464547            1 
 2010000   0.92388798   -4.5702322    1285.9413  0.053314317  0.053452573            3 
 2011000   0.93672382   -4.5315084    1291.6162  0.053522964  0.053440604            5 
 2012000    0.9472664   -4.5955135    1283.5634   0.05316283  0.053428623            5 
 2013000   0.92676479   -4.5753333    1284.6195  0.053180142  0.053416585            2 
 2014000   0.92522213   -4.5518497    1288.4133  0.053310712   0.05340451            2 
 2015000   0.91642315    -4.572899    1289.7245  0.053338484  0.053392428            5 
 2016000   0.96273427   -4.5842134    1287.3656  0.053214517  0.053380591            4 
 2017000   0.92285931   -4.5862858    1289.4956  0.053276138  0.053368803            3 
 2018000   0.93979842   -4.5843746    1290.0614  0.053273102  0.053357066            4 
 2019000   0.91645307     -4.60293    1286.0176  0.053079809  0.053345164            5 
 2020000   0.95102816    -4.577813    1285.6983  0.053040359  0.053333067            4 
 2021000   0.92413563   -4.5716372    1290.2908   0.05320348  0.053321184            4 
 2022000   0.92496952   -4.5917597    1286.6014  0.053025116  0.053309236            2 
 2023000   0.93588355   -4.5721967    1286.0004  0.052974148  0.053297167            2 
 2024000   0.93024244   -4.5578042    1289.5146  0.053092663  0.053285072            7 
 2025000   0.94599701   -4.5510244    1291.5916  0.053151918  0.053273154            3 
 2026000   0.93129037   -4.5588401    1293.7407  0.053214078  0.053261337            2 
 2027000   0.94684445   -4.5783464    1290.3311  0.053047654   0.05324946            3 
 2028000   0.92993255   -4.5870911    1290.5002  0.053028445   0.05323756            4 
 2029000   0.91424076   -4.5786124      1294.83  0.053180139  0.053225462           10 
 2030000   0.93152336   -4.6024227     1292.951  0.053076808  0.053213423            4 
 2031000   0.92096589   -4.5693136     1293.338  0.053066551  0.053201266            2 
 2032000   0.94490422   -4.5866472    1297.0358  0.053192083  0.053189395            2 
 2033000   0.93715985   -4.5482326    1295.9577   0.05312173  0.053177408            4 
 2034000   0.91840858    -4.576015    1298.6037   0.05320402  0.053165278            6 
 2035000   0.91913924   -4.5683827    1291.5211  0.052887842  0.053153185            4 
 2036000   0.93644678    -4.588752    1292.3475  0.052895689  0.053140969            3 
 2037000   0.94095513   -4.6075043    1293.8738  0.052932162  0.053128811            4 
 2038000   0.92557878   -4.5636105    1295.4546  0.052970831  0.053116816            5 
 2039000   0.93173005   -4.5761496    1294.5265  0.052906921  0.053104744            4 
 2040000   0.91840671   -4.5635254    1293.8607  0.052853788  0.053092948            2 
 2041000   0.90180071   -4.5376383    1297.7579  0.052987013  0.053080946           11 
 2042000   0.92012392   -4.5958407    1296.1606  0.052895878   0.05306897            3 
 2043000   0.92427973   -4.5754191    1299.1053  0.052990102  0.053056892            4 
 2044000   0.91835565   -4.6236201    1296.2501  0.052847768  0.053044953            8 
 2045000   0.90414004   -4.5684225    1303.2087  0.053105491  0.053032939            5 
 2046000   0.93707659    -4.577084    1300.0988  0.052952869  0.053020834            2 
 2047000   0.91803408   -4.5940071     1300.654  0.052949601   0.05300903            4 
 2048000   0.91565331    -4.597715    1299.3755  0.052871726  0.052997346            2 
 2049000   0.91613301   -4.6167333    1304.6954  0.053062281  0.052985632            3 
 2050000   0.92298417   -4.5662305      1308.03  0.053171951  0.052973984            2 
 2051000    0.9194622   -4.5894625     1300.007  0.052820049  0.052962429            4 
 2052000   0.92604087   -4.6049317    1298.6382  0.052738717  0.052950532            4 
 2053000   0.91707354   -4.6192707    1295.9563  0.052604169  0.052938622            3 
 2054000   0.94307729   -4.5939783    1300.6478  0.052768898  0.052926819            5 
 2055000   0.93904047    -4.565457     1301.042  0.052759206  0.052914755            5 
 2056000    0.9266868   -4.5977014    1302.5211  0.052793493   0.05290286            5 
 2057000   0.90447471   -4.5614243    1306.8517  0.052943269  0.052891018            3 
 2058000   0.93757224   -4.6024863     1305.216  0.052851313  0.052879168            9 
 2059000   0.94668203   -4.5714186    1299.9364  0.052611965   0.05286727            3 
 2060000   0.91491181   -4.5860651    1304.3126  0.052763456  0.052855505            2 
 2061000    0.9452629   -4.6042228     1301.979  0.052643499   0.05284334            6 
 2062000   0.91349923   -4.5961728    1302.7647  0.052649722  0.052831286            4 
 2063000    0.9250598   -4.5781521     1301.967  0.052591976  0.052819409            3 
 2064000   0.92026527   -4.6101054    1299.5425  0.052468609  0.052807277           10 
 2065000   0.91627654   -4.5622487    1304.2857  0.052634612  0.052795183            2 
 2066000   0.91221203    -4.575897    1303.2051   0.05256555  0.052783274            3 
 2067000   0.91715995   -4.5845953    1305.5371  0.052634136  0.052771223            6 
 2068000   0.90596914   -4.5882604    1305.2219  0.052595981  0.052759099            3 
 2069000   0.91770573   -4.5703443    1309.9563  0.052761249  0.052747087            8 
 2070000   0.92808543    -4.601791    1304.0794   0.05249917  0.052735106            6 
 2071000   0.89889627   -4.5801311    1309.2306  0.052681097  0.052723129            2 
 2072000   0.91726576   -4.5759976    1305.6111  0.052510099  0.052710858            5 
 2073000   0.92641686    -4.562703    1305.4705  0.052479116  0.052698527            7 
 2074000    0.9132691   -4.5994031    1308.4231  0.052572448  0.052686179            4 
 2075000    0.9058273   -4.6272282    1301.1828  0.052256338  0.052673809            4 
 2076000   0.92176372   -4.5751124    1312.8289  0.052698654  0.052661574            5 
 2077000   0.91833785   -4.5815196    1308.1972  0.052487451  0.052649283            6 
 2078000   0.92501073   -4.5971846    1310.7873  0.052566063   0.05263717            2 
 2079000   0.90777149   -4.5837012     1308.087   0.05243254  0.052624974            3 
 2080000    0.9237173   -4.5926562    1309.5029  0.052464057  0.052612769            6 
 2081000   0.90400027   -4.5903795    1308.2032  0.052386802  0.052600633            3 
 2082000   0.92460385   -4.5738417    1309.6825   0.05242085  0.052588395            5 
 2083000   0.91562912   -4.5659795    1307.8861  0.052323814  0.052576197            4 
 2084000   0.92269321   -4.5909449    1308.0443  0.052305035  0.052563927            7 
 2085000   0.90438528   -4.6001516    1309.7705  0.052348941  0.052551765            3 
 2086000   0.90765721   -4.5831564    1309.3991  0.052309008  0.052539548            6 
 2087000   0.93467611   -4.5797443    1308.3394   0.05224163  0.052527374            5 
 2088000   0.91324962     -4.58649     1308.209  0.052211407  0.052515176            4 
 2089000   0.89869909   -4.5993967    1309.6248  0.052242892  0.052502874            3 
 2090000   0.92735946   -4.5723723    1314.3337  0.052405651  0.052490676            2 
 2091000   0.92918141   -4.6051961    1310.9732  0.052246659  0.052478554            4 
 2092000   0.91222537   -4.5740902    1310.0476  0.052184816  0.052466343            3 
 2093000   0.91838977   -4.5834843    1317.4053  0.052452829  0.052454381            5 
 2094000   0.90119954   -4.6105778    1316.8096  0.052404076  0.052442352            6 
 2095000    0.9062598   -4.5929965    1315.3231  0.052319933   0.05243037            3 
 2096000   0.93177847   -4.5993198    1314.1549  0.052248525  0.052418553            4 
 2097000   0.90536923   -4.6005488    1316.6729  0.052323673  0.052406687            4 
 2098000   0.90435913    -4.598684    1317.7635  0.052342054  0.052394923            3 
 2099000   0.91991388    -4.613784    1317.7083  0.052314923  0.052383053            4 
 2100000   0.91664817   -4.5980749    1322.1511  0.052466313  0.052371449            2 
 2101000   0.91196833   -4.5604174     1317.543  0.052258569  0.052359714            5 
 2102000   0.92662981    -4.567523    1317.4098  0.052228427  0.052348037            6 
 2103000   0.92351179   -4.5731664     1320.434  0.052323426  0.052336404            2 
 2104000   0.90529256   -4.5967517    1315.6675   0.05210977  0.052324803            3 
 2105000   0.91404097   -4.5813604    1322.6764  0.052362488  0.052313211            2 
 2106000   0.92261719   -4.6231226    1319.4448  0.052209751  0.052301747            3 
 2107000   0.91764459   -4.5919975    1323.9833  0.052364471  0.052290162            4 
 2108000   0.90920457   -4.5725124    1327.0738  0.052461805  0.052278571            3 
 2109000   0.92852842   -4.5961201    1319.9734  0.052156371  0.052266959            3 
 2110000   0.89541729   -4.5741427     1323.916   0.05228736  0.052255315            5 
 2111000    0.9452545   -4.6353124     1328.455  0.052441772  0.052243938            3 
 2112000   0.93134535   -4.6181708    1322.5476  0.052183856  0.052232329            5 
 2113000   0.91662575    -4.603594    1327.6304  0.052359614  0.052220854            4 
 2114000   0.93336765   -4.5759784    1329.2084  0.052397051  0.052209287            3 
 2115000   0.89233973   -4.6034186    1324.4392  0.052184366   0.05219786            7 
 2116000   0.90330176   -4.5902248    1326.1057  0.052225334  0.052186172            3 
 2117000   0.91111334   -4.5973228    1328.1534  0.052281269   0.05217428            3 
 2118000   0.93715465    -4.595955    1328.9185   0.05228669  0.052162774            4 
 2119000   0.91944704   -4.5806766    1329.7837  0.052296038   0.05215127            4 
 2120000    0.9041626   -4.6210409    1325.1158  0.052087886  0.052139789            4 
 2121000   0.90916617   -4.5863133    1330.3745  0.052269941  0.052128194            4 
 2122000   0.92286315   -4.5938199    1324.1075  0.051999196  0.052116862            5 
 2123000   0.90565192   -4.6050096     1330.394  0.052221465  0.052105383            3 
 2124000   0.92926343   -4.6393172    1323.2713  0.051917426  0.052093862            8 
 2125000   0.90530647   -4.5658391    1330.9306  0.052193357   0.05208229            3 
 2126000    0.9101725   -4.5978451     1332.163  0.052217113  0.052070805            3 
 2127000   0.90019933    -4.606013    1331.2328  0.052156122  0.052059223            5 
 2128000   0.88842309   -4.6105922    1325.7463  0.051916757  0.052047394            5 
 2129000   0.92791696   -4.6378893    1329.3845  0.052034778  0.052035705            3 
 2130000   0.93375394   -4.5891332    1331.1156  0.052078075  0.052024105            2 
 2131000   0.90115135   -4.6242029    1326.4178   0.05186993  0.052012536            5 
 2132000    0.8943043   -4.5721659     1331.698  0.052051987  0.052000879            6 
 2133000   0.90128775   -4.6423784    1328.5633  0.051905114  0.051989318            2 
 2134000   0.90906918   -4.6039841    1330.1579  0.051943059  0.051977686            3 
 2135000   0.93894258   -4.6169827    1330.1058  0.051916697  0.051965943            4 
 2136000   0.91602319   -4.6102551    1329.6861   0.05187602  0.051954417            2 
 2137000   0.93691703   -4.6115724    1332.2604  0.051952128  0.051942875            4 
 2138000   0.90089984   -4.5902475    1330.8451  0.051872665  0.051931257            3 
 2139000   0.91135089   -4.6186469     1333.898  0.051967351   0.05191965            4 
 2140000   0.90842454   -4.5882317    1336.6749  0.052051204  0.051908323            5 
 2141000   0.90131183   -4.6075319     1332.531    0.0518656  0.051896591            4 
 2142000    0.9187537   -4.5666678    1334.8249  0.051930631  0.051884926            5 
 2143000   0.91856287   -4.6295851    1334.0818  0.051877502  0.051873427            9 
 2144000   0.90431003   -4.6423115     1332.251  0.051782143  0.051861672            5 
 2145000   0.90896533   -4.6041581    1334.7552  0.051855291  0.051850013            2 
 2146000   0.91598579   -4.6268261    1334.7601  0.051831318  0.051838472            4 
 2147000   0.90661423   -4.6098744    1337.6055  0.051917618  0.051826645            4 
 2148000   0.91833451   -4.6209764    1330.7632  0.051627995  0.051814953            4 
 2149000   0.90706825   -4.6043352    1337.2815  0.051856734  0.051803276            6 
 2150000    0.9141217   -4.6014783    1333.8858  0.051700998  0.051791597            4 
 2151000   0.90543704   -4.5982075    1334.1201  0.051686041  0.051779903            4 
 2152000   0.91717848   -4.6261498    1335.3538  0.051709796  0.051768187            3 
 2153000   0.90316012   -4.6120024    1333.5812  0.051617168  0.051756562            4 
 2154000   0.92169615   -4.6027838    1342.4404  0.051935949   0.05174508            5 
 2155000   0.89378857   -4.6427318    1340.1446  0.051823069  0.051733422            6 
 2156000   0.91716943   -4.6206046    1337.5312   0.05169802  0.051721813            5 
 2157000   0.90740024   -4.6259178    1337.2528  0.051663299  0.051710213            3 
 2158000   0.90590108   -4.6026978    1339.9452  0.051743327  0.051698718            3 
 2159000   0.90731147    -4.621562    1341.7533  0.051789148  0.051687115            4 
 2160000   0.92744268   -4.6314937     1338.627  0.051644562  0.051675392            4 
 2161000   0.90822313   -4.6084259    1338.9208  0.051631991  0.051663641            4 
 2162000   0.90714489   -4.6066495    1341.8486  0.051720961  0.051652015            5 
 2163000   0.90286674   -4.5970823    1340.7138  0.051653328  0.051640562            5 
 2164000   0.90681898   -4.6135585    1343.5234  0.051737656  0.051629193            9 
 2165000    0.9077788   -4.6123451    1341.9377  0.051652721  0.051617755            5 
 2166000   0.91650995   -4.6265738     1347.038    0.0518251  0.051606492            4 
 2167000    0.9188307   -4.6020361    1341.0493  0.051570887  0.051595099            6 
 2168000   0.89061102   -4.6238201    1346.1066   0.05174149  0.051583742            9 
 2169000   0.90223506   -4.6302254    1344.1558  0.051642684  0.051572307            6 
 2170000   0.89559835   -4.6222982     1345.593  0.051674078  0.051560955            4 
 2171000   0.88401236   -4.6050126    1343.7766  0.051580553  0.051549423            6 
 2172000   0.89736465   -4.6375192    1345.2293   0.05161254  0.051537923            4 
 2173000   0.92451876   -4.6352251    1345.2409  0.051589237  0.051526311            3 
 2174000   0.89769137   -4.6324603    1344.5047  0.051537287  0.051514703            4 
 2175000   0.94265979   -4.5899641    1346.2386  0.051580023  0.051503201            4 
 2176000   0.90755622   -4.5990489    1346.6133  0.051570668  0.051491527            2 
 2177000   0.92312574   -4.6269691     1347.742  0.051590186  0.051480149            5 
 2178000   0.89591006   -4.5903442    1351.2851  0.051702063  0.051468581            3 
 2179000    0.9140865   -4.6027199    1349.5615  0.051612419  0.051457147            4 
 2180000   0.91651172   -4.6210127    1347.8478  0.051523235  0.051445807            3 
 2181000   0.89374782    -4.611973    1349.4869  0.051562239  0.051434582            2 
 2182000   0.89487079   -4.6040628    1348.7347   0.05150988  0.051423282            3 
 2183000   0.90525525   -4.6061023     1353.395  0.051664187  0.051411918            6 
 2184000   0.91597186   -4.5824145    1349.7345  0.051500857   0.05140049            7 
 2185000   0.89680669   -4.5837614    1354.1385  0.051645253  0.051389114            2 
 2186000   0.91092417   -4.6142177    1350.0078  0.051464159  0.051377704            4 
 2187000   0.90929933   -4.6059536    1349.5701  0.051423949  0.051366285            4 
 2188000   0.92290414   -4.6070381    1351.5669  0.051476496  0.051354833            4 
 2189000   0.88185289    -4.626763     1347.464  0.051296786  0.051343393            7 
 2190000   0.89525618   -4.6424328     1348.989  0.051331394   0.05133206            2 
 2191000    0.8912651   -4.6055602     1353.588  0.051482883  0.051320644            5 
 2192000   0.91010981   -4.6247376    1353.4472  0.051454044  0.051309443            4 
 2193000   0.90877365   -4.6157461    1352.6085  0.051398713  0.051298139            6 
 2194000   0.90194641     -4.64382    1349.1473   0.05124382  0.051286814            2 
 2195000   0.90753431   -4.6254411    1349.6545  0.051239731  0.051275382            4 
 2196000   0.89077067    -4.603629     1357.023  0.051496016  0.051263897            3 
 2197000   0.89024834   -4.6385055    1351.0729  0.051246886  0.051252507            4 
 2198000   0.90328087   -4.6070467    1355.6839  0.051398387  0.051241282            5 
 2199000   0.89646752    -4.621042    1354.9011  0.051345351  0.051229938            5 
 2200000    0.8883293   -4.6097848     1354.553  0.051308827  0.051218593            3 
 2201000   0.88576705   -4.6189687    1352.7183   0.05121605  0.051207252            4 
 2202000   0.90405923   -4.5925513    1358.6537  0.051417413  0.051196042            5 
 2203000    0.9047687   -4.5846787    1357.3609  0.051345168  0.051184599            2 
 2204000   0.89022848   -4.6129814    1361.3223  0.051471652  0.051173295            4 
 2205000   0.91476676   -4.6257334     1357.603  0.051307748  0.051161923            8 
 2206000    0.8919379   -4.6294245    1352.7757  0.051102136  0.051150616            3 
 2207000   0.91562975   -4.6387135     1352.439  0.051066265  0.051139059            3 
 2208000   0.88884183    -4.634625    1353.3588  0.051077855  0.051127493            3 
 2209000   0.87672699     -4.60984     1356.454  0.051171496  0.051115979            4 
 2210000   0.91172679    -4.610537    1356.1225  0.051135839  0.051104445            6 
 2211000    0.8985154   -4.6463117    1353.7002  0.051021414  0.051092785            4 
 2212000    0.8928313   -4.6419413    1355.8413  0.051079011  0.051081128            3 
 2213000   0.88434913   -4.6300997    1358.6691  0.051162415  0.051069563            6 
 2214000   0.93025645   -4.6168114    1352.5523  0.050909074   0.05105805            4 
 2215000    0.9000804   -4.6098428    1359.2317  0.051137386  0.051046537            3 
 2216000   0.89504211   -4.6242163    1358.4679  0.051085585  0.051034933            4 
 2217000   0.89850379   -4.6337848     1360.207  0.051127913  0.051023343            7 
 2218000   0.90769517   -4.6124837    1363.9119   0.05124406  0.051012009            3 
 2219000   0.85503467   -4.6498874    1358.7414  0.051026792  0.051000439            4 
 2220000   0.88017062   -4.6324141    1357.9546  0.050974272  0.050988813            3 
 2221000    0.8838951   -4.6435865    1359.8346  0.051021858  0.050977209            6 
 2222000   0.89647041   -4.6135131    1357.5877   0.05091463  0.050965463            4 
 2223000   0.91347398   -4.6585041    1356.8942  0.050865728  0.050953771            7 
 2224000   0.89084543    -4.616275    1360.4647  0.050976646  0.050942071            5 
 2225000    0.9069735   -4.6292583     1358.877  0.050894268  0.050930212            3 
 2226000   0.89174684   -4.6340069    1360.4848  0.050931598  0.050918392            3 
 2227000   0.88728836   -4.6445041     1358.112  0.050819939  0.050906621            3 
 2228000   0.88341668    -4.614505     1355.736  0.050708257   0.05089462            3 
 2229000   0.88764342   -4.6396395    1357.2963  0.050743843  0.050882749            3 
 2230000   0.88646524   -4.6238797    1360.6127  0.050845017  0.050870751            6 
 2231000   0.89977489   -4.6156095    1355.0047  0.050612756  0.050858943            8 
 2232000   0.88387094   -4.6276607    1358.3732  0.050715845  0.050847115            2 
 2233000    0.8831479   -4.6067485    1364.5295  0.050922881  0.050835451            3 
 2234000   0.90447812   -4.6551824     1355.201  0.050552112  0.050823581           10 
 2235000   0.86998156   -4.6498109    1362.0592  0.050785204  0.050811614            4 
 2236000   0.87493761   -4.6193573      1360.04  0.050687238  0.050799744            6 
 2237000   0.88323941   -4.6393487    1361.7092   0.05072676  0.050787867            2 
 2238000   0.89740097   -4.6297902    1363.8776  0.050784839  0.050775882            2 
 2239000   0.89755549   -4.6118172    1365.6527  0.050828224  0.050764107            5 
 2240000   0.90865125   -4.6477216    1363.2286  0.050715351  0.050752392            5 
 2241000   0.90073641   -4.6514991     1359.034  0.050536738  0.050740672            5 
 2242000   0.89117126   -4.6244849    1363.6841  0.050687038  0.050728713            5 
 2243000   0.86433347   -4.6238831    1359.6122   0.05051316  0.050716806            4 
 2244000   0.88861372   -4.6815179    1357.1726  0.050400053  0.050704822            6 
 2245000   0.90463932   -4.6376732    1363.4135  0.050609261  0.050692972            2 
 2246000   0.88680452   -4.6257587    1364.7773   0.05063733  0.050681099            6 
 2247000   0.88949329   -4.6248536     1362.152   0.05051743  0.050669244            4 
 2248000   0.89753616   -4.6257738    1359.9263  0.050412451  0.050657429            4 
 2249000   0.87956855   -4.6564209    1363.6516  0.050528071  0.050645461            6 
 2250000   0.91273268    -4.643134    1362.2768  0.050454695  0.050633531            9 
 2251000   0.89213933   -4.6392245    1366.0376   0.05057151  0.050621877            4 
 2252000   0.88525813   -4.6107801    1369.5904  0.050680521  0.050610045            2 
 2253000   0.86821082   -4.6452744    1364.8208  0.050481611  0.050598375            6 
 2254000   0.90418689   -4.6371198    1372.1146  0.050728874  0.050586495            3 
 2255000    0.8786202   -4.6198393     1367.504  0.050535994  0.050574791            3 
 2256000   0.88250087   -4.6599052    1367.1019   0.05049874  0.050563045            5 
 2257000   0.89379711   -4.6429151    1367.0648  0.050474998  0.050551228            9 
 2258000   0.89230788   -4.6680406    1368.5383  0.050507022  0.050539619            4 
 2259000   0.88542909   -4.6396383    1365.7391  0.050381405  0.050527846            3 
 2260000   0.92491312   -4.6362814    1369.0314  0.050480508  0.050516232            2 
 2261000   0.89943007   -4.6651905    1368.4538  0.050436893  0.050504617            7 
 2262000   0.89927441   -4.6648812    1365.8459   0.05031852  0.050492714            2 
 2263000   0.86797316   -4.6387955    1371.5313  0.050505644  0.050480923            7 
 2264000   0.88918832   -4.6439608    1366.8816  0.050312191  0.050469147            6 
 2265000   0.88099135   -4.6620814    1367.7284  0.050321133  0.050457256            6 
 2266000   0.88327823   -4.6374781     1370.566  0.050403279  0.050445353            4 
 2267000   0.88440851   -4.6225628    1374.0125   0.05050774  0.050433613            3 
 2268000    0.9011751   -4.6488753    1367.8068  0.050257452  0.050421651            4 
 2269000   0.87518187   -4.6307457    1370.5673  0.050336686  0.050409775            3 
 2270000   0.87974853   -4.6591343    1371.5577   0.05035087  0.050397887            3 
 2271000   0.88157785   -4.6309314    1368.9249  0.050232089  0.050385919            4 
 2272000   0.86727098   -4.6714091    1367.5538  0.050159689   0.05037401            6 
 2273000   0.88677694   -4.6499306    1373.1708  0.050343557  0.050362103            5 
 2274000   0.89676866   -4.6501441    1375.2877  0.050398994  0.050350207            3 
 2275000   0.90562329    -4.643244    1371.7038  0.050245559  0.050338349            7 
 2276000   0.88184769   -4.6458644    1376.2299  0.050389201  0.050326594            8 
 2277000   0.86894705   -4.6722605     1373.456  0.050265553  0.050314792            7 
 2278000   0.88966044    -4.623231    1378.2662  0.050419456  0.050303013            8 
 2279000   0.88558113   -4.6228651    1375.6125  0.050300296  0.050291274            4 
 2280000   0.89079295   -4.6684996    1371.9998  0.050146191  0.050279575            5 
 2281000   0.88560854   -4.6343939    1373.5669  0.050181461  0.050267679            3 
 2282000   0.89989907   -4.6239379    1378.3834  0.050335357  0.050255835            4 
 2283000   0.88697329   -4.6270836    1372.5938  0.050101978  0.050243852            3 
 2284000   0.89022842   -4.6359712    1374.7562  0.050158937  0.050231943            5 
 2285000   0.88981177   -4.6766531    1372.4354  0.050052348  0.050220141            3 
 2286000   0.87346478   -4.6549049    1377.2669   0.05020658  0.050208344            5 
 2287000   0.88726272   -4.5991056    1378.3336  0.050223495  0.050196762            3 
 2288000   0.88182019   -4.6296725    1381.8011  0.050327839   0.05018523            3 
 2289000   0.89829726   -4.6392393    1377.1228  0.050135531  0.050173513            7 
 2290000   0.89225091   -4.6390403    1373.9258    0.0499973  0.050161727            4 
 2291000   0.86352822    -4.662215    1374.1109   0.04998221   0.05014976           10 
 2292000    0.8794167   -4.6532829    1379.9975  0.050174428  0.050137847           11 
 2293000   0.89429176   -4.6444596    1374.6072  0.049956649   0.05012604            3 
 2294000     0.897671   -4.6637843    1372.5037   0.04985846  0.050114068            3 
 2295000   0.86856071   -4.6349865    1378.6507   0.05005994  0.050102059            5 
 2296000   0.85399091   -4.6481396    1378.2155  0.050022338  0.050090306            3 
 2297000   0.85854796   -4.6782475    1372.6708  0.049799405  0.050078385            4 
 2298000   0.87628694   -4.6519247    1376.8712  0.049930057  0.050066431            3 
 2299000   0.88383007   -4.6546956    1377.2292  0.049921314  0.050054622            4 
 2300000   0.88884222    -4.630614    1379.7238  0.049989993  0.050042898            7 
 2301000    0.8849454   -4.6143506    1381.5572  0.050034667   0.05003108            2 
 2302000   0.86839951   -4.6557278    1378.7046  0.049909665  0.050019241            4 
 2303000   0.88609016   -4.6227168    1381.3517  0.049983778  0.050007452            3 
 2304000   0.87803909   -4.6284115    1384.3545  0.050070692  0.049995562            3 
 2305000   0.88615793   -4.6791621    1380.4963  0.049909482  0.049983817            7 
 2306000   0.88056908   -4.6686529    1382.2917   0.04995272  0.049971948            5 
 2307000   0.87607987   -4.6521257    1383.5146  0.049975243  0.049960136            4 
 2308000   0.87178832    -4.638927    1387.7125   0.05010516  0.049948306            3 
 2309000   0.88319367   -4.6586453    1378.0039   0.04973307  0.049936297            4 
 2310000   0.88111048   -4.6701747    1378.2816  0.049721558  0.049924412            9 
 2311000   0.88646533   -4.6308554    1382.3935  0.049848317  0.049912694            4 
 2312000   0.88328466   -4.6872302     1377.519  0.049651059  0.049900719            9 
 2313000   0.88983305   -4.6972222    1382.7243  0.049817132  0.049888795            3 
 2314000   0.87268354   -4.6634821    1381.6658  0.049757483  0.049876964            4 
 2315000   0.86473277   -4.6347542    1381.9683  0.049746878  0.049865106            6 
 2316000   0.86755472   -4.6644233     1383.502  0.049780585  0.049853267            4 
 2317000   0.86741083   -4.6333646    1385.3668  0.049826169  0.049841449            4 
 2318000   0.86282856   -4.6478914    1385.7358  0.049817939  0.049829597            5 
 2319000   0.86737976   -4.6586878    1382.4652  0.049678929  0.049817679            5 
 2320000   0.86827301   -4.6619324    1383.1879  0.049683472  0.049805627            7 
 2321000   0.86851434   -4.6733021    1380.9685  0.049582382  0.049793537            4 
 2322000   0.89175841   -4.6917676    1384.1415  0.049674903  0.049781611            2 
 2323000   0.87888344    -4.655196    1382.6018  0.049598284  0.049769605            4 
 2324000   0.87085912   -4.6449887    1385.9915   0.04969849  0.049757642            2 
 2325000   0.86360593   -4.6697751    1388.7203   0.04977492  0.049745928            2 
 2326000   0.88425044   -4.6621746    1383.4746  0.049565586   0.04973407            5 
 2327000   0.87749952   -4.6458972     1387.571  0.049690984  0.049722131            2 
 2328000   0.88502117   -4.6618271    1382.2664  0.049479755  0.049710242            7 
 2329000   0.88484873    -4.655374    1388.3841  0.049677405   0.04969841            6 
 2330000   0.88013843   -4.6727362    1387.9289  0.049639802  0.049686552            4 
 2331000   0.88785803   -4.6590096    1388.8988  0.049653182  0.049674766            4 
 2332000   0.87279715   -4.6436276    1390.1701  0.049677318  0.049662909            4 
 2333000   0.89734965   -4.6876466    1387.0725  0.049545381  0.049651202            3 
 2334000   0.86220548    -4.660235    1391.9512  0.049698343  0.049639567            4 
 2335000   0.88279952   -4.6832175    1390.5538  0.049627188  0.049627823            3 
 2336000   0.88407781   -4.6659359    1395.3475   0.04977695  0.049616186            2 
 2337000   0.87149297   -4.6616972    1394.2457  0.049716364  0.049604552            6 
 2338000   0.87940271    -4.670392    1393.7359  0.049676929  0.049592887            3 
 2339000    0.8822176   -4.7068618    1391.0915  0.049561475  0.049581217            4 
 2340000    0.8904661   -4.6792087    1384.9218  0.049320576  0.049569533            4 
 2341000   0.90248711   -4.6498372    1392.9938  0.049586851   0.04955788            2 
 2342000   0.86701082   -4.6682003    1395.2779  0.049646951  0.049546341            4 
 2343000   0.86148763   -4.6752346    1393.1254  0.049549203  0.049534769            6 
 2344000   0.87811391   -4.6496893    1394.6528  0.049582367  0.049523375            3 
 2345000   0.86198527   -4.6815045    1391.8651  0.049462159  0.049511648            6 
 2346000   0.87403737   -4.6837787    1390.4029  0.049389134  0.049499961            5 
 2347000   0.85725995   -4.6881887    1393.6814  0.049484497  0.049488173            4 
 2348000   0.87297735   -4.6577651    1394.7903  0.049502778  0.049476647            2 
 2349000   0.88041004   -4.6681415    1396.1361  0.049529447  0.049465153            4 
 2350000   0.86099461   -4.7144999    1396.0183  0.049504194  0.049453556            7 
 2351000   0.85828494   -4.6753564    1394.2335  0.049419873  0.049442015            2 
 2352000   0.87427694   -4.6642381    1397.3962  0.049510921  0.049430446            4 
 2353000   0.89632169   -4.6748399    1396.4438  0.049456149   0.04941883            4 
 2354000   0.89151174   -4.6718806    1400.0504  0.049562816  0.049407198            2 
 2355000   0.89658457    -4.673435    1390.1631  0.049191901   0.04939554            6 
 2356000   0.87640663    -4.686176    1395.5366  0.049361084  0.049383875           12 
 2357000   0.88320932   -4.6679009    1394.8606  0.049316244  0.049372323            3 
 2358000    0.8675032   -4.6614509    1395.3826  0.049313777  0.049360754            6 
 2359000   0.83959025   -4.6931369    1393.5079  0.049226645  0.049349296            3 
 2360000   0.86854538    -4.671657    1398.1428  0.049369449  0.049337674            3 
 2361000   0.87022274   -4.6780355    1393.4109  0.049181524  0.049325853            7 
 2362000   0.86517403   -4.6895336    1396.0298  0.049253099  0.049314006            5 
 2363000   0.87550883   -4.6643429     1400.614  0.049393921  0.049302173            3 
 2364000   0.87662347   -4.6701941    1399.1846  0.049322637   0.04929039            3 
 2365000   0.88876074   -4.6500036    1398.9332  0.049292923  0.049278843            2 
 2366000   0.86380517   -4.6640218    1398.4334  0.049254489  0.049267281            4 
 2367000   0.85643579   -4.6744324    1396.6549  0.049171065  0.049255544            5 
 2368000   0.86920304      -4.6735    1398.8822   0.04922868  0.049243876            4 
 2369000    0.8632544   -4.6635258    1403.5832  0.049373265  0.049232184            4 
 2370000   0.91205143   -4.6825918    1398.9983  0.049191219  0.049220525            4 
 2371000   0.87559852   -4.6641059    1398.5501   0.04915472  0.049209023            3 
 2372000   0.87514003   -4.6835412    1401.4269  0.049235065  0.049197361            7 
 2373000    0.8562048   -4.6470792    1403.1313  0.049274172  0.049185668            5 
 2374000   0.85645371   -4.6979888    1397.4997  0.049055734  0.049174101            4 
 2375000   0.87946059     -4.68096    1405.7627  0.049325007  0.049162453            6 
 2376000    0.8784713   -4.6899667    1397.9137  0.049028959  0.049150996            4 
 2377000   0.88047098    -4.689791    1403.6927  0.049210934  0.049139371            4 
 2378000   0.86136905   -4.6935638    1404.1279  0.049205491  0.049127743            4 
 2379000    0.9003909   -4.6920944    1403.0777  0.049148022  0.049116103            2 
 2380000   0.85725415   -4.6865951     1405.027  0.049195624  0.049104602            4 
 2381000   0.87054936   -4.6556144    1404.5215   0.04915727  0.049093005            5 
 2382000   0.86356655   -4.6858425    1405.1156  0.049157418  0.049081455            6 
 2383000   0.88368245   -4.6662293    1407.0403  0.049204095  0.049069814            6 
 2384000   0.86921035   -4.7123392    1404.5502  0.049096415  0.049058268            3 
 2385000   0.86981941   -4.6715996    1409.0554  0.049233243  0.049046751            4 
 2386000   0.86552268   -4.6819216    1405.8856  0.049101902  0.049035201            6 
 2387000   0.86574673   -4.6662485    1408.0766  0.049157821  0.049023642            8 
 2388000   0.86483518    -4.673698    1403.8009  0.048988026  0.049012126           10 
 2389000   0.88011719    -4.660943     1408.895  0.049145214  0.049000502            3 
 2390000   0.87875619   -4.7092313     1404.738  0.048979708  0.048988998            8 
 2391000   0.84658452   -4.6945567    1407.1358  0.049042792  0.048977596           10 
 2392000   0.88620601   -4.6868714    1408.3463  0.049064462  0.048966143            3 
 2393000   0.86937473   -4.7092872    1406.9096  0.048993926  0.048954575            3 
 2394000   0.87480253   -4.6631186    1409.7389  0.049071947  0.048942859            3 
 2395000   0.87252433   -4.6627972    1410.5344  0.049079137  0.048931477            4 
 2396000    0.8780874   -4.6888576    1407.4002  0.048949644  0.048920047            4 
 2397000   0.86597477   -4.6586972    1411.6805   0.04907803  0.048908651            9 
 2398000   0.85386928   -4.6773267    1409.4002  0.048978322  0.048897284            4 
 2399000   0.88109289   -4.6523625    1413.9703  0.049116658  0.048886048            6 
 2400000    0.8721864   -4.6774154     1412.172   0.04903375  0.048874686            5 
 2401000   0.85618882   -4.6732114     1412.549  0.049026412  0.048863262            6 
 2402000   0.85494734    -4.702204    1409.2607  0.048891922  0.048851818            3 
 2403000   0.88181142     -4.69683    1410.0296  0.048898238  0.048840462            3 
 2404000   0.86280245   -4.6741453     1417.447  0.049135017  0.048829015            5 
 2405000   0.84378103    -4.665391    1411.5387  0.048909865  0.048817546            3 
 2406000   0.85852079   -4.6797241    1413.8669  0.048970174  0.048806136            4 
 2407000   0.87761814   -4.7047063    1411.2864  0.048860492   0.04879471           11 
 2408000   0.86941994   -4.6915824    1413.4828  0.048916209  0.048783321            4 
 2409000   0.87310092   -4.7049284    1416.1268  0.048987368  0.048772073           13 
 2410000   0.87099193   -4.7095736    1412.5297  0.048842657  0.048760499            3 
 2411000   0.86351158   -4.6900778    1413.9864  0.048872751  0.048748911            6 
 2412000   0.85624214   -4.7060289    1411.4432   0.04876462  0.048737283            5 
 2413000    0.8788457   -4.7075817    1410.7373  0.048720032   0.04872583            3 
 2414000   0.84685989   -4.6788574    1412.8199  0.048771746   0.04871428            7 
 2415000   0.87363937   -4.7033284    1415.2716  0.048836148  0.048702788            2 
 2416000    0.8618552   -4.7204479    1415.0669  0.048808874  0.048691521            8 
 2417000   0.86275272   -4.6935002    1412.4656  0.048698993  0.048680082            4 
 2418000   0.85934172   -4.6806141    1414.3757  0.048744682  0.048668674            6 
 2419000   0.86687483   -4.6708293     1416.685  0.048804087  0.048657223            6 
 2420000   0.88169068   -4.6950251    1413.8794  0.048687306  0.048645682            5 
 2421000   0.86357042   -4.6901151    1413.7881  0.048664056   0.04863422            7 
 2422000   0.87840565   -4.6719417    1417.7428  0.048780031  0.048622894            4 
 2423000   0.87447856   -4.6973124    1415.5751  0.048685345  0.048611513            3 
 2424000    0.8578161   -4.7070408    1418.0002  0.048748633  0.048599998            4 
 2425000   0.86347293   -4.6994278    1423.9966  0.048934591  0.048588768            4 
 2426000   0.85024919   -4.6699056    1415.4613  0.048621232  0.048577249            4 
 2427000   0.85767696   -4.7113883    1413.9947  0.048550842  0.048565632            5 
 2428000   0.86277878   -4.7160081    1414.3133  0.048541781  0.048554149            4 
 2429000   0.88906732   -4.7065868    1419.3448  0.048694413  0.048542659            2 
 2430000   0.86891687   -4.6906983    1416.4677  0.048575711  0.048531283            5 
 2431000   0.87904084   -4.7338171    1416.9917  0.048573692  0.048519628            3 
 2432000   0.86860859   -4.6987669    1411.6314  0.048370044  0.048508025            4 
 2433000   0.86622998   -4.7016331    1414.7625  0.048457407  0.048496375            3 
 2434000   0.87093157   -4.6797007    1414.1147   0.04841532  0.048484764            8 
 2435000   0.85183741   -4.7091559    1417.0971  0.048497505  0.048473115            3 
 2436000   0.84754433   -4.6974489    1412.7895  0.048330237  0.048461304            1 
 2437000   0.87413455   -4.7105489    1416.2484  0.048428683  0.048449564            3 
 2438000   0.86241451   -4.6708763    1419.4544  0.048518403  0.048437872            5 
 2439000   0.85451574   -4.6973237    1413.0895  0.048281042   0.04842615            4 
 2440000   0.87093657   -4.6816882     1418.051  0.048430704  0.048414341            3 
 2441000   0.85333895   -4.6963391    1418.0339  0.048410279  0.048402443            4 
 2442000   0.84727274   -4.6767929    1416.3465  0.048332873  0.048390592            3 
 2443000   0.83875107   -4.7071393    1409.4606  0.048078205  0.048378625            8 
 2444000   0.85067548   -4.6902071    1417.2236  0.048323228  0.048366751            7 
 2445000   0.86102019   -4.6997576    1418.0072  0.048330169  0.048354901            3 
 2446000   0.85296402   -4.6829035    1421.3394  0.048423937   0.04834302            4 
 2447000   0.85292665   -4.7064288    1423.3938  0.048474111  0.048331164            2 
 2448000   0.84192855   -4.7037223    1417.9335  0.048268435   0.04831935            2 
 2449000   0.84492469   -4.6968422    1418.7234  0.048275602  0.048307592            3 
 2450000   0.84949531   -4.6958699    1418.1071  0.048234935  0.048295956            3 
 2451000   0.86338449   -4.6972164    1419.5574  0.048264565  0.048284264            4 
 2452000   0.86167925   -4.6733551    1426.6173  0.048484818  0.048272488            2 
 2453000   0.85118572   -4.6940938    1418.7723  0.048198542  0.048260802            2 
 2454000   0.84173065   -4.7076832    1419.0996  0.048190018  0.048248985            3 
 2455000   0.84753345   -4.7200354    1418.0573  0.048135008  0.048237183            4 
 2456000   0.84864351   -4.6958575    1419.5713  0.048166777    0.0482254            6 
 2457000   0.87722425   -4.7260658    1419.6738   0.04815065  0.048213715            6 
 2458000   0.85321152    -4.691388    1425.9894  0.048345177  0.048201923            3 
 2459000   0.86954838   -4.7005239    1420.8196  0.048150319  0.048190285            3 
 2460000   0.84676007    -4.742977    1418.4739  0.048051283  0.048178616            4 
 2461000   0.86304215    -4.693485     1421.875  0.048146926  0.048166983            3 
 2462000   0.84874007    -4.674949    1425.9512  0.048265338  0.048155434            3 
 2463000   0.84000292   -4.6755625    1424.1218  0.048183847  0.048143874            5 
 2464000   0.86088097   -4.6803785     1424.952  0.048192368  0.048132313            7 
 2465000   0.85751631   -4.7099735    1424.7275  0.048165231  0.048120711            6 
 2466000   0.85976134   -4.7037526    1423.1764  0.048093281  0.048109043            4 
 2467000   0.86169873   -4.6933333    1422.5471  0.048052531  0.048097387            7 
 2468000   0.85822725   -4.6902245    1421.6121   0.04800149  0.048085921            7 
 2469000   0.86813485   -4.6921791    1425.8978  0.048126698  0.048074211            7 
 2470000    0.8562643   -4.6939752    1427.4183  0.048158513  0.048062579            2 
 2471000   0.86042958   -4.7188497    1420.7043  0.047912597  0.048050976           11 
 2472000    0.8590495    -4.735609     1428.738  0.048164036  0.048039414            3 
 2473000   0.87239656   -4.6961228    1425.4147  0.048032574  0.048027922            4 
 2474000   0.84882911   -4.7255768    1423.6278   0.04795297  0.048016368            4 
 2475000   0.85875924   -4.7230703    1427.5896  0.048066989  0.048004931            6 
 2476000   0.84024489   -4.6888123    1432.4293  0.048210465  0.047993579            4 
 2477000   0.84866578   -4.7165772     1432.886  0.048206366  0.047982201            3 
 2478000   0.85117683   -4.7054322    1427.7861  0.048015405  0.047970769            4 
 2479000   0.85755612    -4.704543    1429.0992  0.048040177  0.047959145            4 
 2480000   0.84274272   -4.7090297     1427.719  0.047974427  0.047947676            6 
 2481000   0.87700999    -4.679934    1430.6106  0.048052215  0.047936221            2 
 2482000   0.85502305   -4.7137497    1431.0787  0.048048574  0.047924692            3 
 2483000   0.84880379   -4.7138301    1431.0871  0.048029503  0.047913234           10 
 2484000   0.87828845   -4.7229955    1428.3147   0.04791716  0.047901756            5 
 2485000   0.85405012    -4.697914    1429.3635  0.047933049  0.047890329            3 
 2486000   0.84132434   -4.7256657    1426.7589  0.047826457  0.047878713            4 
 2487000    0.8317682   -4.7160695    1429.3602   0.04789439  0.047867221            4 
 2488000   0.85273035   -4.7238621    1425.1024  0.047732528   0.04785575            4 
 2489000   0.84949931   -4.7209114    1427.9298  0.047808016  0.047844211            3 
 2490000   0.86721413   -4.7246778    1429.8052  0.047851578   0.04783277            7 
 2491000   0.87083105   -4.7170289    1431.8376   0.04790036  0.047821471            6 
 2492000   0.85476754   -4.6909128    1436.4819  0.048036447  0.047810083            5 
 2493000   0.86612443    -4.713899    1431.7928  0.047860436  0.047798717           11 
 2494000   0.84336398   -4.7072826    1430.7833  0.047807513  0.047787386            5 
 2495000   0.83841953   -4.7098615    1431.9212  0.047826359  0.047776019           11 
 2496000   0.84655836   -4.7171805    1433.4524  0.047858321   0.04776453            3 
 2497000   0.84513932   -4.7583288    1429.9374  0.047721846  0.047752904            3 
 2498000     0.872987   -4.7427593    1430.4237  0.047718966  0.047741326            2 
 2499000   0.86818591   -4.7016063    1433.5416  0.047803842  0.047729756            4 
 2500000   0.85073907   -4.7203707     1435.666  0.047855533  0.047718235            5 
 2501000   0.86849412    -4.706429    1433.9478  0.047779149  0.047706644            5 
 2502000   0.85779264   -4.7308691    1432.9854  0.047727998  0.047695185            3 
 2503000   0.86521629   -4.7224496    1435.0255  0.047776851  0.047683559           11 
 2504000   0.85869677   -4.7329959    1429.4143  0.047571029  0.047671972            7 
 2505000   0.85287374   -4.7075135    1435.6138  0.047758276  0.047660602            4 
 2506000   0.84921636   -4.7036521    1431.9712  0.047618091  0.047649056           10 
 2507000   0.84178807   -4.7080486    1438.2267  0.047807029  0.047637455            3 
 2508000   0.85308376   -4.6863676    1439.2449    0.0478218  0.047626023            6 
 2509000   0.84618378   -4.6942362    1440.5765  0.047846967  0.047614621            4 
 2510000   0.84051181    -4.739307    1435.0987  0.047646038  0.047603155            6 
 2511000   0.84001135   -4.7296508    1433.1372  0.047561968  0.047591565            4 
 2512000   0.85608516     -4.70475    1437.4566  0.047686326   0.04757992            5 
 2513000   0.84597506   -4.7076218     1435.859  0.047614371  0.047568342            4 
 2514000   0.83263888   -4.7179235      1433.62  0.047521216  0.047556838            8 
 2515000    0.8401154    -4.749979    1433.8375  0.047509525   0.04754533            5 
 2516000   0.84445841   -4.7280116     1438.484  0.047644541   0.04753384            3 
 2517000   0.84294965   -4.6935955    1437.6667  0.047598554  0.047522338            5 
 2518000   0.85105297   -4.7060871    1437.2876  0.047567103  0.047510914            2 
 2519000   0.84723889   -4.7203561    1432.7542  0.047398246  0.047499325            4 
 2520000   0.83056191   -4.7378047    1436.6467  0.047508159  0.047487792            4 
 2521000   0.82747296    -4.725753    1432.2453   0.04734382  0.047476247            5 
 2522000   0.84369615   -4.7286447    1439.4495  0.047563094  0.047464609            5 
 2523000   0.85095869   -4.7251866    1438.6224  0.047516926  0.047453148            5 
 2524000   0.86485011    -4.728604    1434.8531  0.047373651  0.047441691            3 
 2525000   0.84124333   -4.7555965    1439.6359  0.047512737  0.047430142            4 
 2526000   0.83468693   -4.7194577    1442.4926  0.047588168  0.047418623            3 
 2527000   0.84627139    -4.733222    1434.5402   0.04730709  0.047407118            6 
 2528000   0.84034887   -4.7426205    1438.0393  0.047403721  0.047395574            6 
 2529000   0.84446204   -4.7277359    1438.7044  0.047406892  0.047383975            5 
 2530000   0.84789433   -4.7289296    1440.8147  0.047457665  0.047372404            3 
 2531000   0.85024077   -4.7304856    1443.4652  0.047526181  0.047360804            6 
 2532000   0.84170419   -4.7186104    1439.7019  0.047383553  0.047349154            5 
 2533000   0.85301424   -4.7296147    1438.7172  0.047332451  0.047337503            4 
 2534000   0.86610011   -4.7226937    1437.7118  0.047280708  0.047325845            6 
 2535000   0.83090694   -4.7474307    1438.4127  0.047285099  0.047314254            8 
 2536000   0.83244997    -4.743409    1436.5958  0.047206751  0.047302546            4 
 2537000   0.83302901   -4.7142466    1442.3071  0.047375743  0.047290764            6 
 2538000   0.85318876   -4.7090671    1441.4663  0.047329468  0.047279129            6 
 2539000   0.84096424   -4.7010052    1441.1563  0.047300653  0.047267543            4 
 2540000   0.83606648   -4.7539479    1441.6309  0.047297602  0.047255862            4 
 2541000   0.84499234   -4.7176395    1440.6411  0.047246526   0.04724417            8 
 2542000   0.85396118   -4.7476522    1434.8897  0.047039394  0.047232525            4 
 2543000   0.84230308   -4.7365207    1444.8666  0.047347838  0.047220728            3 
 2544000   0.84875454   -4.7267602    1438.4531   0.04711914  0.047209026            4 
 2545000   0.83947393    -4.718353    1440.9719  0.047183101  0.047197357            4 
 2546000   0.83873948   -4.7240905    1445.2397  0.047304258  0.047185636            7 
 2547000   0.83810957    -4.772872     1438.878  0.047077543  0.047173868            5 
 2548000   0.84239359   -4.7532077    1441.7201  0.047152017  0.047162065            5 
 2549000   0.83645942   -4.7242433    1442.9981    0.0471753   0.04715036            4 
 2550000   0.84761084   -4.7386928     1436.838  0.046955489  0.047138725            4 
 2551000   0.83730832   -4.7116687    1445.2914  0.047213232  0.047127052            3 
 2552000   0.83216865   -4.7253378    1444.0831  0.047155273  0.047115521            6 
 2553000   0.84017406   -4.7310378    1446.6398  0.047220256  0.047103982            8 
 2554000   0.83059328   -4.7407708    1443.5112  0.047099686  0.047092339            6 
 2555000   0.85522167   -4.7124179    1444.3469  0.047108511  0.047080744            6 
 2556000   0.86310529   -4.7398626    1441.7626  0.047005822   0.04706899            4 
 2557000    0.8484206   -4.7067014    1448.5929  0.047210042  0.047057343            8 
 2558000   0.84712503   -4.7342257    1438.9664  0.046877979  0.047045607            8 
 2559000   0.85402192   -4.7513898    1440.2313   0.04690085  0.047033817            4 
 2560000   0.83694555   -4.7257159    1445.5411  0.047055375  0.047022152            6 
 2561000   0.84765813   -4.7138833    1444.8471  0.047014417  0.047010446            3 
 2562000   0.82643104   -4.7548846    1442.0379  0.046904693  0.046998651            6 
 2563000   0.83531541   -4.7446229    1444.4562  0.046965023  0.046986805            9 
 2564000   0.86555025   -4.7324067    1446.1608  0.047002107  0.046975065            6 
 2565000   0.83851241   -4.7163462    1442.8239   0.04687537  0.046963384            8 
 2566000   0.83934129   -4.7340433    1446.5461  0.046977984  0.046951668            4 
 2567000   0.84848937   -4.7099349    1449.1579  0.047044472  0.046940083            4 
 2568000   0.84042066     -4.73529    1450.8694   0.04708169  0.046928523            7 
 2569000   0.83197714   -4.7486512    1446.2098  0.046912217  0.046916973            3 
 2570000   0.83643004   -4.7278654    1448.7946  0.046977774  0.046905304            9 
 2571000   0.83656784   -4.7227175    1450.8935  0.047027535  0.046893683            4 
 2572000   0.85138126   -4.7790783    1446.4679   0.04686586  0.046881983            3 
 2573000   0.83151702   -4.7203761    1449.0685  0.046931873  0.046870324            4 
 2574000   0.84048752   -4.7409326    1449.6068  0.046931068   0.04685868            4 
 2575000   0.85931515   -4.7602981    1442.3917  0.046679344  0.046847012            2 
 2576000    0.8381746   -4.7419685    1446.4847  0.046793631  0.046835391            2 
 2577000   0.83174079   -4.7670571    1446.0566   0.04676163  0.046823726            3 
 2578000    0.8323141    -4.734796    1449.0969  0.046841767   0.04681216            7 
 2579000   0.83579427   -4.7523586    1449.1548  0.046825474  0.046800486            7 
 2580000   0.83665357   -4.7344313    1452.8014  0.046925109  0.046788853            8 
 2581000   0.84373339   -4.7445003    1451.5512  0.046866564  0.046777182            6 
 2582000   0.83695979   -4.7397319    1448.8739  0.046762004  0.046765584            6 
 2583000   0.83367121   -4.7390669    1448.1033  0.046719037  0.046754074            4 
 2584000   0.81950799   -4.7470935    1448.7283  0.046721113  0.046742467            9 
 2585000   0.84017829   -4.7585045    1455.9053  0.046934406  0.046730923            5 
 2586000   0.85127799   -4.7208083     1451.405  0.046771238  0.046719557            8 
 2587000   0.83479406   -4.7244383    1454.5246  0.046853646  0.046708168            5 
 2588000   0.84280393   -4.7572231    1449.0213  0.046658338  0.046696768            4 
 2589000   0.84788148   -4.7440146    1455.2784  0.046841715  0.046685256            3 
 2590000   0.82241953   -4.7443682    1455.9011  0.046843666  0.046673759            5 
 2591000   0.82965083   -4.7465491    1451.6033  0.046687357  0.046662214            4 
 2592000   0.83754128   -4.7667941    1446.5501  0.046506884  0.046650681            3 
 2593000   0.85257066   -4.7466002    1453.0627   0.04669825  0.046638976            4 
 2594000   0.84466713   -4.7617185    1450.0413  0.046583181  0.046627417            7 
 2595000   0.83843779   -4.7483017    1450.3218  0.046574238  0.046615942            3 
 2596000   0.83515932   -4.7382606    1457.0307  0.046771658  0.046604287            6 
 2597000   0.84113022   -4.7321146    1455.6614  0.046709711   0.04659278            5 
 2598000   0.81563267   -4.7526508    1451.3353  0.046552966  0.046581278            6 
 2599000   0.82959922   -4.7597856    1453.6139  0.046608114  0.046569664            4 
 2600000   0.83169294   -4.7169971    1452.2491  0.046546447  0.046558104            5 
 2601000   0.84495587   -4.7481942    1453.1702   0.04655806  0.046546682            4 
 2602000    0.8522409   -4.7568348    1454.8466  0.046593856  0.046535195            8 
 2603000   0.84495628   -4.7399228    1452.2974  0.046494347  0.046523676           10 
 2604000   0.84503629   -4.7535264    1458.9587  0.046689667  0.046512253            5 
 2605000   0.82466328   -4.7594354     1454.964  0.046543954  0.046500775            4 
 2606000   0.84620929   -4.7400143    1454.9321  0.046525073  0.046489168            3 
 2607000   0.82854831    -4.728525    1460.1009  0.046672449  0.046477624            3 
 2608000   0.84348714   -4.7449534    1458.4757  0.046602622  0.046466315            4 
 2609000   0.82967693   -4.7354194     1463.642  0.046749777  0.046454906            5 
 2610000   0.83013354   -4.7717948    1453.4015  0.046404901  0.046443374            7 
 2611000   0.84904192   -4.7138745    1462.5645  0.046679576  0.046432044            3 
 2612000   0.82272724    -4.732165    1460.3177  0.046590024  0.046420621            5 
 2613000   0.83187917   -4.7189433    1458.9327  0.046528024  0.046409166            6 
 2614000   0.82374545    -4.725961    1459.9159  0.046541566  0.046397686            4 
 2615000   0.83503519   -4.7218299    1465.6755  0.046707315  0.046386321            3 
 2616000   0.83541577   -4.7569627    1459.5315  0.046493739  0.046374813            8 
 2617000   0.84623356   -4.7497237    1454.0069  0.046300054  0.046363409            3 
 2618000   0.82534165   -4.7519095    1457.9028  0.046406379   0.04635186            4 
 2619000   0.83608525   -4.7635605    1455.4607  0.046310956   0.04634043            5 
 2620000   0.81849717   -4.7507701    1462.0133  0.046501694  0.046329016            5 
 2621000   0.82997372     -4.77224     1460.785  0.046444901  0.046317577            3 
 2622000   0.83201291   -4.7626569    1463.3345  0.046508215  0.046306208            4 
 2623000    0.8335482   -4.7450494     1462.864  0.046475537  0.046294836            5 
 2624000   0.84767926   -4.7395117    1468.0508  0.046622548  0.046283504            3 
 2625000   0.84977001   -4.7485299    1461.3592  0.046392356  0.046272287            4 
 2626000   0.83255573   -4.7390693    1462.5715   0.04641316  0.046261053            4 
 2627000   0.83560687   -4.7689517     1466.914  0.046533244  0.046249789            8 
 2628000   0.83022283   -4.7092495    1471.2855  0.046654158   0.04623857            7 
 2629000   0.82703501   -4.7191536    1468.1062  0.046535636  0.046227395            4 
 2630000   0.83333827   -4.7551366    1463.0942  0.046359132  0.046216268           10 
 2631000   0.83282176   -4.7815286    1460.7539  0.046267386  0.046205015            7 
 2632000   0.80536907   -4.7389194    1465.5789  0.046402573  0.046193749            6 
 2633000   0.83600976   -4.7587207    1469.5102  0.046509376  0.046182495            4 
 2634000   0.82126642   -4.7289571    1465.0821  0.046351625   0.04617119            5 
 2635000   0.84815446   -4.7484854    1468.6606  0.046447204  0.046160072            6 
 2636000    0.8192997   -4.7239825    1470.2799  0.046480777   0.04614906            5 
 2637000   0.82799217   -4.7471606    1468.1314  0.046395254  0.046137882            4 
 2638000   0.83638304   -4.7441801    1469.6217  0.046424745  0.046126704            8 
 2639000   0.81173606   -4.7651166    1470.5107  0.046435225    0.0461155            3 
 2640000   0.83764373     -4.75454    1470.3655  0.046413053  0.046104466            6 
 2641000   0.83491522   -4.7482323    1468.4586   0.04633531  0.046093436            6 
 2642000   0.82466121   -4.7671271    1470.9707  0.046397006  0.046082453            5 
 2643000   0.82568352   -4.7740787    1469.3472  0.046328263  0.046071399            5 
 2644000   0.82808442   -4.7829783    1472.4681  0.046409104  0.046060354            3 
 2645000   0.83160183   -4.7595015    1472.6348  0.046396811  0.046049514            6 
 2646000   0.83668473   -4.7736401    1474.1874  0.046428174  0.046038457            6 
 2647000    0.8162647   -4.7691054    1470.9981  0.046310228  0.046027362            4 
 2648000   0.84298547   -4.7525291    1474.8358  0.046413513  0.046016325            3 
 2649000   0.82573321   -4.7648051    1466.0156  0.046118524  0.046005368           11 
 2650000   0.82640108   -4.7755916    1472.3104  0.046299069  0.045994432            3 
 2651000   0.83180818   -4.7605126    1474.9657  0.046365074  0.045983531            3 
 2652000   0.81435321   -4.7346366    1476.7701  0.046404291  0.045972781            7 
 2653000    0.8309896   -4.7623271     1473.356  0.046279558  0.045961915            6 
 2654000    0.8467534   -4.7511996    1476.8005  0.046370275  0.045950989            7 
 2655000   0.81854678   -4.7465175    1475.5432  0.046313346  0.045939986            9 
 2656000   0.82268594   -4.7642244    1474.7566  0.046271228  0.045929083            7 
 2657000   0.83257432   -4.7465861    1469.0365  0.046074411  0.045918082            5 
 2658000   0.84545301   -4.7587222    1473.2418   0.04618892  0.045907117            8 
 2659000   0.82427718   -4.7782876    1474.4383  0.046209048  0.045896049            3 
 2660000   0.80910408   -4.7608529    1475.7027  0.046231288  0.045884912            7 
 2661000   0.81882825   -4.7743846    1471.5292  0.046083213  0.045873783            5 
 2662000   0.82082959   -4.7745745       1473.5  0.046127597  0.045862593            3 
 2663000   0.83947358   -4.7643002    1474.4144  0.046138892  0.045851553            5 
 2664000   0.82344331   -4.7643848    1475.3725  0.046151542  0.045840493            7 
 2665000   0.84131354   -4.7462532    1470.7519  0.045989741  0.045829465            4 
 2666000    0.8183603   -4.7772655    1473.4657  0.046057317  0.045818368            7 
 2667000   0.81547966   -4.7695379    1474.8286  0.046082632  0.045807164            3 
 2668000   0.83414782   -4.7512042    1473.2513  0.046016096  0.045795996            4 
 2669000   0.80970548   -4.7618998    1477.6132  0.046135043  0.045784853            4 
 2670000   0.83209938   -4.7547382    1473.4438  0.045987634  0.045773783            5 
 2671000   0.83535821   -4.7899884    1475.1677  0.046024201  0.045762742            9 
 2672000   0.82733021   -4.7644608    1469.9308   0.04584365  0.045751595            3 
 2673000   0.83148176   -4.7732231    1478.6322  0.046097773  0.045740502            3 
 2674000   0.82653065   -4.7841477    1477.3506  0.046040594    0.0457294            5 
 2675000    0.8018329   -4.7717069    1479.0576   0.04607656  0.045718381            3 
 2676000   0.82133523   -4.7600783    1476.7567  0.045987691  0.045707374           13 
 2677000    0.8167443   -4.7701734    1478.2466  0.046016892   0.04569641            6 
 2678000   0.83099211   -4.7454475    1482.6832  0.046137765  0.045685399            3 
 2679000   0.82356255   -4.7914136      1473.23  0.045826491  0.045674284            5 
 2680000    0.8012641   -4.7995233    1477.2814  0.045935368  0.045663093            9 
 2681000   0.82172229   -4.7609055    1474.2307  0.045823408  0.045651988            7 
 2682000   0.82967772   -4.7566182    1479.5701  0.045972227  0.045640938            8 
 2683000   0.82909076   -4.7595783    1479.8147  0.045962689  0.045629973            4 
 2684000   0.82955433   -4.7379755    1483.3157  0.046054264  0.045619089            5 
 2685000   0.82930558   -4.7557333    1481.1516  0.045969944  0.045608189            2 
 2686000   0.83207006   -4.7788425    1478.6726   0.04587592  0.045597236            6 
 2687000   0.81935279   -4.7726041    1481.9986  0.045961995  0.045586157            3 
 2688000   0.80456764   -4.7243403    1478.8059  0.045845917  0.045575107            5 
 2689000   0.82441549   -4.7699331    1477.2353  0.045780195  0.045564055            6 
 2690000    0.8213632   -4.7552688    1475.9982  0.045724852  0.045552961            5 
 2691000   0.82323804    -4.774171    1476.6814  0.045729016  0.045541863            2 
 2692000   0.81202133   -4.7817446    1480.6764  0.045835699  0.045530859            4 
 2693000   0.83407985   -4.7566004    1480.5941  0.045816131  0.045519762            3 
 2694000   0.82419341   -4.7451309    1479.2637   0.04575797  0.045508709            7 
 2695000    0.8081834    -4.801395    1474.7787  0.045602309  0.045497651            7 
 2696000   0.81565557   -4.7825526    1479.3424   0.04572646  0.045486365            3 
 2697000    0.8391421   -4.7622584    1483.8483  0.045848732  0.045475164           15 
 2698000   0.82229113   -4.7820844     1479.305  0.045691408  0.045463988            7 
 2699000   0.82874719   -4.8019709    1477.6248  0.045622602  0.045452828            5 
 2700000   0.81409583   -4.7372466    1478.6586   0.04563761  0.045441644            3 
 2701000   0.81536376   -4.7772701     1480.388   0.04567407  0.045430602           16 
 2702000    0.8189638   -4.7571626    1483.8853   0.04576503  0.045419585            5 
 2703000   0.82223447   -4.7334314    1481.0414  0.045660421  0.045408495            8 
 2704000   0.82203949   -4.7800727     1479.503  0.045596123  0.045397423            4 
 2705000   0.82716007    -4.777968    1483.2889  0.045695899  0.045386226            7 
 2706000   0.81127949   -4.7748403    1486.6946  0.045783893  0.045375202           12 
 2707000   0.82017651   -4.8052897     1480.601  0.045579393  0.045364146            4 
 2708000   0.82575105   -4.7568866    1481.6957  0.045596248   0.04535302            4 
 2709000   0.82082269   -4.7805744    1479.9107  0.045524509   0.04534194            4 
 2710000   0.80230472   -4.7814366    1483.3622  0.045613844  0.045330878            4 
 2711000   0.82557598   -4.8002157    1476.7156  0.045392708  0.045319768            5 
 2712000   0.81468466   -4.7846628    1483.4823  0.045583896  0.045308699           11 
 2713000   0.82620147   -4.7523177    1483.2557  0.045560133  0.045297748            5 
 2714000   0.82473442   -4.7718723    1483.6217  0.045554584  0.045286659            4 
 2715000   0.80892653   -4.7801415    1483.6883  0.045539849  0.045275605            7 
 2716000   0.81244071   -4.7888829    1482.7786   0.04549517  0.045264541            3 
 2717000    0.8135012   -4.7823555    1484.5191  0.045531808  0.045253487            4 
 2718000   0.82354337   -4.7878627    1482.7035  0.045459391  0.045242439            3 
 2719000   0.81369142   -4.7741729    1485.5787  0.045530791  0.045231461           10 
 2720000   0.82018338    -4.801885    1485.3605   0.04550737  0.045220478            5 
 2721000   0.82021483    -4.798034    1489.4856   0.04561698  0.045209469            3 
 2722000   0.81218556   -4.8155641    1482.9111  0.045398944  0.045198398            4 
 2723000   0.78874766   -4.7755626    1489.5805  0.045586377   0.04518737            2 
 2724000   0.79701889   -4.7598612      1490.01  0.045582784  0.045176357            9 
 2725000    0.8184598   -4.7768794    1491.3572  0.045607255  0.045165528            4 
 2726000    0.8207163   -4.7721016    1489.9392  0.045547174  0.045154497            3 
 2727000   0.80387148   -4.7716852    1485.4366  0.045392879  0.045143508            3 
 2728000   0.81963682   -4.7821986    1488.9293  0.045482933  0.045132509            5 
 2729000    0.8078646   -4.7505245    1491.1543  0.045534211  0.045121491            2 
 2730000   0.81222237   -4.7620006    1486.8166  0.045385123  0.045110568            5 
 2731000    0.8210414   -4.7887108    1487.6012  0.045392443  0.045099539            4 
 2732000   0.81378575   -4.7856605    1483.5927  0.045253559   0.04508849            4 
 2733000   0.82313836   -4.8003595    1482.5095  0.045203974  0.045077491            8 
 2734000   0.80560639   -4.7980591    1486.9662   0.04532328  0.045066459            6 
 2735000   0.81510313   -4.7734661    1488.5404  0.045354673  0.045055443            7 
 2736000   0.80018352   -4.7753736    1488.3887  0.045333477  0.045044406            6 
 2737000   0.81977093   -4.7989465    1487.4095  0.045287098  0.045033389            5 
 2738000   0.79755404   -4.7587913    1491.5481  0.045396521  0.045022323            9 
 2739000   0.82938733   -4.7826692    1490.6455  0.045352486  0.045011375            4 
 2740000   0.83028497   -4.7956409    1490.8964  0.045343563  0.045000411            8 
 2741000   0.81292232   -4.7997318    1490.6256   0.04531879  0.044989508            7 
 2742000   0.80236647   -4.8137938    1488.6244  0.045241441  0.044978608            7 
 2743000   0.80275998   -4.7969234    1491.5808  0.045314763  0.044967664           13 
 2744000   0.82142439   -4.7841393     1489.888  0.045246841   0.04495671            7 
 2745000   0.80135041   -4.7726221    1494.1705  0.045360366   0.04494574            2 
 2746000   0.79312188   -4.8045617    1486.8114  0.045120521  0.044934836            6 
 2747000   0.81887988    -4.785667    1494.5941  0.045340192   0.04492384            4 
 2748000   0.81234026   -4.7852351    1491.0346  0.045215752  0.044912826            3 
 2749000   0.83132572   -4.7794911    1492.6142  0.045247186  0.044901835            3 
 2750000   0.79126538   -4.7932997     1495.332   0.04531309  0.044890922            8 
 2751000   0.80941501   -4.7709633    1490.1349  0.045139189  0.044880035            3 
 2752000   0.82241929   -4.8206235    1488.6924  0.045079107  0.044868956            8 
 2753000   0.81515031   -4.7822962    1496.2299  0.045290893  0.044857979           16 
 2754000   0.82320629   -4.8023058    1490.4109  0.045098368  0.044847064            5 
 2755000   0.81687947   -4.7941153    1494.6249  0.045209464  0.044836118            6 
 2756000   0.82485691   -4.7978149    1493.8857  0.045170709  0.044825155            4 
 2757000   0.79888272    -4.754213    1493.4105  0.045139963  0.044814176            7 
 2758000   0.80895899   -4.7935132    1497.8388  0.045257398  0.044803295            5 
 2759000   0.82116688   -4.7835433    1497.9835  0.045245362  0.044792312            4 
 2760000   0.81139956   -4.8039706    1494.7237  0.045130547  0.044781397            5 
 2761000    0.7989746   -4.7802748    1493.9956  0.045092224  0.044770563            5 
 2762000   0.81034024   -4.7983879    1494.4295  0.045088991  0.044759603            3 
 2763000   0.79635189   -4.7802282    1496.3955  0.045131966  0.044748754            2 
 2764000   0.79788916   -4.8257727    1489.8046  0.044916927  0.044737723            5 
 2765000   0.80960706   -4.7893706    1494.5925  0.045044983  0.044726705            3 
 2766000   0.80118216   -4.8064663    1495.3933  0.045052822  0.044715762           10 
 2767000   0.78910896   -4.7933168    1495.2638  0.045032639    0.0447048            6 
 2768000   0.81548131     -4.81425    1493.9335  0.044976321  0.044693917            8 
 2769000   0.79616413   -4.8098475    1499.6205   0.04513123  0.044683136            5 
 2770000   0.79421743   -4.8269122    1494.5708  0.044963019  0.044672258            4 
 2771000   0.79790251   -4.7898763    1498.6426  0.045069247  0.044661456            6 
 2772000   0.81375138   -4.8147904    1494.9236  0.044941185  0.044650615            3 
 2773000   0.81585686   -4.7920176    1499.9186  0.045075087  0.044639732           10 
 2774000   0.81830044   -4.7800845    1499.1264  0.045035041  0.044628963            5 
 2775000   0.81763976   -4.7992589    1496.3972  0.044936853  0.044618206            5 
 2776000   0.81279414     -4.81254    1503.8932   0.04514569  0.044607457            7 
 2777000    0.8082505   -4.7859161    1506.6667   0.04521266  0.044596622            3 
 2778000   0.80642723   -4.8027381    1501.9292  0.045054271   0.04458596            4 
 2779000   0.79944634   -4.7797833    1500.6811  0.045000631  0.044575193            2 
 2780000   0.80410739   -4.8006613    1496.5082   0.04485936  0.044564369            8 
 2781000   0.80353143   -4.7975723    1499.5783  0.044935224   0.04455366            5 
 2782000    0.8068239   -4.7653958    1500.1873  0.044937313  0.044542969            6 
 2783000   0.79572281    -4.816057    1500.6278  0.044934356  0.044532192            4 
 2784000   0.82257338   -4.7889373    1500.4014  0.044911439  0.044521392            5 
 2785000   0.80694391    -4.787857    1506.2949  0.045071662  0.044510605            8 
 2786000   0.79819298   -4.8307195    1496.8869  0.044774076  0.044499889            3 
 2787000   0.80669633   -4.8065182    1504.5098   0.04498594  0.044489053            6 
 2788000   0.81685665   -4.7888017    1501.0347  0.044865934  0.044478328            6 
 2789000   0.79924776   -4.8097734    1500.5425  0.044835142  0.044467608            6 
 2790000   0.81388287   -4.8014425    1498.5259  0.044758839  0.044456822            6 
 2791000   0.78252615   -4.7913429     1504.871  0.044932253  0.044446037           12 
 2792000   0.82062256   -4.7860254    1500.5359  0.044786768  0.044435132            4 
 2793000   0.79553055   -4.8033609    1504.8261  0.044898738  0.044424361            6 
 2794000   0.80743225   -4.8048424     1498.882  0.044705379  0.044413441            9 
 2795000   0.80685195   -4.8134428    1499.7002   0.04471378  0.044402571            5 
 2796000   0.80952477   -4.8165875    1503.2944  0.044804911  0.044391649            5 
 2797000   0.81799336   -4.8154742    1496.9763  0.044600651  0.044380806           12 
 2798000   0.80431326   -4.8005826    1504.9483  0.044822143  0.044369963            9 
 2799000    0.8153281   -4.8049971    1505.1974  0.044813548  0.044359272            9 
 2800000   0.81311657    -4.819811    1504.5139  0.044777198  0.044348507            4 
 2801000   0.78927225   -4.8043731    1505.1549  0.044780284  0.044337787            7 
 2802000   0.80788347   -4.7949175    1505.5637  0.044776459  0.044327089            3 
 2803000   0.80011396   -4.8341874    1500.5829  0.044612407  0.044316396            3 
 2804000   0.78480879   -4.7903927    1502.8187  0.044662944  0.044305646            7 
 2805000    0.7976635   -4.8161457    1506.9629  0.044770139  0.044294924            3 
 2806000   0.81217669   -4.8189812    1506.4246  0.044738197   0.04428422            5 
 2807000   0.82328291   -4.8379435    1503.3736  0.044631682  0.044273565            5 
 2808000   0.82356091   -4.8083285    1502.1109  0.044578315  0.044262875            4 
 2809000   0.79878295    -4.791562    1508.3878   0.04474866  0.044252135            6 
 2810000   0.78903221   -4.8095183    1502.1637  0.044548151  0.044241449           11 
 2811000   0.79364986   -4.8166227    1503.4882  0.044571569  0.044230677            3 
 2812000   0.79342851   -4.8091926    1506.4053  0.044642167  0.044219912            8 
 2813000   0.78563805   -4.8052364    1507.2416  0.044651073  0.044209192            4 
 2814000   0.80120063   -4.8013812    1508.2564  0.044665257  0.044198585            7 
 2815000   0.80081322   -4.8412581    1502.9257  0.044491584  0.044187841           10 
 2816000   0.81448484   -4.7815178    1510.6416   0.04470412   0.04417712            5 
 2817000   0.79372539   -4.8236493    1509.7956  0.044663223  0.044166442           10 
 2818000    0.8157724   -4.7936633    1504.9027  0.044502682  0.044155697            7 
 2819000   0.80108089   -4.7977201    1509.0917  0.044610727  0.044145051            5 
 2820000   0.79573783   -4.8180546    1504.9747  0.044473247    0.0441343            4 
 2821000   0.80201689   -4.7888831    1511.6687  0.044655226  0.044123626            3 
 2822000   0.79845451   -4.8197583    1508.7151  0.044552183  0.044112912            8 
 2823000   0.78850362   -4.7992944    1512.1813  0.044638722  0.044102099            6 
 2824000   0.80446301   -4.7796413    1509.2915  0.044537637  0.044091416            7 
 2825000   0.81098226   -4.8041925    1510.0963  0.044545612  0.044080715            3 
 2826000   0.79469517   -4.8474249    1506.2218  0.044415598  0.044070105            4 
 2827000   0.81721251   -4.7944091    1508.3115  0.044461488  0.044059457            5 
 2828000   0.79382076   -4.7959699    1510.0554  0.044497153  0.044048875            4 
 2829000   0.78447763   -4.7878521    1509.7666  0.044472918  0.044038307           10 
 2830000   0.81810541   -4.8268484    1510.6553  0.044483373  0.044027753            8 
 2831000   0.80564519   -4.7969541     1509.037  0.044420023  0.044017129            2 
 2832000   0.80381998   -4.8158818    1510.0208  0.044433288  0.044006554            7 
 2833000    0.8074966   -4.8190119    1509.5629  0.044404134  0.043995851            5 
 2834000   0.79990627    -4.825049    1509.4503  0.044385154  0.043985158            9 
 2835000   0.78463124   -4.8084012    1511.6962  0.044435514  0.043974464            8 
 2836000   0.80013011   -4.8275225    1509.0342  0.044341626  0.043963857            3 
 2837000    0.7936268   -4.8114084    1508.3032  0.044304523  0.043953252            6 
 2838000   0.78588918   -4.8113384    1512.4066  0.044409403  0.043942583            7 
 2839000   0.79001682   -4.8257194    1513.7259  0.044432484  0.043931964           12 
 2840000   0.81098058   -4.8164558    1510.5432   0.04432345  0.043921306            5 
 2841000   0.81151907    -4.802439    1511.2625  0.044328948  0.043910602            3 
 2842000   0.81092325   -4.8187543    1511.7983  0.044329061  0.043899911            4 
 2843000   0.79398666   -4.8315724      1511.25  0.044297397  0.043889294            3 
 2844000    0.7951161   -4.8119513    1515.0183  0.044392238  0.043878701            7 
 2845000   0.80504901   -4.8280292     1508.736  0.044192618  0.043868056            6 
 2846000   0.80423404   -4.8596875     1507.189  0.044131792  0.043857541            8 
 2847000   0.81175713    -4.799059    1516.8545  0.044399206  0.043846991            3 
 2848000    0.8066872   -4.8353942    1512.4228  0.044253943   0.04383643            8 
 2849000    0.8013316   -4.8291372    1513.2823  0.044263552  0.043825856            9 
 2850000   0.79784504   -4.8501709    1510.3738  0.044162977  0.043815246            5 
 2851000   0.80479845    -4.822075    1518.7208  0.044391464  0.043804653            4 
 2852000   0.78663792   -4.8286441    1516.6819  0.044316323  0.043793947            3 
 2853000   0.80706946   -4.8452786    1516.0393  0.044282023  0.043783233            7 
 2854000   0.81790252   -4.8220537    1515.0403  0.044237337  0.043772609            5 
 2855000   0.79718518    -4.821817    1511.7392  0.044125488  0.043762035            7 
 2856000   0.80022543     -4.80683    1513.4093  0.044158768   0.04375144            7 
 2857000   0.80719839   -4.8178524    1517.0941  0.044250789  0.043740799            4 
 2858000   0.78231164   -4.8357542    1510.4103  0.044040422  0.043730123            7 
 2859000   0.79442116   -4.8444655    1514.6595  0.044148871  0.043719476            5 
 2860000   0.79407858   -4.8316916    1513.5675  0.044101618  0.043708794            6 
 2861000   0.79936143   -4.8560488    1514.0658  0.044100716  0.043698088            7 
 2862000   0.77328259   -4.8070227    1517.7048  0.044191263  0.043687393            3 
 2863000   0.79209312   -4.8405365    1513.9151  0.044065524  0.043676878            4 
 2864000   0.80687476   -4.8500693    1511.8152  0.043989036   0.04366625            3 
 2865000   0.79860262   -4.8288012    1515.8509  0.044091067  0.043655508            5 
 2866000   0.79852783   -4.8074042    1518.5767  0.044154941  0.043644785            5 
 2867000   0.78613825   -4.8270695     1516.239  0.044071589  0.043634143            4 
 2868000   0.77597114   -4.8318803    1519.5122   0.04415133  0.043623466            5 
 2869000   0.79769644   -4.8564857    1511.6591   0.04390784  0.043612696            6 
 2870000   0.77918074   -4.8561867    1512.1598   0.04390708  0.043601954            9 
 2871000   0.78036713    -4.804299    1516.0666  0.044005184  0.043591294            3 
 2872000   0.78533439   -4.7916978    1518.8271  0.044069959  0.043580556            7 
 2873000   0.79959258   -4.8323276    1513.5384  0.043901218  0.043569761           11 
 2874000   0.77969641   -4.8341437     1513.252  0.043877639  0.043558926            3 
 2875000   0.77217256   -4.8294808    1515.9803  0.043941459  0.043548065            4 
 2876000   0.79182597   -4.8265852    1515.4079  0.043909594  0.043537337            6 
 2877000   0.78683989   -4.8072956    1514.1665  0.043858374  0.043526567            6 
 2878000   0.78942769   -4.8122623    1514.8153  0.043861922  0.043515796            8 
 2879000   0.78948511   -4.8143801    1519.6829   0.04398758  0.043505052            4 
 2880000   0.79710443   -4.8467802    1514.4357  0.043820479  0.043494289            7 
 2881000   0.79424432   -4.8292519    1518.3181  0.043917567  0.043483567            4 
 2882000   0.79913049   -4.8301475    1516.9589  0.043863026  0.043472948            9 
 2883000   0.78376612    -4.814704    1517.3603  0.043859415  0.043462244            4 
 2884000   0.79663453   -4.8236529    1523.4719  0.044020803  0.043451592            9 
 2885000   0.80223904   -4.8400286    1514.2015  0.043737767  0.043440954           12 
 2886000   0.79125545   -4.8563017    1516.0922  0.043777207  0.043430275            4 
 2887000   0.78751464   -4.8383451    1520.3655  0.043885391   0.04341966            3 
 2888000   0.80180508   -4.8348887    1516.3564  0.043754513  0.043409069           11 
 2889000   0.79466946   -4.8279438     1519.337  0.043825345   0.04339849            5 
 2890000   0.79272845   -4.8432117    1520.0827  0.043831681  0.043387839           10 
 2891000   0.78965198   -4.8288988    1524.2613  0.043936968  0.043377292            8 
 2892000   0.79225047   -4.8656858    1519.3223  0.043779457  0.043366729            6 
 2893000   0.79058585     -4.84057    1518.5592  0.043742343  0.043356082            6 
 2894000   0.79674677   -4.8444875    1516.7539  0.043675246   0.04334543            7 
 2895000   0.79318732   -4.8420197    1518.3449  0.043705957  0.043334845           12 
 2896000   0.78585037    -4.836178    1528.8736  0.043993832  0.043324233            4 
 2897000   0.79162571   -4.8352011    1522.4227  0.043793081  0.043313584            4 
 2898000   0.78318344   -4.8469059    1519.1979  0.043685241  0.043302903            6 
 2899000   0.79076147   -4.8126407    1524.9084  0.043834321  0.043292225           11 
 2900000   0.76937107   -4.8568427    1522.2602  0.043743109  0.043281566            8 
 2901000   0.77630601   -4.8532964    1522.9028  0.043746489  0.043270938            8 
 2902000   0.79126665   -4.8464956     1515.816  0.043527911  0.043260242            8 
 2903000   0.78823215   -4.8439572    1518.1673  0.043580415  0.043249528            5 
 2904000   0.79642697   -4.8305244    1518.9566  0.043588057  0.043238854            8 
 2905000   0.77169663   -4.8270898    1522.3828  0.043671337  0.043228211           13 
 2906000   0.79010182   -4.8302552     1523.849  0.043698355  0.043217537            5 
 2907000   0.79083582   -4.8058823    1525.4013   0.04372782  0.043206892            4 
 2908000   0.80556098   -4.8527989    1522.5221  0.043630276  0.043196357            6 
 2909000   0.77664017   -4.8493857    1524.0833  0.043660001  0.043185797            6 
 2910000   0.77145329   -4.8513439    1521.3784  0.043567538   0.04317514            4 
 2911000   0.78007375   -4.8725409    1522.8308   0.04359415  0.043164531            5 
 2912000   0.77878724   -4.8260154    1524.0972  0.043615419  0.043153942            5 
 2913000   0.78652785   -4.8248524     1523.323  0.043578299  0.043143452            3 
 2914000   0.79766907   -4.8228341    1522.3738    0.0435362  0.043132909           10 
 2915000   0.80488691   -4.8499003    1522.5156  0.043525318  0.043122381            7 
 2916000   0.77098373   -4.8559259    1524.8313  0.043576568  0.043111802            6 
 2917000   0.77621676   -4.8463896     1528.079  0.043654411  0.043101251            4 
 2918000   0.79680962   -4.8361765    1524.6821  0.043542442  0.043090687            5 
 2919000   0.79632663   -4.8276138    1528.5115  0.043636849  0.043080236            5 
 2920000   0.78618626   -4.8308033    1524.1121  0.043496351  0.043069876            4 
 2921000   0.79349391   -4.8709612     1525.097  0.043509557  0.043059404            4 
 2922000   0.79436001   -4.8638998    1527.0918  0.043551556  0.043049029            6 
 2923000   0.78405117   -4.8512788    1529.5608  0.043607049   0.04303865            6 
 2924000   0.79401825   -4.8578752    1531.2079  0.043639075  0.043028294            5 
 2925000   0.80021881   -4.8428059    1531.2583  0.043625591  0.043017876            5 
 2926000   0.78122782   -4.8350344    1537.5559  0.043790041  0.043007553           12 
 2927000   0.76571987   -4.8547353    1532.3492  0.043626841  0.042997197            7 
 2928000   0.78004674   -4.8610196    1532.4021  0.043613448  0.042986888            3 
 2929000   0.78556527   -4.8459635    1534.0658  0.043645892  0.042976622            7 
 2930000   0.80790284    -4.834817    1531.2387  0.043550587  0.042966297            3 
 2931000   0.77632531   -4.8625535    1531.8412  0.043552859  0.042955987            5 
 2932000   0.79073972   -4.8323031    1532.1414  0.043546539  0.042945663            6 
 2933000   0.78402384   -4.8288539    1535.4021  0.043624336  0.042935312            4 
 2934000   0.76933185   -4.8724661    1530.6197  0.043473632  0.042924828            4 
 2935000   0.78148282   -4.8435627    1535.0036  0.043583293  0.042914431            4 
 2936000   0.77755062   -4.8672452      1534.83  0.043563521  0.042904127            4 
 2937000   0.78923108   -4.8302303    1536.7096  0.043602021  0.042893822            4 
 2938000   0.79124363   -4.8651105    1531.6349  0.043443241  0.042883582            7 
 2939000   0.78825063   -4.8504829    1532.4241  0.043450836  0.042873197            9 
 2940000   0.80150463   -4.8722645    1533.0813  0.043454685  0.042862967            5 
 2941000   0.79668586   -4.8508121    1535.1066  0.043497297  0.042852755            6 
 2942000   0.76696166   -4.8532102     1537.742  0.043557161  0.042842498            4 
 2943000   0.78402426   -4.8666354    1531.1705  0.043356284   0.04283216            7 
 2944000   0.78821267   -4.8510889    1535.3466  0.043459766  0.042821838            5 
 2945000   0.78432678   -4.8503207    1534.5491  0.043422442  0.042811531            4 
 2946000   0.78726248   -4.8599967     1532.371   0.04334609  0.042801296            8 
 2947000   0.76569714   -4.8506131    1532.1998   0.04332654  0.042790953            4 
 2948000   0.77405318   -4.8624063    1533.8274  0.043357853  0.042780587            6 
 2949000   0.79343936   -4.8626572    1534.0975  0.043350783  0.042770158           10 
 2950000   0.76086956   -4.8602435     1535.651  0.043379973  0.042759868            5 
 2951000   0.77721716    -4.841339    1532.6575  0.043280739  0.042749562            5 
 2952000   0.79685657   -4.8716324    1537.5572  0.043404392  0.042739196            3 
 2953000   0.78165633   -4.8797007    1533.4409  0.043273532  0.042728792           20 
 2954000   0.77360822   -4.8872622    1531.3388  0.043199582  0.042718354            3 
 2955000   0.78068757   -4.8496376    1538.0456  0.043374099  0.042707973            4 
 2956000   0.76861454   -4.8502759     1539.937  0.043412749  0.042697693            5 
 2957000   0.79050778   -4.8719606    1538.3984  0.043354707  0.042687455            7 
 2958000   0.79712237   -4.8712295    1538.6362  0.043346749   0.04267723            3 
 2959000   0.77648535   -4.8522499    1537.5478  0.043301449  0.042666874            6 
 2960000   0.76910681   -4.8501646    1535.0165  0.043215554  0.042656627            4 
 2961000   0.78012093   -4.8644215    1536.9997  0.043256775  0.042646333            4 
 2962000     0.776187   -4.8506917    1538.2805  0.043278205  0.042636001           16 
 2963000   0.77534294   -4.8509847    1536.4666  0.043212582  0.042625732            7 
 2964000   0.78445487    -4.865809    1536.3959  0.043196016  0.042615447           13 
 2965000   0.77247149   -4.8482433    1537.3426  0.043208054   0.04260516            3 
 2966000   0.77222573   -4.8710487    1536.5077  0.043170029  0.042594842            5 
 2967000   0.79311665   -4.8532799    1537.2603  0.043176617  0.042584624            9 
 2968000   0.77514657    -4.864886     1536.943   0.04315316  0.042574269            5 
 2969000   0.76709424   -4.8438136    1537.2157   0.04314628  0.042564022            5 
 2970000   0.78475751   -4.8587763    1539.7675  0.043203353  0.042553814            4 
 2971000   0.76990438   -4.8680147    1538.0648  0.043141053  0.042543625            9 
 2972000   0.76914037   -4.8636292    1541.1637  0.043213427  0.042533383            7 
 2973000   0.76651939   -4.8207952    1541.0999  0.043197105  0.042523227           10 
 2974000    0.7737147   -4.8336917    1540.2759   0.04315949  0.042513013            5 
 2975000   0.76999541   -4.8341184    1539.8461  0.043132945  0.042502766            6 
 2976000   0.79680913   -4.8494097    1541.8041  0.043173277  0.042492639            7 
 2977000   0.77691212   -4.8508313    1538.8958  0.043077365  0.042482381            8 
 2978000   0.76798621   -4.8407647    1540.4542  0.043106509  0.042472263            4 
 2979000   0.77104892   -4.8786649    1539.9709  0.043078519  0.042462122            7 
 2980000   0.77003575    -4.892895    1533.6282  0.042886694  0.042451815            9 
 2981000   0.77139347   -4.8796402    1538.9785  0.043021874  0.042441654            7 
 2982000   0.79889712   -4.8715524     1539.762  0.043029342  0.042431433            5 
 2983000   0.77739767   -4.8634423    1537.8819  0.042962394  0.042421232            7 
 2984000    0.7835488   -4.8633581    1543.9603  0.043117746  0.042411012            4 
 2985000   0.77943964   -4.8494235    1541.0921   0.04302323  0.042400769           11 
 2986000   0.76741044   -4.8835986    1541.4988  0.043020172  0.042390657            9 
 2987000   0.77204063   -4.8534699    1546.1264  0.043134873  0.042380618            8 
 2988000   0.77072443   -4.8666743    1539.8995  0.042946772  0.042370469            5 
 2989000   0.77650614   -4.8714252    1540.0115  0.042935528  0.042360324            7 
 2990000   0.77047404   -4.8714723    1540.3892  0.042931695  0.042350113            9 
 2991000   0.76900885   -4.8643535    1547.0238   0.04310219  0.042339883            6 
 2992000   0.75086889   -4.8701534    1550.9018  0.043195795  0.042329759            9 
 2993000   0.75230627   -4.8650043    1543.2003   0.04296693  0.042319681           10 
 2994000   0.76093589   -4.8888198     1539.736  0.042856158   0.04230951            4 
 2995000   0.77527761   -4.8799771    1544.3753  0.042970931  0.042299272            8 
 2996000   0.77205374   -4.8746717    1540.0887  0.042837359  0.042288941            8 
 2997000   0.78929251   -4.8600396    1542.6139  0.042893279  0.042278781            4 
 2998000     0.763081   -4.8486269    1547.0385  0.043001959  0.042268643            7 
 2999000   0.77629581   -4.8497875    1542.6467  0.042865585  0.042258532            7 
 3000000   0.77760954    -4.921047    1539.5742   0.04276595   0.04224824           10 
 3001000    0.7781822   -4.8931017    1537.2229  0.042686408   0.04223804            2 
 3002000   0.77496961   -4.8362183    1543.6832  0.042851521  0.042227798            4 
 3003000   0.77822323   -4.8653744    1546.4624  0.042914374  0.042217616            5 
 3004000   0.77230278   -4.8681754    1542.4376  0.042788438  0.042207448            7 
 3005000   0.78945754   -4.8747455    1549.8997  0.042981133  0.042197289            6 
 3006000   0.75474549   -4.8550426    1550.0915  0.042972154  0.042187065            5 
 3007000   0.79631569   -4.8877357    1538.1865  0.042627938  0.042176825            6 
 3008000   0.77195502   -4.8638253    1541.7597  0.042712757  0.042166559            5 
 3009000   0.77031892   -4.8562444    1547.5244  0.042858214  0.042156339            3 
 3010000   0.77988163   -4.8586467    1548.7317  0.042877401   0.04214621            8 
 3011000   0.75476696   -4.9062248    1543.0932  0.042707107  0.042136007            9 
 3012000   0.76881219   -4.8541384    1549.1446  0.042860352  0.042125727            5 
 3013000   0.76853402   -4.8915627    1543.2266  0.042682447  0.042115617            7 
 3014000   0.77213144   -4.8966207    1542.5806  0.042650427  0.042105327           13 
 3015000     0.751703   -4.8854465    1545.0229  0.042703783  0.042095114            8 
 3016000   0.77839354   -4.8400026    1547.4453  0.042756556  0.042084977           11 
 3017000   0.75793205   -4.8927179     1547.063  0.042731825  0.042074792            7 
 3018000   0.77731096   -4.8887326    1545.1642  0.042665235  0.042064599            7 
 3019000   0.79587949   -4.8925776     1546.579  0.042690157  0.042054454            6 
 3020000    0.7481045   -4.8920833    1540.8699  0.042518485  0.042044196            4 
 3021000   0.75209689   -4.9141393    1543.4494  0.042575566  0.042033997            6 
 3022000   0.77668757   -4.8854744    1548.2686  0.042694369   0.04202371            5 
 3023000   0.75809513   -4.8904543    1545.0272  0.042590893  0.042013513            5 
 3024000   0.75709731   -4.8972047    1547.7964  0.042653118  0.042003456            9 
 3025000   0.75968215   -4.8437909    1545.1861   0.04256711  0.041993222           10 
 3026000   0.76760152   -4.8871112     1543.754  0.042513605  0.041983073            3 
 3027000    0.7722314   -4.8804222    1546.7093  0.042580918  0.041972852            4 
 3028000   0.78097525   -4.8835366    1546.1323  0.042550977  0.041962677            8 
 3029000   0.78687091   -4.8876909    1549.3293  0.042624886  0.041952477            3 
 3030000   0.76253519   -4.8953574     1543.437  0.042448763  0.041942315            6 
 3031000   0.79126752   -4.8594762    1555.0584  0.042754272  0.041932089            4 
 3032000   0.75031245    -4.898271    1548.9279  0.042571677  0.041922043            4 
 3033000   0.76471674   -4.9028552    1543.6458  0.042412513  0.041911797            5 
 3034000   0.77532206   -4.8650369      1543.58  0.042396726  0.041901625            4 
 3035000   0.77489846   -4.9081999    1549.7649  0.042552577   0.04189142            7 
 3036000   0.73842998   -4.8867252    1547.3453  0.042472149  0.041881228            3 
 3037000   0.76552443   -4.8789606    1550.2625   0.04253821  0.041871011            8 
 3038000   0.76787091   -4.8879681    1549.4724  0.042502534  0.041860698            4 
 3039000   0.75363852   -4.9225355    1551.4973  0.042544075  0.041850517            9 
 3040000   0.75201699   -4.8938821    1550.6523  0.042506917  0.041840318            5 
 3041000   0.77023565   -4.8668794    1553.7687  0.042578337  0.041830261           10 
 3042000   0.78288778   -4.9220436    1546.6455  0.042369207   0.04182007            4 
 3043000   0.76993215   -4.8755278    1552.7954  0.042523699  0.041809945            7 
 3044000   0.76578852   -4.8643456     1556.637  0.042614897  0.041799847            4 
 3045000   0.74953036   -4.9082308    1553.3781  0.042511715  0.041789761            7 
 3046000    0.7570782   -4.9053349    1552.6778    0.0424786  0.041779662            8 
 3047000   0.77051907   -4.8808892    1554.3609  0.042510691  0.041769584           10 
 3048000   0.75338453   -4.9114415    1555.1453  0.042518191  0.041759512            7 
 3049000   0.77099106   -4.8751469    1553.1062  0.042448514  0.041749457            3 
 3050000   0.78423759    -4.880026    1552.0574   0.04240594  0.041739323            6 
 3051000   0.76666197   -4.8880322    1549.9535  0.042334575  0.041729189            5 
 3052000     0.762829   -4.8776296    1557.2778  0.042520691  0.041719097            8 
 3053000   0.77928978   -4.8868839    1553.0168  0.042390457  0.041708982            7 
 3054000   0.76406194   -4.9129037     1551.749  0.042341982   0.04169883           10 
 3055000   0.76167098   -4.9006655    1553.5051  0.042376027  0.041688699            5 
 3056000   0.76150961   -4.8865039    1556.0546  0.042431681  0.041678577            3 
 3057000   0.75248333   -4.9109665    1553.7056  0.042353768  0.041668443            8 
 3058000   0.77148115   -4.8798129    1558.5007  0.042470587  0.041658387            5 
 3059000   0.75665792    -4.890709    1557.5837  0.042431724  0.041648408            6 
 3060000   0.76737853   -4.9120331    1552.9326  0.042291193   0.04163848            8 
 3061000   0.75379048   -4.9001896    1551.9453  0.042250499  0.041628434            6 
 3062000   0.76791765   -4.9094835    1553.6661  0.042283533  0.041618427            3 
 3063000   0.74765594   -4.8988261     1555.504   0.04231973  0.041608375            5 
 3064000   0.76021173   -4.8962259    1551.8182  0.042205673  0.041598309            6 
 3065000    0.7653698   -4.8920522    1559.4153  0.042398459  0.041588252            6 
 3066000   0.76924257   -4.9110542    1555.2444  0.042271266  0.041578255           18 
 3067000   0.76628717   -4.8804667    1557.0512  0.042306574  0.041568187            5 
 3068000   0.76214082   -4.9088602    1555.2828  0.042244752  0.041558193            6 
 3069000    0.7575738   -4.8871317    1555.2104  0.042229022  0.041548189            4 
 3070000   0.74382279    -4.924829    1558.0209  0.042291556  0.041538217            8 
 3071000   0.76989005   -4.9097989    1556.8586  0.042246244  0.041528249            4 
 3072000    0.7610217   -4.9081428    1558.0624  0.042265146  0.041518268            7 
 3073000   0.76662609   -4.8974066    1558.6657  0.042267753  0.041508335            9 
 3074000    0.7710733   -4.9018316    1559.0817  0.042265282  0.041498401           10 
 3075000   0.76047478   -4.8918464    1557.2159  0.042200974  0.041488508            6 
 3076000   0.75796275    -4.902806    1558.2583  0.042215493  0.041478587            3 
 3077000   0.74701026   -4.8981336    1559.1568  0.042226107  0.041468718            6 
 3078000    0.7421215   -4.9217568    1561.7301  0.042282059  0.041458858            5 
 3079000   0.74823746   -4.9109548    1558.8784  0.042191145  0.041448973            8 
 3080000   0.77780494   -4.9253953    1561.6063  0.042251252  0.041438977            4 
 3081000   0.76454483   -4.8827239     1560.907  0.042218625  0.041429079            5 
 3082000   0.77147887   -4.8864306    1563.6379  0.042278766  0.041419216            8 
 3083000   0.74969482   -4.9025913    1562.9737    0.0422471  0.041409358            6 
 3084000   0.74921645    -4.873197    1563.9888  0.042260831  0.041399542            6 
 3085000   0.76960184   -4.9185049    1565.5341  0.042288874  0.041389789            5 
 3086000   0.74988612    -4.886327    1564.6376  0.042250963  0.041380001           12 
 3087000   0.76559175   -4.9168483    1563.0988  0.042195735   0.04137024           18 
 3088000   0.75912982   -4.9320084    1568.4171  0.042325591  0.041360391            6 
 3089000   0.76336356   -4.8935451    1562.3591   0.04214846  0.041350596            5 
 3090000    0.7616853   -4.9078335    1561.9899  0.042124862  0.041340746            5 
 3091000   0.74668761   -4.8945734    1561.8651   0.04210787  0.041330865            3 
 3092000   0.76004057   -4.9031504    1556.2039  0.041941676  0.041320997            9 
 3093000    0.7712538   -4.8846847    1562.3392  0.042093415  0.041311165            4 
 3094000   0.77869427   -4.9072163    1562.7716  0.042091456  0.041301319            6 
 3095000   0.76177459   -4.9162163    1562.0331  0.042057972  0.041291482            8 
 3096000   0.76376183   -4.8936919    1562.7537  0.042063785  0.041281635            8 
 3097000   0.75543486   -4.9164669    1556.5819  0.041884133  0.041271882            6 
 3098000    0.7515072   -4.9112801    1557.2706  0.041889137  0.041262029            3 
 3099000   0.75585188   -4.9065555    1560.6866  0.041967478    0.0412522            7 
 3100000   0.75690836   -4.8881604    1560.4977  0.041948862  0.041242403            8 
 3101000   0.77181129   -4.9107616    1563.3817  0.042012838  0.041232661            9 
 3102000   0.75102674   -4.9101341    1568.0077  0.042123567  0.041222825            5 
 3103000   0.76628813   -4.8961852    1568.6871  0.042128239  0.041213013            4 
 3104000   0.75596595   -4.8979987     1562.725  0.041954602  0.041203318            5 
 3105000   0.75633704   -4.9370367      1561.67  0.041912775  0.041193545            5 
 3106000   0.74794086   -4.9047689    1568.0696  0.042070981  0.041183751            3 
 3107000   0.76715154   -4.8866291    1572.4617  0.042175243  0.041174107            7 
 3108000   0.75566817    -4.896238    1569.9142  0.042093368   0.04116446            8 
 3109000   0.75090038   -4.9201847    1569.7931  0.042076582  0.041154738            7 
 3110000   0.75037319   -4.8965439    1570.9123  0.042093042  0.041144933           11 
 3111000   0.75477313   -4.9241817    1566.6865  0.041966315  0.041135135            9 
 3112000   0.73449847    -4.922291    1566.3146  0.041942873  0.041125337            6 
 3113000    0.7707962   -4.8992621     1565.744  0.041914123  0.041115573            4 
 3114000    0.7518089   -4.9195909     1564.714  0.041873101  0.041105814            3 
 3115000   0.74982841   -4.8981706    1571.9617   0.04205355  0.041096043            6 
 3116000   0.76417383    -4.912033     1571.528  0.042028456  0.041086318            5 
 3117000   0.74056201   -4.8794407    1571.0296  0.042001647  0.041076561            4 
 3118000   0.75745762   -4.9212826    1567.3672  0.041890294  0.041066782            6 
 3119000   0.75419097   -4.9012128    1570.1531  0.041951295  0.041057034            9 
 3120000   0.76364804   -4.9297991    1564.8406  0.041795956  0.041047269            7 
 3121000    0.7472186   -4.9344256    1568.4257   0.04187829  0.041037454            6 
 3122000   0.74645419   -4.9270542     1567.644  0.041844009  0.041027541            6 
 3123000   0.76128684   -4.9385741    1570.5118  0.041907136  0.041017767            6 
 3124000   0.75071657   -4.8926977    1569.8764  0.041876771  0.041007912            8 
 3125000   0.73992617   -4.9223928    1569.2578  0.041846875  0.040998131            6 
 3126000   0.74731031   -4.9284387    1569.8089  0.041848181  0.040988357           11 
 3127000    0.7368801   -4.8977144    1570.5599   0.04185481  0.040978469            6 
 3128000   0.76038309   -4.9174456    1571.0347  0.041854078  0.040968694            8 
 3129000   0.75333376   -4.9239481    1566.5924  0.041722394  0.040958938            3 
 3130000   0.74418757   -4.9231765    1566.3858  0.041703562  0.040949173            5 
 3131000   0.73723645   -4.9227069     1570.583  0.041801954  0.040939408            6 
 3132000    0.7508563   -4.9319953    1570.7765  0.041793757  0.040929722            6 
 3133000   0.75545636     -4.90454     1568.272  0.041713799  0.040919954           12 
 3134000   0.74286204   -4.9033322    1573.0376  0.041827206  0.040910248            2 
 3135000   0.74334118   -4.9075153    1572.9213  0.041810775  0.040900568            8 
 3136000    0.7668028   -4.8962122    1572.3754  0.041782934  0.040890888            7 
 3137000   0.73247319   -4.8936706    1574.4226  0.041823998  0.040881301            4 
 3138000   0.76031749    -4.918794    1568.2193  0.041645935  0.040871569            7 
 3139000   0.74570754   -4.9323159    1572.2659  0.041740094  0.040861796            9 
 3140000   0.75628835   -4.9130083    1574.5014   0.04178613  0.040852064            4 
 3141000   0.75268864   -4.9038592    1569.6204   0.04164333  0.040842362           12 
 3142000   0.72967602   -4.8920712    1571.1088  0.041669553  0.040832695            3 
 3143000   0.75776499    -4.904736    1575.9772  0.041785374  0.040822902            7 
 3144000   0.74660879     -4.92225    1572.0406  0.041667744   0.04081311            7 
 3145000    0.7358431   -4.9163306    1573.0785  0.041681995  0.040803336            4 
 3146000   0.73795795    -4.939271    1569.3309  0.041569477  0.040793562           10 
 3147000   0.75906255   -4.9248426    1571.7437  0.041620159  0.040783814            8 
 3148000   0.75800799   -4.8966129    1572.3007  0.041621683  0.040774109            7 
 3149000   0.76082142   -4.9120475    1569.7759  0.041541651  0.040764388            7 
 3150000   0.76419718   -4.9158683    1573.3136  0.041622054  0.040754659            5 
 3151000   0.74397122   -4.9262001    1574.2388  0.041633312  0.040744982            5 
 3152000   0.72781953   -4.9385701    1572.3488  0.041570135  0.040735209            8 
 3153000    0.7588096    -4.916727    1576.7412  0.041673043  0.040725548           10 
 3154000   0.76870818   -4.9556135    1570.5336  0.041495816  0.040715863            6 
 3155000   0.75783174   -4.9258566    1572.4356    0.0415329  0.040706141            7 
 3156000    0.7669738   -4.9212336    1576.2676  0.041620923  0.040696472            5 
 3157000    0.7413688   -4.9241101    1570.5527  0.041456887  0.040686756            8 
 3158000   0.74168171   -4.9076414    1572.2032  0.041487313  0.040677026            9 
 3159000   0.74315768   -4.9154389    1572.8713  0.041491803   0.04066737            7 
 3160000   0.74965232   -4.9386566    1570.6978  0.041421355  0.040657632            4 
 3161000   0.73919415   -4.9028536    1569.8088  0.041384816  0.040647843           13 
 3162000   0.73688883   -4.9179382    1576.2118  0.041540474  0.040638078            5 
 3163000   0.75203646   -4.9365503     1572.415  0.041427311  0.040628388            6 
 3164000   0.75718048   -4.9429439    1572.5838  0.041418664  0.040618586            7 
 3165000   0.75610456    -4.949468    1571.4456  0.041375608  0.040608764            6 
 3166000    0.7456536   -4.9114286    1574.3626  0.041439318  0.040599053            7 
 3167000   0.75398702   -4.9222638    1576.7885  0.041490067  0.040589352            8 
 3168000   0.75387277   -4.9215506    1572.9953  0.041377191  0.040579587           12 
 3169000   0.74688031   -4.9309707    1575.3129  0.041425078  0.040569756            5 
 3170000   0.75220244   -4.9323636    1574.0644   0.04137919  0.040560015            7 
 3171000   0.75204369    -4.956224    1570.0628   0.04126098   0.04055018           14 
 3172000   0.74036159   -4.9431244    1573.7722  0.041345424   0.04054037            5 
 3173000   0.76878083   -4.9327258    1572.0281  0.041286588  0.040530655            6 
 3174000   0.74685889   -4.9164992    1582.3371  0.041544243  0.040520916           12 
 3175000   0.73672078   -4.9497628    1572.1088  0.041262697  0.040511161           15 
 3176000   0.73838823   -4.9435493    1573.9694  0.041298527  0.040501408            4 
 3177000   0.73059169   -4.9498521     1574.961  0.041311537  0.040491706            5 
 3178000   0.74648267   -4.9283282    1578.3345  0.041386997  0.040481921           10 
 3179000   0.75386013   -4.9309973    1575.5589   0.04130122  0.040472234            5 
 3180000   0.74779503   -4.9178239    1577.3389  0.041334876  0.040462639            5 
 3181000   0.73970454   -4.9364104    1576.8273  0.041308481  0.040452997            6 
 3182000   0.74095724    -4.931683    1576.9069  0.041297584  0.040443371            5 
 3183000   0.74576701   -4.9480326    1576.4622  0.041272966  0.040433699            7 
 3184000   0.72905004    -4.937754    1579.2402   0.04133271  0.040423954           11 
 3185000   0.73456902   -4.9407568    1576.6272  0.041251365  0.040414247            7 
 3186000   0.74358363   -4.9364685    1575.9903   0.04122176  0.040404497            4 
 3187000   0.73973995   -4.9270238    1580.2558   0.04132036  0.040394786            4 
 3188000     0.734799   -4.9481916    1576.9559   0.04122114  0.040385072            9 
 3189000    0.7539504   -4.9458158    1580.5078  0.041301028  0.040375358            9 
 3190000   0.75601257   -4.9262822    1585.8197  0.041426847  0.040365715            5 
 3191000   0.73602587   -4.8967837    1579.6492   0.04125272  0.040356081           11 
 3192000   0.73331252   -4.9138287    1578.4024  0.041207248  0.040346513            7 
 3193000   0.73198492   -4.9389406    1581.4479  0.041273826  0.040336926           10 
 3194000   0.74545249   -4.9448476    1581.5025  0.041262327  0.040327189           10 
 3195000   0.75994984   -4.9342412    1582.7788  0.041282703  0.040317595            4 
 3196000   0.74655104   -4.9449138    1575.5373  0.041080969   0.04030792           13 
 3197000   0.75026475   -4.9236678    1581.3531  0.041219714  0.040298275           10 
 3198000   0.74023865   -4.9097878    1578.2216  0.041125224   0.04028864           11 
 3199000   0.74712961    -4.963587    1579.2963  0.041140364  0.040278955            6 
 3200000   0.76535511   -4.9394717    1582.7002  0.041216151  0.040269302            9 
 3201000   0.74020849   -4.9232871    1577.3231  0.041063289  0.040259674            5 
 3202000   0.74439711   -4.9312606    1580.5501   0.04113445  0.040249974            6 
 3203000     0.739683   -4.9480019    1578.7168  0.041073911  0.040240296            4 
 3204000   0.71915434   -4.9256497    1578.8665  0.041064983  0.040230663            8 
 3205000   0.74178904   -4.9559003    1579.8958  0.041078933  0.040220932            8 
 3206000   0.75020219   -4.9281066    1581.6854  0.041112637  0.040211309            6 
 3207000   0.73666959   -4.9258167    1581.8414  0.041103871  0.040201757            4 
 3208000   0.75109013   -4.9602286     1580.007  0.041043406  0.040192166            9 
 3209000   0.73523783   -4.9334983    1579.7309  0.041023448  0.040182549            9 
 3210000   0.74143709    -4.916887    1584.5875  0.041136748  0.040172983            6 
 3211000   0.73086754   -4.9159863    1578.5446  0.040967108  0.040163447           10 
 3212000   0.73176568   -4.9378478    1577.7877  0.040934717  0.040153853            6 
 3213000   0.73729942   -4.9464112    1585.2307   0.04111502  0.040144189           12 
 3214000   0.74578674   -4.9061635    1583.8463  0.041066331  0.040134574           11 
 3215000   0.73528198   -4.9523976    1579.4018  0.040938358  0.040124997            7 
 3216000   0.73873932   -4.9457708    1583.7307  0.041037799  0.040115428           11 
 3217000   0.75240661   -4.9406684    1583.7406  0.041025297  0.040105819            6 
 3218000   0.72968082   -4.9371909    1584.2862  0.041026679   0.04009629            9 
 3219000   0.72148462   -4.9389467    1584.1676  0.041010864  0.040086688            6 
 3220000   0.71897932   -4.9572289    1581.6318  0.040932499  0.040077091            8 
 3221000   0.72848496   -4.9239091    1592.2371  0.041194172  0.040067606            5 
 3222000   0.73301885   -4.9224157     1589.329   0.04110617  0.040058126            8 
 3223000   0.73635874   -4.9284368    1587.4459  0.041044729  0.040048655            6 
 3224000   0.74130964   -4.9185436    1585.5045  0.040981815  0.040039162            7 
 3225000    0.7476553   -4.9611767    1584.6565  0.040947197  0.040029639            6 
 3226000   0.73194348   -4.9493588    1584.2318  0.040923534   0.04002005            4 
 3227000   0.75523912   -4.9344321    1586.5666  0.040971145  0.040010546            4 
 3228000    0.7319699   -4.9325283    1590.0238  0.041047701  0.040001021           11 
 3229000   0.73419413   -4.9354584    1587.6382  0.040973422  0.039991452            6 
 3230000   0.73867844   -4.9600629    1582.8561   0.04083736  0.039981824            5 
 3231000   0.73678297   -4.9224903    1589.5699  0.040997882  0.039972257            9 
 3232000   0.72479867   -4.9442444     1582.579  0.040804945  0.039962675            5 
 3233000   0.74109879   -4.9648216    1584.0298  0.040829719  0.039953009            9 
 3234000   0.72344704   -4.9365467     1589.231  0.040951119  0.039943469            4 
 3235000   0.71818322   -4.9510178    1587.4525  0.040892644  0.039933889            9 
 3236000   0.73188678   -4.9533024    1585.7483  0.040836123  0.039924349            7 
 3237000   0.73406377    -4.906023    1585.0763  0.040806208  0.039914757            6 
 3238000   0.72395408   -4.9417654    1579.7671  0.040656966  0.039905273            5 
 3239000   0.73578109   -4.9604572    1589.7813  0.040902061  0.039895653           11 
 3240000   0.72358976   -4.9416338    1590.7894  0.040915366   0.03988607           18 
 3241000   0.72305059   -4.9377339    1588.5877  0.040846129  0.039876515            6 
 3242000   0.71604733   -4.9377442    1587.6105  0.040808412  0.039867048            7 
 3243000   0.71947822   -4.9695752    1585.1594  0.040732846   0.03985748           13 
 3244000   0.73204428   -4.9548096    1589.9005  0.040842079   0.03984791            6 
 3245000   0.73630864   -4.9505799    1584.1584  0.040682035  0.039838341            4 
 3246000    0.7120082   -4.9456636         1593  0.040896489  0.039828901           13 
 3247000   0.73717439   -4.9412981    1590.9473   0.04083121  0.039819463            4 
 3248000   0.71438142   -4.9544659    1587.5588  0.040731702  0.039810033           11 
 3249000   0.72939018   -4.9654249    1588.8282  0.040751723  0.039800518           10 
 3250000   0.72265295   -4.9415267    1588.8371  0.040739414  0.039790944            6 
 3251000    0.7153913   -4.9235294    1588.7693  0.040725145   0.03978133            7 
 3252000   0.72727118   -4.9512436    1586.9403  0.040665753  0.039771767            8 
 3253000   0.72283361   -4.9525498    1586.5222  0.040642541  0.039762223           10 
 3254000   0.73175056   -4.9520075      1586.45  0.040628201  0.039752655            8 
 3255000   0.72605104   -4.9681953    1589.4931  0.040693629  0.039743073            7 
 3256000   0.74407985   -4.9430692    1590.8302  0.040715352  0.039733579           15 
 3257000   0.73618433    -4.934936    1591.7928   0.04072748  0.039724048           10 
 3258000   0.74051343   -4.9912083    1588.5571  0.040632215  0.039714553            7 
 3259000   0.73955004   -4.9443818    1591.2747  0.040689238   0.03970498            6 
 3260000   0.72428867   -4.9562079    1592.4407  0.040706561  0.039695476            5 
 3261000   0.72154312   -4.9720928    1588.2664  0.040587407  0.039685933            5 
 3262000   0.73976579    -4.958287     1592.956  0.040694769  0.039676382            3 
 3263000   0.72725398   -4.9561744    1588.6542  0.040572435  0.039666869            7 
 3264000   0.74598363   -4.9551638    1589.0448  0.040569976  0.039657328            6 
 3265000   0.71539285   -4.9492223    1586.4989  0.040492571  0.039647769            8 
 3266000    0.7461365    -4.919589    1590.7009  0.040587387   0.03963822            4 
 3267000   0.72272253   -4.9766566    1589.9449   0.04055568  0.039628689            8 
 3268000   0.72632196   -4.9463781    1588.2998  0.040501322  0.039619121            6 
 3269000    0.7397486   -4.9488358    1586.7353  0.040449049  0.039609657            7 
 3270000   0.72505487   -4.9749907    1592.2314  0.040576743  0.039600071            7 
 3271000   0.71921065   -4.9503354     1590.256  0.040514013  0.039590499            4 
 3272000   0.73545514   -4.9460103    1593.3459  0.040580326  0.039580951            5 
 3273000   0.72758777    -4.952641    1593.0872  0.040561341  0.039571489            8 
 3274000   0.73349461   -4.9519585    1590.3519  0.040479329  0.039561869            6 
 3275000   0.72602646   -4.9403597    1588.9901  0.040432317  0.039552269            9 
 3276000    0.7182954   -4.9886701    1589.0518  0.040421546  0.039542693            4 
 3277000   0.73479739   -4.9392494    1591.6347  0.040474894  0.039533127            6 
 3278000   0.73250843   -4.9602728    1595.2018   0.04055323  0.039523648            6 
 3279000   0.72210324   -4.9515781    1591.9877  0.040459177  0.039514179            5 
 3280000   0.72639066   -4.9561453     1589.075  0.040372839  0.039504642            7 
 3281000   0.73568362   -4.9476908    1587.2894  0.040315183  0.039495083            4 
 3282000   0.72860974   -4.9586019    1587.9192   0.04031889  0.039485586            5 
 3283000    0.7279678   -4.9620823    1590.4713  0.040371391   0.03947607            3 
 3284000   0.72640574   -4.9910708    1590.2356  0.040353117  0.039466506            6 
 3285000   0.74024832    -4.947682    1595.2223  0.040467333  0.039457024           16 
 3286000   0.73115547   -4.9677567    1589.0313  0.040298015  0.039447541           12 
 3287000   0.73167487   -4.9535945    1592.0343  0.040361887  0.039438089            5 
 3288000    0.7229172    -4.972974    1593.3821  0.040383772  0.039428611            5 
 3289000   0.71707167   -4.9613577    1592.2668  0.040343234  0.039419123            7 
 3290000   0.72811213   -4.9823157    1594.1899  0.040379683  0.039409622            6 
 3291000   0.71315966   -4.9895802    1593.3707  0.040346671  0.039400048            8 
 3292000   0.71098347   -4.9756795    1591.0569  0.040275844  0.039390557            6 
 3293000   0.71394696   -4.9553607    1594.1675   0.04034233  0.039381029            6 
 3294000   0.72673098   -4.9622745    1597.5689  0.040416132  0.039371525            7 
 3295000   0.72365465   -4.9520632    1594.6745  0.040330665  0.039362034           11 
 3296000   0.71858484   -4.9437007    1597.3909  0.040387109  0.039352599            7 
 3297000   0.72485666   -4.9533168     1595.415  0.040324916  0.039343229            7 
 3298000   0.72967516   -4.9724068    1595.4801  0.040314335  0.039333797           11 
 3299000   0.74026045   -4.9711314    1591.4092  0.040199283  0.039324292           11 
 3300000   0.72907262   -4.9575434    1595.0551  0.040279168  0.039314793            7 
 3301000    0.7391584   -4.9877572    1592.2643  0.040196514   0.03930529            5 
 3302000   0.71209167   -4.9974764    1590.0165  0.040127612  0.039295806            9 
 3303000   0.72004423    -4.964565    1594.6086   0.04023132  0.039286339            8 
 3304000   0.72650151   -4.9623686     1593.486  0.040190829  0.039276914            6 
 3305000   0.71706717    -4.987036    1593.5883  0.040181247  0.039267428            5 
 3306000   0.71459001   -4.9767422    1593.4942  0.040166722  0.039257969            8 
 3307000   0.69893185   -4.9536845     1596.186  0.040222408  0.039248553            7 
 3308000   0.71821502   -4.9657518    1596.9179  0.040228685   0.03923914            4 
 3309000     0.728451   -4.9594297     1599.918  0.040292081  0.039229727            8 
 3310000   0.71563758   -4.9590784    1598.7647  0.040250875  0.039220379            9 
 3311000   0.73178877   -4.9414227    1599.5499  0.040258479  0.039211093            8 
 3312000   0.69934272   -4.9604548     1598.741   0.04022597  0.039201765            8 
 3313000   0.70985726   -4.9915052    1594.3992  0.040104618  0.039192402           10 
 3314000   0.72527569    -4.971912    1599.4427   0.04021934  0.039183019            8 
 3315000   0.72135225   -4.9690533    1594.8715  0.040092294  0.039173738           11 
 3316000   0.72465622     -4.96629    1598.7964   0.04017884  0.039164412           11 
 3317000   0.71995881   -4.9771822    1597.4842   0.04013376  0.039155026            6 
 3318000   0.71997068   -4.9845487    1597.8209   0.04013012  0.039145662           13 
 3319000   0.71782793   -4.9529841    1596.6834   0.04008947  0.039136255            6 
 3320000    0.7202386   -4.9864775    1602.1252  0.040213985  0.039126907            3 
 3321000   0.71972574   -4.9808885    1593.5752  0.039987333  0.039117485            9 
 3322000   0.71844574   -4.9667699    1599.3645  0.040120523  0.039108125           15 
 3323000   0.72741278   -4.9897499    1598.6896  0.040091525  0.039098822            7 
 3324000   0.71194075   -4.9893444    1599.1554  0.040091141  0.039089452           12 
 3325000   0.71914298   -4.9717837    1598.9744  0.040074547  0.039080134            3 
 3326000   0.72289101   -5.0119264    1600.2359  0.040094103  0.039070853            6 
 3327000   0.72790315   -5.0060504    1597.7419  0.040019586  0.039061439            5 
 3328000   0.72537743   -4.9932357    1600.6526  0.040080444  0.039052193            9 
 3329000   0.71172096   -4.9815801    1601.3581  0.040086064  0.039042924            8 
 3330000   0.72600371   -4.9799649    1598.7801  0.040009511  0.039033496            9 
 3331000   0.71117283    -5.003248    1601.3212  0.040061072  0.039024134           10 
 3332000    0.7202071    -4.998976    1604.1979  0.040120997  0.039014764           11 
 3333000   0.72555583   -4.9755159    1598.8421   0.03997505  0.039005478            7 
 3334000   0.70883518   -4.9643237    1600.6033  0.040007081  0.038996214            5 
 3335000   0.70541079   -4.9590422    1604.3643  0.040089064  0.038986887           10 
 3336000   0.70189407   -4.9884941    1598.8155  0.039938436  0.038977613            4 
 3337000    0.7062139   -4.9823591    1600.0231  0.039956625  0.038968246            8 
 3338000   0.74066182   -4.9834532    1600.4664  0.039955723  0.038958981            4 
 3339000   0.69656276   -4.9700411    1600.9946  0.039956938   0.03894971            8 
 3340000   0.70589118   -4.9829985    1605.4098  0.040055135  0.038940404            9 
 3341000   0.72074033   -4.9915678    1598.5236  0.039871386  0.038931173            7 
 3342000   0.71094844     -4.96754    1603.0133  0.039971407  0.038921811           15 
 3343000    0.7082752   -5.0130297    1599.9227  0.039882409  0.038912473           10 
 3344000    0.7058071   -4.9813643     1601.016  0.039897727  0.038903163            7 
 3345000   0.72300969   -4.9698497    1604.0884  0.039962343  0.038893888           16 
 3346000     0.725386   -4.9672481    1605.7236  0.039991123  0.038884604            5 
 3347000    0.7141501    -4.953093     1603.522   0.03992436  0.038875323           11 
 3348000   0.71834859   -4.9811294    1602.8616  0.039895997  0.038866016            4 
 3349000   0.72219712   -5.0288659    1598.9554  0.039786885  0.038856716            3 
 3350000   0.72410514   -4.9609834    1604.2949  0.039907833  0.038847443            5 
 3351000   0.72565878   -4.9897712    1606.2464  0.039944454  0.038838218            6 
 3352000   0.71699172   -4.9937008    1601.2452  0.039808204  0.038828996            6 
 3353000   0.71077833   -5.0076157    1602.7244  0.039833095   0.03881965            8 
 3354000   0.70475825   -4.9804753    1604.9684  0.039876972  0.038810382           10 
 3355000   0.70180583   -4.9827628    1604.0685  0.039842735  0.038801101            4 
 3356000   0.71792499   -4.9912591     1607.772  0.039922824  0.038791839            4 
 3357000   0.72173267   -4.9943997    1604.0612  0.039818816  0.038782572            6 
 3358000   0.72800772   -4.9745939    1610.7766   0.03997361  0.038773375           11 
 3359000   0.71944463   -4.9968311    1607.5794   0.03988239  0.038764158            5 
 3360000   0.73053196   -4.9893953    1602.1781   0.03973656  0.038754978            3 
 3361000   0.69675644   -4.9923972    1606.5179   0.03983234  0.038745687           14 
 3362000   0.71614505    -4.998895     1605.688   0.03979992  0.038736371           12 
 3363000   0.71687807   -4.9898577    1602.4287  0.039707322  0.038727081           10 
 3364000   0.72167066   -4.9758551     1607.273  0.039815523  0.038717858            6 
 3365000   0.71133147   -5.0100789    1602.1251  0.039676205  0.038708597            9 
 3366000   0.72015437   -4.9854325    1604.7011  0.039728191  0.038699309            2 
 3367000   0.70728967   -4.9709859    1611.8817  0.039894112   0.03869001            8 
 3368000   0.70815309   -4.9861944    1605.5552  0.039725732  0.038680711           14 
 3369000    0.6989576   -4.9620169    1607.3302  0.039757847  0.038671448            8 
 3370000   0.71968981     -4.98757    1612.1453  0.039865115  0.038662178           10 
 3371000   0.69945694   -4.9999468     1604.878  0.039673638  0.038652982            2 
 3372000   0.70198878   -4.9547512    1611.1725  0.039817431  0.038643724           13 
 3373000   0.72098793   -4.9819061     1607.444  0.039713509   0.03863451           13 
 3374000   0.70200915   -5.0146487    1606.1948  0.039670885  0.038625233            6 
 3375000   0.72253302   -5.0242005    1604.3497  0.039613572  0.038615974            7 
 3376000   0.70573123   -5.0123911    1603.5227  0.039581424  0.038606718            7 
 3377000   0.71739737   -4.9962253    1608.3576  0.039689014  0.038597443           10 
 3378000   0.70302103   -4.9767877    1609.1518  0.039696858  0.038588278            9 
 3379000     0.688861   -5.0039063    1610.2715  0.039712722  0.038579095            3 
 3380000   0.71264797   -4.9883969    1606.6952  0.039612802  0.038569872            8 
 3381000   0.71169014   -4.9966488    1615.8596  0.039826965  0.038560673            5 
 3382000   0.70859313   -4.9828101     1608.677  0.039638207  0.038551556           13 
 3383000   0.70207051   -4.9923722    1609.8227  0.039654711  0.038542436            9 
 3384000   0.71561357   -4.9980869    1609.6686    0.0396392  0.038533283            4 
 3385000   0.70925426   -5.0000613    1611.5338  0.039673407  0.038524016            9 
 3386000   0.72596742   -5.0067811    1609.1825  0.039603823  0.038514824            8 
 3387000    0.7059475   -5.0015219    1606.1605  0.039517777  0.038505641            7 
 3388000   0.71094392   -5.0059719    1609.7792  0.039595119  0.038496415            7 
 3389000   0.70749065    -5.011852    1607.4876  0.039527088  0.038487196            6 
 3390000   0.70434737   -5.0103642    1603.1939   0.03940988  0.038477911           10 
 3391000   0.70536614   -4.9875242    1610.6324  0.039581057  0.038468708           16 
 3392000    0.7059584   -5.0219443    1607.9548  0.039503606  0.038459424           13 
 3393000   0.70837641    -4.985241    1610.3483   0.03955075  0.038450097           10 
 3394000   0.70311711   -5.0081179    1609.1009  0.039508468  0.038440885            9 
 3395000   0.70899499   -4.9895121    1607.8937    0.0394672  0.038431656            7 
 3396000   0.69572581   -4.9987592    1610.4357  0.039517954  0.038422392            4 
 3397000   0.70676218   -4.9611405    1611.6529  0.039536182  0.038413192           10 
 3398000   0.70908474   -5.0015726    1608.8287  0.039455285  0.038403969           15 
 3399000     0.700977   -5.0125457    1606.7381  0.039392423   0.03839467           12 
 3400000   0.70556667   -5.0114235    1608.7953  0.039431258  0.038385376           15 
 3401000   0.71478058   -4.9993667    1609.2446  0.039430671  0.038376124           12 
 3402000   0.70238817   -5.0140202    1607.8238  0.039384279  0.038366894            6 
 3403000   0.71021033    -5.023544     1607.773  0.039371461  0.038357649            6 
 3404000   0.71833747   -4.9760538    1616.8292    0.0395816  0.038348461           11 
 3405000   0.69642281   -5.0048944    1607.3794  0.039338702  0.038339324            6 
 3406000   0.72241479   -5.0024722    1610.5721  0.039405267  0.038330138           10 
 3407000   0.71586708   -5.0083297    1604.5008  0.039245201  0.038320916            9 
 3408000   0.68992812   -5.0073971    1615.2425  0.039496344  0.038311742            6 
 3409000   0.70454955   -4.9871706    1611.4276  0.039391502  0.038302554           13 
 3410000   0.71144169   -4.9933636    1610.2404  0.039350938  0.038293397            4 
 3411000   0.71246852    -5.012597     1609.903  0.039331159  0.038284226            5 
 3412000    0.7066031   -4.9831826    1612.0626  0.039372377  0.038275005            7 
 3413000   0.71015823    -4.985227    1611.0513  0.039336148  0.038265854           11 
 3414000   0.71227683   -5.0269304    1612.2397  0.039353635  0.038256705            6 
 3415000   0.70802475   -5.0202727    1608.8064  0.039258331  0.038247423            5 
 3416000   0.70052953   -5.0192234    1608.0325  0.039227959  0.038238233            9 
 3417000   0.70160746   -5.0073428    1614.6254  0.039377265  0.038229084            9 
 3418000   0.70536151   -5.0089663    1610.5594  0.039266612  0.038219925           17 
 3419000   0.69984242   -5.0041834    1616.9658  0.039411274   0.03821079            7 
 3420000   0.71064154   -5.0237873    1613.6727   0.03931951  0.038201639            4 
 3421000   0.70538157   -4.9797417    1614.8645  0.039337048  0.038192487            5 
 3422000   0.70137495   -5.0046152    1615.3978  0.039338541  0.038183415            8 
 3423000   0.70873377   -5.0103079    1613.7586  0.039287141  0.038174351           17 
 3424000   0.69158695   -5.0143748    1620.8271  0.039447699  0.038165261           11 
 3425000   0.71136872    -5.005047    1611.2158  0.039202331  0.038156131            7 
 3426000   0.70200497   -5.0040023    1614.1069  0.039261212  0.038146947            8 
 3427000   0.69672257   -5.0223931     1611.582  0.039188356  0.038137748            5 
 3428000   0.70360967   -5.0097396     1613.696  0.039228315  0.038128545           15 
 3429000   0.70440561   -5.0006991    1618.8934  0.039343185  0.038119361            3 
 3430000   0.70007974   -5.0289235     1615.144  0.039240622  0.038110154            7 
 3431000   0.69641997   -5.0296573    1609.7773  0.039098836  0.038100927            7 
 3432000   0.71080669   -4.9946846    1617.7365  0.039280704  0.038091728           10 
 3433000   0.70773361   -5.0134231    1616.6683  0.039243332  0.038082625            6 
 3434000   0.71020757   -5.0110938    1612.9162  0.039140852  0.038073541            7 
 3435000   0.67785049   -5.0056092    1610.8317  0.039078887  0.038064372            7 
 3436000   0.70968065   -5.0254408    1610.7928  0.039066571  0.038055171            9 
 3437000   0.70214276   -5.0148554    1611.7279  0.039077877  0.038046043           24 
 3438000    0.6902245   -5.0333783    1614.6794  0.039138051  0.038036917            6 
 3439000   0.70698515   -5.0183613    1614.9778  0.039133899   0.03802774            4 
 3440000   0.72069465   -5.0041648    1618.9571  0.039218922  0.038018616           12 
 3441000   0.70500994    -4.996503    1615.3199  0.039119439  0.038009538           18 
 3442000   0.70526322   -5.0333486      1614.23  0.039081686  0.038000444            6 
 3443000   0.69048018   -5.0108593    1619.7522  0.039203993  0.037991383           20 
 3444000   0.69154828   -4.9741489    1615.1665  0.039081652  0.037982329           11 
 3445000   0.69625487   -5.0148121    1617.2768  0.039121354  0.037973253            5 
 3446000     0.712187   -5.0177116     1615.031  0.039055693   0.03796413            8 
 3447000   0.68727563   -5.0272244    1620.0489  0.039165672  0.037955099            8 
 3448000    0.6908612   -5.0397969    1616.7269  0.039074025  0.037946059            6 
 3449000   0.69973797   -5.0406007    1614.5851  0.039010947  0.037936958            8 
 3450000    0.7057586   -4.9922032    1614.8687  0.039006491  0.037927927            8 
 3451000   0.69315912   -5.0201503    1622.3031   0.03917471  0.037918865            4 
 3452000   0.69916135   -5.0295338    1618.8685  0.039080449  0.037909815            9 
 3453000   0.68744784   -5.0018856    1617.8664  0.039044947  0.037900783            9 
 3454000   0.71400311   -5.0076921    1621.4653   0.03912047  0.037891775            9 
 3455000   0.69023559   -5.0298433     1613.631  0.038920188   0.03788269            7 
 3456000   0.70785817   -5.0337903    1617.4517  0.039001054  0.037873639           12 
 3457000   0.70345146   -5.0269009    1618.2347  0.039008646  0.037864577            7 
 3458000   0.69979093   -5.0057849    1616.9234  0.038965766  0.037855529            9 
 3459000   0.69233222   -5.0346944    1619.5503  0.039017788  0.037846485           10 
 3460000   0.70857026   -5.0204226    1619.6316  0.039008469  0.037837431           15 
 3461000   0.71139429   -5.0336114    1615.7041  0.038902632  0.037828358            6 
 3462000   0.69089131   -5.0197106    1619.1218  0.038973663  0.037819289            9 
 3463000   0.69059765   -5.0061165    1619.4322  0.038969876  0.037810285           11 
 3464000   0.69625127   -5.0096985    1618.7649  0.038942573  0.037801301            7 
 3465000   0.70700159   -5.0272672    1619.0577  0.038938378  0.037792302           13 
 3466000    0.6989604   -5.0186532    1622.3046  0.039005209  0.037783367            4 
 3467000   0.70584863   -5.0300939    1619.6249  0.038929549  0.037774386           10 
 3468000   0.70635748     -5.00058    1621.3991  0.038960956  0.037765421            7 
 3469000   0.70797792    -5.022319      1621.71  0.038957192  0.037756472            9 
 3470000   0.69477614   -5.0284768    1617.8832  0.038854063   0.03774751           23 
 3471000   0.69971376   -5.0272722    1618.7314  0.038863234  0.037738566            8 
 3472000   0.70820575   -5.0147571    1619.3082  0.038865885  0.037729574           16 
 3473000   0.70835672   -5.0290294    1621.2042  0.038900187  0.037720629           10 
 3474000   0.68265742   -5.0300307    1621.6001  0.038898485  0.037711647            9 
 3475000   0.69845279   -5.0173087    1623.0891  0.038922999  0.037702668            4 
 3476000   0.68265993   -5.0472667    1619.1774  0.038818024  0.037693705            8 
 3477000   0.70259987   -5.0102395    1621.6123  0.038865217  0.037684714           13 
 3478000    0.6826577   -5.0077481    1618.7722  0.038785992  0.037675672            6 
 3479000   0.69230635   -5.0390788    1622.1326  0.038855336  0.037666631           16 
 3480000   0.69367634   -5.0450414    1619.7622   0.03878741  0.037657595            7 
 3481000   0.69837074   -5.0499453    1621.1125  0.038808593  0.037648512           15 
 3482000   0.69869946   -5.0585775    1617.4412  0.038709583  0.037639472           13 
 3483000   0.68481506   -5.0570142    1622.7069  0.038824455  0.037630411            4 
 3484000   0.69936005   -5.0368711     1619.682  0.038740959  0.037621404            7 
 3485000   0.69409721   -5.0407807    1621.1663  0.038765335  0.037612397           10 
 3486000   0.69069475   -5.0348359    1621.7233   0.03876753  0.037603422           10 
 3487000   0.69473336   -5.0493636    1622.1598  0.038766843  0.037594437            9 
 3488000   0.69288989   -5.0307575    1622.1792  0.038756192  0.037585523            6 
 3489000   0.69795349   -5.0435754    1617.9444  0.038643938  0.037576584            6 
 3490000   0.70285745   -5.0386835    1620.8219  0.038701574  0.037567679           10 
 3491000   0.69496549   -5.0047615    1627.3441  0.038846178  0.037558843           10 
 3492000   0.69137136    -5.060227    1623.8352  0.038751317  0.037549972           11 
 3493000     0.685294   -5.0353877    1624.4394  0.038754638  0.037541038           10 
 3494000   0.68310499   -5.0499903    1619.8562  0.038634234  0.037532072           10 
 3495000   0.69190588     -5.03606    1623.2078  0.038703094   0.03752312           10 
 3496000   0.69812708   -5.0524083     1623.736  0.038704614  0.037514206            7 
 3497000   0.68578158   -5.0474737    1626.1839  0.038751881  0.037505328            7 
 3498000   0.67542419   -5.0581937    1623.4859  0.038676526  0.037496413            5 
 3499000   0.69017957   -5.0328347    1622.1113  0.038632737  0.037487534            8 
 3500000   0.67941796   -5.0454906    1627.3078  0.038745423  0.037478661            3 
 3501000   0.68247625   -5.0496625    1625.1692  0.038683452  0.037469767           13 
 3502000   0.68814619   -5.0583268    1628.0867   0.03874183  0.037460871            6 
 3503000   0.69344758   -5.0296712    1625.5144  0.038669579  0.037451984            5 
 3504000   0.70003825   -5.0274986    1629.2894  0.038748321  0.037443168            8 
 3505000   0.68015252   -5.0457697    1625.2822  0.038641993  0.037434311           12 
 3506000   0.69323281   -5.0260775    1625.4118  0.038634051   0.03742544            6 
 3507000    0.6794119   -5.0613014    1623.8805  0.038586648  0.037416598            9 
 3508000   0.69671012   -5.0504234    1629.6428  0.038712533  0.037407762            5 
 3509000   0.69538196   -5.0419527     1630.151  0.038713569  0.037398935            8 
 3510000   0.69302021      -5.0467    1630.7238  0.038716139  0.037390117            7 
 3511000    0.6996757   -5.0460283     1628.223  0.038645756   0.03738128           11 
 3512000   0.68888048    -5.029221    1629.6161  0.038667809  0.037372457            5 
 3513000   0.69691513   -5.0417818    1630.4677  0.038677001  0.037363703            6 
 3514000   0.68276577   -5.0338306    1630.9346  0.038677068  0.037354872            7 
 3515000   0.68527844   -5.0299736    1626.2708  0.038555496  0.037346078           13 
 3516000   0.68093812   -5.0494252    1633.2151  0.038709117  0.037337356            6 
 3517000   0.69799202   -5.0537317    1630.9173  0.038643666  0.037328665           13 
 3518000   0.69481393   -5.0546497    1626.5356  0.038528888  0.037319883            8 
 3519000   0.67220496   -5.0231476    1628.6686  0.038568453  0.037311068           13 
 3520000   0.69021396   -5.0299129    1632.3239  0.038644031  0.037302259            7 
 3521000    0.6725063   -5.0378047    1628.9891   0.03855413  0.037293431           11 
 3522000   0.68139183   -5.0479326    1627.4096   0.03850581  0.037284587           11 
 3523000   0.68108055   -5.0404279     1625.639     0.038453  0.037275726            7 
 3524000   0.70132891   -5.0479577    1626.1313   0.03845373  0.037266873            8 
 3525000   0.68429377   -5.0261387    1630.5274  0.038546746  0.037258025           10 
 3526000   0.69480755   -5.0365433    1627.9527  0.038474964  0.037249194            8 
 3527000     0.696313    -5.051263    1625.0701  0.038395948   0.03724034           11 
 3528000   0.70088346   -5.0377681    1630.4434  0.038511986  0.037231409            9 
 3529000   0.68787173   -5.0324237    1626.9368  0.038418269  0.037222506            6 
 3530000   0.68289868   -5.0628535    1624.2122  0.038343063  0.037213672           13 
 3531000   0.67166699   -5.0816436    1621.2082   0.03826131  0.037204725           21 
 3532000   0.69978041   -5.0340728    1627.0881  0.038389205  0.037195811           18 
 3533000   0.68672414   -5.0523055    1623.9188  0.038303585  0.037186865            9 
 3534000   0.68274209   -5.0439853    1626.4632  0.038352744  0.037177958           15 
 3535000    0.6882138    -5.055761    1625.2215  0.038312624  0.037169068           10 
 3536000     0.685974   -5.0695165    1625.0477  0.038297692   0.03716014            5 
 3537000   0.68039829   -5.0278856    1634.4769  0.038509022  0.037151257           10 
 3538000   0.67840045   -5.0422665    1632.7156  0.038456652  0.037142443           16 
 3539000     0.692845    -5.035236    1630.0004  0.038381851  0.037133636            7 
 3540000   0.67905026   -5.0536808    1625.6912  0.038269566  0.037124777           16 
 3541000   0.68259318   -5.0647784    1630.2501  0.038366048  0.037115888           11 
 3542000   0.69838282   -5.0609138    1631.0428  0.038373867  0.037107014           11 
 3543000   0.68929333   -5.0564954    1627.3819  0.038276929  0.037098162           12 
 3544000   0.66994411   -5.0649887    1630.9569   0.03835019  0.037089298           12 
 3545000     0.685484   -5.0546986    1624.6408  0.038190897  0.037080375           11 
 3546000    0.6642149   -5.0726493    1628.2114  0.038264039   0.03707146            8 
 3547000   0.69768575   -5.0605202    1626.1581  0.038205011   0.03706257            4 
 3548000   0.68921829   -5.0671747    1628.6004  0.038251607   0.03705364            5 
 3549000   0.68697839   -5.0418559    1628.7314  0.038243905  0.037044784           11 
 3550000    0.6740657   -5.0487537     1626.407  0.038178567  0.037035895            9 
 3551000   0.66663736   -5.0648906    1627.9815  0.038204767  0.037026995            7 
 3552000   0.68947159    -5.062546    1626.1582  0.038151234  0.037018067            6 
 3553000   0.67712462   -5.0788477    1624.9992  0.038113313  0.037009147            9 
 3554000   0.67967799   -5.0550464    1627.9006   0.03817062   0.03700026            4 
 3555000   0.68335102   -5.0475549    1633.8001  0.038298174  0.036991462            7 
 3556000   0.67941394    -5.089517    1629.2892  0.038181694  0.036982631           10 
 3557000   0.68418539   -5.0486684    1629.5535  0.038177151  0.036973798           17 
 3558000   0.68288271   -5.0584052    1628.8676  0.038150356  0.036964959           10 
 3559000   0.68183622   -5.0474737    1635.0317  0.038283968  0.036956166           11 
 3560000   0.67632129   -5.0781333    1634.5412  0.038261733  0.036947377           12 
 3561000   0.67767595   -5.0551024    1629.1514  0.038124856  0.036938545           13 
 3562000   0.67922401   -5.0618668    1631.6999  0.038173776  0.036929734           12 
 3563000   0.67411747    -5.085347    1627.9536  0.038075441  0.036920927           24 
 3564000   0.68852425   -5.0608712    1632.0739  0.038161099  0.036912088           13 
 3565000   0.67921362   -5.0790476    1630.0707   0.03810357  0.036903267            5 
 3566000    0.7076676   -5.0613382    1630.9259   0.03811287  0.036894419           13 
 3567000     0.684083   -5.0601668    1634.3764  0.038182796  0.036885591            9 
 3568000    0.6816564   -5.0528851    1636.1714  0.038214017  0.036876753           10 
 3569000   0.67185398   -5.0475162    1634.0958  0.038154847  0.036867901            9 
 3570000    0.6912404   -5.0443019    1631.1147  0.038074573  0.036859086            9 
 3571000   0.68211015   -5.0636378    1629.1593  0.038018279  0.036850257            8 
 3572000   0.67831476   -5.0407646    1630.7904  0.038045688  0.036841428           11 
 3573000   0.67533751   -5.0610259    1632.6706  0.038078892  0.036832646           15 
 3574000   0.67548466    -5.058162    1631.9325  0.038051027  0.036823858           22 
 3575000   0.69449797   -5.0573986    1632.7485  0.038059407  0.036815015            7 
 3576000   0.68768641   -5.0702472    1629.4687  0.037972331  0.036806194            7 
 3577000   0.67279157   -5.0681186    1632.7041  0.038037091  0.036797336           11 
 3578000   0.68605539   -5.0691625    1634.8388  0.038076179  0.036788527            9 
 3579000   0.67943219   -5.0352521    1632.9565  0.038021713  0.036779739            8 
 3580000   0.67966415   -5.0508194    1632.7458  0.038006186  0.036770918            8 
 3581000   0.67271843   -5.0544395    1632.8131   0.03799714  0.036762083            6 
 3582000   0.68971245   -5.0867206    1629.3852  0.037906783  0.036753196           11 
 3583000   0.68072641   -5.0840823    1630.3766  0.037919262  0.036744333           20 
 3584000   0.66027721   -5.0666804    1632.3126  0.037953697  0.036735492            5 
 3585000   0.66387787   -5.0814139    1632.3687  0.037944414  0.036726664            9 
 3586000   0.67030147   -5.0461573    1636.5284  0.038030498  0.036717854            9 
 3587000   0.68986198   -5.0722165    1632.7792  0.037932795  0.036709061            5 
 3588000   0.68509901   -5.0610026    1632.9169  0.037925421  0.036700243            6 
 3589000   0.66776098   -5.0593545    1636.1724  0.037990443   0.03669146           11 
 3590000   0.67404386   -5.0305344     1635.017   0.03795304  0.036682676            6 
 3591000   0.67758802   -5.0732216    1635.1566  0.037945713  0.036673921           11 
 3592000   0.66521163   -5.0677584    1641.5062  0.038082457  0.036665139           15 
 3593000   0.66107979   -5.0942408    1632.4117  0.037860927  0.036656431            7 
 3594000   0.68006383   -5.0831193    1635.5561    0.0379233  0.036647686            9 
 3595000   0.68706659   -5.0751775    1635.5592  0.037912823  0.036638893           10 
 3596000   0.67066854    -5.082392    1633.8863  0.037863512  0.036630111           10 
 3597000    0.6742687   -5.0474104    1634.5752  0.037868946  0.036621288            6 
 3598000   0.67664903   -5.0732157     1633.484  0.037833148  0.036612505            7 
 3599000   0.68198609   -5.0588005    1632.1835  0.037792525  0.036603722            5 
 3600000   0.67620446   -5.0899927    1632.2181  0.037782827  0.036594946            7 
 3601000   0.66406348   -5.0834486    1631.3813  0.037752969  0.036586123           11 
 3602000   0.68377873   -5.0624014    1638.1141  0.037898254  0.036577341            7 
 3603000   0.66786231   -5.0995575    1632.0693  0.037747926  0.036568514           12 
 3604000   0.66927151   -5.0886561    1631.2337   0.03771813  0.036559682            9 
 3605000   0.67037396   -5.0860654    1632.3204  0.037732787  0.036550834           19 
 3606000   0.67282013   -5.0949285    1634.6095  0.037775224  0.036541985           11 
 3607000   0.68412291   -5.0605667    1634.6906  0.037766625  0.036533162            9 
 3608000   0.68536952   -5.0852236    1633.9385  0.037738785  0.036524395           18 
 3609000   0.68076376   -5.0724885    1639.5284  0.037857403  0.036515604           13 
 3610000   0.68622696   -5.0841135    1633.1994  0.037700816  0.036506796            9 
 3611000   0.69910755   -5.0561576    1631.6493  0.037654603  0.036497945            3 
 3612000   0.66599295   -5.0751918    1636.9035  0.037765399  0.036489214           17 
 3613000   0.68003546    -5.093819    1632.9141  0.037662931  0.036480426           11 
 3614000   0.66697026   -5.0713414    1639.7494  0.037810124  0.036471654            9 
 3615000   0.67815648   -5.0471147    1639.6228  0.037796744   0.03646294           14 
 3616000   0.68015877   -5.0892016    1629.6811  0.037557178  0.036454159           15 
 3617000    0.6896019   -5.0782159    1634.9141  0.037667361  0.036445349           17 
 3618000   0.67545303   -5.0517914    1636.9567  0.037703996  0.036436553            6 
 3619000   0.67211859   -5.1005698    1633.1051  0.037604888  0.036427748            8 
 3620000   0.66591749   -5.0854181    1633.9663  0.037614325  0.036418982           11 
 3621000   0.67037864   -5.0807309    1631.1806  0.037539827  0.036410159            5 
 3622000   0.66840622   -5.0730831     1635.609   0.03763135  0.036401336           15 
 3623000   0.66844126   -5.0972724    1631.9429  0.037536638   0.03639251            5 
 3624000   0.67561353   -5.0926221    1637.3619  0.037650891  0.036383715            8 
 3625000   0.67040267   -5.0711529    1636.2036  0.037613876  0.036374873            6 
 3626000   0.67322729   -5.0916623    1638.3554  0.037652954  0.036366075           16 
 3627000   0.67138065   -5.0891196    1636.7599  0.037605917  0.036357302           13 
 3628000   0.67239872   -5.0859804    1637.3864  0.037609941  0.036348514           11 
 3629000   0.66581896   -5.0825421    1636.8749  0.037587832  0.036339708           16 
 3630000   0.66424606   -5.0872351    1635.8256  0.037553388  0.036330945            7 
 3631000   0.67316356   -5.0559061    1637.2175   0.03757499  0.036322174            8 
 3632000   0.65543296   -5.0954428    1636.5121  0.037548461  0.036313444            6 
 3633000   0.66076811   -5.0893972    1637.0659  0.037550829  0.036304645            6 
 3634000   0.66644351   -5.0850959    1640.6443  0.037622553  0.036295898            6 
 3635000   0.67434528   -5.0900468    1634.2243  0.037465024  0.036287145           13 
 3636000   0.66899982   -5.0805014    1639.1685  0.037568034  0.036278387           10 
 3637000   0.65474304   -5.0895516    1636.8562  0.037504724  0.036269597           21 
 3638000   0.67897817   -5.1091033    1633.8866  0.037426392  0.036260774           18 
 3639000   0.64929587   -5.0750556    1638.2105  0.037515126  0.036252057            8 
 3640000   0.65627403   -5.1028738    1639.4973  0.037534278  0.036243302            6 
 3641000   0.67328428   -5.1073579    1637.2923  0.037473504  0.036234518            9 
 3642000   0.67814899   -5.0942877    1637.4837  0.037467593   0.03622577            6 
 3643000   0.68151089    -5.082983    1638.5718  0.037482199  0.036216966           13 
 3644000   0.66700914   -5.1043587    1634.0937  0.037369504  0.036208135           11 
 3645000   0.65714108   -5.0903078    1639.0515    0.0374726  0.036199299            9 
 3646000   0.66714033   -5.0926816    1633.9234  0.037345114  0.036190488            8 
 3647000   0.67796701   -5.0849589    1641.6041  0.037510375  0.036181614            9 
 3648000   0.67762164   -5.0836444    1642.3656  0.037517489  0.036172837           14 
 3649000   0.67249544   -5.0836992    1634.7315  0.037332865  0.036164056            9 
 3650000   0.68196249   -5.0976581     1636.179  0.037355685  0.036155268            7 
 3651000   0.67215297   -5.1173068    1633.8133  0.037291456  0.036146402            9 
 3652000   0.66087281   -5.0866457    1638.3007  0.037383642  0.036137582            4 
 3653000    0.6654151   -5.1142953    1637.0678  0.037345283  0.036128756           14 
 3654000   0.64606918   -5.1156426    1637.3559  0.037341632  0.036119968            9 
 3655000   0.67370751   -5.0945654    1639.9701  0.037391019  0.036111199           12 
 3656000   0.65687675   -5.1002607    1641.3363  0.037411933  0.036102437           17 
 3657000   0.66021971   -5.1077103    1634.6575   0.03724951  0.036093699            9 
 3658000   0.66723292   -5.0994388    1640.4826   0.03737203  0.036084967           16 
 3659000   0.66175263   -5.0815451    1639.4399  0.037338067  0.036076234           10 
 3660000   0.65710496   -5.0845288    1638.3662  0.037303421  0.036067476            6 
 3661000   0.66785589   -5.0979777    1637.1934  0.037266535  0.036058708           10 
 3662000   0.67730771   -5.0951725    1639.2572  0.037303322  0.036050001           10 
 3663000   0.65384979   -5.0981741    1642.5215  0.037367402  0.036041269           13 
 3664000   0.66913608   -5.0829031    1639.1083  0.037279573  0.036032511            4 
 3665000   0.66609954   -5.0795556    1644.5656  0.037393488  0.036023816            7 
 3666000   0.66391072    -5.114058    1636.8129  0.037207057  0.036015079            6 
 3667000   0.66841609   -5.1112048    1641.6511  0.037306861  0.036006322           15 
 3668000   0.65932828   -5.1013736    1641.6042  0.037295625  0.035997574           14 
 3669000   0.67333515    -5.091985    1639.9859  0.037248702  0.035988822           11 
 3670000   0.66399136   -5.0926957    1637.1244  0.037173579    0.0359801            5 
 3671000   0.65463147   -5.0788453    1640.0728  0.037230382  0.035971387           16 
 3672000   0.66683887   -5.1102715    1638.2572  0.037179039  0.035962644            7 
 3673000   0.66242169   -5.0826587    1642.6438   0.03726844  0.035953932           13 
 3674000   0.65376236   -5.0997642    1637.7044  0.037146262  0.035945165            7 
 3675000    0.6762766   -5.1068846    1638.0767  0.037144595  0.035936468            5 
 3676000   0.64902161   -5.1115904     1639.111  0.037157939  0.035927789           20 
 3677000   0.67022901   -5.1081494    1640.1258  0.037170832  0.035919022           11 
 3678000   0.66628693   -5.0999025    1636.5512  0.037079736  0.035910302            7 
 3679000   0.64941456    -5.125715    1639.8971  0.037145446  0.035901573            7 
 3680000   0.66742097   -5.1049866     1641.542  0.037172599  0.035892849            6 
 3681000   0.66169818   -5.0955059    1638.3286  0.037089753  0.035884105           17 
 3682000   0.66838792   -5.0825968    1642.1843  0.037166944  0.035875413           44 
 3683000   0.66706005   -5.1044265    1640.4211  0.037116959  0.035866741           16 
 3684000   0.66081868    -5.103454    1639.8287  0.037093483  0.035858071           19 
 3685000   0.66239422   -5.1265879    1637.6744  0.037034699  0.035849326           11 
 3686000   0.67812641   -5.0902234    1644.7488  0.037184591  0.035840609            6 
 3687000   0.66103061   -5.1052424    1639.0525  0.037045757  0.035831941            9 
 3688000   0.65155205   -5.0876944    1641.9139  0.037100368  0.035823279            7 
 3689000   0.65247775   -5.1042434    1639.0207  0.037024956  0.035814606           15 
 3690000   0.66036016    -5.088989    1639.7555  0.037031515  0.035805912           12 
 3691000   0.66067947   -5.0964116    1641.3382  0.037057215  0.035797246           12 
 3692000   0.65802054   -5.0881812    1643.0638  0.037086128   0.03578854            7 
 3693000   0.66624268   -5.1106996    1646.3506  0.037150254  0.035779847            4 
 3694000   0.66894874   -5.1177648    1644.1492  0.037090533  0.035771078           10 
 3695000   0.66336159    -5.138402    1636.7091    0.0369127  0.035762355            8 
 3696000   0.65786715   -5.0840236    1643.9172  0.037065233  0.035753613           10 
 3697000   0.66579471   -5.1063323    1643.3089  0.037041496  0.035744905            9 
 3698000   0.64762523   -5.1043974    1638.1306  0.036914788  0.035736185           14 
 3699000   0.66493123   -5.1040389    1641.2284  0.036974597  0.035727397           11 
 3700000   0.65499333   -5.0817853    1647.3944  0.037103478  0.035718698           15 
 3701000   0.65191457   -5.0965584    1639.6271  0.036918559  0.035710044            6 
 3702000   0.65805368   -5.1153515    1642.1513  0.036965409  0.035701301           16 
 3703000   0.66697755   -5.0936638    1642.3282  0.036959406  0.035692549           20 
 3704000   0.66650698   -5.0872747    1643.1337   0.03696755  0.035683826            6 
 3705000   0.65583258   -5.0941045    1636.4516  0.036807279  0.035675123            7 
 3706000   0.66112123    -5.117683    1642.1187  0.036924777  0.035666367            8 
 3707000   0.64923692   -5.1113654    1639.1099  0.036847179  0.035657624           10 
 3708000   0.64525967   -5.1087809     1642.774  0.036919588  0.035648944            8 
 3709000   0.64976073   -5.1100124    1642.4679  0.036902756  0.035640208           19 
 3710000   0.65068488   -5.1076668    1644.4225  0.036936715  0.035631528           18 
 3711000   0.65771687   -5.0965297    1647.5126  0.036996151  0.035622839           10 
 3712000   0.65718419   -5.1076041    1636.8097  0.036745908  0.035614152           12 
 3713000   0.65396231   -5.1274119    1639.9426  0.036806324  0.035605385           26 
 3714000   0.67529216   -5.1151632    1648.6268  0.036991268  0.035596691           17 
 3715000   0.65561498   -5.1117334    1641.6803   0.03682549   0.03558804           17 
 3716000   0.67934528   -5.1148615    1645.0297  0.036890692  0.035579405           11 
 3717000   0.66050393   -5.1166362     1639.886  0.036765447  0.035570767            7 
 3718000   0.65800452   -5.1042714    1642.3233  0.036810186  0.035562054            7 
 3719000   0.64409818   -5.1238449    1644.1661  0.036841581  0.035553339           10 
 3720000   0.65795808   -5.1101495    1643.8967  0.036825643  0.035544682            7 
 3721000    0.6529279   -5.1118537    1644.8682  0.036837503   0.03553592            6 
 3722000   0.65230778   -5.1171178    1637.7661  0.036668595  0.035527184           16 
 3723000   0.65240899   -5.1213379    1639.9093  0.036706718  0.035518421           14 
 3724000   0.64348589   -5.1312035    1643.8866  0.036785863   0.03550968            8 
 3725000   0.65499443   -5.1326273    1637.7501  0.036638704  0.035500951           11 
 3726000   0.64322694   -5.1172748    1642.0529  0.036725104   0.03549222            7 
 3727000   0.64340512   -5.0852604    1649.6715  0.036885599  0.035483572            8 
 3728000   0.65498574   -5.1176192    1643.7925  0.036744289  0.035474869           11 
 3729000   0.67065933   -5.1214603    1643.0996  0.036718951  0.035466168           10 
 3730000   0.66073775   -5.1159276    1640.8638  0.036659156  0.035457472           13 
 3731000   0.65572229   -5.0980282     1641.922  0.036672965  0.035448758            6 
 3732000   0.65179458    -5.109074    1646.1954  0.036758562  0.035440088            7 
 3733000   0.65685862   -5.1080423    1643.5932  0.036690624  0.035431417            9 
 3734000    0.6563201    -5.112895    1647.1089   0.03675926  0.035422736           14 
 3735000   0.65813396   -5.1006971    1642.3452  0.036643133  0.035414012            6 
 3736000   0.65699065   -5.1289799    1643.4791  0.036658617  0.035405313           17 
 3737000   0.66888145   -5.1096746    1639.7166  0.036564906  0.035396605            9 
 3738000   0.64967483   -5.1137441    1645.1378  0.036675981  0.035387932           10 
 3739000   0.64176187   -5.1270858    1642.0274  0.036596847  0.035379282            7 
 3740000   0.65672092   -5.1142824     1647.147  0.036701137  0.035370591           13 
 3741000   0.66069903   -5.1166832    1639.7928  0.036527506  0.035361967            6 
 3742000   0.64543939   -5.1329603      1642.68  0.036582041  0.035353269            8 
 3743000   0.65347924   -5.1142163    1642.7623  0.036574101  0.035344588            8 
 3744000   0.65343316    -5.128301    1646.4547  0.036646516  0.035335911            8 
 3745000   0.66021613   -5.1063235    1646.6822  0.036641793  0.035327285           13 
 3746000   0.66558333   -5.1041048    1642.9314  0.036548571  0.035318664            4 
 3747000   0.64822176   -5.1223958    1644.5188  0.036574121  0.035310062            7 
 3748000   0.66397483   -5.1319213    1643.7835  0.036548013  0.035301435            5 
 3749000   0.65216187   -5.1170173    1647.2492  0.036615301  0.035292774            9 
 3750000   0.65559849   -5.1339982    1645.7345  0.036571878  0.035284101           12 
 3751000   0.65555621   -5.1099158    1645.2708  0.036551825  0.035275486           30 
 3752000   0.64541659   -5.1336436    1643.3694  0.036499853  0.035266868            6 
 3753000   0.66015494   -5.1396244    1643.1597  0.036485472  0.035258175            7 
 3754000   0.63946512   -5.1125805    1644.8427  0.036513113  0.035249497           12 
 3755000   0.63495105   -5.1376256    1643.1285  0.036465345  0.035240795           12 
 3756000   0.64851592   -5.1245424    1646.0222  0.036519839  0.035232108           18 
 3757000   0.65120794   -5.1290187    1643.1979  0.036447473  0.035223402           13 
 3758000   0.66729505   -5.1361503    1644.5424  0.036467589  0.035214754            9 
 3759000    0.6572435   -5.1172903    1645.0103  0.036468261  0.035206042            5 
 3760000   0.64767339   -5.1337461    1646.2481  0.036485995  0.035197375            8 
 3761000   0.65231785    -5.134393    1644.7552  0.036443216  0.035188639            8 
 3762000   0.65152368   -5.1357096    1643.5369  0.036406541  0.035179938           11 
 3763000   0.65670918   -5.1230234    1643.5801  0.036397823  0.035171254           11 
 3764000   0.63287746   -5.1433524    1648.0725  0.036487614   0.03516257           20 
 3765000   0.64966864    -5.121121    1645.1321  0.036412841  0.035153906           11 
 3766000   0.64249802    -5.130826    1648.7419  0.036483047   0.03514527           15 
 3767000   0.64789361   -5.1295482    1651.1765  0.036527221   0.03513663           12 
 3768000   0.64238327   -5.1338635    1646.3827  0.036411506  0.035127985            5 
 3769000   0.64319254   -5.1365229    1645.8961  0.036391087  0.035119344           14 
 3770000   0.65716386   -5.1170272    1650.0746  0.036473798  0.035110713            8 
 3771000   0.64367733   -5.1335322    1648.3044  0.036425006  0.035102132           10 
 3772000   0.64668068   -5.1669074    1646.3672  0.036372551  0.035093524            6 
 3773000   0.64027363   -5.1305352    1648.3391  0.036406464  0.035084884            8 
 3774000   0.64797666    -5.118097    1645.8645  0.036342176  0.035076295           12 
 3775000   0.64952359   -5.1496548    1646.6085  0.036348973  0.035067662           14 
 3776000   0.64557724   -5.1313664    1648.7174  0.036385889   0.03505903            4 
 3777000   0.63762898   -5.1384171    1645.6673  0.036308961  0.035050391            5 
 3778000   0.64307519   -5.1340368    1646.8594  0.036325645  0.035041782            9 
 3779000   0.63985553   -5.1307111    1648.9498  0.036362129  0.035033203           11 
 3780000    0.6549928   -5.1207553     1647.191  0.036313734  0.035024628            7 
 3781000   0.65308637   -5.1423635    1650.4061  0.036374992  0.035016045            8 
 3782000   0.64695651   -5.1273003    1647.0024  0.036290375  0.035007422            6 
 3783000   0.66077929   -5.1378392    1645.1051  0.036238989  0.034998838            7 
 3784000    0.6299864   -5.1400983     1648.656  0.036307611  0.034990229            8 
 3785000   0.65924765   -5.1364917    1648.8953  0.036303288  0.034981597            6 
 3786000   0.65704106   -5.1358383    1648.5528  0.036286159  0.034973034            8 
 3787000   0.63883289   -5.1530251    1648.5387  0.036276266  0.034964461           10 
 3788000   0.64659822   -5.1238275    1649.9063  0.036296778  0.034955888            8 
 3789000   0.65179058   -5.1423073    1652.1003  0.036335452  0.034947385            6 
 3790000   0.63959077   -5.1188244    1649.6903  0.036272874  0.034938859            9 
 3791000   0.65775109   -5.1474267    1650.5806  0.036282877  0.034930344            5 
 3792000   0.64542234   -5.1338791    1652.0858  0.036306385  0.034921806            9 
 3793000   0.64774703   -5.1334473    1655.2497  0.036366327  0.034913312           11 
 3794000   0.65599934   -5.1482522    1649.5499  0.036231548  0.034904808            8 
 3795000   0.62927262    -5.112895    1653.0827  0.036299576  0.034896338           10 
 3796000   0.65155768   -5.1281757    1652.2505  0.036271745  0.034887852            5 
 3797000   0.63490415   -5.1419029    1655.9883  0.036344225  0.034879376            7 
 3798000   0.65650943   -5.1408198    1654.1449   0.03629421  0.034870906           13 
 3799000   0.64814863   -5.1370775    1651.6789  0.036230563  0.034862431           17 
 3800000   0.64834933   -5.1254166    1659.3146  0.036388479  0.034853968            7 
 3801000   0.65002045   -5.1386874    1650.7702  0.036191576  0.034845526           10 
 3802000   0.63992652   -5.1461008    1652.8443  0.036227518   0.03483705           10 
 3803000   0.64330669   -5.1610854    1651.2466  0.036182983  0.034828542           10 
 3804000   0.63628181   -5.1527932    1651.1226  0.036170754  0.034820078           11 
 3805000     0.654259   -5.1374121    1654.4874   0.03623494  0.034811593           16 
 3806000   0.64866245   -5.1178188    1652.3913  0.036179525  0.034803142           16 
 3807000   0.65598433   -5.1367325    1652.3196  0.036168453  0.034794689           12 
 3808000    0.6444971   -5.1620688    1652.0585  0.036153241  0.034786195            7 
 3809000   0.63719977   -5.1348541    1654.7484  0.036202599  0.034777663           11 
 3810000   0.66018901   -5.1294307    1654.2176  0.036181488  0.034769173           10 
 3811000    0.6440764   -5.1630951    1645.9489  0.035991185  0.034760662           10 
 3812000    0.6325083   -5.1480765    1650.0594  0.036071603  0.034752092           16 
 3813000   0.62622195   -5.1498263    1648.9529  0.036037959  0.034743529           15 
 3814000   0.64414933   -5.1428482    1650.1532  0.036054737  0.034734989           12 
 3815000   0.64280443   -5.1595421    1647.8782  0.035995591  0.034726471            7 
 3816000   0.64591856   -5.1340508    1649.2943  0.036017083   0.03471792            8 
 3817000   0.62631463   -5.1480121    1652.5399  0.036078506  0.034709364            4 
 3818000   0.64406469   -5.1411233    1647.6177  0.035961622  0.034700844            7 
 3819000    0.6540514   -5.1682066    1650.8432  0.036022588  0.034692335           10 
 3820000   0.63818763   -5.1403786     1651.879  0.036035755   0.03468383           13 
 3821000    0.6359187   -5.1436214    1651.5032  0.036018128  0.034675317            7 
 3822000   0.65772412   -5.1423611     1647.711  0.035926021  0.034666761            5 
 3823000   0.63947953   -5.1340928    1649.8143  0.035962471  0.034658269           18 
 3824000   0.63107479   -5.1319564    1654.5511  0.036056291  0.034649777            8 
 3825000   0.65796118   -5.1341143    1651.0438  0.035970453   0.03464124           13 
 3826000   0.63493082   -5.1704532    1650.0193  0.035938737   0.03463271           12 
 3827000   0.63406947   -5.1398615    1650.4391  0.035938487  0.034624194           10 
 3828000   0.64519324   -5.1395741    1649.9091  0.035917562  0.034615669           12 
 3829000   0.63255017   -5.1455776    1653.4917  0.035986152  0.034607147            6 
 3830000   0.64332266   -5.1633453    1652.2313  0.035949331  0.034598623            6 
 3831000   0.63429551   -5.1602471    1651.3494  0.035920765  0.034590107            5 
 3832000   0.64897345     -5.15962    1649.8487  0.035878755  0.034581599           14 
 3833000   0.63952577   -5.1632308    1648.5759  0.035841724  0.034573003           21 
 3834000   0.64635251    -5.155157    1653.2902  0.035934841  0.034564438            6 
 3835000   0.64850889   -5.1391823    1656.4471  0.035994069  0.034555874            8 
 3836000   0.64435783   -5.1380465    1653.6266  0.035923415  0.034547319            9 
 3837000   0.63428852   -5.1487647    1652.0983   0.03588086  0.034538775           16 
 3838000   0.64827909   -5.1385451    1655.9972  0.035956167  0.034530239           10 
 3839000   0.63445499   -5.1423409    1652.1165  0.035862562  0.034521712           11 
 3840000   0.65058481   -5.1669678    1648.5351  0.035775502  0.034513146            6 
 3841000   0.63646571   -5.1538036    1650.1853  0.035801989  0.034504566           18 
 3842000   0.62224648   -5.1791008    1649.8991  0.035786464   0.03449594            9 
 3843000   0.63416239   -5.1589176    1652.3665  0.035830654  0.034487396            5 
 3844000   0.63231429    -5.165518    1649.9349   0.03576862  0.034478804           11 
 3845000   0.63036397   -5.1432998    1652.0602   0.03580538  0.034470235           11 
 3846000   0.62691347   -5.1873854    1651.6066  0.035786242  0.034461706           13 
 3847000   0.64688038   -5.1300955    1651.5279  0.035775234  0.034453174           16 
 3848000   0.62516805   -5.1709475    1650.2866  0.035739055  0.034444619            5 
 3849000   0.65058116   -5.1713957    1648.1766  0.035684087  0.034436056           12 
 3850000   0.63918961   -5.1623213    1653.2357  0.035784322  0.034427464           12 
 3851000   0.64770375   -5.1458143    1652.0431  0.035749222  0.034418937            7 
 3852000   0.63913804   -5.1626127    1651.5852  0.035730037  0.034410411           10 
 3853000   0.63745524   -5.1622103     1650.196  0.035690717  0.034401854           13 
 3854000   0.64169141   -5.1464131    1650.1244  0.035679908  0.034393309           13 
 3855000   0.62485639   -5.1450662     1651.038  0.035690401  0.034384808            7 
 3856000   0.63459432    -5.160121    1649.6471  0.035651087  0.034376253           10 
 3857000   0.63970395   -5.1663423    1654.3369   0.03574317  0.034367682            8 
 3858000   0.62869789    -5.157142    1655.6619  0.035762525  0.034359122           11 
 3859000   0.62719144   -5.1704761    1652.2782  0.035680189   0.03435063           12 
 3860000   0.61980142   -5.1658515    1654.9552  0.035728739  0.034342079            8 
 3861000   0.62266677   -5.1518186     1657.291  0.035769901  0.034333585           19 
 3862000     0.631214   -5.1690397    1653.7576  0.035684395   0.03432513           10 
 3863000   0.62605218   -5.1577737    1651.5008  0.035626474  0.034316621           12 
 3864000   0.62481338   -5.1700667    1653.9937  0.035671018  0.034308121            8 
 3865000   0.63323349   -5.1709583    1657.4846  0.035737055  0.034299589           10 
 3866000   0.65697189   -5.1783929    1653.3918  0.035639589  0.034291105           12 
 3867000   0.63553975   -5.1804757    1652.5032  0.035611224  0.034282618           25 
 3868000   0.62737565   -5.1671712    1653.9671  0.035633555    0.0342741            5 
 3869000   0.62648081   -5.1785187    1648.4572   0.03550567  0.034265575            7 
 3870000   0.61791862   -5.1664647     1652.596  0.035585615    0.0342571           22 
 3871000   0.64247767    -5.143364    1656.3802  0.035657887  0.034248593            6 
 3872000   0.63605075   -5.1651297    1654.5422   0.03560912  0.034240081            6 
 3873000   0.62726535   -5.1537345    1652.4542  0.035555001  0.034231599            8 
 3874000   0.63674319   -5.1662461    1656.4391   0.03563154  0.034223156           10 
 3875000   0.63599974   -5.1769651    1652.4981  0.035537594  0.034214654           14 
 3876000   0.62652065   -5.1899875    1655.2927  0.035588508  0.034206165           13 
 3877000   0.62410364   -5.1487223    1652.6608  0.035522759  0.034197702            8 
 3878000   0.62566295   -5.1649507    1656.8319   0.03560323  0.034189186           11 
 3879000   0.62246556   -5.1729899    1654.8593  0.035551673  0.034180708            9 
 3880000   0.64221831   -5.1734712    1652.5694  0.035493329  0.034172281           10 
 3881000   0.62640398    -5.115594    1657.0647  0.035580707  0.034163827           16 
 3882000   0.62957373   -5.1674938    1655.1815  0.035531116   0.03415538           14 
 3883000   0.64655811    -5.146192    1655.3703  0.035526016  0.034146922           12 
 3884000   0.62799293    -5.172149      1652.77   0.03546108  0.034138478            7 
 3885000   0.62865864   -5.1837159    1652.5348  0.035446907  0.034129986            8 
 3886000   0.62006277     -5.16218    1653.4081  0.035456513  0.034121499            7 
 3887000   0.62806662   -5.1839261    1656.5041  0.035513765   0.03411302            9 
 3888000   0.63560236   -5.1868174    1655.6827  0.035487026  0.034104505            8 
 3889000   0.62395631   -5.1610179    1655.1611  0.035466724  0.034096048           17 
 3890000   0.62939758   -5.1673903     1647.993  0.035304048  0.034087555            4 
 3891000   0.63387246   -5.1710046    1654.8718  0.035442299  0.034079079           17 
 3892000   0.61836109   -5.1665765      1651.69  0.035365064  0.034070643            8 
 3893000    0.6294322   -5.1667397    1652.1699  0.035366254  0.034062175           14 
 3894000   0.62799092   -5.1546324    1655.7632   0.03543407  0.034053731            7 
 3895000    0.6167982   -5.1824589    1653.1182  0.035368383  0.034045274           24 
 3896000   0.62709742   -5.1686821    1657.6843  0.035456971  0.034036827            7 
 3897000   0.63040274    -5.196968     1653.461  0.035357561  0.034028336            8 
 3898000   0.62850657   -5.2002036     1652.886  0.035336199  0.034019827           10 
 3899000   0.61946135   -5.1701717     1655.009  0.035372509   0.03401132           12 
 3900000   0.62856599   -5.1754539    1656.9517  0.035404951  0.034002849            6 
 3901000   0.62072911   -5.1940605    1651.1137  0.035271163  0.033994405           16 
 3902000    0.6316775   -5.1743735    1658.2815  0.035415205  0.033985948           10 
 3903000   0.62079196   -5.1676719    1658.8202  0.035417632  0.033977492           10 
 3904000   0.63822787   -5.1625859    1656.4209  0.035357345  0.033969065           11 
 3905000   0.62811847   -5.2120614    1652.1631  0.035257429  0.033960662            9 
 3906000   0.62201415   -5.1864724    1657.8868  0.035370515  0.033952209           21 
 3907000    0.6288844   -5.1887023    1654.3108   0.03528519   0.03394378           15 
 3908000   0.62652821   -5.1664582    1657.9336  0.035353413   0.03393537           30 
 3909000   0.63520946   -5.1633686    1656.0793  0.035304836  0.033926966           25 
 3910000   0.62308993   -5.1846205    1657.1137  0.035317855  0.033918555           12 
 3911000   0.62515922   -5.1710828    1654.4217  0.035251464  0.033910151           15 
 3912000   0.60983362   -5.1978622    1656.4738  0.035286166  0.033901726            9 
 3913000   0.62399632   -5.1690535    1656.7796  0.035283661  0.033893322           11 
 3914000   0.62223764   -5.1771452      1651.23   0.03515649  0.033884934           10 
 3915000   0.61988078   -5.1869387    1660.3346  0.035341308  0.033876491            8 
 3916000   0.62530708   -5.1917702    1655.1905  0.035222815  0.033868069           20 
 3917000   0.61314394   -5.1904669    1656.5578  0.035242912  0.033859616           44 
 3918000   0.61719617     -5.17765    1658.9861  0.035285564  0.033851208           28 
 3919000   0.62792088    -5.178765    1655.3332  0.035198885  0.033842831           42 
 3920000   0.62262619   -5.1597467    1658.2161  0.035251193  0.033834446           33 
 3921000   0.62110905   -5.1521742    1658.5304  0.035248882   0.03382612           25 
 3922000   0.61986281   -5.1725356     1659.052  0.035250978  0.033817774            8 
 3923000   0.62504219   -5.1762512    1657.9658  0.035218919  0.033809406            7 
 3924000   0.61587078   -5.1858053    1659.7342  0.035247498  0.033801053           10 
 3925000    0.6206061   -5.2093493    1656.4122  0.035167987  0.033792645           11 
 3926000   0.63890629   -5.1853508    1660.1013  0.035237335  0.033784226            8 
 3927000   0.63441221    -5.194058    1657.8212  0.035179975  0.033775798           15 
 3928000   0.61105781   -5.1948578    1651.6554   0.03504021  0.033767342           13 
 3929000   0.62638813   -5.1989405    1653.3771   0.03506781  0.033758931           10 
 3930000   0.61111524    -5.190315    1654.6922  0.035086772  0.033750503            9 
 3931000   0.62214562   -5.1868676    1655.5508  0.035096049   0.03374208           23 
 3932000   0.63332193   -5.2010498    1655.3287  0.035082417  0.033733634           10 
 3933000    0.6180762   -5.2062119     1656.122  0.035090305  0.033725166           20 
 3934000   0.61468258   -5.2093932    1656.3093  0.035085352   0.03371675           13 
 3935000    0.6243394   -5.1974921    1658.1427  0.035115262  0.033708335            7 
 3936000   0.62186421   -5.1897164    1653.5312  0.035008706  0.033699918           17 
 3937000   0.62551277   -5.2116756     1655.849  0.035048875  0.033691484           17 
 3938000   0.62459344   -5.1897314    1657.3891  0.035072563  0.033683058           17 
 3939000   0.63331895   -5.1919242    1659.6252  0.035110968  0.033674629           16 
 3940000   0.62328059   -5.1731897    1658.9502  0.035087778  0.033666204           23 
 3941000   0.61989134   -5.2015958    1651.5545  0.034922492   0.03365776           19 
 3942000   0.61439283   -5.2082055    1662.7346  0.035149978  0.033649307           39 
 3943000   0.62252084   -5.1804923    1657.9753  0.035040478  0.033640857           13 
 3944000    0.6127696   -5.1764388    1651.3072  0.034890703  0.033632428            8 
 3945000   0.62818914   -5.2107455    1658.1044  0.035025441  0.033623954           11 
 3946000   0.62754712    -5.202486     1658.968  0.035034804  0.033615498           11 
 3947000   0.61577428   -5.1947174     1652.464  0.034888608  0.033607094           17 
 3948000   0.62761959   -5.1984809    1656.4588  0.034964092  0.033598678           15 
 3949000   0.62615995    -5.175939    1655.9855  0.034945251  0.033590225           18 
 3950000   0.61995531   -5.2036617    1655.3396  0.034922776  0.033581829           10 
 3951000   0.62152639   -5.1743319    1660.8733  0.035030652  0.033573413           20 
 3952000   0.63570524   -5.1744113    1658.6524  0.034974958  0.033565049           21 
 3953000   0.61629164   -5.1720321    1660.5547  0.035006212  0.033556692            8 
 3954000   0.61328145    -5.179756    1658.0522  0.034944617  0.033548316           15 
 3955000   0.61378137   -5.1986809     1659.138  0.034958661  0.033539976            6 
 3956000   0.62279446   -5.1940317    1660.6903  0.034982523  0.033531537            4 
 3957000   0.62412621   -5.1874188    1657.3284   0.03490288  0.033523106           14 
 3958000   0.61785326    -5.204923    1658.6776  0.034922469  0.033514687            7 
 3959000   0.62662723   -5.2178816    1659.3885  0.034928613  0.033506283            8 
 3960000   0.60650476   -5.1862612    1660.2483  0.034937885  0.033497921           12 
 3961000   0.61108682   -5.1798715    1658.5316  0.034892947   0.03348956           15 
 3962000   0.60983042   -5.1897925     1657.147  0.034855019  0.033481215            5 
 3963000   0.60344273   -5.1802014    1656.9034  0.034841101   0.03347286           18 
 3964000   0.61161568   -5.2054432    1657.3311  0.034841303  0.033464445            8 
 3965000   0.60639769   -5.2117467    1658.1481  0.034849686  0.033456034           29 
 3966000   0.61243409   -5.2211287    1660.8752  0.034898201  0.033447654           12 
 3967000   0.61304297   -5.2111233    1656.8605  0.034805069  0.033439255           13 
 3968000   0.60276942   -5.1877741    1662.0011  0.034904257   0.03343088           11 
 3969000   0.61069594   -5.2036568    1658.8787  0.034829905  0.033422514            7 
 3970000   0.61138861   -5.2166822    1657.3795  0.034789663  0.033414142           11 
 3971000   0.60615199   -5.2216892    1656.5891  0.034764314  0.033405751           10 
 3972000     0.612357   -5.2164508     1657.429  0.034773183  0.033397327           16 
 3973000   0.60502516   -5.1815758    1657.9953  0.034776308  0.033388955           13 
 3974000   0.62197221   -5.1835132    1658.3463  0.034774917  0.033380608           16 
 3975000    0.6114276   -5.1939548    1659.3351  0.034786899  0.033372242           13 
 3976000   0.61945713   -5.2376545    1656.4937  0.034718597  0.033363829           13 
 3977000   0.60895022   -5.2024754    1657.3457   0.03472772  0.033355417           11 
 3978000   0.60377317    -5.212767    1660.8155  0.034791677  0.033347055           12 
 3979000   0.61763107   -5.1949219    1656.4284  0.034691053  0.033338675           17 
 3980000    0.6083098    -5.211831    1657.5902  0.034706663  0.033330355           12 
 3981000   0.62237455   -5.2000957    1658.8067  0.034723409  0.033321998           11 
 3982000   0.61569248   -5.1918365    1662.6281  0.034794661  0.033313679            7 
 3983000   0.60952291   -5.1881757    1661.9543  0.034771827  0.033305367            9 
 3984000   0.61530047   -5.2021961    1660.6744  0.034736329  0.033297054            7 
 3985000   0.62759214   -5.1878613     1664.627  0.034810269  0.033288757           12 
 3986000   0.62774764   -5.1977205    1655.2656  0.034605821  0.033280405           10 
 3987000   0.61350481   -5.2015845    1658.4259  0.034663196  0.033272064           18 
 3988000   0.61990046    -5.209066    1661.3453  0.034715507  0.033263809           14 
 3989000   0.60486395   -5.2065663    1661.5582  0.034711252  0.033255556           14 
 3990000   0.61246284   -5.2224349    1657.5377  0.034618582  0.033247259           11 
 3991000   0.62191341   -5.2213007    1658.4691  0.034629356  0.033238989           12 
 3992000   0.62470477   -5.2060941    1662.8984  0.034713142  0.033230715            9 
 3993000   0.62066387     -5.23101    1658.8933  0.034620865  0.033222435            8 
 3994000   0.61659731   -5.2002351    1664.8183  0.034735818  0.033214148           12 
 3995000   0.61056088   -5.1899257    1660.0659  0.034627992  0.033205858           23 
 3996000   0.60961561   -5.2232599    1659.9601  0.034617119  0.033197561           17 
 3997000   0.60763664   -5.1989055    1662.6217  0.034663949  0.033189234           12 
 3998000   0.60303615   -5.2129268    1660.2084  0.034604977  0.033180952           20 
 3999000   0.61651771   -5.1998445    1661.8908  0.034631382  0.033172668           10 
 4000000    0.6152193   -5.1981849    1659.8924  0.034581092  0.033164373           29 
 4001000   0.62840268   -5.2139602    1660.0684  0.034576114   0.03315607           13 
 4002000   0.61872161   -5.2022988    1662.0903  0.034609577  0.033147774           11 
 4003000   0.61243514   -5.2146448    1658.3979  0.034524064   0.03313949           22 
 4004000   0.61215608   -5.2108583    1664.4483  0.034641364  0.033131232            9 
 4005000   0.60549638   -5.2051145    1660.0183  0.034540538  0.033122969            7 
 4006000   0.60498355   -5.2162569    1662.2761  0.034578883  0.033114669           23 
 4007000   0.61996795   -5.2138317    1660.4315  0.034531891  0.033106387           17 
 4008000   0.60672105   -5.2233798    1658.8049  0.034489456  0.033098076           17 
 4009000    0.6077136   -5.2250327    1659.9583  0.034504828   0.03308981           25 
 4010000   0.60867997   -5.2341597    1658.9804  0.034475902  0.033081526           16 
 4011000   0.61200801   -5.2209552    1658.8818  0.034465259  0.033073239           13 
 4012000   0.60413314   -5.2177654    1662.3313  0.034528317  0.033064942           18 
 4013000   0.60088121   -5.2316449     1661.402  0.034500415  0.033056667           18 
 4014000   0.62967779   -5.2094787    1661.5589  0.034495078  0.033048409            9 
 4015000   0.60727469   -5.1974085     1662.062  0.034496929  0.033040134            9 
 4016000   0.61725418   -5.2164985    1663.0656  0.034509163  0.033031822            9 
 4017000   0.61442986   -5.2358378     1660.729  0.034452099  0.033023551            8 
 4018000   0.60512009   -5.2379518    1660.7417  0.034443788  0.033015287           10 
 4019000   0.59944039   -5.2197984    1660.8596  0.034437662  0.033006981           17 
 4020000   0.60940133    -5.206796    1660.8976  0.034429884  0.032998646           17 
 4021000   0.60714453   -5.2220752    1657.5044  0.034350999  0.032990324           29 
 4022000   0.60567407   -5.1968897    1668.2274  0.034564631  0.032982061           14 
 4023000   0.60329881   -5.2253094    1661.8587  0.034424118  0.032973806           20 
 4024000   0.61595271   -5.2199291    1662.3518  0.034425773  0.032965528            8 
 4025000    0.6062534   -5.2176715    1663.1441  0.034433625  0.032957281            9 
 4026000   0.61363326   -5.2242848    1661.6177  0.034393479   0.03294905            9 
 4027000   0.59571093   -5.2224798    1660.8779  0.034369627  0.032940802           11 
 4028000   0.59927137   -5.2239797      1659.96  0.034342106  0.032932554           39 
 4029000   0.61117408   -5.1929023    1660.6333  0.034347508  0.032924313           24 
 4030000   0.61431203   -5.2137401    1661.2582  0.034351907  0.032916061           11 
 4031000   0.61206095   -5.2313733    1664.0295  0.034400677  0.032907782           12 
 4032000   0.60857773    -5.184257    1663.2808  0.034376669    0.0328995           24 
 4033000   0.60053953   -5.2395634     1659.552  0.034291098  0.032891229           25 
 4034000   0.59802683   -5.2235378    1658.8847  0.034268813  0.032882917           38 
 4035000   0.60775454   -5.2196379    1664.9909  0.034386429  0.032874643           15 
 4036000   0.60737024   -5.2184601    1661.8947   0.03431398  0.032866372           10 
 4037000   0.60335942   -5.2092374    1665.0087  0.034369761   0.03285812           13 
 4038000   0.59828213    -5.226256    1662.7736  0.034315124  0.032849864           10 
 4039000   0.60602872   -5.2292417     1663.626  0.034324215  0.032841602           16 
 4040000   0.61858004   -5.2418987    1663.4971   0.03431306  0.032833357            6 
 4041000    0.6220001     -5.23557    1658.1444  0.034194185  0.032825082           18 
 4042000   0.60258884    -5.194145     1663.904  0.034304469  0.032816814            8 
 4043000   0.61126525   -5.2338918    1661.2408  0.034241091  0.032808561           11 
 4044000   0.60733162   -5.2226715    1665.2088  0.034314392  0.032800277           16 
 4045000    0.6040771    -5.221083    1661.3665  0.034226751  0.032792027           10 
 4046000   0.60366209   -5.2016331    1661.5722  0.034222528  0.032783777            8 
 4047000   0.61143923   -5.2019416    1662.3418   0.03422992  0.032775552            7 
 4048000   0.60119385   -5.2193675    1662.7318  0.034229492  0.032767338           15 
 4049000   0.59398656   -5.2377615     1658.241  0.034128611  0.032759062           14 
 4050000   0.58942502   -5.2249166    1660.7056  0.034170897  0.032750786           23 
 4051000   0.61287295   -5.2181047    1659.5996  0.034139711  0.032742509           50 
 4052000    0.6116716   -5.2218713      1661.43  0.034168929  0.032734196           15 
 4053000   0.60651142   -5.2369277    1659.6164  0.034123209  0.032725883           18 
 4054000   0.59592536     -5.23776    1658.9993  0.034102107  0.032717563            7 
 4055000    0.6059741   -5.2558985    1658.9622  0.034092935  0.032709275            8 
 4056000   0.59882728   -5.2178103    1660.6934  0.034120098  0.032700993            6 
 4057000   0.60315742   -5.2121562     1663.336  0.034165969  0.032692732            7 
 4058000   0.61087208   -5.2371894     1656.297  0.034012998  0.032684448           15 
 4059000    0.6069555   -5.2346384    1658.6373  0.034052666  0.032676133           12 
 4060000   0.61021219   -5.2356483    1657.9403  0.034029973  0.032667797           10 
 4061000   0.60279112   -5.2268276    1661.8882  0.034102606  0.032659496            8 
 4062000   0.60152644    -5.235776     1656.607  0.033985866   0.03265119            8 
 4063000   0.60929423   -5.2395579    1657.1206  0.033988035  0.032642904           13 
 4064000   0.59152251    -5.231632    1661.4325  0.034068088  0.032634608            7 
 4065000   0.60505536   -5.2183753    1658.2706  0.033994887  0.032626301           19 
 4066000   0.58890549   -5.2204472     1659.094  0.034003403  0.032618005           45 
 4067000   0.59754101   -5.2477028    1657.1263  0.033954723  0.032609737           17 
 4068000   0.61093513   -5.2209114     1664.279    0.0340929  0.032601452           12 
 4069000   0.58950553   -5.2017839    1660.4358  0.034005812  0.032593222           11 
 4070000   0.60441145   -5.2207637    1659.8226  0.033984901   0.03258498            7 
 4071000   0.60319764   -5.2158957    1660.6045  0.033992559  0.032576703           11 
 4072000   0.58304788    -5.231391    1657.4256  0.033919155  0.032568404           14 
 4073000   0.59680831   -5.2541621    1656.4861  0.033891604  0.032560059           15 
 4074000   0.59669617   -5.2455528    1658.7872  0.033930355   0.03255174           11 
 4075000   0.59315712   -5.2202835    1658.9764  0.033925899  0.032543418           18 
 4076000   0.60579422   -5.2437256    1656.8279  0.033873648  0.032535126           18 
 4077000    0.5860753   -5.2257284    1660.7317  0.033945132  0.032526851            6 
 4078000   0.58087776   -5.2559266    1657.6097  0.033873012  0.032518529           20 
 4079000   0.60888173   -5.2212089    1657.2874  0.033858123    0.0325102           37 
 4080000   0.59370805   -5.2300866    1661.6196  0.033938309  0.032501911           20 
 4081000    0.6026197   -5.2268197    1659.4293  0.033885268  0.032493635           10 
 4082000   0.60189174   -5.2532636      1657.38  0.033835131  0.032485325           14 
 4083000   0.60005348   -5.2502139    1655.6273  0.033791072  0.032476984           21 
 4084000   0.59823079   -5.2511869      1658.74  0.033846311  0.032468667           31 
 4085000    0.5970966   -5.2474463    1657.3845  0.033810374  0.032460346           13 
 4086000   0.59941612   -5.2364776    1659.4316  0.033843849   0.03245203           19 
 4087000   0.59306016   -5.2381215    1663.6308  0.033921189  0.032443775            8 
 4088000   0.59819715   -5.2466151    1662.0638  0.033880949  0.032435511            8 
 4089000   0.58889734    -5.234707    1657.9071   0.03378795  0.032427207           13 
 4090000   0.60358692   -5.2298294    1662.7253  0.033877859  0.032418936           10 
 4091000   0.58463346   -5.2498787    1660.3426  0.033821043  0.032410647           10 
 4092000   0.60138198   -5.2614661    1659.7264  0.033800229  0.032402394           12 
 4093000   0.59421243   -5.2269271    1663.2305  0.033863314  0.032394169           10 
 4094000   0.59526665   -5.2262723    1658.6909  0.033762638  0.032385962           16 
 4095000   0.60406345   -5.2366606    1664.1931  0.033866364  0.032377736           31 
 4096000   0.59865264   -5.2325922    1659.0069  0.033752583  0.032369513            9 
 4097000   0.59288299   -5.2522484    1660.8858  0.033782561  0.032361269           10 
 4098000   0.61119842    -5.247277    1662.8737  0.033814741  0.032353036           14 
 4099000   0.58881305   -5.2371261    1662.9528  0.033808099  0.032344763            6 
 4100000    0.5981356    -5.259485    1659.2929  0.033725465  0.032336495            9 
 4101000   0.59198786   -5.2612974    1659.8182  0.033727916  0.032328209           11 
 4102000   0.57987001   -5.2490446    1662.9925  0.033784181  0.032319971            7 
 4103000   0.60550741   -5.2391081    1663.8729  0.033793828  0.032311727           12 
 4104000   0.60145127   -5.2580015    1658.1564  0.033669517  0.032303498           11 
 4105000   0.58797601   -5.2496011    1660.8735  0.033716474  0.032295282            8 
 4106000    0.6002444   -5.2551713    1661.2537  0.033715978  0.032287038           10 
 4107000   0.59497813   -5.2425303    1663.3313  0.033749925  0.032278835           10 
 4108000   0.59673419   -5.2642412    1661.8972  0.033712617  0.032270576           15 
 4109000   0.61589861   -5.2535482    1663.1396  0.033729609  0.032262319           18 
 4110000   0.59431713   -5.2489297    1661.9899  0.033698091  0.032254057           14 
 4111000    0.5981464   -5.2701479    1663.1172  0.033712746   0.03224582           13 
 4112000    0.5937717   -5.2693927    1661.8142  0.033678142   0.03223757           10 
 4113000   0.58716982   -5.2491869    1661.0849  0.033655177  0.032229333            6 
 4114000   0.61443178   -5.2611109    1664.5486  0.033717157  0.032221102           28 
 4115000   0.60090416   -5.2397153    1663.3065  0.033683809  0.032212867           33 
 4116000   0.58697654   -5.2476503    1663.6831  0.033683251  0.032204639           12 
 4117000   0.58749178   -5.2587079    1663.1593  0.033664467  0.032196418           21 
 4118000   0.59557669   -5.2588414    1663.4459  0.033662091  0.032188219           11 
 4119000   0.58607078   -5.2645835    1662.9228  0.033643336  0.032179996           12 
 4120000    0.6015804   -5.2632773    1660.4169  0.033584484  0.032171769           16 
 4121000   0.59840538   -5.2685317    1660.5364  0.033578752  0.032163509           14 
 4122000   0.59203988   -5.2497779    1658.5867  0.033531188  0.032155256           26 
 4123000   0.58924758   -5.2598761    1660.7973  0.033567736  0.032146993           52 
 4124000   0.59946569   -5.2683721    1661.5935  0.033575685  0.032138745           17 
 4125000   0.59381466   -5.2759399    1661.6679  0.033569049  0.032130485           13 
 4126000    0.5817795   -5.2590138    1654.8853  0.033423923  0.032122201            8 
 4127000   0.59923012    -5.242793    1661.8804  0.033557071  0.032113962           27 
 4128000   0.58692479   -5.2502505    1659.7561  0.033506059  0.032105742            6 
 4129000   0.60677057   -5.2394664    1658.8174  0.033478998   0.03209751           16 
 4130000   0.58790998   -5.2564067     1660.521  0.033505267  0.032089298           10 
 4131000   0.58929964   -5.2476275    1664.7187  0.033581834  0.032081061            9 
 4132000   0.59203697     -5.24316    1663.7564  0.033554299  0.032072856           15 
 4133000    0.5784125   -5.2567959    1665.5009  0.033581355  0.032064642           11 
 4134000   0.60466551   -5.2618778    1661.2977  0.033488503  0.032056406            9 
 4135000    0.5848503   -5.2736068    1661.6592   0.03348769  0.032048167           15 
 4136000   0.61024533   -5.2701642    1663.0872  0.033508366  0.032039896           11 
 4137000   0.58009435   -5.2774538    1656.7173  0.033371954  0.032031619           10 
 4138000   0.58673081   -5.2860214    1657.9062  0.033387832  0.032023346           13 
 4139000   0.58769176   -5.2507753    1659.2242  0.033406303  0.032015104           12 
 4140000   0.59151312   -5.2626037    1663.4099  0.033482487  0.032006884           17 
 4141000   0.58416019   -5.2610598    1661.1421  0.033428763  0.031998661            9 
 4142000   0.59231781    -5.250218    1662.0065  0.033438084  0.031990447            8 
 4143000   0.59145533   -5.2643201    1663.3876  0.033457792  0.031982223           21 
 4144000   0.57512657   -5.2669937    1664.0118  0.033462272  0.031973996           22 
 4145000   0.59368132   -5.2716194    1661.2064  0.033397796  0.031965767           28 
 4146000   0.57295909   -5.2732099    1661.6288  0.033398231  0.031957547            6 
 4147000   0.58989941   -5.2683192    1661.8179  0.033393978   0.03194935            8 
 4148000   0.57983795   -5.2644698    1662.7423  0.033404498  0.031941214           11 
 4149000   0.58206106   -5.2800956    1665.9053  0.033459977  0.031933078            6 
 4150000   0.59190075     -5.28558    1660.5143  0.033343661  0.031924909           11 
 4151000   0.59250564   -5.2850275    1658.3585  0.033292349   0.03191672           26 
 4152000   0.57223941   -5.2663236    1665.0171  0.033417973  0.031908558           10 
 4153000    0.5763644    -5.258386    1666.3629  0.033436932   0.03190043           29 
 4154000   0.59401085   -5.2602169    1664.2399  0.033386291  0.031892283           11 
 4155000   0.58347316    -5.258434    1666.5992  0.033425576  0.031884181            7 
 4156000   0.59790366   -5.2609914    1666.6865  0.033419283  0.031876031            9 
 4157000    0.5875938   -5.2511612    1663.9989  0.033357366  0.031867917            7 
 4158000   0.58254463   -5.2550778    1667.0763   0.03341102  0.031859768            9 
 4159000   0.58053059   -5.2694456    1665.4025  0.033369449  0.031851674           13 
 4160000   0.58750328   -5.2454136    1669.1112  0.033435721  0.031843561            8 
 4161000   0.57512041   -5.2314712    1668.7191  0.033419833  0.031835489           11 
 4162000   0.58574065   -5.2671854    1663.5469  0.033308243  0.031827371           21 
 4163000   0.58085414   -5.2775323    1664.6424  0.033322171  0.031819256           16 
 4164000   0.58926681   -5.2681179    1663.8163  0.033297636  0.031811138           11 
 4165000   0.59038013    -5.265647    1664.8036  0.033309397  0.031803004           25 
 4166000   0.58548642   -5.2720214    1663.3007  0.033271337  0.031794889           19 
 4167000   0.57449844    -5.252436     1664.924  0.033295816  0.031786752            6 
 4168000   0.57915019     -5.27044    1665.3962   0.03329727   0.03177863           11 
 4169000   0.57518508   -5.2526121    1661.3135  0.033207675  0.031770468           14 
 4170000    0.5948311   -5.2821143    1664.0746  0.033254889  0.031762264           16 
 4171000   0.58393554   -5.2761705    1664.2022  0.033249465  0.031754044            7 
 4172000   0.58867287   -5.2980489    1657.8365  0.033114344  0.031745824           13 
 4173000   0.57466719   -5.2754003    1663.3627  0.033216764  0.031737615           23 
 4174000   0.58071471   -5.2563594    1660.8919  0.033159477   0.03172942           33 
 4175000   0.58505234   -5.2734865     1663.628  0.033206147  0.031721245            8 
 4176000    0.5818968   -5.2709658    1663.7012  0.033199656  0.031713092           25 
 4177000   0.58381865   -5.2665612    1667.1423  0.033260361  0.031704965           14 
 4178000     0.588517   -5.2692555    1665.4167   0.03321798  0.031696834           24 
 4179000   0.58386212    -5.274406    1663.5603  0.033173013   0.03168869           15 
 4180000   0.57686519   -5.3066589    1662.1848  0.033137655  0.031680489           30 
 4181000   0.58345989   -5.2989289    1662.2761   0.03313155  0.031672287           48 
 4182000   0.58748401   -5.2832069    1657.4623  0.033027705  0.031664089           70 
 4183000    0.5870372   -5.2853893    1667.9767  0.033229275  0.031655902           30 
 4184000   0.57176771   -5.2815302    1661.5613  0.033093557  0.031647722           43 
 4185000   0.59668502   -5.2492959    1662.3266  0.033100888  0.031639605            7 
 4186000   0.58624071   -5.2615232     1665.538  0.033156912   0.03163147           15 
 4187000   0.57611162   -5.2842755    1660.3148  0.033045037  0.031623335           19 
 4188000   0.58419681   -5.2806663    1664.8871  0.033128126    0.0316152           13 
 4189000   0.58305483   -5.2838337    1662.9046  0.033080779  0.031607052           10 
 4190000   0.58779395   -5.2792299    1660.2349  0.033019787  0.031598903           16 
 4191000   0.58330038   -5.2969599    1661.8803  0.033044625   0.03159077           21 
 4192000   0.56233143   -5.2778297    1665.9516  0.033117676   0.03158266           21 
 4193000   0.58613662   -5.2964254    1665.6394  0.033103574  0.031574542           35 
 4194000     0.581118   -5.2738964    1667.8232  0.033139071  0.031566421           35 
 4195000    0.5917167   -5.2796528    1662.3974   0.03302339  0.031558282           52 
 4196000   0.58496881   -5.2614236    1667.2178  0.033111253  0.031550181           84 
 4197000   0.58175922     -5.27809    1665.4748  0.033068755   0.03154207           52 
 4198000   0.58948617    -5.278748     1665.581  0.033062986  0.031533917           46 
 4199000   0.59102273   -5.2875597    1663.3392  0.033010622  0.031525798           39 
 4200000   0.57941866   -5.2968995    1659.4814  0.032926218  0.031517657           19 
 4201000   0.58403341   -5.3019226    1661.3709  0.032955861  0.031509486           33 
 4202000   0.58649763    -5.275461    1665.3221  0.033026378  0.031501357           35 
 4203000   0.57235036   -5.2890798    1661.6101  0.032944922  0.031493237           10 
 4204000   0.58239946   -5.2900085    1662.3636  0.032952023  0.031485118           18 
 4205000   0.57672062   -5.2963862    1661.7434  0.032931895  0.031476983           41 
 4206000   0.59310946   -5.2853881    1663.5665  0.032960185  0.031468862           11 
 4207000    0.5746181   -5.2780637    1663.0519  0.032942158  0.031460761           13 
 4208000   0.57067777   -5.2820232    1666.9505  0.033011536   0.03145269           14 
 4209000   0.57625816   -5.2838803    1663.0371  0.032926212  0.031444602           12 
 4210000   0.58353442   -5.2576064    1665.3186  0.032963551  0.031436527           25 
 4211000   0.58105082   -5.2691427    1666.7584  0.032984217  0.031428497           21 
 4212000   0.57144311   -5.2928972    1667.8613  0.032998206  0.031420433           21 
 4213000   0.57648133   -5.2884091    1664.2861  0.032919656  0.031412352           58 
 4214000   0.58639827    -5.277197     1663.476  0.032895824   0.03140428           10 
 4215000   0.58187021   -5.2886649    1662.6986   0.03287265  0.031396199           11 
 4216000   0.58156646   -5.2790548     1663.066  0.032872115  0.031388133            9 
 4217000    0.5870361   -5.2849333    1668.8813  0.032979238  0.031380108           11 
 4218000   0.58062797   -5.2638709    1666.7096  0.032928513  0.031372081            8 
 4219000    0.5812292   -5.2753592    1664.7818   0.03288263  0.031364002            7 
 4220000    0.5687212   -5.2869234    1663.9843   0.03285909  0.031355957           19 
 4221000     0.584451   -5.2745056    1664.3697  0.032858915  0.031347921           10 
 4222000   0.57511637   -5.2874976    1666.6654  0.032896443  0.031339867           11 
 4223000   0.59305089   -5.2850611    1666.6875  0.032889089  0.031331821           11 
 4224000   0.57115731    -5.290579     1661.943  0.032787701  0.031323774           14 
 4225000   0.57990617   -5.2966768    1664.1207  0.032822893   0.03131572           10 
 4226000    0.5757801   -5.2710725    1664.4993  0.032822593  0.031307636           14 
 4227000   0.57916458   -5.2927398    1663.1681  0.032788583  0.031299567            8 
 4228000   0.57991088   -5.3015294    1661.6486  0.032750879  0.031291472           14 
 4229000     0.571751   -5.3158212    1663.9815  0.032789104  0.031283379           30 
 4230000   0.57533993   -5.2919064     1662.381  0.032749822  0.031275266           19 
 4231000   0.56809716    -5.297068    1664.9865    0.0327934  0.031267185           20 
 4232000   0.56944506   -5.2850695    1660.7638  0.032702501  0.031259137            9 
 4233000   0.57982557   -5.2852002    1667.6672  0.032830679  0.031251098           28 
 4234000    0.5700908   -5.2824896    1666.6563  0.032803028  0.031243063           46 
 4235000   0.58268589   -5.2932094     1659.944  0.032663204  0.031234985           26 
 4236000   0.56015202   -5.3003905    1667.1071  0.032796409  0.031226898           12 
 4237000   0.57513218   -5.2898352    1664.2845  0.032733155  0.031218837           22 
 4238000   0.57138032    -5.306413    1662.7028  0.032694329  0.031210768           26 
 4239000   0.57539104   -5.3023606    1668.8477  0.032807417  0.031202737           20 
 4240000   0.58491824    -5.294447    1664.4953  0.032714137  0.031194709           59 
 4241000   0.57037002    -5.295652    1668.9034  0.032793039  0.031186684           10 
 4242000   0.58107729   -5.2891431    1667.6309  0.032760311  0.031178655           11 
 4243000   0.57717395   -5.3116423    1663.7767  0.032676893  0.031170633           22 
 4244000    0.5761804   -5.2913203    1665.5634  0.032704277  0.031162591           16 
 4245000   0.56878336   -5.3093241    1668.1691  0.032747725  0.031154569           30 
 4246000   0.57904983   -5.2907771    1663.0615  0.032639768   0.03114656           12 
 4247000   0.56553427   -5.2908997    1665.9619  0.032688994  0.031138524           11 
 4248000   0.57597935   -5.2877337    1666.5479  0.032692795  0.031130516           11 
 4249000    0.5744618   -5.3047473     1664.786  0.032650545  0.031122486           15 
 4250000   0.57215558   -5.2927428    1663.1681   0.03261114  0.031114458           13 
 4251000   0.56597457   -5.2772584    1661.6749  0.032574196  0.031106392           19 
 4252000   0.57681341   -5.2765009    1664.4346  0.032620622  0.031098355           21 
 4253000   0.57884535   -5.3113496    1663.5325  0.032595276   0.03109031           15 
 4254000   0.56671763   -5.3078825    1665.7998  0.032632029   0.03108225           20 
 4255000   0.56841692    -5.324925    1659.9176  0.032509159  0.031074146            6 
 4256000   0.57861762   -5.2950851    1663.9246  0.032579977  0.031066036           17 
 4257000   0.57342278   -5.3084341    1664.6292  0.032586116  0.031057966           25 
 4258000   0.56812682   -5.3078012    1662.8182   0.03254302  0.031049886           30 
 4259000   0.57438371   -5.3192064    1667.1854  0.032620831  0.031041838           19 
 4260000   0.56106886   -5.2996194    1665.5071  0.032580342  0.031033775           24 
 4261000   0.57296822   -5.3103432     1664.033  0.032543867  0.031025705           29 
 4262000   0.55678147   -5.3115188    1666.8154  0.032590634  0.031017623           26 
 4263000   0.56755269   -5.3075284    1666.0288  0.032567613  0.031009547           22 
 4264000    0.5696293   -5.3224453    1662.6063  0.032493088  0.031001445           22 
 4265000   0.56534779   -5.3271172     1665.368   0.03253943  0.030993381           16 
 4266000   0.57612404   -5.3091725    1664.6104  0.032517002  0.030985323           27 
 4267000    0.5825918   -5.2894533     1665.435  0.032525486  0.030977288           23 
 4268000   0.58009093   -5.2984695    1665.0234  0.032509829  0.030969265           22 
 4269000   0.57209919   -5.3151211    1667.1446   0.03254362  0.030961246           10 
 4270000   0.56278299   -5.3015983     1661.381  0.032423517  0.030953229           28 
 4271000   0.57217109   -5.3236713    1668.8966  0.032562566  0.030945194            8 
 4272000   0.56907244   -5.2947082    1666.6363  0.032510851  0.030937189           20 
 4273000    0.5674485   -5.2969829    1665.4294  0.032479707  0.030929185           19 
 4274000   0.57711485    -5.298759    1666.3985  0.032491002  0.030921201           28 
 4275000   0.58075528   -5.3031691    1662.6471  0.032410275  0.030913228           42 
 4276000   0.56019962   -5.3117297    1662.9912  0.032409401  0.030905219           46 
 4277000   0.57156789   -5.3081797    1667.7769  0.032495069  0.030897208           34 
 4278000   0.56735186   -5.3170057    1663.6611  0.032407299  0.030889225           24 
 4279000     0.564813     -5.29233    1666.9479  0.032463737  0.030881223           10 
 4280000    0.5529357   -5.2919363    1666.2237  0.032442051  0.030873243           27 
 4281000   0.56739253   -5.3122331    1667.8143  0.032465434   0.03086526           14 
 4282000   0.56155996   -5.2883794    1665.4921  0.032412659  0.030857279           20 
 4283000   0.56625524   -5.2874386     1668.715  0.032467799  0.030849319           17 
 4284000      0.56717   -5.3088429    1667.6494  0.032439492  0.030841361           20 
 4285000   0.57873136   -5.2865346    1669.7376  0.032472531  0.030833411           12 
 4286000   0.57044322    -5.324274    1665.4026   0.03238067  0.030825448           11 
 4287000   0.55946544   -5.3033566    1662.2341  0.032311524  0.030817487           10 
 4288000   0.56291569   -5.3264463    1667.3437  0.032403291  0.030809518           16 
 4289000   0.55739193    -5.304954    1667.6618  0.032401915  0.030801544           17 
 4290000   0.56595406   -5.2975561    1667.8073  0.032397189  0.030793586           10 
 4291000   0.54873853   -5.2957532    1664.5256  0.032325908  0.030785624           20 
 4292000   0.56188444   -5.3318207    1665.2099  0.032331661  0.030777639           36 
 4293000   0.56907118   -5.3220949    1663.5512  0.032291932  0.030769614           26 
 4294000   0.56518641   -5.3368517    1665.4363  0.032320996   0.03076158           11 
 4295000   0.56493307   -5.3255935    1667.9735  0.032362699  0.030753571           18 
 4296000   0.56472295   -5.3464553    1665.2037  0.032301437  0.030745572           10 
 4297000   0.56842486   -5.3195509    1663.3443   0.03225786  0.030737562           10 
 4298000    0.5592378   -5.3195252    1663.6445  0.032256174  0.030729567           12 
 4299000   0.56204857   -5.3231012    1662.9328  0.032234877   0.03072156           10 
 4300000   0.55243237    -5.307063    1665.5661  0.032278412   0.03071359            6 
 4301000   0.56374337   -5.3060268    1666.2387  0.032283939  0.030705612           13 
 4302000   0.58078738   -5.3053837    1667.5296   0.03230144  0.030697675           16 
 4303000   0.57556862   -5.2906157    1661.8078  0.032183124  0.030689726           17 
 4304000   0.56471935   -5.3294916    1666.6896  0.032270167  0.030681776           15 
 4305000   0.56342283   -5.3063381    1663.8081  0.032206893  0.030673799           10 
 4306000   0.55201147   -5.3070941    1666.3105  0.032247842  0.030665835            8 
 4307000   0.56344934   -5.3243263    1664.7395  0.032209958  0.030657882           22 
 4308000   0.55947014   -5.3203611    1669.9149  0.032302593  0.030649938           24 
 4309000   0.57083274    -5.331313    1664.2171  0.032184906  0.030641976           14 
 4310000   0.55212068   -5.3306891    1665.9769  0.032211463  0.030633984            7 
 4311000   0.57428315   -5.3347063    1662.8243  0.032143051  0.030626015           25 
 4312000   0.55701811   -5.3355529    1665.8309  0.032193702  0.030618028           24 
 4313000   0.57191287    -5.322364    1662.6455  0.032124691  0.030610042           42 
 4314000   0.54995871   -5.3249892    1666.8457  0.032198379  0.030602052           14 
 4315000   0.55528938   -5.3291513    1661.0472  0.032078933  0.030594081           13 
 4316000    0.5715037   -5.3359577    1664.3101  0.032134502  0.030586079           20 
 4317000   0.56112852   -5.3317837     1664.278  0.032126438  0.030578066           41 
 4318000   0.57093028   -5.3320994      1665.58  0.032144126  0.030570099           25 
 4319000   0.56570621   -5.3334857    1663.0895   0.03208863  0.030562129           27 
 4320000   0.56916712     -5.34514    1659.9008  0.032019691  0.030554144           36 
 4321000   0.55594286   -5.3473003    1665.1439  0.032113398  0.030546176           24 
 4322000   0.56647351   -5.3276944    1664.7776  0.032098904  0.030538198           41 
 4323000   0.56202136   -5.3270076    1669.2157  0.032177032  0.030530246           46 
 4324000   0.55978717   -5.3555007      1665.82  0.032104146  0.030522292           50 
 4325000   0.55451321   -5.3467179    1663.2416  0.032047044  0.030514346           26 
 4326000    0.5609484   -5.3413112    1667.4894  0.032121463  0.030506381            8 
 4327000   0.55504118   -5.3324743    1666.8476  0.032101679  0.030498381            7 
 4328000   0.55832989    -5.334267    1664.0966  0.032041292  0.030490405           25 
 4329000   0.55081851   -5.3324098    1665.0491  0.032052226  0.030482433           14 
 4330000   0.55071557   -5.3331628    1665.3539  0.032050692  0.030474485           27 
 4331000   0.56540728   -5.3416109     1665.706  0.032050064  0.030466553           15 
 4332000   0.56756054   -5.3254826    1661.2914  0.031957745  0.030458596           20 
 4333000   0.55593912   -5.3481456     1665.797  0.032037022  0.030450638           29 
 4334000   0.55163576   -5.3216434    1667.7236  0.032066673  0.030442704           12 
 4335000   0.55905931   -5.3391464    1666.2822  0.032031568  0.030434764           11 
 4336000   0.56423019   -5.3286431    1664.2135  0.031984422  0.030426812           15 
 4337000   0.56647104   -5.3374203    1668.3481  0.032056492  0.030418874           17 
 4338000   0.55264414   -5.3108935     1665.971  0.032003439  0.030410948           29 
 4339000    0.5647946   -5.3202521    1663.4728  0.031948083  0.030403016           34 
 4340000   0.55422495   -5.2989454    1670.6687  0.032078892   0.03039512            8 
 4341000   0.55396376   -5.3240341    1663.4957  0.031933804  0.030387213           20 
 4342000   0.55548981   -5.3483817    1666.0129  0.031974759  0.030379292           16 
 4343000    0.5537407   -5.3242706    1668.1019   0.03200748  0.030371384           11 
 4344000   0.55731367   -5.3293696    1664.1944  0.031925153  0.030363444           33 
 4345000   0.56712747   -5.3211301     1664.057   0.03191517  0.030355503           38 
 4346000   0.56049042   -5.3380795     1666.185   0.03194863  0.030347582           17 
 4347000   0.56306363   -5.3397668    1660.6978  0.031836089  0.030339628            8 
 4348000   0.56302532   -5.3401202    1664.2649  0.031897135  0.030331675           21 
 4349000   0.55807098   -5.3507588    1665.2852  0.031909352  0.030323754           21 
 4350000   0.54721997   -5.3414598    1663.3189  0.031864347  0.030315808           33 
 4351000    0.5645269   -5.3300774    1663.9982  0.031870034  0.030307862           19 
 4352000    0.5565486   -5.3378675    1665.0918  0.031883651  0.030299911           17 
 4353000   0.55878978   -5.3717039    1663.6349  0.031848437   0.03029195           12 
 4354000   0.54953643   -5.3281472    1667.5517  0.031916086     0.030284           27 
 4355000   0.55374145   -5.3499978    1663.2944  0.031827295  0.030276044            4 
 4356000   0.54649771   -5.3408645    1665.3874  0.031860028  0.030268116            5 
 4357000   0.55129193   -5.3321593     1664.632  0.031838267  0.030260193           22 
 4358000   0.54095908   -5.3416266    1661.7024  0.031774942   0.03025226           13 
 4359000   0.54934027   -5.3600324     1663.673  0.031805326  0.030244328            7 
 4360000   0.54962325   -5.3489621    1668.3865  0.031888122  0.030236404           67 
 4361000   0.56057756   -5.3597094      1663.01   0.03177807  0.030228492           15 
 4362000   0.54492637   -5.3464417    1665.0491  0.031809742  0.030220556           39 
 4363000   0.54042506   -5.3387034    1666.6239   0.03183253  0.030212629           25 
 4364000   0.55938434   -5.3574112    1665.6724  0.031807066  0.030204706           19 
 4365000   0.55958922   -5.3317117    1663.7858  0.031763761  0.030196778           12 
 4366000   0.54901057   -5.3411796    1664.7147  0.031774215   0.03018886           30 
 4367000   0.54329761   -5.3380758    1663.0467   0.03173511  0.030180942           36 
 4368000   0.55540877   -5.3435966    1661.5608  0.031699496  0.030173062           38 
 4369000   0.56231816   -5.3399533    1666.9171  0.031794405  0.030165157           18 
 4370000   0.55382992   -5.3407794    1662.2918  0.031698929   0.03015727           62 
 4371000   0.55486774   -5.3463768    1666.3649   0.03176933  0.030149394           53 
 4372000   0.54635444   -5.3313077    1663.6932  0.031711138  0.030141518           46 
 4373000   0.55303911   -5.3423735    1659.9476  0.031632509  0.030133624           21 
 4374000   0.55755062   -5.3588963    1666.5793  0.031751625  0.030125713           13 
 4375000   0.55204124   -5.3450231    1663.5907  0.031687441  0.030117826           88 
 4376000    0.5426804   -5.3337897    1668.8554  0.031780457  0.030109964           29 
 4377000   0.55632961   -5.3323793    1664.8149  0.031696271  0.030102093           18 
 4378000   0.55778862   -5.3417594     1666.211  0.031715604  0.030094243           10 
 4379000   0.55019822   -5.3354772    1663.5492  0.031657707  0.030086388           25 
 4380000   0.54988678    -5.347905    1663.7409  0.031654127  0.030078504           67 
 4381000   0.55078882   -5.3324519    1663.6988    0.0316461  0.030070627           34 
 4382000   0.53724953   -5.3321499    1667.8249  0.031717346  0.030062777           47 
 4383000   0.54501536   -5.3196082    1666.2468  0.031680104  0.030054898           32 
 4384000   0.54867538   -5.3508338    1662.3541  0.031598885   0.03004702           36 
 4385000   0.54546386   -5.3358323     1661.255   0.03157079  0.030039145           18 
 4386000   0.53969576   -5.3551549    1662.8848  0.031594558  0.030031259           39 
 4387000   0.55313113   -5.3591704    1663.3218  0.031595657  0.030023363           29 
 4388000   0.55052002   -5.3568869    1664.6538  0.031613754  0.030015453           24 
 4389000   0.54623822   -5.3569132    1664.1053  0.031596137   0.03000757           35 
 4390000   0.55220962   -5.3273345    1662.4843  0.031558168  0.029999682           16 
 4391000   0.55511653   -5.3513161    1666.3769  0.031624857  0.029991802           20 
 4392000   0.55656454   -5.3454434    1667.1109  0.031631582  0.029983921           10 
 4393000   0.54453663   -5.3363141    1666.0226  0.031603736  0.029976081           26 
 4394000   0.52954261   -5.3579269    1665.1539  0.031580069  0.029968233           19 
 4395000   0.55431232   -5.3545465    1661.8433  0.031510113  0.029960366            9 
 4396000    0.5508546   -5.3487744    1667.2352  0.031605156  0.029952524            9 
 4397000   0.54786642   -5.3441133    1667.9493  0.031611502  0.029944689           14 
 4398000   0.53717312   -5.3397023    1667.0531  0.031587334  0.029936871            6 
 4399000   0.53658801   -5.3522856    1668.4614  0.031606832  0.029929045           13 
 4400000   0.56041043   -5.3466389     1665.998  0.031552992   0.02992123            7 
 4401000   0.55132822   -5.3453691    1669.1602    0.0316057  0.029913377           21 
 4402000    0.5556051   -5.3702174    1662.9397  0.031480761  0.029905537           10 
 4403000   0.53931717    -5.360223    1667.9178  0.031567829  0.029897713            8 
 4404000   0.54729945   -5.3585491    1666.5213  0.031534236  0.029889866           10 
 4405000   0.54157655   -5.3540279    1667.1642   0.03153924  0.029882039           22 
 4406000   0.55458239   -5.3658227    1665.2914   0.03149666  0.029874234            7 
 4407000   0.54296357   -5.3618589    1665.5967  0.031495286  0.029866423           10 
 4408000   0.54780572   -5.3731205    1662.1295  0.031422593  0.029858602           14 
 4409000   0.53603634   -5.3729814    1662.0156  0.031413313  0.029850757           12 
 4410000   0.55760839   -5.3628936    1664.4013  0.031451271  0.029842921           12 
 4411000   0.53937053   -5.3615396    1664.6956  0.031449702   0.02983511           28 
 4412000   0.55247682   -5.3665981    1662.2546  0.031396468  0.029827307           84 
 4413000   0.54908616   -5.3537155    1666.6656   0.03147265  0.029819491           26 
 4414000   0.55198822   -5.3712683    1663.4997  0.031405749  0.029811685           15 
 4415000   0.54796522    -5.362385    1667.6009  0.031476045  0.029803895           35 
 4416000   0.55254405   -5.3616518    1668.5523  0.031486872  0.029796076           22 
 4417000   0.53641937   -5.3667401    1664.5864   0.03140492  0.029788264           21 
 4418000   0.54535166    -5.343384    1665.1886   0.03140917  0.029780462           28 
 4419000   0.54550978   -5.3672848    1666.7367  0.031431257  0.029772641           21 
 4420000   0.55041779   -5.3430896    1664.6913  0.031385582  0.029764855           29 
 4421000   0.54430977   -5.3724553     1665.067  0.031385564  0.029757066           16 
 4422000    0.5515322   -5.3615336    1662.3156  0.031326616   0.02974926           19 
 4423000   0.54615301   -5.3633908    1662.9311  0.031331131  0.029741432           15 
 4424000   0.53241114   -5.3659785     1664.126  0.031346556  0.029733593           13 
 4425000   0.54682206   -5.3626585    1664.2386  0.031341594  0.029725766           29 
 4426000   0.54800998    -5.355675    1664.8851  0.031346684  0.029717958           61 
 4427000   0.52942598   -5.3675832    1666.3558  0.031367287  0.029710134           35 
 4428000   0.55472653   -5.3553052    1665.2948  0.031340236  0.029702341           23 
 4429000   0.54680189   -5.3426412    1664.4615  0.031317481  0.029694522           62 
 4430000   0.54138054   -5.3568395    1664.3671  0.031308637  0.029686681           51 
 4431000   0.54387133    -5.361053    1663.7206  0.031289412  0.029678866           15 
 4432000   0.54062428   -5.3526673    1664.5033   0.03129707  0.029671076           21 
 4433000    0.5436039   -5.3793103    1665.4854  0.031308471  0.029663275           23 
 4434000   0.53552314   -5.3664945    1661.0043  0.031217191  0.029655456           29 
 4435000   0.55239177   -5.3829305    1662.7801  0.031243519   0.02964767           26 
 4436000   0.53871672   -5.3596947    1662.0268  0.031222325  0.029639884           13 
 4437000   0.53844722   -5.3770474    1667.5864  0.031319705  0.029632066           25 
 4438000   0.54563567   -5.3816086     1660.595   0.03118137  0.029624241           15 
 4439000   0.53679118   -5.3890902    1663.6018  0.031230791  0.029616408           21 
 4440000   0.53672168   -5.3640975    1664.8797  0.031247742  0.029608589           10 
 4441000   0.54544302   -5.3715621    1665.9806  0.031261365  0.029600783           19 
 4442000   0.53271764   -5.3800018    1666.2507  0.031259394  0.029592969           14 
 4443000   0.53414205    -5.382027    1663.5223  0.031201183  0.029585171           12 
 4444000   0.52622986   -5.3713617    1662.3283  0.031171772  0.029577365           22 
 4445000   0.53977313   -5.3651678    1663.3324  0.031183584  0.029569554           69 
 4446000   0.55227257   -5.3774131    1664.9491  0.031206873  0.029561773           40 
 4447000   0.54224492    -5.381908    1664.0844  0.031183652  0.029553952           34 
 4448000   0.54066903   -5.3722684    1663.3041  0.031162023   0.02954615           17 
 4449000   0.52260358   -5.3848182    1662.4509  0.031139037  0.029538345           19 
 4450000   0.54531683    -5.372351    1663.1485  0.031145103  0.029530522           44 
 4451000   0.53919191   -5.3770562    1660.9211  0.031096404  0.029522705           37 
 4452000   0.54496379   -5.3841525    1658.3193  0.031040717  0.029514852           30 
 4453000   0.53371412   -5.3724527    1665.8156  0.031174032  0.029507049           75 
 4454000   0.54514163   -5.3622224    1666.1159  0.031172653  0.029499267           16 
 4455000    0.5378202    -5.388495    1662.2291   0.03109295  0.029491453           29 
 4456000   0.53459922   -5.3841331    1663.0011  0.031100409   0.02948363           21 
 4457000   0.55006536   -5.4031182    1662.6746  0.031087328  0.029475848           21 
 4458000   0.53957132   -5.3837261    1659.4428  0.031019941  0.029468023           23 
 4459000   0.54654112   -5.3666131      1660.26  0.031028257   0.02946021           28 
 4460000   0.55464488   -5.3925933    1662.9466  0.031071499  0.029452383           23 
 4461000   0.55045635   -5.3646265    1662.6853  0.031059651  0.029444582           20 
 4462000   0.54076718   -5.3782329    1661.4722  0.031030034  0.029436774           43 
 4463000   0.53914176   -5.3765207    1657.4024  0.030947092  0.029428943           21 
 4464000    0.5293854   -5.3748149    1661.1084  0.031009342  0.029421132           22 
 4465000   0.52984517   -5.3768812     1665.546  0.031085219  0.029413331           22 
 4466000   0.53879572   -5.3719304    1660.2468  0.030979377  0.029405528           37 
 4467000   0.54328274   -5.3765015    1664.5578  0.031052865  0.029397696           37 
 4468000   0.53536714   -5.3821374    1661.6531   0.03099174  0.029389881           21 
 4469000   0.54405966   -5.3738592    1661.5013  0.030981974  0.029382057           12 
 4470000   0.52754483   -5.3784299     1660.419  0.030954865  0.029374271           19 
 4471000   0.53346104   -5.3820136    1661.9329  0.030976159  0.029366447           29 
 4472000   0.53710882   -5.3849115    1662.3216  0.030976475  0.029358642           13 
 4473000   0.53812483   -5.3766986    1661.0056  0.030945033  0.029350827           24 
 4474000   0.54082928   -5.3562022     1662.564  0.030967144  0.029343034           19 
 4475000   0.52935029   -5.3737189    1664.7882  0.031001642  0.029335253           32 
 4476000   0.55206103   -5.3801374    1664.4794  0.030988968  0.029327462           14 
 4477000   0.54298826   -5.3853096    1663.9703   0.03097257  0.029319684           16 
 4478000   0.54170955   -5.3968456    1661.3397  0.030916698  0.029311899           12 
 4479000   0.52977072   -5.3779399    1662.8987  0.030938801  0.029304109           11 
 4480000   0.53335181   -5.3676524    1665.3676  0.030977821  0.029296335           22 
 4481000   0.53784357   -5.3784799    1663.0367   0.03092756  0.029288566           26 
 4482000   0.54954696   -5.3842019    1660.3357  0.030870439  0.029280787           12 
 4483000   0.53407546   -5.3760474    1661.5673  0.030886446  0.029273008           26 
 4484000   0.52721028   -5.4013538    1663.7018  0.030919228  0.029265226           18 
 4485000   0.53867241   -5.4033522    1661.3398  0.030868447  0.029257424           33 
 4486000   0.53395101   -5.3917966    1663.2697  0.030897415  0.029249629           31 
 4487000   0.53992186   -5.3894854    1661.8137  0.030863489  0.029241809          102 
 4488000   0.53041474   -5.3800414    1660.4488  0.030831268  0.029234008           32 
 4489000   0.53606195   -5.3894021     1661.583  0.030845456  0.029226195           29 
 4490000   0.53507915   -5.3803816    1660.8969  0.030825851  0.029218421           10 
 4491000   0.53110063   -5.3949311     1662.489   0.03084853  0.029210656           26 
 4492000   0.53305531   -5.3680402    1666.4547  0.030915232  0.029202894           20 
 4493000   0.53279369   -5.4037676     1662.114  0.030827843  0.029195131           33 
 4494000   0.52330914   -5.3746943    1665.8523  0.030890303  0.029187384           22 
 4495000   0.53266818   -5.3765075    1662.6594  0.030824237   0.02917964           87 
 4496000   0.54343228   -5.4047691    1664.4394  0.030850374   0.02917188           40 
 4497000   0.53185611    -5.404099    1659.1759  0.030745977  0.029164108           41 
 4498000    0.5436159   -5.3997891    1660.1345  0.030756902  0.029156341           36 
 4499000    0.5292482   -5.4092184    1663.9041  0.030819887  0.029148577           48 
 4500000   0.52914496   -5.3884185    1659.1185  0.030724416  0.029140808           30 
 4501000   0.52405607   -5.3772216    1662.6247  0.030782505  0.029133067           18 
 4502000   0.52048772   -5.3977117    1659.4552  0.030717001  0.029125327           66 
 4503000   0.53978143    -5.388844    1660.4514  0.030728614  0.029117571           37 
 4504000   0.52642935   -5.3949137    1665.8844  0.030822313  0.029109808           61 
 4505000   0.52852191   -5.3874305    1664.2271  0.030784816  0.029102054          122 
 4506000    0.5340205   -5.3998083    1659.9311  0.030698534  0.029094296           59 
 4507000   0.52260275   -5.4009711    1664.2897  0.030772312  0.029086554           48 
 4508000   0.52535533   -5.3947736    1661.4449  0.030712898  0.029078795           59 
 4509000   0.52505866   -5.3684478    1663.9817  0.030752969   0.02907104           56 
 4510000   0.52944008    -5.396642    1665.6962   0.03077783  0.029063308           75 
 4511000   0.52827274   -5.3975419    1660.8989  0.030682385   0.02905554           42 
 4512000   0.53836024   -5.4032295    1661.4783  0.030686287  0.029047759           53 
 4513000   0.52266576   -5.3901992    1659.2706  0.030638721  0.029039989          113 
 4514000   0.52049212   -5.3747769    1660.8101  0.030660356  0.029032231           89 
 4515000   0.52969736       -5.406    1659.2171  0.030624163  0.029024471           47 
 4516000   0.53378359   -5.3882448    1655.7475  0.030553356   0.02901668           42 
 4517000   0.53514887   -5.3869863    1664.0875  0.030700455  0.029008928           75 
 4518000   0.53138205   -5.4014799    1662.3206  0.030661071    0.0290012           74 
 4519000   0.51767677   -5.3969202    1659.9329  0.030610254  0.028993453           62 
 4520000   0.52331751   -5.4023741    1659.2599  0.030591076  0.028985713           78 
 4521000   0.52429748   -5.3995646    1659.4895   0.03058854  0.028977972           54 
 4522000   0.52216938   -5.3876484    1661.0743  0.030610981  0.028970252           49 
 4523000   0.52973777   -5.3836843    1663.8635  0.030655603  0.028962547           40 
 4524000   0.52214808   -5.3818125    1661.0847   0.03059764  0.028954827           37 
 4525000   0.53518753   -5.4076948     1665.133  0.030665433  0.028947075           41 
 4526000   0.52722513   -5.3887232     1663.201  0.030623085  0.028939338           35 
 4527000   0.52704986   -5.3971943     1664.582  0.030641743  0.028931597           39 
 4528000   0.53218014   -5.3885271    1663.7161  0.030619039  0.028923843           30 
 4529000   0.53461345    -5.416304    1659.0575  0.030526561  0.028916106           57 
 4530000   0.51952119    -5.391863    1663.4306  0.030600268  0.028908373           31 
 4531000   0.53145961   -5.4069446    1661.0396  0.030549541  0.028900628           72 
 4532000   0.52931331   -5.3880096    1658.4001  0.030494265  0.028892872           33 
 4533000   0.52464122    -5.400235    1659.1556  0.030501426  0.028885117           32 
 4534000   0.52527872    -5.398712    1658.1611  0.030476421  0.028877373           36 
 4535000   0.53704632   -5.4063334    1658.8615   0.03048257  0.028869641           22 
 4536000   0.52066057   -5.4119946    1660.3327   0.03050288  0.028861911           34 
 4537000   0.52771598   -5.4043096    1660.1936    0.0304936  0.028854153           26 
 4538000   0.50984384   -5.4191352    1661.6554  0.030513724  0.028846414           35 
 4539000   0.52213403   -5.4081424    1657.8357  0.030436876  0.028838669           42 
 4540000   0.53589163   -5.4206137    1659.0026   0.03045159  0.028830928           39 
 4541000      0.52106   -5.4044267    1659.5504  0.030454937  0.028823201           27 
 4542000   0.51033939   -5.4079007    1659.3087  0.030443796  0.028815469           34 
 4543000   0.51355782   -5.4100857    1657.9598  0.030412352  0.028807716           23 
 4544000   0.52739736   -5.4149905     1661.045  0.030462239   0.02879998           17 
 4545000   0.52614899   -5.4076624    1659.3006  0.030423553  0.028792251           32 
 4546000   0.52724632   -5.3905182      1661.59  0.030458829  0.028784529           54 
 4547000    0.5277142   -5.4011789    1659.7608  0.030418607  0.028776816           47 
 4548000   0.52086713   -5.4137538    1663.5532  0.030481405  0.028769097           28 
 4549000   0.53042532   -5.3914295    1659.0384  0.030391999  0.028761378           24 
 4550000   0.51856977   -5.4192479    1663.4757  0.030466589  0.028753664           35 
 4551000   0.52644104   -5.4211817    1661.4914  0.030423559  0.028745946           49 
 4552000   0.51973251   -5.4078377    1661.8503  0.030423447  0.028738228           37 
 4553000   0.51708286   -5.4125411     1662.644  0.030431291  0.028730515           26 
 4554000   0.52629671   -5.3998202    1661.0143  0.030394787  0.028722809           33 
 4555000   0.52132061   -5.4067987     1659.338  0.030357447  0.028715116           19 
 4556000   0.51571017   -5.4123243     1661.815   0.03039609  0.028707443           29 
 4557000   0.52528361   -5.4108232    1662.2193  0.030396812  0.028699776           30 
 4558000   0.51279797   -5.4200379    1658.9929  0.030331156  0.028692093           34 
 4559000   0.50829039   -5.4150082    1659.2822   0.03032979  0.028684398           63 
 4560000   0.52647197   -5.4157402    1662.0958  0.030374558  0.028676697           17 
 4561000   0.51854693   -5.4336714    1659.3272  0.030317314  0.028668993           55 
 4562000   0.50051274   -5.4134505     1659.375  0.030311541  0.028661309           19 
 4563000   0.51693298   -5.4264181    1663.7073  0.030384019  0.028653605           23 
 4564000   0.51463757   -5.4217358    1660.2519   0.03031427  0.028645913           19 
 4565000   0.52110498   -5.4107552    1659.7597  0.030298643  0.028638215           37 
 4566000    0.5134925   -5.4168188    1662.6026  0.030343894  0.028630534           29 
 4567000   0.53005123   -5.4149998    1657.5481   0.03024502  0.028622849           27 
 4568000   0.53673959   -5.4099949    1659.3361  0.030271017  0.028615148           32 
 4569000   0.52149057   -5.4345254    1658.2498  0.030244579  0.028607452           23 
 4570000   0.52579232   -5.4205965    1655.5644  0.030188994  0.028599727           39 
 4571000   0.51964911   -5.4138831    1659.1621  0.030247978  0.028592011           27 
 4572000   0.51320151   -5.4128758    1659.7426  0.030251943  0.028584294           19 
 4573000   0.50891618   -5.4259923    1658.5738  0.030224029  0.028576592           41 
 4574000   0.53247583   -5.4216694    1660.3952  0.030250604  0.028568905           38 
 4575000    0.5252552   -5.4143616    1657.2521  0.030186741   0.02856123           36 
 4576000   0.52085349   -5.4218797    1659.8452  0.030227368  0.028553566           30 
 4577000   0.51739818   -5.4253282    1657.3615  0.030175542    0.0285459           59 
 4578000   0.51467005   -5.4321913    1658.0277  0.030181078  0.028538226           61 
 4579000   0.51058368   -5.4225594    1659.2635  0.030196976  0.028530556           51 
 4580000   0.51741562   -5.4082571    1663.3128  0.030264061  0.028522878           50 
 4581000   0.51489501   -5.4242745     1662.092  0.030235248  0.028515182           25 
 4582000    0.5215558   -5.4285941    1662.4951   0.03023598  0.028507498           36 
 4583000   0.51198938   -5.4268344    1662.4074  0.030227788  0.028499814           29 
 4584000   0.51370965   -5.4396309    1659.0617  0.030160371  0.028492153           31 
 4585000   0.52943481   -5.4382263    1661.5971  0.030199875  0.028484499           32 
 4586000   0.51630211   -5.4266553    1660.1313  0.030166653  0.028476812           18 
 4587000   0.53048357    -5.424177    1663.4225   0.03021987  0.028469163           39 
 4588000   0.52264437   -5.4390335    1658.9693  0.030132397  0.028461496           32 
 4589000   0.50361886   -5.4169414    1659.3387  0.030132539   0.02845382           55 
 4590000    0.5289944   -5.4317151    1662.4998  0.030183367   0.02844614           34 
 4591000   0.50632633   -5.4341527    1660.3367  0.030137528   0.02843848           22 
 4592000   0.51869419    -5.421013     1659.042  0.030107469  0.028430807           20 
 4593000   0.51671992   -5.4349077    1657.9782  0.030081614  0.028423158           33 
 4594000   0.51991876   -5.4379044    1658.8071  0.030090101  0.028415491           17 
 4595000    0.5218172   -5.4029131     1661.541  0.030133133  0.028407862           24 
 4596000   0.51344284   -5.4204323    1659.1189  0.030082661  0.028400239           29 
 4597000      0.51581    -5.415839    1661.4512  0.030118397  0.028392616           19 
 4598000   0.51376637    -5.423411    1660.5191  0.030094952  0.028384977           73 
 4599000   0.51067708   -5.4222706    1657.8592  0.030040211  0.028377321           34 
 4600000   0.51528997   -5.4419969    1658.0981  0.030038008  0.028369675           52 
 4601000    0.5124918   -5.4128327    1661.5589  0.030094162   0.02836204           80 
 4602000   0.52134696   -5.4319596    1657.8823  0.030021048   0.02835442           66 
 4603000   0.52079305   -5.4305579    1656.8736  0.029996263  0.028346803           36 
 4604000   0.51915312   -5.4296776    1662.3804  0.030089422  0.028339156           59 
 4605000   0.49818537   -5.4399598    1655.7305  0.029962549  0.028331501           27 
 4606000   0.52277379   -5.4415496    1658.9177  0.030013708   0.02832386           19 
 4607000   0.50514097   -5.4064756    1662.0935  0.030064639  0.028316254           26 
 4608000   0.52359142   -5.4310282    1656.7997  0.029962379  0.028308631           12 
 4609000   0.50618092   -5.4419512    1661.0418  0.030032577  0.028301017           22 
 4610000   0.52032181   -5.4197498    1664.6071  0.030090511  0.028293402           14 
 4611000   0.50664286   -5.4287029    1658.9806  0.029982299   0.02828577           47 
 4612000   0.51819569   -5.4466013    1655.0341   0.02990449  0.028278143           32 
 4613000   0.50805077    -5.454137    1656.5364  0.029925147  0.028270485           35 
 4614000   0.51497162   -5.4411417     1659.259  0.029967834  0.028262822           21 
 4615000    0.5255328    -5.441661    1657.8754  0.029936356  0.028255148           49 
 4616000   0.51362238   -5.4383562    1658.7656  0.029945942  0.028247479           40 
 4617000   0.52275774   -5.4245035    1657.7875  0.029921801  0.028239841           54 
 4618000   0.51513618   -5.4440658    1655.8526  0.029880406  0.028232191           37 
 4619000   0.51676476   -5.4340569    1657.2251    0.0298987  0.028224549           12 
 4620000   0.51686452   -5.4370253    1655.6028  0.029862965  0.028216909           26 
 4621000   0.51694996   -5.4199693      1659.26  0.029922455  0.028209276           32 
 4622000   0.50511732   -5.4380399    1658.9545  0.029910473  0.028201634           12 
 4623000   0.49750923   -5.4321677    1657.8378  0.029883874  0.028193996           24 
 4624000   0.51975772   -5.4307116    1656.1712  0.029847376  0.028186357           18 
 4625000   0.51978112   -5.4548424    1660.9246  0.029926569  0.028178715           16 
 4626000    0.5093285   -5.4503214    1657.8255  0.029864273  0.028171071           28 
 4627000   0.51684088   -5.4177098    1656.8137  0.029839595   0.02816343           26 
 4628000   0.52240176   -5.4440507    1658.9998  0.029872512  0.028155782           30 
 4629000    0.4999373   -5.4425774    1658.9195  0.029864612  0.028148129           19 
 4630000   0.50996793   -5.4314996    1654.9841  0.029787331  0.028140492           45 
 4631000   0.50790712   -5.4385805    1659.8008  0.029867574  0.028132837           38 
 4632000   0.50874581   -5.4383312    1656.4834  0.029801442  0.028125174           50 
 4633000   0.51677469    -5.444777    1654.6738  0.029762462  0.028117504           20 
 4634000   0.50803419   -5.4487663    1658.2038  0.029819519  0.028109879           33 
 4635000   0.50301126   -5.4471555    1654.8306  0.029752438  0.028102243           76 
 4636000   0.51546099   -5.4369138      1655.82  0.029763805  0.028094614           34 
 4637000   0.51295318   -5.4518033    1658.8707  0.029812211  0.028086991           39 
 4638000   0.52214347   -5.4517203    1653.8929  0.029716346  0.028079343           70 
 4639000   0.50903457   -5.4344231    1657.9719  0.029783213  0.028071714           65 
 4640000   0.51347911   -5.4276533    1657.1615  0.029762239  0.028064098           34 
 4641000   0.50302293   -5.4456453    1656.0857  0.029736509  0.028056488           43 
 4642000   0.50844842   -5.4506841    1659.0604  0.029783505  0.028048877           42 
 4643000   0.51256286   -5.4412369    1656.8927  0.029738185  0.028041262           36 
 4644000   0.50727067   -5.4593404    1653.7006    0.0296745  0.028033633           26 
 4645000   0.50649257   -5.4510075    1656.1191  0.029711502  0.028025988           16 
 4646000   0.52450923     -5.42758    1658.2434  0.029743209  0.028018376           17 
 4647000   0.50781332    -5.437715    1659.3281  0.029756261  0.028010775           11 
 4648000   0.50074565   -5.4382371    1659.8244  0.029758756  0.028003163           18 
 4649000   0.50282845   -5.4111226      1657.21  0.029705493  0.027995588           21 
 4650000   0.50071215   -5.4335655    1655.5809  0.029669908  0.027988013           14 
 4651000   0.51452462   -5.4323102    1658.6048  0.029717709  0.027980418           19 
 4652000   0.50419725   -5.4424734    1659.8622  0.029733846  0.027972824           24 
 4653000   0.50301363    -5.442928    1655.8807  0.029656148  0.027965232           28 
 4654000      0.50633   -5.4284783    1657.9002  0.029685936  0.027957647           18 
 4655000    0.4882064   -5.4535445      1658.63  0.029692625  0.027950064           25 
 4656000   0.50497476   -5.4388987    1658.9213  0.029691462    0.0279425           16 
 4657000   0.50717508   -5.4529605    1658.1101  0.029670569   0.02793493           32 
 4658000   0.50017406   -5.4509775    1657.2252  0.029648368  0.027927357           45 
 4659000   0.50940419    -5.429244    1656.1585  0.029622926  0.027919775           41 
 4660000   0.49818282   -5.4303009    1658.3415  0.029655606  0.027912217           67 
 4661000   0.50519889   -5.4498642     1658.093  0.029644801  0.027904674           18 
 4662000    0.5131575   -5.4459029    1657.2735  0.029623793  0.027897121           54 
 4663000   0.50570022   -5.4461844    1657.3117  0.029618124  0.027889568           63 
 4664000   0.51066146   -5.4560688    1660.0227  0.029660211  0.027882027           30 
 4665000   0.50292969   -5.4511216    1659.4075  0.029642863  0.027874497           37 
 4666000   0.50370875   -5.4651081    1658.4548  0.029619495  0.027866945           82 
 4667000   0.50943847   -5.4362127    1654.9589  0.029550727  0.027859395           30 
 4668000   0.50896169   -5.4525656    1658.4967  0.029607553  0.027851852          112 
 4669000   0.50020018   -5.4409223    1654.0347  0.029521573  0.027844309           44 
 4670000    0.5049878   -5.4574765    1656.3057  0.029555777  0.027836751           77 
 4671000   0.50837346   -5.4657483    1654.6766  0.029520385  0.027829157           67 
 4672000   0.50275445   -5.4558606    1657.5986  0.029566184  0.027821582           55 
 4673000   0.50613743   -5.4486118    1654.3415  0.029501774  0.027814023           44 
 4674000   0.49808768    -5.450629    1655.0705  0.029508459  0.027806465           75 
 4675000   0.51252518   -5.4641796    1654.8466  0.029498158  0.027798913           40 
 4676000   0.51599332   -5.4437153    1658.9614  0.029565181   0.02779135           27 
 4677000   0.51791327   -5.4524178    1657.3357  0.029529893  0.027783804           36 
 4678000    0.5017476   -5.4492509    1655.9521  0.029498933  0.027776238           44 
 4679000    0.5058125   -5.4746092     1654.119  0.029459982  0.027768662           32 
 4680000   0.51008096   -5.4672571    1657.9697  0.029522252  0.027761096           53 
 4681000    0.5100001   -5.4465184    1657.8103  0.029513109  0.027753554           26 
 4682000   0.49925499   -5.4545249    1656.6563  0.029486265  0.027746026           30 
 4683000   0.50332294   -5.4423792    1653.8848  0.029430651  0.027738484           33 
 4684000   0.50135697   -5.4562117    1655.6487  0.029455748  0.027730937           44 
 4685000   0.50122252   -5.4476561    1656.0193  0.029456053   0.02772338           71 
 4686000   0.49767952   -5.4446305    1658.2616  0.029489643   0.02771588           32 
 4687000   0.49300637   -5.4599929    1659.0967    0.0294982  0.027708368           61 
 4688000   0.50326005   -5.4673332    1654.2911  0.029406484  0.027700835           57 
 4689000    0.5021389   -5.4492724    1656.8311  0.029445352   0.02769329           78 
 4690000    0.4929955   -5.4598248    1654.5196  0.029398004   0.02768576          107 
 4691000   0.49558011    -5.444443    1660.4993  0.029497962  0.027678241           85 
 4692000   0.48612024   -5.4708778    1658.5263  0.029456633  0.027670736          106 
 4693000   0.50384914    -5.468457    1658.0884  0.029442582  0.027663199          102 
 4694000    0.5068906   -5.4557414    1659.2931  0.029457696  0.027655687           98 
 4695000   0.49319144   -5.4560653    1656.9252  0.029409392   0.02764818           74 
 4696000   0.50360225   -5.4655518    1658.2389  0.029426443  0.027640657           67 
 4697000   0.49401871   -5.4833975    1656.9441  0.029397205   0.02763312          113 
 4698000   0.50089299   -5.4839016    1655.5738  0.029366641  0.027625591           57 
 4699000    0.4876136    -5.480148    1656.8259  0.029382597  0.027618064           48 
 4700000   0.49695434   -5.4728983    1658.8704  0.029412596  0.027610539           94 
 4701000   0.49614307   -5.4730472    1654.5251  0.029329312  0.027603005           66 
 4702000   0.50851864   -5.4597153    1660.0538  0.029421058  0.027595501           51 
 4703000   0.50369711   -5.4735426    1659.7773  0.029409902  0.027587978           78 
 4704000   0.49317793   -5.4624385    1652.1569  0.029268652  0.027580473           45 
 4705000   0.49306836   -5.4615737    1655.0175  0.029313097  0.027572966           54 
 4706000   0.49744227   -5.4684669    1656.0388  0.029324954  0.027565434           40 
 4707000   0.49693806   -5.4893345    1653.5668  0.029274959  0.027557901           51 
 4708000   0.49797089   -5.4740329    1654.6822  0.029288483  0.027550377           38 
 4709000   0.49657931   -5.4564754    1657.2261  0.029327282   0.02754285           74 
 4710000   0.49458354   -5.4736003    1655.4095  0.029288916  0.027535337           40 
 4711000   0.49401155    -5.468609    1657.9749  0.029328077  0.027527823           37 
 4712000   0.50329282   -5.4757772    1653.9183  0.029250111  0.027520322           32 
 4713000   0.49691538   -5.4776056    1654.2502  0.029249774  0.027512823           36 
 4714000   0.49383794   -5.4679945    1655.4132  0.029264129  0.027505328           50 
 4715000   0.49243863   -5.4723106    1655.1321  0.029252953  0.027497821           55 
 4716000   0.49503217    -5.468977    1656.5843  0.029272412  0.027490344           41 
 4717000   0.49722539     -5.45358    1656.8498  0.029270896  0.027482861           44 
 4718000   0.49398389   -5.4667256    1658.5733  0.029295134  0.027475384           84 
 4719000   0.50766168   -5.4512812    1654.8222  0.029222684    0.0274679           28 
 4720000   0.49690434   -5.4545265    1658.3968  0.029279605   0.02746044           42 
 4721000   0.49360421   -5.4540243    1656.6464  0.029242505  0.027452972           53 
 4722000   0.50412418   -5.4670858    1653.0909  0.029173565  0.027445519           41 
 4723000   0.49920585   -5.4661559    1657.6239  0.029247369  0.027438042           64 
 4724000   0.49015011   -5.4682377    1655.5831  0.029205177  0.027430564           64 
 4725000   0.49653313   -5.4691142    1654.4068  0.029178251  0.027423112           36 
 4726000   0.48944313   -5.4678304    1655.6431  0.029193877  0.027415655           19 
 4727000   0.48718263   -5.4617269    1654.6176  0.029169622  0.027408194           39 
 4728000   0.49645327   -5.4679014    1655.6043  0.029180842  0.027400719           25 
 4729000   0.49061507   -5.4637096     1656.377  0.029188288   0.02739325           27 
 4730000   0.49655089   -5.4844795    1656.3843  0.029182246  0.027385791           14 
 4731000   0.49202108   -5.4792573    1653.8323  0.029131127  0.027378319           29 
 4732000    0.4909079   -5.4813928    1657.5364  0.029190202  0.027370845           19 
 4733000   0.49494734   -5.4713051    1658.0548  0.029193162  0.027363392           49 
 4734000   0.48209229   -5.4602219     1657.272  0.029173215  0.027355948           37 
 4735000   0.49477577   -5.4831943    1653.4402  0.029099617  0.027348504           40 
 4736000   0.48876629   -5.4712286     1661.073  0.029227777  0.027341068           16 
 4737000   0.49618024   -5.4619117    1657.7316  0.029162824  0.027333621           28 
 4738000   0.49120059   -5.4763222    1656.8189  0.029140617  0.027326185           39 
 4739000   0.49670986   -5.4702754    1657.5033  0.029146502  0.027318735           56 
 4740000   0.50234835   -5.4818924    1652.9614  0.029060502  0.027311276           26 
 4741000   0.49164125   -5.4735127    1657.5998  0.029135903   0.02730382           29 
 4742000    0.4894936   -5.4850245    1653.7133  0.029061459  0.027296372           24 
 4743000    0.5041165   -5.4763703    1655.2317   0.02908201  0.027288932           47 
 4744000   0.49366581   -5.4582487    1652.9523   0.02903584  0.027281488           26 
 4745000   0.48611847   -5.4905365    1656.9241  0.029099475   0.02727405           31 
 4746000   0.49728535   -5.4912154    1653.6639  0.029036099  0.027266614           25 
 4747000   0.48990812   -5.4890291    1653.5111  0.029027301  0.027259174           34 
 4748000    0.4944892   -5.5025613    1656.3797  0.029071534  0.027251729           34 
 4749000   0.48754301   -5.4758793     1656.015  0.029059012  0.027244291           32 
 4750000   0.49024876   -5.4849543    1656.0055  0.029052728  0.027236873           86 
 4751000   0.49252685   -5.4861167    1655.0012  0.029028998  0.027229441           40 
 4752000   0.48869474   -5.4824588    1656.4389    0.0290481  0.027221998           74 
 4753000   0.48167692   -5.4869653    1654.7382  0.029012171  0.027214581           97 
 4754000   0.49453427   -5.4910186    1653.5195  0.028984705  0.027207152          176 
 4755000   0.49989284    -5.493109    1653.6805  0.028981432  0.027199723           86 
 4756000   0.49746869   -5.4789158    1655.4866  0.029006984    0.0271923          152 
 4757000   0.49168341   -5.4967085    1654.8132   0.02898909  0.027184864          162 
 4758000    0.4951744   -5.4801468    1653.5431  0.028960753  0.027177444           77 
 4759000   0.50037397     -5.48784    1654.3079  0.028968058  0.027170023          120 
 4760000   0.48552236   -5.4647408    1659.0391  0.029044801  0.027162623          100 
 4761000   0.49487381   -5.4701839     1654.981  0.028967672  0.027155239          133 
 4762000   0.49166035   -5.4816718    1655.3318  0.028967727  0.027147839          116 
 4763000   0.49563036   -5.4943366    1658.8438  0.029023091  0.027140452          122 
 4764000   0.49836676   -5.4817838    1657.6923  0.028996856  0.027133059           49 
 4765000   0.49150166   -5.4828414    1656.6223  0.028972059  0.027125662          126 
 4766000   0.48066324   -5.4847226    1654.4388    0.0289278  0.027118272          129 
 4767000   0.49315191   -5.4850651    1656.6375  0.028960168  0.027110876          113 
 4768000   0.49230642   -5.4919817    1653.6426  0.028901751   0.02710348          111 
 4769000   0.48328863   -5.4779458    1653.6628  0.028896044  0.027096057          159 
 4770000   0.49039317   -5.4817996    1657.2931  0.028953409  0.027088665           55 
 4771000   0.49659872   -5.5000462    1652.7753  0.028868429  0.027081262           75 
 4772000   0.49373524   -5.4880534      1656.36  0.028924978  0.027073867           89 
 4773000   0.49010713    -5.490257    1656.6131  0.028923339  0.027066483          100 
 4774000   0.48722718   -5.4854003    1656.0512  0.028907471  0.027059083          118 
 4775000   0.49130613   -5.4744936    1656.7002  0.028912743  0.027051693          218 
 4776000   0.49172933   -5.4830061    1657.6268  0.028922857  0.027044295          137 
 4777000   0.49505656   -5.4952899    1658.2971  0.028928496  0.027036903          141 
 4778000   0.49517884   -5.4704512    1656.1521  0.028885031  0.027029529          171 
 4779000   0.48515604   -5.5008205    1655.4618  0.028866949  0.027022156          197 
 4780000   0.48505571   -5.4925418    1652.9573  0.028817247  0.027014769          261 
 4781000   0.48195487   -5.4796342    1655.6133  0.028857514  0.027007391          152 
 4782000   0.48050125   -5.4992263    1653.2116  0.028809627  0.027000013          210 
 4783000   0.48291456   -5.5044799    1651.6518  0.028776428  0.026992624          147 
 4784000   0.49387629   -5.4835761    1654.5338  0.028820614  0.026985235          136 
 4785000   0.48217399   -5.4805977    1657.2167  0.028861315  0.026977869          206 
 4786000   0.47349362   -5.4916644    1655.8266   0.02883108  0.026970487          144 
 4787000    0.4945373   -5.5065915    1655.5862  0.028820873  0.026963104          152 
 4788000    0.4875115   -5.4913445    1653.4355   0.02877742  0.026955721          125 
 4789000   0.48544465   -5.4832419    1652.7815  0.028760032  0.026948335          137 
 4790000   0.49738367   -5.5082894    1655.9357  0.028808903  0.026940976          166 
 4791000   0.48165239   -5.5102788    1658.5354  0.028848108  0.026933588          165 
 4792000   0.47695459   -5.5037647    1652.7445  0.028741383  0.026926213          109 
 4793000   0.48039478   -5.5045619    1652.4341   0.02872999  0.026918834          167 
 4794000   0.48282662   -5.4766461    1659.5065  0.028846936  0.026911465          228 
 4795000   0.48185761   -5.4973639    1655.7618  0.028775839  0.026904107          188 
 4796000    0.4759211   -5.5023125    1654.4172  0.028746477  0.026896749          138 
 4797000   0.47780179    -5.496139    1654.4703  0.028741405  0.026889392          205 
 4798000   0.48324178   -5.5169239    1650.9541  0.028674345  0.026882024          115 
 4799000   0.48020955   -5.5088886     1653.577  0.028713916  0.026874663           78 
 4800000   0.48229234   -5.4833271    1653.5115  0.028706797  0.026867318          111 
 4801000   0.48906942    -5.513991    1653.5077  0.028700752  0.026859968          117 
 4802000    0.4774524   -5.5203232    1655.1341     0.028723  0.026852619           83 
 4803000   0.49327929   -5.5026259    1655.6261  0.028725555   0.02684528           66 
 4804000   0.48604324   -5.5127064    1651.5436  0.028648758  0.026837954           88 
 4805000   0.47956175   -5.5007361    1657.4956  0.028746022  0.026830612          104 
 4806000   0.47807272   -5.5022003    1651.0792  0.028628783  0.026823266          188 
 4807000   0.49807555   -5.5164589    1655.6402  0.028701896  0.026815928          186 
 4808000   0.47539122    -5.501093     1654.887  0.028682873  0.026808577           58 
 4809000    0.4838116   -5.5176053    1653.7881  0.028657866  0.026801222          122 
 4810000   0.47550777   -5.5167574     1651.418  0.028610846  0.026793848          125 
 4811000   0.47814098   -5.5013057    1651.3982  0.028604555  0.026786479          186 
 4812000   0.49256652    -5.514274    1654.6008  0.028654074   0.02677911          116 
 4813000    0.4926464   -5.5047827    1648.9438  0.028550173  0.026771763          181 
 4814000   0.48082405   -5.5049524    1655.7459  0.028661991  0.026764419          114 
 4815000   0.48365113   -5.5211843     1652.576  0.028601178  0.026757069          133 
 4816000   0.49957782   -5.5022436    1652.2173  0.028589031  0.026749723          165 
 4817000   0.48066227   -5.5113295    1651.2131  0.028565724  0.026742386          102 
 4818000   0.48174048   -5.5010396    1654.6094  0.028618538   0.02673506          154 
 4819000   0.47756453   -5.5191154     1653.263  0.028589317  0.026727724           63 
 4820000   0.48438515   -5.5088463    1653.8432  0.028593416  0.026720381           71 
 4821000   0.48277738   -5.5166233    1650.4979   0.02852966  0.026713054          199 
 4822000   0.47420469   -5.5191827    1653.4854  0.028575373  0.026705721           68 
 4823000   0.48615452   -5.5105953    1655.1943  0.028598976  0.026698395           75 
 4824000   0.48111322   -5.5067147    1651.9128  0.028536359  0.026691087           54 
 4825000   0.47147517   -5.5135392    1654.6446  0.028577627  0.026683803           96 
 4826000   0.48733846   -5.5089541    1657.7314  0.028625007  0.026676522          122 
 4827000   0.47961464   -5.4957545    1651.3354  0.028508655  0.026669226          114 
 4828000    0.4777204   -5.5125037    1657.6925  0.028612477  0.026661927           38 
 4829000   0.48822254   -5.5176034    1650.0904  0.028475364  0.026654626           36 
 4830000   0.47633376   -5.5235922    1651.7026  0.028497284  0.026647313           68 
 4831000    0.4806797   -5.4937823    1652.9651  0.028513163   0.02664003           60 
 4832000   0.47723732    -5.496035    1652.2137  0.028494303  0.026632746           65 
 4833000   0.48279979   -5.5049909    1653.2777  0.028506754  0.026625459           85 
 4834000   0.46341933   -5.5038059    1653.8567  0.028510839  0.026618147           46 
 4835000   0.48345492   -5.5192512     1652.769  0.028486194  0.026610841           91 
 4836000   0.48023721   -5.5114327    1651.3043  0.028455065  0.026603547           32 
 4837000   0.46407281    -5.523672    1655.4072  0.028519867  0.026596253           31 
 4838000   0.47063131   -5.5229377    1651.7003  0.028450123  0.026588946           48 
 4839000   0.46938793   -5.5346481    1652.7447  0.028462228  0.026581637           54 
 4840000   0.48348411   -5.5088852    1653.9683  0.028477415  0.026574335           47 
 4841000   0.47686293   -5.5242689    1651.6564  0.028431736  0.026567036           61 
 4842000   0.47751768   -5.4999684    1652.1913   0.02843507  0.026559732           31 
 4843000   0.48154616   -5.5279807    1651.5125  0.028417518  0.026552447           20 
 4844000   0.47113903   -5.5206514    1653.1089  0.028439115  0.026545149           31 
 4845000   0.48284973   -5.5102441    1656.2119  0.028486616  0.026537872           35 
 4846000   0.47933143   -5.5125736    1657.4609  0.028502216  0.026530606           59 
 4847000   0.46856587    -5.506311    1656.7628  0.028484334   0.02652334           42 
 4848000   0.47205597   -5.5088427    1653.2624  0.028418289  0.026516083           60 
 4849000   0.48414575   -5.4974485    1655.2869  0.028447221  0.026508839           34 
 4850000     0.471069   -5.5143287    1653.7105  0.028414269  0.026501581           76 
 4851000   0.48459472   -5.5298916    1653.2534   0.02840056  0.026494307           43 
 4852000   0.48888873   -5.5269867    1651.2665  0.028360582  0.026487032          103 
 4853000    0.4794376   -5.5079402    1652.8434  0.028381815  0.026479756           71 
 4854000   0.47884546   -5.5276984    1654.8981  0.028411243   0.02647248           68 
 4855000   0.47292688   -5.5234473    1653.9742  0.028389533  0.026465217           99 
 4856000   0.47750481   -5.5234112    1656.0664  0.028419592   0.02645796           83 
 4857000   0.47743113   -5.5183431    1650.5141  0.028318476  0.026450684          128 
 4858000   0.47934714   -5.5191475    1651.6085  0.028331421  0.026443421           78 
 4859000   0.47205718   -5.5253022    1652.4746  0.028340444  0.026436155          132 
 4860000   0.47044354   -5.5290826    1652.2019  0.028329937  0.026428903          151 
 4861000   0.47078753   -5.5220849    1654.1149  0.028356903  0.026421656          102 
 4862000    0.4759955   -5.5164718    1654.7234    0.0283615  0.026414398          119 
 4863000   0.46865459   -5.5193037    1650.5889  0.028284819  0.026407157          119 
 4864000   0.46632456   -5.5286158    1649.9847  0.028268653    0.0263999          193 
 4865000   0.48914071   -5.5093652    1652.3863   0.02830398  0.026392652          104 
 4866000   0.47826492   -5.5186575     1652.146  0.028294047  0.026385405          130 
 4867000   0.48115969   -5.5255172    1649.5473  0.028243738  0.026378158          122 
 4868000   0.47540769   -5.5374692    1655.0166  0.028331564  0.026370906          131 
 4869000   0.47793285   -5.5232721    1649.0879  0.028224275  0.026363666          246 
 4870000   0.46529321   -5.5069851    1653.5632  0.028295059  0.026356429          152 
 4871000   0.48195571   -5.5278524    1653.8796  0.028294661  0.026349191          154 
 4872000    0.4741494   -5.5380713    1653.0415   0.02827452  0.026341957          168 
 4873000   0.46274403   -5.5174213    1649.6161  0.028210139  0.026334717          170 
 4874000   0.46826204      -5.5141    1653.2943  0.028267239  0.026327483          295 
 4875000   0.47510892   -5.5253963     1651.506  0.028230872  0.026320255          349 
 4876000   0.47284885   -5.5194497    1654.2172  0.028271418  0.026313022          281 
 4877000   0.48597782   -5.5273966    1654.8785   0.02827692  0.026305801          222 
 4878000   0.47442407   -5.5450745    1649.0859  0.028172167  0.026298571          230 
 4879000   0.47537022   -5.5372645    1651.6726  0.028210572  0.026291317          213 
 4880000   0.46131979   -5.5419797    1648.0981  0.028143752  0.026284065          221 
 4881000   0.47266817   -5.5415986    1651.3383  0.028193306  0.026276815          342 
 4882000   0.47374322   -5.5451502    1650.6475   0.02817574  0.026269572          361 
 4883000   0.47760827   -5.5464542    1651.6816  0.028187616  0.026262341          194 
 4884000     0.472486   -5.5233979    1650.4887  0.028161491  0.026255097          192 
 4885000   0.47860096   -5.5489683    1651.0271  0.028164911  0.026247857          239 
 4886000   0.47587513   -5.5371651     1650.763  0.028154643  0.026240616          298 
 4887000   0.46606685   -5.5488696    1649.4445  0.028126397  0.026233387          191 
 4888000   0.48168226   -5.5319274    1649.4355   0.02812049  0.026226158          253 
 4889000   0.46929075   -5.5401482    1651.0221  0.028141783  0.026218934          294 
 4890000   0.45899409   -5.5486923    1653.3117  0.028175047  0.026211719          342 
 4891000   0.46233565   -5.5307131    1650.3407  0.028118666  0.026204496          332 
 4892000     0.469439   -5.5413387    1652.0754  0.028142467  0.026197273          264 
 4893000   0.47603422   -5.5472014    1651.2597  0.028122824   0.02619005          368 
 4894000   0.48408335   -5.5277936    1648.9239  0.028077303  0.026182835          396 
 4895000   0.46028846   -5.5429922    1652.0408   0.02812463  0.026175625          267 
 4896000   0.47178212   -5.5337165    1652.5341  0.028127282  0.026168411          229 
 4897000   0.46175888   -5.5339154    1652.0123  0.028112659  0.026161203          351 
 4898000   0.46442265   -5.5519891    1649.1773  0.028058685  0.026153988          292 
 4899000   0.47534816   -5.5360595     1651.107  0.028085782  0.026146776          321 
 4900000    0.4728454   -5.5442981     1653.697  0.028124098  0.026139577          203 
 4901000   0.46391799   -5.5447534    1652.6099  0.028099875  0.026132382          370 
 4902000   0.46610648   -5.5393421    1651.0179   0.02806708   0.02612519          230 
 4903000   0.46441949   -5.5540114    1650.2361  0.028048068  0.026117989          293 
 4904000   0.46174289   -5.5350107    1651.1032  0.028057083  0.026110781          239 
 4905000   0.46794694   -5.5430646    1651.4386  0.028057062   0.02610358          264 
 4906000    0.4763826    -5.539548    1651.4276  0.028051155  0.026096401          325 
 4907000   0.47691966   -5.5476058    1648.3358  0.027992932  0.026089211          268 
 4908000   0.46848311   -5.5507411    1649.4732   0.02800654  0.026082017          374 
 4909000   0.46387881   -5.5301845    1652.0478  0.028044541  0.026074817          381 
 4910000    0.4603324   -5.5495793    1648.5308  0.027979137  0.026067615          339 
 4911000    0.4669459   -5.5633968    1648.6102  0.027974788  0.026060405          378 
 4912000   0.46661139    -5.558941    1649.3668  0.027981929  0.026053198          512 
 4913000   0.47264207   -5.5241103    1652.2721  0.028025512  0.026046004          433 
 4914000   0.47448745   -5.5300402    1651.9689  0.028014668  0.026038804          469 
 4915000   0.46858617   -5.5449019    1647.1308  0.027926937  0.026031622          547 
 4916000   0.46851732   -5.5359921    1650.3176  0.027975277  0.026024432          448 
 4917000   0.46408099   -5.5563472    1647.1989  0.027916732  0.026017246          437 
 4918000    0.4686782   -5.5341702    1650.5543  0.027967912  0.026010059          462 
 4919000   0.47431456   -5.5450667    1650.0171  0.027953125   0.02600288          459 
 4920000   0.46825258   -5.5464491    1649.0808  0.027931585  0.025995685          586 
 4921000   0.46374067   -5.5417616    1647.7737  0.027903775  0.025988498          495 
 4922000   0.47115189   -5.5451506    1647.5398  0.027894145  0.025981307          481 
 4923000   0.46142098   -5.5587364    1649.1814  0.027916268  0.025974128          441 
 4924000   0.46314207   -5.5637811    1650.2308  0.027928358  0.025966949          524 
 4925000   0.46804281   -5.5312266     1652.481  0.027960761  0.025959775          511 
 4926000   0.46493702   -5.5502997    1647.9229  0.027877976  0.025952606          588 
 4927000   0.46385736   -5.5362033    1649.8449  0.027904826  0.025945435          506 
 4928000   0.45950543   -5.5482053     1648.517  0.027876707  0.025938269          463 
 4929000   0.45974597   -5.5633278    1648.8361  0.027876447  0.025931088          635 
 4930000   0.45790191   -5.5588182    1646.7198  0.027835021  0.025923909          580 
 4931000   0.45956055   -5.5494651    1648.6728   0.02786238  0.025916721          625 
 4932000   0.45724717   -5.5678239    1648.4779  0.027853438  0.025909538          646 
 4933000   0.45849289   -5.5634179    1650.4337  0.027880832  0.025902363          602 
 4934000   0.46305835   -5.5443385    1649.0322   0.02785151  0.025895203          536 
 4935000   0.47320656   -5.5582447    1648.5903  0.027838405  0.025888033          560 
 4936000   0.46689388   -5.5668009    1648.3553  0.027828797  0.025880869          531 
 4937000   0.45803021   -5.5399813    1645.4155  0.027773538  0.025873701          548 
 4938000   0.46096432    -5.571983    1647.5574  0.027804061  0.025866536          563 
 4939000   0.46170777   -5.5667834    1644.9293  0.027754088  0.025859362          540 
 4940000   0.46958786   -5.5676904    1645.8351   0.02776375  0.025852187          612 
 4941000   0.46714775   -5.5522556    1647.7412  0.027790278  0.025845024          610 
 4942000   0.46657918    -5.550097     1647.133    0.0277744  0.025837849          553 
 4943000    0.4666341   -5.5712343    1646.3927    0.0277563  0.025830679          553 
 4944000    0.4530444   -5.5718931    1646.7577  0.027756839  0.025823498          591 
 4945000   0.46746832   -5.5692372    1649.0742  0.027790263  0.025816333          539 
 4946000   0.46232205    -5.562848    1647.3523  0.027755633  0.025809163          452 
 4947000   0.47026705   -5.5703696    1645.6046  0.027720582  0.025802019          531 
 4948000   0.46030175   -5.5696173    1646.5221  0.027730432  0.025794855          628 
 4949000   0.46029313   -5.5536027     1645.721  0.027711339  0.025787705          542 
 4950000   0.45590096   -5.5504163    1645.9943  0.027710341  0.025780542          469 
 4951000   0.45406998   -5.5573531    1647.2495  0.027725872  0.025773398          522 
 4952000   0.46532515   -5.5736413    1649.4601  0.027757474  0.025766252          559 
 4953000   0.45698755   -5.5628751    1643.6087   0.02765342  0.025759099          616 
 4954000   0.46377714   -5.5730743    1647.8093  0.027718499  0.025751957          650 
 4955000   0.45413406   -5.5763441    1645.2328  0.027669573  0.025744808          672 
 4956000   0.46983742   -5.5666432    1648.4454  0.027718009  0.025737662          563 
 4957000   0.44801084   -5.5517409    1645.2907  0.027659383  0.025730509          574 
 4958000   0.45290412   -5.5736579    1644.7079  0.027644008  0.025723369          634 
 4959000   0.46419954   -5.5703559    1648.9591  0.027709873  0.025716233          620 
 4960000   0.45716367   -5.5714539    1649.1831   0.02770805  0.025709099          621 
 4961000   0.46255239   -5.5713975    1646.1938  0.027652251  0.025701969          621 
 4962000   0.45597433   -5.5550462    1648.2764  0.027681655  0.025694839          572 
 4963000   0.46230961   -5.5670529    1649.4297   0.02769544  0.025687721          538 
 4964000   0.45542642   -5.5579144    1648.3744  0.027672146  0.025680597          608 
 4965000   0.45711496   -5.5608786    1650.1596  0.027696535  0.025673475          675 
 4966000    0.4498063   -5.5665796    1646.4098  0.027628033  0.025666345          799 
 4967000   0.46377351   -5.5585196    1648.7446  0.027661644  0.025659225          743 
 4968000     0.463775   -5.5535789     1649.463  0.027668126  0.025652099          692 
 4969000   0.46139457    -5.571627     1645.981  0.027604163  0.025644983          800 
 4970000   0.46054407    -5.575764    1646.9864  0.027615466  0.025637855          712 
 4971000   0.44891687   -5.5670933    1644.0946  0.027561434  0.025630719          815 
 4972000   0.45105199   -5.5797197    1647.3859  0.027611054  0.025623586          756 
 4973000   0.44827369   -5.5686367     1646.721  0.027594359  0.025616452          755 
 4974000     0.448748   -5.5497754     1649.546  0.027636142  0.025609321          741 
 4975000   0.45452853   -5.5784074    1645.5437  0.027563546  0.025602195          761 
 4976000   0.45173297   -5.5855785    1644.0346  0.027532733  0.025595065          785 
 4977000   0.44945045   -5.5636432    1646.0877  0.027561578  0.025587945          843 
 4978000    0.4468764   -5.5552662     1644.358  0.027527086  0.025580823          916 
 4979000   0.45627628   -5.5542306    1649.6265  0.027609735    0.0255737          876 
 4980000   0.45181996   -5.5817995    1647.0392  0.027560896  0.025566565          868 
 4981000   0.45446726   -5.5886887    1643.0186  0.027488097  0.025559431          918 
 4982000   0.46080396   -5.5752824    1647.2412  0.027553212  0.025552301          837 
 4983000   0.45239765   -5.5832463    1644.7045   0.02750526   0.02554517          854 
 4984000   0.46353183   -5.5799228    1643.3346  0.027476837  0.025538033          817 
 4985000   0.43835359   -5.5836806    1644.0263  0.027482887  0.025530878          876 
 4986000    0.4601256   -5.5919257    1644.9762  0.027493251  0.025523733          898 
 4987000   0.45019952   -5.5724703    1644.4016  0.027478137  0.025516588          880 
 4988000   0.44869886   -5.5788226    1642.1766  0.027435454  0.025509451          881 
 4989000   0.45652124   -5.5776438    1647.1246  0.027512604  0.025502315          965 
 4990000   0.44605007   -5.5884937    1643.8728  0.027452786  0.025495186          974 
 4991000   0.45767917   -5.5771468    1646.7236  0.027494884  0.025488059          903 
 4992000   0.44851945   -5.5882924    1640.2074  0.027380599  0.025480918          939 
 4993000   0.45990607   -5.5946877    1644.2362  0.027442356  0.025473784          885 
 4994000    0.4600362   -5.5775748    1644.0605   0.02743393  0.025466643          865 
 4995000   0.44337232   -5.5852811    1642.8112  0.027407594  0.025459522          881 
 4996000   0.44699992    -5.598761    1642.9433  0.027404312  0.025452381          887 
 4997000     0.445389   -5.5842875    1645.4978  0.027441428   0.02544524          934 
 4998000   0.45083406   -5.5898459    1644.7083  0.027422774  0.025438115          931 
 4999000   0.44061762    -5.588018    1645.6082  0.027432289  0.025430985          928 
 5000000   0.46681882   -5.5859562    1645.9401  0.027432334  0.025423872          949 
 5001000   0.45154317   -5.6077298    1644.1459  0.027396953  0.025416766          980 
 5002000   0.46026297   -5.5795773    1644.3873  0.027395497  0.025409653         1021 
 5003000   0.45722434   -5.5879276    1645.6987  0.027411864  0.025402538         1080 
 5004000   0.45221677   -5.5992384    1639.9111  0.027310003  0.025395423         1073 
 5005000   0.44749913   -5.5877726     1643.101  0.027357659  0.025388298         1087 
 5006000   0.45384365    -5.597531    1643.9176  0.027365788  0.025381176         1086 
 5007000   0.44752895   -5.5932188    1642.5793  0.027338049  0.025374041         1130 
 5008000   0.45234846   -5.6075413    1641.8088  0.027319769  0.025366912         1200 
 5009000   0.44859397   -5.6209433    1641.1548  0.027303435  0.025359779         1244 
 5010000   0.44487379   -5.6088759    1642.7878  0.027325146  0.025352656         1234 
 5011000   0.44960238   -5.6130546     1642.345   0.02731233   0.02534553         1158 
 5012000   0.44794263   -5.6053853    1643.1083  0.027319572  0.025338402         1205 
Loop time of 12621.1 on 48 procs for 5000000 steps with 4000 atoms

Performance: 68457.015 tau/day, 396.163 timesteps/s
99.4% CPU use with 48 MPI tasks x no OpenMP threads

MPI task timing breakdown:
Section |  min time  |  avg time  |  max time  |%varavg| %total
---------------------------------------------------------------
Pair    | 907.94     | 959.42     | 1021.5     |  92.9 |  7.60
Neigh   | 85.855     | 88.44      | 91.599     |  16.3 |  0.70
Comm    | 820.37     | 871.93     | 933.55     | 101.1 |  6.91
Output  | 14.282     | 14.287     | 14.388     |   0.4 |  0.11
Modify  | 10545      | 10573      | 10607      |  16.6 | 83.78
Other   |            | 113.5      |            |       |  0.90

Nlocal:        83.3333 ave          92 max          77 min
Histogram: 3 2 8 9 9 6 7 2 1 1
Nghost:        2323.31 ave        2337 max        2303 min
Histogram: 2 2 2 3 3 7 10 13 3 3
Neighs:        15840.7 ave       17662 max       14386 min
Histogram: 2 4 9 9 4 8 6 2 2 2
FullNghs:      31680.9 ave       35375 max       29005 min
Histogram: 3 2 8 11 8 9 4 1 1 1

Total # of neighbors = 1520685
Ave neighs/atom = 380.17125
Neighbor list builds = 269444
Dangerous builds = 0

#clear
#
#next RN
#
#jump SELF
Total wall time: 3:30:24
