
units lj                  # Use reduced LJ style units
atom_style atomic         # Uncharged point particles
atom_modify map hash      # Needed for indexing of clusters etc
                          # Used to be able to find where atoms are in relation to each other.

lattice fcc 1.0 spacing 1 1 1
Lattice spacing in x,y,z = 1.5874011 1.5874011 1.5874011
region box block 0 10 0 10 0 10 units lattice
create_box 2 box
Created orthogonal box = (0.0000000 0.0000000 0.0000000) to (15.874011 15.874011 15.874011)
  3 by 4 by 4 MPI processor grid
create_atoms 1 box
Created 4000 atoms
  using lattice units in orthogonal box = (0.0000000 0.0000000 0.0000000) to (15.874011 15.874011 15.874011)
  create_atoms CPU = 0.003 seconds
set type 1 type/fraction 2 0.15 78393
Setting atom values ...
  634 settings made for type/fraction
mass 1 1.0
mass 2 1.0
pair_style lj/cut  3.5
pair_modify tail  yes
pair_coeff 1  1  1.0  1.0   # Intearaction between 1 and 1 set with epsilon = 1 and sigma = 1
pair_coeff 1  2  1.5  0.8
pair_coeff 2  2  0.5  0.88

write_data data.0
System init for write_data ...
Neighbor list info ...
  update every 1 steps, delay 10 steps, check yes
  max neighbors/atom: 2000, page size: 100000
  master list distance cutoff = 3.8
  ghost atom cutoff = 3.8
  binsize = 1.9, bins = 9 9 9
  1 neighbor lists, perpetual/occasional/extra = 1 0 0
  (1) pair lj/cut, perpetual
      attributes: half, newton on
      pair build: half/bin/atomonly/newton
      stencil: half/bin/3d
      bin: standard
WARNING: Not all mixed pair coeffs generated from mixing. Use write_data with 'pair ij' option to store all pair coeffs. (../write_data.cpp:312)


#############################
#   M E L T   S Y S T E M   #
#############################

velocity all create 2.4 5833274 mom yes dist gaussian # Assign velocities
                                                    # Temperature 2.4, random number seed, zero linear momentum
                                                                                # Gaussian distribution

timestep 0.002   # simulation timestep
thermo 1000       # output thermodynamic data every 1000 steps bf 100

# Define a fix  in this case with index 1 applied to all
# particles in the simulation. This fix is for simulations
# in the anisotropic NPT ensemble. Note that we use the MTK
# correction.
fix 1 all npt temp 2.4 2.4 0.1 iso 5.68 5.68 0.5 mtk yes tchain 5 pchain 5 # Use NPT ensemble
                                                                         # Set temperature and pressure and damping
                                                                         # Numbers of thermostats in chain and in barostat
run 10000          # run for 10000 steps
Per MPI rank memory allocation (min/avg/max) = 3.642 | 3.644 | 3.648 Mbytes
Step Temp E_pair E_mol TotEng Press Volume 
       0          2.4   -7.3553801            0   -3.7562801   -3.3553213         4000 
    1000    2.4521829   -4.7216465            0   -1.0442917    5.5582335    4665.8066 
    2000    2.3950632   -4.7537252            0   -1.1620285    5.3344289    4670.5065 
    3000    2.4482281   -4.7223914            0   -1.0509674    5.4389194    4681.5293 
    4000    2.3894867   -4.7400041            0   -1.1566701    5.3332453    4684.3319 
    5000    2.4793659   -4.6538473            0  -0.93572812    5.7508986    4691.2206 
    6000    2.4529258    -4.760427            0   -1.0819582    5.5733441    4646.5468 
    7000    2.4452957   -4.7154542            0   -1.0484276     5.812207    4644.7918 
    8000    2.3830202   -4.7570931            0   -1.1834565    5.7352001    4616.5215 
    9000    2.4075513   -4.6906122            0   -1.0801881    5.8788008    4645.2828 
   10000    2.4005936    -4.765636            0   -1.1656459    5.4112359    4661.3355 
Loop time of 2.25696 on 48 procs for 10000 steps with 4000 atoms

Performance: 765632.826 tau/day, 4430.746 timesteps/s
99.6% CPU use with 48 MPI tasks x no OpenMP threads

MPI task timing breakdown:
Section |  min time  |  avg time  |  max time  |%varavg| %total
---------------------------------------------------------------
Pair    | 0.92973    | 1.0031     | 1.1448     |   4.0 | 44.45
Neigh   | 0.194      | 0.20222    | 0.22795    |   1.5 |  8.96
Comm    | 0.64909    | 0.7996     | 0.88948    |   5.7 | 35.43
Output  | 0.00023779 | 0.00024345 | 0.00030541 |   0.0 |  0.01
Modify  | 0.20435    | 0.2373     | 0.27257    |   4.1 | 10.51
Other   |            | 0.01447    |            |       |  0.64

Nlocal:        83.3333 ave          92 max          75 min
Histogram: 1 2 6 6 11 9 4 6 1 2
Nghost:        1485.56 ave        1514 max        1462 min
Histogram: 4 5 3 7 9 5 9 1 3 2
Neighs:        8165.56 ave        9433 max        6975 min
Histogram: 1 2 5 6 12 9 8 1 3 1

Total # of neighbors = 391947
Ave neighs/atom = 97.986750
Neighbor list builds = 907
Dangerous builds = 218

# Equilibrate just above the melting temperature to avoid step fn in T

fix 1 all npt temp 1.25 1.25 0.1 iso 5.68 5.68 0.5 mtk yes tchain 5 pchain 5
run 2000
Per MPI rank memory allocation (min/avg/max) = 3.642 | 3.644 | 3.648 Mbytes
Step Temp E_pair E_mol TotEng Press Volume 
   10000    2.4005936    -4.765636            0   -1.1656459    5.4112359    4661.3355 
   11000    1.2354185   -6.3987965            0    -4.546132     5.695941    3803.4927 
   12000    1.2123566   -6.3953872            0    -4.577307    5.6212301    3804.6817 
Loop time of 0.489873 on 48 procs for 2000 steps with 4000 atoms

Performance: 705489.380 tau/day, 4082.693 timesteps/s
99.7% CPU use with 48 MPI tasks x no OpenMP threads

MPI task timing breakdown:
Section |  min time  |  avg time  |  max time  |%varavg| %total
---------------------------------------------------------------
Pair    | 0.21188    | 0.23503    | 0.27826    |   2.6 | 47.98
Neigh   | 0.030892   | 0.033485   | 0.039121   |   0.8 |  6.84
Comm    | 0.12331    | 0.1681     | 0.19953    |   3.9 | 34.31
Output  | 4.9565e-05 | 5.0867e-05 | 6.2256e-05 |   0.0 |  0.01
Modify  | 0.038669   | 0.048755   | 0.064941   |   3.0 |  9.95
Other   |            | 0.004454   |            |       |  0.91

Nlocal:        83.3333 ave          91 max          75 min
Histogram: 1 3 1 12 5 9 4 4 8 1
Nghost:        1696.04 ave        1720 max        1668 min
Histogram: 3 3 1 4 8 12 5 5 4 3
Neighs:        10022.2 ave       11313 max        8914 min
Histogram: 2 3 7 8 9 4 7 5 2 1

Total # of neighbors = 481067
Ave neighs/atom = 120.26675
Neighbor list builds = 141
Dangerous builds = 8

#############################
# L I N E A R  Q U E N C H  #
#############################

# Define solid atoms. This closely follows ten Wolde  Ruiz-Montero and Frenkel  Faraday Discuss  1996  104  93-110
# Compute components of the per-atom q6 vector
compute q6 all orientorder/atom degrees 1 6 components 6 nnn NULL cutoff 1.3 # compute the Q6 parameter.
                                                                             # Use all neighbours within 1.3 unit cell.

# get number of connections
compute coord_number all coord/atom orientorder q6 0.5

# An atom is solid if it has 8 or more connections (of a possible 14)
variable is_solid atom c_coord_number>=8
group solid dynamic all var is_solid    # Must be dynamic to update
dynamic group solid defined

# do clustering
compute cluster solid cluster/atom 1.3 # Create a cluster where all atoms within are solid and max 1.3 units from another member

# define chunks one chunk per cluster
compute clus_chunks solid chunk/atom c_cluster nchunk every compress yes  # Says which atoms are in which chunk

# count the size of each chunk
compute size_chunks solid property/chunk clus_chunks count


# Find the maximum entry in the vector of chunk sizes
variable max_n equal max(c_size_chunks)


# Thermo style which includes this variable
# thermo_style custom step temp pe vol v_max_n

thermo ${N}  # Print the thermo information every 100 steps
thermo 1000  

# Reset the npt fix at a lower temperature (below freezing)
fix 1  all npt temp  ${temp} ${temp}  0.1  iso  5.68  5.68  0.5  mtk yes tchain  5  pchain  5
fix 1  all npt temp  0.45 ${temp}  0.1  iso  5.68  5.68  0.5  mtk yes tchain  5  pchain  5
fix 1  all npt temp  0.45 0.45  0.1  iso  5.68  5.68  0.5  mtk yes tchain  5  pchain  5

dump dmp2 all dcd ${N} traj.dcd
dump dmp2 all dcd 1000 traj.dcd


compute msd all msd com yes
variable twopoint equal c_msd[4]/6/(step*dt+1.0e-6)
fix 9 all vector 10 c_msd[4]
variable fit equal slope(f_9)/6/(10*dt)
thermo_style custom step temp pe c_msd[4] v_twopoint v_fit v_max_n

fix 1 all npt temp 1.25 ${temp} 0.1 iso 5.68 5.68 0.5 mtk yes tchain 5 pchain 5
fix 1 all npt temp 1.25 0.45 0.1 iso 5.68 5.68 0.5 mtk yes tchain 5 pchain 5
run 5000000 # 5000000  # Run for this many steps
Neighbor list info ...
  update every 1 steps, delay 10 steps, check yes
  max neighbors/atom: 2000, page size: 100000
  master list distance cutoff = 3.8
  ghost atom cutoff = 3.8
  binsize = 1.9, bins = 9 9 9
  4 neighbor lists, perpetual/occasional/extra = 1 3 0
  (1) pair lj/cut, perpetual
      attributes: half, newton on
      pair build: half/bin/atomonly/newton
      stencil: half/bin/3d
      bin: standard
  (2) compute orientorder/atom, occasional
      attributes: full, newton on
      pair build: full/bin/atomonly
      stencil: full/bin/3d
      bin: standard
  (3) compute coord/atom, occasional
      attributes: full, newton on
      pair build: full/bin/atomonly
      stencil: full/bin/3d
      bin: standard
  (4) compute cluster/atom, occasional
      attributes: full, newton on
      pair build: full/bin/atomonly
      stencil: full/bin/3d
      bin: standard
Per MPI rank memory allocation (min/avg/max) = 9.762 | 9.767 | 9.772 Mbytes
Step Temp PotEng c_msd[4] v_twopoint v_fit v_max_n 
   12000    1.2123566   -6.3953872 3.9443045e-34 2.7391003e-36 8.3333333e+20            2 
   13000    1.2450723   -6.4248402   0.56751191 0.0036378967   0.04578424            2 
   14000    1.2747243   -6.3912356    1.1136437 0.0066288313  0.046113918            2 
   15000    1.2520594   -6.4125143    1.5972847 0.0088738037   0.04446732            1 
   16000    1.2320054   -6.3835632    2.1197569    0.0110404  0.043756945            1 
   17000    1.2340137   -6.3899962    2.6527195  0.013003527  0.043615358            1 
   18000    1.2610768   -6.4035724    3.1912974  0.014774524  0.043864571            2 
   19000    1.2639229   -6.3616582    3.7537461  0.016463798  0.044069631            3 
   20000    1.2570431   -6.3817547     4.323234  0.018013475  0.044361274            2 
   21000    1.2248199   -6.4000092    4.9064993  0.019470235  0.044768553            1 
   22000    1.2385627   -6.3184514    5.5274774  0.020937414  0.045305573            1 
   23000    1.2848295   -6.3851304    6.0099304   0.02177511  0.045535676            2 
   24000    1.2423119   -6.3956991    6.5546016  0.022759033  0.045585662            1 
   25000    1.2363082   -6.3718839    6.9946809  0.023315602  0.045449505            1 
   26000    1.2684886   -6.3980232    7.4607126   0.02391254  0.045187695            3 
   27000    1.2529855    -6.373228    8.1448855  0.025138535  0.045055589            3 
   28000    1.2566209   -6.4276633    8.7288406  0.025978692   0.04513758            2 
   29000    1.2503052   -6.3963249    9.2876857  0.026688752   0.04530994            3 
   30000    1.2337103   -6.4039679    9.8850415  0.027458448  0.045387444            2 
   31000    1.2711042   -6.3990726    10.489814  0.028198425  0.045555939            3 
   32000    1.2240351    -6.426165    11.025686  0.028712722   0.04573714            4 
   33000    1.2509428   -6.4340259    11.513913  0.029075537  0.045856139            3 
   34000    1.2283932   -6.4031342    11.966294   0.02932915  0.045829813            6 
   35000     1.262049   -6.3975184    12.549153  0.029878935   0.04580826            2 
   36000    1.2483473   -6.3915583    13.136661  0.030408938   0.04580483            3 
   37000    1.2268795   -6.4352288    13.624187  0.030685105  0.045791464            3 
   38000    1.2719193   -6.3982113    14.132915  0.030993233  0.045729674            2 
   39000    1.2404396   -6.4200528    14.685925  0.031380181  0.045675155            2 
   40000    1.2510068   -6.4051589    15.125892  0.031512275  0.045585861            3 
   41000    1.2303441   -6.3712624    15.693731  0.031897828  0.045501219            3 
   42000     1.256917    -6.448535    16.053119  0.031851425  0.045397173            3 
   43000    1.2330498   -6.4238245    16.643976  0.032255768  0.045276405            2 
   44000    1.2479748   -6.3696409    17.382154  0.032920746   0.04519706            3 
   45000    1.2590139   -6.3862388    17.848925  0.033053564  0.045187247            1 
   46000    1.2431396   -6.3954148    18.528117  0.033565429   0.04521197            1 
   47000    1.2198697   -6.4427121     19.17376  0.033996027  0.045273086            2 
   48000    1.2537721   -6.3707727    19.793943  0.034364483  0.045324412            3 
   49000    1.2546627   -6.4157476    20.188879  0.034334827  0.045376425            2 
   50000    1.2346471    -6.375234    20.706327  0.034510544  0.045374066            2 
   51000    1.2448013   -6.3983645    21.031078  0.034364507  0.045326017            1 
   52000    1.2371244    -6.394791    21.573492  0.034572904  0.045261759            1 
   53000    1.2684186   -6.4234821    21.895009  0.034426115  0.045192549            3 
   54000    1.2240486   -6.4099117    22.571672  0.034832827   0.04511433            1 
   55000    1.2312016   -6.4250518    22.992494  0.034837111  0.045053892            6 
   56000     1.234972   -6.4168767     23.64555   0.03518683  0.045001653            2 
   57000    1.2442443     -6.40288    24.340841  0.035586025  0.044981447            2 
   58000    1.2202988   -6.3826068       24.938  0.035830459  0.044978818            2 
   59000    1.2003679   -6.4594293    25.337571   0.03578753  0.044967182            7 
   60000     1.245491   -6.3833042    25.890963   0.03595967   0.04495585            2 
   61000    1.2505594   -6.4351129    26.201496  0.035794394  0.044924991            1 
   62000    1.2419554   -6.3927431    26.661457  0.035835291  0.044869304            2 
   63000    1.2634038   -6.3966649    27.112246  0.035862758  0.044809832            4 
   64000    1.2534655   -6.4174288    27.808409  0.036208865  0.044746672            1 
   65000    1.2767083   -6.4439007    28.325738  0.036315049   0.04471473            4 
   66000    1.2557457   -6.4275781    28.930307  0.036528166  0.044685282            1 
   67000    1.2481875   -6.3749801    29.469668  0.036653816  0.044647821            2 
   68000    1.2408536   -6.4547743    29.859863  0.036592969  0.044617786            2 
   69000    1.2444854   -6.3504477    30.578619    0.0369307  0.044586571            2 
   70000    1.2292064   -6.3873918    30.950165  0.036845435    0.0445489            1 
   71000    1.2349875   -6.3562821    31.496097   0.03696725  0.044514711            1 
   72000    1.2525784   -6.4231464    31.941484   0.03696931   0.04448942            2 
   73000    1.2600276   -6.3790126    32.640794   0.03726118  0.044467277            3 
   74000     1.254543   -6.4341521    33.099295  0.037273981  0.044444006            2 
   75000    1.2546651   -6.4200089    33.742521  0.037491689  0.044426337            1 
   76000    1.2301733   -6.4160787    34.375757  0.037692716   0.04441987            2 
   77000    1.2520739   -6.3709316    34.836354  0.037701681  0.044414394            2 
   78000    1.2246127    -6.428629    35.138989  0.037541655  0.044402029            1 
   79000     1.251713   -6.3973966    35.874776   0.03784259  0.044392633            2 
   80000    1.2243793   -6.4118414    36.488481  0.038008834  0.044389386            1 
   81000    1.2430473   -6.3930389    36.846751   0.03790818  0.044381433            1 
   82000    1.2457005   -6.3928562    37.401973  0.038010135  0.044377077            2 
   83000    1.2653187   -6.3919357    37.955243  0.038107674  0.044373798            1 
   84000    1.2368867   -6.4157088    38.512091  0.038206439  0.044375949            2 
   85000    1.2370285   -6.4535776    38.948709  0.038185008   0.04437789            2 
   86000    1.2376818   -6.4318016    39.404465  0.038182621  0.044368674            1 
   87000    1.2388668   -6.4293642    39.813839  0.038135861  0.044348876            1 
   88000     1.258159   -6.4027552    40.401281  0.038258788  0.044322046            1 
   89000    1.2354493   -6.4011707    40.681485  0.038091278  0.044296445            2 
   90000    1.2187111   -6.4208666    41.085065  0.038041726  0.044255443            3 
   91000    1.2390761   -6.3980621    41.852024  0.038326029  0.044216777            1 
   92000    1.2472784   -6.4296379    42.251586  0.038271364  0.044186813            4 
   93000    1.2391092   -6.4275325    42.720936  0.038280409  0.044159477            2 
   94000    1.2325434   -6.4195684    43.151035  0.038254463  0.044123774            3 
   95000    1.2296344   -6.4343716    43.841756  0.038457681  0.044089337            2 
   96000    1.2509979   -6.3944359     44.02715  0.038218012  0.044047936            2 
   97000    1.2203746   -6.4113789    44.486667  0.038218786  0.043998196            4 
   98000    1.2291181   -6.4294499    44.757465  0.038059069  0.043943367            2 
   99000    1.2614252   -6.3973241    45.333207  0.038159265  0.043885675            5 
  100000    1.2257845   -6.3989508     45.96369  0.038303075  0.043835784            2 
  101000    1.2511612   -6.4123895    46.497625  0.038364377  0.043790933            1 
  102000    1.2150745   -6.4227196    46.872429  0.038294468  0.043745936            2 
  103000    1.2406175   -6.4372982    47.574244  0.038490488  0.043712546            3 
  104000    1.2386922   -6.4440496    48.009919  0.038469486  0.043676143            2 
  105000     1.235561   -6.3766838    48.642276  0.038604981  0.043637053            1 
  106000    1.2446289   -6.4313521    48.999561  0.038521667  0.043603969            2 
  107000    1.2353822   -6.4166752     49.38871  0.038464728  0.043568025            1 
  108000    1.2459587   -6.3901616    50.024203  0.038598922  0.043533338            1 
  109000     1.225002   -6.4309852    50.100843  0.038303396  0.043494484            1 
  110000    1.2212531   -6.3936057    50.827673  0.038505813  0.043455243            2 
  111000    1.2416265   -6.3992362    51.795487    0.0388855  0.043427396            3 
  112000    1.2297957   -6.4150857    52.227733   0.03885992  0.043408908            4 
  113000    1.2295642   -6.3794529    52.831465  0.038961257  0.043388841            2 
  114000    1.2432567   -6.4604288    53.321164  0.038977459  0.043368659            2 
  115000    1.2542777   -6.4401865    53.719102  0.038926885  0.043349179            1 
  116000    1.2529153   -6.4634633    53.895529  0.038718052   0.04332582            2 
  117000    1.2316464     -6.38286    54.897633  0.039100878   0.04330881            2 
  118000    1.2329433   -6.3990846     55.51959   0.03920875  0.043296844            2 
  119000    1.2502919   -6.4202517    55.700848  0.039006196  0.043283755            5 
  120000    1.2351135    -6.385707    56.424259  0.039183513  0.043265142            1 
  121000     1.227273   -6.4114646    56.679704  0.039035609  0.043248323            3 
  122000    1.2207577   -6.5001648    56.854439  0.038834999  0.043219273            4 
  123000    1.2325627   -6.4313596    57.517917  0.038968778  0.043195611            2 
  124000     1.224026   -6.4120122    58.234418  0.039136033  0.043174038            3 
  125000    1.2158234   -6.4493647    58.756796  0.039171197  0.043160543            2 
  126000    1.2255581   -6.3758835    59.311603  0.039227251  0.043150209            1 
  127000    1.2249517   -6.4276989    59.679935  0.039160062  0.043134886            3 
  128000    1.2392086   -6.4463757    59.975717  0.039046691  0.043114317            3 
  129000    1.2496031   -6.4005842    60.638763  0.039172328  0.043091882            1 
  130000     1.233028   -6.4447976    61.103781   0.03916909  0.043066508            2 
  131000    1.2244892   -6.4255732    61.762817  0.039289323  0.043047642            4 
  132000    1.2186577   -6.4260671    61.990421  0.039135367  0.043024606            4 
  133000    1.2247819   -6.4141018    62.452067  0.039130367   0.04300194            4 
  134000    1.2359541   -6.4386131    63.143974   0.03926864  0.042985147            1 
  135000    1.2235235   -6.4220066    63.849759  0.039413431  0.042969342            3 
  136000    1.1996684    -6.426797    64.185882  0.039329584  0.042953679            2 
  137000    1.2343429   -6.3994511    64.674901  0.039339964  0.042939009            3 
  138000    1.2313692   -6.4143443    65.204872  0.039374923  0.042923578            2 
  139000    1.2214494   -6.4538452    65.610442  0.039334797  0.042905179            2 
  140000    1.2432034   -6.4253444    66.129964  0.039363074  0.042887558            1 
  141000    1.2016756   -6.4513933    66.661054  0.039397786  0.042872114            2 
  142000    1.2086142   -6.4145069    67.066847  0.039358478  0.042856562            4 
  143000    1.2108814   -6.4342574    67.334943  0.039239477  0.042834985            2 
  144000    1.2351338   -6.4284327    67.769182  0.039218277  0.042813025            4 
  145000    1.2262962    -6.465889    68.211448  0.039201981  0.042792672            4 
  146000    1.2401078    -6.408364    69.242915  0.039522212  0.042777722            4 
  147000    1.2025124   -6.4291825    69.765929  0.039549846  0.042768341            2 
  148000    1.2344991   -6.4255394    70.106586  0.039474429   0.04275326            1 
  149000    1.2282982   -6.4354301     70.59396   0.03948208   0.04274082            2 
  150000    1.2200957   -6.4603422    71.067462  0.039481923  0.042732304            2 
  151000    1.2265148   -6.4462778    71.861089  0.039658437  0.042720233            5 
  152000    1.2064948   -6.4093935    72.153602  0.039557896  0.042706486            2 
  153000    1.2289727    -6.456679      72.7274  0.039611874   0.04269786            1 
  154000     1.221286   -6.3512505    73.821964   0.03994695  0.042693212            2 
  155000    1.2460183   -6.4090929     73.94739  0.039756661  0.042690383            1 
  156000    1.2408403   -6.4575708    74.328164  0.039705216  0.042685553            3 
  157000    1.2043406   -6.4283155    74.595122  0.039594014  0.042680001            2 
  158000    1.2111184   -6.4543063    75.424775  0.039780999  0.042675977            3 
  159000    1.2378347   -6.4403744    76.044412  0.039855562  0.042672837            3 
  160000    1.2136968   -6.4526216    76.456174  0.039820924   0.04267007            3 
  161000    1.2076229   -6.4538231    76.768981  0.039735498  0.042661739            2 
  162000    1.2376421   -6.4325528    77.299942  0.039763344  0.042653052            2 
  163000    1.2069469   -6.4479113    77.654389  0.039700608   0.04264214            3 
  164000    1.2212977   -6.4616677    77.996138  0.039632184  0.042630237            1 
  165000    1.2270321   -6.3786482    78.841522   0.03981895  0.042619619            3 
  166000    1.2216984    -6.406921    79.550769  0.039935125    0.0426126            3 
  167000    1.2213447   -6.4069729    80.038081  0.039939162  0.042609336            4 
  168000    1.2241363   -6.4412686    80.762367  0.040060698  0.042610391            3 
  169000    1.2456878   -6.3997927    81.499312  0.040187037  0.042613467            1 
  170000    1.2109312   -6.4736386     81.66344  0.040031098  0.042616644            2 
  171000    1.2122298   -6.4864059    82.174296  0.040045953   0.04261725            1 
  172000    1.2129322   -6.4668597    82.606697  0.040022625  0.042618312            3 
  173000    1.2286834   -6.4258934     83.56357  0.040252201  0.042617764            2 
  174000    1.2199489   -6.4495832    83.585707  0.040031469   0.04261667            2 
  175000    1.2223137   -6.3801434    84.176543  0.040084068  0.042618033            6 
  176000    1.2359484   -6.4424243    84.799192  0.040151132  0.042618064            2 
  177000    1.2209563   -6.4493669    84.996378  0.040017127  0.042616239            1 
  178000    1.2135601    -6.437133    86.215183  0.040362913  0.042613823            2 
  179000    1.2145309   -6.4572197    85.969009  0.040022816  0.042612278            2 
  180000    1.2148858   -6.4259577    86.805949  0.040187939  0.042609342            1 
  181000    1.2087587   -6.4425393    86.926404  0.040021364   0.04260789            1 
  182000    1.2025682   -6.4204966    87.958892  0.040274218  0.042606369            2 
  183000    1.2312293   -6.4242852    88.491171  0.040296526  0.042605273            2 
  184000    1.2343926   -6.4387513    89.015981  0.040315209  0.042606458            2 
  185000     1.243439   -6.4795415    89.069355  0.040121331  0.042606413            3 
  186000    1.2376855   -6.4239162    89.606097  0.040146101  0.042602522            2 
  187000    1.2172306   -6.4603066     90.09208  0.040147986   0.04259724            2 
  188000    1.2055343   -6.4673586    90.274749  0.040015403  0.042592771            1 
  189000    1.1850548   -6.4532724     91.12092  0.040176773  0.042585033            4 
  190000    1.2090908   -6.4495264    91.409064  0.040091694  0.042578148            1 
  191000    1.2392742    -6.438375    91.989208  0.040134907  0.042571238            2 
  192000    1.2219072   -6.4930098    92.485643  0.040141338  0.042563215            3 
  193000    1.2062859    -6.460769    93.182191  0.040234107  0.042557022            2 
  194000    1.2221528   -6.4135371    93.637067  0.040222108  0.042552771            2 
  195000    1.2187792   -6.4549746    93.825501  0.040096368  0.042545905            2 
  196000    1.1928782    -6.438494    94.654938  0.040244446  0.042541651            2 
  197000    1.2114858   -6.4381338    95.002212  0.040187061  0.042536481            2 
  198000    1.2227989   -6.4210267    95.271866  0.040097586  0.042529449            4 
  199000     1.233116   -6.4269804    96.112124  0.040247958  0.042522641            2 
  200000    1.2107812   -6.4370706    96.568402  0.040236834  0.042517695            3 
  201000    1.2084915   -6.4185438    97.199992  0.040298504  0.042516884            3 
  202000    1.2326874    -6.498738    97.536522  0.040237839  0.042512918            2 
  203000    1.2315961   -6.4588428    98.071512  0.040259241  0.042507124            3 
  204000    1.2177375    -6.453809    98.255211  0.040136933  0.042503066            2 
  205000    1.2168436   -6.4564254    99.140396  0.040300974  0.042497864            2 
  206000    1.2395743   -6.3875475     99.49061  0.040247011  0.042492461            3 
  207000    1.2273858   -6.4576814    100.08515  0.040291928  0.042487075            2 
  208000    1.2433943   -6.4543551    100.43764  0.040239439  0.042481336            3 
  209000    1.2337957   -6.4350578     101.0939  0.040308572  0.042475543            1 
  210000       1.2159   -6.4322366    101.84964  0.040416523  0.042473256            2 
  211000    1.2133133   -6.4873839    102.58395  0.040514988  0.042472022            1 
  212000     1.242985   -6.4707906    102.77233  0.040397928   0.04247162            1 
  213000     1.223775   -6.4780101    103.53263  0.040505724  0.042471222            2 
  214000    1.2505987   -6.4655525    103.90107  0.040459919  0.042471637            3 
  215000    1.2153765   -6.4146832    104.94357  0.040675802  0.042474744            3 
  216000    1.2075877   -6.4145712    105.24483  0.040603714   0.04247834            1 
  217000    1.2042969   -6.4212039    105.96754  0.040694141  0.042479913            2 
  218000    1.2164409   -6.4327308    106.57034  0.040737898  0.042482085            2 
  219000    1.2083581   -6.4806825    106.55364  0.040545523   0.04248485            1 
  220000    1.2071699   -6.4679602    107.20881  0.040609398  0.042489084            5 
  221000    1.2179914   -6.4216136    107.86968  0.040674842  0.042491059            2 
  222000    1.2151517   -6.4745546    108.45232   0.04071033  0.042496624            2 
  223000    1.2184394   -6.4601563    108.62499  0.040592299  0.042502681            1 
  224000    1.2208871   -6.4271695    109.21168  0.040629347  0.042505883            4 
  225000    1.2046093   -6.4199773    109.94107  0.040718916   0.04251006            5 
  226000    1.2042275   -6.4481024    110.37465  0.040698618  0.042513545            1 
  227000    1.2477832   -6.4377909     111.2399  0.040836968  0.042516776            2 
  228000    1.2540086   -6.4718564     111.0213  0.040577961   0.04251911            2 
  229000    1.2121321   -6.4682364    111.58693  0.040606596   0.04251875            7 
  230000    1.2035348   -6.4802913    111.97883  0.040572039  0.042518218            2 
  231000    1.2123136   -6.5097435    112.84715   0.04070965  0.042521471            2 
  232000    1.2216749    -6.468778    113.38934   0.04072893  0.042524447            1 
  233000    1.2090179   -6.4862433    113.90595  0.040738897  0.042528424            3 
  234000    1.2391155   -6.4627939    114.62831  0.040822048  0.042530157            6 
  235000    1.2313377   -6.4327557    115.46958  0.040946659  0.042534892            3 
  236000    1.2109224   -6.4474984     115.7837  0.040884076  0.042539954            2 
  237000     1.254603   -6.4466684    115.88687  0.040747844  0.042542099            3 
  238000    1.1979745   -6.4558548    116.40484  0.040757998  0.042542875            3 
  239000    1.2190817   -6.4592349    116.12474  0.040489796  0.042542498            2 
  240000    1.2185189   -6.4447428    117.20704   0.04069689   0.04254065            2 
  241000    1.2114598    -6.427515    117.46122  0.040615914  0.042536855            3 
  242000     1.209523   -6.4718356    117.88633  0.040594465  0.042531528            2 
  243000    1.1914966   -6.4878634    117.69103  0.040360437   0.04252436            4 
  244000     1.219178   -6.4951007    118.06606  0.040323107  0.042516427            2 
  245000    1.2129319    -6.486052    118.35143  0.040255588  0.042506762            3 
  246000    1.1984874   -6.4706613     119.5949  0.040513176  0.042496117            1 
  247000    1.1994378   -6.4634959     119.6872  0.040380297   0.04248795            1 
  248000    1.2241987   -6.4283629    120.53921  0.040503768  0.042478544            2 
  249000    1.2071432   -6.4399627    120.52118  0.040335068  0.042467872            2 
  250000    1.2260926   -6.4915427    121.08985  0.040363284  0.042455788            3 
  251000    1.2138749   -6.4859569    121.60907  0.040374857  0.042446769            2 
  252000    1.1910458   -6.4625196    121.86995  0.040300908  0.042437381            2 
  253000     1.207612   -6.4785184    122.63257   0.04039281  0.042427567            5 
  254000    1.1993777   -6.4318702    123.07263  0.040378159  0.042420132            3 
  255000    1.2006445   -6.4604408    123.89594   0.04048887  0.042412668            2 
  256000    1.2326698   -6.4459274    124.37857  0.040487815   0.04240554            4 
  257000    1.2067006   -6.4721404     125.0443  0.040546141  0.042398495            2 
  258000    1.2463581   -6.4567853    125.37672  0.040496356  0.042390449            5 
  259000    1.2313146   -6.4746187     126.0486  0.040556177  0.042382581            3 
  260000    1.2120137   -6.4546927    126.34535  0.040495304  0.042374264            4 
  261000    1.1888606   -6.4668726    126.65476  0.040438938  0.042365825            2 
  262000    1.1881973    -6.463579     127.1928  0.040455726  0.042356812            2 
  263000    1.2017723   -6.4616237     127.8554  0.040511851  0.042349432            1 
  264000    1.2210626   -6.4511155    128.57089  0.040584245  0.042342075            2 
  265000    1.2227162   -6.4632089    128.59994  0.040440234  0.042335405            1 
  266000    1.2025712   -6.5039166    128.70999  0.040322677  0.042326966            3 
  267000    1.2207597   -6.4652096    129.45085  0.040402887  0.042319658            2 
  268000    1.2144471   -6.4403388    130.43197  0.040557205  0.042311406            2 
  269000    1.2279671   -6.4892993    130.16698  0.040324342  0.042302321            2 
  270000     1.212737   -6.4621421    131.13992  0.040475285  0.042292996            2 
  271000    1.2044351   -6.5172243    131.20795  0.040346847   0.04228458            6 
  272000    1.1993481   -6.4508101    132.00587  0.040442975   0.04227685            1 
  273000    1.2354271    -6.469984    132.44607  0.040429203   0.04226864            2 
  274000    1.2234705   -6.5083605    133.02094  0.040456491   0.04225856            4 
  275000    1.2154407   -6.4908966    133.60447  0.040486203  0.042250669            1 
  276000     1.215426   -6.4457812    133.92235  0.040435492    0.0422419            2 
  277000     1.209765   -6.4594286    133.77517  0.040245238  0.042231765            2 
  278000    1.1987079   -6.4862473     134.9621  0.040456266  0.042220533            2 
  279000    1.2117467   -6.4398552    135.29957  0.040412057     0.042209            2 
  280000    1.2065023   -6.4624011    135.49122  0.040324767  0.042199605            4 
  281000    1.2264754    -6.485405    135.86098  0.040290919  0.042189517            3 
  282000     1.211904   -6.4774304    136.29985  0.040277733   0.04218055            1 
  283000    1.2214419   -6.4770006    137.52799  0.040497053  0.042173496            2 
  284000    1.2161184   -6.4666109    137.94295  0.040476218  0.042164754            1 
  285000    1.1947442   -6.4682048    138.16789  0.040399969  0.042155397            4 
  286000    1.2061679   -6.4754393    138.95215  0.040487223  0.042147241            1 
  287000    1.2389333   -6.4646815    138.68112  0.040267455  0.042137932            1 
  288000    1.2164706   -6.4686073    139.21598    0.0402824  0.042128536            1 
  289000    1.2351315   -6.4809772     140.1134  0.040401787  0.042118887            2 
  290000     1.180977   -6.4460556    140.61373  0.040406245  0.042110185            3 
  291000    1.2029839   -6.4509383    141.24885   0.04044927  0.042100232            2 
  292000    1.1972763   -6.4272079    141.47318  0.040374764  0.042091337            3 
  293000     1.194632   -6.4755491    141.45744   0.04023249  0.042080457            2 
  294000    1.2155594   -6.4535186    142.19605  0.040305003  0.042069872            4 
  295000    1.1817275   -6.5134739    142.32657  0.040205245  0.042059845            3 
  296000    1.1903719   -6.4813811    143.06969  0.040278629  0.042050435            4 
  297000    1.1931437   -6.4766273    143.57487  0.040284755  0.042042033            1 
  298000    1.2253619   -6.4697431    144.89346  0.040518305  0.042033961            4 
  299000    1.2159204   -6.4700416    145.07354  0.040432982  0.042026827            5 
  300000    1.1980507   -6.4164815    146.48901  0.040691392  0.042022212            3 
  301000    1.2054264   -6.4457941    146.31851  0.040509001  0.042016937            1 
  302000    1.1952239    -6.465554    147.39266  0.040671263    0.0420122            1 
  303000    1.1998727    -6.492639    147.25608  0.040499471  0.042006822            3 
  304000    1.2158345   -6.4889747    147.70321   0.04048882  0.042000294            2 
  305000    1.2146719   -6.4510815    148.35725  0.040534767  0.041994328            2 
  306000    1.2108351   -6.4935384    149.32518  0.040665899  0.041989448            1 
  307000     1.210793   -6.4441359    149.14936  0.040485712   0.04198439            2 
  308000    1.1927021   -6.4501954    150.12969  0.040619504  0.041979353            2 
  309000     1.215234   -6.4884907    149.90939  0.040428639   0.04197473            1 
  310000    1.1843226   -6.4211629    151.26259  0.040661987    0.0419693            3 
  311000     1.200974   -6.5159383    150.87216  0.040426625   0.04196302            2 
  312000    1.1848691   -6.4663365    151.28764  0.040408024  0.041955407            2 
  313000    1.1914134   -6.4676604    152.22902  0.040529559  0.041948652            3 
  314000    1.2089032   -6.4357917    152.69767  0.040524859  0.041942719            1 
  315000    1.2019514   -6.4621508    153.13484  0.040511861  0.041935562            1 
  316000    1.2029331    -6.513028    152.96344   0.04033846  0.041927565            3 
  317000    1.2281699   -6.4806571    154.02919  0.040491375  0.041919183            3 
  318000    1.2116695   -6.4533122     154.5458  0.040499424  0.041911122            3 
  319000    1.2070048   -6.4745216    154.86109   0.04045483  0.041904874            2 
  320000    1.2016306   -6.4627977    156.04473  0.040636649  0.041898857            1 
  321000    1.1940922    -6.437737     156.3436  0.040587643  0.041893838            2 
  322000    1.2234388   -6.4753751    156.25469  0.040438585  0.041887987            3 
  323000    1.1970109   -6.5026714    156.21041  0.040301963  0.041880543            6 
  324000    1.2009925   -6.4481187    157.07765  0.040400629  0.041872669            1 
  325000    1.2155291   -6.5117599    157.49652  0.040383723  0.041864103            1 
  326000    1.2032614   -6.4645835    158.52771  0.040523442  0.041856938            1 
  327000    1.1732757   -6.4783623     158.4449  0.040378414  0.041849377            3 
  328000    1.1993124   -6.4775837    158.91091  0.040373707  0.041841818            2 
  329000    1.2050623   -6.4584325    159.82656  0.040482918  0.041834821            2 
  330000     1.217771   -6.5026956    159.41153  0.040255437  0.041827354            2 
  331000    1.1970382   -6.4580151     160.4672  0.040399597  0.041819356            1 
  332000    1.2156306   -6.4730444    161.51935  0.040542005  0.041812722            3 
  333000    1.2125073    -6.505974    161.33478  0.040374068  0.041807288            2 
  334000    1.2124301   -6.4643031    161.87723  0.040388531  0.041800251            2 
  335000    1.2140095   -6.4796768    162.75386  0.040486034  0.041794273            4 
  336000    1.2148739   -6.4346457    162.62923   0.04033463  0.041787526            1 
  337000    1.1814959   -6.4984605    162.73963  0.040242243  0.041780762            3 
  338000    1.2039405    -6.502293    162.94331    0.0401734  0.041771962            1 
  339000     1.202571   -6.5108063    163.59368   0.04021477  0.041762327            2 
  340000    1.2139051   -6.4712172    164.05759  0.040210194  0.041752251            3 
  341000    1.2008788   -6.4901047    164.46686  0.040192293  0.041742187            1 
  342000    1.1989625   -6.4948019    164.55293  0.040095742  0.041733449            2 
  343000    1.1728554   -6.5050955    165.23833  0.040145368  0.041723716            2 
  344000    1.2350837   -6.4800094     165.7025  0.040141109  0.041713159            2 
  345000    1.1947288   -6.4984727    165.74544  0.040035129  0.041702538            3 
  346000    1.1694593   -6.4868012    166.82079  0.040178418  0.041691652            2 
  347000      1.21232   -6.4487022    166.84896  0.040069394  0.041680775            3 
  348000    1.1865888   -6.5367137    166.78261  0.039938365  0.041669593            2 
  349000    1.2145516   -6.4973023    167.71376  0.040046265  0.041657016            2 
  350000    1.2183334   -6.4582381    168.05134  0.040012223   0.04164566            4 
  351000    1.2217993   -6.4704388    169.04447  0.040134014  0.041634995            2 
  352000      1.18522   -6.5208023    169.52339  0.040133377  0.041624715            3 
  353000    1.1828809   -6.5097258    169.86248  0.040099737   0.04161603            1 
  354000    1.1672014     -6.49529    170.75135  0.040195703  0.041608426            2 
  355000     1.194389   -6.4759751    171.76988  0.040321568  0.041600432            4 
  356000    1.2081789   -6.4887885    172.39205  0.040353943  0.041592919            1 
  357000    1.2066059   -6.5022727    172.85195  0.040348261  0.041585938            1 
  358000    1.1833452   -6.4996358    173.69765  0.040432415  0.041580034            3 
  359000    1.2009801   -6.4972456     173.5237  0.040279411  0.041573551            4 
  360000    1.2008138   -6.5233916    173.74764   0.04021936  0.041566776            2 
  361000    1.1760822   -6.4964712    174.59218  0.040302904  0.041560535            2 
  362000    1.1823598   -6.5088451    175.22522  0.040337297  0.041554996            2 
  363000    1.1929444   -6.4919522      175.932   0.04038843  0.041550314            6 
  364000    1.1906205   -6.5093644    175.86676  0.040262536   0.04154344            3 
  365000    1.1669479   -6.4993878    175.73335   0.04012177  0.041535394            1 
  366000     1.199739   -6.4749961    177.11739  0.040327274   0.04152753            3 
  367000    1.1927574   -6.4736659    177.06702  0.040205953  0.041519682            1 
  368000    1.1913914   -6.4690644    177.67059  0.040233376  0.041511293            2 
  369000    1.2064868   -6.5116255    178.22236  0.040248952    0.0415032            4 
  370000    1.1915265   -6.4869817    178.26899  0.040150674  0.041495306            2 
  371000    1.1683142   -6.4904117    178.88432  0.040180666  0.041487574            2 
  372000    1.1889771   -6.4583495    179.63376  0.040240537  0.041479661            2 
  373000    1.2290264   -6.4934733    179.93006  0.040198853  0.041472137            2 
  374000    1.2003313   -6.4738625    180.19529  0.040150465    0.0414638            2 
  375000    1.1932208   -6.5165596    180.29372  0.040065271  0.041455253            2 
  376000    1.2137266   -6.5119803    181.75248  0.040282022  0.041449112            2 
  377000    1.1691405   -6.5083895    182.32318  0.040301321  0.041442629            2 
  378000    1.2166773   -6.4924729    182.61762  0.040259616  0.041434948            4 
  379000    1.1848389   -6.5007432    182.72523   0.04017705  0.041428699            3 
  380000    1.1919305   -6.5712886    182.92832   0.04011586  0.041421406            3 
  381000    1.2141756   -6.4989391    183.50822  0.040137407  0.041413707            1 
  382000    1.1890793   -6.5392639    184.17898   0.04017866  0.041406767            4 
  383000    1.2104127   -6.4754084    185.58197  0.040379019  0.041400595            2 
  384000    1.1881513   -6.4762097    186.05611  0.040376759  0.041395332            2 
  385000    1.2144951   -6.5210897    185.55296  0.040162978  0.041388889            2 
  386000    1.2055738   -6.5073824     185.1873  0.039979986  0.041382471            3 
  387000    1.1991148   -6.4621533    186.82315   0.04022893  0.041374905            2 
  388000    1.2091987   -6.5053322    186.43823  0.040042575  0.041367048            3 
  389000    1.2127331   -6.5351019    187.49774   0.04016661  0.041359297            3 
  390000    1.1523756   -6.5165872    187.83199   0.04013504  0.041352613            2 
  391000    1.2005423   -6.4914882    188.45447  0.040165061  0.041347043            3 
  392000    1.1849642    -6.522153    189.35734  0.040254536  0.041341505            2 
  393000    1.1937247   -6.5138178    189.63395  0.040210762   0.04133434            2 
  394000    1.1915193    -6.501111    189.62665   0.04010716  0.041327388            3 
  395000    1.2200284   -6.5208262    189.94904  0.040073638  0.041320138            3 
  396000    1.2259733   -6.4834107    191.45879  0.040290149  0.041313448            3 
  397000    1.1703154    -6.510722    191.10787  0.040115002  0.041306596            3 
  398000    1.1631604   -6.5351683    191.81392  0.040162043   0.04129966            1 
  399000    1.1544761   -6.5035802    191.68076  0.040033575  0.041292568            3 
  400000    1.2090242   -6.5168319    192.91234   0.04019007  0.041284932            1 
  401000    1.1857921   -6.5017275    192.64265  0.040033802  0.041277139            5 
  402000    1.1783816   -6.5323431    193.57956  0.040128432  0.041269714            3 
  403000    1.2086219   -6.4803003    193.82792  0.040080215  0.041262688            3 
  404000    1.1603527   -6.5358769    194.07334  0.040031629  0.041255001            6 
  405000    1.2033343   -6.5123802    193.97427  0.039912402  0.041245934            1 
  406000     1.158604   -6.4761671    195.69694   0.04016768  0.041237854            3 
  407000    1.1591711   -6.4761876    195.91374  0.040113379  0.041230713            2 
  408000    1.1983792   -6.5047723    196.40534   0.04011547  0.041224481            3 
  409000    1.1989137   -6.4988849    197.84349   0.04031041  0.041218134            2 
  410000      1.19998   -6.5333033    197.64374  0.040171492  0.041211598            3 
  411000    1.1894731   -6.4730021    198.25029  0.040196734  0.041205618            1 
  412000    1.1929802   -6.5089964    198.71003  0.040192157  0.041199986            3 
  413000    1.2027778   -6.4912831    199.16252  0.040186142  0.041193067            2 
  414000    1.1571437   -6.5074959    199.04264  0.040064943  0.041185819            2 
  415000      1.17998   -6.5003934    199.19718  0.039999434  0.041178483            5 
  416000    1.1789764   -6.4899933    200.44258   0.04015276  0.041171062            5 
  417000    1.2022262   -6.5001622    200.44985  0.040057923  0.041163497            7 
  418000    1.1984249   -6.4810569    200.65777  0.040003543  0.041155883            2 
  419000    1.1968169   -6.5304836      200.648  0.039906126  0.041147601            3 
  420000    1.1728514   -6.4963884    201.66449  0.040012796  0.041139105            3 
  421000    1.1828597    -6.512107     202.1308  0.040010055   0.04113071            2 
  422000     1.201639   -6.4399455    202.11388  0.039911903  0.041121867            1 
  423000    1.1972408   -6.4974636    201.97911  0.039790999  0.041112901            1 
  424000    1.1926486   -6.5055208    203.03252  0.039904191  0.041103513            2 
  425000    1.1728857   -6.5378616    202.71132  0.039747318  0.041094018            3 
  426000    1.2105277   -6.5317514    203.38681  0.039786153  0.041084247            3 
  427000    1.1805786   -6.5039417    204.30969  0.039873085  0.041074781            2 
  428000    1.1673058   -6.5116216    205.56249  0.040023849  0.041066878            4 
  429000    1.1780919   -6.5444026    204.72721  0.039768301  0.041058311            3 
  430000    1.1782145   -6.5592252    204.44387  0.039620905   0.04104835            4 
  431000    1.1930857   -6.5073838    206.40785   0.03990871  0.041038051            1 
  432000    1.1626307   -6.5199132    206.06864  0.039750896   0.04102795            2 
  433000    1.2021698     -6.53567    206.37947  0.039718913  0.041018104            2 
  434000    1.1845994   -6.5367012    207.17387  0.039779929  0.041008152            2 
  435000    1.1813762   -6.5466062    207.30795  0.039714166  0.040999076            4 
  436000    1.1773808   -6.5264323    208.02843  0.039760786  0.040990379            2 
  437000    1.1721683   -6.5111499    208.60631  0.039779999  0.040981189            4 
  438000    1.1667673   -6.5254748    209.08829  0.039780878  0.040972237            3 
  439000    1.1759013   -6.5307575    209.84837  0.039834542  0.040962509            5 
  440000    1.1813528   -6.5263732    209.94602  0.039762504  0.040953796            3 
  441000    1.1841664   -6.4954972    211.23085  0.039915126  0.040945356            2 
  442000    1.2064354   -6.5149267    211.61606  0.039897446  0.040937636            1 
  443000    1.1705755   -6.5059804    211.68116  0.039819631  0.040929936            5 
  444000    1.1917982   -6.5258659    211.62229  0.039718898  0.040921888            1 
  445000    1.1767867   -6.5532184     212.2028  0.039738352  0.040913408            3 
  446000    1.1684607   -6.4932626    213.86096  0.039959074  0.040905264            2 
  447000    1.1751973   -6.5438922    214.12832  0.039919523  0.040897301            2 
  448000    1.1661633    -6.498049     214.5435  0.039907645  0.040890112            2 
  449000    1.1584187   -6.5136626     214.7866  0.039863883  0.040883687            3 
  450000    1.1726801   -6.4962601    216.29802  0.040055189  0.040878007            1 
  451000    1.1776286   -6.5275615     216.0032  0.039911899  0.040873076            2 
  452000    1.1788223   -6.5395684    216.33995  0.039885685  0.040867365            3 
  453000    1.1660457   -6.5231721    217.25932  0.039966762  0.040862175            5 
  454000    1.1758639   -6.5373316    217.56471  0.039934785  0.040856527            4 
  455000    1.1887758   -6.4899695    218.32944  0.039987076  0.040851413            2 
  456000    1.1979636   -6.5512602    218.83473  0.039991726  0.040846037            3 
  457000    1.1531476   -6.5058324    219.28696   0.03998668  0.040841199            2 
  458000    1.1548291   -6.5460475    219.68028  0.039970939  0.040835952            4 
  459000    1.1687554   -6.5127967    219.96636  0.039935795  0.040830743            2 
  460000    1.1758788   -6.5181788    220.37285  0.039922618  0.040825331            2 
  461000    1.1823539   -6.4999995    220.83318  0.039919229  0.040819543            2 
  462000    1.1841084   -6.5152189    221.32057  0.039920737  0.040813875            2 
  463000    1.1639258   -6.4968336    221.55667  0.039877011  0.040808334            4 
  464000    1.1792079   -6.4953489     222.8636   0.04002579  0.040804063            2 
  465000    1.1857079   -6.5454351    224.04808  0.040151986  0.040800101            2 
  466000    1.1788537    -6.507404    223.66934  0.039998094  0.040796317            3 
  467000    1.1929065   -6.5475231    224.00369  0.039972107  0.040793037            2 
  468000    1.1733305    -6.486762    225.06162  0.040075075  0.040789672            5 
  469000    1.1794196   -6.5291088    225.69878   0.04010284  0.040785878            2 
  470000    1.1673035   -6.5286685    225.27061  0.039941598  0.040781927            1 
  471000    1.2062394   -6.5577734    226.17044  0.040016002  0.040777352            3 
  472000    1.1841263   -6.5352577      227.064  0.040088984  0.040773745            2 
  473000    1.1745113   -6.5179878    226.74315  0.039947702  0.040770721            3 
  474000     1.153108   -6.5040837    228.56319  0.040183402  0.040766676            2 
  475000    1.1763515   -6.5373116     227.7169  0.039950333  0.040762323            1 
  476000    1.1711247   -6.5370487     227.9625  0.039909401  0.040757889            2 
  477000    1.1713324   -6.5522134    228.18002  0.039863735   0.04075278            3 
  478000    1.1767086   -6.5255108     228.7815  0.039885198  0.040746604            2 
  479000    1.1848684   -6.5556331    229.59029  0.039942639  0.040741698            1 
  480000    1.1867913   -6.5347502    229.25334  0.039800926  0.040734951            3 
  481000    1.1500088   -6.5294319     230.0331  0.039853275  0.040728067            3 
  482000    1.2007175    -6.538017    230.44609  0.039841993   0.04072163            3 
  483000    1.1689668   -6.5173975    230.13921  0.039706559  0.040715264            2 
  484000    1.1538999   -6.5104769    231.16035  0.039800336  0.040708657            1 
  485000    1.1636666   -6.5123075    231.54666   0.03978465  0.040701838            1 
  486000    1.1490845   -6.5368144    232.25448  0.039824157  0.040694942            2 
  487000    1.1939787   -6.5847161    232.22337  0.039737059  0.040687936            2 
  488000     1.185724   -6.5370287    233.34185  0.039846628   0.04068159            2 
  489000    1.2008647   -6.4899464    233.18724  0.039738793  0.040675498            3 
  490000    1.1710601   -6.5358559    233.95587  0.039788414  0.040669037            1 
  491000    1.1688077   -6.5130558    233.45062  0.039621627  0.040661571            1 
  492000    1.1673872    -6.497043    234.94144  0.039793605  0.040653191            2 
  493000    1.1851612   -6.5383348    234.02527  0.039558024  0.040644755            2 
  494000    1.1714031   -6.5454746    234.31153  0.039526237  0.040636166            1 
  495000    1.1520566   -6.5355724    235.04714  0.039570226  0.040627399            3 
  496000    1.1520987   -6.5240161      235.546  0.039574261  0.040617656            3 
  497000    1.1485034   -6.5412284    235.82504  0.039541422  0.040608329            2 
  498000    1.1849503   -6.5424649    235.88293  0.039471708  0.040599064            3 
  499000    1.1538428   -6.5337802    236.48605  0.039493328   0.04058966            1 
  500000    1.1705472    -6.559186    237.07565  0.039512608   0.04058114            3 
  501000    1.1709709   -6.5309134     237.0119  0.039423137  0.040572681            1 
  502000     1.176169   -6.5081156    238.24636  0.039549529  0.040564142            2 
  503000    1.1676848   -6.5738272    237.49377  0.039346217  0.040554732            3 
  504000     1.177427   -6.5624838    239.73868  0.039639331  0.040545405            2 
  505000    1.1935917   -6.5314207    238.92967  0.039427338  0.040535835            2 
  506000    1.1625401   -6.5621931    238.90185  0.039344836  0.040525606            3 
  507000    1.1691558   -6.5574064    239.89262  0.039430082  0.040515703            3 
  508000    1.1536092   -6.5039296    240.20359  0.039403477  0.040504959            3 
  509000    1.1815448   -6.5459865    240.93868  0.039446411  0.040494812            2 
  510000    1.1630963   -6.5157171    240.60987  0.039315338  0.040485266            2 
  511000    1.1854344   -6.5267456    240.40218  0.039204531  0.040474702            1 
  512000    1.1658816   -6.5262532    241.76798  0.039350256  0.040464544            2 
  513000    1.1895485   -6.5221934    241.70726  0.039263688  0.040454336            3 
  514000    1.1449459   -6.5347285     242.5772   0.03932834   0.04044461            3 
  515000    1.1922492   -6.5462053    243.19587  0.039352082  0.040434849            3 
  516000    1.1587143   -6.5617675    243.70787  0.039358505  0.040425157            2 
  517000    1.1688254   -6.5303038    243.65335   0.03927359  0.040414623            2 
  518000    1.1356748   -6.5777985    243.54763  0.039180764   0.04040404            1 
  519000    1.1543982   -6.5230134    244.83675  0.039312259  0.040394075            3 
  520000    1.1551465   -6.5098233    244.80631   0.03923178  0.040383768            4 
  521000    1.1658414   -6.5283874    245.78487  0.039312998  0.040373921            2 
  522000     1.150818   -6.5038413    246.21107  0.039305726  0.040364645           10 
  523000    1.1651123   -6.5247416    245.70421   0.03914981  0.040354993            6 
  524000     1.170803   -6.5336724    246.95892  0.039274637  0.040344986            1 
  525000    1.1405744   -6.5060369    248.00243  0.039365466  0.040335246            1 
  526000    1.1786963   -6.5450649    247.61159  0.039228706  0.040325376            1 
  527000    1.1676675   -6.5644849    248.29626  0.039262533  0.040315626            2 
  528000    1.1826086   -6.5548027    249.12564  0.039319072  0.040306148            1 
  529000    1.1619259   -6.5781913    248.74157  0.039184242  0.040296645            2 
  530000    1.1565685   -6.5141429    249.48656  0.039227446  0.040286238            5 
  531000    1.1772042    -6.564006    249.09735   0.03909249  0.040276885            1 
  532000    1.1805476   -6.5558523    249.65902  0.039106989  0.040266207            2 
  533000    1.1627586   -6.5825813    249.66012   0.03903379  0.040255359            2 
  534000    1.1925027   -6.5304518    251.50152  0.039248053  0.040244676            3 
  535000    1.1613403   -6.5412807     251.3274   0.03914757  0.040234496            2 
  536000    1.1818232   -6.5688222    251.27066  0.039065713  0.040224913            4 
  537000    1.1739765   -6.5283203    252.50256  0.039184133   0.04021491            4 
  538000    1.1610918   -6.5796451    252.41268  0.039097379  0.040204312            2 
  539000    1.1695458   -6.5637825    251.96159    0.0389551  0.040193842            2 
  540000    1.1323649   -6.5339286    253.07318  0.039054504  0.040183356            3 
  541000    1.1571788   -6.5558548    254.46935  0.039197374  0.040172655            2 
  542000    1.1815842   -6.5678225    253.93184  0.039042411  0.040162158            2 
  543000    1.1626513   -6.5434552    254.17608  0.039007993  0.040151034            4 
  544000    1.1661278   -6.5404658     254.9717  0.039058165   0.04014011            2 
  545000    1.1744617   -6.5425387    255.14176  0.039012502  0.040129154            2 
  546000    1.1508901   -6.5354784    255.93126  0.039061548  0.040118745            3 
  547000    1.1715832   -6.5282127    257.00205  0.039153268  0.040108509            2 
  548000    1.1383469   -6.5637203    257.23227  0.039116829  0.040098504            2 
  549000    1.1597952   -6.6046235    255.91897  0.038846232  0.040087552            2 
  550000    1.1487285    -6.526409    257.17573   0.03896602  0.040076168            2 
  551000    1.1436316   -6.5610558    257.61059   0.03896107  0.040065292            3 
  552000     1.178307   -6.5978977    257.55145  0.038881559  0.040054894            1 
  553000    1.1761994   -6.5483185    257.74636   0.03884062   0.04004403            3 
  554000    1.1593511   -6.5744688    258.45208  0.038876666  0.040032771            2 
  555000    1.1480005   -6.5312478    259.81908  0.039011874    0.0400222            1 
  556000    1.1690507   -6.5865842    260.25776  0.039007458  0.040011781            3 
  557000    1.1680711   -6.5520592    259.66104   0.03884815  0.040000633            2 
  558000    1.1499011   -6.5852079    259.92643  0.038818164  0.039989493            3 
  559000    1.1505058   -6.5617482    261.74193   0.03901937  0.039979214            1 
  560000    1.1555774   -6.4970498    262.35749  0.039041293  0.039969052            2 
  561000    1.1526831   -6.6052944    261.37294  0.038825452  0.039958303            3 
  562000    1.1455922   -6.5706108    262.30052  0.038893908  0.039948141            3 
  563000    1.1363425   -6.5342208    263.29361  0.038971818  0.039938375            3 
  564000    1.1678092   -6.5298785    263.41507  0.038920667  0.039928643            1 
  565000    1.1705607    -6.546706    264.05689  0.038946443  0.039919085            2 
  566000    1.1711035   -6.5877376     264.7255  0.038976074   0.03990952            2 
  567000     1.148052   -6.5484669    264.34024  0.038850711   0.03989981            2 
  568000    1.1679965   -6.5024269    266.66726  0.039123718  0.039891154            4 
  569000    1.1262726   -6.5739345    266.57078  0.039040829  0.039882528            3 
  570000    1.1667227   -6.5516436    266.95083  0.039027899  0.039874249            2 
  571000    1.1646868   -6.5354755    266.88212  0.038949521  0.039865109            3 
  572000    1.1248334   -6.5957777    266.87954  0.038881052  0.039856457            2 
  573000    1.1363817   -6.5841854    267.37053  0.038884603  0.039847375            2 
  574000    1.1592161   -6.5668898    268.18106  0.038934532  0.039838322            3 
  575000    1.1462123    -6.564568    269.02439  0.038989043  0.039829462            3 
  576000    1.1554294   -6.5476215    269.03723   0.03892321  0.039821285            2 
  577000    1.1752457   -6.5883747    269.80815  0.038967092  0.039813043            2 
  578000    1.1465227   -6.5471697    269.90587  0.038913764  0.039804261            3 
  579000    1.1615881   -6.5708083    270.53594  0.038937239  0.039795337            1 
  580000    1.1415335   -6.5803979    270.94138  0.038928359  0.039786615            2 
  581000    1.1758913   -6.5693829    271.70575  0.038970991   0.03977759            2 
  582000     1.175458   -6.5390692    272.72217  0.039049566  0.039768686            2 
  583000     1.152248   -6.6307345    271.96949  0.038874999  0.039760133            2 
  584000    1.1730639   -6.5888561    272.36371  0.038864685   0.03975138            3 
  585000    1.1602346   -6.5544609     272.5012  0.038817835  0.039743132            2 
  586000    1.1822387   -6.5596577    274.97198  0.039102956  0.039735166            2 
  587000    1.1529271   -6.5326083    274.64217  0.038989519  0.039727387            6 
  588000    1.1554023      -6.5464    274.85592  0.038953504  0.039719642            2 
  589000    1.1484232   -6.5370659    273.84349  0.038744127  0.039711143            4 
  590000    1.1585483   -6.5618693    275.22258  0.038873245  0.039702562            5 
  591000    1.1678777   -6.5570757    275.38737  0.038830706  0.039693483            2 
  592000    1.1638657   -6.5686362    275.55829  0.038789173  0.039684873            1 
  593000    1.1838193   -6.5404373    276.12331  0.038803164   0.03967627            4 
  594000    1.1354235   -6.5445818    276.96891  0.038856469  0.039667018            3 
  595000    1.1440986    -6.565308    277.00715  0.038796519  0.039657933            2 
  596000    1.1553481   -6.5744578    277.13708  0.038749591  0.039649069            3 
  597000    1.1695716   -6.5598459    278.27673  0.038843765  0.039640305            5 
  598000    1.1680749   -6.5617103    278.54285  0.038815893  0.039631557            3 
  599000    1.1478767   -6.5598846    278.87713  0.038797597  0.039623311            1 
  600000    1.1759185     -6.55759     280.0746  0.038899249  0.039615464            2 
  601000    1.1670222   -6.5653852    280.60427  0.038907968  0.039607888            4 
  602000    1.1633081   -6.5938702    280.61233  0.038844453   0.03960024            2 
  603000    1.1397977   -6.5634138     281.2786  0.038872112   0.03959242            4 
  604000    1.1369283   -6.5868521    281.41295   0.03882629  0.039584053            2 
  605000    1.1716266    -6.548975    281.90925  0.038830476   0.03957643            3 
  606000     1.149487   -6.5564038    282.55094  0.038854639  0.039568931            3 
  607000     1.179277   -6.5538288    283.86677  0.038971275  0.039561249            2 
  608000    1.1707422   -6.5611187    283.39987  0.038843184  0.039553783            3 
  609000    1.1540838   -6.5891302    284.43098  0.038920496  0.039546108            3 
  610000    1.1533911   -6.6052125    283.72413  0.038760126  0.039538419            2 
  611000    1.1668188   -6.5945327    284.81252  0.038845134  0.039530773            2 
  612000    1.1705398   -6.5312925    285.89009  0.038928389  0.039523492            3 
  613000    1.1712132   -6.5798998    285.06358  0.038752526  0.039515944            5 
  614000    1.1713958   -6.5473432    286.11759  0.038832463  0.039507988            1 
  615000    1.1551159   -6.5839645    286.67832  0.038845301  0.039500255            3 
  616000     1.154658     -6.56388    287.42523  0.038883283  0.039492551            2 
  617000    1.1461662   -6.5288813    286.54471  0.038701339  0.039484872            2 
  618000    1.1526182   -6.5614031    287.50149  0.038767731  0.039476495            1 
  619000    1.1503972   -6.5586858    288.09415  0.038784888  0.039468139            3 
  620000    1.1609984   -6.5622306     287.2628  0.038610591  0.039459393            1 
  621000    1.1399758   -6.5787006     288.6477   0.03873426  0.039450395            3 
  622000    1.1500271    -6.564519    288.56657  0.038661116  0.039442153            4 
  623000    1.1847592   -6.5639564    288.30754  0.038564412  0.039434207            3 
  624000     1.158063   -6.5619087    290.78635  0.038833647  0.039426538            3 
  625000    1.1468782   -6.6015376    291.27253  0.038836337  0.039419405            3 
  626000    1.1389899   -6.5875394    292.63059  0.038955084  0.039412982            7 
  627000    1.1526786   -6.5304766    291.47533  0.038739411  0.039406128            3 
  628000    1.1623906   -6.5916726      291.368  0.038663482  0.039399452            4 
  629000    1.1541173   -6.5335295    292.38564  0.038736837  0.039392424            2 
  630000    1.1615541   -6.5675662    292.87049  0.038739482   0.03938569            2 
  631000    1.1531504   -6.5578777    293.75464  0.038794855  0.039378878            3 
  632000    1.1384712   -6.5600104     294.4929  0.038830814   0.03937119            1 
  633000    1.1445571    -6.556917    294.40026  0.038757275  0.039364313            3 
  634000    1.1541003   -6.5293523    295.27553   0.03881119  0.039358031            1 
  635000     1.155063   -6.6031831    295.20674  0.038741042  0.039351075            2 
  636000    1.1650462   -6.5612183    295.51301  0.038720258   0.03934462            2 
  637000    1.1534739   -6.5631587    296.01145  0.038724679  0.039338291            3 
  638000    1.1517865   -6.5934742    297.02012  0.038795732   0.03933164            1 
  639000    1.1341486   -6.5739778    297.23223   0.03876268  0.039324908            4 
  640000     1.130772    -6.584074    297.65474  0.038757128  0.039317921            3 
  641000     1.147455   -6.6151621    296.32518  0.038523815  0.039311098            2 
  642000    1.1757058   -6.5451462    298.79697  0.038784654  0.039304264            2 
  643000    1.1544823   -6.6013031    299.08438  0.038761584  0.039297755            4 
  644000    1.1584281   -6.5754502    299.04892  0.038696807  0.039290733            3 
  645000    1.1397936   -6.5425166    300.41536  0.038813354  0.039284125            1 
  646000    1.1631522   -6.5684507    299.90143  0.038686975  0.039277669            3 
  647000      1.14073   -6.6150378    299.80609    0.0386149  0.039271488            2 
  648000    1.1483159   -6.5524304    301.66013  0.038793741  0.039265114            5 
  649000    1.1669622     -6.61251    300.99987  0.038649187  0.039258899            1 
  650000    1.1438488   -6.5421438    301.23362  0.038619695  0.039252068            2 
  651000    1.1467588   -6.5639522    301.78356  0.038630769  0.039245211            2 
  652000     1.147049   -6.5257008    303.43689  0.038782833  0.039238598            2 
  653000     1.157762   -6.5776321    303.74352  0.038762573  0.039232379            2 
  654000    1.1546066   -6.5446363    304.01522  0.038737924  0.039226316            6 
  655000    1.1245799   -6.6236093    303.16575  0.038570707  0.039219699            3 
  656000    1.1304077   -6.5240985    303.73864  0.038584685  0.039212603            2 
  657000    1.1312724   -6.5932615    304.83977  0.038665623  0.039205752            3 
  658000    1.1465623   -6.5958474     304.5928  0.038575582  0.039198265            3 
  659000    1.1192014   -6.5875816    304.33941  0.038485003  0.039190726            2 
  660000    1.1426365   -6.5550218    305.71229  0.038600036  0.039182945            1 
  661000    1.1366177   -6.5911879    305.82522  0.038555878  0.039175399            2 
  662000     1.146592   -6.5975682    305.10032  0.038406385  0.039167333            1 
  663000    1.1309711   -6.6035017    305.59111  0.038410144  0.039159096            4 
  664000    1.1362352   -6.5626603    307.59213   0.03860343  0.039150786            3 
  665000    1.1518782   -6.6109439    306.61344  0.038422737  0.039142482            5 
  666000      1.16488   -6.5960056    306.76976  0.038384604  0.039134323            3 
  667000     1.146059   -6.5742236    307.07797  0.038365564  0.039126368            2 
  668000     1.133935    -6.543892    308.35858  0.038467887  0.039118756            1 
  669000    1.1445835   -6.5976431     308.2952  0.038402491  0.039111007            2 
  670000    1.1372887   -6.5901337    308.82365  0.038410901  0.039103206            3 
  671000     1.120278   -6.6067719    309.00674  0.038376396  0.039095105            2 
  672000    1.1329791    -6.562475    309.82771  0.038421095  0.039087012            3 
  673000    1.1461026   -6.6084166    308.61997  0.038214459   0.03907879            3 
  674000    1.1269795   -6.5481365    310.19772  0.038352834  0.039070211            2 
  675000    1.1488478   -6.5956513    311.48515  0.038454957  0.039062024            2 
  676000    1.1660884   -6.6213437    309.46113  0.038148561  0.039053491            3 
  677000    1.1310179   -6.6269827    311.51709  0.038345284  0.039044557            4 
  678000    1.1432868   -6.6052719    312.23523  0.038376994  0.039036908            8 
  679000    1.1313606   -6.5743598    313.64818  0.038493886  0.039029664            3 
  680000    1.1400745   -6.5888999    313.01969  0.038360256  0.039022447            3 
  681000    1.1374955   -6.5947629    313.33743  0.038342809  0.039015077            3 
  682000    1.1633035   -6.6348814    314.09562   0.03837923  0.039008032            3 
  683000    1.1345465   -6.5838236    315.10214  0.038445844  0.039000876            2 
  684000     1.139894   -6.5800895    316.08001  0.038508773  0.038993579            2 
  685000    1.1377945   -6.5879769    314.50762  0.038261268  0.038986608            2 
  686000    1.1358003   -6.5694225    315.81078  0.038363797  0.038978954            2 
  687000    1.1386071   -6.5766388    316.54881  0.038397478   0.03897154            3 
  688000    1.1373618   -6.5762625      317.395  0.038444162  0.038964345            2 
  689000    1.1123464   -6.6374166     317.7661  0.038433248   0.03895765            3 
  690000    1.1530488    -6.581364    318.08186  0.038415683  0.038950738            2 
  691000    1.1379954   -6.5952737    318.57925  0.038420074  0.038943717            3 
  692000    1.1557604   -6.5873614    319.62085  0.038489986  0.038937346            2 
  693000    1.1539731   -6.5895643    319.97712  0.038477287  0.038930761            1 
  694000    1.1559266   -6.5758053    319.90149  0.038412763  0.038924165            5 
  695000    1.1100276   -6.5898857    320.65636  0.038448005  0.038917515            2 
  696000    1.1239635   -6.6218488    319.62529  0.038269312  0.038910899            2 
  697000    1.1544609   -6.5621416    320.60098   0.03833106  0.038903329            2 
  698000    1.1556808    -6.578957    320.15249  0.038222599  0.038896036            3 
  699000    1.1105563    -6.585718    321.05899  0.038275988  0.038888679            3 
  700000    1.1526633   -6.6251574    321.55595   0.03828047  0.038881366            3 
  701000    1.1273998   -6.5866685     321.5735  0.038227948   0.03887418            2 
  702000    1.1265635   -6.5908219    322.54562  0.038288891  0.038867152            3 
  703000    1.1462989   -6.5864666    323.98403  0.038404935  0.038859785            3 
  704000    1.1292109   -6.6002533    324.21399  0.038377603  0.038852748            3 
  705000    1.1424439   -6.5690131    324.56156   0.03836425  0.038845542            5 
  706000    1.1364164    -6.568814    324.35478  0.038285503  0.038838172            2 
  707000    1.1293311   -6.5892814    324.72701  0.038275225  0.038830861            3 
  708000    1.1417484   -6.6228205    324.59468  0.038205588  0.038823223            2 
  709000    1.1473004   -6.6206121    324.44145  0.038133692  0.038815709            3 
  710000    1.1571882   -6.5876783      326.433  0.038313732  0.038808068            8 
  711000     1.162909   -6.6135139    326.54047  0.038272442  0.038800294            3 
  712000    1.1118348   -6.5775904    328.13139  0.038404891  0.038793183            2 
  713000     1.126677   -6.5877308    327.39382  0.038264822  0.038786036            2 
  714000    1.1185075   -6.5679519    328.06087  0.038289083  0.038778746            2 
  715000    1.1276519   -6.5942705    328.38415  0.038273211  0.038771885            2 
  716000    1.1412418   -6.5957512    328.62763  0.038248095  0.038764397            2 
  717000    1.1255598   -6.5684313    330.03448  0.038358261  0.038757328            2 
  718000    1.1411019   -6.5991347    329.35055  0.038225459  0.038750324            1 
  719000    1.1397473   -6.6271959    329.82464  0.038227242  0.038742946            2 
  720000    1.1367432   -6.5745111    330.81374  0.038288627   0.03873597            3 
  721000    1.1080343   -6.6043939    330.52211  0.038201816  0.038729124            3 
  722000    1.1525531   -6.6067467    331.26943   0.03823516  0.038722778            2 
  723000    1.1407848   -6.6392599    331.45249  0.038203376   0.03871665            3 
  724000    1.1298003   -6.6340378    332.49556  0.038270667  0.038710473            3 
  725000    1.1349049   -6.6350105    331.99166  0.038159961  0.038704322            5 
  726000    1.1316462   -6.6256523     333.6243    0.0382948  0.038698113            2 
  727000    1.1464157   -6.5693421    334.11039  0.038297843  0.038692337            3 
  728000    1.1355535   -6.6434387     334.0797  0.038241724  0.038686062            3 
  729000    1.1443958   -6.6486515    334.09074  0.038190528   0.03867983            3 
  730000    1.1425806   -6.6551184    333.55122  0.038076623  0.038673097            4 
  731000    1.1533106   -6.6258594    334.60693  0.038144885  0.038666085            3 
  732000    1.1418947   -6.6353589    335.32635  0.038174676  0.038658984            2 
  733000    1.1104186   -6.6098571    335.58712  0.038152242  0.038651932            3 
  734000    1.1318888    -6.568238    336.32301  0.038183811  0.038644749            2 
  735000    1.1211188   -6.5870018    336.65433  0.038169426  0.038638034            6 
  736000    1.1261137   -6.5810224    336.66553  0.038118832  0.038631156            2 
  737000    1.1299988   -6.5876833    336.88703  0.038092156   0.03862413            2 
  738000     1.153163   -6.5968833    338.19087  0.038187767  0.038617349            2 
  739000    1.1169686   -6.6105259    339.23834   0.03825421  0.038610404            4 
  740000     1.144792   -6.6026912    339.87001   0.03827365  0.038603654            2 
  741000     1.127571   -6.6400874    339.24751  0.038151991  0.038597122            1 
  742000    1.1474746   -6.6059384    340.28293  0.038216861  0.038590889            2 
  743000    1.1471045   -6.6032826    341.13712  0.038261229  0.038584446            2 
  744000    1.1383743   -6.6412322     339.6225  0.038040155  0.038577962            2 
  745000    1.1170651   -6.6054528    340.59221  0.038097563  0.038571197            2 
  746000    1.1107338    -6.631343    339.33612  0.037906179  0.038564065            5 
  747000    1.1605977   -6.6078996    341.99785  0.038152371  0.038556756            2 
  748000    1.0952652   -6.6100655    340.92914  0.037982302  0.038549733            2 
  749000    1.1363463   -6.5974107    341.58414  0.038004466  0.038542589            2 
  750000    1.1496989   -6.6398431    342.16884   0.03801876  0.038535526            3 
  751000    1.1198326    -6.572706    343.89556  0.038159738  0.038528727            5 
  752000    1.1426649   -6.5714282    343.89708  0.038109163  0.038522354            3 
  753000    1.1201357   -6.5936915       344.38  0.038111996  0.038515826            2 
  754000     1.128961   -6.6134636    344.48981  0.038073586   0.03850878            5 
  755000    1.1431192   -6.6273544    343.85752  0.037953369  0.038501515            2 
  756000    1.0989988   -6.6054846    344.70534   0.03799662  0.038494322            3 
  757000    1.1352744   -6.5768594    345.80082  0.038067021  0.038486967            2 
  758000    1.1384227   -6.5905919    344.66695  0.037892145  0.038479862            3 
  759000    1.1433904   -6.6032678    345.90515  0.037978168  0.038472767            3 
  760000    1.1292122   -6.6262222    345.99662  0.037938225  0.038465514            5 
  761000    1.1313854   -6.5839451    346.81193  0.037977653  0.038458298            3 
  762000      1.12892   -6.6080621    347.03089   0.03795176  0.038451259            4 
  763000     1.121425   -6.5963741    345.97551  0.037786753  0.038444079            3 
  764000    1.1390153   -6.6251195    346.56811  0.037801931   0.03843685            5 
  765000    1.1363825   -6.5755457     348.0615  0.037915197  0.038429713            2 
  766000    1.1217525   -6.6032231    348.77518   0.03794334  0.038423013            2 
  767000    1.1278135   -6.5980552    348.81525  0.037898224  0.038415929            3 
  768000    1.1465496   -6.6366759    350.04343  0.037982143  0.038408989            2 
  769000    1.1210713   -6.6034643    351.49129   0.03808965  0.038402072            2 
  770000     1.127895     -6.66235    350.51422  0.037934439  0.038395267            2 
  771000    1.1263075   -6.6225412    350.50529  0.037884273  0.038388521            1 
  772000     1.144668   -6.5712977    353.78397  0.038189116  0.038382008            2 
  773000    1.1215881   -6.6415677    351.02753  0.037842554  0.038375489            5 
  774000    1.0941879   -6.6244977    351.38637  0.037832296  0.038368749            3 
  775000    1.1253394   -6.6569457    351.60751  0.037807259  0.038362126            3 
  776000    1.1097452   -6.6356605    352.39187   0.03784277   0.03835527            1 
  777000    1.1236387   -6.6232988    353.61371  0.037925108  0.038348868            3 
  778000    1.0936706   -6.6034267     354.1991  0.037939063  0.038342109            2 
  779000     1.150093   -6.6393469     354.1771  0.037888008  0.038335697            1 
  780000    1.0914391     -6.64027     354.3377  0.037856592  0.038328931            3 
  781000    1.1348539   -6.6119533    355.36754  0.037918005  0.038322134            3 
  782000    1.1393391   -6.6185951    355.49772  0.037883389  0.038315556            3 
  783000    1.1350234   -6.6215291    356.11595  0.037900803  0.038308764            2 
  784000    1.1012076   -6.5631702     356.7787  0.037922906  0.038302026            2 
  785000    1.1109639   -6.6207673    356.56431  0.037851837  0.038295273            4 
  786000    1.1187454    -6.616972    357.34509   0.03788646  0.038288186            2 
  787000    1.0946678    -6.652159    357.34489  0.037838298  0.038281273            2 
  788000    1.1236295   -6.5601132    358.04585  0.037864409  0.038274383            3 
  789000    1.1070939   -6.6285203    356.47991  0.037651025  0.038267114            2 
  790000     1.135276   -6.6313802    357.20611  0.037679969  0.038259868            3 
  791000    1.1275847   -6.6032533    358.81056  0.037801365  0.038252478            4 
  792000    1.1442829   -6.6288385    358.53051   0.03772417  0.038244846            3 
  793000    1.1192448   -6.6329228     358.1553  0.037637169  0.038236839            2 
  794000    1.1365719   -6.6110682    358.21095  0.037595607  0.038228949            5 
  795000    1.1502092   -6.6267518    358.54992  0.037583849  0.038221289            4 
  796000    1.1181966   -6.6426823    358.07988  0.037487425  0.038213369            1 
  797000    1.1188149   -6.6492436    358.50216  0.037484542  0.038204878            3 
  798000    1.1075928   -6.6312939    360.20084  0.037614958  0.038196276            3 
  799000    1.1137835   -6.6117821    359.26562   0.03747034  0.038187538            2 
  800000    1.1308095   -6.6303456     360.4751   0.03754949  0.038179085            7 
  801000    1.1463014   -6.6181658    360.83215  0.037539758  0.038170599            2 
  802000    1.1280264    -6.594035    361.49292  0.037561608  0.038162099            3 
  803000    1.1250177   -6.6273761    361.24661   0.03748927  0.038153517            2 
  804000    1.0962884   -6.6360702    360.44837  0.037359905   0.03814494            4 
  805000    1.1147623   -6.6347696     363.0032  0.037577971  0.038136575            2 
  806000    1.1121215   -6.6398096     361.8644  0.037413606  0.038128417            1 
  807000    1.1072923   -6.5927252    362.80787  0.037464671  0.038120242            3 
  808000    1.1344129   -6.6023622    363.54455  0.037494281   0.03811202            2 
  809000    1.1237022   -6.6153328    363.02943  0.037394873  0.038104079            3 
  810000    1.1205106   -6.6100137     363.4707  0.037394105  0.038095484            2 
  811000    1.1119926   -6.6481697      364.355  0.037438862  0.038086699            3 
  812000    1.1055503   -6.6184624    363.66972  0.037322426  0.038078016            1 
  813000    1.1140072   -6.6243787    364.74122  0.037386349  0.038068903            3 
  814000    1.1211188   -6.5927431    365.04711  0.037371735   0.03805992            3 
  815000    1.1199859   -6.6159942    364.58187   0.03727831  0.038050798            1 
  816000    1.1219731   -6.6257041    365.28535  0.037304468  0.038041606            4 
  817000     1.127244   -6.6370717    365.06157  0.037235983  0.038032441            2 
  818000    1.0974052   -6.6318855    366.73879  0.037361328  0.038023417            3 
  819000    1.1081041   -6.6248335    366.50248  0.037291665  0.038014294            2 
  820000    1.1501551   -6.6518927     366.1485  0.037210213  0.038004981            5 
  821000    1.1220591   -6.6370271    366.43476  0.037193947  0.037995493            3 
  822000    1.1061053   -6.6495834    366.57341  0.037162755  0.037985954            4 
  823000    1.1183903   -6.6658584    367.56575  0.037218079  0.037976477            1 
  824000    1.1051597   -6.6438717    367.94806  0.037211575    0.0379669            1 
  825000    1.1226046   -6.6389742    367.79007  0.037150512  0.037956975            2 
  826000    1.1039509   -6.6148266    368.29876  0.037156856  0.037947071            3 
  827000     1.106264   -6.6056257    369.14814  0.037197515  0.037937743            2 
  828000    1.0986048   -6.6437011    369.47505  0.037185493  0.037928282            3 
  829000    1.1190898   -6.6328417    368.20849  0.037013318  0.037918113            2 
  830000    1.1123998    -6.621199      369.473  0.037095683  0.037908045            2 
  831000    1.1417015   -6.6379619    369.12084  0.037015728  0.037897922            2 
  832000    1.1361759   -6.6358618    370.29604  0.037088946  0.037887983            1 
  833000     1.128643   -6.6170292    370.13672  0.037028484  0.037878094            2 
  834000    1.0783205   -6.6293578    370.06911  0.036977329  0.037868103            4 
  835000    1.1314559   -6.6590083     370.9897   0.03702492  0.037858217            1 
  836000    1.1321859   -6.6400183    371.71689  0.037053119  0.037848246            1 
  837000    1.0876217   -6.6251464    371.64543  0.037001736  0.037838434            8 
  838000     1.100937   -6.6077379    373.03885  0.037096146   0.03782919            3 
  839000    1.1161114   -6.6296792    373.48999  0.037096741  0.037819792            3 
  840000    1.1164314   -6.6196687    373.81196   0.03708452  0.037810274            5 
  841000     1.099902   -6.6435229    373.77512  0.037036773  0.037800687            8 
  842000    1.1190123   -6.6194165    374.92265  0.037106359  0.037790974            4 
  843000    1.1148663   -6.6689939    374.37405  0.037008111  0.037781377            2 
  844000       1.1479   -6.6262128    375.54443  0.037079821  0.037771548            2 
  845000     1.127023   -6.6439237    374.44689  0.036927701  0.037761486            4 
  846000    1.1082736   -6.6391962    374.75864  0.036914759  0.037751422            3 
  847000    1.1068726   -6.5980988    375.65593  0.036959458  0.037741347            2 
  848000    1.1150478   -6.6036376    375.77402  0.036927478  0.037731273            5 
  849000    1.1136509   -6.6203288    377.43078  0.037046602  0.037721562            3 
  850000    1.0966347    -6.610312    377.53643  0.037013375  0.037711609            4 
  851000    1.1025839   -6.6334227    377.43689  0.036960134  0.037701666            1 
  852000    1.1064002    -6.609473    377.28884  0.036902273  0.037691703            3 
  853000    1.0942143   -6.6602867    378.02262  0.036930698  0.037682188            3 
  854000    1.1138827   -6.6565041    379.08628  0.036991245  0.037672372            2 
  855000    1.1295176   -6.6311041    380.09981  0.037046765  0.037663111            2 
  856000    1.1194258   -6.6225255    379.70389  0.036964942  0.037654017            2 
  857000    1.1148821   -6.6344477    379.74168  0.036925484  0.037644793            1 
  858000    1.1185595   -6.6556175    380.35449  0.036941966   0.03763585            2 
  859000    1.1107097   -6.6675154    381.12308  0.036973524  0.037626704            4 
  860000    1.1162599   -6.6525883    380.61807  0.036881595  0.037617358            2 
  861000    1.1093278   -6.6348893    381.53392  0.036927402  0.037608206            3 
  862000    1.1058468   -6.6219805    382.08495  0.036937834  0.037598565            4 
  863000    1.1009785   -6.6747389    381.34592  0.036823669  0.037589155            5 
  864000    1.1253509   -6.6287504    383.07099  0.036947433  0.037579478            1 
  865000    1.0925765   -6.6273688     383.1636  0.036913642  0.037570404            2 
  866000    1.1127053   -6.6344232    383.74828  0.036927278  0.037561358            1 
  867000    1.1257784   -6.6312687     382.7609  0.036789783  0.037552067            2 
  868000    1.1055674   -6.6531877    385.03663  0.036965883  0.037542989            3 
  869000    1.1140556   -6.6385497    385.63962  0.036981168  0.037534025            1 
  870000    1.0950972   -6.6426429     385.4899   0.03692432  0.037525076            2 
  871000    1.0816495   -6.6531094     386.4264  0.036971527  0.037516428            2 
  872000     1.129998    -6.673731    387.44916  0.037026869  0.037507953            3 
  873000     1.076327   -6.6302001    387.45276  0.036984799  0.037499448            6 
  874000    1.1054136   -6.6749492    386.26217  0.036828963  0.037491012            1 
  875000    1.1350935   -6.6529345    387.86351  0.036939382  0.037482603            2 
  876000    1.0836193   -6.6614218    387.47068  0.036859844  0.037473869            3 
  877000    1.1172284    -6.603216    389.03465  0.036966425  0.037465422            2 
  878000    1.1354722   -6.6722381    388.21253  0.036846291  0.037456975            5 
  879000    1.0945939   -6.6251488    388.91478   0.03687095  0.037448487            3 
  880000    1.0902594    -6.665063    389.22755  0.036858669  0.037439771            3 
  881000    1.1002593   -6.6733423      389.837   0.03687448  0.037431165            3 
  882000    1.1068745    -6.607793    389.11103  0.036764081   0.03742202            3 
  883000      1.11414   -6.6425383    390.47095  0.036850788   0.03741335            2 
  884000    1.1157695   -6.6418014    390.73479  0.036833973  0.037404883            3 
  885000    1.1159608   -6.6308948    391.24398  0.036840299  0.037396444            3 
  886000    1.1266136   -6.6537823    391.55223  0.036827712  0.037387618            3 
  887000    1.0974339   -6.6667676    390.32046  0.036670468  0.037378764            4 
  888000    1.1031613   -6.6586006    392.06184   0.03679259   0.03736972            5 
  889000    1.0996403   -6.6769438    391.23847  0.036674022  0.037360217            6 
  890000    1.1141553   -6.6599106    391.48686  0.036656073  0.037350653            2 
  891000    1.1039067   -6.6821649    393.04404  0.036760573   0.03734144            2 
  892000    1.1124947   -6.6436759    393.94534  0.036803563  0.037332492            1 
  893000    1.1247809   -6.6490932    394.01138  0.036768512  0.037323746            4 
  894000     1.103524   -6.6309587    395.14971  0.036833493  0.037315421            2 
  895000    1.1309578    -6.670695    394.33678  0.036716646  0.037306811            2 
  896000    1.1174866   -6.6996983      394.438  0.036685082  0.037298099            2 
  897000     1.102305   -6.6632877    396.01927  0.036791088  0.037289707            2 
  898000    1.1011726   -6.6281832    396.00487  0.036748782   0.03728148            4 
  899000    1.0992725   -6.6371418     396.0933  0.036716101   0.03727301            7 
  900000    1.0933907   -6.6639525    396.66292  0.036728048   0.03726472            6 
  901000     1.099695   -6.6384074    397.50264   0.03676495  0.037256504            3 
  902000    1.1182009   -6.6615877    396.92317  0.036670655   0.03724806            2 
  903000    1.1139075   -6.6822972    397.52831   0.03668589  0.037239802            3 
  904000    1.0937513   -6.6758273    397.27821  0.036622254  0.037231449            3 
  905000    1.1324453   -6.6568217    399.79394  0.036813438  0.037223739            2 
  906000    1.1012801   -6.6660544    399.73398  0.036767291  0.037216055            1 
  907000    1.1427199   -6.6976871    399.20469  0.036678123  0.037208142            2 
  908000    1.1054632   -6.6650059    401.28649  0.036828789  0.037200509            7 
  909000    1.1217331   -6.6595466    400.81914  0.036745429  0.037192692            1 
  910000    1.0985351   -6.6587872    401.20356  0.036740253  0.037184809            2 
  911000    1.1074213    -6.681476     400.9609  0.036677726  0.037176811            2 
  912000    1.1176852   -6.6517901    402.41783  0.036770635  0.037168842            4 
  913000    1.1101856   -6.6508855     401.2578   0.03662448  0.037161102            4 
  914000    1.0940953    -6.645253     403.0728  0.036749891  0.037153342            7 
  915000    1.0820574   -6.6674836    403.69276   0.03676619    0.0371458            2 
  916000    1.1110901   -6.6703158    404.51337  0.036800707  0.037138099            2 
  917000    1.1108732    -6.677053      404.327  0.036743639  0.037130493            2 
  918000    1.1106866   -6.6288112    405.45464  0.036805977  0.037123026            1 
  919000    1.1039374   -6.6611004    405.52375  0.036772193  0.037115825            2 
  920000    1.0894143   -6.6709392     405.6032   0.03673942  0.037108343            5 
  921000    1.1066853   -6.7026664    405.05373  0.036649813  0.037100892            3 
  922000    1.0971746   -6.6538218    406.33512  0.036725878  0.037093286            3 
  923000    1.0986576   -6.6505911    405.20914   0.03658443  0.037085746            3 
  924000    1.0982415   -6.6232795    407.01393  0.036707606  0.037077981            3 
  925000    1.0883417   -6.6794558    406.97813  0.036664696  0.037070431            2 
  926000     1.126659    -6.687341    406.17095  0.036552461  0.037062538            2 
  927000    1.0875166   -6.6776743    407.23482  0.036608668  0.037054501            3 
  928000    1.0997395   -6.6718823    407.63641  0.036605281  0.037046447            5 
  929000    1.1035001   -6.6658904    407.79509  0.036580112  0.037038415            2 
  930000    1.1163091   -6.7132433    407.81568  0.036542623  0.037030334            4 
  931000    1.0986248   -6.6659884    408.73017  0.036585228  0.037022361            2 
  932000    1.0953781   -6.6663346    409.41318  0.036607044  0.037014748            2 
  933000     1.119223   -6.6680676    410.14836  0.036633473  0.037007138            3 
  934000    1.1004624   -6.6877025     409.7501  0.036558717  0.036999573            4 
  935000    1.1141858   -6.6820113    409.65324  0.036510984  0.036991723            1 
  936000    1.0968053    -6.652089    411.64671  0.036649457  0.036984089            2 
  937000    1.1310828   -6.7237741    411.10465  0.036562135  0.036976474            4 
  938000     1.106891   -6.6960905    411.40709  0.036550026  0.036968914            3 
  939000    1.0970017   -6.6599438    413.29337  0.036678502  0.036961636            2 
  940000    1.1218116   -6.6863747    413.29926  0.036640005  0.036954233            2 
  941000    1.1032054   -6.6196285    413.17485  0.036590051  0.036946839            1 
  942000    1.1112581   -6.6490935    413.02467  0.036537922  0.036939404            4 
  943000    1.0924275   -6.6521969    414.38025  0.036618969  0.036931624            2 
  944000    1.1124034   -6.6693574    413.31193  0.036485869  0.036924046            1 
  945000    1.1230716   -6.6614572    413.88233   0.03649756  0.036916363            2 
  946000    1.1148279   -6.6414276    413.73612  0.036446099  0.036908803            2 
  947000    1.0878874   -6.6877045    413.78075  0.036411541  0.036900992            2 
  948000    1.1104126   -6.6530124    416.13682  0.036580241  0.036893207            5 
  949000    1.1017746   -6.6773286    415.92464  0.036523063  0.036885544            3 
  950000    1.0865429   -6.6544581    416.17886  0.036506917  0.036877718            2 
  951000    1.1066958   -6.6547536    416.76036  0.036519485  0.036870121            2 
  952000    1.0962124   -6.6647507    416.81046  0.036485509  0.036862292            4 
  953000    1.0777734   -6.6633436    415.75401  0.036354845  0.036854849            3 
  954000    1.0734692   -6.6397471    419.17076  0.036615196  0.036847685            2 
  955000    1.0992533   -6.6717651    418.97211  0.036559521  0.036840653            2 
  956000    1.0676509   -6.6874391    419.94784  0.036606332  0.036833465            2 
  957000    1.1029919   -6.6827678    418.42461  0.036435441  0.036826304            3 
  958000    1.1068605   -6.6456702    420.50978  0.036578791  0.036818877            3 
  959000    1.0977337   -6.6660124    419.71542  0.036471621  0.036811649            3 
  960000    1.1149616   -6.7186541     420.7543   0.03652381  0.036804404            4 
  961000    1.1004231   -6.6625237    420.21722  0.036439232  0.036796841            3 
  962000    1.0960037   -6.6932912    419.29678   0.03632162  0.036788843            3 
  963000    1.1074365   -6.6940975    420.23212  0.036364843  0.036780846            3 
  964000    1.0878373   -6.7161802    419.66422  0.036278027   0.03677286            2 
  965000    1.0717678   -6.6549096    419.85888  0.036257243  0.036764562            2 
  966000    1.0981727   -6.6554986    420.52561  0.036277227  0.036756564            3 
  967000    1.0999193   -6.6883958    419.86821  0.036183059  0.036748445            3 
  968000    1.0954113   -6.6911823    419.86947  0.036145787  0.036740175            2 
  969000    1.1172735   -6.6695523    420.37559  0.036152012  0.036731589            4 
  970000    1.0651869   -6.6397789    421.80669  0.036237688   0.03672316            2 
  971000    1.0742023   -6.7494368    420.36197  0.036076379  0.036714343            4 
  972000    1.1004647   -6.7159728    421.08553  0.036101297  0.036705191            1 
  973000    1.1034314   -6.6356055    421.87256    0.0361316  0.036696264            2 
  974000    1.0782409   -6.7066066    420.50609  0.035977592  0.036687213            1 
  975000    1.0728017   -6.6827765    422.64197  0.036123245  0.036678093            5 
  976000    1.1013048   -6.6793866    421.96202  0.036028178  0.036669103            2 
  977000    1.1009604   -6.7342526     423.3677  0.036111199  0.036659935            3 
  978000    1.1263221   -6.6799716    423.72483  0.036104706  0.036651095            3 
  979000     1.092803   -6.6880736    423.47711  0.036046741  0.036642371            4 
  980000     1.081892   -6.6878514    424.39457  0.036087973  0.036633602            7 
  981000    1.1145027   -6.7166283    423.18963  0.035948831  0.036624741            3 
  982000    1.0845387   -6.7309775    424.77207  0.036046509  0.036615883            2 
  983000     1.109559   -6.6860724    425.07612  0.036035616  0.036607197            2 
  984000    1.1269705   -6.6578542    425.70574  0.036052315  0.036598611            3 
  985000    1.1072742   -6.6866543    426.15295  0.036053549  0.036589867            4 
  986000    1.1026965   -6.6772424    426.44884  0.036041991  0.036581233            2 
  987000    1.0950511   -6.6732219    425.86697  0.035956346   0.03657253            3 
  988000    1.0964602   -6.6859783    428.08562  0.036107087  0.036563924            2 
  989000    1.0790803   -6.6886937    427.81451  0.036047734  0.036555092            3 
  990000    1.0984194   -6.7261139      427.448  0.035980472  0.036546343            2 
  991000    1.1045596   -6.7051533    427.98966  0.035989712  0.036537614            4 
  992000    1.0936323   -6.6253626    429.78713  0.036104429  0.036529221            5 
  993000    1.1111308   -6.7258291    427.05579  0.035838854  0.036520659            5 
  994000     1.119145   -6.6698749    429.88902  0.036040327   0.03651218            3 
  995000    1.0911733   -6.6703251    431.25301  0.036118342  0.036503595            2 
  996000    1.1046276   -6.6630391    430.61693  0.036028859  0.036495161            2 
  997000    1.0729535   -6.6834373    429.30353  0.035882943  0.036486837            3 
  998000    1.1295275    -6.676278    431.90235   0.03606399  0.036478585            4 
  999000    1.0948658   -6.6788193    431.86309  0.036024615  0.036470208            3 
 1000000    1.1186858   -6.6541347    432.20984  0.036017487  0.036461875            5 
 1001000    1.0805165   -6.7032277    430.96842  0.035878157  0.036453315            7 
 1002000    1.0759427   -6.7282398    432.63649  0.035981079   0.03644492            2 
 1003000    1.0907835    -6.697119    432.35163  0.035921538  0.036436617            3 
 1004000    1.1036261   -6.7064125    432.95212  0.035935601  0.036428314            2 
 1005000    1.0752356   -6.6893743    433.32899  0.035931094  0.036420008            2 
 1006000    1.0824977   -6.6851207     434.0924  0.035958615  0.036411666            3 
 1007000    1.1006001     -6.68934    434.27016  0.035937616  0.036403497            3 
 1008000    1.0773622   -6.6582676    434.93339  0.035956795   0.03639519            2 
 1009000    1.0725527   -6.6740174    435.55667  0.035972635  0.036386969            2 
 1010000    1.0848728   -6.7159314     435.1429   0.03590288  0.036378479            3 
 1011000    1.0762506   -6.6979432    436.49944  0.035979182  0.036370011            3 
 1012000    1.0829021   -6.6789772    435.80357  0.035886328  0.036361637            3 
 1013000    1.1036988   -6.6602376    436.65547  0.035920983  0.036353061            4 
 1014000     1.058821   -6.7344668    434.79491  0.035732652    0.0363443            3 
 1015000    1.0632253   -6.6916137     435.3618   0.03574399  0.036335291            4 
 1016000    1.0881586   -6.6570987    436.93041  0.035837468  0.036326603            5 
 1017000    1.0662502   -6.6447476    436.81633  0.035792882  0.036318081            2 
 1018000    1.0875158   -6.6773774    437.29229  0.035796684  0.036309778            2 
 1019000    1.0736232    -6.704563    438.17469  0.035833717  0.036301222            3 
 1020000    1.0923375    -6.695985    437.99569  0.035783962  0.036292663            2 
 1021000    1.0908781   -6.6802257    438.16175  0.035762467  0.036284207            2 
 1022000    1.0812632   -6.7005052    439.11868  0.035805502  0.036275613            5 
 1023000    1.0978788   -6.6652441    438.00411  0.035679709  0.036266832            3 
 1024000    1.0710722   -6.6828015    438.29611  0.035668629  0.036257903            2 
 1025000    1.0580313   -6.7042912    439.13168  0.035701762  0.036249033            7 
 1026000    1.1079112   -6.6535556    439.87975  0.035727725  0.036240223            4 
 1027000    1.0864167   -6.7278574    439.97321   0.03570052   0.03623158            2 
 1028000    1.1057614   -6.6886659    442.09397  0.035837708  0.036222923            2 
 1029000    1.0904518   -6.7142681    440.93356  0.035708905  0.036214432            8 
 1030000     1.092632   -6.6967315    441.24396  0.035699349   0.03620577            4 
 1031000     1.095652   -6.6925395    442.15674  0.035738502  0.036197255            2 
 1032000    1.0743485   -6.6927191    443.19222  0.035787485  0.036188941            3 
 1033000     1.087633   -6.6808071    443.28878  0.035760631  0.036180567            2 
 1034000    1.0792171   -6.6737208      442.958  0.035699388  0.036172697            4 
 1035000    1.0716025   -6.6923797    444.04483  0.035752402  0.036164787            2 
 1036000     1.090417   -6.6946362    443.12165  0.035643634  0.036156542            3 
 1037000    1.0959221   -6.6888371    444.11356  0.035688971  0.036148079            2 
 1038000    1.0689996   -6.7156028    444.54861  0.035689516  0.036139765            3 
 1039000    1.0921122   -6.6746486    445.37617  0.035721541  0.036131658            3 
 1040000    1.0591102   -6.7147815    445.54446  0.035700678  0.036123574            2 
 1041000    1.0929827   -6.7145297    445.57664  0.035668959  0.036115439            2 
 1042000    1.0776616   -6.7291527    446.24909  0.035688507  0.036107094            4 
 1043000    1.0774312   -6.7001133    446.84715  0.035702073  0.036098858            2 
 1044000    1.0982356   -6.6909991    447.15739   0.03569264  0.036090611            2 
 1045000    1.0643368   -6.6752977    446.49962   0.03560603   0.03608272            2 
 1046000    1.0577712   -6.7123958    447.18034  0.035626222  0.036074622            3 
 1047000    1.0746337   -6.6869104    448.40969  0.035690042  0.036066426            3 
 1048000    1.0657945   -6.7154711    447.98019  0.035621834  0.036058353            2 
 1049000    1.0674397    -6.741049    448.63308  0.035639742  0.036050232            3 
 1050000    1.0894287   -6.6970968    449.76392   0.03569555  0.036042241            2 
 1051000    1.0790834    -6.676562    450.54453   0.03572348  0.036034285            2 
 1052000    1.0965705   -6.7017513    450.20504   0.03566263  0.036026378            3 
 1053000    1.0784139   -6.7032768    450.75476  0.035672267  0.036018732            2 
 1054000    1.1024917   -6.7493035    449.37859  0.035529617  0.036010599            4 
 1055000     1.074675   -6.7058673     451.4053  0.035656027   0.03600282            2 
 1056000    1.0705823     -6.72569    451.35655  0.035618415  0.035995057            3 
 1057000    1.0671556   -6.7710633    449.78487  0.035460806  0.035987303            2 
 1058000    1.0770273   -6.7285862     451.9864  0.035600693  0.035979368            3 
 1059000    1.0729502   -6.6885427    454.20356  0.035741545  0.035971383            3 
 1060000    1.1049039   -6.7323861    450.63555  0.035427323    0.0359635            3 
 1061000     1.076412   -6.7588346    452.34061  0.035527852  0.035955295            1 
 1062000    1.0938479   -6.7205953    453.51573  0.035586608  0.035947323            5 
 1063000    1.0682496   -6.6975249    454.79989  0.035653802  0.035939666            2 
 1064000    1.0984461    -6.737555    454.36306  0.035586079  0.035932152            2 
 1065000    1.0820765   -6.6875619    454.93874   0.03559771  0.035924851            1 
 1066000    1.0870284   -6.7367559     455.2089  0.035585436  0.035917381            2 
 1067000    1.0751129   -6.7182722    457.03804  0.035694942  0.035909989            2 
 1068000    1.0596028   -6.6752533    457.94183  0.035732041  0.035902869            5 
 1069000    1.0858523   -6.7067182    457.83492  0.035690281  0.035895842           13 
 1070000    1.0703663   -6.7152782    458.52553  0.035710711  0.035888793            2 
 1071000     1.060606   -6.7329515    458.11563  0.035645474  0.035881513            4 
 1072000    1.0884831   -6.7092453    457.64336   0.03557551  0.035874205            3 
 1073000    1.0882049   -6.6862343    459.90836  0.035718263  0.035867266            2 
 1074000    1.1051839   -6.7078454    460.34384  0.035718795  0.035860264            2 
 1075000    1.0828847   -6.7150951    459.18152  0.035595466  0.035853201            3 
 1076000     1.079684   -6.7126445    462.13239  0.035790922  0.035846091            2 
 1077000    1.0630926   -6.7093428    459.53965  0.035557076  0.035839229            3 
 1078000    1.0829514   -6.6619663    461.07502  0.035642781  0.035832371            2 
 1079000    1.0777277   -6.7071699     462.0779  0.035687203   0.03582557            3 
 1080000    1.0933931   -6.6971388    461.12094  0.035580319  0.035818771            3 
 1081000    1.0912669   -6.6857123    462.07495  0.035620949  0.035811798            2 
 1082000    1.0642273   -6.7691107    461.59014  0.035550688   0.03580465            5 
 1083000    1.0809137   -6.7106439    463.09415  0.035633591   0.03579763            2 
 1084000    1.1028069   -6.7312045    463.17482  0.035606921  0.035790692            3 
 1085000    1.0773465   -6.7136565      462.515  0.035523425  0.035783622            4 
 1086000    1.0624407   -6.6947542    463.45209  0.035562622  0.035776486            1 
 1087000    1.0538577   -6.7347681    464.09356  0.035579083  0.035769468            2 
 1088000    1.0872507   -6.7151522    464.84411  0.035603868  0.035762682            2 
 1089000    1.0543026    -6.681341    466.65336  0.035709623  0.035756549            2 
 1090000    1.0646207   -6.7083897    465.89749  0.035619074  0.035749961            4 
 1091000    1.0928916   -6.6881408    468.13961  0.035757685  0.035743563            4 
 1092000    1.0871323   -6.7113362    466.14873  0.035573011   0.03573703            1 
 1093000    1.0920877   -6.6817921    467.74458  0.035662136  0.035730656            1 
 1094000    1.0923461   -6.7049619    468.30307   0.03567208  0.035724097            2 
 1095000    1.0822102   -6.7159737     469.0707  0.035697922  0.035717797            1 
 1096000     1.083139   -6.6943025    468.77671  0.035642998  0.035711286            2 
 1097000    1.1003484   -6.6926636    468.84704  0.035615849  0.035705034            2 
 1098000    1.0787839   -6.7423207    468.23649  0.035537074  0.035698551            3 
 1099000    1.0932015   -6.7018699    467.85916  0.035476127  0.035691855            3 
 1100000    1.0885416    -6.692141    470.24552   0.03562466  0.035685151            5 
 1101000    1.0780821   -6.6755676    471.79622  0.035709674  0.035678755            2 
 1102000    1.0951821   -6.7136491    469.27529  0.035486637  0.035672115            6 
 1103000    1.0816326   -6.7100648    471.29322  0.035606922  0.035665442            3 
 1104000    1.0895313   -6.7449582    469.93828  0.035472394  0.035658533            2 
 1105000    1.0985859   -6.7184396    471.82594   0.03558265  0.035651879            9 
 1106000    1.0671894   -6.7172149    471.78425  0.035547337  0.035645359            4 
 1107000    1.0821116   -6.7541366    470.34609  0.035406963  0.035638635            3 
 1108000    1.0760531   -6.7313155    472.18316  0.035513174  0.035632016            4 
 1109000     1.074264   -6.7094918     471.4623  0.035426984   0.03562557            2 
 1110000     1.109523   -6.7322904    473.14771    0.0355216   0.03561925            1 
 1111000    1.0618725   -6.7426367    472.18468  0.035417393  0.035612816            2 
 1112000    1.0960051   -6.6969828    472.46732  0.035406724  0.035606202            3 
 1113000    1.0718434   -6.7011723    474.24748  0.035508197  0.035599453            3 
 1114000    1.0840887   -6.7344348    475.14592  0.035543531  0.035592757            5 
 1115000    1.0795624   -6.7237297    475.02573   0.03550267  0.035586399            3 
 1116000    1.0843493   -6.7230917    473.91735  0.035388094  0.035579998            3 
 1117000    1.0761441   -6.7212923    475.94334  0.035507561  0.035573335            2 
 1118000    1.0822018   -6.7488651      474.995  0.035405113    0.0355667            2 
 1119000    1.0762137    -6.675967    477.63492  0.035570071  0.035560257            1 
 1120000    1.0948645   -6.7236281    477.78611  0.035549562  0.035554029            1 
 1121000    1.0815536   -6.7535686    477.51606  0.035497774   0.03554784            4 
 1122000    1.0636211    -6.705665    478.51294  0.035540177  0.035541395            2 
 1123000    1.0779185   -6.7186048    478.64011  0.035517966  0.035535142            3 
 1124000     1.077567   -6.7289764    478.76291  0.035495471  0.035528884            5 
 1125000    1.0817279   -6.7231867    478.70632  0.035459727  0.035522546            2 
 1126000    1.0732206   -6.7811066    478.81109   0.03543599  0.035516159            7 
 1127000    1.0752665   -6.7252217    480.16181  0.035504423   0.03550993            3 
 1128000    1.0691356   -6.7189487      481.095  0.035541888  0.035503748            2 
 1129000     1.070693   -6.7470307    479.02238  0.035357424  0.035497925            2 
 1130000    1.0730452   -6.7065329    481.11157  0.035480204  0.035491934            5 
 1131000    1.0557437   -6.7076822    480.77722  0.035424198  0.035485838            4 
 1132000    1.0800323   -6.7306337    482.57487  0.035525241  0.035479799            4 
 1133000    1.0398649   -6.7339595    482.42397  0.035482787  0.035473755            2 
 1134000    1.0857426    -6.713792      482.617  0.035465682  0.035467816            6 
 1135000    1.0699642   -6.7015257    481.92001   0.03538326   0.03546191            4 
 1136000    1.0734787   -6.7564472    482.87466  0.035422143  0.035455859            3 
 1137000    1.0790719   -6.7092124    482.72082  0.035379714  0.035449771            2 
 1138000    1.0526245   -6.7319185    483.86182  0.035432178  0.035443899            4 
 1139000    1.0641134    -6.745155    484.10702  0.035419009  0.035438086            4 
 1140000    1.0640697   -6.7684028    483.92245  0.035374448  0.035432089            4 
 1141000     1.088032   -6.7436904    483.78567  0.035333455  0.035425834            2 
 1142000     1.092575   -6.7400449    484.38369  0.035346154  0.035419911            2 
 1143000    1.0614781   -6.7032674    487.22067  0.035522067  0.035414059            2 
 1144000    1.0884526   -6.7351022    486.16795  0.035414332  0.035408067            2 
 1145000    1.0727311   -6.7464748    486.16491  0.035383181  0.035402094            5 
 1146000     1.052482   -6.7261757    486.41822  0.035370726   0.03539582            2 
 1147000    1.0517837    -6.751991    486.55344  0.035349712   0.03538969            2 
 1148000    1.0687737   -6.7437841    487.49291  0.035387116  0.035383488            2 
 1149000    1.0774262   -6.7703298    486.29236  0.035269246  0.035377331            2 
 1150000    1.0575508   -6.7030436    491.05431  0.035583646  0.035371498            2 
 1151000    1.0763055   -6.6996676    488.46448  0.035365225  0.035365628            2 
 1152000    1.0809222    -6.764523    489.95771  0.035442543  0.035359769            6 
 1153000    1.0346819    -6.734348    490.23811  0.035432069  0.035353775            2 
 1154000    1.0818836   -6.6967967    489.83657  0.035372369  0.035348001            3 
 1155000     1.062398   -6.7095063    490.19665  0.035367723   0.03534228            2 
 1156000    1.0327426   -6.7262723    490.29936  0.035344533  0.035336283            2 
 1157000    1.0902699   -6.7509162    489.35645  0.035246071  0.035330175            3 
 1158000    1.0702472   -6.8036178    489.13947   0.03520002   0.03532373            4 
 1159000    1.0379909   -6.7406929    489.40568  0.035188789  0.035317273            5 
 1160000     1.051374   -6.7440995    489.23297  0.035146047  0.035310827            2 
 1161000    1.0744438   -6.7492838    489.55439  0.035138845  0.035304512            9 
 1162000    1.0735691   -6.7220337    491.32804  0.035235803  0.035298002            3 
 1163000    1.0762241    -6.734962    491.31585  0.035204633  0.035291509            3 
 1164000    1.0634689    -6.732601    490.38685  0.035107878  0.035285168            3 
 1165000    1.0647222   -6.7584079    491.69567  0.035171364  0.035278743            4 
 1166000     1.083407   -6.7467797    491.73274  0.035143849  0.035272186            6 
 1167000    1.0855674   -6.7629456    491.00853   0.03506202  0.035265511            2 
 1168000    1.0604369   -6.7569365    491.61366  0.035075175  0.035258714            2 
 1169000    1.0352158   -6.7329084    492.69667  0.035122375  0.035252065            3 
 1170000    1.0579679   -6.7397266     493.4988  0.035149487  0.035245574            3 
 1171000    1.0690927   -6.7407155      492.634  0.035057928  0.035239087            3 
 1172000    1.0490965   -6.7358557    493.80267  0.035111111  0.035232618            3 
 1173000    1.0615726   -6.7360119    494.79156  0.035151432  0.035225701            3 
 1174000    1.0604369    -6.729447    493.04464   0.03499749  0.035218851            2 
 1175000    1.0649396   -6.7457046    495.68746  0.035155139  0.035212125            3 
 1176000    1.0938067   -6.7389373     495.5268  0.035113861  0.035205369            2 
 1177000    1.0750729   -6.7345236    495.82108  0.035104862  0.035198653            3 
 1178000    1.0437595    -6.738829    494.75463   0.03499962  0.035191907            2 
 1179000    1.0665454   -6.8084405    495.40612  0.035015983  0.035185153            3 
 1180000    1.0742371   -6.7451718     496.3656  0.035054068  0.035178331            2 
 1181000    1.0670725   -6.7278292    495.58857  0.034969557  0.035171725            1 
 1182000    1.0755967    -6.731913    496.84268  0.035028389  0.035164996            2 
 1183000    1.0469086     -6.73455    496.62196  0.034983232  0.035158041            2 
 1184000    1.0756103   -6.7428602     497.1496  0.034990822  0.035150949            1 
 1185000    1.0567902   -6.7638859    497.17035  0.034962753     0.035144            2 
 1186000    1.0530034   -6.7404686    498.45143  0.035023288  0.035137146            2 
 1187000    1.0482423   -6.7505203    497.96528  0.034959652  0.035129987            4 
 1188000    1.0607788   -6.7190808     499.2746  0.035022068  0.035122767            3 
 1189000    1.0453206   -6.7422985    500.53208  0.035080746  0.035115945            4 
 1190000    1.0422096   -6.7684535    498.32057  0.034896399  0.035108911            4 
 1191000    1.0403036   -6.7410964     498.6659  0.034891261  0.035101813            3 
 1192000     1.078648   -6.7557304    500.39218  0.034982675  0.035094882            2 
 1193000    1.0544267   -6.7549183    499.36917  0.034881892  0.035088078            3 
 1194000    1.0539568   -6.7538126    500.97216  0.034964556  0.035081244            5 
 1195000    1.0531436   -6.7727397    501.02568  0.034939029  0.035074496            4 
 1196000    1.0469592   -6.7743232    502.35137  0.035002186   0.03506781            3 
 1197000    1.0720295   -6.7469794    502.13702  0.034958021  0.035061164            3 
 1198000    1.0579584   -6.7396992    502.77069  0.034972919  0.035054323            3 
 1199000    1.0777107   -6.7322442    502.29834  0.034910922   0.03504736            2 
 1200000    1.0429614   -6.7138571    502.06352  0.034865522  0.035040502            5 
 1201000    1.0401201   -6.7374276    502.16928   0.03484383  0.035033571            2 
 1202000    1.0746159   -6.7340617    503.13949  0.034882105  0.035026601            4 
 1203000    1.0506149   -6.7189715    502.96846  0.034841262  0.035019687            3 
 1204000    1.0644084   -6.7704891    501.95534  0.034742203  0.035012547            4 
 1205000    1.0691074   -6.7663408    501.92851  0.034711515  0.035005219            2 
 1206000    1.0671252   -6.7713203    503.41912  0.034785732  0.034997999            4 
 1207000    1.0573988    -6.741262    503.52376  0.034764137  0.034990861            2 
 1208000    1.0542042    -6.766257    502.43837  0.034660483  0.034983447            3 
 1209000    1.0541383   -6.7531821    505.24013  0.034824933  0.034976034            5 
 1210000    1.0423071   -6.7537704    503.51206  0.034677139  0.034968727            4 
 1211000    1.0506675   -6.7430702    504.00663  0.034682537  0.034961203            2 
 1212000    1.0445511   -6.7317566    504.66608  0.034699263  0.034953871            5 
 1213000    1.0388017   -6.7371578    504.16291  0.034636089  0.034946433            2 
 1214000    1.0579449   -6.7700858     505.1848  0.034677705  0.034938989            2 
 1215000    1.0335983   -6.7617703    505.82251  0.034692902  0.034931485            2 
 1216000       1.0761   -6.7995757    505.19336  0.034621255  0.034924231            4 
 1217000    1.0751809   -6.7826481    505.05298  0.034583195    0.0349167            4 
 1218000    1.0570006   -6.7821336    506.39584  0.034646677   0.03490921            1 
 1219000    1.0533915   -6.7318126    508.48761  0.034761253  0.034901713            3 
 1220000    1.0351509   -6.7857176    507.32706  0.034653488  0.034894486            4 
 1221000    1.0549919   -6.7301318    507.59537  0.034643419    0.0348873            3 
 1222000    1.0557471   -6.7669444     507.7613  0.034626385  0.034880369            2 
 1223000    1.0457112   -6.7630781    508.29912  0.034634718  0.034873367            6 
 1224000    1.0179695   -6.7856352    507.92619  0.034581031  0.034866174            4 
 1225000    1.0671554   -6.7433865    509.11169  0.034633449  0.034858768            4 
 1226000    1.0400048   -6.7875452     507.6166  0.034503576  0.034851467            3 
 1227000    1.0592317   -6.7062685    510.15423  0.034647802  0.034844207            2 
 1228000    1.0523242   -6.7465338    509.96489  0.034606738  0.034836978            3 
 1229000    1.0477733   -6.7639159    510.06958  0.034585678  0.034829905            4 
 1230000    1.0589031   -6.7593322    509.92888  0.034548027  0.034822626            3 
 1231000    1.0537585   -6.7458023    510.20663  0.034538765  0.034815366            3 
 1232000    1.0620407   -6.7647642    512.26156  0.034649727   0.03480815            2 
 1233000     1.079038   -6.7100482    513.15165  0.034681782  0.034801112            4 
 1234000    1.0472889   -6.7357515    512.09792  0.034582517  0.034793919            1 
 1235000     1.053566   -6.7141224    512.76981  0.034599852  0.034786712            3 
 1236000      1.07238    -6.776512    511.22424  0.034467654  0.034779526            3 
 1237000     1.056912   -6.7527093    512.97739  0.034557894  0.034772188            4 
 1238000    1.0719809   -6.7710118    511.60029  0.034437284  0.034764733            2 
 1239000    1.0432552   -6.7802808    514.32559  0.034592789  0.034757517            4 
 1240000    1.0406479   -6.8004323    512.88123  0.034467824  0.034750306            3 
 1241000    1.0599172   -6.7688055    515.36926  0.034607122  0.034743051            2 
 1242000    1.0485292   -6.7675141     513.1114  0.034427765    0.0347355            3 
 1243000     1.047345   -6.8018761    513.87869  0.034451508   0.03472815            7 
 1244000    1.0795212   -6.7871018    514.46592  0.034463151  0.034720864            3 
 1245000    1.0619405   -6.7909715    513.93792  0.034400129  0.034713321            5 
 1246000    1.0555639   -6.7704228    514.70187  0.034423613  0.034705874            4 
 1247000    1.0585161   -6.7806712    515.76217  0.034466865  0.034698499            2 
 1248000    1.0260849   -6.8013283    514.42135  0.034349716  0.034690912            1 
 1249000    1.0384805   -6.8057411    515.63013  0.034402864  0.034683247            5 
 1250000    1.0420186   -6.7891838    514.87941  0.034325294  0.034675427            3 
 1251000    1.0499156    -6.779314    515.52117  0.034340606  0.034667638            4 
 1252000    1.0433774   -6.7735672    516.04401  0.034347977  0.034659762            2 
 1253000    1.0580595   -6.7474787    516.46424  0.034348513  0.034652097           10 
 1254000    1.0146185   -6.7618202    516.64705   0.03433327  0.034644436            2 
 1255000    1.0279268   -6.7946523    516.49086  0.034295542  0.034636714            7 
 1256000    1.0427236   -6.7340883    519.02035  0.034436063  0.034629391            3 
 1257000    1.0461336   -6.7759707    520.58437  0.034512355  0.034622318            1 
 1258000    1.0394741   -6.7397249    518.82282  0.034368231   0.03461498            5 
 1259000    1.0079098    -6.781253    519.39611  0.034378879  0.034607951            2 
 1260000    1.0334993   -6.7634534    521.79662  0.034510359  0.034600702            8 
 1261000    1.0393515   -6.7555618     519.8824  0.034356489  0.034593651            3 
 1262000    1.0359129   -6.8028259     520.0278  0.034338867  0.034586622            1 
 1263000    1.0484494   -6.7576266    521.23249  0.034391164  0.034579322            4 
 1264000    1.0662584   -6.7693991    521.77454  0.034399693  0.034572291            4 
 1265000    1.0519071   -6.7317135    523.83833  0.034508454  0.034565302            2 
 1266000     1.038083   -6.7806619    522.07371  0.034365042  0.034558233            3 
 1267000    1.0652743   -6.7810653    522.12073  0.034341011  0.034551244            2 
 1268000    1.0295105   -6.7654101    523.18923   0.03438415  0.034544122            3 
 1269000    1.0543497   -6.7949993    522.31277  0.034299499  0.034537019            4 
 1270000    1.0354316    -6.719177     525.7364  0.034497139  0.034529992            2 
 1271000    1.0537438   -6.7713241    522.88565  0.034283088  0.034523125            2 
 1272000     1.074339   -6.7699146    524.89422  0.034387724  0.034516226            2 
 1273000    1.0514775   -6.7619693    522.88488  0.034229175  0.034509027            4 
 1274000    1.0467813   -6.7653121    523.81916   0.03426342  0.034501871            7 
 1275000    1.0684805   -6.7599054    524.04981  0.034251622  0.034494802            8 
 1276000    1.0577603    -6.787456    521.93458  0.034086637  0.034487597            3 
 1277000    1.0360634   -6.7146061    527.12206  0.034398464  0.034480398            4 
 1278000    1.0497903   -6.7660911     525.5271  0.034267547  0.034473306            3 
 1279000    1.0546402   -6.7722716    524.28432  0.034159781  0.034465889            2 
 1280000    1.0433347     -6.73512    525.10963  0.034186825  0.034458516            5 
 1281000    1.0596425   -6.7558692    527.06277  0.034287195  0.034451112            5 
 1282000    1.0669358   -6.7674502    525.73244  0.034173975  0.034443789            4 
 1283000    1.0705575   -6.7891586    524.93625  0.034095625  0.034436439            3 
 1284000    1.0564135   -6.8031338    527.25935  0.034219844   0.03442889            4 
 1285000    1.0670827   -6.7494576    526.33766  0.034133441  0.034421508            4 
 1286000     1.049741   -6.7976782    528.49744  0.034246853  0.034414144            6 
 1287000    1.0213771   -6.7688306    527.22923  0.034138127  0.034406897            4 
 1288000    1.0308639   -6.8175919    528.85405  0.034216748  0.034399514            2 
 1289000    1.0290365   -6.8137529    528.40191  0.034160972  0.034392305            2 
 1290000    1.0371309   -6.7901549    528.79203  0.034159692  0.034384948            7 
 1291000    1.0293637   -6.7990131    528.51337  0.034115245  0.034377687            4 
 1292000    1.0544258   -6.8192527    526.58348  0.033964363  0.034370211            3 
 1293000    1.0524921   -6.7716449    529.20254  0.034106892  0.034362855            2 
 1294000    1.0450137   -6.7718666    529.79398  0.034118623  0.034355412            3 
 1295000    1.0710837   -6.7950158    529.69074  0.034085633   0.03434798            2 
 1296000    1.0436581   -6.7883677    530.09021  0.034085019  0.034340568            6 
 1297000    1.0381478   -6.8079391    530.84803  0.034107429  0.034333105            3 
 1298000    1.0259474   -6.7873324    529.74527  0.034010354  0.034325639            4 
 1299000     1.032192   -6.7804172     531.1376  0.034073493  0.034318274            3 
 1300000    1.0416074   -6.8100367    531.30793  0.034058201  0.034310962            3 
 1301000    1.0363108   -6.7677733    532.34064   0.03409817  0.034303756            4 
 1302000    1.0564854   -6.7670252    531.71054  0.034031653  0.034296465            3 
 1303000    1.0618641   -6.8133796     531.5726  0.033996712  0.034289092            5 
 1304000    1.0462849   -6.8181413    529.23832  0.033821467  0.034281366            4 
 1305000     1.048778   -6.7955546     532.6212  0.034011571  0.034273801            3 
 1306000    1.0345711   -6.7719924    532.65577  0.033987734  0.034266199            1 
 1307000    1.0332676   -6.8009164    533.36706  0.034007081  0.034258604            3 
 1308000    1.0224502   -6.7564135    534.65745  0.034063293  0.034251114            5 
 1309000    1.0441589   -6.8109698     534.0229  0.033996874  0.034243696            6 
 1310000    1.0356338   -6.7673071    534.30955  0.033989157  0.034236208            2 
 1311000    1.0345187   -6.8005479    532.33081  0.033837453  0.034228512            5 
 1312000    1.0438108   -6.7954375    533.62759  0.033894029  0.034220552            4 
 1313000    1.0577465   -6.7635143      533.759  0.033876555  0.034212609            4 
 1314000    1.0365251   -6.7859161    533.06134  0.033806529  0.034204688            3 
 1315000    1.0351372   -6.7770854    533.73247   0.03382335   0.03419676            6 
 1316000    1.0434018   -6.8263656    534.21958  0.033828494  0.034188849            1 
 1317000    1.0583388   -6.7469579    534.72961  0.033835081  0.034181082            3 
 1318000     1.040572   -6.8018752      534.922  0.033821573  0.034173184            2 
 1319000    1.0421365   -6.7885013    535.26201  0.033817413  0.034165257            2 
 1320000    1.0599293    -6.789091     534.9878  0.033774483  0.034157493            4 
 1321000    1.0307825   -6.8308943    536.75161  0.033860182  0.034149622            1 
 1322000    1.0619928   -6.7815813    535.82954  0.033776446  0.034141791            6 
 1323000    1.0345896   -6.8069542    535.72841  0.033744546  0.034134059            2 
 1324000    1.0521379   -6.7978752    536.90672  0.033793223  0.034126448            6 
 1325000    1.0489002   -6.8050364    537.66995   0.03381572  0.034118731            2 
 1326000    1.0315314   -6.7637958    539.33735  0.033895007  0.034111048            3 
 1327000    1.0411925   -6.7561528    539.15684  0.033858129    0.0341035            2 
 1328000    1.0480056   -6.7854071    538.70638  0.033804366  0.034095678            2 
 1329000    1.0350729   -6.7949893    538.17331  0.033745505  0.034088026            6 
 1330000    1.0276756   -6.7838176    537.48263  0.033676856  0.034080078            5 
 1331000    1.0305375   -6.7886319    538.43962  0.033711471  0.034072302            1 
 1332000     1.048774   -6.7953601    538.14045  0.033667445  0.034064335            3 
 1333000    1.0289785   -6.7859176     538.5334  0.033666754  0.034056331            1 
 1334000    1.0188399   -6.7956402    540.59532  0.033770322   0.03404835            2 
 1335000    1.0180564   -6.7573425    539.78372  0.033694364  0.034040369            5 
 1336000    1.0313452   -6.7857901    538.66643  0.033599453  0.034032512            3 
 1337000    1.0323331   -6.7824604    538.49428  0.033563593  0.034024464            5 
 1338000    1.0264119   -6.7827649    540.60752  0.033670125  0.034016444            4 
 1339000    1.0389371   -6.7670865    540.38674  0.033631238  0.034008505            3 
 1340000    1.0314296   -6.8208467    539.51961  0.033552214  0.034000326            4 
 1341000    1.0394685   -6.8246704    539.95022  0.033553953  0.033992142            2 
 1342000    1.0177656   -6.8237546     539.7275  0.033515121  0.033983916            7 
 1343000    1.0411464   -6.7833492    541.99473  0.033630847  0.033975885            4 
 1344000    1.0360997   -6.8421807    541.95921  0.033603622   0.03396777            3 
 1345000    1.0204973   -6.8093006    543.25299  0.033658797  0.033959835            3 
 1346000    1.0381719   -6.7720262    543.63127  0.033657211  0.033951983            2 
 1347000    1.0640729   -6.8319822    543.14213  0.033601963  0.033944308            9 
 1348000    1.0627807   -6.7932037     543.3847  0.033592031  0.033936297            2 
 1349000     1.021796   -6.7627733     543.9055  0.033599302  0.033928404            4 
 1350000     1.028801    -6.746527    546.63454  0.033742873  0.033920643            2 
 1351000    1.0264536   -6.7822703    545.06764  0.033621246  0.033913022            2 
 1352000    1.0302297   -6.8586054    544.48349  0.033560373  0.033905095            5 
 1353000    1.0221204   -6.8272464    543.25191  0.033459714   0.03389699            3 
 1354000    1.0127952   -6.8069232    544.81591   0.03353126  0.033888975            3 
 1355000    1.0134619   -6.8317436    544.06792  0.033460512  0.033880922            4 
 1356000    1.0287313   -6.7826167    544.92817  0.033488703  0.033872778            2 
 1357000    1.0378316   -6.8127333     544.9931  0.033468012  0.033864692            2 
 1358000    1.0467731    -6.811716    544.87992  0.033436421  0.033856709            6 
 1359000    1.0208479   -6.7386717    546.38778  0.033504279  0.033848608            2 
 1360000    1.0373968    -6.783491    547.98806    0.0335777  0.033840896            2 
 1361000    1.0521271   -6.8483739    546.11501  0.033438343  0.033832871            5 
 1362000    1.0320411    -6.775918    547.72489  0.033512291  0.033824761            4 
 1363000    1.0311277   -6.7956331     547.2692  0.033459843  0.033816635            5 
 1364000    1.0353301   -6.7893202    546.97102  0.033417095  0.033808574            3 
 1365000    1.0341292   -6.8217698    547.14888  0.033403473  0.033800587            2 
 1366000    1.0671557   -6.8127285    547.72942  0.033414435  0.033792672            1 
 1367000   0.99873605   -6.8111462    548.40306  0.033431057  0.033784785            7 
 1368000    1.0312846   -6.7753633    549.90969  0.033498397  0.033776971            4 
 1369000    1.0375875   -6.8342579    547.64547  0.033336101  0.033769076            2 
 1370000    1.0195595   -6.7920055    549.73498  0.033438867  0.033761136            2 
 1371000    1.0370752   -6.8114462    548.66416   0.03334939  0.033753253            5 
 1372000    1.0086511   -6.7876425    551.55608  0.033500733   0.03374526            4 
 1373000    1.0246701   -6.7644784    551.21879  0.033455863  0.033737437            3 
 1374000    1.0442768    -6.803031      550.594  0.033393619  0.033729572            4 
 1375000    1.0403097   -6.8261068    550.00835  0.033333839  0.033721711            2 
 1376000    1.0355185   -6.8082772    551.05253  0.033372852  0.033713658            4 
 1377000    1.0177926   -6.8056793    552.34301  0.033426713  0.033705674            2 
 1378000    1.0306483   -6.7821389    551.02215  0.033322578  0.033697803            5 
 1379000     1.038972   -6.7907966     551.6877  0.033338633  0.033689942            7 
 1380000    1.0317084    -6.769491    552.01982   0.03333453  0.033682063            6 
 1381000     1.027274    -6.791207    552.69656  0.033351229  0.033674108            1 
 1382000    1.0286521    -6.801803    551.71333  0.033267808  0.033666028            2 
 1383000     1.020357   -6.8055353    552.19321  0.033272669  0.033657983            4 
 1384000    1.0161767   -6.8173566    553.51863  0.033328434  0.033649828            4 
 1385000    1.0393028   -6.8271878    551.72899   0.03319669   0.03364167            5 
 1386000    1.0467265   -6.8146512    553.67933  0.033290003  0.033633443            4 
 1387000    1.0300204   -6.8054798    553.82613  0.033274822  0.033625352            2 
 1388000    1.0360421   -6.8103285     554.9035  0.033315532  0.033617377            4 
 1389000    1.0204036   -6.8451589    554.18287  0.033248312  0.033609567            3 
 1390000    1.0613452   -6.8451537    555.52155  0.033304649  0.033601797            4 
 1391000    1.0157159   -6.8212265    557.80274   0.03341737   0.03359418            3 
 1392000    1.0366061   -6.7951738    555.29448  0.033243204  0.033586392            3 
 1393000    1.0312548   -6.8009795    558.19435  0.033392818  0.033578865            2 
 1394000    1.0276712   -6.8083301    557.48959  0.033326733  0.033571297            3 
 1395000    1.0214109   -6.8266135    557.01235  0.033274334  0.033563653            4 
 1396000    1.0141017   -6.8190904    557.21214  0.033262425  0.033556125            8 
 1397000    1.0284466   -6.8161334    558.40072  0.033309515  0.033548558            3 
 1398000    1.0107883   -6.8187493    558.23653  0.033275902  0.033540961            3 
 1399000    1.0366143   -6.8254556    560.39681  0.033380796   0.03353332            2 
 1400000    1.0402939   -6.8535398    558.73865  0.033258253  0.033525797            1 
 1401000    1.0384604   -6.8481245    560.12202  0.033316799  0.033518208            4 
 1402000    1.0522267   -6.8177788    560.01285  0.033286546  0.033510988            7 
 1403000    1.0285506   -6.7950828    560.43504  0.033287897  0.033503731            2 
 1404000    1.0238566   -6.8044502    561.06919  0.033301827  0.033496353            5 
 1405000    1.0254622    -6.809955    560.98925  0.033273384  0.033488967            3 
 1406000    1.0365327   -6.7924414    561.58924   0.03328528  0.033481413            3 
 1407000    1.0227893   -6.7877674    562.72315  0.033328782  0.033473986            3 
 1408000     1.019757   -6.8181141    561.87216  0.033254744  0.033466716            2 
 1409000    1.0508296   -6.8196772    563.32832  0.033317265  0.033459307            3 
 1410000    1.0243345   -6.8526147    560.45016  0.033123532  0.033451881            3 
 1411000    1.0319153   -6.8301813    562.57833  0.033225746  0.033444295            3 
 1412000    1.0262086   -6.8192704    563.07314  0.033231418  0.033436758            2 
 1413000    1.0392162   -6.8005024    562.92013  0.033198875  0.033429154            4 
 1414000    1.0539859   -6.8204566    564.34838   0.03325957  0.033421659            6 
 1415000    1.0520729   -6.8246187    564.14041  0.033223817  0.033414221            3 
 1416000    1.0149154   -6.8210426    563.00215  0.033133366  0.033406743            2 
 1417000     1.030393   -6.8371321    562.69431  0.033091879  0.033399114            6 
 1418000    1.0374062   -6.8736433     563.1904  0.033097696  0.033391435            3 
 1419000    1.0298569   -6.7731108    563.91592  0.033116979  0.033383792            3 
 1420000    1.0267691   -6.8053769    563.83962  0.033089179  0.033376108            4 
 1421000   0.99346035   -6.7904691    565.94035  0.033189089  0.033368371            2 
 1422000     1.015621   -6.8566208    563.27014  0.033009267  0.033360628            5 
 1423000    1.0161056   -6.7992962    564.50347  0.033058296  0.033352933            3 
 1424000    1.0100726   -6.8080949    564.89158  0.033057794  0.033345452            3 
 1425000   0.98751792   -6.8308014    567.66553  0.033196814   0.03333785            2 
 1426000    1.0408895   -6.8183006    567.53726  0.033166039  0.033330263            5 
 1427000    1.0237739     -6.80742    565.70905  0.033036034  0.033322722            4 
 1428000    1.0079239   -6.8164179    566.85806  0.033079952  0.033315205            5 
 1429000     1.038277   -6.8295357    566.93895   0.03306152  0.033307607            3 
 1430000    1.0347315   -6.8501399    568.18135  0.033110801  0.033299874            8 
 1431000    1.0302668   -6.8291101    567.60561  0.033054135  0.033292244            2 
 1432000    1.0357992   -6.8187484     568.9498  0.033109276  0.033284763            5 
 1433000    0.9944255   -6.8674203    567.16034  0.032982109  0.033277096            3 
 1434000    1.0148816   -6.8058173    567.84966  0.032999166  0.033269271            4 
 1435000    1.0318904   -6.8547191    567.21196  0.032939138  0.033261417            2 
 1436000    1.0544066   -6.8309096    565.77582  0.032832859  0.033253559            5 
 1437000    1.0409803   -6.8417161    567.24478  0.032895197  0.033245771            2 
 1438000    1.0369625    -6.841054     569.7405  0.033016951  0.033238288            4 
 1439000    1.0088677   -6.8527751    570.69622  0.033049352  0.033230636            7 
 1440000    1.0058816     -6.82993    567.73315  0.032854927  0.033222966            3 
 1441000    1.0309941   -6.8279589     571.2073  0.033033039  0.033215388            2 
 1442000     1.021987    -6.831264    568.37111  0.032846227  0.033207642            5 
 1443000    1.0285941   -6.8284251    568.68519  0.032841602  0.033199854            4 
 1444000    1.0234757   -6.8279837     569.5921  0.032871197  0.033191898            2 
 1445000   0.99923756   -6.8157126    570.06382  0.032875653  0.033183951            2 
 1446000    1.0224961   -6.8126152    568.91177  0.032786524  0.033175958            3 
 1447000    1.0065183   -6.8341749    569.87811  0.032819518  0.033167852            5 
 1448000    1.0148289   -6.7956826    570.87227  0.032854067  0.033159727            3 
 1449000    1.0074168   -6.8663051    570.88421   0.03283208  0.033151736            3 
 1450000    1.0329575   -6.8213349    571.42393  0.032840456  0.033143683            5 
 1451000     1.037974   -6.8444266    569.82838  0.032726188  0.033135607            4 
 1452000     1.017101   -6.8390941    571.46098  0.032797348  0.033127525            2 
 1453000    1.0351957   -6.8711853    571.30512  0.032765836  0.033119483            4 
 1454000    1.0202404   -6.8389847    571.75801  0.032769258  0.033111338            6 
 1455000    1.0264616   -6.8510611    570.79879  0.032691798  0.033103395            3 
 1456000    1.0125714   -6.8455464    571.50735  0.032709899  0.033095348            7 
 1457000    1.0156814   -6.8011465    572.35856  0.032736134  0.033087492            3 
 1458000    1.0238158   -6.8265849    573.21559  0.032762665  0.033079482            4 
 1459000    1.0249191   -6.8225234    573.60677  0.032762553  0.033071412            2 
 1460000    1.0110951     -6.84679    572.37705  0.032669923   0.03306327            4 
 1461000    1.0163632   -6.8511029    573.18722  0.032693772   0.03305528            3 
 1462000    1.0207963   -6.7983596    574.08239  0.032722435  0.033047329            2 
 1463000   0.99161571   -6.8535097    572.95772  0.032636006  0.033039223            4 
 1464000    1.0306459   -6.7799469    573.35065   0.03263608  0.033031103            7 
 1465000     1.016779   -6.8106881    575.08507  0.032712461  0.033023182            2 
 1466000    1.0129529   -6.8300764    574.31274  0.032646245   0.03301506            5 
 1467000      1.02883   -6.8423312    573.23753  0.032562914  0.033006836            4 
 1468000    1.0270165   -6.8279687    575.14358  0.032648932   0.03299857            6 
 1469000    1.0342654   -6.8526199    573.07885  0.032509579  0.032990373            2 
 1470000    1.0163759   -6.8464643    575.17081  0.032606055  0.032982203            2 
 1471000    1.0216352   -6.8377856    574.25259  0.032531871  0.032974012            3 
 1472000    1.0178468   -6.8423572    574.49083  0.032523258   0.03296574            3 
 1473000    1.0183387   -6.8303381    575.13865  0.032537828  0.032957281            4 
 1474000     1.028875   -6.8298654    575.56632  0.032539932  0.032948927            4 
 1475000    1.0066391   -6.8182475    576.44515  0.032567523  0.032940651            2 
 1476000     1.005294   -6.8447625    576.46729  0.032546708  0.032932284            2 
 1477000     1.032219   -6.8332655    576.38611  0.032520092  0.032923949           16 
 1478000   0.99899137   -6.8329327    577.77243  0.032576254  0.032915948            2 
 1479000   0.99965375   -6.8219874    578.51063  0.032595821  0.032907933            3 
 1480000    1.0153301   -6.8419768    576.65282   0.03246919  0.032899848            4 
 1481000    1.0275247   -6.8582972    578.52057  0.032552362  0.032891672            4 
 1482000    1.0119112   -6.8473889    577.50723  0.032473416   0.03288364            4 
 1483000    1.0238561   -6.8367165    579.16443  0.032544641    0.0328757            5 
 1484000   0.99909945   -6.8735855    577.06676  0.032404917  0.032867586            4 
 1485000    1.0320757   -6.8659551     578.0102  0.032436038  0.032859439            2 
 1486000    1.0132626   -6.8566579     578.7922  0.032458064  0.032851303            2 
 1487000    1.0012588   -6.8318162    579.33634   0.03246673  0.032843071            3 
 1488000    1.0318181   -6.7954322    581.36248  0.032558382  0.032834991            6 
 1489000    1.0176032   -6.8224986    580.18704  0.032470732  0.032826938            6 
 1490000    1.0136848   -6.8306915    581.20958  0.032506128  0.032818751            4 
 1491000    1.0159495    -6.815155    580.01379  0.032417493  0.032810626            1 
 1492000     1.017644   -6.8515881    578.12426  0.032290229  0.032802401            6 
 1493000    1.0247046     -6.87396    580.32991  0.032391712  0.032794114            4 
 1494000    1.0184594   -6.8606233     581.8351  0.032453988  0.032786002            4 
 1495000    1.0196515   -6.8471444    580.84833  0.032377276   0.03277779            4 
 1496000    1.0286789   -6.8429498    581.72251  0.032404329  0.032769574            2 
 1497000    1.0125578   -6.8299489    581.91891  0.032393616  0.032761432            4 
 1498000    1.0023871   -6.8645552    581.78598  0.032364596  0.032753206            3 
 1499000    1.0040753   -6.8532009    582.61439  0.032389059  0.032745091            3 
 1500000    1.0137284   -6.8362795    582.98726  0.032388181  0.032736935            2 
 1501000     1.020659   -6.8622198    583.87984  0.032416158   0.03272889            3 
 1502000    1.0102115   -6.8298841    583.79273  0.032389743  0.032720793            4 
 1503000    1.0242011   -6.8389123    583.55406   0.03235496  0.032712652            4 
 1504000    1.0107949   -6.8530017     582.8416  0.032293971  0.032704579            2 
 1505000    1.0081435   -6.8285621    583.02349  0.032282586  0.032696353            3 
 1506000    1.0212647   -6.8588686    583.73043  0.032300267  0.032688031            5 
 1507000   0.99818745   -6.8528071    584.79243   0.03233756  0.032679665            4 
 1508000    1.0107605   -6.8267821    584.87408  0.032320628  0.032671495            2 
 1509000    1.0251497   -6.8222721    585.48264  0.032332816  0.032663353            2 
 1510000    1.0076933   -6.8332975    584.37527  0.032250291  0.032655162            6 
 1511000    1.0265654   -6.8610712    583.88023  0.032201645  0.032646877            2 
 1512000   0.99525431   -6.8877471    583.86365  0.032179434  0.032638537            4 
 1513000    1.0008947   -6.8475966    584.66986   0.03220257  0.032630077            2 
 1514000   0.98583785   -6.8326672    585.47086  0.032225389  0.032621705            3 
 1515000    1.0011995   -6.8715592    584.95312  0.032175639  0.032613265            2 
 1516000    1.0119406   -6.8542262    585.78446  0.032200113  0.032604873            3 
 1517000    1.0282663    -6.854238    587.51177  0.032273773  0.032596531            4 
 1518000    1.0225994   -6.8430295    584.70484  0.032098421  0.032588143            6 
 1519000    1.0231449   -6.8525815    584.65516  0.032074564  0.032579642            3 
 1520000    1.0267393   -6.8441129    585.77405  0.032114806   0.03257114            6 
 1521000   0.98819239   -6.8312266    585.64985  0.032086887  0.032562681            5 
 1522000    1.0185556   -6.8385583    588.07038  0.032198334  0.032554066            4 
 1523000    1.0339858   -6.8794885    586.36141  0.032083684    0.0325455            2 
 1524000    1.0077627   -6.8347222    587.94804   0.03214939  0.032537093            3 
 1525000    1.0036666   -6.8466247    586.68706  0.032059402   0.03252865            4 
 1526000   0.98081337   -6.8698043      585.394   0.03196778   0.03251999            2 
 1527000    1.0073963   -6.8193132    587.45174  0.032059143  0.032511272            2 
 1528000    1.0100086   -6.8404073    588.27027  0.032082802   0.03250266            3 
 1529000    1.0121509   -6.8374198    587.20821  0.032003935  0.032494071            3 
 1530000    1.0155621   -6.8541534    588.65395  0.032061762  0.032485439            7 
 1531000    1.0157622    -6.814489    588.08489  0.032009846  0.032476743            2 
 1532000    1.0149127   -6.8698334    587.10141  0.031935455  0.032468138            4 
 1533000    1.0201533   -6.8333401    589.25984  0.032031955  0.032459582            3 
 1534000    1.0418338    -6.841333    589.83084  0.032042092  0.032450895            3 
 1535000    1.0037491   -6.8258563    588.76914   0.03196358  0.032442213            4 
 1536000    1.0083927   -6.8676094    588.61661  0.031934495  0.032433506            4 
 1537000    1.0217793   -6.8420703    589.55513  0.031964603  0.032424728            3 
 1538000    1.0026512   -6.8627651    590.10433  0.031973577   0.03241604            3 
 1539000   0.99483275   -6.8481157    591.70589  0.032039522  0.032407402            3 
 1540000     1.002493    -6.844753    589.06445  0.031875782  0.032398745            5 
 1541000   0.99856119   -6.8796431    590.03414  0.031907535  0.032390054            4 
 1542000    1.0166719    -6.866658    589.33351  0.031848979  0.032381362            2 
 1543000    1.0170546   -6.8636558    590.61228  0.031897401  0.032372615            4 
 1544000    1.0117593   -6.8761415    590.15288  0.031851947  0.032363783            2 
 1545000   0.99443358   -6.8751582    590.03545  0.031824997  0.032354989            2 
 1546000    1.0027806   -6.8397507     590.2495   0.03181595    0.0323462            3 
 1547000   0.98422328   -6.8792916    591.08762  0.031840531  0.032337554            3 
 1548000   0.98223909   -6.8504468    589.84572  0.031753107  0.032328879            3 
 1549000    1.0114942   -6.8883944    591.92809  0.031844636  0.032320209            5 
 1550000    1.0156214   -6.8578525    590.95123  0.031771571  0.032311378            3 
 1551000   0.98703714   -6.8427711    592.07182  0.031811295  0.032302664            3 
 1552000    1.0052728   -6.8510998     592.7157   0.03182537   0.03229414            2 
 1553000   0.99314672   -6.8626537    593.22548  0.031832232  0.032285666            3 
 1554000    1.0242261   -6.8922176    593.30626   0.03181608  0.032277149            3 
 1555000    1.0018406   -6.8949217    593.06982  0.031782949  0.032268499            3 
 1556000   0.99233973   -6.8000125    596.18542  0.031929382  0.032259903            3 
 1557000   0.99066478   -6.8244656    594.89173  0.031839634  0.032251421            3 
 1558000    0.9872281   -6.8909925    595.54627  0.031854208  0.032242828            3 
 1559000   0.99893798   -6.8808285    593.61104  0.031730331  0.032234151            4 
 1560000      1.00208   -6.8399648    594.44568  0.031754577  0.032225397            4 
 1561000   0.99270775   -6.8423581    594.97152  0.031762306  0.032216703            3 
 1562000    1.0085849   -6.8849631    595.28609  0.031758754   0.03220799            2 
 1563000    1.0075855   -6.8769644    595.03828  0.031725223  0.032199216            2 
 1564000   0.99238375   -6.8802646    594.83822  0.031694278   0.03219049            2 
 1565000   0.97383215   -6.8756163    595.12637   0.03168937   0.03218178            2 
 1566000   0.99957147   -6.8668084     595.0633  0.031665778  0.032173013            6 
 1567000    1.0081765   -6.8809514    594.51808  0.031616575  0.032164137            1 
 1568000    1.0179935    -6.896393     594.6903  0.031605564  0.032155413            2 
 1569000   0.99433771   -6.8451231    595.17476  0.031611152  0.032146711            3 
 1570000   0.98745855    -6.881071    595.82948  0.031625768   0.03213805            4 
 1571000   0.98404894   -6.8956602    595.47777  0.031586981  0.032129262            8 
 1572000    1.0014307   -6.8504284    597.91021  0.031695834  0.032120414            3 
 1573000    1.0057656   -6.8854602    597.02188  0.031628622   0.03211174            2 
 1574000    1.0002593   -6.8972276    597.33431  0.031625069  0.032102958            3 
 1575000    1.0096017   -6.9102986    596.91428  0.031582766  0.032094189            7 
 1576000     1.022484   -6.8513731    601.17365  0.031787947  0.032085659            8 
 1577000    1.0266676   -6.8750736    598.65455  0.031634673  0.032077219            7 
 1578000    1.0049658   -6.8979447    600.11062   0.03169152    0.0320687            3 
 1579000    1.0003647   -6.8740726    598.73422  0.031598808  0.032060248            3 
 1580000   0.98569816   -6.8692489    598.00899  0.031540559  0.032051591            4 
 1581000   0.97732711   -6.8396431      597.428  0.031489985  0.032043001            4 
 1582000   0.99501369   -6.8989229    599.02292  0.031554094  0.032034277            4 
 1583000   0.99874357   -6.8414697    599.59007  0.031564017  0.032025584            2 
 1584000   0.99071713   -6.8788322    599.60147   0.03154469  0.032016858            2 
 1585000      1.00597   -6.8782652    599.46379  0.031517549   0.03200806            2 
 1586000    1.0105642   -6.8991597    598.83793  0.031464792  0.031999275            9 
 1587000    1.0044077   -6.8766577    598.62542  0.031433807  0.031990423            4 
 1588000   0.99163081   -6.8821932    600.48888  0.031511801  0.031981509            3 
 1589000   0.98482784   -6.8498344    602.13407   0.03157825  0.031972777            3 
 1590000    1.0132869   -6.8856272    600.12678  0.031453186  0.031964171            4 
 1591000   0.98686723   -6.9043719    600.73254  0.031465144  0.031955465            5 
 1592000    1.0050659   -6.8989625    600.73804  0.031445668  0.031946579            5 
 1593000   0.98842362   -6.8512204     601.7261  0.031477615  0.031937732            3 
 1594000    1.0021551   -6.8860117    600.79504  0.031409193   0.03192894            3 
 1595000    1.0064376   -6.8733128     601.3496  0.031418474  0.031920184            2 
 1596000   0.99861186   -6.8694555    602.30226  0.031448531  0.031911253            3 
 1597000   0.99847558   -6.8752942    600.97228  0.031359439   0.03190239            2 
 1598000    1.0233011   -6.8520359    604.09953  0.031502896  0.031893725            4 
 1599000   0.99959268   -6.8584995     603.2155  0.031437122   0.03188516            2 
 1600000    1.0066653   -6.8662923    601.84921  0.031346313  0.031876635            2 
 1601000    1.0025856   -6.8510464    603.39943  0.031407424  0.031868026            4 
 1602000   0.99538645   -6.8628771    604.79916   0.03146063   0.03185935            3 
 1603000   0.99952766   -6.8757613    605.13786  0.031458612  0.031850687            2 
 1604000   0.96213343   -6.8531595    604.47939   0.03140479  0.031841985           10 
 1605000    1.0073164   -6.8998182    605.16079  0.031420602  0.031833362            6 
 1606000    0.9978279   -6.8639467    605.19514  0.031402819  0.031824764            7 
 1607000    1.0070805   -6.8524882    606.02679  0.031426405  0.031816244            4 
 1608000    1.0046784    -6.871406    604.68755  0.031337456  0.031807782            3 
 1609000    1.0211728   -6.8853468     604.0553  0.031285234  0.031799255            5 
 1610000   0.99888572   -6.9006192    606.95734  0.031416011  0.031790564            4 
 1611000    1.0312322   -6.9344761    604.63835  0.031276554  0.031781901            2 
 1612000    0.9832165   -6.8797361    605.83108  0.031318811  0.031773212            3 
 1613000   0.98760466   -6.8998558    605.90457  0.031303191  0.031764523            4 
 1614000   0.98807957     -6.86473    606.75687  0.031327802   0.03175594            2 
 1615000    1.0079758   -6.8693594    608.97615  0.031422918   0.03174741            2 
 1616000    1.0034829   -6.8911462    607.10012   0.03130673  0.031738992            3 
 1617000   0.99585264   -6.9014953    607.68123  0.031317318  0.031730442            4 
 1618000    1.0042099   -6.9127025    607.28385  0.031277496  0.031721896            3 
 1619000    1.0034483    -6.918868    607.68166  0.031278652  0.031713389            2 
 1620000   0.99655301   -6.8804557    611.00146  0.031430116  0.031704833            4 
 1621000    1.0065401   -6.8550044    610.42351  0.031381015  0.031696342            6 
 1622000   0.97718236   -6.8748755    610.51631  0.031366436  0.031687921            3 
 1623000   0.98920398   -6.9057804    608.87024  0.031262592  0.031679443            2 
 1624000   0.99173961   -6.8571879    608.05866  0.031201697  0.031671084            9 
 1625000   0.98990744   -6.8776304    611.17619  0.031342369  0.031662547            2 
 1626000    1.0060637   -6.9044999    609.21883  0.031222777  0.031654055            3 
 1627000   0.99151478   -6.8583379    608.96447  0.031190559  0.031645568            4 
 1628000   0.98167314   -6.8776448    609.01406  0.031173938  0.031637007            5 
 1629000   0.99801691   -6.9109908    610.42512  0.031226986  0.031628545            3 
 1630000   0.97801167   -6.8791865     610.3246  0.031202689  0.031620159            4 
 1631000   0.98012917   -6.9052904    611.17092  0.031226799   0.03161187            3 
 1632000    1.0002611   -6.9108155    610.89441  0.031193546  0.031603424            2 
 1633000   0.98001573   -6.8929564    610.81804  0.031170547  0.031595121            4 
 1634000   0.97848367    -6.867117    614.63791  0.031346283  0.031586821            4 
 1635000    0.9944054   -6.8806798     614.4268  0.031316351  0.031578697            2 
 1636000    0.9645842   -6.8729704    615.86458  0.031370445  0.031570673            4 
 1637000   0.97434177   -6.8918713    614.72372  0.031293205  0.031562624            6 
 1638000   0.99009579   -6.8913842    614.29518  0.031252298  0.031554692            4 
 1639000   0.98715157    -6.879587    613.86609  0.031211414  0.031546552            4 
 1640000    1.0106522   -6.8888817    614.55081  0.031227175  0.031538295            2 
 1641000   0.98508936   -6.8528243    615.19373  0.031240795  0.031530055            4 
 1642000    1.0056606   -6.8919969    614.54336  0.031188762  0.031521889            3 
 1643000   0.97843165   -6.8831767    615.76207  0.031231592   0.03151373            4 
 1644000    1.0104884   -6.9085654    614.94947  0.031171405  0.031505589            4 
 1645000    1.0102734   -6.8947613    616.17702  0.031214641  0.031497397            3 
 1646000   0.97622806   -6.8894274     614.2565  0.031098446  0.031489097            3 
 1647000    1.0031834   -6.8566307     616.6355  0.031199934  0.031480936            5 
 1648000    0.9881647   -6.8422506    615.62447  0.031129878  0.031472854            2 
 1649000    0.9669155   -6.8866042    615.29465  0.031094332  0.031464585            8 
 1650000   0.97559776   -6.8764986    616.97762  0.031160486  0.031456391            4 
 1651000   0.97463143   -6.9075013    616.94431  0.031139931  0.031448226            3 
 1652000   0.99945851   -6.8912652    617.11165  0.031129522  0.031440125            3 
 1653000   0.98006741   -6.9129271    617.67194  0.031138936  0.031432052            2 
 1654000   0.98741421   -6.9038277    617.92584  0.031132902  0.031423884            4 
 1655000   0.97181236   -6.8866059    618.71509  0.031153831  0.031415629            2 
 1656000   0.98111325   -6.8844326    618.01327  0.031099702  0.031407369            4 
 1657000   0.98491534   -6.8812373    617.64974   0.03106265  0.031399188            9 
 1658000   0.97904218   -6.8985768    617.85306  0.031054134  0.031390947            3 
 1659000   0.98958869   -6.9182284     618.1464   0.03105015  0.031382697            4 
 1660000   0.98213847   -6.9150847    618.86014  0.031067276  0.031374509            6 
 1661000   0.99621341   -6.9026854    617.55194  0.030982939  0.031366352            2 
 1662000   0.99242547   -6.8831187    619.65096  0.031069543  0.031358065            4 
 1663000    0.9647322    -6.909142    618.55791  0.030996087  0.031349838            3 
 1664000   0.97812614   -6.8868178    618.75297  0.030987228   0.03134158            5 
 1665000   0.97076898   -6.9344612    619.31422  0.030996708  0.031333456            6 
 1666000   0.99315535   -6.8768307    621.06947    0.0310659   0.03132529            2 
 1667000   0.97167429   -6.8941182    619.73864  0.030980736  0.031317149            3 
 1668000    1.0040536   -6.8639856    621.31764  0.031041049  0.031308893            2 
 1669000    1.0129951   -6.8874035    620.63575  0.030988404  0.031300631            4 
 1670000    1.0013338   -6.9012895    618.55514  0.030866025  0.031292444            3 
 1671000   0.96318699      -6.9131     620.1278  0.030925982  0.031284087            4 
 1672000   0.96095409   -6.8702967    620.72542  0.030937272   0.03127575            3 
 1673000   0.98678451   -6.8654561    620.75972  0.030920488   0.03126755            2 
 1674000   0.98885702   -6.8956165     621.1461  0.030921251  0.031259404            3 
 1675000   0.98708482   -6.9106311    621.66351  0.030928533  0.031251148            4 
 1676000   0.98333499    -6.928837    621.71822  0.030912799  0.031242844            5 
 1677000   0.99852788   -6.8643271     624.2511  0.031020229  0.031234753            3 
 1678000   0.97707362   -6.8824343    625.75834  0.031076596  0.031226656            4 
 1679000      1.01251   -6.9036564    623.21767  0.030931987  0.031218479            2 
 1680000   0.97421937   -6.9211281    622.89734  0.030897685  0.031210239            1 
 1681000   0.98380844   -6.8922841    622.82374  0.030875656  0.031201994            3 
 1682000   0.96751121     -6.87375    624.96507   0.03096339  0.031193831            5 
 1683000   0.99309464   -6.8801978    625.06485  0.030949933  0.031185745            3 
 1684000   0.97319236   -6.9495339    624.61593   0.03090934  0.031177509            4 
 1685000   0.97442992   -6.9067849    624.95673   0.03090785  0.031169415            3 
 1686000   0.98631907   -6.9084469    623.49552  0.030817295  0.031161222            5 
 1687000   0.99562246   -6.8830399     623.8513  0.030816602  0.031152887            3 
 1688000   0.99304768   -6.8897033    625.26759  0.030868266  0.031144648            5 
 1689000   0.98912999   -6.8938808      625.075  0.030840488  0.031136521            3 
 1690000   0.98881468   -6.8973587      626.453  0.030890187  0.031128282            1 
 1691000   0.98678863   -6.9274284    624.28286  0.030764975  0.031120062            2 
 1692000   0.98726363   -6.8980451    624.80474  0.030772495  0.031111778            3 
 1693000   0.99383381   -6.9019425    625.78308  0.030802475  0.031103561            4 
 1694000    1.0031379   -6.9062174    626.63876  0.030826385  0.031095374            5 
 1695000   0.98391947     -6.96504    626.29888  0.030791489  0.031087152            4 
 1696000   0.98637137   -6.9143379    626.06078  0.030761634  0.031078868            3 
 1697000   0.96629739   -6.9000712    625.67821  0.030724721  0.031070675            9 
 1698000   0.98622381    -6.908967    624.99788  0.030673237  0.031062209            3 
 1699000   0.96944081   -6.8932475    625.12947  0.030661638   0.03105381            3 
 1700000   0.98232575   -6.9175587    625.79267  0.030676111  0.031045499            3 
 1701000   0.98425234   -6.9005081     627.9126  0.030761934   0.03103716            2 
 1702000   0.98520609   -6.9001377    627.40059  0.030718791  0.031028772            3 
 1703000   0.97831007   -6.9145877    627.97819  0.030729017  0.031020395            4 
 1704000   0.96264187   -6.9178207    627.04365   0.03066528  0.031012179            4 
 1705000   0.98643701   -6.8910899     626.9357  0.030642018  0.031003861            2 
 1706000   0.98866199   -6.9241228    629.30264  0.030739676  0.030995572            7 
 1707000   0.96832866   -6.8804497    629.04044  0.030708867  0.030987273            3 
 1708000   0.96142913   -6.9470588    626.58976  0.030571319  0.030978923            3 
 1709000   0.95240221   -6.9194108    628.21576  0.030632717  0.030970662            3 
 1710000   0.98549839   -6.9379657    628.31266  0.030619525  0.030962267            3 
 1711000   0.97169254    -6.910791    628.74664  0.030622766  0.030953917            4 
 1712000   0.97805317   -6.9577768    627.10468  0.030524955  0.030945619            4 
 1713000   0.99735427   -6.9101913    628.76072  0.030587698  0.030937246            2 
 1714000    0.9665443   -6.8784733     631.7932  0.030717289  0.030928935            4 
 1715000   0.99405019    -6.930186     630.5373  0.030638353  0.030920689            3 
 1716000   0.96515002   -6.9345078    630.16633  0.030602483  0.030912379            2 
 1717000   0.97185375   -6.9162862    629.46777  0.030550756  0.030904002            4 
 1718000   0.99159896   -6.8860014      630.696  0.030592549  0.030895733            6 
 1719000   0.98344675   -6.9316498    630.47333  0.030563958  0.030887406            3 
 1720000   0.98717756   -6.9515214    630.60181  0.030552413  0.030879176            6 
 1721000   0.98291589   -6.9006711    630.15379  0.030512967  0.030870839            3 
 1722000   0.96483297   -6.9465394    630.72235  0.030522762  0.030862602            3 
 1723000    1.0043036   -6.9023025    631.33131  0.030534499  0.030854299            3 
 1724000   0.97591223   -6.8997531    632.61144  0.030578666  0.030846035            2 
 1725000   0.96937707   -6.8884475    632.85558  0.030572733  0.030837761            3 
 1726000   0.96290278   -6.9019582    632.25828  0.030526182  0.030829477            2 
 1727000   0.97340516   -6.8898142     631.5438   0.03047403  0.030821165            2 
 1728000   0.96506893   -6.9299257    632.98113   0.03052571  0.030812791            4 
 1729000   0.98232174   -6.9180436    631.95752   0.03045872  0.030804401            3 
 1730000   0.98269454   -6.9104915    634.58316   0.03056759  0.030796087            3 
 1731000   0.99168987   -6.9161737    633.33722  0.030489949  0.030787708            3 
 1732000   0.97350284    -6.878199    633.97647  0.030503102  0.030779311            3 
 1733000   0.95543764   -6.9045977    632.79507  0.030428692  0.030770906            4 
 1734000   0.95557994   -6.9320077     631.7681  0.030361789  0.030762406            3 
 1735000   0.97653045   -6.9166422    632.73147  0.030390561  0.030754048            4 
 1736000   0.98112685   -6.9398654    633.34475  0.030402494  0.030745746            6 
 1737000   0.97853813   -6.9144379    633.42176  0.030388686  0.030737431            5 
 1738000   0.97287738   -6.8812128    634.69746  0.030432368  0.030729113            6 
 1739000   0.96552274   -6.9291599    635.21576  0.030439705  0.030720848            4 
 1740000   0.95058972   -6.9214331    635.38023  0.030430088   0.03071249            2 
 1741000   0.96341712   -6.9276977    635.67437  0.030426688  0.030704159            5 
 1742000   0.96397117   -6.9081186    636.65466  0.030456116  0.030695933            1 
 1743000   0.97842326   -6.9086983    636.29429  0.030421414  0.030687787            2 
 1744000   0.98472425   -6.9064546    636.19338  0.030399148  0.030679502            4 
 1745000   0.97221821    -6.923135    635.83625  0.030364673  0.030671267            3 
 1746000   0.96859509   -6.9376296    636.02577  0.030356327  0.030663017            3 
 1747000    0.9658997    -6.909943    636.63431  0.030367979   0.03065481            5 
 1748000   0.96795734   -6.9300302    637.16756  0.030376028  0.030646575            6 
 1749000   0.97351861   -6.9429692    634.90487  0.030250851  0.030638324            4 
 1750000    0.9632106   -6.9090576    637.93921  0.030378057  0.030630013            2 
 1751000   0.95802963   -6.9589259    636.43065  0.030288913  0.030621779            4 
 1752000   0.97386347   -6.9279237    639.44506  0.030415005  0.030613574            6 
 1753000   0.96833184   -6.9143087    637.82756  0.030320763  0.030605298            3 
 1754000    0.9895647   -6.9495513    637.08934  0.030268403  0.030597043            4 
 1755000    0.9866532   -6.9690813    637.50074   0.03027069  0.030588782            5 
 1756000   0.97442519    -6.942378    636.91994  0.030225889  0.030580481            6 
 1757000   0.95821475   -6.9418899    636.21504  0.030175253  0.030572075            4 
 1758000    0.9825417   -6.9258933      638.385   0.03026095  0.030563623            5 
 1759000   0.95778922    -6.932618    638.11268  0.030230845  0.030555316            3 
 1760000   0.95486938   -6.9314057    637.58138  0.030188512  0.030546995            3 
 1761000   0.99077824   -6.9174864    638.47123  0.030213479   0.03053871            4 
 1762000    0.9798067   -6.9626661    639.77087  0.030257797  0.030530307            2 
 1763000   0.96083577   -6.9766466    638.11447   0.03016234  0.030521986            5 
 1764000   0.95532524   -6.9157048    638.54278  0.030165475  0.030513667            2 
 1765000   0.95564139   -6.9547206    639.05881  0.030172748  0.030505394            2 
 1766000   0.97626117   -6.9351755    638.13085  0.030111875  0.030497038            5 
 1767000   0.96521628   -6.9239838    640.08032  0.030186772  0.030488654            4 
 1768000   0.98454338   -6.9705025     638.5768  0.030098831  0.030480327            9 
 1769000   0.97919136   -6.9073531    642.45733  0.030264619  0.030471952            4 
 1770000   0.95225307   -6.9282575    641.99031  0.030225533  0.030463711            2 
 1771000   0.97330957   -6.9828116     639.9871  0.030114206  0.030455461            3 
 1772000   0.97204749   -6.9599817    641.40058  0.030163684   0.03044718            2 
 1773000   0.96815454   -6.9310623    642.19595  0.030184055  0.030438944            6 
 1774000   0.96177184   -6.9319072    640.64843  0.030094346  0.030430776            4 
 1775000   0.97922894    -6.935927    643.16663  0.030195617  0.030422657            3 
 1776000   0.97111178   -6.9479322    643.40931  0.030190001  0.030414469            5 
 1777000   0.98074429   -6.9384992    642.44283  0.030127689  0.030406311            5 
 1778000   0.94850707   -6.9373914    641.87102  0.030083943  0.030398141            2 
 1779000   0.96596659   -6.9658072    640.38424  0.029997388  0.030389846            3 
 1780000   0.96189861   -6.9348366    644.12817  0.030155813  0.030381723            2 
 1781000   0.96561899    -6.949393    643.19892  0.030095402   0.03037358            2 
 1782000   0.97332669    -6.918951    646.09706  0.030214041   0.03036554            3 
 1783000    0.9687746   -6.9401318    645.02224  0.030146861  0.030357499            7 
 1784000   0.97437263    -6.932691    645.23511  0.030139906  0.030349479            8 
 1785000   0.97990108   -6.9483565    643.49703  0.030041878  0.030341453            2 
 1786000   0.96995962   -6.9304163    645.51932  0.030119416  0.030333385            5 
 1787000   0.96577603   -6.9363084     646.6974  0.030157498  0.030325374            7 
 1788000    0.9839154   -6.9358509    646.36378  0.030125083  0.030317354            3 
 1789000   0.97511479   -6.9266728    646.86898  0.030131777  0.030309328            3 
 1790000   0.96044138   -6.9451212    644.17869  0.029989697  0.030301308            3 
 1791000   0.96571045   -6.9369922    646.30972  0.030072107  0.030293303            3 
 1792000   0.97628914   -6.9038002    647.77824  0.030123616  0.030285279            3 
 1793000   0.96983099   -6.9445364    646.30853  0.030038508  0.030277356            5 
 1794000   0.93933896   -6.9527123     645.5134  0.029984829  0.030269394            7 
 1795000   0.98394078    -6.941747    648.58075  0.030110527  0.030261382            2 
 1796000   0.95391044   -6.9470169    648.29474  0.030080491  0.030253404            5 
 1797000   0.96723765    -6.944971    647.18128  0.030012116  0.030245446            3 
 1798000   0.94749309   -6.9280845    647.24159   0.02999822  0.030237522            3 
 1799000   0.95001799   -6.9824692    646.76711  0.029959566  0.030229505            5 
 1800000   0.95820235   -6.9484536    649.22888  0.030056893   0.03022156            3 
 1801000   0.99657609   -6.9474387    648.07466  0.029986797  0.030213623            4 
 1802000    0.9798933   -6.9128789    648.17391  0.029974746  0.030205604            5 
 1803000   0.97801788   -6.9616757    648.31363  0.029964579  0.030197625            3 
 1804000   0.97623244    -6.933811    648.01159  0.029934017  0.030189524            4 
 1805000   0.98372156   -6.9325767    648.53757  0.029941716  0.030181468            4 
 1806000   0.96762836   -6.8977817    650.23433   0.03000343   0.03017362            5 
 1807000   0.95630395   -6.9408952    648.29003  0.029897161  0.030165699            4 
 1808000   0.96466002   -6.9328277    651.41078  0.030024464  0.030157887            3 
 1809000   0.97131007    -6.947327    650.63997  0.029972359  0.030150072            5 
 1810000   0.96989746   -6.9503014    652.50169  0.030041514  0.030142269            4 
 1811000   0.94890403   -6.9231135    651.60273   0.02998356   0.03013453            2 
 1812000   0.94707651   -6.9162128    653.10642  0.030036167  0.030126722            3 
 1813000   0.97218282   -6.9466255    650.30134  0.029890666  0.030118803            2 
 1814000   0.97500409   -6.9607021    652.42421  0.029971711  0.030110909            3 
 1815000   0.98280854   -6.9384007     652.6507  0.029965597  0.030103061            4 
 1816000   0.95654475   -6.9291977    653.88864  0.030005903  0.030095305            3 
 1817000   0.96090083   -6.9547881    651.62881  0.029885746  0.030087676            2 
 1818000   0.96429713   -6.9222088     652.8932  0.029927264  0.030079942            4 
 1819000   0.96778329   -6.9341397     652.5782  0.029896381  0.030072208            2 
 1820000   0.96492533   -6.9257317    652.73009  0.029886909  0.030064474            3 
 1821000   0.94358047   -6.9533113    654.47559  0.029950375  0.030056736            2 
 1822000   0.93853723   -6.9063795    654.53566  0.029936684  0.030049073            4 
 1823000   0.94448843   -6.9716951    654.46468  0.029917018  0.030041313            2 
 1824000   0.96201234   -6.9487725    652.38718  0.029805701  0.030033509            3 
 1825000   0.96313519   -6.9396211    654.98856  0.029908153  0.030025728            2 
 1826000    0.9677399   -6.9678774    655.44409  0.029912563  0.030017939            9 
 1827000   0.98247616   -6.9353868     655.9724  0.029920288    0.0300102            5 
 1828000   0.96627592   -6.9359276    656.12694  0.029910966  0.030002488            5 
 1829000   0.96946151   -6.9461434    657.80287  0.029970971  0.029994801            3 
 1830000   0.95887821   -6.9487525     655.1432  0.029833479  0.029987108            5 
 1831000   0.95459407   -6.9470023    655.69053  0.029842096   0.02997935            5 
 1832000   0.96488554   -6.9226428    656.66255  0.029870021  0.029971648            4 
 1833000   0.96656771   -6.9616335    655.57422  0.029804247  0.029964038            3 
 1834000   0.96146258   -6.9545222    656.57288  0.029833373  0.029956313            9 
 1835000   0.95063122   -6.9274545    656.91114  0.029832477  0.029948629            3 
 1836000   0.96581711   -6.9377397    658.55283  0.029890742  0.029940959            4 
 1837000   0.95980412   -6.9728982    657.07371  0.029807372  0.029933212            3 
 1838000   0.97513572   -6.9636632    656.07245  0.029745759  0.029925444            3 
 1839000   0.92795087   -6.9671086    657.37593   0.02978865  0.029917732            5 
 1840000   0.94457583   -6.9634442    657.60121  0.029782663  0.029910029            3 
 1841000   0.97417041   -6.9454614     657.1998  0.029748316  0.029902337            3 
 1842000   0.94070395   -6.9842905     657.6625  0.029753099   0.02989465            4 
 1843000   0.95267956   -6.9576747    658.27179  0.029764505  0.029886998            5 
 1844000    0.9704859   -6.9314071    660.47939  0.029848129   0.02987945            5 
 1845000   0.95611668   -6.9330729    661.15375   0.02986241  0.029871952            4 
 1846000   0.93769464   -6.9728545    660.97671  0.029838241   0.02986451            4 
 1847000   0.95832484   -6.9926674    659.26933  0.029745052  0.029857008            7 
 1848000   0.95343096   -6.9634313    661.11767  0.029812305  0.029849573            6 
 1849000   0.94413652   -6.9277014    661.62505  0.029819049  0.029842059            2 
 1850000     0.955982   -6.9305296    661.80782  0.029811163   0.02983464            2 
 1851000   0.97767349   -6.9204537    662.82681  0.029840933  0.029827214            4 
 1852000   0.95034035   -6.9582715    660.75498  0.029731596  0.029819697            5 
 1853000   0.94680809   -6.9657313     661.8813  0.029766203  0.029812164            4 
 1854000   0.95036051   -6.9576251    663.89515  0.029840666  0.029804785            6 
 1855000     0.961818   -6.9402071     662.7584  0.029773513  0.029797383            4 
 1856000   0.94155376   -6.9827909    661.47878  0.029700017  0.029789942            2 
 1857000    0.9572084   -6.9771865    663.26159  0.029764027  0.029782497            5 
 1858000   0.96299269   -6.9720132    662.43718  0.029711033  0.029775066            3 
 1859000   0.95943466   -6.9503805    663.80024  0.029756152  0.029767732            5 
 1860000   0.94210898   -6.9194638    664.94605   0.02979149  0.029760393           10 
 1861000   0.95649047   -6.9471087    663.02162  0.029689308  0.029753049            5 
 1862000   0.93178831    -6.967463    663.38564  0.029689654  0.029745626            2 
 1863000   0.96982086   -6.9862836    662.94702  0.029654098  0.029738141            6 
 1864000   0.94810634    -6.958409    665.44156  0.029749712  0.029730739            3 
 1865000   0.98053794   -6.9659185    663.54828  0.029649164  0.029723365            4 
 1866000   0.93751413   -6.9752318     665.7603   0.02973206  0.029715992            3 
 1867000   0.92775406   -6.9491237    666.19113  0.029735365  0.029708615            3 
 1868000   0.94652922   -6.9565214    664.48264   0.02964323  0.029701201            6 
 1869000   0.95614492   -6.9443687    664.18446  0.029614075  0.029693872            2 
 1870000   0.94980031   -6.9595918    668.32285  0.029782658   0.02968652            4 
 1871000   0.94444324   -6.9665714    668.15569  0.029759295  0.029679163            2 
 1872000   0.94427436   -6.9407494     667.5027   0.02971433  0.029671922            3 
 1873000    0.9597838    -6.928766    666.86966    0.0296703  0.029664671            4 
 1874000   0.94523263   -6.9937766    667.91126  0.029700785  0.029657246            3 
 1875000   0.95480838   -6.9769069    667.28421  0.029657076  0.029649813            4 
 1876000   0.95396924   -6.9791716    668.67933   0.02970324   0.02964242            2 
 1877000   0.97018192   -6.9500444    668.45911  0.029677638   0.02963504            2 
 1878000    0.9360399   -6.9642904    665.82765  0.029545068  0.029627624            3 
 1879000    0.9688413   -6.9732775    667.42167  0.029600038  0.029620169            3 
 1880000   0.96624846   -6.9798957    666.60163  0.029547945  0.029612655            3 
 1881000    0.9630944   -6.9602857    666.48412   0.02952703  0.029605043            3 
 1882000    0.9519466   -6.9788595    667.90155  0.029574103  0.029597426            5 
 1883000   0.97446804   -6.9466258    667.49613  0.029540455  0.029589949            6 
 1884000    0.9318789   -6.9659008    665.31951  0.029428499  0.029582445            2 
 1885000   0.96160766   -6.9771187    666.93341  0.029484236   0.02957484            2 
 1886000   0.95955478   -6.9657114    665.63995  0.029411451  0.029567286            7 
 1887000   0.95229552   -6.9887265    666.90379  0.029451678  0.029559718            5 
 1888000   0.95419438   -6.9758834    668.23699  0.029494923  0.029552125            5 
 1889000   0.94065393   -6.9730732     667.2809  0.029437132  0.029544562            7 
 1890000   0.93902665   -6.9719649    667.48846  0.029430708  0.029536964            2 
 1891000   0.96572463   -6.9989232    668.18028  0.029445632  0.029529313            4 
 1892000   0.93700452   -6.9924133    668.36916  0.029438388  0.029521711            3 
 1893000   0.94341417   -6.9824981     668.0924  0.029410653  0.029514015            3 
 1894000   0.94256346   -6.9839371    667.79154  0.029381887  0.029506372            4 
 1895000   0.94417449   -6.9544514    666.95625   0.02932965  0.029498637            2 
 1896000   0.97465432   -6.9719518    669.37617  0.029420542  0.029490949            2 
 1897000   0.96067777   -6.9831819    667.30991  0.029314264  0.029483344            4 
 1898000   0.96114064   -6.9626508    669.52211  0.029395948  0.029475694            9 
 1899000   0.94650457   -6.9588946    668.68798  0.029343864  0.029468045            3 
 1900000   0.96397186   -6.9821821    668.44233  0.029317646  0.029460366            4 
 1901000   0.94251712   -6.9862458     670.3638  0.029386455   0.02945269            6 
 1902000   0.93483993   -6.9481517    668.76535  0.029300971  0.029445008            2 
 1903000   0.94524323   -6.9748583    670.39083  0.029356754  0.029437356            4 
 1904000   0.96625342   -6.9669175    668.73451  0.029268842  0.029429791            7 
 1905000   0.92716027   -6.9634231    672.39058  0.029413411  0.029422222            5 
 1906000   0.95943571   -6.9671623    670.71682    0.0293248  0.029414619            5 
 1907000   0.94411767   -6.9438946    672.99122  0.029408811  0.029407107            4 
 1908000    0.9509931   -6.9547018     669.3871  0.029235984  0.029399537            3 
 1909000   0.92854707   -6.9844973    672.77704   0.02936865  0.029392066            6 
 1910000     0.941533   -6.9985271    672.48533  0.029340547  0.029384492            5 
 1911000   0.96265122   -6.9757305    671.74258  0.029292804  0.029376928           10 
 1912000   0.95844654   -6.9597366    673.63877  0.029360128  0.029369428            4 
 1913000   0.93474101   -6.9683268    672.01654  0.029274113  0.029361997            4 
 1914000   0.93605092   -6.9496239    673.00787   0.02930198  0.029354634            3 
 1915000   0.94926979    -6.962133    674.54349  0.029353503  0.029347198            3 
 1916000   0.96206558   -7.0112601    673.53465  0.029294304   0.02933973            2 
 1917000   0.94412395   -6.9939266    672.61805  0.029239178  0.029332249            2 
 1918000   0.94923145   -6.9774623    673.87585  0.029278582  0.029324763            9 
 1919000   0.94393975   -6.9625452    674.47524  0.029289354  0.029317312            2 
 1920000   0.95398983    -6.997834    673.58922  0.029235643  0.029309864            3 
 1921000   0.96636351   -7.0108315    673.75879   0.02922778  0.029302333            3 
 1922000   0.96320142   -6.9699312    672.74303  0.029168532  0.029294865            2 
 1923000   0.92029977   -6.9982451    674.52447  0.029230563  0.029287344            5 
 1924000   0.92350446   -7.0039659    675.50747  0.029257947  0.029279851            2 
 1925000   0.95580523   -6.9977577    673.18835  0.029142353  0.029272317            5 
 1926000   0.94161444   -6.9570969    678.17603  0.029343026  0.029264933            3 
 1927000   0.95780617   -6.9812396    675.46822    0.0292107  0.029257577            5 
 1928000   0.94214364    -6.991468     674.8517  0.029168901  0.029250129            2 
 1929000    0.9262685   -6.9577112    675.65386  0.029188434  0.029242664            3 
 1930000   0.95430205   -6.9723776    675.42116  0.029163262  0.029235216            5 
 1931000   0.95238957    -6.987703    675.47943  0.029150675  0.029227706            5 
 1932000   0.95124928   -6.9816455    675.38376   0.02913146  0.029220222            6 
 1933000   0.94515744   -6.9755995    677.09165  0.029190018   0.02921284            6 
 1934000   0.94925711   -6.9903024    676.09076  0.029131798  0.029205394            1 
 1935000   0.93902824   -6.9967618    676.13982  0.029118855  0.029197982            2 
 1936000   0.95431657   -6.9647346    678.69369  0.029213744  0.029190718            3 
 1937000   0.94460384   -6.9804322     679.1224  0.029217105  0.029183392            3 
 1938000    0.9575872   -6.9857481    678.07583  0.029157028  0.029175968            3 
 1939000   0.93317039   -7.0081268    679.54418  0.029205096  0.029168586            4 
 1940000    0.9207405   -6.9942626    676.84853   0.02907425  0.029161199            4 
 1941000   0.93159328   -6.9883046    678.49072  0.029129775  0.029153809            4 
 1942000   0.91822609   -7.0042773     680.3724   0.02919552  0.029146505            5 
 1943000   0.94561699   -6.9674941    680.30378  0.029177551  0.029139237            2 
 1944000   0.96332075   -6.9603675    680.47619  0.029169933  0.029131918            2 
 1945000   0.95180334   -6.9990035    680.49541  0.029155759  0.029124555            3 
 1946000   0.94952964    -6.984078    678.76021   0.02906647  0.029117213           11 
 1947000   0.93521762   -7.0065004    680.42306  0.029122713  0.029109904            4 
 1948000   0.94869196    -6.985832    679.80752  0.029081431  0.029102507            6 
 1949000   0.93552442   -6.9827645    679.63206  0.029059007  0.029095083            6 
 1950000   0.91611286   -7.0061453    677.48185  0.028952216   0.02908768            3 
 1951000   0.94078494   -7.0099535    680.89884  0.029083326  0.029080171            4 
 1952000   0.94205826   -6.9927488     679.3728  0.029003279  0.029072739            4 
 1953000   0.95294563   -6.9780375    679.87341  0.029009789  0.029065335            3 
 1954000   0.92698376   -7.0052453    680.43991  0.029019102  0.029057872            3 
 1955000   0.93373796   -6.9885354    680.12636  0.028990893  0.029050388            7 
 1956000   0.94577001   -6.9752345      682.179  0.029063523   0.02904295            6 
 1957000   0.94993821   -7.0022554    680.70282  0.028985813  0.029035554            4 
 1958000   0.95265408   -6.9692497    681.65448  0.029011512  0.029028139            5 
 1959000   0.92980397   -6.9927961    680.64357    0.0289537  0.029020693            4 
 1960000    0.9157942   -6.9622229    679.87184  0.028906116  0.029013232            3 
 1961000   0.93858941   -7.0132138    681.04197    0.0289411  0.029005849            1 
 1962000   0.92992439    -7.018058    681.19775  0.028932966  0.028998426            5 
 1963000   0.93429503   -7.0095412    683.38304  0.029010997   0.02899097            4 
 1964000   0.93333073   -7.0001479    682.17845  0.028945114  0.028983568            7 
 1965000   0.94134993   -7.0050371    679.03549  0.028797094  0.028976125            5 
 1966000   0.91832233   -6.9750617    684.99956  0.029035247  0.028968694            2 
 1967000   0.92155758   -6.9913304     683.9795  0.028977271  0.028961279            4 
 1968000   0.94632579   -7.0179217    682.53269  0.028901283  0.028953833            6 
 1969000   0.92128667   -6.9643655    682.42044  0.028881854  0.028946313            2 
 1970000   0.94119244    -6.990077    683.84079  0.028927275  0.028938878            3 
 1971000   0.92395531   -7.0301818    682.40339  0.028851826  0.028931338            2 
 1972000   0.92267715   -7.0115203    685.27088  0.028958371  0.028923704            6 
 1973000   0.94140767   -7.0283123    681.89204  0.028800982  0.028916255            4 
 1974000   0.93164419   -7.0037855    683.94503  0.028873059  0.028908751            1 
 1975000   0.95815014   -6.9956599    682.38903  0.028792786  0.028901264           13 
 1976000   0.93499457   -6.9490805    684.96016  0.028886646  0.028893836           12 
 1977000   0.92584822   -7.0017083    684.41155  0.028848911  0.028886395            3 
 1978000   0.95800991   -7.0047662    684.06375  0.028819672  0.028878949            4 
 1979000   0.92013938   -7.0204311    683.14255  0.028766319   0.02887142            4 
 1980000   0.94260046   -7.0524463    682.61017  0.028729384  0.028863893            2 
 1981000   0.93272882   -7.0014816     684.6359  0.028800097  0.028856332            9 
 1982000   0.93930597   -6.9843754    686.29252  0.028855219  0.028848816           10 
 1983000   0.93348273   -6.9882654    685.52382  0.028808364   0.02884135            3 
 1984000   0.94134257   -7.0357021    683.90304  0.028725766  0.028833768            5 
 1985000   0.93151339   -7.0303849    685.54373  0.028780173  0.028826209            6 
 1986000   0.92577348   -6.9957615    685.61172  0.028768535  0.028818723            2 
 1987000    0.9327966   -7.0054134    685.87899  0.028765265  0.028811289            4 
 1988000   0.94043394   -7.0014689    685.32005  0.028727366    0.0288039            5 
 1989000   0.93008765   -6.9809731     687.4931  0.028803968  0.028796474            4 
 1990000   0.93957001   -6.9917174    687.48122  0.028788996  0.028789059            2 
 1991000   0.92308465   -7.0488609    685.49085  0.028691229  0.028781587            2 
 1992000   0.91212185   -7.0154937    687.30288   0.02875263  0.028774134            5 
 1993000    0.9232354   -7.0129664    688.95851  0.028807431  0.028766782            3 
 1994000   0.93130708   -6.9917588    688.08041  0.028756286  0.028759315            7 
 1995000   0.93787522   -6.9794746    688.53671  0.028760932  0.028751861            2 
 1996000   0.93852098   -6.9968645    687.38495  0.028698436  0.028744429            3 
 1997000   0.94969665   -7.0149084    686.92519   0.02866488  0.028736994            7 
 1998000   0.92034116   -7.0097464    688.84985  0.028730808  0.028729527            1 
 1999000   0.93736076   -7.0245218    689.83398  0.028757461  0.028722065            3 
 2000000   0.93787089   -7.0263626    687.32945  0.028638727  0.028714644            6 
 2001000   0.92219249   -7.0028942    688.70032  0.028681506  0.028707183            3 
 2002000    0.9104538   -7.0243676    689.99907   0.02872124  0.028699733            3 
 2003000   0.94394582    -7.003024    690.00489  0.028707143  0.028692241            5 
 2004000   0.92943126   -7.0082366     689.9964  0.028692465   0.02868482            3 
 2005000   0.94014549   -7.0313819    689.79122  0.028669627   0.02867736            3 
 2006000   0.92379676   -7.0271411    688.55756  0.028604086  0.028669917            4 
 2007000   0.92950139   -7.0660867    689.47954  0.028628116  0.028662459            4 
 2008000    0.9135253    -7.055469    686.53551   0.02849168  0.028654964            4 
 2009000   0.94171309   -7.0227014    691.67966  0.028690877  0.028647455            4 
 2010000   0.89596487   -7.0052186    689.46432  0.028584756  0.028640059            4 
 2011000   0.93004767   -7.0068029    689.28267  0.028563015  0.028632679            4 
 2012000   0.92611131    -6.970679     690.1731  0.028585698  0.028625302            4 
 2013000   0.92445473   -7.0055097    690.57086  0.028587964  0.028617934            4 
 2014000   0.91927823   -7.0099803    690.22247  0.028559354  0.028610539            8 
 2015000    0.9470372   -7.0277463    692.01641  0.028619372  0.028603167            3 
 2016000   0.94140439    -7.019677    691.92522  0.028601406  0.028595902            2 
 2017000   0.93056889   -7.0050306    692.08674    0.0285939  0.028588521            5 
 2018000   0.92546315   -7.0468012    689.06753  0.028455052  0.028581032            7 
 2019000   0.92719223   -6.9979226     690.1671  0.028486342   0.02857353            5 
 2020000   0.93763761   -7.0234886    691.87875  0.028542853  0.028566035            8 
 2021000   0.92359281   -7.0005556    689.77452  0.028441965  0.028558468            4 
 2022000    0.9372163   -7.0042165     692.5589  0.028542652  0.028550973            5 
 2023000   0.92522752   -7.0585216    689.95872  0.028421434  0.028543441            4 
 2024000   0.90741512   -7.0370118    690.06014  0.028411567  0.028535847            6 
 2025000   0.95144826   -7.0184737    688.51458  0.028333933  0.028528227            4 
 2026000   0.95096584   -7.0160674    691.28774  0.028434014  0.028520692            5 
 2027000   0.91444174   -7.0074975    690.88166  0.028403291  0.028513119            3 
 2028000   0.93865355   -7.0040781    693.21508  0.028485169  0.028505522            3 
 2029000   0.92232124   -7.0283899    694.61684  0.028528702  0.028497956            7 
 2030000   0.92566279   -6.9784367    693.16931  0.028455226  0.028490391            3 
 2031000    0.9388667    -7.027209    692.04127  0.028394931  0.028482801            3 
 2032000   0.92523758   -7.0090274    693.26176  0.028431011  0.028475167            7 
 2033000    0.9435725   -7.0184807    690.22413  0.028292512  0.028467466            2 
 2034000   0.93074295   -7.0351468    692.01335  0.028351907  0.028459786            5 
 2035000   0.91858881   -7.0335088    690.53037  0.028277247  0.028452069            4 
 2036000   0.92955188   -7.0039142     690.7213  0.028271173  0.028444359           12 
 2037000   0.91550971   -7.0361351    690.96799  0.028267386  0.028436661            3 
 2038000   0.92834504   -6.9952611    694.09149  0.028381235  0.028429015            4 
 2039000   0.92304378   -7.0367882    692.35804   0.02829647  0.028421335            2 
 2040000   0.93416804   -7.0361463     692.4703  0.028287185  0.028413662            4 
 2041000   0.91875387   -7.0300829    695.10532  0.028380913  0.028406079            1 
 2042000   0.91147037   -7.0360076    693.54661  0.028303404  0.028398426            2 
 2043000   0.90993958   -7.0427242    694.91103  0.028345204  0.028390794            8 
 2044000   0.93590436   -7.0287573     694.8241  0.028327793  0.028383184            4 
 2045000   0.92246574   -7.0245645     695.1111  0.028325636  0.028375564            3 
 2046000   0.91969578   -7.0139909    694.64838  0.028292945   0.02836797            4 
 2047000   0.91952349   -6.9953916    695.05388  0.028295631  0.028360372            6 
 2048000   0.93783887   -7.0138326    694.35022  0.028253183  0.028352805            4 
 2049000   0.94064421   -7.0233468     694.5294  0.028246681  0.028345201            4 
 2050000   0.92327672   -6.9927549     696.5372   0.02831452  0.028337619            3 
 2051000    0.9271602   -7.0205936    697.14864  0.028325558  0.028330079            3 
 2052000   0.92521112   -7.0021502     695.9034  0.028261184   0.02832241            5 
 2053000    0.9305796   -7.0327515    694.18281  0.028177578  0.028314871            3 
 2054000     0.912675   -7.0407363    696.45538  0.028256061  0.028307251            2 
 2055000   0.92597895   -7.0286236    694.30401  0.028155069  0.028299577            4 
 2056000   0.92313465    -7.011453    696.96778  0.028249342  0.028291961            3 
 2057000   0.93423695   -7.0151769    696.20073  0.028204534  0.028284415            3 
 2058000   0.92909567   -6.9991471    694.61539  0.028126635  0.028276825            2 
 2059000   0.92573841   -7.0273312     695.9576  0.028167298  0.028269233            4 
 2060000   0.91723701    -7.037675    694.79248  0.028106492  0.028261555            4 
 2061000     0.931327   -7.0401255    697.79526  0.028214267  0.028253839            4 
 2062000   0.92627175   -7.0532133    695.66693  0.028114571  0.028246115            4 
 2063000   0.91238167   -7.0300468    695.02479  0.028075004  0.028238412            3 
 2064000   0.90557085    -7.013252    698.95879  0.028220235   0.02823074            2 
 2065000   0.92049112   -7.0254234    696.19682   0.02809511  0.028223132            3 
 2066000   0.92117272   -7.0232933    698.34856  0.028168303  0.028215429            7 
 2067000   0.89768421    -7.032832    697.30351  0.028112543  0.028207707            5 
 2068000    0.9162933   -7.0223443    697.33348  0.028100156  0.028200028            2 
 2069000   0.92232532   -7.0485486    696.28612   0.02804439    0.0281924            5 
 2070000   0.94174371   -7.0410419    695.66989  0.028006034  0.028184709            7 
 2071000   0.93235348   -7.0214439    698.01763   0.02808698  0.028176968            4 
 2072000   0.92596479    -7.016347    696.55306  0.028014521  0.028169288            5 
 2073000   0.91074587   -7.0263843     698.3907  0.028074879  0.028161617            5 
 2074000   0.91140881   -7.0403918    698.55455  0.028067926  0.028153964            3 
 2075000   0.91610102   -6.9971008    700.29859  0.028124442  0.028146352            5 
 2076000   0.92669667   -7.0069445    701.14325    0.0281448  0.028138771            3 
 2077000   0.94484325   -7.0191413    698.34935  0.028019152  0.028131188            5 
 2078000   0.91278744   -7.0149805      699.229  0.028040945  0.028123595            6 
 2079000   0.92062804   -7.0515275    699.34455  0.028032089  0.028115876            2 
 2080000   0.92280626   -6.9995133    699.40814  0.028021159  0.028108187            3 
 2081000   0.91730469   -7.0574648    699.87732  0.028026482  0.028100505            8 
 2082000    0.9043506   -7.0485411    697.58103  0.027921111   0.02809275            7 
 2083000   0.91078696   -7.0201667    699.33518  0.027977884  0.028084948            4 
 2084000   0.91740549   -7.0149502    696.78332  0.027862417  0.028077212            3 
 2085000    0.9170099   -7.0399708    700.33181   0.02799088  0.028069522            2 
 2086000   0.92221532   -7.0591992    700.06759  0.027966906  0.028061711            3 
 2087000   0.91332166   -7.0398206    700.09084  0.027954434  0.028053965            4 
 2088000   0.91331172   -7.0390323    700.04672  0.027939285  0.028046266            4 
 2089000   0.92281893   -7.0522679     698.4256  0.027861241   0.02803857            5 
 2090000   0.92485519   -7.0269229    698.94474   0.02786861  0.028030785            5 
 2091000   0.93294721   -7.0395141     700.4405  0.027914893  0.028023067            5 
 2092000   0.90166839    -7.035549    701.43506  0.027941167  0.028015391            3 
 2093000   0.88440982   -7.0113369    700.08128  0.027873916   0.02800764            9 
 2094000   0.91326435   -7.0672474    699.19945  0.027825511  0.027999909            5 
 2095000   0.91784416   -7.0189974    699.62757  0.027829259   0.02799217            8 
 2096000   0.92281923   -7.0913012    700.06791  0.027833489  0.027984433            2 
 2097000   0.91025603   -7.0467463    701.83317  0.027890366  0.027976686            2 
 2098000   0.90524381   -7.0327242     702.4986  0.027903503  0.027968997            4 
 2099000   0.92300878    -7.021639    702.85186  0.027904235  0.027961311            6 
 2100000   0.90854372   -7.0450158    701.86262  0.027851691  0.027953595            2 
 2101000   0.93061957   -7.0658247    700.13464  0.027769897  0.027945825            4 
 2102000   0.89866409   -7.0450616    700.49794  0.027771089  0.027938005            3 
 2103000   0.92260616   -7.0288043    701.93111  0.027814674  0.027930218            4 
 2104000   0.93962409   -7.0445508     700.5901   0.02774834   0.02792241            3 
 2105000   0.90801655   -7.0396688    700.83283  0.027744768  0.027914536            3 
 2106000   0.90827002   -7.0403563    701.20539  0.027746335  0.027906639            6 
 2107000   0.92367029   -7.0407562    702.07896  0.027767717  0.027898838            3 
 2108000   0.90716161   -7.0257337      702.784  0.027782416  0.027891078            3 
 2109000   0.91249357   -7.0459696    703.23488  0.027787059  0.027883293            2 
 2110000   0.91125189   -7.0329025    701.08788  0.027689095  0.027875508            6 
 2111000     0.911868   -7.0470877        702.6   0.02773567  0.027867745            7 
 2112000    0.9111361   -7.0623713     700.8019   0.02765159  0.027859938            3 
 2113000    0.9191403   -7.0619046    702.80221  0.027717393  0.027852094            7 
 2114000   0.91408491    -7.043475    703.59499  0.027735532  0.027844301            3 
 2115000   0.90443973   -7.0696043    704.82439  0.027770858   0.02783653            1 
 2116000   0.89408706   -7.0362161    702.83242  0.027679286  0.027828754            9 
 2117000   0.93064272   -7.0490041    703.61901  0.027697174  0.027820995            6 
 2118000   0.94032469    -7.051419    702.20692  0.027628538  0.027813263            4 
 2119000   0.91695315    -7.037855    702.36048  0.027621539  0.027805507            6 
 2120000   0.90559187   -7.0282118    703.97616  0.027672019  0.027797741            3 
 2121000   0.90084898   -7.0539379    704.08351   0.02766319  0.027789942            7 
 2122000   0.91251638   -7.0098146    705.40109  0.027701897  0.027782178            3 
 2123000    0.9163545   -7.0419863    703.20498  0.027602645  0.027774448            3 
 2124000   0.91057065   -7.0628205    704.53286  0.027641748   0.02776662            7 
 2125000   0.89933852   -7.0572612    704.03928  0.027609384  0.027758764            8 
 2126000   0.89357688   -7.0508342     703.3291   0.02756856  0.027750977            3 
 2127000   0.89302587   -7.0413208    705.22355  0.027629821  0.027743216            3 
 2128000   0.88700921   -7.0696135    704.69229  0.027596033  0.027735477            6 
 2129000   0.88691286    -7.088288    703.92459  0.027553021  0.027727656            6 
 2130000   0.92817542   -7.0479028    704.96518  0.027580797  0.027719839            3 
 2131000   0.90117516    -7.044848    705.27354  0.027579913  0.027712052            4 
 2132000   0.92648048   -7.0436809    702.94714  0.027476045  0.027704212            7 
 2133000   0.89108721   -7.0747202    704.43517  0.027521299  0.027696396            5 
 2134000    0.8930439   -7.0754995    705.38553  0.027545514    0.0276885            4 
 2135000   0.89370094   -7.0703451    704.03143  0.027479759  0.027680646            4 
 2136000   0.93968991    -7.059855    706.05891  0.027545994  0.027672898            3 
 2137000    0.9377211   -7.0626627    705.62155  0.027516049  0.027665157            6 
 2138000   0.92815381   -7.0496857    707.12788  0.027561891  0.027657457            5 
 2139000   0.91847531   -7.0113578    708.78599  0.027613604  0.027649802            4 
 2140000   0.91189689   -7.0531058    707.69335  0.027558152  0.027642126            3 
 2141000   0.91119216   -7.0533234    706.89547  0.027514225  0.027634385            4 
 2142000   0.92034866   -7.0791098    706.67743  0.027492897  0.027626519            3 
 2143000   0.91771982   -7.0636072    705.12058  0.027419528  0.027618689            4 
 2144000   0.90857339   -7.0439896    705.82719  0.027434203  0.027610813            6 
 2145000   0.91099107   -7.0972671    705.49012  0.027408319  0.027602974            5 
 2146000   0.89719207   -7.0565912    707.38735   0.02746922  0.027595081            3 
 2147000   0.90147982   -6.9928195    708.11078  0.027484505  0.027587304            9 
 2148000   0.91503963   -7.0536817    708.24094  0.027476759  0.027579563            4 
 2149000    0.8950352   -7.0523042    708.92507  0.027490502  0.027571823            5 
 2150000   0.90872819   -7.0289517    707.74799  0.027432093  0.027564059            4 
 2151000   0.89449716   -7.0580766    708.01146  0.027429547  0.027556308            6 
 2152000   0.91658604   -7.0420195      707.338  0.027390722   0.02754855            8 
 2153000   0.89573132   -7.0899941    707.28527  0.027375959  0.027540757            4 
 2154000   0.92229265    -7.065477    709.55752  0.027451157  0.027532962            3 
 2155000   0.90886291   -7.0332873    709.86871  0.027450453  0.027525279            2 
 2156000   0.90623818   -7.0803517    709.32102  0.027416551  0.027517601            4 
 2157000   0.90106517   -7.0587077    709.77046  0.027421205  0.027509879            5 
 2158000    0.8958989   -7.0603297     709.2816   0.02738962  0.027502242            8 
 2159000   0.89664327   -7.0760202    710.73252  0.027432936  0.027494644            5 
 2160000   0.88683644   -7.0796223    710.02719  0.027393024   0.02748697            8 
 2161000    0.8954753   -7.0589505    708.96723  0.027339474  0.027479243            5 
 2162000   0.90096309   -7.0511735    707.87341  0.027284667  0.027471547            2 
 2163000   0.88154943   -7.0637298    710.46688  0.027371971  0.027463812            9 
 2164000   0.87680163   -7.0392696    713.03494  0.027458216  0.027456121            5 
 2165000   0.89067279   -7.0552838    709.58346  0.027312681  0.027448351            3 
 2166000   0.91003292   -7.0821415    708.82482  0.027270884  0.027440546            3 
 2167000   0.93289263   -7.0921781    710.31956  0.027315781  0.027432743            3 
 2168000   0.91131716    -7.084257    708.26634   0.02722426  0.027424947            4 
 2169000   0.89858761    -7.068245    709.88582  0.027273929  0.027417136            4 
 2170000    0.8949707   -7.0633934    710.00541  0.027265953  0.027409393            7 
 2171000    0.8987496   -7.0500878    711.12376  0.027296321  0.027401671            3 
 2172000   0.89075479   -7.0668332    709.02215  0.027203121  0.027393971            6 
 2173000   0.90060727   -7.0450586    709.20627  0.027197663  0.027386217            4 
 2174000   0.91845745   -7.0705913    711.33264  0.027266661  0.027378476            7 
 2175000   0.92094054   -7.0563799     710.7566  0.027232054  0.027370635            1 
 2176000    0.8977547   -7.0543712    710.58119  0.027212821  0.027362785            3 
 2177000    0.8800628   -7.0587069    711.35672  0.027230008  0.027354945            3 
 2178000   0.91125047   -7.0711196    711.71309   0.02723114  0.027347096            4 
 2179000   0.91236854   -7.0427378    710.20427  0.027160941  0.027339223            4 
 2180000   0.92170833   -7.1006336    710.40205  0.027156042  0.027331381            3 
 2181000   0.90553836   -7.0348189    712.79864  0.027235161  0.027323485            3 
 2182000   0.90887178   -7.0732088     710.3504  0.027129178  0.027315588            3 
 2183000    0.9118303    -7.061714    712.42068  0.027195781  0.027307731            5 
 2184000   0.88196671   -7.0967299    710.67062  0.027116553   0.02729981            3 
 2185000   0.89691779   -7.0474552    712.90828  0.027189484  0.027291942            2 
 2186000   0.89272441   -7.0532773    712.75974  0.027171384  0.027284059            3 
 2187000   0.89579358   -7.0476085    711.91842  0.027126902  0.027276167            3 
 2188000   0.90008224    -7.055948    711.12919  0.027084445  0.027268294            4 
 2189000   0.90795171   -7.0669515     712.7268  0.027132892   0.02726041            4 
 2190000   0.88176305   -7.0528523     713.6705  0.027156412  0.027252526            5 
 2191000   0.91833005   -7.0921648    711.37479  0.027056701  0.027244682            4 
 2192000   0.90581985   -7.1014784    712.61072  0.027091344  0.027236774            3 
 2193000   0.87594961   -7.0545226     713.6783  0.027119558  0.027228962            3 
 2194000   0.89136485   -7.0932447    713.82733  0.027112858  0.027221147            4 
 2195000    0.9074245   -7.0995516    712.19967  0.027038712   0.02721339            5 
 2196000   0.88134421   -7.0762758    713.59331  0.027079285  0.027205569            5 
 2197000   0.88279839   -7.0708627    713.17979  0.027051274  0.027197754            5 
 2198000   0.90370922   -7.0800282    713.18127  0.027039023  0.027189968            3 
 2199000   0.89656408   -7.0354679    713.67146  0.027045303  0.027182193            3 
 2200000   0.90196317   -7.0738678    713.88813  0.027041217  0.027174407            4 
 2201000   0.92918171   -7.0941656    714.42788  0.027049367  0.027166591            3 
 2202000   0.91267626   -7.0826489    713.26456  0.026993058  0.027158739            6 
 2203000   0.90656151   -7.0861663    713.65628  0.026995623  0.027150911            3 
 2204000    0.9020073    -7.052386    713.33648  0.026971282  0.027143062            3 
 2205000   0.91337526   -7.0761422    713.18304  0.026953252  0.027135207            4 
 2206000   0.90924523   -7.0355196    713.73999  0.026962073  0.027127397            4 
 2207000   0.89848034   -7.0568828    714.25331  0.026969239  0.027119615            8 
 2208000   0.89709977   -7.0822006    714.79884  0.026977613    0.0271118            5 
 2209000   0.89634955    -7.113681    712.70581  0.026886442  0.027103892            3 
 2210000   0.88906329   -7.0741923    714.34521  0.026936094  0.027095984            5 
 2211000   0.91048979   -7.0746667    714.14392  0.026916325  0.027088139            7 
 2212000   0.91462426    -7.058973     713.1781   0.02686777  0.027080314            5 
 2213000   0.90063358   -7.0710026    716.23595  0.026970777  0.027072505            3 
 2214000   0.88546614   -7.1142191    712.87596  0.026832127  0.027064615            4 
 2215000   0.90544854   -7.0750804    714.06043  0.026864576  0.027056676            2 
 2216000   0.90129643   -7.0761108    713.77423   0.02684169   0.02704879            5 
 2217000       0.9049   -7.0951108     714.7981  0.026868069  0.027040828            4 
 2218000   0.89531522   -7.0932744    714.69336   0.02685202  0.027032835            4 
 2219000   0.87249212   -7.0944381    714.33833  0.026826586  0.027024892            5 
 2220000   0.89510048   -7.0885112    715.39811  0.026854283  0.027016966            3 
 2221000     0.913003    -7.075355    717.27328   0.02691255  0.027009092            3 
 2222000   0.90059637   -7.0715303    715.24229  0.026824268   0.02700132            7 
 2223000   0.89983123   -7.0534478    717.46029  0.026895348  0.026993486            3 
 2224000   0.89038122   -7.0531555    714.66538  0.026778529  0.026985683            4 
 2225000   0.88174908   -7.0649803     716.7651  0.026845135  0.026977826            3 
 2226000   0.91663432   -7.0663163    717.48127  0.026859886   0.02697001            6 
 2227000    0.8955834   -7.1043118    716.76953  0.026821192  0.026962139            6 
 2228000   0.90163585   -7.1078131    715.99639  0.026780236  0.026954211            6 
 2229000   0.90243752   -7.0912489    715.26824  0.026740999  0.026946265            4 
 2230000   0.88878724   -7.0800935    717.24018  0.026802697   0.02693833            4 
 2231000   0.89874217   -7.0761472    718.53559   0.02683907  0.026930433            4 
 2232000   0.89087919   -7.0935438    716.25356  0.026741844  0.026922565            3 
 2233000   0.88296817    -7.106695    715.35153  0.026696206  0.026914577            4 
 2234000   0.88516959   -7.0636103    717.39965  0.026760655  0.026906601            3 
 2235000    0.8909017   -7.0526415    715.46804  0.026676661  0.026898623            3 
 2236000   0.90958493    -7.110934    716.30872  0.026696061  0.026890711            2 
 2237000   0.87721022   -7.0711422    718.36225  0.026760626  0.026882772            5 
 2238000    0.9009697   -7.0888209    717.22349  0.026706266  0.026874828            3 
 2239000   0.86985185   -7.0607307    718.44889  0.026739947  0.026866953            5 
 2240000   0.88718164   -7.0785559    716.66322  0.026661578  0.026859041            6 
 2241000   0.90120614   -7.0814174    716.90595  0.026658707  0.026851144            3 
 2242000   0.87999938   -7.0588118    717.49147   0.02666858  0.026843323            3 
 2243000   0.88365478   -7.0584802    719.10777   0.02671674  0.026835522            7 
 2244000   0.89150876   -7.0920228    718.97911  0.026700056  0.026827651            2 
 2245000   0.88127827   -7.0900714    718.23772  0.026660643  0.026819779            8 
 2246000   0.86426355   -7.0514292    717.59999  0.026625111  0.026811921            3 
 2247000   0.88961372   -7.1044443    719.20933  0.026672947  0.026804075            5 
 2248000   0.88512113   -7.0545967    719.33267  0.026665654  0.026796242            6 
 2249000   0.89274774   -7.0983948    720.59111  0.026700427  0.026788366            5 
 2250000   0.86679644   -7.1032623    718.06031  0.026594826  0.026780477            3 
 2251000   0.90161087   -7.0877063    718.84607  0.026612101  0.026772598            3 
 2252000   0.91094091   -7.0630934    720.17916  0.026649614  0.026764738            8 
 2253000   0.89241228   -7.0752134    719.93521  0.026628762  0.026756939            3 
 2254000    0.9004047   -7.1037275     718.7972  0.026574874  0.026749109            4 
 2255000   0.89669775   -7.0773267    719.04342  0.026572188  0.026741294            7 
 2256000   0.89292164   -7.0886565    720.96949  0.026631556  0.026733456            3 
 2257000   0.89684635   -7.0951201     718.0644  0.026512495  0.026725608            5 
 2258000   0.89441129    -7.113636    719.05592  0.026537346   0.02671772            5 
 2259000   0.88560024   -7.0774515    719.62361   0.02654654  0.026709829            2 
 2260000   0.88114396   -7.1005533    721.60125  0.026607716  0.026702017            3 
 2261000   0.88484516   -7.1080795    719.69782  0.026525793  0.026694222            3 
 2262000   0.88383345   -7.1025623    720.73673  0.026552341  0.026686432            6 
 2263000    0.8854584   -7.1069416    721.73532   0.02657738  0.026678661            5 
 2264000   0.88511729   -7.1083677    719.61263  0.026487509  0.026670931            5 
 2265000   0.89486378   -7.1129275    721.47864  0.026544468  0.026663165            4 
 2266000   0.91573514   -7.1137704    721.11699  0.026519454  0.026655454            3 
 2267000   0.90092587   -7.0796821    723.71179  0.026603139  0.026647793            4 
 2268000   0.89726296   -7.1113286    722.32302  0.026540381  0.026640122            2 
 2269000    0.8938203   -7.0929066    723.77957  0.026582179   0.02663252           10 
 2270000   0.88652645   -7.1032931    721.78368  0.026497198  0.026624875            3 
 2271000   0.88467055   -7.0853766    724.48226  0.026584554  0.026617245            7 
 2272000    0.9044348   -7.0635493    724.25823  0.026564636  0.026609673            4 
 2273000   0.88125593   -7.1178838    723.92558  0.026540753  0.026602057            6 
 2274000   0.90547617   -7.0702706    723.52868  0.026514537  0.026594513            5 
 2275000   0.90225782    -7.084761    724.92547  0.026554047  0.026586934            4 
 2276000   0.91807534   -7.1019516     725.0291  0.026546174  0.026579366            5 
 2277000   0.89535106   -7.0889485    725.57323   0.02655443  0.026571795            6 
 2278000   0.88667335   -7.0822055    727.22947  0.026603361  0.026564263            7 
 2279000   0.90121523   -7.1089222    725.85133  0.026541295  0.026556718            4 
 2280000   0.90173357     -7.11879     725.7065  0.026524361  0.026549151            4 
 2281000   0.89981354   -7.1013248    725.70525  0.026512686  0.026541548            7 
 2282000   0.87140663   -7.1224296     727.1171  0.026552626  0.026534027            6 
 2283000   0.87217825   -7.1028111    728.00774  0.026573505  0.026526635            2 
 2284000    0.8817112   -7.1433999    725.60966  0.026474375  0.026519134            4 
 2285000   0.88463087   -7.0904248    726.10233  0.026480756  0.026511576            4 
 2286000   0.89291827   -7.1237871    725.07227  0.026431623  0.026504041            3 
 2287000   0.89429364   -7.1166822    726.59309  0.026475481  0.026496514            4 
 2288000   0.89564143   -7.1198382    727.75466  0.026506216  0.026488924            3 
 2289000   0.88691927   -7.0895208    726.76434  0.026458582  0.026481399            4 
 2290000   0.88859733   -7.1021912    727.77737  0.026483893  0.026473921            3 
 2291000   0.90300746   -7.1370388    726.57415  0.026428566  0.026466424            7 
 2292000   0.85949129   -7.0785726    728.07282  0.026471525  0.026458953            2 
 2293000   0.86139716   -7.1184722    727.75004   0.02644825  0.026451503            2 
 2294000   0.89019157   -7.0966159    729.73937  0.026508986  0.026444065            4 
 2295000   0.89687784   -7.1157161    728.05979  0.026436448  0.026436662            3 
 2296000   0.89244262   -7.1226175    729.87372  0.026490771  0.026429233           10 
 2297000   0.89051559   -7.1104481      727.493  0.026392868  0.026421805            5 
 2298000   0.88066309   -7.1191381    727.70723  0.026389151  0.026414314            7 
 2299000   0.88044987   -7.0809107    728.16596    0.0263943  0.026406842            4 
 2300000   0.89908721   -7.0679574     730.0296  0.026450348  0.026399403            5 
 2301000   0.87077693   -7.1450134    728.40349  0.026379961  0.026392027            4 
 2302000   0.88922086   -7.1075058    729.60608  0.026412036  0.026384599            8 
 2303000   0.89074297   -7.0843774    729.89036  0.026410854  0.026377205           10 
 2304000   0.88971885   -7.0926738    730.09015  0.026406617  0.026369836            5 
 2305000   0.90331633   -7.1269832    731.26498  0.026437635  0.026362502            4 
 2306000   0.89137728   -7.0793902    730.97772  0.026415789  0.026355218            6 
 2307000   0.88599076   -7.1117267    731.49153  0.026422899  0.026347849            2 
 2308000   0.87638113   -7.1189706    730.99881   0.02639366  0.026340454            3 
 2309000   0.87225422   -7.0752805    730.93289   0.02637985  0.026333123            2 
 2310000   0.86333136   -7.1294137    729.84452  0.026329167  0.026325676            9 
 2311000   0.89379628    -7.120228     730.7839  0.026351648  0.026318234            8 
 2312000   0.88083058   -7.1253489    731.77904  0.026376119  0.026310852            5 
 2313000   0.89286008   -7.1130899    730.01509  0.026301164  0.026303454            6 
 2314000   0.87291044   -7.1281264    729.19679  0.026260328  0.026296046            3 
 2315000   0.87379623   -7.0927126    731.31078  0.026325082  0.026288573            6 
 2316000    0.8934383   -7.1025355    730.40487  0.026281119   0.02628118            5 
 2317000   0.87066048   -7.1178101    731.76277  0.026318615  0.026273824            4 
 2318000   0.88223986   -7.1125432    731.12813  0.026284445   0.02626645            5 
 2319000   0.88682472   -7.1124554    734.23452  0.026384739  0.026259092            3 
 2320000   0.88017776   -7.0931206    734.90325  0.026397387   0.02625173            5 
 2321000   0.86137139   -7.1152283    731.99184  0.026281482   0.02624442            3 
 2322000   0.86975586   -7.0941706    732.34375  0.026282793  0.026237107            4 
 2323000   0.88233515   -7.1180061    733.38302  0.026308761  0.026229859            9 
 2324000   0.89178736   -7.1350105    732.08457  0.026250881  0.026222512            6 
 2325000    0.8935347   -7.0804523    731.96742  0.026235391   0.02621515            5 
 2326000   0.89230977   -7.1207968     733.2123  0.026268712  0.026207804            3 
 2327000   0.90022926   -7.1336891    733.78509  0.026277936  0.026200505            4 
 2328000   0.88719706      -7.0967    734.57221  0.026294824  0.026193183            2 
 2329000   0.87513831   -7.1555814    733.41951   0.02624229  0.026185925            5 
 2330000   0.88513352   -7.0953951    735.05383  0.026289479  0.026178618            3 
 2331000   0.86556357   -7.1173881    732.77339  0.026196675  0.026171388            5 
 2332000   0.88130665   -7.1144089    734.53972  0.026248561  0.026164147            3 
 2333000   0.86814103   -7.1177514    733.92483  0.026215346  0.026156878            2 
 2334000    0.8633618   -7.1182805    735.73534  0.026268757  0.026149626            3 
 2335000   0.89209052   -7.1141378    735.12219  0.026235624  0.026142378            3 
 2336000   0.87500152   -7.1209118    735.16688  0.026225987  0.026135145            5 
 2337000     0.865927   -7.0911057    736.95187  0.026278415  0.026127925            2 
 2338000   0.84572741   -7.0900135    738.21917  0.026312346  0.026120765            6 
 2339000   0.87949764   -7.1065015     736.4821  0.026239208  0.026113549            4 
 2340000   0.88634053    -7.082219    736.58844  0.026231782  0.026106365            3 
 2341000   0.87726796   -7.1079186    736.41528  0.026214413  0.026099154            7 
 2342000   0.87603213   -7.1098422    736.81595  0.026217476  0.026091976            2 
 2343000   0.86196644   -7.1173462    736.00431  0.026177419  0.026084787            4 
 2344000   0.88196268   -7.1357168    734.06246  0.026097215  0.026077533            5 
 2345000   0.88488812   -7.1229624     737.5057  0.026208447  0.026070208            4 
 2346000   0.88731902   -7.0993772    737.75651  0.026206185   0.02606295            3 
 2347000    0.8624139    -7.123369    735.54328  0.026116435   0.02605565            6 
 2348000   0.87168952   -7.1208508    735.85192  0.026116266  0.026048351            9 
 2349000   0.87692514   -7.1181597    736.69619    0.0261351  0.026041038            3 
 2350000   0.87663964   -7.1468407    735.52853  0.026082572  0.026033763            4 
 2351000   0.88602979   -7.1304451    734.80586  0.026045862  0.026026485            7 
 2352000   0.88230384   -7.1256373    735.88576   0.02607305  0.026019177            4 
 2353000   0.89186558   -7.1345274    735.98795  0.026065588  0.026011898            3 
 2354000   0.87686968   -7.1337006    735.77793   0.02604708   0.02600466            6 
 2355000   0.86912448   -7.1251873    735.56326  0.026028424  0.025997407            5 
 2356000   0.88730685   -7.1237883    738.00219  0.026103643  0.025990119            5 
 2357000   0.86023811   -7.1132747    738.83256  0.026121926  0.025982884            2 
 2358000   0.86354248   -7.0968023     737.6225  0.026068084  0.025975705            4 
 2359000   0.87441525   -7.1440224    737.97151  0.026069362  0.025968469            7 
 2360000     0.856659   -7.1181585    737.74058  0.026050162  0.025961201            4 
 2361000   0.87156503   -7.1167828    738.28608  0.026058382   0.02595396            3 
 2362000   0.85739964   -7.1038563    740.44581  0.026123547  0.025946831            4 
 2363000   0.87151142   -7.1226575    739.10161  0.026065087  0.025939651            5 
 2364000   0.87804231   -7.1440391    739.65467  0.026073557  0.025932476            6 
 2365000   0.86735351   -7.1309759    738.83499   0.02603365  0.025925346           10 
 2366000    0.8894516   -7.1456159    739.46452   0.02604482  0.025918121            6 
 2367000   0.86066517   -7.1460133    740.07499  0.026055309  0.025910944            6 
 2368000   0.88217866   -7.1588407    738.53558  0.025990132  0.025903714            5 
 2369000   0.86157469   -7.1383769    738.66959  0.025983875  0.025896497            8 
 2370000   0.85037337   -7.1520263    737.26785  0.025923623  0.025889246            4 
 2371000       0.8744    -7.122999    738.65064  0.025961291  0.025882021            5 
 2372000   0.86595198   -7.1124222    740.52677  0.026016258  0.025874799            8 
 2373000   0.86663728    -7.147632     738.9321  0.025949294  0.025867555            5 
 2374000   0.87867362   -7.1371415    740.15218  0.025981191  0.025860405            4 
 2375000   0.88357585   -7.1189459    741.46526  0.026016325  0.025853252           12 
 2376000   0.86109482   -7.1342871    741.85772   0.02601914  0.025846124            2 
 2377000   0.87744067   -7.1565263    739.49211   0.02592526  0.025838958            7 
 2378000   0.85788971   -7.1499395     741.3298  0.025978757  0.025831766            7 
 2379000    0.8585488   -7.1674581    739.18517  0.025892713  0.025824586            6 
 2380000   0.87238233    -7.157002    739.93003  0.025907914  0.025817371            6 
 2381000   0.89256497   -7.1390353    740.52979  0.025918024  0.025810142            7 
 2382000   0.88081922    -7.145796    739.86804  0.025883992  0.025802992            5 
 2383000    0.8700562   -7.1402941    739.29601  0.025853127  0.025795805            4 
 2384000   0.89349813   -7.1160411     741.1596  0.025907425   0.02578868            2 
 2385000   0.87179593    -7.137817    740.70038  0.025880517  0.025781508            6 
 2386000   0.84974601    -7.159836    739.48851  0.025827344   0.02577429            6 
 2387000    0.8710546   -7.1607039    740.90733  0.025866057  0.025767105            5 
 2388000   0.87175366   -7.1414368    740.43913  0.025838887  0.025759927           12 
 2389000   0.87344889   -7.1353122      740.896  0.025844007  0.025752792           14 
 2390000   0.86979319   -7.1184392    742.39539  0.025885474  0.025745655            3 
 2391000    0.8759574   -7.1613494    741.12933  0.025830522  0.025738497            6 
 2392000   0.90825207   -7.1390914    742.50703   0.02586772  0.025731376            6 
 2393000   0.85648749   -7.1572298    743.67282  0.025897507  0.025724227            5 
 2394000   0.86015741   -7.1450171    742.98282  0.025862671  0.025717126            5 
 2395000   0.86643058   -7.1246892    742.16249  0.025823329  0.025710036            9 
 2396000   0.86825037   -7.1227119    744.49843  0.025893796  0.025703006            6 
 2397000   0.86474618    -7.153861    743.85384  0.025860584  0.025695942            5 
 2398000   0.86787713   -7.1335411    743.30131  0.025830599  0.025688878            5 
 2399000   0.86544955    -7.133473    745.12819  0.025883291  0.025681793            4 
 2400000   0.86770612   -7.1188032    745.12766  0.025872488  0.025674697            5 
 2401000   0.88067453   -7.1621579    744.00181  0.025822637  0.025667632            4 
 2402000   0.86766143     -7.14445    743.07629  0.025779777  0.025660577            7 
 2403000    0.8661795   -7.1533013    744.56908  0.025820817  0.025653495           18 
 2404000   0.87087095   -7.1564686    743.25267  0.025764443  0.025646451            5 
 2405000   0.87661742   -7.1582033     743.2866  0.025754906  0.025639331            5 
 2406000   0.86384093   -7.1836554     743.0142  0.025734767  0.025632178            4 
 2407000   0.86936806   -7.1371585    743.96705  0.025757064  0.025625061            3 
 2408000   0.87613626   -7.1297859    744.58911  0.025767896  0.025617988            5 
 2409000   0.87577578   -7.1389584    746.15378  0.025811325  0.025610937            7 
 2410000   0.86558562   -7.1361216    746.29915  0.025805641  0.025603893            7 
 2411000   0.86001526   -7.1817661    744.68725  0.025739225  0.025596828            3 
 2412000   0.84274473   -7.1522923    743.89818  0.025701291  0.025589715            4 
 2413000   0.86812037   -7.1543587    744.76534  0.025720588  0.025582563            4 
 2414000   0.84839802   -7.1266075    745.36043  0.025730476  0.025575446           12 
 2415000   0.86569105   -7.1500709    746.43182  0.025756792  0.025568392            9 
 2416000   0.87122217   -7.1639949    744.37593  0.025675218  0.025561286            3 
 2417000   0.86139341   -7.1563084    743.92815  0.025649157  0.025554188            4 
 2418000   0.88524828   -7.1335381    745.40618  0.025689488   0.02554708            5 
 2419000   0.87249271    -7.172252    743.70407  0.025620231  0.025539961            3 
 2420000   0.86627378   -7.1436778    745.65778  0.025676921  0.025532803            7 
 2421000   0.85053119   -7.1529254     745.3392  0.025655349  0.025525676           10 
 2422000   0.85991377   -7.1504452    745.94158  0.025665482  0.025518557            3 
 2423000   0.88197642   -7.1343622    744.82189  0.025616381  0.025511435            7 
 2424000   0.86512479    -7.135779    745.53194  0.025630223  0.025504289            2 
 2425000   0.87051386   -7.1939414    745.70572  0.025625626  0.025497123            4 
 2426000   0.86221944   -7.1416423    745.20156  0.025597745  0.025489989            3 
 2427000   0.87908161   -7.1411993    746.65977  0.025637267   0.02548291            6 
 2428000   0.85771001   -7.1571527    746.01083  0.025604435  0.025475812            2 
 2429000   0.85224237   -7.1365712    747.44179  0.025642987  0.025468722            3 
 2430000   0.86861836   -7.1267347     746.9929   0.02561704   0.02546168            2 
 2431000   0.84063087   -7.1454587    747.02774  0.025607697  0.025454606            6 
 2432000   0.85643467   -7.1846438    745.39065  0.025541072  0.025447448            3 
 2433000   0.86338858   -7.1532864    745.60964  0.025538075  0.025440293            5 
 2434000   0.85569545     -7.15175    745.91647  0.025538088  0.025433166            4 
 2435000   0.84699468   -7.1411662    746.09165  0.025533595  0.025426035            4 
 2436000   0.85285846    -7.163561    745.84723  0.025514752  0.025418879            5 
 2437000   0.87699064   -7.1313944    746.76634  0.025535711   0.02541173            3 
 2438000   0.87763035   -7.1572768    747.07903  0.025535925  0.025404562            3 
 2439000   0.86413146   -7.1598195    745.78335  0.025481186   0.02539738            3 
 2440000   0.85367321   -7.1434337    747.03299  0.025513422  0.025390194            8 
 2441000   0.85417417   -7.1341233    746.54762    0.0254864  0.025383042            3 
 2442000   0.86923618    -7.124856    747.47452  0.025507594  0.025375913            5 
 2443000   0.86295354   -7.1171785     748.6424   0.02553699  0.025368807            4 
 2444000   0.86459196   -7.1671653    748.71707  0.025529087  0.025361695            4 
 2445000   0.87141352   -7.1608159    746.47231  0.025442137  0.025354541           12 
 2446000   0.86975585   -7.1391504    748.37507  0.025496561  0.025347397            5 
 2447000   0.84599848   -7.1423154    748.47069  0.025489398  0.025340294            3 
 2448000   0.85184357   -7.1741216    747.56863  0.025448278  0.025333156            5 
 2449000   0.85372329   -7.1310083    748.01859  0.025453198  0.025326009            3 
 2450000   0.85292682   -7.1614045    749.00523  0.025476368  0.025318934            5 
 2451000   0.86347399   -7.1808788    748.25534  0.025440478    0.0253118            3 
 2452000   0.85627902   -7.1846614    750.55015  0.025508094  0.025304686            4 
 2453000   0.83914228   -7.1512919    750.86715  0.025508464  0.025297596            4 
 2454000    0.8789289   -7.1663435     749.2038  0.025441585  0.025290483            3 
 2455000   0.85334475   -7.1605902    749.25561  0.025432981  0.025283396            3 
 2456000    0.8587189   -7.1953668    748.86629  0.025409415  0.025276239            5 
 2457000   0.84158938    -7.187524    748.70127  0.025393477  0.025269151            6 
 2458000   0.83784245    -7.205948    748.90661  0.025390108  0.025262091            6 
 2459000   0.87116928   -7.1614692    749.94963  0.025415129  0.025254978            7 
 2460000   0.86695052   -7.1825373     749.4307  0.025387219    0.0252479           12 
 2461000   0.86358686   -7.1853635    749.70682  0.025386253  0.025240822            8 
 2462000   0.87060341   -7.1470398     750.1361  0.025390472  0.025233785            5 
 2463000   0.83405713   -7.1472488    750.50038  0.025392488  0.025226721            5 
 2464000   0.84052759   -7.1415495    750.15908   0.02537064  0.025219702            4 
 2465000   0.85122115   -7.1707584    752.17442  0.025428479  0.025212648            8 
 2466000     0.867126   -7.1649186     749.9049  0.025341474  0.025205619            4 
 2467000   0.86014317   -7.1372815    752.92137  0.025433096  0.025198568            4 
 2468000   0.87681783   -7.1623429    750.80182  0.025351223  0.025191528            7 
 2469000   0.84073925   -7.1989356     750.3069  0.025324251  0.025184549            4 
 2470000   0.84976489   -7.1658167    751.29682  0.025347396  0.025177548            7 
 2471000   0.86039595   -7.1818064    754.20546  0.025435231  0.025170511            4 
 2472000   0.85286853   -7.1719073    750.47909  0.025299322  0.025163496            3 
 2473000   0.84797248    -7.152221    752.87651  0.025369878  0.025156507            8 
 2474000     0.852624   -7.1586954    751.86614  0.025325591   0.02514956            2 
 2475000   0.84817964    -7.152609    753.78088  0.025379828  0.025142606            4 
 2476000   0.83394161   -7.1721562    751.73523  0.025300728  0.025135634            4 
 2477000   0.84923369   -7.2031593    751.14029  0.025270498   0.02512862            7 
 2478000    0.8524976   -7.1526701    752.24652  0.025297502  0.025121613            5 
 2479000   0.84498866   -7.1868878    750.93894  0.025243342  0.025114602            3 
 2480000   0.85235658   -7.1821569    750.79466  0.025228315  0.025107545            6 
 2481000   0.84646583   -7.1777816    753.87696  0.025321677  0.025100537            3 
 2482000   0.84756174   -7.1955478    751.13892  0.025219545  0.025093552            9 
 2483000   0.85312881   -7.1615978     753.5882  0.025291589  0.025086529            2 
 2484000   0.86166556   -7.1758996    754.82283  0.025322827  0.025079541            4 
 2485000   0.85823346   -7.1634303    752.77266  0.025243885  0.025072589            4 
 2486000   0.84556202   -7.1668951    752.80639  0.025234861  0.025065661            9 
 2487000   0.86235761   -7.1757963     754.1256  0.025268918   0.02505868            5 
 2488000   0.83593302   -7.1685588    753.99861  0.025254509  0.025051716            4 
 2489000   0.86927516   -7.1661326    754.01953  0.025245063  0.025044758            7 
 2490000   0.85454848   -7.1725196    754.12717  0.025238526  0.025037852            2 
 2491000   0.83470927   -7.1797089    753.48299  0.025206844   0.02503094            7 
 2492000   0.85725767   -7.1344585    754.74484  0.025238926   0.02502401            4 
 2493000   0.84976014   -7.1942569    754.94073   0.02523535  0.025017064            5 
 2494000   0.84578837    -7.191025    756.12763   0.02526489  0.025010111            6 
 2495000   0.84559075   -7.1715857    754.54767  0.025201993  0.025003178            3 
 2496000   0.87243006   -7.1494113    756.10893  0.025244022  0.024996231            7 
 2497000   0.84340604   -7.1557767     757.4014  0.025277046    0.0249893            5 
 2498000   0.84382195   -7.1621657    756.67628  0.025242737  0.024982402           11 
 2499000   0.85935326    -7.202255    756.27818   0.02521936   0.02497551            6 
 2500000   0.84875592   -7.1866314    755.68495  0.025189498   0.02496859            3 
 2501000   0.87042618   -7.1895774    755.17029  0.025162278  0.024961663            4 
 2502000   0.85227651    -7.196286    754.64249  0.025134642  0.024954718            5 
 2503000   0.85584913   -7.1915497    754.54027  0.025121197  0.024947746            3 
 2504000   0.85489339   -7.1466635    756.34249  0.025171142  0.024940813            4 
 2505000   0.85710077   -7.1763069    755.66929  0.025138699  0.024933868            3 
 2506000   0.85423863    -7.181078    754.78324  0.025099203  0.024926921            3 
 2507000   0.84490716   -7.1863329    756.94682  0.025161109  0.024919984            4 
 2508000    0.8472448   -7.2000228    757.47176   0.02516852  0.024913066            7 
 2509000   0.84432713   -7.1885371    755.45367   0.02509146  0.024906174            5 
 2510000   0.85077992   -7.1741736    758.75843  0.025191183  0.024899326            7 
 2511000   0.86439632   -7.1654818    756.88442  0.025118957  0.024892527            4 
 2512000   0.85159625   -7.2317201    756.86285  0.025108242  0.024885644           10 
 2513000   0.84294742   -7.1796626    758.36863  0.025148184  0.024878751            7 
 2514000   0.84053602   -7.2166589    757.46584  0.025108255  0.024871895            7 
 2515000   0.84121024   -7.1830717    756.09946  0.025052997  0.024865006            4 
 2516000   0.85287436   -7.1589727    758.12274  0.025110054  0.024858162            8 
 2517000    0.8510473   -7.1869844    759.15435  0.025134232  0.024851362            8 
 2518000    0.8360379   -7.1957763    757.45796  0.025068108  0.024844597            7 
 2519000   0.84080664   -7.1537374    761.08324  0.025178088  0.024837807            3 
 2520000   0.84036722   -7.2016489    760.15756  0.025137486  0.024831014            8 
 2521000   0.85795856   -7.1722915    760.47467  0.025137997  0.024824205            4 
 2522000   0.83741692   -7.1711172     759.1948  0.025085739  0.024817375            6 
 2523000   0.85532603   -7.1613711    759.04433  0.025070826  0.024810597            6 
 2524000   0.84691753   -7.1832468     758.9756  0.025058624  0.024803811            2 
 2525000    0.8486541   -7.1529786    760.23428   0.02509024  0.024797055            3 
 2526000   0.84639606   -7.1911169    759.87674  0.025068512  0.024790303            3 
 2527000   0.83220561   -7.1942595    758.69254   0.02501954  0.024783498           12 
 2528000   0.85616869   -7.1784472    758.92193  0.025017205   0.02477666            5 
 2529000   0.85121392   -7.1869699    759.50348  0.025026476  0.024769879            5 
 2530000   0.82854125   -7.1672047    759.20746  0.025006833   0.02476309            5 
 2531000   0.83978746   -7.2051627     757.6294  0.024944995  0.024756259            6 
 2532000     0.854268   -7.1813152    759.17469  0.024986002  0.024749439           10 
 2533000   0.84813931   -7.1618585      757.522  0.024921766  0.024742606            3 
 2534000   0.85526138   -7.1928348    760.69787  0.025016373  0.024735723            2 
 2535000   0.84580357   -7.1974036     760.4908  0.024999698  0.024728821            2 
 2536000   0.82813457   -7.2050269    759.21335  0.024947862  0.024721953            4 
 2537000   0.85483728   -7.2010367    759.00142  0.024931067    0.0247151            9 
 2538000   0.85606168   -7.1905421    760.57205  0.024972815  0.024708283            4 
 2539000   0.86019001   -7.1695355    759.62909   0.02493203  0.024701431            4 
 2540000   0.81082425   -7.1827355    760.92087  0.024964596   0.02469459            2 
 2541000   0.85871737   -7.1995906    758.47153  0.024874444  0.024687725            3 
 2542000   0.82908005   -7.2178338     759.5354  0.024899535  0.024680858            5 
 2543000   0.86582307   -7.2204737    757.83585  0.024834049  0.024673944            5 
 2544000   0.84207513   -7.2240496    759.07857  0.024864995  0.024667065            7 
 2545000   0.85078603   -7.2120584    759.80757  0.024879095  0.024660191            6 
 2546000   0.85098132   -7.1945382     760.5085  0.024892266  0.024653322            4 
 2547000   0.84679202    -7.189803    762.25296  0.024939568  0.024646482            3 
 2548000   0.83230926   -7.2171785    762.40402  0.024934721  0.024639608            4 
 2549000    0.8553027    -7.184972    761.61609  0.024899179  0.024632744           10 
 2550000   0.85374608   -7.1389579    761.52091  0.024886304  0.024625909            3 
 2551000   0.85064265   -7.1962652    759.15483  0.024799256  0.024619066            5 
 2552000   0.82829426   -7.2137196    760.47166  0.024832538  0.024612237            6 
 2553000   0.84381302    -7.160721    760.88138  0.024836186  0.024605362            5 
 2554000   0.83385888   -7.2123782    761.82835  0.024857359   0.02459855            3 
 2555000   0.82727639   -7.2182198    760.57184  0.024806648   0.02459168            4 
 2556000   0.85095644   -7.2048871    761.28799  0.024820292  0.024584825            3 
 2557000   0.83674145   -7.1899659    761.10454  0.024804606     0.024578            5 
 2558000   0.82089031    -7.171038    762.53216  0.024841418  0.024571207            4 
 2559000   0.83842742   -7.2138264    761.49503  0.024797936  0.024564408            5 
 2560000   0.85945806    -7.242596     760.9154  0.024769381  0.024557551            4 
 2561000   0.83188959   -7.2030719    760.35536  0.024741486  0.024550736            5 
 2562000   0.84688003   -7.1774361    761.16522  0.024758171  0.024543913            4 
 2563000   0.82607774   -7.1915763    762.75886  0.024800327  0.024537095            9 
 2564000   0.85076491   -7.1513404     762.7051  0.024788907  0.024530327            4 
 2565000    0.8341539   -7.1940931    760.23585   0.02469902  0.024523496            3 
 2566000    0.8424329   -7.1945005    762.61218  0.024766568  0.024516638           11 
 2567000   0.83938201   -7.1870971    761.84232  0.024731928  0.024509785            5 
 2568000   0.82512967   -7.1922049    762.99245   0.02475962  0.024502915            4 
 2569000   0.84143207   -7.2107361    762.23457  0.024725398  0.024496009            5 
 2570000    0.8409346   -7.2087187    762.05295  0.024709888  0.024489069           12 
 2571000   0.83603199   -7.1910634    761.74961  0.024690445  0.024482119            7 
 2572000   0.85847608   -7.2407946    762.28811  0.024698293  0.024475175            6 
 2573000    0.8289789   -7.1622575    760.89917  0.024643709  0.024468273            9 
 2574000   0.85855108   -7.2104012    762.68066  0.024691811  0.024461474            3 
 2575000   0.85539303   -7.1988464    765.80303   0.02478327  0.024454655            3 
 2576000   0.83768171   -7.1926942    762.77375  0.024675652  0.024447861            3 
 2577000   0.82953885   -7.1968282    762.37099  0.024653052  0.024441086            6 
 2578000   0.84282077   -7.1791319    764.09202  0.024699122   0.02443425           11 
 2579000   0.83411588   -7.1945883    763.59225  0.024673396  0.024427442            7 
 2580000   0.82701486   -7.1772918    762.77073  0.024637298  0.024420641            3 
 2581000   0.83789281   -7.2069875    764.02463  0.024668237  0.024413785            4 
 2582000   0.85066955   -7.1895356    763.74178  0.024649554  0.024406932            9 
 2583000   0.82748681   -7.2265041    764.35173  0.024659689  0.024400081            6 
 2584000   0.83601874   -7.1906006    765.04353  0.024672456  0.024393234            5 
 2585000   0.85445008   -7.2273958    764.85164  0.024656726  0.024386411            3 
 2586000   0.83179395   -7.1836094     765.6831  0.024673985  0.024379592            6 
 2587000   0.84146622   -7.1965169    764.04746   0.02461176  0.024372733            5 
 2588000   0.84812137    -7.231099    763.06132  0.024570496  0.024365899            4 
 2589000   0.83427878   -7.1996652    765.09896  0.024626592  0.024359087            6 
 2590000   0.83704204   -7.2033749     764.3932  0.024594376  0.024352277            5 
 2591000   0.83768394   -7.2094674    763.58747  0.024558969  0.024345456            4 
 2592000   0.82499768   -7.2062112     764.6323  0.024583086  0.024338629            7 
 2593000   0.83603696   -7.2286517    764.25117  0.024561357  0.024331817            6 
 2594000    0.8508451   -7.2228975    765.30621  0.024585781  0.024324992            8 
 2595000   0.83393243   -7.2200216     764.8516  0.024561708  0.024318193            5 
 2596000   0.83033604   -7.1975813    767.79813  0.024646833  0.024311401            3 
 2597000   0.84792243   -7.2122124    766.51581  0.024596195   0.02430465            3 
 2598000   0.83041084   -7.1954086    763.77426  0.024498789   0.02429783            4 
 2599000    0.8349557   -7.1991662    764.20302  0.024503111  0.024291003            5 
 2600000   0.83396589   -7.1853728    766.31462  0.024561366  0.024284183            4 
 2601000   0.83417411   -7.2087706    765.70925  0.024532527  0.024277392            6 
 2602000   0.84357612   -7.2122066     765.8175  0.024526566  0.024270545            6 
 2603000   0.83971374   -7.2283787    765.29992  0.024500574  0.024263697            7 
 2604000   0.83651903   -7.2076859    767.13032  0.024549742  0.024256921            5 
 2605000   0.84432359   -7.2184775    765.48672  0.024487739  0.024250122            7 
 2606000   0.83568552   -7.2176191    766.71482  0.024517614  0.024243321            9 
 2607000   0.83722228    -7.226403    765.89657  0.024482054  0.024236536           18 
 2608000   0.83044898   -7.2025685    764.34191   0.02442299  0.024229676            9 
 2609000   0.83946538   -7.2170957    764.14575  0.024407364  0.024222828            2 
 2610000   0.83581368   -7.1946926    766.71093  0.024479915  0.024215959            8 
 2611000   0.84837005   -7.2091052    765.86609  0.024443575  0.024209106            6 
 2612000   0.81430221   -7.2138429    766.83642  0.024465174  0.024202246            5 
 2613000   0.84678309   -7.2216028    766.63591  0.024449417  0.024195366            5 
 2614000   0.82483485   -7.1980266     767.0387  0.024452904  0.024188498            7 
 2615000   0.83863872   -7.2172547    767.76052  0.024466556  0.024181669            6 
 2616000   0.83484668   -7.1897372    766.99372  0.024432776  0.024174854            7 
 2617000   0.83770645   -7.1976717    767.05219  0.024425302  0.024168067            3 
 2618000   0.83026207   -7.1913139    766.35616  0.024393817  0.024161249            4 
 2619000   0.83854418   -7.2080408      767.551  0.024422521  0.024154424            3 
 2620000   0.85036746   -7.2287928    768.31882  0.024437622  0.024147592            3 
 2621000   0.84088446   -7.2303975    766.86384  0.024382037  0.024140791            6 
 2622000   0.85015151   -7.1878415     767.6583  0.024397988  0.024134005            5 
 2623000   0.82553078   -7.2175276    766.39521  0.024348558  0.024127248            5 
 2624000   0.82766653   -7.2243276    769.62214   0.02444176  0.024120458            3 
 2625000   0.81333955   -7.2438867    767.06425  0.024351246  0.024113669            9 
 2626000   0.84433568   -7.2236219    768.72886  0.024394798  0.024106831            5 
 2627000   0.82548641   -7.1959198    769.80944  0.024419789  0.024100065            4 
 2628000   0.82741677   -7.2006696    768.86027  0.024380399  0.024093357            2 
 2629000    0.8337691   -7.2256665    769.12616  0.024379554  0.024086676            5 
 2630000   0.81816084   -7.2046009    770.81774  0.024423883  0.024079964            5 
 2631000   0.84654264   -7.2332668    769.65677  0.024377828  0.024073253            8 
 2632000   0.83167598   -7.2372275    769.46324  0.024362438  0.024066508            3 
 2633000   0.83677643   -7.2394337    769.41784  0.024351748  0.024059793            4 
 2634000   0.82548884   -7.2232391    768.49585  0.024313334  0.024053077            5 
 2635000   0.83583823    -7.210396    770.49014  0.024367177  0.024046419            5 
 2636000   0.81630425   -7.2079961    769.36907  0.024322492   0.02403974            6 
 2637000   0.83658166   -7.2022062    769.16929  0.024306955  0.024033069            5 
 2638000   0.82789001   -7.2167131    769.93794  0.024322022  0.024026422            2 
 2639000   0.83464684    -7.214779    770.82383   0.02434078  0.024019733            9 
 2640000   0.83860203   -7.2217884    771.90932  0.024365824  0.024013043           13 
 2641000   0.83910737   -7.2407031     770.3527  0.024307481  0.024006325            5 
 2642000   0.81402954   -7.2488467    770.32053  0.024297266  0.023999606            6 
 2643000   0.81312023   -7.2331599    770.19985  0.024284268  0.023992877           12 
 2644000   0.81052923   -7.2321958    769.86584  0.024264556  0.023986143            4 
 2645000   0.84408586   -7.2377493    770.41648  0.024272731   0.02397943           14 
 2646000   0.84004685    -7.203426     771.1856   0.02428778  0.023972771            2 
 2647000   0.83090293   -7.2290656    769.25773  0.024217911  0.023966078            2 
 2648000   0.83407448   -7.2493248    771.24322  0.024271249  0.023959351            2 
 2649000   0.81548884   -7.1941375    770.94085  0.024252575  0.023952623            3 
 2650000   0.82581212   -7.2182236     770.2993  0.024223248  0.023945947            3 
 2651000   0.82144229    -7.228857    771.25474  0.024244145  0.023939261            7 
 2652000   0.83891334    -7.225166    770.91703  0.024224391  0.023932571            7 
 2653000   0.83811775   -7.2386084    772.49118  0.024264706  0.023925898            6 
 2654000   0.82198226   -7.2328506    770.23068  0.024184586   0.02391919            6 
 2655000   0.83799016   -7.2247326    771.28349  0.024208521  0.023912521            3 
 2656000   0.83823884   -7.2210659    771.80085  0.024215639  0.023905864            5 
 2657000   0.84476847   -7.2206082      771.234  0.024188747  0.023899181            3 
 2658000   0.83026095   -7.2107781    773.75775  0.024258771  0.023892494            7 
 2659000   0.81706519   -7.2551816    769.54744  0.024117696  0.023885792            6 
 2660000   0.81400191   -7.2449401    772.58885  0.024203911  0.023879023            5 
 2661000    0.8392546   -7.2369343     771.3726  0.024156727  0.023872296            8 
 2662000   0.82112817   -7.2237197     772.6625  0.024188032  0.023865626            5 
 2663000   0.81660342   -7.2332068     771.2412  0.024134472  0.023858956            6 
 2664000   0.82284907   -7.2443325    769.46527   0.02406986  0.023852251            5 
 2665000   0.82557102   -7.2422259    771.86916  0.024135996   0.02384555           12 
 2666000   0.82565293   -7.2360718    771.44786  0.024113774  0.023838831            2 
 2667000   0.83325201   -7.2462755    771.52492   0.02410714   0.02383211            7 
 2668000   0.82353377   -7.1915819    773.94388  0.024173659  0.023825417           10 
 2669000   0.82512952    -7.244324    772.05376  0.024105588  0.023818738            3 
 2670000   0.83670867   -7.2357345     773.0011  0.024126127  0.023812036            3 
 2671000   0.81978524   -7.2324423    771.62725  0.024074231  0.023805356            5 
 2672000   0.82426016    -7.278804    770.70547  0.024036473  0.023798625            3 
 2673000   0.81728351   -7.2266801    772.59617  0.024086425  0.023791959            3 
 2674000   0.83166137   -7.2209902    774.85148  0.024147703  0.023785327            3 
 2675000   0.82825324   -7.2403892    772.63808  0.024069722  0.023778694            9 
 2676000     0.831859   -7.2333463    773.84206  0.024098221  0.023772011            4 
 2677000   0.84209491   -7.2541432    772.97549  0.024062243  0.023765362            5 
 2678000   0.81464171   -7.2465223     772.9333  0.024051945  0.023758664            8 
 2679000   0.82461582   -7.2086878    776.09258   0.02414124  0.023752018            2 
 2680000   0.82563893   -7.2361582    774.07851  0.024069605  0.023745376            5 
 2681000   0.81380318   -7.2479551    772.83797  0.024022068  0.023738698            5 
 2682000   0.83155089   -7.2395025    773.25126  0.024025953  0.023732008            6 
 2683000   0.82108115   -7.2487049    772.26661  0.023986415   0.02372533            6 
 2684000   0.81573435   -7.2282214    773.11762    0.0240039  0.023718676            2 
 2685000   0.81176063   -7.2114972    772.88718  0.023987808  0.023712019            4 
 2686000   0.82415794   -7.2293038    774.81181  0.024038589  0.023705335            4 
 2687000   0.80595734   -7.2477242    773.01455  0.023973904  0.023698634            5 
 2688000   0.83205705   -7.2662593    772.72289  0.023955943  0.023691921            6 
 2689000   0.83244786   -7.2292602    773.55479  0.023972815  0.023685204            4 
 2690000   0.80041529   -7.2258659     774.5385  0.023994377   0.02367851            4 
 2691000   0.83837058    -7.252105    772.37125  0.023918347  0.023671813            5 
 2692000   0.81336353   -7.2533075    772.51609  0.023913945  0.023665072            5 
 2693000   0.82235833   -7.2391525    774.24941  0.023958702  0.023658407            3 
 2694000   0.80546725   -7.2619795    774.05496  0.023943794  0.023651761            4 
 2695000   0.82517408   -7.2507318    773.59236  0.023920605  0.023645099            2 
 2696000   0.82049298   -7.2395237    773.21053   0.02389993  0.023638455            7 
 2697000   0.84183476   -7.2189446    774.45581  0.023929545   0.02363178            6 
 2698000   0.83258444   -7.2417771    774.63391  0.023926177  0.023625094           10 
 2699000   0.81457533   -7.2362312    775.10703   0.02393192  0.023618426            7 
 2700000   0.80483559   -7.2358422    774.66506  0.023909415  0.023611755            5 
 2701000   0.82156766   -7.2161551    775.18479  0.023916598   0.02360515            4 
 2702000   0.82052956   -7.2716109    776.16405  0.023937949  0.023598536            6 
 2703000   0.81577988   -7.2092309      776.438  0.023937538  0.023591938            3 
 2704000   0.80514575   -7.2596471    774.61663  0.023872554  0.023585302            3 
 2705000   0.81766659   -7.2783509    773.44159  0.023827529  0.023578598            1 
 2706000   0.81774359   -7.2346492    774.89313  0.023863425  0.023571926            5 
 2707000   0.79898153   -7.2665062    775.18268  0.023863523  0.023565223            3 
 2708000   0.81179817   -7.2690103    775.62994  0.023868474  0.023558489            4 
 2709000   0.80942535   -7.2551005    776.30099  0.023880306  0.023551812            4 
 2710000   0.81614911   -7.2302155    777.11686  0.023896582  0.023545133            8 
 2711000   0.84486615   -7.2232538     775.8917  0.023850108  0.023538423            5 
 2712000   0.83100101   -7.2717876    775.02356  0.023814637  0.023531715            3 
 2713000    0.8179762   -7.2472244    775.65892  0.023825375  0.023525002           10 
 2714000   0.82432157   -7.2456525    776.79907  0.023851605  0.023518289            5 
 2715000   0.81396878    -7.247123    776.00475  0.023818439  0.023511579            5 
 2716000   0.82117312   -7.2270382    775.69119  0.023800049  0.023504927            4 
 2717000   0.81300115   -7.2323398    776.10247  0.023803903  0.023498256            4 
 2718000   0.82898795   -7.2646097    778.22623   0.02386026  0.023491605            3 
 2719000   0.79631176   -7.2442746      777.075  0.023816201  0.023484958            4 
 2720000   0.80521327   -7.2136223    776.77176  0.023798154  0.023478317            6 
 2721000    0.8384147    -7.262049    776.77475    0.0237895   0.02347167            4 
 2722000   0.81353939   -7.2631803    778.45049  0.023832062  0.023465025            4 
 2723000   0.81514307   -7.2866057    777.88982  0.023806152  0.023458378            5 
 2724000   0.81443167   -7.2605778    778.55935  0.023817895  0.023451764            2 
 2725000   0.81687836   -7.2732135    776.52162  0.023746838  0.023445142            5 
 2726000   0.81799447   -7.2350636    777.40804  0.023765225  0.023438504            5 
 2727000   0.80927146   -7.2394423    778.22412  0.023781449   0.02343189            3 
 2728000   0.81503476   -7.2731023    777.68465  0.023756252   0.02342527            6 
 2729000   0.81769957   -7.2262234    778.11948  0.023760824  0.023418677            5 
 2730000   0.81771177    -7.249965    776.86754  0.023713905   0.02341204            5 
 2731000   0.82366381   -7.2314263    777.14192  0.023713595  0.023405418            6 
 2732000    0.8156731   -7.2374183    777.72529  0.023722709  0.023398793            5 
 2733000   0.82051694   -7.2632851    779.09751   0.02375587    0.0233922            4 
 2734000   0.80922348   -7.2769712    778.12924  0.023717668  0.023385589            6 
 2735000   0.79795825   -7.2667296     776.9337  0.023672569  0.023378993            4 
 2736000   0.81083061   -7.2842272    777.85764  0.023692058  0.023372385           10 
 2737000   0.81185015    -7.254828    778.95218  0.023716727  0.023365813            3 
 2738000   0.82159826   -7.2422172    779.98935  0.023739632  0.023359243            3 
 2739000   0.81323765   -7.2441529    778.51312  0.023686051  0.023352639            4 
 2740000   0.82205782   -7.2598257    776.96685  0.023630379  0.023346038            4 
 2741000   0.81905679   -7.2290079    781.35624  0.023755206  0.023339458            4 
 2742000   0.82461983   -7.2614356    777.40908  0.023626583  0.023332878            4 
 2743000   0.83267092   -7.2723155    778.63398  0.023655182   0.02332626            5 
 2744000   0.80182236   -7.2404362    780.04573  0.023689436  0.023319685            4 
 2745000   0.82004935   -7.2625484    777.92222  0.023616339  0.023313126            5 
 2746000   0.80606811   -7.2705471    776.94336  0.023578034  0.023306521            4 
 2747000   0.81036411   -7.2337159    781.02445  0.023693255  0.023299944            3 
 2748000   0.80939522   -7.2501642     780.2499  0.023661144  0.023293351            4 
 2749000   0.81468702   -7.2780446     778.9281  0.023612468  0.023286793            4 
 2750000   0.81623869   -7.3052922    779.28701  0.023614758  0.023280221            7 
 2751000   0.81214379   -7.2425796    777.52997  0.023552949  0.023273649           12 
 2752000   0.80896505   -7.2500347    781.46809  0.023663641  0.023267084            5 
 2753000   0.81219322   -7.2944638    780.28422   0.02361921  0.023260483            4 
 2754000   0.80711664   -7.2612283    781.35116  0.023642918   0.02325389            4 
 2755000    0.8142819   -7.2209828    780.43813  0.023606719  0.023247309            4 
 2756000   0.80409516   -7.2522461    779.93172  0.023582841  0.023240779            6 
 2757000   0.81662133   -7.2773406     780.2874  0.023585038  0.023234204            4 
 2758000   0.82442638   -7.2945318     778.0359  0.023508457  0.023227581            4 
 2759000   0.79719946   -7.2894047    780.09699   0.02356219  0.023220951            5 
 2760000   0.81721154   -7.2940664    779.85408  0.023546319  0.023214352            3 
 2761000   0.80107456   -7.2702761    779.59759  0.023530049  0.023207738            7 
 2762000   0.77857791   -7.2511108    777.77567   0.02346656   0.02320113            6 
 2763000   0.82248343   -7.2679233    780.77142   0.02354842  0.023194524            3 
 2764000   0.82256106   -7.2798116    780.74084  0.023538979  0.023187984            3 
 2765000   0.80126535   -7.2716716    780.07222  0.023510314  0.023181348           11 
 2766000   0.80188178   -7.2468585    780.89193   0.02352651  0.023174749            6 
 2767000   0.80718171   -7.2835118    779.20531  0.023467212  0.023168121            6 
 2768000   0.80705385   -7.2858622    780.36535  0.023493658  0.023161466            6 
 2769000   0.79762293   -7.2976718    779.87025  0.023470274  0.023154836           11 
 2770000   0.81853947    -7.273797    780.97212  0.023494949  0.023148189            9 
 2771000   0.81873988   -7.2818515    782.76076  0.023540261  0.023141602            4 
 2772000   0.79207115   -7.2676943    781.74489  0.023501229  0.023135032            3 
 2773000   0.80430101   -7.2913415     780.8281  0.023465203  0.023128446            9 
 2774000   0.81428856   -7.2821005    780.67474  0.023452137  0.023121857            4 
 2775000   0.81868895   -7.2743962    782.68053   0.02350392  0.023115252            8 
 2776000   0.82944801   -7.2993857    780.57331  0.023432196  0.023108608            5 
 2777000   0.80912388   -7.2473258    781.45636  0.023450257  0.023102033            5 
 2778000   0.81563273   -7.2595831    781.14093  0.023432353  0.023095452            5 
 2779000   0.80857681   -7.2994989    780.79113  0.023413432  0.023088884            3 
 2780000   0.80652751   -7.2851722    781.53444  0.023427291  0.023082309            3 
 2781000   0.80816245   -7.2921515    781.85864  0.023428582  0.023075722            4 
 2782000    0.7948924   -7.2791554    781.78449  0.023417939  0.023069149            3 
 2783000   0.80021606   -7.2852047    780.20453  0.023362215  0.023062558            3 
 2784000   0.81198615   -7.2901386    780.77686  0.023370955   0.02305599            6 
 2785000   0.81072366   -7.2426433    780.03363  0.023340324  0.023049426            4 
 2786000   0.78988404   -7.3012055    781.15126  0.023365376  0.023042883            5 
 2787000   0.79972434   -7.2837003     781.7447  0.023374737  0.023036299            5 
 2788000   0.79946538    -7.282699    783.05627  0.023405556  0.023029702            5 
 2789000   0.81843044   -7.2918036     783.3206  0.023405062  0.023023133           13 
 2790000   0.79615814   -7.2915318    780.29213  0.023306217  0.023016536            8 
 2791000   0.80853488   -7.2765199    782.37919  0.023360181  0.023009999            8 
 2792000   0.81125699   -7.2649921    784.54601  0.023416488  0.023003495            5 
 2793000     0.794714   -7.2300488    783.49519  0.023376751  0.022996941            5 
 2794000   0.78842326    -7.303978    780.74436  0.023286338  0.022990392            4 
 2795000   0.82238823   -7.2768073    782.14379  0.023319731  0.022983795            7 
 2796000   0.82129583   -7.2822578    783.13336  0.023340885  0.022977216            5 
 2797000   0.80883497   -7.2819916    780.09415   0.02324199  0.022970627            6 
 2798000    0.8031797   -7.2943321    782.79338  0.023314075  0.022964068            6 
 2799000   0.81054807   -7.2847144    784.61681  0.023360034  0.022957532            5 
 2800000   0.81862796   -7.2663263    783.79477  0.023327225  0.022950982           10 
 2801000   0.80950645   -7.2567544    783.01787  0.023295783  0.022944436            9 
 2802000   0.78895597   -7.2695157    781.38768  0.023238986  0.022937874            9 
 2803000   0.79086094   -7.2969499    781.72629  0.023240763  0.022931294            3 
 2804000   0.79118048   -7.2161696    784.07041   0.02330214  0.022924764            5 
 2805000   0.79891534   -7.2850806    782.67037  0.023252239  0.022918224            8 
 2806000   0.78870648   -7.2366034    783.89445  0.023280306  0.022911691            5 
 2807000   0.78250023   -7.2708485    784.41476  0.023287459  0.022905132           10 
 2808000   0.78408486   -7.2841449    781.58779  0.023195269  0.022898594            5 
 2809000   0.75722876   -7.2940392    782.58059  0.023216465  0.022892078            3 
 2810000   0.79210151   -7.2807309    783.67333  0.023240609  0.022885565            5 
 2811000   0.81276415   -7.2468233    785.76887  0.023294464   0.02287908            5 
 2812000   0.81685504   -7.2721402    784.89017   0.02326014  0.022872604            3 
 2813000   0.81445832   -7.3033145    782.92768  0.023193734  0.022866126            5 
 2814000   0.80195774   -7.2591032    785.12742  0.023250634  0.022859577            5 
 2815000   0.81667076   -7.3114652     784.0627  0.023210855  0.022853067            4 
 2816000   0.81652256   -7.3066059    783.93591  0.023198861  0.022846542            9 
 2817000   0.79968204   -7.2655228    783.63371  0.023181686  0.022840009            7 
 2818000   0.80236103   -7.2742094    784.12961  0.023188124    0.0228335            7 
 2819000   0.78453389   -7.3021487    783.59435  0.023164076  0.022827009            4 
 2820000   0.80228592   -7.2724099    785.09643  0.023200249  0.022820507            5 
 2821000   0.81158099   -7.2776697     785.2448  0.023196408  0.022814002            5 
 2822000   0.79979959   -7.2794405    785.65711  0.023200363  0.022807506            3 
 2823000   0.79551009   -7.2985587    785.72246  0.023194074     0.022801            8 
 2824000   0.79800029   -7.2985486    784.40116  0.023146871  0.022794481            3 
 2825000   0.79801873   -7.2948414    784.71327  0.023147884  0.022787974            4 
 2826000   0.79749504   -7.3164923    786.15776  0.023182288  0.022781507            5 
 2827000   0.81045761   -7.3137638    785.87747  0.023165826  0.022775019            5 
 2828000   0.80063982   -7.3211891    785.67187  0.023151576  0.022768503           17 
 2829000   0.80179651   -7.2932912    785.46747  0.023137371   0.02276199            3 
 2830000   0.83639223   -7.2755567    786.76439  0.023167385  0.022755529            3 
 2831000   0.78421731   -7.3035671    785.53323  0.023122961  0.022749038            6 
 2832000    0.7856611   -7.3197968     785.3071  0.023108142  0.022742547            5 
 2833000   0.80643912    -7.306155    785.93781  0.023118538  0.022736059            4 
 2834000   0.80430576   -7.3083185    785.57557  0.023099729  0.022729582            5 
 2835000   0.79740419   -7.3093363    786.66565  0.023123623  0.022723099            5 
 2836000   0.78535347   -7.3005052    788.31716  0.023163997  0.022716637            4 
 2837000   0.79819335   -7.2765594    788.07616  0.023148753  0.022710187            6 
 2838000   0.80875197   -7.2688721    785.80536  0.023073918  0.022703781            7 
 2839000    0.8122718   -7.2918858     786.2606  0.023079153  0.022697358            9 
 2840000   0.77541278   -7.2849725      787.342  0.023102758  0.022690971            7 
 2841000   0.78685401   -7.2724038    787.96483  0.023112895  0.022684594            7 
 2842000   0.78480012   -7.2666511     787.1309   0.02308031  0.022678205            4 
 2843000   0.79287594   -7.3008983    787.70529  0.023089028  0.022671809            6 
 2844000   0.79034991   -7.2769526    789.50909  0.023133764  0.022665409            9 
 2845000   0.80484772   -7.3214626    788.20958  0.023087568  0.022658985            9 
 2846000   0.81869523   -7.2850528    787.99581  0.023073196  0.022652556            4 
 2847000   0.79942474   -7.2764536    787.13671  0.023039946  0.022646152            3 
 2848000   0.80009614   -7.2964628    787.83328  0.023052238  0.022639764            4 
 2849000   0.78073592   -7.2953531    787.69584  0.023040126  0.022633361            4 
 2850000   0.80511369   -7.3099753    786.43616  0.022995209  0.022626942            3 
 2851000   0.78760671    -7.272614    787.93465  0.023030944  0.022620498            7 
 2852000   0.79049252   -7.3188101    787.97164  0.023023949   0.02261408            9 
 2853000   0.79191557   -7.2872562    786.58185  0.022975285  0.022607642            6 
 2854000   0.82177915   -7.3027395    789.30814  0.023046839    0.0226012            7 
 2855000   0.78673861    -7.306166    786.16876  0.022947132  0.022594766            4 
 2856000   0.80304746    -7.330331    787.06573   0.02296527  0.022588334            4 
 2857000   0.79039109   -7.3124598    788.46715  0.022998108  0.022581935            3 
 2858000   0.78495522   -7.2962518    789.74671  0.023027371  0.022575541            4 
 2859000   0.80812019   -7.3061546    787.53638   0.02295489  0.022569134            5 
 2860000   0.78915666   -7.3111037    788.93976  0.022987755  0.022562737            5 
 2861000   0.79199171   -7.2681784    791.04675  0.023041091  0.022556361            5 
 2862000   0.77935348   -7.2787846    789.02237  0.022974096  0.022550001            5 
 2863000   0.80677545   -7.2901241    788.15117  0.022940714  0.022543656            8 
 2864000   0.79050792   -7.3066148    788.12446  0.022931927  0.022537264            4 
 2865000   0.78645095   -7.3301685    787.36273  0.022901766  0.022530876            4 
 2866000   0.79441569   -7.3442991    788.05432  0.022913885  0.022524421            7 
 2867000   0.81089074   -7.3269286    789.46545  0.022946909   0.02251798            6 
 2868000   0.78095522   -7.3235686    788.42739  0.022908745  0.022511564           12 
 2869000    0.7946197   -7.3309162    788.38832  0.022899626  0.022505151            9 
 2870000   0.80085032   -7.3181132    787.26525  0.022859037  0.022498702            7 
 2871000   0.78151218   -7.2935079    790.84452  0.022954967  0.022492314            5 
 2872000   0.78894099   -7.2706844    790.69889  0.022942749  0.022485997            4 
 2873000   0.79360336   -7.2708572    789.85351  0.022910242   0.02247966           10 
 2874000   0.79385348   -7.3154792    790.09618  0.022909307  0.022473307            8 
 2875000   0.80075495   -7.3090876    791.35474  0.022937818  0.022466987           19 
 2876000   0.81436946   -7.3159626     791.2386  0.022926478   0.02246063           14 
 2877000   0.79981682   -7.3040674    789.76629  0.022875863  0.022454296            7 
 2878000   0.80046276   -7.2779683    789.02801  0.022846537  0.022447948            3 
 2879000   0.78976115   -7.2945441    790.71398  0.022887402  0.022441577            7 
 2880000   0.78608319   -7.3222042    790.41439  0.022870787  0.022435207           13 
 2881000   0.78374632   -7.2986667     789.0536  0.022823487   0.02242886            4 
 2882000   0.79070549   -7.3060069    789.55627  0.022830103  0.022422518           10 
 2883000   0.77874306   -7.3141667    789.72712  0.022827122  0.022416151            8 
 2884000   0.79699513   -7.3145428    789.28711  0.022806493  0.022409754            5 
 2885000   0.81074859   -7.3107808    790.04895  0.022820594  0.022403368            5 
 2886000   0.78865679   -7.2803587    790.48909  0.022825395  0.022397009            7 
 2887000   0.78599332   -7.2940726    790.96175  0.022831132  0.022390677            7 
 2888000   0.79806937   -7.3366688    789.49884  0.022781015  0.022384289           11 
 2889000   0.79656707   -7.3162384     791.5417  0.022832055  0.022377925            5 
 2890000   0.80727925    -7.299981     791.2716  0.022816367  0.022371603            6 
 2891000   0.77491157   -7.3098198    791.89668  0.022826492  0.022365241           14 
 2892000   0.80398281     -7.33766    790.80162  0.022787045  0.022358833           10 
 2893000   0.79428053   -7.3181938    789.60091  0.022744582  0.022352421           16 
 2894000   0.78015779   -7.3022456    790.42326  0.022760403  0.022346028            3 
 2895000   0.78492969   -7.2972132    791.26746  0.022776841  0.022339664            3 
 2896000   0.79371066   -7.2799329    792.39427  0.022801401  0.022333295            3 
 2897000   0.77594158   -7.3261557     789.9248  0.022722495  0.022326952           10 
 2898000   0.77740174   -7.3173885    790.81886  0.022740363  0.022320626            2 
 2899000   0.80057872   -7.2904948    789.31931  0.022689413  0.022314274           22 
 2900000   0.78362631   -7.3190528    790.07718  0.022703367  0.022307924            7 
 2901000   0.77882245   -7.2672948    792.78204   0.02277324  0.022301626            5 
 2902000    0.8174018   -7.2944882    792.98724  0.022771285   0.02229532            4 
 2903000   0.77096972   -7.3267468     791.8897  0.022731935  0.022288978            4 
 2904000   0.78930614   -7.3137424    790.86524   0.02269471  0.022282637           11 
 2905000   0.79497171   -7.3080128    791.63213  0.022708896  0.022276302            6 
 2906000   0.78826258   -7.3007159    792.30854  0.022720479   0.02226999            2 
 2907000   0.76428292   -7.3056643    790.46814  0.022659905  0.022263659            4 
 2908000   0.78871135   -7.3467765    790.72966  0.022659608  0.022257302           19 
 2909000   0.78147058   -7.3102294    793.18225  0.022722076   0.02225095            6 
 2910000    0.7737317   -7.3267116    792.36861  0.022690968  0.022244592            7 
 2911000   0.78917403    -7.319429    792.64813  0.022691175  0.022238238            7 
 2912000   0.78301275   -7.3439745    790.94586  0.022634669  0.022231877            7 
 2913000   0.75577796   -7.3375601    791.56159  0.022644513   0.02222553            7 
 2914000   0.80399316   -7.2897784    791.78844  0.022643229    0.0222192            5 
 2915000   0.78198872   -7.3128142    792.48689  0.022655428  0.022212898            4 
 2916000   0.78946249   -7.3136967    792.53472  0.022649026  0.022206582            4 
 2917000   0.79603987   -7.3240638    791.53971  0.022612836  0.022200237            6 
 2918000   0.78653505   -7.3492667    791.36329  0.022600048  0.022193873            9 
 2919000   0.79394374   -7.3277044    791.94461  0.022608902  0.022187472            6 
 2920000   0.77743493   -7.3278656    791.78482  0.022596599  0.022181084            4 
 2921000   0.80119402   -7.3304478    791.73423   0.02258742  0.022174741            7 
 2922000   0.78819343   -7.3317392    792.26312  0.022594773  0.022168391            5 
 2923000   0.77907808   -7.3225477    792.00057  0.022579558  0.022162002            3 
 2924000   0.78480598   -7.3284513     792.3963  0.022583114  0.022155602            4 
 2925000   0.78411839   -7.3444266    792.31803  0.022573163  0.022149201            5 
 2926000   0.78324174   -7.3291001    791.78858   0.02255037  0.022142803           11 
 2927000   0.79280159   -7.3287158    791.28062  0.022528204  0.022136397            3 
 2928000   0.78320343   -7.3662275     790.6222   0.02250177  0.022129995            3 
 2929000   0.78298005   -7.3264104    792.41367  0.022545057   0.02212359            5 
 2930000   0.78883136   -7.3303962    792.33886  0.022535235  0.022117181            5 
 2931000   0.77562591   -7.3189095    792.81772  0.022541161    0.0221108            5 
 2932000   0.79780427   -7.2953032    792.14714  0.022514414  0.022104387            4 
 2933000   0.76172444   -7.3240307     790.8892  0.022470997  0.022097982            3 
 2934000    0.7773863   -7.3191746    792.99252  0.022523078  0.022091581            8 
 2935000   0.79016543   -7.3460206    791.75029  0.022480133  0.022085208            6 
 2936000   0.78373413   -7.3158337    794.16936  0.022541138  0.022078864            4 
 2937000   0.78939104   -7.3146036    794.68491  0.022548091  0.022072531            5 
 2938000   0.76802821    -7.322712    793.48548  0.022506396   0.02206621            5 
 2939000   0.78299923   -7.3310362    792.44172  0.022469143  0.022059845            6 
 2940000   0.77811581   -7.3098621    793.92197  0.022503457  0.022053485            8 
 2941000   0.79015317   -7.3526648    792.51707  0.022455998  0.022047108            4 
 2942000   0.78292401   -7.3330639    792.88764  0.022458861  0.022040754           11 
 2943000    0.7771987   -7.3148699    793.75336  0.022475744  0.022034393            8 
 2944000   0.79546248   -7.3437989    790.41494  0.022373611  0.022028051           11 
 2945000   0.79302882   -7.3233089    794.12753  0.022471068  0.022021706            3 
 2946000   0.77595567   -7.3249895    794.09034  0.022462388  0.022015378            6 
 2947000   0.78950547    -7.317843    793.91108  0.022449697  0.022009036            8 
 2948000   0.79070407   -7.3277967    794.61508  0.022461982  0.022002746            2 
 2949000   0.78230843   -7.3257199    795.62039  0.022482773  0.021996438            7 
 2950000   0.77084584   -7.3352194    793.90554   0.02242671  0.021990111            5 
 2951000   0.78272274   -7.3237065    793.29615  0.022401902  0.021983793            7 
 2952000   0.78283924   -7.3259309    794.14484  0.022418271  0.021977503            5 
 2953000   0.76274869   -7.3105422    794.41411  0.022418278  0.021971187            6 
 2954000   0.77082127   -7.3070071    795.71822  0.022447478  0.021964857            4 
 2955000    0.7748653   -7.3557781    793.96831  0.022390533  0.021958561            3 
 2956000   0.77720165   -7.3577711    793.05771  0.022357288  0.021952233            8 
 2957000    0.7864758   -7.3325795    792.84688  0.022343785  0.021945884            3 
 2958000   0.76631463   -7.3596929    794.67049  0.022387607  0.021939546            8 
 2959000   0.78145844   -7.3394688    795.54344  0.022404625  0.021933203            9 
 2960000   0.77943108   -7.3336203    795.10597   0.02238474  0.021926864            9 
 2961000   0.78947279   -7.3256268    795.69351  0.022393716  0.021920521           10 
 2962000   0.77366534   -7.3370647    794.26618  0.022345999  0.021914225           14 
 2963000   0.78669447   -7.3227169    795.34038  0.022368668   0.02190796            8 
 2964000   0.80024043    -7.309256    795.28006  0.022359426  0.021901655            9 
 2965000   0.76949672   -7.3345482    795.97931  0.022371538  0.021895363            4 
 2966000   0.76923511    -7.305299    796.13671  0.022368417  0.021889086            7 
 2967000   0.79018421   -7.3458971    796.17904  0.022362067  0.021882806            4 
 2968000   0.76583961   -7.3266605    795.22604  0.022327775  0.021876527            4 
 2969000   0.77270241   -7.3346857    795.87915  0.022338586  0.021870281            4 
 2970000   0.78343517     -7.32814    796.00019  0.022334461  0.021864004            4 
 2971000   0.77131873    -7.325984    795.23452  0.022305467  0.021857725            4 
 2972000   0.77899115   -7.3282541    794.82279  0.022286418  0.021851439           12 
 2973000   0.77148393   -7.3249185    796.04994  0.022313318  0.021845138            4 
 2974000   0.79411613   -7.3291284     796.0223  0.022305041  0.021838885            5 
 2975000   0.78080651    -7.351011    795.84772  0.022292653  0.021832601            5 
 2976000   0.76773296   -7.3179842    796.10144  0.022292267  0.021826333            8 
 2977000   0.76834719   -7.3661442    797.76335    0.0223313  0.021820071           16 
 2978000   0.77521804   -7.3680726    796.26377  0.022281838  0.021813809            6 
 2979000   0.76716161   -7.3578232    795.44116  0.022251347  0.021807556            4 
 2980000   0.77869066   -7.3493788    795.75527  0.022252664  0.021801299            3 
 2981000   0.77471527   -7.3444004      796.568  0.022267919  0.021795063            9 
 2982000   0.78857488   -7.3466851    797.19632   0.02227801  0.021788871            5 
 2983000   0.76557813   -7.3079384    798.26746  0.022300465  0.021782668            5 
 2984000   0.77373918   -7.3348736    796.29985  0.022238043  0.021776504            4 
 2985000   0.77609073   -7.3278231    797.20744  0.022255931  0.021770342            6 
 2986000   0.77156825   -7.3272945    796.34421  0.022224386   0.02176416            5 
 2987000   0.76000692    -7.372829    797.19229  0.022240606  0.021757991            4 
 2988000   0.78892315    -7.366092    796.84874  0.022223582  0.021751825            8 
 2989000   0.76221108   -7.3225362    798.53997  0.022263298  0.021745649            6 
 2990000   0.77861691   -7.3565046    796.28246  0.022192934  0.021739433            6 
 2991000   0.77533387   -7.3347107    797.24744  0.022212399  0.021733204            3 
 2992000   0.75838937   -7.3671867    796.74663  0.022191027  0.021727014            5 
 2993000   0.78021453   -7.3422634    796.86317  0.022186857  0.021720789            7 
 2994000   0.75857377    -7.340412    797.79606  0.022205412  0.021714596            8 
 2995000   0.77109201   -7.3369278    797.57038  0.022191719    0.0217084            6 
 2996000   0.79115282   -7.3327588    798.08682  0.022198676  0.021702181            3 
 2997000   0.76411871   -7.3192064    798.90345  0.022213977  0.021695998            5 
 2998000     0.773089   -7.3416193    796.88067  0.022150341  0.021689842            4 
 2999000   0.77246124   -7.3630841    798.20804  0.022179839  0.021683661            5 
 3000000   0.76722031   -7.3552572    798.28609  0.022174614   0.02167748            4 
 3001000   0.74604793   -7.3436704    797.95901  0.022158142  0.021671257            3 
 3002000   0.76476609   -7.3341214    797.82876  0.022147145  0.021665077            3 
 3003000   0.76295539   -7.3591883    797.83829  0.022140035  0.021658906            4 
 3004000   0.77017524   -7.3405158    798.63149  0.022154669  0.021652681            8 
 3005000   0.76760957   -7.3546316    799.93094  0.022183332  0.021646475            6 
 3006000   0.76538336   -7.3385907      796.501  0.022080866  0.021640248            6 
 3007000   0.76164158   -7.3706155    798.87042  0.022139187  0.021634053            5 
 3008000   0.76967056   -7.3625516    797.96824  0.022106833  0.021627866            6 
 3009000    0.7674441   -7.3657507    798.43221  0.022112336   0.02162168            7 
 3010000    0.7515983    -7.364421    800.01383  0.022148777  0.021615495            5 
 3011000   0.75420709   -7.3607753    798.85558  0.022109365  0.021609332            9 
 3012000   0.77862183   -7.3323635    798.60711   0.02209515  0.021603171            8 
 3013000   0.75925549   -7.3521471    797.81106    0.0220658  0.021596995           14 
 3014000   0.76613001   -7.3745657    800.40329  0.022130151  0.021590819           11 
 3015000   0.75625091   -7.3600429    799.15882  0.022088414  0.021584649            5 
 3016000   0.75554608   -7.3582538     799.6232  0.022093921  0.021578491            5 
 3017000   0.76967447   -7.3298275    799.64696  0.022087254  0.021572351            5 
 3018000   0.76779554   -7.3474253    800.72568  0.022109722  0.021566252            3 
 3019000   0.76941127   -7.3526102    801.46105  0.022122697  0.021560148            6 
 3020000    0.7567845   -7.3456348    801.13549  0.022106388  0.021554042            4 
 3021000   0.75355907   -7.3676576    801.77127  0.022116608  0.021547915            4 
 3022000   0.77753023   -7.3544905    801.23587  0.022094526  0.021541781            8 
 3023000   0.78867625   -7.3678103     800.1733  0.022057925  0.021535645            9 
 3024000   0.76906887   -7.3849289    800.96677  0.022072497  0.021529474            8 
 3025000   0.77789303   -7.3530964    800.33016  0.022047663  0.021523308            6 
 3026000   0.76267653   -7.3457642    798.63254  0.021993626  0.021517152            9 
 3027000   0.76022154   -7.3889436    799.99118  0.022023763  0.021510992            5 
 3028000   0.77918425    -7.383698    798.53454  0.021976402  0.021504837            6 
 3029000   0.76520674   -7.3779768    800.37818  0.022019868  0.021498684            4 
 3030000   0.77651895   -7.3587008    800.03562   0.02200318  0.021492551            8 
 3031000   0.77473175   -7.3527317     800.3106  0.022003481  0.021486402            8 
 3032000   0.76436605   -7.3659834    799.86891  0.021984084  0.021480264            7 
 3033000   0.76117537   -7.3683266    801.94364   0.02203384   0.02147412            9 
 3034000   0.76824815   -7.3544353    802.63517  0.022045572  0.021468007            6 
 3035000   0.75500825   -7.3501907    799.99064  0.021965696  0.021461884           10 
 3036000    0.7577152   -7.3595829     803.5039  0.022054894  0.021455763           11 
 3037000   0.76777205   -7.3564412     801.3353  0.021988127  0.021449655           12 
 3038000   0.75583367   -7.3183735    798.97468  0.021916137  0.021443555            8 
 3039000   0.77589183   -7.3584385    800.64405  0.021954701  0.021437429           13 
 3040000   0.76983288   -7.3483521    800.61001  0.021946546  0.021431305            8 
 3041000   0.76849681   -7.3785729    799.47238  0.021908155  0.021425145           12 
 3042000   0.76199503   -7.3655052    800.48254  0.021928625  0.021419006            6 
 3043000   0.76537169   -7.3620755    800.27002  0.021915599  0.021412871           24 
 3044000   0.76312122    -7.349421    799.89291  0.021898076  0.021406722           11 
 3045000   0.75024945    -7.379418    799.53414  0.021881066  0.021400537            7 
 3046000   0.76258465   -7.3630025    800.46721  0.021899409   0.02139436            5 
 3047000   0.76646823   -7.3508587     800.5622   0.02189482  0.021388191            4 
 3048000     0.782165   -7.3505513    801.62962   0.02191682  0.021382029            4 
 3049000   0.75039426   -7.3440519    799.98512  0.021864686  0.021375876            5 
 3050000   0.75772554   -7.3282298    802.03576  0.021913545  0.021369726            6 
 3051000   0.75386351   -7.3668158     798.9447  0.021821935  0.021363562           11 
 3052000   0.76973831   -7.3889407    800.45671   0.02185607  0.021357379           16 
 3053000   0.75280026   -7.3717898    798.69048  0.021800701  0.021351197           12 
 3054000   0.75346661   -7.3899222    800.12058  0.021832585  0.021345017           21 
 3055000   0.76009783   -7.3586042    802.97803  0.021903383  0.021338866            9 
 3056000    0.7705052    -7.335467    800.08927  0.021817443  0.021332704           11 
 3057000   0.78073852   -7.3823347    799.95852  0.021806742  0.021326553            8 
 3058000    0.7546618    -7.385256    800.93125  0.021826119  0.021320385           16 
 3059000   0.74896535   -7.3913347     801.0711  0.021822793  0.021314187            5 
 3060000   0.78128548   -7.3554429    801.81111  0.021835815  0.021308019           10 
 3061000   0.78381194   -7.3794907    801.39449  0.021817339  0.021301869           13 
 3062000   0.76091102   -7.3462709    800.93038  0.021797583   0.02129572            9 
 3063000   0.77593093   -7.3710334     803.0067  0.021846956   0.02128958            6 
 3064000   0.76979367    -7.383892     802.3291  0.021821396  0.021283458            8 
 3065000   0.74822231   -7.4100272    801.74438  0.021798379  0.021277342            9 
 3066000   0.75862438      -7.3807    801.88289  0.021795034  0.021271168            5 
 3067000   0.75643837    -7.385416     799.8199  0.021731874  0.021264989           12 
 3068000   0.74881778   -7.3778792    800.00772  0.021729892  0.021258831           12 
 3069000   0.75270307   -7.3642614    800.97433  0.021749059  0.021252696            4 
 3070000   0.75369885    -7.366561    801.74034  0.021762767  0.021246573            5 
 3071000   0.76616037   -7.3810057    803.33292  0.021798896  0.021240428            5 
 3072000   0.73471441   -7.3564144    801.54785  0.021743377  0.021234292            6 
 3073000   0.76639506   -7.3808309    800.83323  0.021716922  0.021228146           15 
 3074000    0.7582592   -7.3492989    801.31927  0.021723034  0.021222007            5 
 3075000   0.75554724    -7.364599    800.97236  0.021706568  0.021215874            4 
 3076000   0.75721372   -7.3741521    803.30939  0.021762825  0.021209739            5 
 3077000   0.76312242   -7.3832241     800.3511  0.021675634  0.021203608            5 
 3078000   0.75339931   -7.3933751    803.40627  0.021751307  0.021197473           13 
 3079000   0.74553848   -7.3919663    802.11553  0.021709308   0.02119132            4 
 3080000   0.76592868   -7.3902363    801.32721  0.021680931  0.021185145            8 
 3081000   0.76322241   -7.3831462    801.08042  0.021667219  0.021179005            7 
 3082000   0.77480453   -7.3635971    802.25208  0.021691869  0.021172871            4 
 3083000   0.75269412   -7.3605803    802.57706  0.021693617  0.021166758           10 
 3084000    0.7584127   -7.3724846    801.22082  0.021649936  0.021160627            8 
 3085000     0.758416   -7.3655613    802.23631  0.021670349  0.021154491            7 
 3086000   0.74730868   -7.3974997    802.41563  0.021668169  0.021148384            9 
 3087000   0.76402501   -7.3855969     802.4878  0.021663098  0.021142257           11 
 3088000    0.7704276   -7.3698692    801.72705  0.021635553  0.021136141            9 
 3089000   0.77136709   -7.3995537    800.05525  0.021583448  0.021130016            6 
 3090000   0.75164241   -7.3680503    805.18622  0.021714839  0.021123901            3 
 3091000    0.7570896   -7.3773998    800.57618  0.021583527  0.021117782            6 
 3092000   0.75372752   -7.3889317    801.59098  0.021603896  0.021111673            6 
 3093000   0.76275808   -7.4086004    801.79123  0.021602307  0.021105539            5 
 3094000   0.75156426   -7.3773697    802.47267  0.021613679  0.021099397            5 
 3095000   0.75992792   -7.4199272    801.29691  0.021575038  0.021093294            5 
 3096000   0.77605839   -7.3927353    801.85608   0.02158312  0.021087164            3 
 3097000   0.75599853   -7.3820744    801.55479  0.021568044  0.021081047            4 
 3098000   0.76491542   -7.3636402     804.2444   0.02163343  0.021074946            5 
 3099000   0.75583344   -7.3812384    802.75211  0.021586321  0.021068875            3 
 3100000   0.74779428   -7.3976263    802.83261  0.021581522  0.021062785            3 
 3101000    0.7518808   -7.3661664    803.39954  0.021589797  0.021056707            4 
 3102000   0.74800126   -7.3608088      803.264  0.021579196  0.021050634           18 
 3103000   0.74656626   -7.3758928    803.30948  0.021573463  0.021044575           20 
 3104000   0.77666257   -7.4095004    803.18452  0.021563158  0.021038526           16 
 3105000   0.77774957    -7.382372    804.18489  0.021583062  0.021032464           14 
 3106000   0.75333536   -7.3728394    805.54568  0.021612623  0.021026403            7 
 3107000    0.7770745   -7.3930374    804.66196  0.021581964  0.021020325           11 
 3108000   0.78982628   -7.4110918    803.84101  0.021553009  0.021014243            8 
 3109000   0.75279381   -7.4045352    802.29734    0.0215047  0.021008152            6 
 3110000   0.75172887    -7.436189    802.95007  0.021515275  0.021002058            7 
 3111000   0.75386308   -7.4178729    805.10018  0.021565954  0.020995961            4 
 3112000   0.77074051   -7.3979963    801.96739  0.021475134  0.020989868           10 
 3113000   0.73802854   -7.4205179    805.48842  0.021562491  0.020983769            9 
 3114000   0.74988331   -7.4410405    801.36647   0.02144526  0.020977646           10 
 3115000   0.76204192   -7.4082029    802.33227  0.021464213  0.020971513            9 
 3116000   0.75028019   -7.3929782    804.70968  0.021520905  0.020965388           11 
 3117000   0.76122802   -7.3962347    803.77284  0.021488954  0.020959276            6 
 3118000   0.74718349   -7.3947059    804.82806  0.021510265  0.020953178            6 
 3119000   0.76497155   -7.4030768    803.95884  0.021480144  0.020947125            5 
 3120000   0.74340162    -7.373107    805.29044  0.021508826  0.020941083            6 
 3121000   0.74893564   -7.3753224    804.57698  0.021482884  0.020935066           21 
 3122000   0.75634784   -7.3874405    805.14862  0.021491262  0.020929027           11 
 3123000   0.73814311   -7.3325749    804.79439  0.021474928  0.020923008           14 
 3124000   0.75213161   -7.3785265    804.08112  0.021449027  0.020916974           11 
 3125000   0.74455346    -7.395015    803.69347  0.021431826  0.020910927           11 
 3126000   0.75288327   -7.3907307    805.37541  0.021469807  0.020904913            7 
 3127000   0.74779122   -7.3895134     805.0706  0.021454818  0.020898886            5 
 3128000   0.73815061   -7.3924898    804.62593  0.021436113  0.020892848            9 
 3129000   0.75014028    -7.388142    805.99061  0.021465607  0.020886806            3 
 3130000   0.75013645   -7.3586886    804.70703  0.021424575   0.02088079            5 
 3131000   0.74612189   -7.3574911    807.44439  0.021490589  0.020874789            5 
 3132000   0.75524915   -7.3829882      805.334  0.021427576  0.020868771            4 
 3133000   0.73712402   -7.3721596    804.78655  0.021406175  0.020862737            5 
 3134000   0.74319688   -7.3611724    803.38676  0.021362124  0.020856661            7 
 3135000   0.75981255    -7.395352    806.79743  0.021445971   0.02085062            3 
 3136000   0.74840432    -7.411365    804.64366    0.0213819  0.020844573            4 
 3137000   0.74711106   -7.3874629    804.40025  0.021368618  0.020838523            4 
 3138000   0.76402994   -7.3898261    804.11538  0.021354243  0.020832482            4 
 3139000   0.75090942   -7.4098789    805.65387  0.021388284  0.020826433            5 
 3140000   0.75481282   -7.4005956    805.73839  0.021383715  0.020820369           10 
 3141000    0.7455541   -7.4087373     805.9817  0.021383363  0.020814315           10 
 3142000   0.75243154   -7.3821228     807.2615    0.0214105  0.020808265            7 
 3143000   0.75170796    -7.384589    805.18624  0.021348665  0.020802235            5 
 3144000   0.75174823   -7.3907586    807.13247   0.02139346  0.020796209            3 
 3145000   0.75840218   -7.3685392    807.32651  0.021391799  0.020790189            7 
 3146000   0.74647106   -7.4158082    806.33094  0.021358628  0.020784189            3 
 3147000   0.75288156   -7.3813709    805.61044  0.021332763  0.020778167            8 
 3148000   0.73167869   -7.3799344    805.44403  0.021321581  0.020772134            7 
 3149000   0.75159104   -7.3837797    807.31187  0.021364239  0.020766123           11 
 3150000   0.74857305   -7.3954708    808.09546  0.021378187  0.020760112            6 
 3151000   0.75627633   -7.4176454    804.16844  0.021267546  0.020754068           12 
 3152000   0.73388817   -7.4167724    803.66752  0.021247555  0.020748015           13 
 3153000     0.741051   -7.4311387    805.58653  0.021291535  0.020741958            6 
 3154000   0.74651363   -7.4269668    804.56939   0.02125791   0.02073589            5 
 3155000   0.76447067   -7.3900608     805.0588  0.021264099  0.020729841           17 
 3156000    0.7462839   -7.4069752    804.70685  0.021248068  0.020723774            8 
 3157000   0.75277259   -7.4081466    804.42575  0.021233918  0.020717712            8 
 3158000   0.74177022    -7.419456    803.69447  0.021207897  0.020711674           12 
 3159000   0.73976724   -7.4053987    804.63039  0.021225873  0.020705647            7 
 3160000   0.74721432   -7.4080691    807.04885  0.021282934  0.020699619            4 
 3161000   0.74529005   -7.4067042    805.24318  0.021228598  0.020693619            6 
 3162000   0.73744726   -7.3767326    806.00562  0.021241978  0.020687608            3 
 3163000   0.73503828   -7.3997198    805.81737  0.021230303  0.020681605            8 
 3164000   0.75438784   -7.4170651    807.56039    0.0212695  0.020675589            4 
 3165000   0.73541218   -7.4145798    804.68657  0.021187114  0.020669559            8 
 3166000   0.75102052   -7.3979928    805.39493  0.021199066  0.020663536           10 
 3167000   0.75539317   -7.4356468    807.44903  0.021246422  0.020657514           10 
 3168000   0.75906254   -7.4203656    807.64895  0.021244975  0.020651521            5 
 3169000   0.74756689   -7.4055102    807.08904  0.021223547   0.02064552            4 
 3170000   0.75147011   -7.4089769     807.4649  0.021226732  0.020639537            5 
 3171000   0.76071219   -7.4211712    804.56922   0.02114394  0.020633542            9 
 3172000   0.73314734   -7.4230034    805.89319  0.021172057  0.020627539            7 
 3173000   0.73835101   -7.4347451    808.39599  0.021231116  0.020621563            7 
 3174000   0.74466839   -7.4190162     807.6977  0.021206094  0.020615577            5 
 3175000   0.72863101   -7.4220305    808.50065  0.021220489  0.020609606            5 
 3176000   0.71951271   -7.4251978    806.70245  0.021166626  0.020603652            6 
 3177000   0.74244552   -7.4133909    807.19829  0.021172969   0.02059766           13 
 3178000   0.75084294   -7.4023061    808.56262  0.021202083  0.020591675            9 
 3179000    0.7315636   -7.4306831    807.82519  0.021176082  0.020585692            7 
 3180000    0.7414981   -7.4165902    807.52828  0.021161643  0.020579698           10 
 3181000   0.74232742   -7.4185435    807.43223  0.021152474  0.020573738            3 
 3182000    0.7559037   -7.4350728    807.61386  0.021150583  0.020567737            6 
 3183000    0.7426398    -7.429426    810.70588  0.021224889   0.02056174            6 
 3184000   0.75494282    -7.421058    806.52554  0.021108813  0.020555741            9 
 3185000    0.7479957   -7.4031897    806.77536  0.021108722  0.020549751           10 
 3186000   0.74363088    -7.387759    808.68241  0.021151978  0.020543767            4 
 3187000    0.7505756   -7.4473899    807.27507  0.021108542  0.020537785            4 
 3188000   0.72293706   -7.4398547    807.26618  0.021101688  0.020531777            9 
 3189000    0.7476121    -7.390953     808.3278  0.021122813  0.020525794            3 
 3190000    0.7552901   -7.4157064    807.63797  0.021098171  0.020519832            4 
 3191000   0.74745657   -7.4248092    808.66968  0.021118502  0.020513837           10 
 3192000   0.74805751   -7.4241702    808.25537   0.02110107  0.020507842           10 
 3193000   0.75926911   -7.4083501    808.87834   0.02111072  0.020501868            8 
 3194000   0.75736556   -7.4376841    807.35188  0.021064284  0.020495888            4 
 3195000   0.74059241   -7.4348535    807.79084   0.02106914   0.02048994            7 
 3196000   0.75497007   -7.3883021    806.24273  0.021022182  0.020483954            5 
 3197000   0.75728647   -7.4091454    807.92407  0.021059433  0.020477994            8 
 3198000   0.73098851   -7.4097265    807.82088  0.021050158  0.020472038            4 
 3199000   0.72986301    -7.408673    807.51236  0.021035541  0.020466069            6 
 3200000   0.75364833     -7.42251    806.53286   0.02100346  0.020460088            7 
 3201000   0.74316361   -7.4349598     807.5541  0.021023485   0.02045411            6 
 3202000   0.74458074   -7.4316632    807.57264  0.021017402   0.02044813            8 
 3203000   0.74374601   -7.4238267    808.40844  0.021032585  0.020442144            3 
 3204000   0.71835759   -7.4126196    806.53312  0.020977245  0.020436179            7 
 3205000   0.76026425   -7.4226317    809.94569   0.02105943  0.020430225            6 
 3206000   0.75180872   -7.4610794    807.67079   0.02099373  0.020424248            7 
 3207000   0.74542134   -7.4655604    806.98703  0.020969417  0.020418284            6 
 3208000   0.72048184   -7.4691756    808.65449  0.021006195  0.020412306            7 
 3209000   0.72128767   -7.4224498    806.97842  0.020956124  0.020406308            6 
 3210000   0.73760964   -7.4370699    807.12398  0.020953374  0.020400325            4 
 3211000   0.72869717   -7.4246262    807.55834  0.020958121  0.020394366            8 
 3212000   0.75060921    -7.444017    808.31346  0.020971188  0.020388414            6 
 3213000   0.74006108   -7.4161433     808.4391  0.020967919  0.020382462            4 
 3214000    0.7293435   -7.4324323     810.2526  0.021008416  0.020376524            4 
 3215000   0.73663211   -7.4253072    809.86671  0.020991879  0.020370591            6 
 3216000   0.73594951   -7.4220378    807.67567  0.020928578  0.020364646            6 
 3217000   0.71992111   -7.4504984    807.92611   0.02092856  0.020358689            5 
 3218000   0.74506736   -7.4404395    809.28092   0.02095714  0.020352729            8 
 3219000   0.74527356   -7.4663377    809.13164  0.020946765  0.020346763            7 
 3220000   0.73849418   -7.4146178    810.54907  0.020976943  0.020340817            6 
 3221000   0.73837475   -7.4426954     808.2889  0.020911955  0.020334873           12 
 3222000   0.73519371   -7.4007492    809.46226  0.020935813  0.020328946            8 
 3223000   0.74160779   -7.3970943    809.81163   0.02093835   0.02032304           21 
 3224000   0.73664829   -7.4129148    808.52143  0.020898507   0.02031712            7 
 3225000   0.74898222   -7.3977345    808.94873  0.020903068  0.020311198            5 
 3226000   0.73880902   -7.4264896    809.92862  0.020921901  0.020305274            3 
 3227000   0.73205586   -7.4228531    809.35743  0.020900667  0.020299336            6 
 3228000   0.73171478   -7.4300992    808.79888  0.020879773  0.020293402            6 
 3229000   0.72509571   -7.4344475    807.91637  0.020850531   0.02028746           11 
 3230000   0.74165915   -7.4131606    810.59239  0.020913116  0.020281491            6 
 3231000   0.72819834    -7.415598    809.54335  0.020879587  0.020275521            5 
 3232000   0.73387306   -7.4192611    808.82972  0.020854727  0.020269532            6 
 3233000   0.73875532    -7.413223    807.92829  0.020825041  0.020263561            6 
 3234000   0.75097689   -7.4226974    808.66949  0.020837701  0.020257582            6 
 3235000   0.74485743   -7.4262633    807.62573  0.020804372    0.0202516            7 
 3236000   0.73195248   -7.4409126    807.60498  0.020797409  0.020245611            8 
 3237000   0.73492433   -7.4335551     808.3895  0.020811181  0.020239636           11 
 3238000   0.74314379   -7.4493079    808.52999  0.020808369  0.020233623            9 
 3239000   0.72122429   -7.4298486    812.19205  0.020896163  0.020227641            5 
 3240000   0.74880394    -7.425118    808.26657  0.020788749  0.020221667            9 
 3241000   0.74781847   -7.4033537    809.29964  0.020808897    0.0202157            4 
 3242000   0.71612574   -7.4341694    808.61044  0.020784764  0.020209757            8 
 3243000   0.73792922   -7.4320637    808.15254  0.020766588  0.020203825            5 
 3244000   0.73090823   -7.4529453    807.58525  0.020745614  0.020197862            6 
 3245000   0.74564427   -7.4448475    809.05092   0.02077686  0.020191883           14 
 3246000   0.73412553   -7.4582519    807.27861  0.020724959  0.020185887            6 
 3247000   0.73036008   -7.4568203    808.94857  0.020761435  0.020179892            8 
 3248000   0.72247458   -7.4711527    808.29589  0.020738298  0.020173887            6 
 3249000   0.72553704   -7.4262975    808.20614  0.020729613  0.020167879           13 
 3250000   0.73067318   -7.4531286    806.46716  0.020678645  0.020161867            9 
 3251000   0.74718845   -7.4385612    808.45731  0.020723298  0.020155865            9 
 3252000   0.72993879   -7.4590914    807.70699  0.020697699  0.020149872           15 
 3253000   0.74814224    -7.426155    807.73878   0.02069215  0.020143879           12 
 3254000   0.72011989   -7.4043263    807.82821  0.020688082  0.020137883            6 
 3255000   0.71948131   -7.4285223     807.9262  0.020684234  0.020131891           10 
 3256000   0.72406097   -7.4299092    805.31249  0.020610987  0.020125888            8 
 3257000   0.74525351   -7.4293501    807.86539  0.020669977  0.020119927            9 
 3258000   0.72590269   -7.4586373    806.99684  0.020641417  0.020113921           10 
 3259000   0.72498553   -7.4310527    807.89512  0.020658053  0.020107927            8 
 3260000   0.73347281   -7.4381777    808.96791  0.020679139  0.020101947            5 
 3261000   0.73340989    -7.435698    808.77176  0.020667785  0.020095929            2 
 3262000   0.72939044   -7.4568503    810.05457  0.020694221  0.020089924            7 
 3263000   0.74179193   -7.4307602    808.77146  0.020655109  0.020083948            8 
 3264000   0.72750133   -7.4518711     807.5737  0.020618201  0.020077976            7 
 3265000   0.75206374   -7.4583955    810.69007  0.020691426  0.020072014            5 
 3266000   0.72093815   -7.4547225    808.83261  0.020637697  0.020066057            7 
 3267000   0.71882931   -7.4344032    806.54785  0.020573101  0.020060086            4 
 3268000   0.73234202   -7.4371983    808.84779  0.020625454  0.020054108           11 
 3269000   0.73104232   -7.4458139    809.27539  0.020630045  0.020048143            6 
 3270000   0.71739351   -7.4490737    808.97449  0.020616067  0.020042169            9 
 3271000   0.74834596   -7.4480108     808.7761  0.020604711  0.020036191           11 
 3272000    0.7139393   -7.4603361    809.13845  0.020607642  0.020030215           10 
 3273000   0.73688148   -7.4621471    809.48587  0.020610191  0.020024226           11 
 3274000   0.72695679   -7.4530051    810.15476  0.020620921  0.020018233           22 
 3275000   0.72638085   -7.4522465    808.25231  0.020566217  0.020012259           10 
 3276000   0.72564893   -7.4408172    807.41434  0.020538623   0.02000628            8 
 3277000     0.721811   -7.4523626    808.47445  0.020559314  0.020000285           12 
 3278000   0.73623741   -7.4554112    809.01995  0.020566909  0.019994299           11 
 3279000   0.72942637   -7.4527991    809.36041   0.02056929  0.019988335            7 
 3280000   0.73830882   -7.4599461    809.22729  0.020559636  0.019982365            7 
 3281000   0.71383097   -7.4461534    809.29901  0.020555192  0.019976402            7 
 3282000    0.7241198   -7.4591034    809.17509  0.020545782  0.019970445            9 
 3283000   0.72566023   -7.4430055    810.56194  0.020574727   0.01996449            9 
 3284000   0.73214766    -7.446467     808.4226  0.020514175  0.019958507            7 
 3285000   0.72815194   -7.4827345    808.51884  0.020510371  0.019952538            6 
 3286000   0.72802354   -7.4591003    808.37762  0.020500548  0.019946556            6 
 3287000   0.73618361   -7.4625814    809.40738  0.020520418  0.019940577            9 
 3288000   0.74010153   -7.4728899    808.92395  0.020501925  0.019934593            6 
 3289000   0.71750691   -7.4511106    809.27775  0.020504656  0.019928603            5 
 3290000   0.71525475   -7.4481602    811.78378  0.020561899  0.019922636           10 
 3291000   0.73124659   -7.4625539    808.12826  0.020463088  0.019916646           11 
 3292000   0.73256448   -7.4894232    808.85972  0.020475388  0.019910642            6 
 3293000   0.72271931   -7.4733069    807.41169  0.020432526   0.01990464            6 
 3294000   0.73679969   -7.4837451    808.66419  0.020458009  0.019898632           12 
 3295000   0.71618913   -7.4549666    809.26614  0.020467024  0.019892665            6 
 3296000   0.73063321   -7.4907127    808.11014  0.020431587  0.019886689            7 
 3297000   0.71592406   -7.4925525    808.18369  0.020427249  0.019880678            6 
 3298000   0.71814646   -7.4765454    808.12569   0.02041959  0.019874682            7 
 3299000   0.71881221   -7.4657507    809.15228  0.020439332  0.019868661            8 
 3300000   0.73181432   -7.4292161    809.43219  0.020440207  0.019862674           10 
 3301000   0.71489952    -7.462516    809.90991  0.020446075   0.01985669            5 
 3302000   0.72135652   -7.4705794    807.75902    0.0203856  0.019850688            5 
 3303000   0.73116799   -7.4675924    809.35551  0.020419707    0.0198447            6 
 3304000   0.71059417      -7.4623     805.5002  0.020316288  0.019838713            2 
 3305000    0.7236268   -7.4578177    809.30132  0.020405984  0.019832721            4 
 3306000   0.72794766   -7.4576909    807.42398   0.02035249  0.019826735            3 
 3307000   0.72818652   -7.4702949    809.95272  0.020410057  0.019820773            8 
 3308000    0.7164135   -7.4570832    810.36455  0.020414262  0.019814817            4 
 3309000   0.71073588    -7.459689    809.23634   0.02037968  0.019808847            5 
 3310000   0.71237115   -7.4621345    808.74715  0.020361207  0.019802886           17 
 3311000   0.72447879   -7.4529452    809.17823  0.020365907  0.019796918            6 
 3312000   0.72446016   -7.4509879    808.13134  0.020333417  0.019790977            6 
 3313000   0.72689345   -7.4638787     809.7236  0.020367331   0.01978502           15 
 3314000   0.70902516   -7.4539831    808.13069   0.02032113  0.019779082            6 
 3315000   0.72130096    -7.488125    809.80866  0.020357181  0.019773122           13 
 3316000   0.70664053   -7.4762334    810.20913  0.020361106   0.01976718            8 
 3317000   0.71329251    -7.472682    808.26834  0.020306209  0.019761233            4 
 3318000    0.7210842   -7.4487354    809.20383  0.020323584  0.019755299            4 
 3319000   0.71558458   -7.4756587    809.10228  0.020314911  0.019749384           14 
 3320000   0.73136396   -7.4370196    808.55797   0.02029513  0.019743478           13 
 3321000   0.71420924   -7.4657506     810.9919  0.020350093   0.01973755            8 
 3322000   0.73089686   -7.4491258    811.22451  0.020349802  0.019731612            6 
 3323000   0.72604104   -7.4811996    811.97472  0.020362492  0.019725675            6 
 3324000   0.70900922   -7.4819288    809.73909  0.020300318  0.019719738           14 
 3325000   0.72429267   -7.4501198    811.01462  0.020326181  0.019713824            7 
 3326000   0.72774219   -7.4468616    810.20404   0.02029976  0.019707927            5 
 3327000   0.71686788   -7.4779413    811.24974  0.020319851  0.019702035            8 
 3328000   0.71503965   -7.4654055    811.96388  0.020331627   0.01969615            6 
 3329000   0.72416925   -7.4714792    811.73012  0.020319668   0.01969025            6 
 3330000   0.71677122   -7.4430846    811.28222  0.020302358  0.019684351            9 
 3331000   0.72011618   -7.4857221    811.18813  0.020293909  0.019678463            7 
 3332000    0.7343208   -7.4829216    810.42598  0.020268757  0.019672555            6 
 3333000    0.7204025   -7.4541084    812.93569  0.020325425  0.019666666            7 
 3334000   0.72031636   -7.4601027    811.64774  0.020287136  0.019660798            6 
 3335000   0.72140763    -7.459523    809.06029  0.020216399  0.019654929            5 
 3336000   0.71788823    -7.460028    810.59885  0.020248772  0.019649076            4 
 3337000   0.74148518   -7.4565542    811.92929  0.020275929  0.019643211            8 
 3338000   0.73247983   -7.4689775    812.51955   0.02028459  0.019637352            7 
 3339000   0.71682971   -7.4389432    811.18663  0.020245249  0.019631469            7 
 3340000   0.71645161   -7.5020994    812.29064  0.020266733  0.019625603            6 
 3341000   0.71007833   -7.4796918    809.71997  0.020196547  0.019619719            9 
 3342000   0.72688479   -7.4817864    812.15929  0.020251329  0.019613835            7 
 3343000   0.72537505   -7.4905021    812.08225  0.020243351  0.019607961            6 
 3344000   0.69742728   -7.4931764    811.50635  0.020222945  0.019602081            4 
 3345000   0.72306968    -7.481142    812.62275  0.020244712  0.019596221            8 
 3346000   0.71483189    -7.467007    809.92646   0.02017151  0.019590367           17 
 3347000    0.7200698   -7.4889836    811.65566  0.020208537    0.0195845           10 
 3348000   0.70984181   -7.4729772     812.3989     0.020221  0.019578635            7 
 3349000   0.70451215   -7.4732791    810.57669   0.02016962   0.01957278           14 
 3350000   0.70207005   -7.4740241    812.55821  0.020212891  0.019566935            9 
 3351000   0.72230503   -7.4812804     812.5954  0.020207784  0.019561094            5 
 3352000   0.71252603   -7.4659483    810.86292  0.020158684  0.019555284            4 
 3353000   0.71711587   -7.4827976    811.71056  0.020173739  0.019549469            6 
 3354000   0.70971359   -7.4685408     811.9779  0.020174366  0.019543642            5 
 3355000   0.72827639   -7.4752201     814.6101  0.020233733  0.019537828           11 
 3356000   0.71800193   -7.4577267     813.4448  0.020198768  0.019532017            4 
 3357000   0.70747665   -7.4594138    815.20773  0.020236514  0.019526211           10 
 3358000   0.72465409   -7.4781168    812.06032   0.02015238  0.019520424           10 
 3359000    0.7192678   -7.4663325     813.6905  0.020186824  0.019514625            5 
 3360000   0.72150292   -7.4715853    812.60458  0.020153883  0.019508835            5 
 3361000    0.7166943    -7.457179    813.57536  0.020171957   0.01950304            5 
 3362000   0.71286533   -7.4799695     811.5202  0.020115016  0.019497233           10 
 3363000   0.71508467   -7.4571507     813.9105  0.020168265  0.019491388            3 
 3364000   0.68867926   -7.4912905    812.86231  0.020136304  0.019485569           14 
 3365000   0.70153243   -7.4659909     813.7106  0.020151328  0.019479775            8 
 3366000   0.71056006   -7.4782205    813.86753  0.020149226  0.019473976            5 
 3367000   0.69807594   -7.4929898    813.88282   0.02014362  0.019468192           18 
 3368000   0.72516626   -7.4790135    814.77322   0.02015967  0.019462389            7 
 3369000   0.70366852   -7.4935567    812.86151  0.020106399  0.019456584            4 
 3370000   0.71270682   -7.5042716    811.75218  0.020073001  0.019450766            7 
 3371000   0.72215414   -7.4767802    812.16446  0.020077239  0.019444943            6 
 3372000   0.71204397   -7.4917643    814.19476   0.02012146  0.019439143            8 
 3373000   0.71351556   -7.4787556    813.20027  0.020090925  0.019433343           10 
 3374000   0.71247543   -7.4898869    811.57276  0.020044773  0.019427537            7 
 3375000   0.70461604   -7.4951702    813.77812  0.020093287  0.019421732           10 
 3376000    0.7022867   -7.4863044    812.26806  0.020050061  0.019415925            5 
 3377000   0.71226131   -7.4712298    812.56029  0.020051335  0.019410135            9 
 3378000   0.70442532   -7.4917951    812.21345  0.020036843  0.019404356            9 
 3379000    0.6957354   -7.4820756    814.16256  0.020078982  0.019398573           10 
 3380000   0.70679792   -7.4846766     811.4042  0.020005035  0.019392775            6 
 3381000   0.71989326   -7.5117386    812.48485  0.020025753   0.01938698            7 
 3382000   0.71296817   -7.4878129    811.48022  0.019995077  0.019381155            7 
 3383000   0.70293786    -7.493053    814.70111  0.020068507  0.019375344            8 
 3384000   0.70233522   -7.4885982    812.18952  0.020000727  0.019369546           10 
 3385000   0.69454501   -7.5326464    811.27426  0.019972286  0.019363743            8 
 3386000   0.71770827   -7.5256545     813.9441  0.020032095   0.01935794            8 
 3387000   0.69838342   -7.5126355    814.69611  0.020044683  0.019352146            6 
 3388000   0.70315613    -7.509053    812.14284  0.019975965   0.01934634           13 
 3389000   0.71748182   -7.5085874    811.91639  0.019964503   0.01934054            4 
 3390000   0.72272285   -7.4790279    813.60389  0.020000096  0.019334744            5 
 3391000   0.71425637   -7.4940591    814.21603  0.020009241  0.019328949           19 
 3392000   0.69808321   -7.5142823    813.40957  0.019983529  0.019323138            4 
 3393000   0.70823872   -7.4742347    813.66859  0.019984001  0.019317334            9 
 3394000   0.70936006   -7.4994203    812.94185  0.019960269  0.019311545            6 
 3395000   0.70951758   -7.5023096     812.2054  0.019936313  0.019305733           10 
 3396000     0.718595   -7.5076485    811.86963  0.019922203  0.019299936            8 
 3397000    0.6990924    -7.512137    813.20162  0.019949014  0.019294139           13 
 3398000   0.71626699   -7.4828777    813.47518  0.019949852  0.019288345           20 
 3399000   0.70700424   -7.5139691    814.33532  0.019965071  0.019282555           22 
 3400000   0.70854665   -7.4904389    814.18258  0.019955455  0.019276757            5 
 3401000   0.71272151   -7.5186622    813.83724  0.019941126   0.01927095            5 
 3402000   0.71186183   -7.5138986    813.07919  0.019916696  0.019265127            4 
 3403000   0.73317044   -7.5070365    812.85147  0.019905267  0.019259318            3 
 3404000    0.7109247   -7.5182815    811.43945  0.019864851  0.019253526            4 
 3405000   0.70602891   -7.5002586    812.12649  0.019875832  0.019247728            7 
 3406000   0.71501693     -7.52811    811.21894  0.019847792   0.01924194            6 
 3407000   0.70296793   -7.4884381    811.56942  0.019850539   0.01923613            4 
 3408000   0.70885275   -7.5050054    811.29923  0.019838107  0.019230315            5 
 3409000   0.71567519   -7.5012921    812.38108  0.019858734  0.019224495            9 
 3410000   0.71171275   -7.5085439     811.9318  0.019841931  0.019218697            6 
 3411000   0.70706765   -7.5194431    814.11624  0.019889481  0.019212899            6 
 3412000   0.70913025   -7.4653134    812.18332  0.019836443   0.01920711            9 
 3413000   0.70489522   -7.5146646    814.00183  0.019875033  0.019201323           10 
 3414000    0.7128646    -7.504885    814.50058  0.019881385  0.019195545            6 
 3415000    0.6985058   -7.4749742    812.84008  0.019835043  0.019189777           15 
 3416000   0.70702182    -7.503421      815.219  0.019887271   0.01918402           11 
 3417000    0.7032345   -7.5097661     814.5749  0.019865742  0.019178258           11 
 3418000   0.70597264   -7.4939002    813.44917  0.019832484  0.019172494           12 
 3419000   0.70906963   -7.5016273    813.54054  0.019828911   0.01916673           11 
 3420000   0.70778851   -7.4898684     812.9825  0.019809515  0.019160989            7 
 3421000    0.7152722   -7.4993611    814.40934  0.019838481  0.019155229            5 
 3422000   0.70034737    -7.530291    815.12047  0.019850002  0.019149478            9 
 3423000   0.71038425    -7.520954    813.76582  0.019811224  0.019143714            9 
 3424000   0.71262827    -7.513273    814.19858   0.01981597  0.019137976           11 
 3425000   0.70649371    -7.506633    814.23311  0.019811024   0.01913225            6 
 3426000   0.71333562   -7.5190065    814.71724  0.019817018  0.019126547            7 
 3427000   0.70339832    -7.509486    814.03313    0.0197946  0.019120827            8 
 3428000   0.68970659   -7.5016831    813.72884  0.019781429  0.019115099            8 
 3429000    0.6927761   -7.5166838    814.54954  0.019795605  0.019109374            8 
 3430000   0.69938282   -7.4978702    814.91677  0.019798755  0.019103658            6 
 3431000   0.71970305   -7.4956127    814.45006  0.019781649  0.019097945           13 
 3432000   0.69560439   -7.4976048    814.65812  0.019780937  0.019092228            7 
 3433000   0.69750535   -7.5012707     814.2311   0.01976481   0.01908651            3 
 3434000   0.71148398   -7.4900924    814.38709  0.019762839  0.019080787            3 
 3435000   0.70865865   -7.5092745    815.07138  0.019773687  0.019075083            7 
 3436000   0.69588981   -7.5035772    816.61047   0.01980526  0.019069391            8 
 3437000   0.70120209   -7.5109862    813.92782  0.019734454  0.019063696            8 
 3438000   0.69271943   -7.5025232    815.06739  0.019756336  0.019057976            5 
 3439000   0.72137395   -7.5234675    815.71479  0.019766279  0.019052274            5 
 3440000   0.69712492   -7.4686103    813.83324  0.019714953  0.019046561            7 
 3441000   0.70265002   -7.5229169    814.47425  0.019724747  0.019040843           13 
 3442000    0.7054014   -7.5219164    814.76791  0.019726126  0.019035124            6 
 3443000   0.70609138   -7.4963372    815.13251  0.019729221  0.019029427            9 
 3444000   0.70007261   -7.5017658    815.54616  0.019733502  0.019023742           11 
 3445000   0.70829209    -7.496864    815.29553  0.019721711  0.019018044            5 
 3446000   0.70148505   -7.5172711     816.2371  0.019738757  0.019012351           11 
 3447000   0.70292185   -7.5120442    815.77486  0.019721856  0.019006654            8 
 3448000     0.700576   -7.5096943    814.24173  0.019679083  0.019000985            6 
 3449000    0.6930547   -7.5167197    815.28965  0.019698696  0.018995302           14 
 3450000   0.71113861   -7.5079093    815.56246  0.019699576  0.018989632            7 
 3451000   0.68929162   -7.5170832    814.40606  0.019665944  0.018983948           16 
 3452000    0.7070043   -7.5390139    814.93354   0.01967298  0.018978239            4 
 3453000   0.69230579   -7.5182041    814.41857  0.019654855  0.018972518           10 
 3454000   0.69573872   -7.5248613     814.5823  0.019653115  0.018966819           11 
 3455000    0.7075471   -7.5166859    815.51564  0.019669938  0.018961126           11 
 3456000   0.70890146   -7.5173684    815.24893  0.019657816  0.018955458           12 
 3457000   0.68389978   -7.5160232    816.47756  0.019681746  0.018949806            8 
 3458000   0.70700059    -7.497749    817.35753  0.019697261   0.01894417            3 
 3459000   0.70171275   -7.4769889    817.70829  0.019700017  0.018938536           11 
 3460000   0.69628753   -7.5040438    814.82657  0.019624917  0.018932908            6 
 3461000   0.69555517   -7.4957243    816.08405  0.019649525  0.018927269           10 
 3462000   0.69436068    -7.508647    814.54956  0.019606912   0.01892164            6 
 3463000   0.68913552   -7.4821805    816.58613  0.019650258  0.018916003            8 
 3464000   0.68256557   -7.5212714    816.26965  0.019636972  0.018910364           11 
 3465000    0.6968594   -7.5185125    817.06251  0.019650373  0.018904721            6 
 3466000   0.69277139   -7.5113394    814.78409  0.019589923  0.018899069            5 
 3467000   0.71409714   -7.5046801    814.13584  0.019568691  0.018893421            5 
 3468000   0.69971886   -7.5128285     815.7041  0.019600733  0.018887766            6 
 3469000   0.69879368    -7.515748       816.12  0.019605074   0.01888212            7 
 3470000    0.6958993   -7.5046992     815.2273  0.019577985  0.018876475           10 
 3471000   0.71089766   -7.5360167    817.41697  0.019624915  0.018870844           11 
 3472000   0.70210547   -7.5236454    815.23704  0.019566941  0.018865191            7 
 3473000   0.69620218   -7.5119638    816.26584  0.019585993  0.018859543            7 
 3474000   0.69739859    -7.533389    816.34224  0.019582188  0.018853902            7 
 3475000   0.70661596   -7.5035915    816.65834  0.019584133  0.018848262            6 
 3476000   0.69978664   -7.5055256    816.83988  0.019582851  0.018842651            7 
 3477000   0.69218544   -7.5075919    815.52615  0.019545733  0.018837042            5 
 3478000    0.7003183   -7.5410681    816.62186  0.019566366  0.018831421            6 
 3479000   0.69761995   -7.5072185    817.22591  0.019575211  0.018825804            6 
 3480000   0.70574544   -7.5138921    816.42929   0.01955051  0.018820179            8 
 3481000   0.71247001   -7.5202489    815.23341  0.019516265  0.018814556           10 
 3482000   0.70063723   -7.5205253    815.55651  0.019518393   0.01880894            7 
 3483000   0.70137327   -7.5260555    816.60683  0.019537918    0.0188033           10 
 3484000   0.70440009   -7.5292724    816.14329  0.019521223  0.018797682            8 
 3485000   0.70015644   -7.5481473    816.08842   0.01951431  0.018792038           15 
 3486000   0.69305626   -7.5368465    815.63863  0.019497959  0.018786401            9 
 3487000   0.69169176   -7.5337408    814.70926  0.019470157  0.018780766            7 
 3488000   0.68705969   -7.5474728    816.38822  0.019504688  0.018775121            7 
 3489000   0.69315856   -7.5371217    817.08349  0.019515704  0.018769489           14 
 3490000   0.68811299   -7.5138596    816.19671  0.019488938  0.018763861            6 
 3491000   0.68201079   -7.5501912     815.2958   0.01946185  0.018758241            6 
 3492000   0.70720705   -7.5321675    817.49385  0.019508731  0.018752612            7 
 3493000   0.68165277   -7.5274522    816.10151  0.019469928  0.018747008            5 
 3494000   0.71712543   -7.5620909    816.48673  0.019473543  0.018741384            7 
 3495000   0.68734136   -7.5369876    817.15126  0.019483816  0.018735753            9 
 3496000   0.68557704    -7.518375    815.65284  0.019442526  0.018730134            9 
 3497000   0.70944614   -7.5000043    816.71562  0.019462292  0.018724509            3 
 3498000   0.67291729   -7.5068134    815.97191  0.019439011  0.018718901            6 
 3499000   0.69749549   -7.5074001    818.01699  0.019482161  0.018713299           12 
 3500000   0.70655935   -7.5347525    816.63116  0.019443599  0.018707688           11 
 3501000   0.69259057   -7.5077216    817.31299  0.019454275  0.018702084            9 
 3502000   0.70807342   -7.5025244    817.58151  0.019455109  0.018696503            6 
 3503000   0.68967888   -7.5209722    817.28337  0.019442463  0.018690902            7 
 3504000   0.69121689   -7.5335934     815.3207  0.019390237  0.018685305            7 
 3505000   0.71141991   -7.5131966     817.6351  0.019439731  0.018679727           14 
 3506000   0.69516588   -7.5370206    817.44044   0.01942956  0.018674143            9 
 3507000   0.69807815   -7.5415181    815.89786  0.019387365  0.018668554           15 
 3508000   0.68445819   -7.5597752    817.23638  0.019413635  0.018662962            7 
 3509000   0.68159986   -7.5321751    815.87513  0.019375775  0.018657368            7 
 3510000   0.68755686   -7.5271223    816.62345  0.019388021  0.018651762            5 
 3511000   0.69943882   -7.5401231    816.34088  0.019375792  0.018646161            3 
 3512000   0.69598783   -7.5284262    815.89243  0.019359634  0.018640548            6 
 3513000   0.67676566    -7.498072    816.71363  0.019373603  0.018634957            7 
 3514000   0.69528407   -7.5088145    816.86378  0.019371651  0.018629364            5 
 3515000   0.68682712   -7.5359804    815.39568  0.019331334  0.018623756            8 
 3516000   0.67781367   -7.5400166    817.92936  0.019385887  0.018618158            7 
 3517000   0.69307841   -7.5385862     816.4976  0.019346451  0.018612558            6 
 3518000   0.69325152   -7.5294614    817.55624  0.019366028  0.018606982            4 
 3519000   0.68889319    -7.518272    816.71935  0.019340706   0.01860141            6 
 3520000   0.68475124   -7.5159728    816.58559  0.019332045   0.01859584            5 
 3521000   0.68868174   -7.5368354    816.92814  0.019334662  0.018590241            6 
 3522000   0.68470516   -7.5237011      815.785  0.019302125  0.018584641            5 
 3523000   0.68523958   -7.5085593    817.66489  0.019341113  0.018579067           10 
 3524000   0.68266409   -7.5198508    815.99581  0.019296155  0.018573492            8 
 3525000   0.69635881   -7.5305402    816.80437  0.019309796  0.018567914           10 
 3526000   0.69320723   -7.5059306    816.20228   0.01929009   0.01856234            3 
 3527000   0.69996234   -7.5495996     816.1461  0.019283293  0.018556745            6 
 3528000   0.69740132   -7.5135062    816.94385  0.019296671  0.018551155            7 
 3529000    0.6830386   -7.5466693    817.16688  0.019296469  0.018545554            7 
 3530000   0.68655228   -7.5566828    816.21103  0.019268438  0.018539946           10 
 3531000   0.68809469   -7.5255328     816.6601  0.019273579  0.018534338            4 
 3532000   0.70125195   -7.5675803    816.09416   0.01925477  0.018528731            5 
 3533000   0.70248743   -7.5425773     817.2671  0.019276986  0.018523134            7 
 3534000   0.68121764   -7.5474842    815.77901  0.019236441  0.018517527            4 
 3535000   0.68884259   -7.5302162    815.27002  0.019219001  0.018511936            9 
 3536000   0.66264838   -7.5386313    815.54995  0.019220163  0.018506317            6 
 3537000   0.69857032   -7.5581248    815.89885  0.019222949  0.018500707            6 
 3538000   0.67723515   -7.5305884    816.62267  0.019234565  0.018495094            8 
 3539000   0.68746785    -7.506889    816.96246  0.019237131  0.018489507           14 
 3540000   0.67999413   -7.5759673    817.87141  0.019253093  0.018483917            5 
 3541000   0.69986397   -7.5441483    815.34382  0.019188172  0.018478304            8 
 3542000   0.66348135    -7.563356    817.31649  0.019229166   0.01847269            5 
 3543000    0.6887661   -7.5637323    815.04384  0.019170285  0.018467084            6 
 3544000   0.67286826   -7.5590902    816.24935  0.019193222  0.018461488            3 
 3545000   0.68932678   -7.5545287    818.22472  0.019234243  0.018455898            5 
 3546000   0.68648475   -7.5596306    817.89411   0.01922105  0.018450307            7 
 3547000   0.69367724   -7.5676527    817.56889   0.01920799  0.018444731            3 
 3548000   0.69721009   -7.5440875    816.41272  0.019175421   0.01843915            5 
 3549000   0.67702756   -7.5728074    815.67403  0.019152673  0.018433582            6 
 3550000   0.68326643   -7.5529782    817.00611  0.019178547  0.018428008            8 
 3551000   0.68623536   -7.5656925    815.23983  0.019131696   0.01842243           18 
 3552000   0.68941281   -7.5386711    816.94104  0.019166222  0.018416865           12 
 3553000   0.67924477   -7.5378543    816.98924  0.019161958  0.018411303           15 
 3554000   0.66373105   -7.5734128     816.5025  0.019145153  0.018405749            7 
 3555000   0.67671121   -7.5646729    817.62931  0.019166182  0.018400202           20 
 3556000    0.6795388   -7.5577342    817.01313  0.019146352  0.018394645            9 
 3557000   0.67406393   -7.5610886    817.71451  0.019157401  0.018389096           13 
 3558000   0.67928664   -7.5785909    815.76648  0.019106391  0.018383538           13 
 3559000    0.6968749   -7.5394572    817.38219  0.019138854  0.018377989            8 
 3560000   0.68059635   -7.5158503    817.41807  0.019134318  0.018372459            5 
 3561000   0.69167417   -7.5531731    817.39942  0.019128508  0.018366922            7 
 3562000   0.67088682   -7.5435102    817.17864  0.019117973  0.018361371            6 
 3563000   0.68008492   -7.5489931    818.32849  0.019139501   0.01835582            6 
 3564000   0.68805635   -7.5328657    817.35472  0.019111362   0.01835027            5 
 3565000   0.69251583   -7.5583955    817.26153  0.019103823  0.018344708           12 
 3566000    0.6726583   -7.5574564    817.23942  0.019097949   0.01833917            4 
 3567000   0.68523097   -7.5690606    818.08132  0.019112263  0.018333624            9 
 3568000    0.6553927    -7.572963    817.74896  0.019099144  0.018328068           12 
 3569000    0.6837437   -7.5583634    817.92486    0.0190979  0.018322528            4 
 3570000   0.68493978   -7.5581409     818.4382  0.019104533  0.018317003            6 
 3571000   0.69739575   -7.5433006    817.63844   0.01908052  0.018311478            3 
 3572000   0.69428236   -7.5742876    817.88932  0.019081031  0.018305934            4 
 3573000   0.67660343   -7.5789572    816.48917  0.019043035  0.018300391           11 
 3574000    0.6793557   -7.5547743    818.41395  0.019082586  0.018294894           16 
 3575000   0.68440775   -7.5500635    818.35834  0.019075952  0.018289383            6 
 3576000   0.68020199   -7.5416754    818.98064  0.019085119  0.018283874           14 
 3577000   0.68588166   -7.5489606    819.16729  0.019084132  0.018278386           17 
 3578000   0.68199528   -7.5604532    818.38621  0.019060607  0.018272893           20 
 3579000   0.68390126   -7.5401272    818.47427  0.019057331  0.018267385           18 
 3580000   0.66489138   -7.5482844    817.74554  0.019035045  0.018261888            8 
 3581000   0.67518641   -7.5395132    819.85804  0.019078889  0.018256381            8 
 3582000   0.67341944   -7.5481511    817.80693  0.019025845  0.018250888            9 
 3583000     0.685399   -7.5603949    818.26125  0.019031102  0.018245406           11 
 3584000   0.68853034    -7.548892    817.35132  0.019004634  0.018239904           13 
 3585000   0.67801596   -7.5436949    818.10335  0.019016814  0.018234411           15 
 3586000   0.67925677   -7.5616498    817.09142  0.018987995  0.018228906            8 
 3587000   0.68095388   -7.5869489    816.88889  0.018977997  0.018223387           17 
 3588000   0.67963486   -7.5618341     817.6191  0.018989667  0.018217875            5 
 3589000   0.67701527   -7.5806525    816.32018  0.018954216  0.018212354            9 
 3590000   0.67328871   -7.5787254     818.6445   0.01900289  0.018206842           11 
 3591000   0.69248525   -7.5358427    818.11739  0.018985366  0.018201359           12 
 3592000   0.66830238   -7.5637541    818.48433  0.018988593  0.018195869            6 
 3593000   0.67564746   -7.5503356    817.17325    0.0189529  0.018190371            8 
 3594000     0.663142   -7.5534597    818.34639  0.018974828  0.018184867           15 
 3595000   0.68761825   -7.5725271    815.90144  0.018912875  0.018179357           10 
 3596000   0.69460564   -7.5693843     816.4726  0.018920852  0.018173851           33 
 3597000    0.6823158   -7.5622895    818.00699   0.01895114  0.018168367            9 
 3598000   0.67195977   -7.5481596    818.08387  0.018947653  0.018162876           10 
 3599000    0.6802526   -7.5688824    820.06287  0.018988211  0.018157381            9 
 3600000   0.66384939   -7.5494184    819.42045  0.018968066  0.018151903           22 
 3601000   0.68307917   -7.5625505    818.06192   0.01893136  0.018146433           19 
 3602000   0.66752081   -7.5732359     818.5279  0.018936884   0.01814095            7 
 3603000   0.67233758   -7.5689643    817.78947   0.01891455  0.018135451            8 
 3604000   0.67813025   -7.5796233    818.69396  0.018930216  0.018129962            8 
 3605000   0.67260753   -7.5666954     818.4957  0.018920381  0.018124476           13 
 3606000   0.67016839   -7.5945247    817.18277  0.018884793  0.018118983            9 
 3607000   0.68318135   -7.5798996    817.59261  0.018889026   0.01811348           11 
 3608000   0.66622083   -7.5778636    819.06908  0.018917893   0.01810798           11 
 3609000   0.66579008   -7.5951493    816.89343  0.018862414  0.018102486            6 
 3610000   0.67153842   -7.5922325    818.53809  0.018895154  0.018096975            9 
 3611000   0.66659925   -7.5813474    817.56324  0.018867425  0.018091455           12 
 3612000   0.67172224   -7.5756169    815.86111  0.018822931  0.018085944           20 
 3613000   0.66651797   -7.5722057    817.00764  0.018844166  0.018080451           13 
 3614000   0.65772252   -7.5554462    817.91393  0.018859849  0.018074958           10 
 3615000   0.68161525   -7.5817948     818.6638  0.018871918  0.018069469           14 
 3616000   0.67353074   -7.5747898    818.61578  0.018865592  0.018063962           21 
 3617000   0.67818533   -7.5706992    818.56934  0.018859307  0.018058466           11 
 3618000   0.68260003   -7.5691308     816.9929  0.018817784  0.018052965           23 
 3619000   0.66739476   -7.5866732    816.88014  0.018809988  0.018047456           23 
 3620000    0.6845804   -7.5888018    817.25177  0.018813346  0.018041949           13 
 3621000   0.68325871   -7.5844707    815.88881  0.018776784  0.018036455           16 
 3622000   0.65697939   -7.5712899    817.59718  0.018810905  0.018030957           13 
 3623000   0.67742575   -7.5668144    818.14759  0.018818373  0.018025473           28 
 3624000   0.65950438   -7.5936266    816.26213  0.018769825  0.018019984            6 
 3625000   0.66245129   -7.5845383    817.50307  0.018793174  0.018014496           20 
 3626000   0.67290129   -7.5803329    818.75603  0.018816787  0.018009014           12 
 3627000   0.67713191   -7.5687392    817.77183  0.018788986   0.01800353           10 
 3628000   0.66740263   -7.5931991    817.63393   0.01878064  0.017998045            8 
 3629000   0.68448516   -7.5870921    816.78778  0.018756034  0.017992554            9 
 3630000   0.67133005   -7.5826521    816.16569  0.018736586  0.017987063           10 
 3631000   0.65940553    -7.582148    816.90758  0.018748453  0.017981567           16 
 3632000   0.66877389   -7.5997602    817.16803  0.018749267  0.017976067            7 
 3633000    0.6686027   -7.6148815    816.87217  0.018737319  0.017970565            8 
 3634000   0.65882129   -7.5954598    816.96545  0.018734302  0.017965072            6 
 3635000   0.66892126   -7.6035014    818.12848  0.018755811  0.017959584           11 
 3636000   0.65732649   -7.5761836    816.73108  0.018718626   0.01795411            8 
 3637000   0.65207537   -7.5902527    818.28131  0.018748999  0.017948647            8 
 3638000   0.67310011   -7.6087949    817.65415  0.018729479  0.017943173           10 
 3639000    0.6839744   -7.6081713    817.96469  0.018731444   0.01793771            4 
 3640000   0.68300958   -7.5902728    818.88416  0.018747348  0.017932253            9 
 3641000   0.66539374   -7.5885448    817.65962  0.018714172    0.0179268            9 
 3642000   0.67427991   -7.5846905    817.74806  0.018711058  0.017921339            9 
 3643000   0.66837812   -7.5733036    817.78598  0.018706789  0.017915889            8 
 3644000   0.67025775   -7.5912048    817.30697  0.018690701   0.01791045           17 
 3645000   0.66843116   -7.5681176    819.46758   0.01873497  0.017905014           10 
 3646000   0.65382294   -7.5978245    817.95719   0.01869531  0.017899574            8 
 3647000    0.6719031   -7.6007063    817.67327  0.018683696  0.017894118           14 
 3648000   0.66351473   -7.6026193    816.28908  0.018646954  0.017888659            5 
 3649000   0.66750189   -7.5910996     819.1272  0.018706659  0.017883213            9 
 3650000   0.65524902   -7.5749741    818.81709  0.018694454  0.017877786           25 
 3651000   0.67745694   -7.5895008    818.32484  0.018678098  0.017872361           15 
 3652000   0.66737996    -7.579786    819.53272  0.018700546  0.017866945            7 
 3653000   0.67007243   -7.5733437    818.38737  0.018669299  0.017861524            6 
 3654000   0.66095455   -7.5907946    820.08479  0.018702901  0.017856106            5 
 3655000   0.66552273   -7.6025901     820.0163  0.018696222  0.017850669            8 
 3656000   0.67563804   -7.6001846    816.82372  0.018618338  0.017845211           18 
 3657000   0.67478382   -7.6256741    817.69077  0.018633004   0.01783976            9 
 3658000   0.68207453   -7.6058108     818.3567  0.018643081  0.017834312            7 
 3659000   0.66000857   -7.6001382    818.27901  0.018636217  0.017828883           10 
 3660000   0.65325385   -7.6064351    818.59215  0.018638255  0.017823441           11 
 3661000    0.6585446   -7.5957754    817.34232  0.018604715   0.01781799            5 
 3662000   0.65846367   -7.6197524    818.49464  0.018625857  0.017812543            4 
 3663000   0.66732173    -7.591486    817.09919  0.018589025  0.017807089           14 
 3664000   0.65080448   -7.5860906    817.41882  0.018591221  0.017801626            6 
 3665000   0.66479241   -7.6093852    818.49178  0.018610545  0.017796196            8 
 3666000   0.65791432   -7.5811573    817.32148  0.018578866  0.017790767            4 
 3667000   0.66441499   -7.5960954     818.4542  0.018599541  0.017785331           10 
 3668000   0.67968703    -7.599338    818.80493  0.018602438  0.017779905            7 
 3669000   0.65551674   -7.6079965    817.63798  0.018570863   0.01777447            5 
 3670000   0.65529431   -7.5985109    817.10903  0.018553793  0.017769039           11 
 3671000    0.6513609   -7.5699697    819.91457  0.018612425  0.017763625           19 
 3672000   0.67361309   -7.5929635    817.29474  0.018547902  0.017758212            6 
 3673000   0.68206524   -7.5798119    819.66139  0.018596547  0.017752809            6 
 3674000   0.67148862   -7.5940408    817.33583  0.018538737  0.017747407            9 
 3675000   0.66035534   -7.5850929    818.92425  0.018569711  0.017742013           21 
 3676000   0.67179266    -7.593015    817.15299  0.018524505  0.017736613           15 
 3677000   0.66777785    -7.602289    819.12823  0.018564233  0.017731208            6 
 3678000   0.67442415   -7.5895595    817.91262  0.018531644  0.017725819           14 
 3679000   0.65874085   -7.5909489    819.23111  0.018556472  0.017720419            5 
 3680000   0.66567602   -7.6148912    816.80965  0.018496595  0.017715013           11 
 3681000   0.66398868   -7.6005589    818.31498  0.018525649  0.017709613            9 
 3682000   0.66076845   -7.5981608     818.2589  0.018519349  0.017704196            9 
 3683000   0.67467235   -7.6124182    818.31043  0.018515486  0.017698779           15 
 3684000   0.66870225   -7.6043978    819.34588  0.018533883  0.017693373            9 
 3685000   0.65864915   -7.6016808    816.58876  0.018466503  0.017687954            9 
 3686000   0.65766098   -7.5861454    818.93153  0.018514458  0.017682545           16 
 3687000   0.67145059   -7.6165601     818.3494   0.01849628  0.017677149           16 
 3688000   0.65807136   -7.6120417    819.96791  0.018527836  0.017671749            9 
 3689000   0.65627881   -7.6336506    820.22143   0.01852854  0.017666349           11 
 3690000   0.65975003   -7.5939317    818.65331  0.018488105  0.017660947           12 
 3691000   0.66587296   -7.6192802    818.78996  0.018486182  0.017655563           12 
 3692000   0.66197978   -7.6207466      816.108  0.018420639  0.017650156           28 
 3693000    0.6635071   -7.6101731    820.26088  0.018509362  0.017644763           12 
 3694000   0.66891547   -7.6017424    818.09844  0.018455569  0.017639363           13 
 3695000   0.63863299   -7.6116164    819.47185  0.018481548  0.017633971           13 
 3696000   0.65644855   -7.6190552    819.81744   0.01848434  0.017628584           11 
 3697000   0.66252978   -7.6105473    819.34503  0.018468691  0.017623189            7 
 3698000   0.65529539   -7.6035631    818.83383  0.018452178  0.017617804            8 
 3699000   0.66158968   -7.6264073    819.37444  0.018459368  0.017612402           12 
 3700000   0.65225856   -7.6177712    817.96502  0.018422636  0.017607009            7 
 3701000    0.6466945   -7.5960991    819.47441  0.018451644  0.017601632            9 
 3702000   0.64594481    -7.600495    819.15706  0.018439516  0.017596254            9 
 3703000   0.66616316   -7.5915262    819.16625  0.018434743  0.017590878            6 
 3704000   0.65766607   -7.6165771    817.99972  0.018403521  0.017585506           10 
 3705000   0.66901585   -7.6243653    817.56315  0.018388735  0.017580126           13 
 3706000   0.66047628   -7.6015388    816.95444  0.018370085  0.017574754           11 
 3707000   0.65462178   -7.6016335    819.15073  0.018414502  0.017569376           16 
 3708000   0.65394529   -7.5902365    819.59326  0.018419482  0.017563997           10 
 3709000   0.65020205   -7.6236377    819.01739  0.018401577  0.017558627           11 
 3710000   0.64071419   -7.6109477    818.83936  0.018392618  0.017553243            6 
 3711000   0.66281842    -7.616163    819.09306  0.018393359  0.017547876           13 
 3712000   0.65621159   -7.6185464    817.95808  0.018362924  0.017542496           13 
 3713000   0.65951581   -7.6287375    816.39333   0.01832286   0.01753711            7 
 3714000    0.6528265   -7.5878198    818.24789  0.018359538  0.017531729           15 
 3715000   0.64932432   -7.6315716    816.94313  0.018325328  0.017526368           13 
 3716000   0.65755264   -7.6050863    819.26908  0.018372557  0.017521002           16 
 3717000     0.655385   -7.6025619    818.91985  0.018359785   0.01751563           12 
 3718000   0.65800198   -7.6139821    817.93059  0.018332674  0.017510258           15 
 3719000   0.65350513   -7.6145625    820.56684  0.018386816  0.017504896           11 
 3720000   0.64104588   -7.5975627    819.31554  0.018353843  0.017499521            7 
 3721000   0.66574691    -7.579589     818.1109  0.018321932  0.017494149           15 
 3722000   0.67278993   -7.6049666    818.95492  0.018335906  0.017488783           18 
 3723000    0.6540749   -7.6297171    818.59963  0.018323029  0.017483407            5 
 3724000   0.67039223   -7.6340699    818.14824  0.018308007   0.01747804            9 
 3725000    0.6519185   -7.6088301    818.25704  0.018305527  0.017472667           18 
 3726000   0.65303655     -7.61872    818.42748  0.018304426  0.017467295            9 
 3727000   0.64895873   -7.6200019     817.8331  0.018286224  0.017461935           10 
 3728000   0.65639605   -7.6192383    818.32171  0.018292241   0.01745657            9 
 3729000   0.66494873   -7.6347327    818.86396  0.018299454   0.01745121           11 
 3730000    0.6451877   -7.6304922    818.71189   0.01829115  0.017445849            9 
 3731000   0.65336863   -7.6189361    819.79004  0.018310329  0.017440507           17 
 3732000   0.64873862   -7.6201495    818.27707  0.018271639  0.017435163           10 
 3733000   0.65544149   -7.6122345    818.94164   0.01828158  0.017429804           14 
 3734000   0.64613421   -7.6147221    817.98794    0.0182554  0.017424452            8 
 3735000   0.65447687   -7.6229525    818.11382   0.01825332  0.017419103            6 
 3736000   0.65153488   -7.6438762    818.43698  0.018255643  0.017413739            6 
 3737000   0.67587219   -7.6229554    820.21435  0.018290392  0.017408387            7 
 3738000   0.64941548   -7.6081196    819.91948  0.018278925   0.01740303            8 
 3739000   0.66944992   -7.6217325    817.86484  0.018228244  0.017397684           10 
 3740000   0.66062153   -7.6134234    816.65563  0.018196427  0.017392332           11 
 3741000   0.66525992   -7.6060012    818.54736  0.018233702  0.017386985            4 
 3742000   0.64902636   -7.6295878    818.21607  0.018221452  0.017381637           14 
 3743000   0.66384025   -7.6240866    820.29536  0.018262876  0.017376291           10 
 3744000   0.65156605   -7.6330655    817.86391   0.01820388  0.017370947           18 
 3745000   0.66946517   -7.5981238    818.44151  0.018211872  0.017365607           20 
 3746000   0.64556844   -7.6477833    818.46235  0.018207474  0.017360267           10 
 3747000   0.64134682   -7.6153798    818.69653  0.018207822  0.017354931           17 
 3748000   0.63927969   -7.6101891    819.59837  0.018223016  0.017349592           16 
 3749000   0.63922024   -7.6290609    818.43223  0.018192234  0.017344255           12 
 3750000   0.63611575   -7.6504389    817.12299  0.018158289  0.017338906            8 
 3751000   0.66338821   -7.6401372    817.55157  0.018162969  0.017333555           10 
 3752000   0.66999794   -7.6288808    818.97947  0.018189842  0.017328215           16 
 3753000   0.63917111     -7.63892    819.31731  0.018192497  0.017322893           24 
 3754000   0.65480709   -7.6400624    818.46455  0.018168721  0.017317569            5 
 3755000   0.67063801   -7.6183895    818.93188  0.018174254  0.017312249            7 
 3756000   0.66402663   -7.6181481    818.15868   0.01815226  0.017306936            4 
 3757000   0.65290201   -7.6341226    818.67339  0.018158846  0.017301613            9 
 3758000   0.66570485   -7.6545018    817.28245  0.018123169  0.017296287           12 
 3759000   0.63361615   -7.6348692    820.87167  0.018197918  0.017290965            6 
 3760000   0.64629923   -7.6370233    819.75684   0.01816837  0.017285643            8 
 3761000   0.63348061   -7.6462701     817.2047  0.018106991  0.017280318           17 
 3762000   0.65408709   -7.6474917    818.51231  0.018131143  0.017275011           11 
 3763000   0.64585856   -7.6250995    818.97351  0.018136538  0.017269699            5 
 3764000   0.65724288   -7.6420337    819.68696  0.018147515  0.017264394           11 
 3765000   0.66728211   -7.6310479    818.43885   0.01811507   0.01725909            6 
 3766000   0.67367149   -7.6170859    819.68977   0.01813794  0.017253782           10 
 3767000   0.64874955   -7.6329688    819.42803  0.018127335  0.017248488           13 
 3768000   0.64744214   -7.6525143    818.53846   0.01810285  0.017243193           12 
 3769000   0.64582888   -7.6435606    819.15297  0.018111634  0.017237897           10 
 3770000   0.64590475   -7.6565164    818.45159  0.018091326  0.017232588           16 
 3771000   0.65445629   -7.6192056    818.22836  0.018081595  0.017227283           11 
 3772000   0.65722952   -7.6312803    817.41974  0.018058937  0.017221976           13 
 3773000   0.63978818   -7.6536547    819.90148  0.018108965  0.017216685            6 
 3774000   0.65108624   -7.6488387    820.14622   0.01810957  0.017211388           15 
 3775000   0.63739253   -7.6426001    819.34018   0.01808698  0.017206118           20 
 3776000   0.64974458   -7.6518253    818.77718  0.018069765  0.017200831           14 
 3777000   0.64799288   -7.6304778    817.57491  0.018038454  0.017195547           18 
 3778000   0.64737666   -7.6319733    817.62138  0.018034705  0.017190268           23 
 3779000   0.65081108   -7.6098115    820.02575  0.018082953  0.017185001           12 
 3780000   0.64052643    -7.621951     819.6843  0.018070642  0.017179739           13 
 3781000    0.6610617   -7.6176702     819.4771  0.018061295  0.017174476           15 
 3782000   0.63984424   -7.6329929    819.22768  0.018051024  0.017169225           10 
 3783000   0.65130257   -7.6233949    819.53645  0.018053054  0.017163975           24 
 3784000   0.63585125   -7.6377503    819.37793  0.018044792  0.017158711            9 
 3785000   0.64253743   -7.6390261    819.19604   0.01803602  0.017153446           15 
 3786000   0.64047396   -7.6360081    818.85755  0.018023806  0.017148193           16 
 3787000   0.65945749   -7.6435014    818.50583  0.018011307  0.017142939           13 
 3788000    0.6483325   -7.6364447    820.67758  0.018054329  0.017137675           42 
 3789000   0.63637624   -7.6257762    820.65358  0.018049036  0.017132401           14 
 3790000   0.65038573   -7.6369833    817.94042  0.017984618  0.017127143           17 
 3791000    0.6416408   -7.6482524    819.27443  0.018009198  0.017121879           16 
 3792000    0.6445144    -7.638132    819.01188  0.017998679  0.017116623           12 
 3793000   0.64030536   -7.6328649    819.80869   0.01801144  0.017111371           28 
 3794000   0.65596422   -7.6333039    818.62726  0.017980743  0.017106113           18 
 3795000   0.63983143    -7.653022    818.27838  0.017968344  0.017100854           42 
 3796000   0.65775785   -7.6442069    820.23012  0.018006457  0.017095599           22 
 3797000    0.6385191   -7.6456171     818.6201  0.017966379  0.017090333           19 
 3798000   0.64676841    -7.653428    819.40255  0.017978817  0.017085081           21 
 3799000   0.63925951   -7.6501392    821.16862  0.018012824  0.017079833            8 
 3800000   0.64208502   -7.6361635    819.14488  0.017963704  0.017074588           21 
 3801000   0.64700104    -7.632728     818.8711  0.017952975  0.017069348           18 
 3802000   0.63876303   -7.6481858    818.55246  0.017941269  0.017064104           13 
 3803000   0.65611822   -7.6170172    818.82465  0.017942516  0.017058861           30 
 3804000   0.64560321   -7.6394046    819.96735  0.017962832  0.017053622           31 
 3805000   0.64734271   -7.6359621    819.57075  0.017949425   0.01704839           22 
 3806000   0.64468421   -7.6373097    819.37941   0.01794052   0.01704317           17 
 3807000   0.64455044   -7.6217284      818.837  0.017923934  0.017037939           26 
 3808000   0.64988828   -7.6241338    819.53875  0.017934584   0.01703271           26 
 3809000   0.63465598   -7.6261506    820.16745   0.01794363  0.017027481           15 
 3810000    0.6508322    -7.635078    820.49525   0.01794609  0.017022262           25 
 3811000   0.64240207   -7.6387642    819.25187  0.017914193  0.017017046           22 
 3812000   0.63939044   -7.6088115    819.21408  0.017908667  0.017011819           21 
 3813000   0.63210974   -7.6317362    819.80692  0.017916927  0.017006591           18 
 3814000   0.64614058    -7.663326    819.77315  0.017911492  0.017001369           18 
 3815000   0.64539401   -7.6378556     819.5201  0.017901269  0.016996134           21 
 3816000   0.64760234   -7.6403452    818.70758  0.017878834  0.016990902           14 
 3817000    0.6227932   -7.6470626    819.14085   0.01788361  0.016985671           12 
 3818000   0.65951104   -7.6211919    820.38863   0.01790616  0.016980435           12 
 3819000   0.63394537   -7.6677934    818.74042  0.017865506    0.0169752           16 
 3820000   0.65331538   -7.6384677    819.40923  0.017875419  0.016969967           11 
 3821000   0.63446403   -7.6461309    819.76546   0.01787851  0.016964739            5 
 3822000   0.64035483   -7.6549968    818.53516  0.017847008  0.016959505           14 
 3823000   0.63146709   -7.6375253    818.96054  0.017851612  0.016954287            7 
 3824000   0.64205105   -7.6449408    818.53288  0.017837624  0.016949064            7 
 3825000   0.63823341   -7.6322501    818.91187  0.017841217  0.016943834            7 
 3826000   0.62993723   -7.6314643     819.4327  0.017847898  0.016938603           10 
 3827000   0.63567169   -7.6523888     818.1301   0.01781487  0.016933375           11 
 3828000   0.64465666   -7.6363235    818.49067  0.017818066  0.016928154           10 
 3829000   0.63165418   -7.6673831    817.49372  0.017791715  0.016922934           14 
 3830000   0.64232209    -7.643546    818.72295  0.017813815  0.016917705           10 
 3831000   0.65213356   -7.6326438    818.09011    0.0177954  0.016912474            5 
 3832000   0.63885806    -7.648129    818.79939   0.01780618   0.01690725           13 
 3833000   0.65380212   -7.6382118      818.299  0.017790656  0.016902028           17 
 3834000   0.62907446   -7.6707918    817.49981  0.017768645    0.0168968            8 
 3835000    0.6326643   -7.6595295    818.31337   0.01778169  0.016891563            6 
 3836000   0.64211188   -7.6662658    819.45459  0.017801846  0.016886334           17 
 3837000   0.63311833    -7.660687      819.897  0.017806815  0.016881112           20 
 3838000    0.6387122   -7.6602641    818.25032  0.017766422  0.016875886           13 
 3839000   0.63836329   -7.6579212    818.56823  0.017768695   0.01687066           20 
 3840000   0.63182034    -7.636247    820.36629  0.017803088  0.016865426           25 
 3841000   0.63648477   -7.6619849    817.13792  0.017728411  0.016860195           16 
 3842000     0.638282   -7.6456164     819.4763  0.017774516  0.016854965           36 
 3843000   0.64071839   -7.6273028    819.11453  0.017762046  0.016849744           36 
 3844000   0.65330665   -7.6604562     819.3292  0.017762079  0.016844529           31 
 3845000   0.64567908   -7.6514984    817.40243  0.017715701   0.01683931           31 
 3846000   0.65910169   -7.6596628    818.04736  0.017725069  0.016834086           10 
 3847000   0.62837634   -7.6673964    818.33178  0.017726622  0.016828856           34 
 3848000   0.62803997    -7.647138    818.96367    0.0177357  0.016823615           18 
 3849000   0.64279435   -7.6667416     817.0495  0.017689649  0.016818388           17 
 3850000   0.63289027   -7.6692529    817.83149   0.01770198  0.016813158           22 
 3851000   0.63740677   -7.6503841    818.01407  0.017701335  0.016807925           25 
 3852000   0.63226139    -7.652574    817.46539  0.017684869  0.016802695           21 
 3853000    0.6335709   -7.6537014    818.47928  0.017702208  0.016797476           20 
 3854000   0.62176124   -7.6449942    819.40015  0.017717526  0.016792261           26 
 3855000   0.62790468   -7.6466318    818.19153  0.017686804  0.016787038           16 
 3856000   0.64470377   -7.6749142    819.26272  0.017705367  0.016781819           24 
 3857000     0.635585   -7.6850471    817.74895   0.01766807  0.016776606           31 
 3858000   0.63043471   -7.6817097    818.29723  0.017675333  0.016771385           17 
 3859000   0.64813327   -7.6686466    817.75042  0.017658945  0.016766164           20 
 3860000   0.63495175   -7.6730109    817.63759  0.017651934  0.016760952           19 
 3861000   0.63430427   -7.6514829    819.23825   0.01768191  0.016755746           18 
 3862000   0.62872653   -7.6672927    817.68716  0.017643863  0.016750533           26 
 3863000   0.63587437   -7.6751291    817.64857  0.017638463  0.016745328           24 
 3864000   0.63102285   -7.6711595     818.5416  0.017653157  0.016740118           21 
 3865000   0.63272926   -7.6578112    818.25681  0.017642449  0.016734908           20 
 3866000   0.62848725   -7.6842123    818.03087  0.017633016    0.0167297           18 
 3867000   0.62269366   -7.6835613    818.31478  0.017634574  0.016724492           19 
 3868000   0.62879509   -7.6706707    817.60302  0.017614681  0.016719285           29 
 3869000   0.62976106   -7.6723254    816.57445  0.017587974  0.016714083           35 
 3870000   0.63442555   -7.6636822    818.53316  0.017625606  0.016708871           19 
 3871000   0.62576434   -7.6761845    817.63705  0.017601762  0.016703668           14 
 3872000   0.63412012   -7.6689576    818.15788  0.017608425  0.016698468           10 
 3873000    0.6441607   -7.6603554    818.90075  0.017619863  0.016693271           17 
 3874000    0.6291045   -7.6620124    819.49818  0.017628166   0.01668808           13 
 3875000   0.62597437   -7.6837014    818.18149  0.017595301  0.016682875           16 
 3876000   0.63167254   -7.6701784    818.66527  0.017601163  0.016677676           28 
 3877000   0.62001953   -7.6767472    818.26082  0.017587929  0.016672475           26 
 3878000   0.62325301   -7.6731729    817.69926  0.017571327  0.016667272           25 
 3879000   0.62768026   -7.6666475     818.0417  0.017574153  0.016662068           26 
 3880000   0.63388984   -7.6707877    817.48518  0.017557671  0.016656874            9 
 3881000   0.64147896   -7.6913877     817.6631  0.017556968  0.016651687           18 
 3882000   0.62803173   -7.6980284    817.57617  0.017550579  0.016646494           14 
 3883000   0.61322448   -7.6600877    818.77008  0.017571682  0.016641305           10 
 3884000   0.63174469   -7.6828358    819.10317  0.017574304  0.016636117           12 
 3885000   0.62490817   -7.6813614    817.42262  0.017533733  0.016630941           11 
 3886000   0.62418489   -7.6689126    817.78697  0.017537034  0.016625768            6 
 3887000    0.6404618   -7.6531533    816.48728  0.017504658    0.0166206            6 
 3888000   0.63165517   -7.6910459    817.07632  0.017512781  0.016615419           10 
 3889000   0.62629498    -7.675894    818.23903  0.017533192  0.016610242           20 
 3890000   0.63071964   -7.6879989    817.47152  0.017512243  0.016605061           10 
 3891000   0.63405359   -7.6761829    818.22606  0.017523903  0.016599887            6 
 3892000   0.62274464   -7.6891329     818.8124  0.017531954  0.016594706            8 
 3893000   0.64168684   -7.6919143     817.5675  0.017500803  0.016589528            9 
 3894000   0.61353424   -7.6767616    817.22987  0.017489083  0.016584356            9 
 3895000   0.61998027    -7.690927    817.86312  0.017498141  0.016579184           16 
 3896000   0.63270526   -7.6760445    819.34335  0.017525311  0.016574012            7 
 3897000   0.63382084   -7.6672796    818.94198  0.017512231  0.016568849           17 
 3898000   0.63002691   -7.6857197    817.80534  0.017483439  0.016563684            9 
 3899000   0.63652512   -7.6812506    817.29141  0.017467971  0.016558513           20 
 3900000   0.62803898   -7.6826965    818.41255  0.017487448  0.016553351           13 
 3901000   0.63719912   -7.6711675    817.66101   0.01746691   0.01654818           10 
 3902000   0.62496244   -7.6972343     817.9193   0.01746795  0.016543016           21 
 3903000   0.62804035   -7.6856238     819.6484  0.017500393  0.016537845            7 
 3904000   0.62977343   -7.6791364    816.62438  0.017431361  0.016532671           15 
 3905000   0.64440616   -7.6906552    815.92016  0.017411869  0.016527493           10 
 3906000   0.63266769   -7.6950987     816.1872  0.017413108  0.016522318           10 
 3907000   0.63713069   -7.6834301    816.52654  0.017415889  0.016517142           17 
 3908000   0.62562582   -7.6900605    818.52012  0.017453943  0.016511969            9 
 3909000   0.63767287   -7.6695253    818.59107  0.017450991  0.016506801           11 
 3910000   0.62447463   -7.6927465    818.14761  0.017437076  0.016501642            5 
 3911000   0.62584073   -7.6979741    818.38537  0.017437684   0.01649649           12 
 3912000   0.63126604   -7.6651675     820.1075  0.017469911   0.01649133            6 
 3913000   0.61728241   -7.6789641    818.70216  0.017435517  0.016486184            6 
 3914000   0.62614742   -7.6845689    818.17706  0.017419883  0.016481026            6 
 3915000   0.63036243    -7.681747    817.53251  0.017401714  0.016475875            8 
 3916000   0.63464888    -7.705938    817.04422  0.017386879  0.016470719            6 
 3917000   0.62907484   -7.6573458    816.60005   0.01737299  0.016465563           12 
 3918000   0.63676773   -7.6888378    817.48266  0.017387329  0.016460399           19 
 3919000    0.6201527   -7.6953746    816.99736  0.017372573  0.016455244           14 
 3920000   0.62098011   -7.7085407    817.08168  0.017369934  0.016450098           10 
 3921000   0.63172876   -7.6857479    817.09375   0.01736576  0.016444945           10 
 3922000   0.62362765   -7.6846766    818.04023  0.017381443    0.0164398           16 
 3923000   0.62194736   -7.6781363    817.79298   0.01737176  0.016434651            6 
 3924000   0.62141385   -7.7005088    818.25171  0.017377075  0.016429509           15 
 3925000   0.62264416   -7.6820313    818.97486  0.017388001  0.016424376            7 
 3926000   0.62023125   -7.6986966    817.61316  0.017354669  0.016419239           11 
 3927000   0.62367688   -7.7158971     815.6592  0.017308785  0.016414093           11 
 3928000   0.62487854   -7.6930315    817.77643  0.017349296  0.016408942            9 
 3929000   0.62460958    -7.686522    817.28446  0.017334446  0.016403796            7 
 3930000   0.61484612   -7.7028974    816.87671  0.017321389  0.016398657           10 
 3931000   0.62134269   -7.7001553     817.1175  0.017322087  0.016393515           10 
 3932000   0.62019893   -7.6742446    816.02125  0.017294448   0.01638838            8 
 3933000   0.61718257   -7.7073882    818.24446  0.017337157  0.016383242           12 
 3934000    0.6344692   -7.6955469    817.41813  0.017315246  0.016378103            8 
 3935000   0.61226166   -7.6708675    816.36355  0.017288512  0.016372967            6 
 3936000   0.62352024   -7.6944299    818.21063  0.017323227  0.016367833            5 
 3937000   0.61628192   -7.6977886    818.66023  0.017328343  0.016362711            4 
 3938000   0.61953128   -7.6922546    818.25043  0.017315271  0.016357588            6 
 3939000   0.61843935   -7.6994233    816.60041  0.017275967  0.016352471           10 
 3940000   0.63933036   -7.6855132    818.05525  0.017302353  0.016347358            5 
 3941000   0.61983444   -7.7151534    815.90504  0.017252496  0.016342233           12 
 3942000    0.6316997   -7.6979528     816.8216  0.017267495  0.016337101            9 
 3943000   0.61733954   -7.6891234    818.57964  0.017300271  0.016331978            7 
 3944000   0.63335486     -7.67719    817.75406  0.017278441  0.016326854           10 
 3945000   0.61853394   -7.7067134    817.88367  0.017276799  0.016321741            9 
 3946000   0.62870741   -7.6945769    815.70133  0.017226333  0.016316618           17 
 3947000   0.62894298    -7.711301    817.67751  0.017263692  0.016311496            9 
 3948000   0.62363742   -7.7036671    817.11145  0.017247371  0.016306367           10 
 3949000   0.62163052   -7.7183129    816.93581  0.017239297  0.016301237           12 
 3950000    0.6119335   -7.7220599    816.70827  0.017230132  0.016296109            7 
 3951000   0.60719257   -7.7109589    817.10077   0.01723405  0.016290991           10 
 3952000   0.62498504   -7.7114471    816.85742  0.017224558  0.016285865           11 
 3953000   0.61936862    -7.693369    817.22997  0.017228054  0.016280742           10 
 3954000   0.63045638   -7.7159544    816.88548  0.017216436  0.016275622           22 
 3955000   0.62476475   -7.7081114    816.82203  0.017210746  0.016270505           17 
 3956000   0.61217903   -7.7179747    815.99256  0.017188923  0.016265384           12 
 3957000   0.62130078   -7.6940527    817.61986   0.01721885  0.016260265           21 
 3958000    0.6240785   -7.6880371    816.12546  0.017183036  0.016255142           12 
 3959000   0.64272689   -7.7095135    817.03662  0.017197875   0.01625002           15 
 3960000   0.62776969   -7.7056728    816.68933  0.017186223  0.016244897           10 
 3961000   0.61864246   -7.7178967    815.62087  0.017159406  0.016239786           27 
 3962000   0.62149394   -7.7058894    815.84982   0.01715989  0.016234669           11 
 3963000   0.62479704   -7.7362238    816.79689  0.017175475  0.016229536            9 
 3964000   0.62249413   -7.7114573    816.12556  0.017157029  0.016224408           11 
 3965000   0.62736416   -7.7314097    814.43372  0.017117144  0.016219288           12 
 3966000   0.61793859   -7.7263178    815.90295    0.0171437   0.01621416           17 
 3967000   0.62142619   -7.7323555    816.85328  0.017159341  0.016209044           17 
 3968000   0.62175843   -7.7205553    816.18864  0.017141058  0.016203923           10 
 3969000   0.62204138   -7.7366571    815.89556  0.017130586  0.016198811           13 
 3970000   0.62076975   -7.7266396     816.0224  0.017128934  0.016193693           12 
 3971000    0.6133133   -7.7380428    816.88028  0.017142623  0.016188586           20 
 3972000   0.62837175   -7.7225892     817.5268  0.017151871  0.016183488           12 
 3973000   0.61692717   -7.7247919    815.28722  0.017100579  0.016178382           12 
 3974000   0.61820542   -7.7348557    817.76979  0.017148335  0.016173286           16 
 3975000   0.61307569   -7.7160085    816.55469  0.017118547  0.016168184           15 
 3976000   0.61660035   -7.7013004    815.39893  0.017090018  0.016163087           22 
 3977000    0.6158526    -7.704511    815.66301  0.017091254  0.016157982           16 
 3978000   0.61251794   -7.7254283    817.12505  0.017117585  0.016152888           13 
 3979000    0.6183391   -7.7319903    816.30583  0.017096126   0.01614779           23 
 3980000    0.6167185   -7.7328318    816.40064  0.017093816  0.016142699           13 
 3981000   0.60158668    -7.717702    816.69224  0.017095626  0.016137607           17 
 3982000   0.61819715   -7.7279828     815.4349   0.01706502  0.016132516           11 
 3983000   0.61910439   -7.7542483    817.57694  0.017105552  0.016127421           19 
 3984000   0.61402825   -7.7282222    815.67378   0.01706145  0.016122328           22 
 3985000   0.61265873   -7.7300572    816.10597  0.017066206  0.016117237           13 
 3986000   0.61104473   -7.7167416    816.95945  0.017079768  0.016112145           13 
 3987000   0.60996496   -7.7461073    815.45199  0.017043976  0.016107059           23 
 3988000   0.62285621   -7.7021219    817.16056  0.017075404  0.016101975           10 
 3989000   0.61060415   -7.7196198    815.49299  0.017036287  0.016096896            7 
 3990000   0.61002015   -7.7234192    817.12267  0.017066054  0.016091815           24 
 3991000   0.60761329   -7.7197447     816.2144  0.017042813  0.016086728           14 
 3992000   0.61852608   -7.7205043     817.3757  0.017062786  0.016081659           19 
 3993000   0.61401909   -7.7046824    817.43115   0.01705967  0.016076595            6 
 3994000   0.60830477   -7.7179939    815.91224  0.017023707  0.016071528           13 
 3995000   0.62168363   -7.7325597    816.62145   0.01703424  0.016066467            7 
 3996000   0.61446117   -7.7068419    816.39131  0.017025177    0.0160614            7 
 3997000   0.61804185   -7.6986389    817.71396  0.017048494  0.016056336           13 
 3998000   0.60859194   -7.7267674    815.22466  0.016992343  0.016051279            9 
 3999000   0.61174848   -7.7068516    816.32642  0.017011053  0.016046218            7 
 4000000   0.61351042   -7.7273822    816.03448  0.017000718  0.016041158            7 
 4001000   0.60649313   -7.7288452    816.42587  0.017004621  0.016036103           11 
 4002000   0.61065188   -7.7207249    817.87451  0.017030537  0.016031057           23 
 4003000   0.59148492   -7.7059262    816.55698  0.016998855  0.016026011           16 
 4004000   0.61433513   -7.7156546    816.18032   0.01698677  0.016020965           13 
 4005000    0.6182396   -7.7387312    816.21159  0.016983179  0.016015917            9 
 4006000   0.60651507   -7.7247492    816.64924  0.016988044  0.016010865           12 
 4007000   0.60469224   -7.7366709    816.20837  0.016974635  0.016005819           12 
 4008000   0.60138989   -7.7097473     816.1796  0.016969802  0.016000774           12 
 4009000    0.6136929   -7.7260468    815.30026  0.016947291  0.015995727           19 
 4010000    0.6227923   -7.7376555    816.60588  0.016970197  0.015990678           10 
 4011000   0.61840052   -7.7216493    816.02589  0.016953916  0.015985631           20 
 4012000   0.62878925   -7.7274601     816.7388  0.016964498  0.015980583           11 
 4013000   0.61222065    -7.712018    815.12051  0.016926666  0.015975532           21 
 4014000   0.59947137   -7.7371745    815.41846  0.016928634  0.015970479           19 
 4015000   0.62336212   -7.7183253    815.65387  0.016929304  0.015965434           19 
 4016000   0.61509541   -7.7088761    816.11966  0.016934754  0.015960403           20 
 4017000   0.61977395   -7.7319826    816.43065   0.01693699  0.015955362           20 
 4018000   0.61594187   -7.7049433    817.54398  0.016955865  0.015950322           17 
 4019000   0.60685216   -7.7381001    817.60784   0.01695297  0.015945279           15 
 4020000   0.60905455    -7.722752    815.27329  0.016900358  0.015940237           17 
 4021000   0.62588817   -7.7278714    816.00894  0.016911401  0.015935195           10 
 4022000   0.60117851   -7.7388004    815.80838  0.016903041  0.015930156           10 
 4023000   0.60979454   -7.7242885    816.78743   0.01691912  0.015925117           13 
 4024000   0.60375246   -7.7445542    814.58252  0.016869254  0.015920079           12 
 4025000    0.6056709   -7.7160593      815.878  0.016891884  0.015915037           14 
 4026000   0.61554945   -7.7342196    816.32756  0.016896994  0.015909997            9 
 4027000   0.61372342   -7.7371366     815.8616  0.016883155  0.015904961           15 
 4028000   0.60960866   -7.7485546    816.01886  0.016882217   0.01589993            8 
 4029000   0.60872486   -7.7492278    816.36068  0.016885097  0.015894898           14 
 4030000   0.60337793   -7.7302472     817.0567    0.0168953  0.015889863            8 
 4031000   0.60100649   -7.7502136    816.46658  0.016878909  0.015884833           12 
 4032000   0.60219113   -7.7326549    815.23128  0.016849191  0.015879805           11 
 4033000   0.60388832   -7.7386355    816.32246  0.016867561  0.015874771           12 
 4034000   0.61216878   -7.7445026    814.33894  0.016822404  0.015869731           10 
 4035000   0.60362238   -7.7530213    815.29025  0.016837882  0.015864686           14 
 4036000   0.62245033   -7.7525287    815.67376  0.016841629  0.015859649           16 
 4037000   0.61437368   -7.7318914    815.53209  0.016834532  0.015854626           28 
 4038000   0.61051071   -7.7397337     815.0299      0.01682  0.015849602           13 
 4039000   0.61488681   -7.7540589    815.62563  0.016828126  0.015844579           20 
 4040000   0.61509884   -7.7230456    815.11588  0.016813446  0.015839555           15 
 4041000   0.61009462   -7.7319924    817.45428  0.016857508  0.015834545           13 
 4042000   0.60671776    -7.711485    815.23093  0.016807499  0.015829533           13 
 4043000   0.60607658   -7.7504395     816.3402  0.016826206   0.01582453           10 
 4044000   0.60034281   -7.7347091    814.73848  0.016789039  0.015819523           17 
 4045000   0.59430804   -7.7372861    815.88583  0.016808526  0.015814513           11 
 4046000   0.59879615   -7.7357464    816.38457  0.016814644  0.015809517            9 
 4047000   0.61249347   -7.7473409    815.81333  0.016798726  0.015804523           20 
 4048000   0.59388935   -7.7270091     816.7082  0.016812998  0.015799525           30 
 4049000   0.60081979   -7.7515975    815.82163  0.016790599   0.01579453           14 
 4050000   0.59296468    -7.724183    816.37261   0.01679779  0.015789536           16 
 4051000   0.60660241   -7.7477194    816.99909  0.016806531  0.015784547           11 
 4052000   0.60528593    -7.731791    815.63216  0.016774271  0.015779564           14 
 4053000   0.60752204   -7.7466912    815.33187  0.016763958  0.015774575            9 
 4054000   0.60102541   -7.7333832    815.72807  0.016767967  0.015769586           11 
 4055000   0.61830254   -7.7401213    816.06832  0.016770825  0.015764604           10 
 4056000   0.59665192   -7.7468982     816.4083  0.016773675  0.015759619           11 
 4057000   0.60954031   -7.7322629    816.94075  0.016780477  0.015754633           16 
 4058000   0.60185567   -7.7343228    815.50022   0.01674676   0.01574965            8 
 4059000   0.60483438   -7.7515686    815.94237  0.016751712  0.015744658           13 
 4060000    0.5971495   -7.7294388    816.02582  0.016749298  0.015739665           14 
 4061000   0.61363179   -7.7460223    816.01093  0.016744868  0.015734675           17 
 4062000   0.60840671   -7.7421137    815.73556  0.016735097  0.015729685           20 
 4063000   0.60280187   -7.7438053    816.66818  0.016750106  0.015724712           13 
 4064000   0.60788774   -7.7333261    816.79726  0.016748632  0.015719738            7 
 4065000   0.60108474   -7.7316311    815.75695  0.016723185  0.015714766           18 
 4066000   0.60006189   -7.7275563    815.88509  0.016721698  0.015709799           19 
 4067000   0.60645567   -7.7311483    816.61809  0.016732606  0.015704835           14 
 4068000   0.61938724   -7.7319275    817.96518  0.016756088   0.01569988            9 
 4069000   0.59691033   -7.7487989    817.23599  0.016737036  0.015694921           10 
 4070000   0.61685652    -7.729524    816.25172  0.016712771   0.01568996            9 
 4071000     0.598783   -7.7335992     816.4629  0.016712988  0.015685001           12 
 4072000   0.58647393   -7.7305131    815.98708  0.016699146  0.015680047           17 
 4073000    0.6070817   -7.7437356    814.38641  0.016662297  0.015675092            8 
 4074000   0.59984646   -7.7482042    814.51627  0.016660863  0.015670136           12 
 4075000    0.5981362   -7.7365224    817.17919  0.016711231  0.015665183           10 
 4076000   0.61058007    -7.722542    816.14628  0.016686013   0.01566023           15 
 4077000   0.60495482   -7.7397712    816.59074  0.016691005  0.015655278            9 
 4078000   0.60841658   -7.7221139    817.72432  0.016710077  0.015650332           17 
 4079000   0.59764695   -7.7230892     815.4322  0.016659153  0.015645392           13 
 4080000   0.61128127    -7.741745    814.94262   0.01664507  0.015640454            9 
 4081000   0.59948982   -7.7620781    817.34296  0.016690006  0.015635514           13 
 4082000   0.60252755    -7.762102    815.56271  0.016649574  0.015630568           10 
 4083000   0.57893992    -7.754982     815.5537  0.016645312  0.015625625           22 
 4084000   0.59610508   -7.7367536    816.13668  0.016653132  0.015620692           16 
 4085000    0.6044757   -7.7435935    815.75105  0.016641188  0.015615763           13 
 4086000   0.58971583   -7.7270192    817.52777  0.016673352  0.015610826            7 
 4087000   0.60753071   -7.7423632    816.74678  0.016653348  0.015605896            9 
 4088000   0.59207317   -7.7358503    815.81536  0.016630287  0.015600958           17 
 4089000        0.605    -7.732869    815.27502  0.016615208  0.015596022            7 
 4090000   0.59752388   -7.7441667    816.93885  0.016645046  0.015591084           14 
 4091000   0.60991254   -7.7511242    816.44062  0.016630828  0.015586151           10 
 4092000   0.61171343   -7.7506672    815.22105  0.016601927  0.015581228           25 
 4093000   0.60373903   -7.7439366    815.93414   0.01661239  0.015576299           16 
 4094000    0.5952976    -7.751604    816.15971  0.016612924  0.015571376           12 
 4095000   0.59506953   -7.7614344    814.51388  0.016575374  0.015566454           15 
 4096000    0.6080272   -7.7549885    815.46526  0.016590683  0.015561528           15 
 4097000   0.61066365   -7.7393792    815.19328  0.016581102  0.015556601           15 
 4098000   0.59258464   -7.7378412    814.58083  0.016564601  0.015551675           13 
 4099000   0.58902413   -7.7508172    815.89141  0.016587204  0.015546747            9 
 4100000    0.5892728    -7.724044    816.55702  0.016596687  0.015541833           29 
 4101000   0.59329204   -7.7618583    816.51558  0.016591798  0.015536911           13 
 4102000   0.59333342   -7.7378151    815.67905  0.016570759   0.01553199            8 
 4103000   0.58177976   -7.7551516     817.1155  0.016595895  0.015527079           12 
 4104000   0.59439143    -7.757689    816.47811  0.016578909  0.015522164           15 
 4105000   0.59158461   -7.7527451    816.23751  0.016569986  0.015517249           10 
 4106000   0.59554185   -7.7519641    816.00876  0.016561308  0.015512335            8 
 4107000   0.58740435   -7.7685617     815.9203   0.01655548  0.015507414            9 
 4108000   0.59537267   -7.7666985    816.71752  0.016567622  0.015502505            9 
 4109000   0.59662008    -7.757382    815.48863  0.016538668  0.015497592           12 
 4110000   0.58680374   -7.7598888    815.95116  0.016544022  0.015492688            8 
 4111000   0.60755321   -7.7668665    815.14508  0.016523658  0.015487779           14 
 4112000   0.59211074   -7.7589173    816.01681  0.016537306  0.015482874            7 
 4113000   0.59566752     -7.73952    814.07698  0.016493982  0.015477971           18 
 4114000   0.61056507   -7.7672704    816.29663  0.016534934  0.015473075            7 
 4115000   0.59163375   -7.7556387    815.87228  0.016522322  0.015468171            7 
 4116000   0.60247195   -7.7694584    815.69103  0.016514639  0.015463272           18 
 4117000   0.59453355    -7.757947    814.08405    0.0164781  0.015458372           13 
 4118000   0.59012887   -7.7648633    814.70266  0.016486617  0.015453469           11 
 4119000   0.57966428   -7.7509898    816.36746  0.016516296  0.015448573           18 
 4120000   0.58877681   -7.7531165     815.9943  0.016504739  0.015443677            9 
 4121000   0.59261087   -7.7483221    815.37715  0.016488254  0.015438787           10 
 4122000    0.5951196   -7.7690453    816.24113  0.016501721  0.015433907           13 
 4123000   0.60362396   -7.7513907    816.22234  0.016497339  0.015429019           11 
 4124000   0.58815122   -7.7760188    814.93667  0.016467359  0.015424137           13 
 4125000   0.58728713   -7.7712527    816.58281  0.016496622  0.015419252           13 
 4126000   0.60529244   -7.7579729    815.22284  0.016465157  0.015414369            6 
 4127000   0.58895287   -7.7630059    815.50358  0.016466836  0.015409485            9 
 4128000   0.58633619   -7.7521835      816.784  0.016488695  0.015404599            7 
 4129000   0.59261248   -7.7681793    816.07763  0.016470445  0.015399725            8 
 4130000   0.59173932    -7.754105     817.0849  0.016486782  0.015394851            8 
 4131000   0.58959778   -7.7505025    815.43765  0.016449561  0.015389976            8 
 4132000   0.57416555   -7.7472844    816.02816   0.01645749  0.015385104           10 
 4133000   0.59622624   -7.7846378    816.29031  0.016458793  0.015380222           18 
 4134000   0.59518742   -7.7794218    815.18705  0.016432572   0.01537534           12 
 4135000    0.5867111   -7.7468602    815.97223  0.016444422   0.01537046           10 
 4136000   0.58917638   -7.7834255    815.49274  0.016430785   0.01536558           16 
 4137000   0.59617512    -7.785923    815.93747  0.016435772  0.015360702            7 
 4138000   0.58920539   -7.7586047    814.59906  0.016404847   0.01535582           23 
 4139000   0.57845475   -7.7606271    815.46699  0.016418358  0.015350947           20 
 4140000   0.57675274   -7.7601373    815.05756  0.016406151  0.015346078           12 
 4141000   0.58442811   -7.7813675    813.96386  0.016380179    0.0153412           28 
 4142000   0.58852254   -7.7528666    815.78111  0.016412786  0.015336321           23 
 4143000   0.58603674   -7.7716998    816.09651  0.016415168  0.015331444           29 
 4144000   0.58338932   -7.7433197    815.82898  0.016405827  0.015326573           13 
 4145000   0.58278373   -7.7866378    815.59713  0.016397208  0.015321703           16 
 4146000   0.60052035   -7.7592225     816.3928  0.016409246  0.015316834           15 
 4147000   0.58962992   -7.7890909    813.76069  0.016352397  0.015311957            6 
 4148000   0.59237675   -7.7759307    814.83766  0.016370091  0.015307078            9 
 4149000   0.59289425   -7.7763026    814.73639  0.016364112  0.015302197            8 
 4150000    0.5722203   -7.7685337    815.36814  0.016372854   0.01529732            9 
 4151000   0.59957272   -7.7811061    815.48202  0.016371196   0.01529245           22 
 4152000   0.58359219   -7.7737485    814.99164  0.016357411  0.015287582           11 
 4153000   0.58840366   -7.7661263     813.8072  0.016329706  0.015282718           14 
 4154000   0.56824853   -7.7752224    815.67465  0.016363237  0.015277855           18 
 4155000   0.59204451   -7.7892365    814.54841  0.016336711  0.015272988           13 
 4156000   0.59168087   -7.7970621    815.04604  0.016342758  0.015268118           16 
 4157000   0.57922326   -7.7810769    814.04293  0.016318718  0.015263254           15 
 4158000   0.58636662   -7.7710825    814.64204  0.016326801  0.015258391           22 
 4159000   0.58326051   -7.7642446     814.7774  0.016325587   0.01525353           10 
 4160000   0.59152761   -7.7667977     814.8218  0.016322552  0.015248675           15 
 4161000   0.59658523   -7.7629102    815.88853  0.016339993  0.015243824            8 
 4162000   0.58422581   -7.7835939    814.07299  0.016299715  0.015238967           12 
 4163000      0.59676   -7.7579025    814.61629  0.016306676  0.015234121            9 
 4164000   0.58547258   -7.8033107    815.99238  0.016330299  0.015229283           12 
 4165000   0.58806536   -7.7705162    813.64209  0.016279354  0.015224436            9 
 4166000   0.58334259   -7.7835706    815.70181  0.016316647  0.015219595           11 
 4167000   0.57987055   -7.7990914    814.37646  0.016286226  0.015214743            7 
 4168000   0.59183223   -7.7769861    813.78507  0.016270495  0.015209897           12 
 4169000   0.58101131   -7.7790312    813.43427   0.01625958  0.015205055           27 
 4170000   0.58796337   -7.7637771    815.54858  0.016297933   0.01520021           22 
 4171000   0.59831683   -7.7903574    814.56963  0.016274467  0.015195374           14 
 4172000    0.5920362   -7.7695496    816.38542  0.016306836  0.015190541           14 
 4173000   0.58796887   -7.7706145    814.75222  0.016270314  0.015185712           15 
 4174000   0.57798842   -7.7818628    815.41226  0.016279593  0.015180884           10 
 4175000   0.58213386   -7.7717627    814.92436  0.016265955   0.01517606           16 
 4176000   0.58879438   -7.7902995    816.09456  0.016285412  0.015171235           19 
 4177000   0.59232791   -7.7597989    815.54169  0.016270483  0.015166415           13 
 4178000   0.57483116    -7.767939    814.63814  0.016248567  0.015161591            9 
 4179000   0.56941976   -7.7826337    815.08432  0.016253576  0.015156774           11 
 4180000   0.58149199   -7.7596408    816.73803  0.016282656  0.015151956            9 
 4181000   0.57594729   -7.7726924    814.52838   0.01623472  0.015147138           10 
 4182000   0.60496488   -7.7588044     815.9583  0.016259332  0.015142331           10 
 4183000   0.58824339   -7.7842453    813.84748  0.016213393  0.015137528           17 
 4184000   0.57374277   -7.7738745    814.33999  0.016219327  0.015132719           10 
 4185000   0.57287226   -7.7737853     814.8206  0.016225022  0.015127908            8 
 4186000   0.58672241   -7.7542808     814.5951  0.016216657  0.015123093           11 
 4187000   0.58667639   -7.7925026    816.24018  0.016245525  0.015118283            8 
 4188000   0.56924265   -7.7813992    814.83161  0.016213619  0.015113474            6 
 4189000   0.59279765   -7.7708253    814.87878  0.016210686  0.015108667            9 
 4190000   0.58958496   -7.7829682    815.24586  0.016214118  0.015103862            7 
 4191000   0.58656679   -7.7854276    814.38152  0.016193063  0.015099059           13 
 4192000   0.58490916   -7.7721453    814.17911  0.016185176  0.015094257            9 
 4193000   0.59092546   -7.7774495    814.61512  0.016189982  0.015089464           16 
 4194000   0.57530503   -7.7852622    815.79448  0.016209555  0.015084664           10 
 4195000    0.5807329   -7.7726874    815.76454  0.016205096  0.015079868           18 
 4196000   0.56492254   -7.7760139    813.84586  0.016163129  0.015075068           11 
 4197000   0.57958263   -7.7690906    815.27316  0.016187617  0.015070277            9 
 4198000   0.57182324   -7.7831339    814.95004  0.016177347  0.015065487           10 
 4199000   0.59144558   -7.7766611    814.90392  0.016172579  0.015060696           11 
 4200000   0.57105381   -7.7904898     814.7569  0.016165812  0.015055899           14 
 4201000    0.5730147   -7.8117922    813.18008  0.016130685  0.015051107           16 
 4202000   0.57788013   -7.7975661    814.39413  0.016150923  0.015046313           24 
 4203000   0.56073777   -7.7773101    813.62994  0.016131928  0.015041522           10 
 4204000   0.56868316   -7.7700979    813.33841  0.016122312  0.015036736            8 
 4205000    0.5635408    -7.802085     814.6943  0.016145349  0.015031948           20 
 4206000   0.57419201   -7.7862753    814.59236   0.01613949  0.015027163            9 
 4207000   0.58126572   -7.7809823    813.83012  0.016120555  0.015022384            7 
 4208000   0.57573975   -7.7814105    815.41999   0.01614821  0.015017609           13 
 4209000    0.5768134   -7.7919498    813.78456  0.016111993  0.015012833           14 
 4210000   0.58013259    -7.774714    815.56515  0.016143411   0.01500806           15 
 4211000   0.57142025   -7.8023449    814.74805  0.016123408  0.015003291            9 
 4212000   0.58630776   -7.7824652    813.81205  0.016101061  0.014998524           12 
 4213000   0.56353529   -7.8010071    813.90947  0.016099167  0.014993762           17 
 4214000   0.57634112   -7.7846691    813.32634  0.016083815  0.014988991            8 
 4215000   0.57829942   -7.7854809    813.13794  0.016076274  0.014984225           12 
 4216000   0.58343613     -7.76855    815.11699  0.016111579  0.014979459           15 
 4217000   0.56496557   -7.7841566    814.36255  0.016092849  0.014974698           18 
 4218000     0.579606    -7.790766    814.42748  0.016090317  0.014969949            8 
 4219000   0.56959844   -7.8042335    815.78451  0.016113307  0.014965195           11 
 4220000   0.58120656   -7.8061434      815.237  0.016098677   0.01496044           15 
 4221000   0.57271076   -7.8000195    813.67253  0.016063976  0.014955688           16 
 4222000   0.56702836   -7.8121056    814.67519  0.016079962  0.014950942           11 
 4223000    0.5717193   -7.7714422    814.36577  0.016070048  0.014946195           11 
 4224000   0.56462796   -7.7638003     814.7506  0.016073836   0.01494145           18 
 4225000   0.58153499   -7.7956617    814.13835  0.016057956   0.01493671           11 
 4226000   0.56616963   -7.7906607    814.35228  0.016058374  0.014931967           18 
 4227000   0.57721879   -7.7815014    816.34032  0.016093769  0.014927227           19 
 4228000   0.57857241   -7.8121154    815.24896  0.016068452  0.014922489           19 
 4229000   0.56857025   -7.8002604    813.68104  0.016033756  0.014917754           25 
 4230000   0.58083913   -7.7835467    815.09497   0.01605782  0.014913011           19 
 4231000   0.57171309   -7.7807798    813.67434  0.016026045  0.014908275           15 
 4232000   0.56581486   -7.7834524    814.79197  0.016044265  0.014903537           14 
 4233000   0.58201269    -7.803855    812.81946  0.016001643  0.014898799           24 
 4234000   0.56013384   -7.7972671     815.0826  0.016042407  0.014894064           13 
 4235000   0.56571388   -7.7945648    815.23418  0.016041601  0.014889329           11 
 4236000   0.57057612   -7.8039379    814.87977  0.016030842  0.014884599           14 
 4237000   0.58158325   -7.7825718     813.9547  0.016008864  0.014879866            7 
 4238000   0.57381641   -7.8067586    815.15485  0.016028686  0.014875143           14 
 4239000   0.56715539   -7.8134002     815.4715   0.01603113  0.014870418           13 
 4240000   0.57368376     -7.77838     814.3418  0.016005145  0.014865687           19 
 4241000   0.57014823   -7.8014432    815.10514  0.016016371   0.01486097           18 
 4242000   0.57512592   -7.7932483    817.03912  0.016050588  0.014856252           10 
 4243000   0.59134131   -7.7851366    814.57841  0.015998476  0.014851535           13 
 4244000   0.58374781   -7.7839604    815.92564   0.01602116  0.014846822            7 
 4245000   0.58225615   -7.7703164    814.57421  0.015990856  0.014842109           10 
 4246000   0.58790599   -7.7870973     813.7457  0.015970829  0.014837397           14 
 4247000   0.55792046   -7.7989997    814.32671  0.015978469  0.014832683           13 
 4248000   0.57620592   -7.7884203    814.17217  0.015971676  0.014827975           15 
 4249000   0.57834887   -7.7946153    815.62372  0.015996386   0.01482327           13 
 4250000   0.58702703   -7.8078641    814.63066   0.01597315  0.014818574           16 
 4251000    0.5714237    -7.784082    814.49862  0.015966804  0.014813875           22 
 4252000   0.56584855   -7.7913833     814.9067  0.015971047  0.014809183           20 
 4253000    0.5787492   -7.7774263    813.49989  0.015939727  0.014804491           12 
 4254000   0.57576085   -7.7873538    814.93798  0.015964151  0.014799798           11 
 4255000   0.56355492   -7.7958464    815.88188  0.015978885  0.014795108           12 
 4256000   0.57387969    -7.794657    813.04141  0.015919514  0.014790409           14 
 4257000   0.56727111   -7.8042727    814.50665  0.015944457  0.014785714            8 
 4258000   0.58265601   -7.8035203    815.14335  0.015953173  0.014781022           16 
 4259000   0.56185745   -7.8012548    815.41652  0.015954773  0.014776333           30 
 4260000   0.57377173   -7.7924987    813.90127  0.015921386  0.014771646           15 
 4261000   0.56186409   -7.8025311    813.44082  0.015908645  0.014766959           22 
 4262000   0.55894678   -7.8014528     813.6013   0.01590805  0.014762273            7 
 4263000   0.58742893   -7.8050058    814.90933  0.015929888  0.014757589           13 
 4264000    0.5718186   -7.7943809    814.27606  0.015913775  0.014752915           13 
 4265000   0.57617566    -7.782255    814.65096  0.015917369   0.01474824           27 
 4266000   0.56718801   -7.7949308    814.02602   0.01590143  0.014743564            9 
 4267000   0.56822558   -7.7854098    815.47777  0.015926056  0.014738889           17 
 4268000     0.574713   -7.8117057    814.61389  0.015905457  0.014734217           12 
 4269000   0.57023593   -7.7914904    814.72037   0.01590381  0.014729541           20 
 4270000   0.56795229   -7.8025003    815.51842   0.01591566   0.01472487           10 
 4271000   0.56207405    -7.789268    813.85641  0.015879505  0.014720195           17 
 4272000   0.56134249   -7.8028037    814.23989  0.015883269  0.014715533           12 
 4273000   0.55011106   -7.7918751    814.67235  0.015887986  0.014710863           24 
 4274000   0.56742962   -7.8206287    814.25105  0.015876054  0.014706199           19 
 4275000   0.56497915   -7.8062087    814.88397  0.015884678  0.014701536           21 
 4276000   0.55755371   -7.8001313    814.08345  0.015865362   0.01469687           18 
 4277000   0.56396778   -7.8022436    814.37934  0.015867418    0.0146922           20 
 4278000   0.56998289   -7.7877328    814.36591  0.015863447  0.014687536           26 
 4279000    0.5761622   -7.8019482    813.39618  0.015840854  0.014682875           13 
 4280000   0.57661036   -7.8305385    814.39333  0.015856568  0.014678208           20 
 4281000   0.56734816   -7.8063409    812.65343  0.015818995  0.014673542           30 
 4282000   0.57377884   -7.8097264    813.14204   0.01582481  0.014668878           29 
 4283000     0.565641   -7.8145903    813.98554  0.015837527  0.014664214           31 
 4284000   0.56491849   -7.8158541    814.57749  0.015845345  0.014659549           24 
 4285000   0.56235614    -7.803509    815.39842  0.015857612  0.014654893           30 
 4286000   0.56444689   -7.8044746    814.46279  0.015835721  0.014650239           28 
 4287000   0.56879699   -7.8282587    814.29948  0.015828852  0.014645587           20 
 4288000   0.56798583   -7.7992884    814.28507  0.015824881  0.014640934           19 
 4289000   0.55693428    -7.794062     813.2579  0.015801234  0.014636288           23 
 4290000   0.57256213   -7.8045162    813.01903   0.01579291  0.014631638           17 
 4291000   0.57722789    -7.833794    813.87444  0.015805843  0.014626991           37 
 4292000   0.57367012   -7.8108484    814.06893  0.015805936  0.014622346           23 
 4293000   0.56104306   -7.8159412    814.56904  0.015811962  0.014617696           20 
 4294000   0.56184393   -7.8107771    813.74301  0.015792249  0.014613055           48 
 4295000   0.57269528   -7.7824776    815.39123  0.015820552  0.014608418           30 
 4296000   0.56597991     -7.80824    815.71794  0.015823206  0.014603782           26 
 4297000   0.56869825   -7.8158437    812.69883  0.015760973  0.014599147           27 
 4298000   0.57342301   -7.8293868    813.78752  0.015778415  0.014594506           27 
 4299000   0.57203084   -7.8184944    813.44229  0.015768052  0.014589861           22 
 4300000   0.57144303   -7.8017378     814.3291  0.015781572  0.014585223           25 
 4301000   0.56279812   -7.8132831    813.55411  0.015762887  0.014580585           38 
 4302000   0.55649514    -7.822178     814.4526  0.015776627  0.014575946           60 
 4303000   0.55274339   -7.8303672    814.15595  0.015767216  0.014571307           27 
 4304000   0.56091483   -7.8026197    812.10412  0.015723825  0.014566669           29 
 4305000   0.55381374   -7.8243363    813.01724  0.015737848  0.014562031           51 
 4306000   0.57640797   -7.8245884    814.71668  0.015767082  0.014557396           39 
 4307000   0.55740574    -7.819106    813.61105   0.01574203  0.014552759           28 
 4308000   0.55884283   -7.8253185    813.41495  0.015734582  0.014548125           30 
 4309000   0.55235251   -7.8129114    813.08533  0.015724556  0.014543493           40 
 4310000   0.56870662   -7.8173475    813.58798  0.015730626  0.014538858           50 
 4311000   0.56778498   -7.8089877    814.34615  0.015741633  0.014534228           27 
 4312000   0.56867629   -7.8407573    814.11892  0.015733591  0.014529597           41 
 4313000    0.5776657   -7.8221338    813.71665   0.01572217  0.014524972           42 
 4314000   0.55490861   -7.8175609    814.80199  0.015739491  0.014520348           23 
 4315000   0.56169307   -7.8235182    814.31039   0.01572635  0.014515727           11 
 4316000   0.56794093   -7.8135554    812.88636  0.015695211  0.014511104           32 
 4317000   0.55435821   -7.8022933    813.99836  0.015713041   0.01450648           22 
 4318000   0.55911974   -7.8070684    812.25713  0.015675798   0.01450186           26 
 4319000   0.55893794   -7.8367539    813.58825  0.015697852  0.014497241           30 
 4320000   0.55842001    -7.805861    812.41822  0.015671648  0.014492627           21 
 4321000   0.56564786   -7.8289088    813.39861  0.015686928  0.014488017           25 
 4322000    0.5674652    -7.831997    813.54613  0.015686143  0.014483405           14 
 4323000   0.56120207   -7.8204635    813.50588  0.015681739  0.014478787           13 
 4324000   0.55388416   -7.8363472    815.34195  0.015713497  0.014474178            9 
 4325000    0.5699099   -7.8180124    813.35116  0.015671506  0.014469568           23 
 4326000   0.57333045   -7.8257312    814.74639   0.01569476  0.014464966           20 
 4327000   0.56236711   -7.8175762    813.78068  0.015672534  0.014460356           40 
 4328000   0.54044603   -7.8392602    813.38408  0.015661277   0.01445575           17 
 4329000    0.5523303   -7.8188101    812.38563  0.015638439  0.014451152           20 
 4330000   0.56092855   -7.8082301    813.53534  0.015656954  0.014446557           14 
 4331000   0.57599951   -7.8240086    813.36574  0.015650076  0.014441961           11 
 4332000   0.55890671   -7.8174374    813.58045  0.015650593  0.014437361           18 
 4333000   0.54825615    -7.818665    814.48974  0.015664469  0.014432766           15 
 4334000   0.55885469   -7.8210139    814.18283  0.015654954  0.014428183           26 
 4335000   0.55407053   -7.8158455    814.64853  0.015660295  0.014423596           14 
 4336000   0.56746715   -7.8185912    812.98523  0.015624716  0.014419012           16 
 4337000   0.55032907   -7.8423672    811.57316  0.015593981  0.014414422           10 
 4338000   0.54845966    -7.827749     813.0934  0.015619591  0.014409835           12 
 4339000   0.55878288   -7.8029695    813.87287  0.015630961  0.014405251           10 
 4340000   0.54986305   -7.8299455    813.86498  0.015627208  0.014400658           24 
 4341000   0.56699953   -7.8327805    814.75213  0.015640638  0.014396076            9 
 4342000   0.55224271   -7.8298205     812.1554  0.015587199   0.01439149           13 
 4343000   0.57067033   -7.8139604    812.75268   0.01559507  0.014386904           12 
 4344000    0.5435343   -7.8238401    813.68689  0.015609402  0.014382327           21 
 4345000   0.54903953   -7.8240987    814.58881  0.015623107  0.014377748           13 
 4346000   0.56015444    -7.836038    813.94746  0.015607215  0.014373175            9 
 4347000   0.55740853   -7.8313588    814.28463  0.015610088    0.0143686           13 
 4348000   0.56324997    -7.795987    813.21355   0.01558597  0.014364032           23 
 4349000   0.55532934   -7.8275481    814.32592    0.0156037  0.014359463            8 
 4350000   0.54053946   -7.8141846     813.4922  0.015584142  0.014354897           18 
 4351000   0.56347453   -7.8296587    811.46563  0.015541746  0.014350327           23 
 4352000   0.54487729   -7.8334552    813.70764  0.015581105  0.014345764           30 
 4353000   0.56695639   -7.8279325    812.38992    0.0155523  0.014341194           13 
 4354000   0.55240284   -7.8137576    814.93631  0.015597464  0.014336619           11 
 4355000   0.55387865   -7.8317752    813.69801  0.015570188  0.014332046           17 
 4356000   0.54538193     -7.82114    813.67612  0.015566195   0.01432748            8 
 4357000   0.55792894   -7.8304374    813.31974  0.015555806  0.014322912           14 
 4358000    0.5468369   -7.8341419    813.24626  0.015550831  0.014318348           18 
 4359000   0.55260449   -7.8289412    812.97609  0.015542099  0.014313783           13 
 4360000   0.54971378   -7.8380602    812.13716  0.015522499  0.014309221           16 
 4361000   0.56396685   -7.8547163    813.24355  0.015540082  0.014304662           18 
 4362000   0.55168261   -7.8339757    813.41112   0.01553972  0.014300099           19 
 4363000   0.55496536   -7.8567079    813.03503  0.015528975  0.014295538           15 
 4364000   0.55145589   -7.8604841    813.95735  0.015543029  0.014290991           19 
 4365000   0.55948189   -7.8308736    813.56081  0.015531898  0.014286441           23 
 4366000   0.54282531   -7.8405894    813.37924  0.015524875  0.014281892           12 
 4367000   0.55567857   -7.8224441    812.57319  0.015505938  0.014277343           11 
 4368000   0.54745879   -7.8423217     813.4146  0.015518441  0.014272793           14 
 4369000   0.55845881   -7.8399525    812.48672  0.015497191  0.014268242           16 
 4370000   0.56413465   -7.8418602    813.27961  0.015508764  0.014263696           26 
 4371000   0.53543742   -7.8431023    812.37593  0.015487988  0.014259148           17 
 4372000   0.53614221   -7.8293423    812.88001  0.015494053    0.0142546           26 
 4373000   0.55728109   -7.8368804    813.74257  0.015506947  0.014250061           15 
 4374000   0.56590826   -7.8306772     812.9367  0.015488049  0.014245517           16 
 4375000   0.54924006   -7.8603873    812.72733  0.015480521  0.014240982           10 
 4376000   0.54871124   -7.8263141    812.30766  0.015468991  0.014236438           24 
 4377000    0.5434374   -7.8485427    813.29105   0.01548418  0.014231899           11 
 4378000   0.54745927   -7.8403073    813.01132  0.015475318  0.014227359           14 
 4379000   0.55615234   -7.8448069    812.36975  0.015459575  0.014222818           14 
 4380000   0.55507046   -7.8396152    812.23259  0.015453436  0.014218281           15 
 4381000   0.55153512   -7.8293167    811.17793  0.015429847  0.014213755           13 
 4382000   0.54071855   -7.8316415    811.78934  0.015437953  0.014209224           16 
 4383000   0.55552156   -7.8230122    811.09019  0.015421138  0.014204691           19 
 4384000   0.55054069   -7.8492943    813.10023  0.015455829  0.014200159           14 
 4385000   0.55354663   -7.8470636    813.38417    0.0154577   0.01419563           12 
 4386000   0.54985717   -7.8334052    813.07488  0.015448299  0.014191106           17 
 4387000   0.55209656   -7.8249918    811.70967  0.015418845   0.01418658           21 
 4388000   0.55021265   -7.8563922    811.56898  0.015412659  0.014182055           19 
 4389000   0.54783996   -7.8343759    813.14709  0.015439111  0.014177536           15 
 4390000   0.55820902   -7.8444313    812.45074  0.015422376  0.014173016           17 
 4391000   0.54182375   -7.8570432    811.88273  0.015408083  0.014168493            8 
 4392000   0.55941258   -7.8554628    812.34148  0.015413279  0.014163973            8 
 4393000   0.54850895   -7.8352368    811.44298  0.015392727  0.014159457           14 
 4394000     0.544457   -7.8368968    813.45069    0.0154273  0.014154945           17 
 4395000     0.554568   -7.8275344    812.55633  0.015406832  0.014150439           13 
 4396000   0.53198495   -7.8648885    811.35069  0.015380472  0.014145934           20 
 4397000   0.54228823   -7.8433562    812.71622  0.015402855  0.014141421           13 
 4398000   0.55399803   -7.8478568     812.8117  0.015401162  0.014136915           13 
 4399000    0.5499347    -7.832484    812.54394  0.015392588  0.014132413           17 
 4400000   0.54561888   -7.8390525    811.94271  0.015377703  0.014127916           16 
 4401000   0.54885755   -7.8267709    813.53161  0.015404295   0.01412342           14 
 4402000   0.55504994   -7.8396246    812.97848  0.015390324  0.014118927           17 
 4403000   0.53172073   -7.8429931    811.81454  0.015364799  0.014114429            9 
 4404000   0.54841055   -7.8405039     812.9883  0.015383521   0.01410993           10 
 4405000   0.54428117   -7.8565435    812.15434  0.015364252  0.014105433           11 
 4406000   0.54287567   -7.8540499    812.48489  0.015367016  0.014100933           20 
 4407000   0.54608112   -7.8407734    813.46347  0.015382034  0.014096437           13 
 4408000   0.54371808   -7.8315616    812.51235  0.015360563  0.014091946           13 
 4409000   0.56120172   -7.8499202    811.18603  0.015332011  0.014087455           10 
 4410000    0.5500334   -7.8339495    811.65111  0.015337323  0.014082962            7 
 4411000   0.54949248    -7.837293    811.91149  0.015338765  0.014078476           16 
 4412000   0.54677917   -7.8429593    812.55283  0.015347402  0.014073988           12 
 4413000    0.5375885   -7.8452568    812.95059  0.015351435  0.014069498           17 
 4414000   0.54575612   -7.8592125      811.245  0.015315757  0.014065007            8 
 4415000   0.54792445    -7.847888    812.34628  0.015333074  0.014060522            9 
 4416000   0.55114057   -7.8306855    810.25058  0.015290055  0.014056035            9 
 4417000   0.54565381   -7.8576342    812.66849  0.015332211  0.014051553           14 
 4418000   0.53884446   -7.8559343     813.0763  0.015336432  0.014047066           14 
 4419000   0.54157849    -7.848433    811.56083  0.015304383  0.014042586           16 
 4420000   0.54061152   -7.8610164    811.21151  0.015294335  0.014038099            9 
 4421000   0.54386386   -7.8449593    812.13676  0.015308316  0.014033616           11 
 4422000   0.54894407   -7.8343626       811.98    0.0153019  0.014029137           11 
 4423000   0.54534117   -7.8433758    811.94157  0.015297716  0.014024666           16 
 4424000   0.54457976   -7.8319229    813.99493  0.015332936    0.0140202           11 
 4425000   0.53072207   -7.8563807    810.94079  0.015271955   0.01401574           10 
 4426000   0.54308462    -7.844348    812.08398  0.015290028  0.014011271           14 
 4427000   0.54690438    -7.870486    811.95746  0.015284193  0.014006802           12 
 4428000   0.54851253   -7.8437941    811.94691  0.015280543  0.014002337            7 
 4429000   0.53896274   -7.8746162    811.81368  0.015274586  0.013997872            7 
 4430000   0.52901871   -7.8533967    813.40442  0.015301061  0.013993413           10 
 4431000   0.53733163   -7.8533667    811.45292  0.015260906  0.013988958           12 
 4432000   0.54586773   -7.8644777    811.55362  0.015259357  0.013984503           11 
 4433000    0.5475708   -7.8467513    811.97431  0.015263823  0.013980049           17 
 4434000   0.53761591   -7.8575129    811.82107    0.0152575    0.0139756           17 
 4435000    0.5429214   -7.8711102    812.90267  0.015274383  0.013971151           11 
 4436000   0.56122428   -7.8619636     812.2256  0.015258221  0.013966698           10 
 4437000    0.5417106   -7.8445615    811.31734  0.015237723  0.013962249           11 
 4438000   0.54311783   -7.8513697    812.72064   0.01526064  0.013957802           14 
 4439000   0.55040262   -7.8702949    811.68249  0.015237713  0.013953355            9 
 4440000   0.54782123    -7.850153    812.67483  0.015252906  0.013948906           12 
 4441000   0.53837808   -7.8569315    813.19148  0.015259166  0.013944458           16 
 4442000   0.54655685   -7.8479362    811.72266  0.015228175  0.013940012            8 
 4443000   0.54933537   -7.8801476    811.34355  0.015217637  0.013935569            8 
 4444000     0.541931   -7.8453911    810.94655  0.015206768  0.013931124           11 
 4445000   0.54336537   -7.8552668    811.44604  0.015212712  0.013926683           17 
 4446000   0.54007871    -7.854365    811.16788  0.015204076  0.013922236           11 
 4447000    0.5449875   -7.8536331    811.38212  0.015204672  0.013917792           14 
 4448000   0.53631995   -7.8656335    810.87518  0.015191756  0.013913347           13 
 4449000   0.54339855   -7.8560301    812.13944  0.015212022  0.013908908           13 
 4450000   0.53410068   -7.8551498    812.75677  0.015220164   0.01390447           28 
 4451000   0.53367713   -7.8724037     811.3727  0.015190832  0.013900035           17 
 4452000   0.54477073   -7.8637025    810.74001  0.015175577  0.013895596           16 
 4453000   0.53862898   -7.8492381    812.61654  0.015207286  0.013891161           16 
 4454000    0.5311215   -7.8646326    810.70244  0.015168059   0.01388673           15 
 4455000   0.54324519    -7.853929    811.30016  0.015175835  0.013882304           17 
 4456000   0.55120378   -7.8632657    811.63544    0.0151787  0.013877875           15 
 4457000    0.5353419   -7.8671009    811.41295  0.015171134  0.013873445           15 
 4458000   0.53468806   -7.8589677    810.68457  0.015154116  0.013869017            8 
 4459000   0.52408525    -7.869649    811.47515  0.015165492  0.013864586           14 
 4460000   0.53888387   -7.8529786    811.84148  0.015168936  0.013860161           13 
 4461000   0.53537642   -7.8569072    810.58587  0.015142081  0.013855733           10 
 4462000   0.54131338   -7.8624962    811.76127  0.015160639  0.013851311           13 
 4463000   0.54187718   -7.8609831    810.99038  0.015142848  0.013846882           13 
 4464000   0.54389771   -7.8576592     811.4158  0.015147398  0.013842462           16 
 4465000   0.54589831   -7.8632092    812.02204   0.01515532  0.013838042           11 
 4466000   0.54072159   -7.8558558    809.56018  0.015105989  0.013833622           22 
 4467000   0.53527566   -7.8549091    810.69619    0.0151238  0.013829199           12 
 4468000   0.52795563   -7.8600757    810.53567  0.015117421  0.013824787           19 
 4469000     0.535422   -7.8714351    811.10199  0.015124599  0.013820372           10 
 4470000   0.53329401   -7.8724231    811.14582  0.015122032  0.013815957           12 
 4471000   0.53092509   -7.8621784    811.64466  0.015127948  0.013811545           11 
 4472000   0.54097717   -7.8349825    811.34764   0.01511903  0.013807136           13 
 4473000   0.53456337   -7.8651807    810.59965  0.015101715  0.013802729           15 
 4474000   0.54704255   -7.8678708    810.97905  0.015105406  0.013798326           17 
 4475000   0.54178722   -7.8614375    810.92118  0.015100953  0.013793919           12 
 4476000   0.54639982   -7.8691066    811.58557  0.015109949  0.013789514           15 
 4477000   0.53496989   -7.8721024    810.91227  0.015094041  0.013785108           18 
 4478000   0.53752866   -7.8859399    811.52272  0.015102031  0.013780707           13 
 4479000   0.53494933   -7.8699247    811.56929  0.015099525  0.013776312           10 
 4480000   0.53634817   -7.8798447    811.80625  0.015100563   0.01377192           17 
 4481000   0.53375309   -7.8848251    810.30903  0.015069349  0.013767523           14 
 4482000   0.52621054   -7.8721393    810.76175  0.015074404  0.013763131           13 
 4483000   0.53202831   -7.8596794    811.75274  0.015089463  0.013758743            9 
 4484000    0.5235209   -7.8810374    812.47136  0.015099453  0.013754356           12 
 4485000   0.53161193   -7.8709659    811.60898  0.015080063  0.013749972           15 
 4486000   0.52776783   -7.8628118    811.28204  0.015070628   0.01374559           20 
 4487000   0.52709408   -7.8599976    811.27316  0.015067104  0.013741206           14 
 4488000   0.53740725   -7.8797828     812.2878  0.015082587  0.013736823           19 
 4489000   0.53174765   -7.8645769    811.26996  0.015060332  0.013732448           30 
 4490000   0.53229757   -7.8560373    811.87276  0.015068166  0.013728073           15 
 4491000   0.52309949   -7.8734612    810.28809  0.015035406  0.013723697           11 
 4492000   0.53144094   -7.8639699    810.70089  0.015039717  0.013719319           24 
 4493000   0.53272604   -7.8748225    812.56154   0.01507088  0.013714948           23 
 4494000   0.53421434   -7.8829993    811.74336  0.015052354  0.013710574            9 
 4495000    0.5238979   -7.8865133    810.87785   0.01503296  0.013706203           25 
 4496000   0.53548248   -7.8849354    811.28711  0.015037202  0.013701836           11 
 4497000   0.53199757   -7.8656342    810.24535  0.015014553  0.013697471           14 
 4498000   0.52935886    -7.869522     811.6997   0.01503816  0.013693104           13 
 4499000   0.52734225   -7.8894857    810.73475  0.015016944  0.013688737           14 
 4500000   0.53265455   -7.8588574     810.7749   0.01501435  0.013684373           20 
 4501000   0.54420301   -7.8623348    811.28484  0.015020455  0.013680012           15 
 4502000   0.52936496   -7.8811933    811.10972  0.015013878  0.013675652           17 
 4503000   0.53557289    -7.885169     810.1498  0.014992779   0.01367129           20 
 4504000   0.53365581   -7.8743328    810.34863  0.014993129  0.013666932           21 
 4505000   0.52982814   -7.8812509     810.3324    0.0149895  0.013662577           18 
 4506000   0.52279401   -7.8715457    810.45345  0.014988413  0.013658226           23 
 4507000   0.52530844   -7.8718995    809.26033  0.014963027  0.013653872           13 
 4508000   0.52476024   -7.8703515    811.87565  0.015008053  0.013649514           11 
 4509000   0.53012652   -7.8785409    810.01662  0.014970367  0.013645168           13 
 4510000   0.52730779   -7.8866693    809.54661  0.014958363   0.01364082           21 
 4511000   0.53374941   -7.8768919    811.28444  0.014987151   0.01363647           14 
 4512000   0.53102071   -7.8961886    809.84737  0.014957287  0.013632125            7 
 4513000   0.52233136   -7.8772468    809.63698  0.014950088  0.013627776           17 
 4514000   0.53099055    -7.889777    810.41046  0.014961056  0.013623429            8 
 4515000    0.5303517   -7.8826429     810.5217  0.014959795  0.013619086           16 
 4516000   0.53516523   -7.8830398    810.22171  0.014950947  0.013614743           10 
 4517000    0.5263321   -7.8733147    810.36104  0.014950207  0.013610404           26 
 4518000   0.52031286   -7.8752953    810.66644  0.014952531  0.013606069           10 
 4519000   0.53046358   -7.8778225    809.86112  0.014934372  0.013601731           17 
 4520000   0.52384482   -7.8677458    810.77923  0.014947995  0.013597392           11 
 4521000   0.52029708   -7.8824115     809.6101  0.014923138  0.013593052           43 
 4522000   0.51718156   -7.8823751    811.07978  0.014946922  0.013588718            8 
 4523000   0.53217125   -7.8755546    810.56616  0.014934154   0.01358439           14 
 4524000   0.53263376   -7.8977084    811.18452  0.014942244  0.013580061           11 
 4525000   0.52726646   -7.8729308    810.89534  0.014933616  0.013575735           10 
 4526000    0.5302449   -7.8658887    809.82131  0.014910541  0.013571407           10 
 4527000   0.52847666   -7.8834043    809.62991  0.014903724  0.013567078           12 
 4528000   0.53045193   -7.8809505    809.33314  0.014894971  0.013562751           24 
 4529000   0.52594071   -7.8827721    811.05735  0.014923408  0.013558427            7 
 4530000    0.5245612   -7.8885973     810.3749  0.014907559    0.0135541           23 
 4531000   0.52684771   -7.8866244    810.04485  0.014898198   0.01354978           10 
 4532000   0.53223541   -7.8784877    810.80486  0.014908886  0.013545459           10 
 4533000   0.52337829   -7.8830152    809.86258  0.014888275  0.013541141           11 
 4534000   0.52359575   -7.8914061    808.98016  0.014868772  0.013536823            8 
 4535000   0.51810981    -7.905103    809.52125  0.014875436  0.013532507           12 
 4536000   0.51965557   -7.8838446     810.8238  0.014896087  0.013528197            9 
 4537000   0.53070412   -7.8728759    810.65527  0.014889708  0.013523887           12 
 4538000   0.50971011   -7.8952016    809.96015  0.014873662  0.013519578           42 
 4539000    0.5201661   -7.8920986    811.70825  0.014902479  0.013515275           16 
 4540000   0.52783206   -7.8810175     810.7418  0.014881457   0.01351097           15 
 4541000    0.5363988   -7.8809213    811.16084   0.01488587  0.013506667           19 
 4542000   0.52577339   -7.8929406    810.15745  0.014864183  0.013502361           21 
 4543000   0.51989592   -7.8841334    810.36272  0.014864677  0.013498065           11 
 4544000   0.53259355   -7.9039733    811.40331  0.014880489  0.013493767            9 
 4545000   0.51888308   -7.8755285    810.85912  0.014867237  0.013489472           10 
 4546000   0.51886888   -7.8878533    810.94304  0.014865505  0.013485177           12 
 4547000    0.5229471   -7.8971759    809.54755  0.014836661  0.013480878           14 
 4548000   0.50842706   -7.8819512    811.56828  0.014870424  0.013476586           14 
 4549000   0.51725354     -7.87237    810.31122  0.014844127  0.013472292           10 
 4550000   0.53167169   -7.9015544    810.31378  0.014840912  0.013467998           24 
 4551000   0.53074536   -7.8741394     809.8809  0.014829724  0.013463707           15 
 4552000   0.52177116   -7.8697397    810.56078  0.014838913  0.013459421           12 
 4553000   0.51524718    -7.858471    809.29935  0.014812566  0.013455135           12 
 4554000   0.52191779   -7.8920418    809.15605  0.014806691  0.013450854           32 
 4555000   0.52723319   -7.8671722    809.30344  0.014806137  0.013446571            7 
 4556000   0.52515922   -7.8920205    810.92836  0.014832608  0.013442294           14 
 4557000   0.52949602   -7.8958118    811.12597  0.014832967  0.013438018           19 
 4558000   0.52568096   -7.8864413    810.97361  0.014826927   0.01343374           11 
 4559000   0.52025819   -7.8960381    809.62168  0.014798963  0.013429463           14 
 4560000   0.51733191   -7.9016769    810.51432  0.014812031  0.013425186           11 
 4561000    0.5151334    -7.875094    809.80006  0.014795733  0.013420914           21 
 4562000   0.51954871   -7.8954528    809.87871  0.014793926  0.013416644           18 
 4563000   0.52013835   -7.8993484    811.63256  0.014822715  0.013412374           21 
 4564000   0.50899967    -7.896577    811.10078  0.014809757  0.013408104           15 
 4565000   0.51732275   -7.8908175    811.61611   0.01481592  0.013403836           17 
 4566000   0.52907066   -7.9056953    811.36214   0.01480804   0.01339957           31 
 4567000   0.51702887   -7.8993418    810.36512  0.014786605  0.013395299            7 
 4568000   0.53531706   -7.9021431    810.81067  0.014791496  0.013391035           12 
 4569000   0.52168629   -7.8834503    811.36524  0.014798374  0.013386771            9 
 4570000   0.51081456   -7.8960698       808.01  0.014733953  0.013382505           10 
 4571000   0.52561995   -7.8990216    810.09394  0.014768722   0.01337824           20 
 4572000   0.52608157   -7.8894383    810.03742  0.014764462  0.013373982           12 
 4573000    0.5168851   -7.8952706    809.27511  0.014747342  0.013369722           16 
 4574000    0.5143697   -7.8878402    810.24356  0.014761761  0.013365458           12 
 4575000    0.5202826   -7.8932615    811.38234  0.014779278  0.013361201           12 
 4576000   0.51645754   -7.9052111    810.35919  0.014757415  0.013356948            8 
 4577000   0.51070315   -7.9158769    811.33012  0.014771869  0.013352695           10 
 4578000   0.50973307   -7.9009581    809.22291  0.014730284   0.01334844           13 
 4579000   0.51482628   -7.8917827    809.82556  0.014738035  0.013344181           12 
 4580000   0.50673301   -7.9040066     809.9631   0.01473732   0.01333993           10 
 4581000   0.52559818   -7.9115128    809.84773  0.014732004  0.013335679            9 
 4582000   0.53340316   -7.9071701    809.09361  0.014715074  0.013331426           12 
 4583000   0.51712953   -7.8836059    809.48187  0.014718923  0.013327182           11 
 4584000   0.50998736   -7.9018117    809.96368  0.014724471  0.013322936           10 
 4585000   0.50750371   -7.8884839    809.24688  0.014708231  0.013318689           15 
 4586000   0.52552567   -7.8804153    808.63125  0.014693837  0.013314443            8 
 4587000   0.52906958     -7.91055    810.82077  0.014730412  0.013310206            7 
 4588000   0.50704761   -7.9153964    808.78357  0.014690198  0.013305967           10 
 4589000   0.52775447   -7.9002654    811.31506  0.014732968  0.013301725           13 
 4590000   0.51595294   -7.8965516    809.77144  0.014701733  0.013297491           14 
 4591000   0.52378565   -7.9212873     809.2172   0.01468847  0.013293258           12 
 4592000   0.52461309   -7.8730758    809.28924  0.014686579  0.013289027           12 
 4593000   0.50434899   -7.8958718    809.50127  0.014687228  0.013284797           13 
 4594000   0.50945578   -7.9128968    809.91365  0.014691512  0.013280568           14 
 4595000   0.51509094   -7.9207586    809.28282  0.014676874  0.013276338            9 
 4596000    0.5226945   -7.9104451    808.69991  0.014663111  0.013272107           16 
 4597000   0.52038631   -7.8996013    808.89142  0.014663393  0.013267885           14 
 4598000   0.51239076   -7.8933637    810.08255  0.014681792  0.013263659           13 
 4599000   0.52239254   -7.8944623    809.77402  0.014673009  0.013259434            9 
 4600000   0.51365436   -7.8996075    808.79906  0.014652157  0.013255209            9 
 4601000   0.50551763    -7.887471    809.21396  0.014656487   0.01325099           12 
 4602000   0.51652964   -7.9042205    810.34101  0.014673711   0.01324677           19 
 4603000   0.53015948   -7.8992533    808.97442  0.014645782  0.013242547           12 
 4604000   0.50948029   -7.9024373     808.4032  0.014632262  0.013238334           16 
 4605000   0.50890248   -7.8996023    809.41873  0.014647462   0.01323412           12 
 4606000   0.51206674   -7.9107567    808.95064  0.014635813  0.013229905           12 
 4607000    0.5144269   -7.9001493     809.9065  0.014649926  0.013225694           22 
 4608000   0.51373313    -7.905765    810.71198  0.014661313  0.013221483            9 
 4609000   0.51195212    -7.924695    808.57413  0.014619479  0.013217271           13 
 4610000   0.50611179   -7.8977793    808.92242  0.014622603  0.013213063            7 
 4611000   0.51017919   -7.8925215    809.65075  0.014632595  0.013208858           13 
 4612000   0.50641699   -7.9169519     808.9561  0.014616871  0.013204651           12 
 4613000   0.50679356   -7.8999564     809.0293  0.014615025  0.013200443            6 
 4614000   0.52500429   -7.9087616    809.97192  0.014628882  0.013196239           10 
 4615000   0.49309338   -7.9025322     809.6128  0.014619227  0.013192035           13 
 4616000   0.50474377   -7.9015471    809.06173  0.014606111  0.013187837            6 
 4617000   0.51820485   -7.9083266    809.18293  0.014605135  0.013183631           14 
 4618000   0.50776499   -7.9171057    809.89635  0.014614847  0.013179431           24 
 4619000    0.5121376   -7.9104538    809.37836  0.014602337  0.013175234           12 
 4620000   0.50415595   -7.8894158    809.39426  0.014599463  0.013171034           18 
 4621000   0.51275076   -7.8929182    809.30021  0.014594608  0.013166842           18 
 4622000   0.50708397   -7.9076146    809.51988  0.014595411  0.013162657           10 
 4623000   0.51159852   -7.8954927     810.3225  0.014606722  0.013158471            5 
 4624000   0.50523477   -7.9103761    808.20695  0.014565437  0.013154287           23 
 4625000   0.51690591   -7.9044231    809.32441  0.014582422  0.013150105           10 
 4626000   0.50749929    -7.911136    809.20254  0.014577074  0.013145924           15 
 4627000   0.51174665   -7.9142436    810.83773  0.014603374  0.013141744            7 
 4628000   0.50787015    -7.906299     809.2986  0.014572504  0.013137563            6 
 4629000    0.5101628   -7.9066147    809.67686  0.014576166  0.013133382           14 
 4630000   0.50842621   -7.9280065    809.29906  0.014566218  0.013129205            7 
 4631000    0.5055133   -7.8965502    808.61213  0.014550711  0.013125025           14 
 4632000   0.51325795   -7.9274445    808.70167  0.014549181  0.013120851           13 
 4633000   0.50748343    -7.909099    808.96962   0.01455086  0.013116678           11 
 4634000   0.50240067   -7.9154418    809.16147   0.01455117   0.01311251           21 
 4635000   0.51247071   -7.9271573    810.31686  0.014568804  0.013108347            7 
 4636000   0.50006761   -7.9009924    808.89387  0.014540082  0.013104181           10 
 4637000   0.50948922   -7.9108604    808.51331  0.014530108  0.013100019           11 
 4638000   0.51920403   -7.9042328    808.29512  0.014523055  0.013095857           16 
 4639000    0.5091546   -7.9212857    808.93372  0.014531395  0.013091696           14 
 4640000   0.50972426   -7.9214368    808.04844  0.014512364  0.013087534           15 
 4641000   0.50980296   -7.9108025    808.12074  0.014510535  0.013083369            8 
 4642000   0.50885637   -7.9303224    809.39997  0.014530374   0.01307921           15 
 4643000   0.51036756   -7.9092724    809.33631  0.014526102   0.01307505           18 
 4644000    0.5071345   -7.9061352    808.82556  0.014513809  0.013070894           11 
 4645000   0.50500905     -7.91275    809.88146  0.014529628  0.013066738           13 
 4646000   0.51395076   -7.9132298    809.91611  0.014527122  0.013062583           11 
 4647000   0.51347812   -7.9078753    808.97882  0.014507188  0.013058434            8 
 4648000   0.51830432   -7.8989862    808.26868  0.014491335  0.013054284           14 
 4649000   0.50466478   -7.9254105      809.469  0.014509733   0.01305014           17 
 4650000   0.51069901   -7.9365105    808.79479   0.01449453  0.013045991           13 
 4651000   0.49713422   -7.9113085    808.97719  0.014494682  0.013041845           13 
 4652000   0.50991252   -7.9087822    808.27963   0.01447907    0.0130377           22 
 4653000   0.50387257    -7.914637    808.63488  0.014482321  0.013033556           14 
 4654000   0.50865566   -7.9259724    809.19949  0.014489319  0.013029418            7 
 4655000   0.51666973   -7.9318225    809.02461  0.014483076  0.013025278            8 
 4656000   0.51035235   -7.9438484    809.73843  0.014492741  0.013021139            6 
 4657000   0.51034737   -7.9259724    807.49514  0.014449487  0.013017001           11 
 4658000   0.50439257   -7.9217258    808.68288  0.014467634  0.013012864           10 
 4659000   0.51102689   -7.9097831    808.21941  0.014456239  0.013008728            8 
 4660000   0.50212769   -7.9075937    809.36887  0.014473692  0.013004601            6 
 4661000   0.51179602   -7.9152745    807.68945  0.014440561  0.013000473           13 
 4662000    0.5160831   -7.9205852     809.2296  0.014464994  0.012996347           10 
 4663000   0.50520197   -7.9171229    809.47989  0.014466364  0.012992217           17 
 4664000   0.50015117   -7.9086978    809.17344  0.014457787  0.012988092           14 
 4665000   0.50917299   -7.9171926    808.62274  0.014444851  0.012983962           15 
 4666000   0.51656031   -7.9231234    808.61558  0.014441627  0.012979841           13 
 4667000   0.50784454   -7.9223854    809.04533  0.014446206   0.01297572           13 
 4668000   0.51062306   -7.9259847    808.44647   0.01443242  0.012971601           16 
 4669000   0.49980543   -7.9259935    809.80217  0.014453526  0.012967486           13 
 4670000   0.49558928   -7.9375872    808.90514  0.014434424  0.012963371           11 
 4671000   0.50067073   -7.9183747    808.30503  0.014420628  0.012959257           13 
 4672000   0.50073876   -7.9280124    808.64362  0.014423581  0.012955145           10 
 4673000   0.51464555   -7.9321116    809.08051  0.014428285  0.012951035            9 
 4674000   0.49224908   -7.9222297    808.18752  0.014409277  0.012946928            9 
 4675000   0.50303208   -7.9131191    807.63835  0.014396405   0.01294282           11 
 4676000   0.50184983   -7.9266416    809.49325  0.014426384  0.012938721            5 
 4677000   0.50331276   -7.9164588    809.95465   0.01443152   0.01293462           22 
 4678000   0.50606796   -7.9066826    809.29274  0.014416644  0.012930525           14 
 4679000   0.49828162   -7.9142298    807.80766  0.014387114  0.012926428           13 
 4680000   0.50559917   -7.9129815    809.11667  0.014407348  0.012922329           10 
 4681000   0.49495964   -7.9210756    809.16858  0.014405194  0.012918231           13 
 4682000   0.51493693   -7.9158683    809.13362  0.014401496  0.012914135           19 
 4683000   0.51242464   -7.9182797    808.72656  0.014391177  0.012910043           17 
 4684000   0.50855182   -7.9318865    809.63013   0.01440418  0.012905951           14 
 4685000   0.49956674   -7.9071859    809.27025  0.014394704  0.012901856           13 
 4686000   0.50160627   -7.9171398    809.51889  0.014396054  0.012897763           13 
 4687000   0.51792913   -7.9333662    807.57389  0.014358401  0.012893674           10 
 4688000   0.50774505   -7.9250801    809.72541  0.014393583  0.012889584            8 
 4689000   0.51036836   -7.9227435    809.16329  0.014380523  0.012885497           14 
 4690000   0.50353515   -7.9236522    809.49476  0.014383347  0.012881409           11 
 4691000   0.49317496    -7.934384    809.84905  0.014386574  0.012877326           12 
 4692000   0.50350391   -7.9168254    809.99289  0.014386063  0.012873243           19 
 4693000   0.50934263   -7.9371946    807.45459  0.014337925  0.012869164           14 
 4694000   0.50900503    -7.929215    810.25647  0.014384613  0.012865083           12 
 4695000   0.49356345   -7.9236507    808.86594  0.014356868  0.012861006           13 
 4696000   0.50165746   -7.9416195    809.10905  0.014358125  0.012856927           15 
 4697000   0.49639185   -7.9111466    808.86117   0.01435067  0.012852851           15 
 4698000   0.49861724   -7.9396439    808.65629  0.014343981  0.012848772           12 
 4699000   0.49541221   -7.9238601    807.92699  0.014327995  0.012844699           10 
 4700000   0.48860258   -7.9240621    807.11893  0.014310619  0.012840628           11 
 4701000    0.5011206   -7.9222522    807.49557  0.014314252  0.012836558           11 
 4702000   0.49029995   -7.9236624    808.89267  0.014335968  0.012832487            9 
 4703000   0.49176016   -7.9336232    808.46391  0.014325323  0.012828419           12 
 4704000    0.5047372   -7.9387362    809.14406  0.014334326  0.012824352           14 
 4705000    0.5035558   -7.9171192    809.02002  0.014329083  0.012820286           14 
 4706000   0.49735459   -7.9331252    808.83455  0.014322754  0.012816223            8 
 4707000   0.49927748   -7.9224957    808.37662  0.014311604  0.012812167           18 
 4708000   0.50148947   -7.9175714    808.09352  0.014303553   0.01280811            9 
 4709000   0.49768852    -7.935159    809.39607  0.014323566  0.012804053            8 
 4710000   0.49171151   -7.9421371     808.4892   0.01430448  0.012799999           15 
 4711000   0.48547655   -7.9235263    808.88575  0.014308458  0.012795946           16 
 4712000   0.49748548   -7.9323668    809.63048  0.014318592  0.012791889           15 
 4713000   0.49024292   -7.9318274    807.77724  0.014282786  0.012787837           11 
 4714000   0.50071819   -7.9322649    809.93667   0.01431793  0.012783783            8 
 4715000   0.50376517   -7.9372211    808.29121  0.014285811  0.012779736           11 
 4716000   0.50477607   -7.9582134    808.22419  0.014281598  0.012775691           18 
 4717000   0.49531799   -7.9466259    807.60363  0.014267607  0.012771643           13 
 4718000    0.4999897   -7.9407754    807.72323  0.014266695  0.012767596           17 
 4719000   0.48947956    -7.949996    808.42884  0.014276133  0.012763554           10 
 4720000    0.5064895   -7.9580028    807.24974  0.014252291  0.012759511            8 
 4721000   0.49082295   -7.9303213    808.53775  0.014272007  0.012755471           13 
 4722000   0.49602249   -7.9421619    807.54724  0.014251504  0.012751439           10 
 4723000   0.50766204   -7.9195744     808.6499  0.014267942  0.012747404           15 
 4724000   0.49665116   -7.9337241    807.84234  0.014250676  0.012743373           10 
 4725000   0.49893193   -7.9369205    807.43369  0.014240453  0.012739344            7 
 4726000   0.50081916   -7.9334998    808.45087  0.014255376  0.012735316            9 
 4727000   0.50271966   -7.9381024    808.16758  0.014247366  0.012731286            8 
 4728000   0.48861816   -7.9225285    809.07485  0.014260344  0.012727264            9 
 4729000   0.49727943   -7.9328828    809.24726  0.014260366  0.012723237           12 
 4730000   0.49858653   -7.9302249    807.85643  0.014232848  0.012719211           12 
 4731000   0.48876595     -7.94634    808.72512  0.014245141  0.012715185           16 
 4732000   0.48707866   -7.9492872     809.0401  0.014247677  0.012711157           10 
 4733000   0.48935009    -7.931145    809.17973  0.014247125  0.012707136           11 
 4734000   0.50025736   -7.9501684    809.59679  0.014251457  0.012703114            7 
 4735000   0.50037186   -7.9278316    808.21661  0.014224157  0.012699097            8 
 4736000   0.49585222    -7.947955    809.54557  0.014244538  0.012695084           12 
 4737000   0.49723651   -7.9314521    806.98262  0.014196443  0.012691067            8 
 4738000   0.49452325   -7.9277824    807.73863  0.014206744  0.012687054           11 
 4739000    0.5007226   -7.9446849    808.98185  0.014225608  0.012683037            7 
 4740000   0.48691093    -7.943156    807.59801  0.014198277  0.012679022            7 
 4741000   0.51085998   -7.9459339    808.16016  0.014205163  0.012675011            9 
 4742000   0.50028836   -7.9398834    809.60254  0.014227515  0.012671002            8 
 4743000   0.48581728     -7.92579    807.74144  0.014191817  0.012666996           12 
 4744000   0.49291298   -7.9190487    807.65547  0.014187315  0.012662989           17 
 4745000    0.4963269   -7.9324551    809.12412  0.014210118  0.012658989           13 
 4746000   0.49098176   -7.9320635    807.75986  0.014183169  0.012654988            7 
 4747000   0.48957981    -7.911194    808.18451  0.014187636  0.012650984            9 
 4748000   0.49228474   -7.9329228     808.5872  0.014191716  0.012646987           10 
 4749000   0.48817853   -7.9319049     808.4857  0.014186946  0.012642989            9 
 4750000   0.48952383   -7.9411456    807.97427  0.014174987  0.012638991           11 
 4751000   0.49495497   -7.9326283    807.48334  0.014163393  0.012634999           12 
 4752000   0.48770252   -7.9456129     807.7159   0.01416449  0.012631005           16 
 4753000   0.49169218   -7.9340497     808.2109  0.014170189  0.012627013           15 
 4754000    0.4822217   -7.9541695    808.90589  0.014179391  0.012623023           12 
 4755000   0.48687733   -7.9445797    808.11681   0.01416258  0.012619035           27 
 4756000   0.49151018   -7.9212188    808.12086  0.014159673  0.012615049            9 
 4757000   0.48473149   -7.9255168    808.88307  0.014170049  0.012611066           10 
 4758000   0.49400136   -7.9372203    809.09661  0.014170811  0.012607086           12 
 4759000   0.50051396   -7.9275276    807.93481  0.014147489  0.012603105            9 
 4760000   0.49880326   -7.9433932    808.41267  0.014152883  0.012599127           13 
 4761000   0.49304854   -7.9350704    807.74301  0.014138189  0.012595151            8 
 4762000   0.49713762     -7.94999    809.06687  0.014158387  0.012591178           14 
 4763000   0.48776758   -7.9491436    807.96974  0.014136219  0.012587201           15 
 4764000   0.48303554   -7.9476265      809.514  0.014160265  0.012583226           14 
 4765000   0.49782553   -7.9458874    808.47833   0.01413918  0.012579253           10 
 4766000   0.48427482   -7.9423072    809.08022  0.014146738  0.012575283           15 
 4767000   0.48574062   -7.9233647    808.25768  0.014129391  0.012571311           14 
 4768000   0.48316567   -7.9371544    808.88951  0.014137471  0.012567343            8 
 4769000   0.49266538   -7.9320705    807.54935  0.014111088   0.01256337            8 
 4770000   0.48161814   -7.9570311    808.65868   0.01412751  0.012559404            8 
 4771000   0.49502835   -7.9432579    807.43881  0.014103242   0.01255544           14 
 4772000   0.48315863   -7.9489781    807.59453  0.014103006  0.012551475           15 
 4773000   0.49109055   -7.9454945    808.64433   0.01411838  0.012547513           15 
 4774000   0.49652347   -7.9533811    809.18117  0.014124794  0.012543552            9 
 4775000     0.483168   -7.9434056    807.82211  0.014098117  0.012539588           11 
 4776000   0.48014803   -7.9483847    808.26527  0.014102898  0.012535628            6 
 4777000   0.48220101   -7.9343281    808.53473  0.014104646  0.012531673           12 
 4778000   0.49353586   -7.9610153    808.23247  0.014096422  0.012527722           11 
 4779000   0.49789351   -7.9455973    807.64823  0.014083285  0.012523767            6 
 4780000   0.48318498      -7.9682    808.71008  0.014098851  0.012519816           16 
 4781000   0.48118085    -7.919517    807.58523  0.014076296  0.012515861           10 
 4782000   0.48943188    -7.963576    809.19176  0.014101348  0.012511913           13 
 4783000   0.47589401   -7.9536027    808.02489   0.01407807  0.012507964           12 
 4784000   0.49018722    -7.942262    808.00782   0.01407483  0.012504016           11 
 4785000   0.49202327   -7.9276249    808.18654  0.014075001  0.012500073           10 
 4786000   0.48999323   -7.9406717    807.38859  0.014058166  0.012496132           12 
 4787000   0.47304584   -7.9439106    808.36683  0.014072259  0.012492192            7 
 4788000   0.48963556   -7.9460499    807.72744  0.014058191   0.01248825            6 
 4789000   0.48055636   -7.9517324    808.78958  0.014073738   0.01248431           10 
 4790000   0.47606697    -7.978039    808.06134  0.014058131  0.012480367           15 
 4791000   0.49042822   -7.9401132    807.71142   0.01404911  0.012476424           14 
 4792000   0.49009474   -7.9461711    807.45622   0.01404174  0.012472484           10 
 4793000   0.47995646   -7.9452933    808.54184  0.014057686  0.012468549           11 
 4794000   0.48637567   -7.9639404    807.44503  0.014035688  0.012464614           11 
 4795000   0.48854605   -7.9659652    807.34766  0.014031068  0.012460678           16 
 4796000   0.47763239   -7.9477008    808.72928  0.014052149  0.012456742           13 
 4797000   0.48625332   -7.9506236    807.14049  0.014021619  0.012452805            9 
 4798000   0.46788965   -7.9531611    806.61618   0.01400959  0.012448874            8 
 4799000   0.48991978   -7.9643365    808.15231  0.014033346  0.012444941           11 
 4800000   0.48470534   -7.9532327    808.72157  0.014040305  0.012441011            7 
 4801000   0.48314882   -7.9564343    807.58992  0.014017738  0.012437083           12 
 4802000   0.47841422   -7.9406897    806.36071  0.013993487  0.012433157           10 
 4803000   0.49272857   -7.9530314    807.77554  0.014015121  0.012429235           13 
 4804000   0.48024679   -7.9544878    807.23275  0.014002788  0.012425312           12 
 4805000   0.48499988   -7.9480296    808.61757  0.014023891  0.012421389            8 
 4806000   0.48556345   -7.9558311    807.76586  0.014006205  0.012417469           12 
 4807000   0.47901913   -7.9602866    806.86397  0.013987656  0.012413551            9 
 4808000   0.48865459   -7.9689958    807.16248  0.013989921  0.012409631           18 
 4809000   0.47919517   -7.9319639    807.65736  0.013995587  0.012405715            7 
 4810000   0.48551562    -7.957807    808.54099  0.014007987  0.012401799            8 
 4811000   0.47826703   -7.9470667    808.35237  0.014001808  0.012397883           13 
 4812000   0.47600487   -7.9693722    806.79212  0.013971878  0.012393968           15 
 4813000   0.48115404   -7.9610902    807.52799  0.013981716  0.012390054           12 
 4814000   0.48187377    -7.966969    806.39373  0.013959177  0.012386144           13 
 4815000   0.48546996   -7.9578211    807.42276  0.013974087  0.012382234           11 
 4816000   0.48398631   -7.9488131    806.75245  0.013959587  0.012378325           14 
 4817000   0.48247627   -7.9662837    806.23515   0.01394774   0.01237442            8 
 4818000   0.47562449   -7.9644702    807.36047  0.013964309  0.012370514           14 
 4819000   0.47618542   -7.9565999    808.03497  0.013973075  0.012366611           14 
 4820000   0.48486841   -7.9672061    807.88758  0.013967628  0.012362712            8 
 4821000   0.48174691   -7.9683961    807.00187   0.01394942   0.01235881            9 
 4822000   0.48659305    -7.975935    806.56222  0.013938929  0.012354909            8 
 4823000   0.47400734    -7.958244    806.48413   0.01393469  0.012351009           12 
 4824000   0.48174496   -7.9773264    807.03097  0.013941248  0.012347114           14 
 4825000   0.48129678   -7.9495869    806.52939  0.013929696  0.012343223           17 
 4826000   0.47492073   -7.9580414    807.56741  0.013944734  0.012339329           11 
 4827000   0.48808006   -7.9707921    807.91944  0.013947922  0.012335435            9 
 4828000   0.48100129    -7.954038    807.78219  0.013942664  0.012331543            8 
 4829000   0.47578324   -7.9582236    807.61093  0.013936821  0.012327656            9 
 4830000   0.48216664   -7.9542365    806.44142  0.013913758  0.012323768            7 
 4831000   0.48984431   -7.9634464    807.77914  0.013933953  0.012319881           10 
 4832000   0.48926051   -7.9611219    806.93822  0.013916567  0.012315994           13 
 4833000   0.48539415   -7.9613347    807.83377  0.013929129  0.012312108           10 
 4834000   0.47993556   -7.9610383    807.92028  0.013927739  0.012308224           10 
 4835000   0.46936106    -7.956581    807.25825  0.013913448  0.012304341           17 
 4836000   0.47418599   -7.9641751    805.86661   0.01388659  0.012300458           11 
 4837000   0.47369082   -7.9710332    806.68984  0.013897902  0.012296579           10 
 4838000   0.47316669   -7.9556769    806.34566  0.013889101  0.012292701            4 
 4839000   0.47692051   -7.9684412    808.45389  0.013922537  0.012288823            9 
 4840000   0.47987639   -7.9686918    806.43435  0.013884889  0.012284945           15 
 4841000    0.4764216   -7.9506396    806.62182  0.013885248  0.012281068           10 
 4842000   0.47679515   -7.9485375    805.15851  0.013857196  0.012277198           17 
 4843000   0.46732941   -7.9796897    806.65471   0.01388008  0.012273326           12 
 4844000   0.47830334   -7.9751684    806.15162  0.013868559  0.012269453            9 
 4845000   0.47235579   -7.9714486    806.76474  0.013876242  0.012265581           13 
 4846000   0.47136038   -7.9763868    806.68002  0.013871922   0.01226171           15 
 4847000    0.4752991   -7.9506683    806.57082  0.013867183  0.012257843           13 
 4848000   0.46903803   -7.9786653    805.82471  0.013851497  0.012253978            8 
 4849000   0.47733191   -7.9584647     806.1737  0.013854638  0.012250116           15 
 4850000   0.46998371   -7.9625369    807.64407  0.013877046  0.012246253           10 
 4851000   0.47870695    -7.960261    808.02438  0.013880718  0.012242392           16 
 4852000   0.48880367   -7.9766284    805.92168  0.013841744  0.012238536           13 
 4853000    0.4709793   -7.9627022    806.81028   0.01385415  0.012234679           13 
 4854000   0.46972339   -7.9690462    806.81647  0.013851402  0.012230824           11 
 4855000    0.4723622   -7.9736465    806.64104  0.013845538  0.012226969           17 
 4856000   0.46798745   -7.9680587    808.17332  0.013868982  0.012223116           18 
 4857000   0.48371526   -7.9618019     806.7153  0.013841111  0.012219266            9 
 4858000   0.47564998   -7.9559598    805.04442    0.0138096  0.012215417            9 
 4859000   0.49014663   -7.9715298    806.23767  0.013827222  0.012211568            8 
 4860000   0.47774531   -7.9825993    808.83197  0.013868861  0.012207723           10 
 4861000    0.4800608   -7.9745325     805.4996   0.01380888  0.012203878           16 
 4862000   0.48317892    -7.972582    806.83768  0.013828974  0.012200034           21 
 4863000   0.46577974   -7.9687643    805.85618  0.013809311  0.012196191           12 
 4864000   0.48102029   -7.9791854    807.49115  0.013834484  0.012192351           16 
 4865000   0.46550424    -7.971233      805.942  0.013805105  0.012188509           12 
 4866000   0.47245304   -7.9733872    807.89759  0.013835758  0.012184671           10 
 4867000   0.47176753   -7.9722406    806.23726  0.013804487  0.012180835           10 
 4868000    0.4824136   -7.9674757     805.1731  0.013783434  0.012176997           12 
 4869000   0.47630753   -7.9740224    806.70518  0.013806825   0.01217316           13 
 4870000   0.47231616    -7.990429    805.76856  0.013787963  0.012169326           11 
 4871000   0.47091781   -7.9811095    806.03689  0.013789723  0.012165493           14 
 4872000   0.46360898   -7.9887456    806.64169  0.013797237  0.012161663           10 
 4873000   0.47116589   -7.9793705    806.23712  0.013787488  0.012157836           12 
 4874000   0.47294308   -7.9795336    806.21936  0.013784355  0.012154012            9 
 4875000   0.46180451   -7.9902797    807.59921  0.013805115  0.012150186           15 
 4876000   0.48227672   -7.9887711    806.14196  0.013777378   0.01214636           21 
 4877000   0.47535713   -7.9796957    806.91631  0.013787785  0.012142537            9 
 4878000   0.47120354   -7.9654038    805.90948  0.013767758  0.012138715           11 
 4879000   0.47261705    -7.981007    806.39517  0.013773232  0.012134892           10 
 4880000   0.46760503   -7.9772729    806.06789  0.013764821  0.012131072           12 
 4881000   0.48250673   -7.9752375    806.33789   0.01376661  0.012127257            9 
 4882000   0.46172425   -7.9635095     806.0175  0.013758321  0.012123443           10 
 4883000   0.47487424   -7.9856669    807.48295  0.013780513   0.01211963           13 
 4884000   0.46634392   -7.9794906    806.33613  0.013758124  0.012115817           10 
 4885000    0.4824135   -7.9769402    806.75104  0.013762386  0.012112006           17 
 4886000   0.48867957     -7.98621    805.71841  0.013741957  0.012108199           12 
 4887000   0.47062813   -7.9869277    807.27886  0.013765754  0.012104395           17 
 4888000   0.47269108   -7.9699935    806.23052  0.013745065  0.012100591           14 
 4889000    0.4674602   -7.9722812     806.7503  0.013751113  0.012096791           13 
 4890000   0.46838714   -7.9826655    806.33577  0.013741237   0.01209299           10 
 4891000   0.46951839   -7.9862731    805.34078  0.013721474  0.012089186           11 
 4892000   0.46415075   -7.9667357    805.68252  0.013724491  0.012085385           11 
 4893000   0.46386223   -7.9662324    806.05323     0.013728  0.012081586           13 
 4894000   0.46488249   -7.9689699    805.70072  0.013719192  0.012077789           10 
 4895000   0.46549262   -7.9861924    806.03462  0.013722074  0.012073992           18 
 4896000     0.463055    -7.976045    806.89775  0.013733962    0.0120702           15 
 4897000   0.46259292    -7.988959    806.06174  0.013716931  0.012066405           17 
 4898000   0.45629964   -7.9874661    805.77449  0.013709243  0.012062611           17 
 4899000   0.48117464   -7.9866323     806.2032  0.013713737  0.012058823           15 
 4900000   0.45993436   -8.0020212     806.7195  0.013719719  0.012055034           15 
 4901000   0.47986434   -7.9819597    806.44772  0.013712299  0.012051245           11 
 4902000   0.46894955   -7.9781885    805.66895  0.013696263  0.012047462           15 
 4903000    0.4624642   -7.9797264    806.88207  0.013714088  0.012043675           15 
 4904000   0.47081221   -7.9765554    806.82971  0.013710402  0.012039891           10 
 4905000   0.45268223   -7.9701459     805.3037   0.01368168  0.012036107           16 
 4906000   0.47296413   -7.9816812    806.81616  0.013704582  0.012032327           10 
 4907000   0.46662804   -7.9851879    806.51483  0.013696672  0.012028544           14 
 4908000   0.46751865   -7.9849136    806.90326  0.013700476  0.012024763           15 
 4909000   0.47249974   -7.9704699    806.45115  0.013690011  0.012020987           15 
 4910000   0.48051163   -7.9855601    806.35387  0.013685571   0.01201721           12 
 4911000   0.47442052   -7.9902998    806.33718  0.013682502  0.012013435           13 
 4912000   0.47655332   -7.9788928    806.99272  0.013690837  0.012009666           13 
 4913000   0.47534496   -7.9797587    806.07197  0.013672433  0.012005897           16 
 4914000    0.4800339   -7.9733889    805.89349  0.013666624  0.012002127            9 
 4915000   0.46725618   -7.9965426     808.0741  0.013700816   0.01199836           10 
 4916000   0.46705849   -7.9714243    805.14452  0.013648368  0.011994596           10 
 4917000   0.46821351   -7.9781633     806.6298  0.013670765   0.01199083           13 
 4918000     0.455575   -7.9973745    805.91879  0.013655937  0.011987066           14 
 4919000   0.46900936   -7.9913458    805.02709  0.013638055  0.011983304            8 
 4920000   0.46079922   -7.9892323    806.48358  0.013659952  0.011979544           11 
 4921000   0.45692501   -7.9790257    806.02376   0.01364939  0.011975785            9 
 4922000   0.46402033   -7.9917886    805.82669   0.01364328  0.011972027           11 
 4923000   0.45456725   -7.9952557    807.92982  0.013676109  0.011968268            6 
 4924000   0.47094538   -7.9895375    805.64386  0.013634644  0.011964514           13 
 4925000   0.45620522   -7.9891644    806.12136  0.013639955  0.011960758           15 
 4926000   0.45832474   -7.9723126     805.2032  0.013621654  0.011957011           11 
 4927000    0.4629283   -7.9820199    807.12655   0.01365142  0.011953261            6 
 4928000   0.45434699   -7.9962597    805.83228  0.013626763  0.011949513           15 
 4929000   0.46982871   -7.9795799    806.36198  0.013632954  0.011945764           11 
 4930000   0.47396081   -7.9832785    806.53499  0.013633113  0.011942019           11 
 4931000   0.46212515   -8.0019394    805.65279   0.01361544  0.011938277            8 
 4932000   0.47069142   -7.9792858    807.41541  0.013642461  0.011934535           12 
 4933000   0.45653451   -7.9863518    806.48669  0.013624007  0.011930793           10 
 4934000   0.45777045   -7.9852387     805.2708  0.013600709  0.011927052           11 
 4935000   0.47095012   -8.0010558    805.85309  0.013607786  0.011923313            9 
 4936000   0.45823844   -7.9921991    804.85992  0.013588262  0.011919577            7 
 4937000   0.45851154   -7.9918601    807.12137  0.013623681   0.01191584           10 
 4938000   0.46953112   -7.9890126    804.88997  0.013583265  0.011912107            8 
 4939000    0.4551766   -7.9830235    805.36733  0.013588569  0.011908374            9 
 4940000   0.45914653   -8.0059296    806.18596  0.013599628  0.011904642           10 
 4941000   0.46507518   -7.9868954    806.40496  0.013600569  0.011900912           12 
 4942000   0.45938883   -7.9873336     805.4137  0.013581103  0.011897185           10 
 4943000    0.4683291   -7.9784309    806.50652  0.013596779   0.01189346           10 
 4944000   0.46218012   -7.9950253    806.35854  0.013591534  0.011889735           14 
 4945000    0.4522086   -8.0022658    806.01933  0.013583069  0.011886011           12 
 4946000   0.45163054   -7.9984027    806.56058  0.013589442  0.011882284            9 
 4947000   0.45606582   -7.9841694    806.17641  0.013580224  0.011878563           12 
 4948000   0.45006444   -7.9859458     804.8962  0.013555918  0.011874842            9 
 4949000   0.45202692   -7.9859765    806.94247  0.013587635  0.011871125           11 
 4950000   0.46198003   -7.9843649     805.1788  0.013555199  0.011867408           13 
 4951000   0.46602945   -7.9848197    805.96021  0.013565613  0.011863691           11 
 4952000   0.45486488    -8.007488    806.57233  0.013573175  0.011859976           19 
 4953000   0.46504305   -7.9831581    805.14463  0.013546414  0.011856261            7 
 4954000    0.4564768   -7.9889779    806.54635  0.013567258  0.011852551            8 
 4955000   0.45272496   -7.9966228    806.56772  0.013564879  0.011848841            8 
 4956000   0.46110191   -7.9917207    805.66476  0.013546959  0.011845133           19 
 4957000   0.45262031   -8.0096502    806.09977  0.013551539  0.011841424           10 
 4958000   0.45276484   -7.9752657    806.12837  0.013549287  0.011837715           12 
 4959000   0.45894826   -7.9760231    804.97455  0.013527165  0.011834011            9 
 4960000   0.46138494   -7.9906239    806.71191  0.013553627   0.01183031            8 
 4961000   0.46559745   -7.9847801    804.93871   0.01352111  0.011826611           10 
 4962000   0.45993394   -8.0004574    805.67018  0.013530669  0.011822913           10 
 4963000   0.44856949   -7.9942558    806.20777   0.01353697  0.011819216           16 
 4964000   0.45528466    -7.985355    806.38615  0.013537237  0.011815521            8 
 4965000    0.4590224   -7.9784898     805.6185  0.013521626  0.011811828           14 
 4966000   0.45335243    -8.005201    806.32475  0.013530755  0.011808135            8 
 4967000   0.44273145   -8.0018396    805.61471  0.013516118  0.011804439           13 
 4968000   0.45865663   -7.9965141    805.62871  0.013513632  0.011800744           12 
 4969000   0.46155576   -7.9927368    805.61832  0.013510739  0.011797054            9 
 4970000   0.45254307   -7.9973946    806.84749   0.01352863  0.011793363           14 
 4971000   0.46110714   -7.9997067    806.08027  0.013513047  0.011789672            9 
 4972000   0.45927293   -8.0109582    804.81444  0.013489113  0.011785981            9 
 4973000   0.45087155   -8.0098566    806.79623   0.01351961  0.011782297           10 
 4974000   0.46265758   -8.0032886    805.98173  0.013503246   0.01177861           10 
 4975000    0.4626327   -7.9789041    804.91001   0.01348258  0.011774927            9 
 4976000   0.45348335   -8.0037244    805.54023  0.013490424  0.011771246           12 
 4977000   0.45201212   -7.9982878     805.1945  0.013481925  0.011767564           12 
 4978000   0.45206831   -8.0038516    806.22371  0.013496446  0.011763886           12 
 4979000   0.44983613    -7.997515    805.89076  0.013488163   0.01176021            9 
 4980000   0.45958661    -7.982932    806.01825  0.013487588  0.011756533            9 
 4981000   0.45560437   -7.9910245    805.62124  0.013478238  0.011752858           13 
 4982000   0.45886154   -7.9952855    804.68059  0.013459799  0.011749182           12 
 4983000   0.44460755   -8.0189482    805.55488  0.013471719   0.01174551           10 
 4984000   0.45973624   -8.0090318    806.07921  0.013477782  0.011741836           12 
 4985000   0.45035459   -7.9988315    804.93511  0.013455953  0.011738164            8 
 4986000    0.4594968   -8.0035204    807.18228  0.013490812  0.011734499           11 
 4987000   0.45422821   -8.0001317     806.5361  0.013477309  0.011730831           13 
 4988000   0.45793942   -7.9975915    804.48189  0.013440288  0.011727164           10 
 4989000   0.45147354   -7.9895206    806.89543  0.013477908    0.0117235            9 
 4990000   0.45185787   -7.9953014    806.39001  0.013466767   0.01171984           10 
 4991000   0.45199261   -8.0089129    805.89804  0.013455855  0.011716177           12 
 4992000   0.44924915   -8.0086692     806.0312  0.013455382  0.011712517           11 
 4993000   0.45497171   -8.0095286    805.64839  0.013446298  0.011708858           16 
 4994000   0.45268813   -7.9997165    805.96433  0.013448877  0.011705203           14 
 4995000   0.44593223   -8.0111106    806.72536  0.013458882   0.01170155           10 
 4996000     0.460658   -8.0018144    805.89542  0.013442344  0.011697896            9 
 4997000   0.45763416   -8.0249391       805.32  0.013430058  0.011694248           10 
 4998000   0.43954162   -8.0091151    805.59103   0.01343189  0.011690597           10 
 4999000   0.44985131   -7.9870991    806.71743   0.01344798  0.011686949           11 
 5000000   0.44983509   -7.9952205    805.80193  0.013430032  0.011683305           10 
 5001000   0.45028607   -8.0092246    806.44981  0.013438142  0.011679659            9 
 5002000   0.45315608    -7.996129    805.43477  0.013418545  0.011676015           12 
 5003000   0.45899021   -8.0008958    805.85664   0.01342289   0.01167237           12 
 5004000    0.4437317   -8.0009057    805.83682  0.013419878  0.011668727            7 
 5005000   0.44762371    -7.996413     806.1196  0.013421905  0.011665087           11 
 5006000   0.44847642   -8.0126946     804.7968  0.013397203  0.011661446           13 
 5007000   0.44775559    -7.997471    804.71785  0.013393214  0.011657806           11 
 5008000   0.44429763   -8.0106636    805.29635  0.013400166   0.01165417           11 
 5009000   0.43431076    -8.012401    804.54144  0.013384931  0.011650531           14 
 5010000   0.45138175   -8.0028781    805.86544  0.013404282  0.011646898           14 
 5011000   0.43907794   -8.0023955    806.06593  0.013404941  0.011643266           14 
 5012000   0.44680727    -7.998642    805.32694   0.01338998  0.011639635           10 
Loop time of 11212.1 on 48 procs for 5000000 steps with 4000 atoms

Performance: 77059.366 tau/day, 445.945 timesteps/s
99.4% CPU use with 48 MPI tasks x no OpenMP threads

MPI task timing breakdown:
Section |  min time  |  avg time  |  max time  |%varavg| %total
---------------------------------------------------------------
Pair    | 692.51     | 767.56     | 798.8      |  60.8 |  6.85
Neigh   | 71.046     | 72.81      | 73.808     |   7.8 |  0.65
Comm    | 668.95     | 702.93     | 791.1      |  70.0 |  6.27
Output  | 13.559     | 13.563     | 13.646     |   0.3 |  0.12
Modify  | 9513.8     | 9541.3     | 9564.2     |  12.1 | 85.10
Other   |            | 113.9      |            |       |  1.02

Nlocal:        83.3333 ave          93 max          75 min
Histogram: 1 2 11 10 2 8 6 4 2 2
Nghost:        1875.42 ave        1898 max        1855 min
Histogram: 2 3 5 11 5 6 7 5 3 1
Neighs:        11700.7 ave       13458 max       10469 min
Histogram: 5 5 7 6 7 9 4 0 2 3
FullNghs:      23401.8 ave       26830 max       20664 min
Histogram: 2 2 9 10 6 8 7 1 1 2

Total # of neighbors = 1123288
Ave neighs/atom = 280.82200
Neighbor list builds = 268918
Dangerous builds = 2

#clear
#
#next RN
#
#jump SELF
Total wall time: 3:06:55
