
units lj                  # Use reduced LJ style units
atom_style atomic         # Uncharged point particles
atom_modify map hash      # Needed for indexing of clusters etc
                          # Used to be able to find where atoms are in relation to each other.

lattice fcc 1.0 spacing 1 1 1
Lattice spacing in x,y,z = 1.5874011 1.5874011 1.5874011
region box block 0 10 0 10 0 10 units lattice
create_box 2 box
Created orthogonal box = (0.0000000 0.0000000 0.0000000) to (15.874011 15.874011 15.874011)
  3 by 4 by 4 MPI processor grid
create_atoms 1 box
Created 4000 atoms
  using lattice units in orthogonal box = (0.0000000 0.0000000 0.0000000) to (15.874011 15.874011 15.874011)
  create_atoms CPU = 0.005 seconds
set type 1 type/fraction 2 0.06 78393
Setting atom values ...
  252 settings made for type/fraction
mass 1 1.0
mass 2 1.0
pair_style lj/cut  3.5
pair_modify tail  yes
pair_coeff 1  1  1.0  1.0   # Intearaction between 1 and 1 set with epsilon = 1 and sigma = 1
pair_coeff 1  2  1.5  0.8
pair_coeff 2  2  0.5  0.88

write_data data.0
System init for write_data ...
Neighbor list info ...
  update every 1 steps, delay 10 steps, check yes
  max neighbors/atom: 2000, page size: 100000
  master list distance cutoff = 3.8
  ghost atom cutoff = 3.8
  binsize = 1.9, bins = 9 9 9
  1 neighbor lists, perpetual/occasional/extra = 1 0 0
  (1) pair lj/cut, perpetual
      attributes: half, newton on
      pair build: half/bin/atomonly/newton
      stencil: half/bin/3d
      bin: standard
WARNING: Not all mixed pair coeffs generated from mixing. Use write_data with 'pair ij' option to store all pair coeffs. (../write_data.cpp:312)


#############################
#   M E L T   S Y S T E M   #
#############################

velocity all create 2.4 6583654 mom yes dist gaussian # Assign velocities
                                                    # Temperature 2.4, random number seed, zero linear momentum
                                                                                # Gaussian distribution

timestep 0.002   # simulation timestep
thermo 1000       # output thermodynamic data every 1000 steps bf 100

# Define a fix  in this case with index 1 applied to all
# particles in the simulation. This fix is for simulations
# in the anisotropic NPT ensemble. Note that we use the MTK
# correction.
fix 1 all npt temp 2.4 2.4 0.1 iso 5.68 5.68 0.5 mtk yes tchain 5 pchain 5 # Use NPT ensemble
                                                                         # Set temperature and pressure and damping
                                                                         # Numbers of thermostats in chain and in barostat
run 10000          # run for 10000 steps
Per MPI rank memory allocation (min/avg/max) = 3.642 | 3.644 | 3.648 Mbytes
Step Temp E_pair E_mol TotEng Press Volume 
       0          2.4   -7.9704536            0   -4.3713536   -2.7323792         4000 
    1000    2.4288147   -4.5207091            0  -0.87839788    5.6214739    5002.6168 
    2000    2.3662142   -4.5284285            0  -0.97999453    5.6136341    4984.1432 
    3000    2.3834193   -4.5047115            0  -0.93047633    5.7063659    4985.3919 
    4000    2.4044964   -4.5279809            0  -0.92213797    5.7124659     4976.323 
    5000    2.3960327   -4.4620156            0  -0.86886503    5.7330447    5017.3072 
    6000    2.4048148   -4.5773614            0    -0.971041    5.4337071    4991.4615 
    7000    2.3724241   -4.5608178            0   -1.0030712    5.8399542    4954.4983 
    8000    2.4751073   -4.5270861            0  -0.81535326    5.6177462    5003.6388 
    9000    2.4034369   -4.5417294            0  -0.93747536     5.433072    5014.9339 
   10000    2.4037454   -4.5615714            0  -0.95685479    5.5684731    4992.5835 
Loop time of 2.10883 on 48 procs for 10000 steps with 4000 atoms

Performance: 819412.063 tau/day, 4741.968 timesteps/s
99.7% CPU use with 48 MPI tasks x no OpenMP threads

MPI task timing breakdown:
Section |  min time  |  avg time  |  max time  |%varavg| %total
---------------------------------------------------------------
Pair    | 0.89196    | 0.93499    | 1.0142     |   2.7 | 44.34
Neigh   | 0.18216    | 0.18885    | 0.21634    |   1.2 |  8.96
Comm    | 0.62961    | 0.74117    | 0.80892    |   3.8 | 35.15
Output  | 0.0002432  | 0.00024685 | 0.00031287 |   0.0 |  0.01
Modify  | 0.20763    | 0.22945    | 0.26569    |   2.9 | 10.88
Other   |            | 0.01412    |            |       |  0.67

Nlocal:        83.3333 ave          92 max          76 min
Histogram: 7 7 1 4 5 7 7 4 2 4
Nghost:        1416.29 ave        1447 max        1394 min
Histogram: 4 6 5 6 11 5 6 3 1 1
Neighs:        7622.08 ave        8656 max        6706 min
Histogram: 5 6 1 6 10 4 8 2 2 4

Total # of neighbors = 365860
Ave neighs/atom = 91.465000
Neighbor list builds = 906
Dangerous builds = 220

# Equilibrate just above the melting temperature to avoid step fn in T

fix 1 all npt temp 1.25 1.25 0.1 iso 5.68 5.68 0.5 mtk yes tchain 5 pchain 5
run 2000
Per MPI rank memory allocation (min/avg/max) = 3.643 | 3.645 | 3.649 Mbytes
Step Temp E_pair E_mol TotEng Press Volume 
   10000    2.4037454   -4.5615714            0  -0.95685479    5.5684731    4992.5835 
   11000    1.2754546   -6.0945839            0   -4.1818803    5.6848113    4115.3722 
   12000    1.2619323   -6.0933082            0   -4.2008829    5.4122685    4135.5345 
Loop time of 0.460852 on 48 procs for 2000 steps with 4000 atoms

Performance: 749914.713 tau/day, 4339.784 timesteps/s
99.7% CPU use with 48 MPI tasks x no OpenMP threads

MPI task timing breakdown:
Section |  min time  |  avg time  |  max time  |%varavg| %total
---------------------------------------------------------------
Pair    | 0.20134    | 0.21642    | 0.22815    |   1.3 | 46.96
Neigh   | 0.030085   | 0.032227   | 0.035875   |   0.4 |  6.99
Comm    | 0.14391    | 0.15971    | 0.17469    |   1.9 | 34.65
Output  | 4.9745e-05 | 5.0802e-05 | 6.6124e-05 |   0.0 |  0.01
Modify  | 0.042569   | 0.048068   | 0.059225   |   1.9 | 10.43
Other   |            | 0.004384   |            |       |  0.95

Nlocal:        83.3333 ave          90 max          76 min
Histogram: 2 2 6 3 8 10 6 3 4 4
Nghost:        1599.27 ave        1633 max        1574 min
Histogram: 2 2 11 6 10 10 4 2 0 1
Neighs:        9211.42 ave       10255 max        8197 min
Histogram: 1 2 4 10 9 10 5 2 4 1

Total # of neighbors = 442148
Ave neighs/atom = 110.53700
Neighbor list builds = 141
Dangerous builds = 10

#############################
# L I N E A R  Q U E N C H  #
#############################

# Define solid atoms. This closely follows ten Wolde  Ruiz-Montero and Frenkel  Faraday Discuss  1996  104  93-110
# Compute components of the per-atom q6 vector
compute q6 all orientorder/atom degrees 1 6 components 6 nnn NULL cutoff 1.3 # compute the Q6 parameter.
                                                                             # Use all neighbours within 1.3 unit cell.

# get number of connections
compute coord_number all coord/atom orientorder q6 0.5

# An atom is solid if it has 8 or more connections (of a possible 14)
variable is_solid atom c_coord_number>=8
group solid dynamic all var is_solid    # Must be dynamic to update
dynamic group solid defined

# do clustering
compute cluster solid cluster/atom 1.3 # Create a cluster where all atoms within are solid and max 1.3 units from another member

# define chunks one chunk per cluster
compute clus_chunks solid chunk/atom c_cluster nchunk every compress yes  # Says which atoms are in which chunk

# count the size of each chunk
compute size_chunks solid property/chunk clus_chunks count


# Find the maximum entry in the vector of chunk sizes
variable max_n equal max(c_size_chunks)


# Thermo style which includes this variable
# thermo_style custom step temp pe vol v_max_n

thermo ${N}  # Print the thermo information every 100 steps
thermo 1000  

# Reset the npt fix at a lower temperature (below freezing)
fix 1  all npt temp  ${temp} ${temp}  0.1  iso  5.68  5.68  0.5  mtk yes tchain  5  pchain  5
fix 1  all npt temp  0.45 ${temp}  0.1  iso  5.68  5.68  0.5  mtk yes tchain  5  pchain  5
fix 1  all npt temp  0.45 0.45  0.1  iso  5.68  5.68  0.5  mtk yes tchain  5  pchain  5

dump dmp2 all dcd ${N} traj.dcd
dump dmp2 all dcd 1000 traj.dcd


compute msd all msd com yes
variable twopoint equal c_msd[4]/6/(step*dt+1.0e-6)
fix 9 all vector 10 c_msd[4]
variable fit equal slope(f_9)/6/(10*dt)
thermo_style custom step temp pe c_msd[4] v_twopoint v_fit v_max_n

fix 1 all npt temp 1.25 ${temp} 0.1 iso 5.68 5.68 0.5 mtk yes tchain 5 pchain 5
fix 1 all npt temp 1.25 0.45 0.1 iso 5.68 5.68 0.5 mtk yes tchain 5 pchain 5
run 2000000 # 5000000  # Run for this many steps
Neighbor list info ...
  update every 1 steps, delay 10 steps, check yes
  max neighbors/atom: 2000, page size: 100000
  master list distance cutoff = 3.8
  ghost atom cutoff = 3.8
  binsize = 1.9, bins = 9 9 9
  4 neighbor lists, perpetual/occasional/extra = 1 3 0
  (1) pair lj/cut, perpetual
      attributes: half, newton on
      pair build: half/bin/atomonly/newton
      stencil: half/bin/3d
      bin: standard
  (2) compute orientorder/atom, occasional
      attributes: full, newton on
      pair build: full/bin/atomonly
      stencil: full/bin/3d
      bin: standard
  (3) compute coord/atom, occasional
      attributes: full, newton on
      pair build: full/bin/atomonly
      stencil: full/bin/3d
      bin: standard
  (4) compute cluster/atom, occasional
      attributes: full, newton on
      pair build: full/bin/atomonly
      stencil: full/bin/3d
      bin: standard
Per MPI rank memory allocation (min/avg/max) = 9.741 | 9.745 | 9.750 Mbytes
Step Temp PotEng c_msd[4] v_twopoint v_fit v_max_n 
   12000    1.2619323   -6.0933082 3.9443045e-34 2.7391003e-36 8.3333333e+20            2 
   13000    1.2428202   -6.0619115   0.56609486 0.0036288131  0.046167854            2 
   14000    1.2581882   -6.0425995    1.1056733 0.0065813884  0.045409629            3 
   15000    1.2525439   -6.0449619    1.6815883 0.0093421568  0.045755883            3 
   16000    1.2573346    -6.060766    2.2779729  0.011864442  0.046850508            2 
   17000    1.2419545   -6.0487219    2.8282356  0.013863899  0.047150007            2 
   18000     1.261391   -6.0361477    3.3995746  0.015738771  0.047322564            4 
   19000    1.2650235   -6.0655213    3.8912313  0.017066804  0.046996041            2 
   20000    1.2246303   -6.0265134    4.5033705  0.018764043  0.046819726            2 
   21000     1.254193   -6.0811329     5.013046  0.019893039  0.046623215            3 
   22000    1.2678346   -6.0858376    5.5114995  0.020876892  0.046388978            3 
   23000    1.2670618   -6.0735179    6.0664694  0.021979961  0.046099066            4 
   24000     1.246553    -6.079876     6.685513  0.023213586   0.04594523            2 
   25000    1.2598764   -6.0710972    7.1297324  0.023765774  0.045815851            2 
   26000    1.2476121   -6.0347295    7.6755096  0.024600992  0.045650863            1 
   27000    1.2541339   -6.0556812    8.1684993  0.025211417    0.0454199            2 
   28000    1.2227987   -6.0344815    8.6395629  0.025712984   0.04526297            2 
   29000    1.2426148   -6.0315483     9.222365  0.026501048  0.045130487            4 
   30000    1.2594564   -6.0872711    9.6491639  0.026803233  0.044942209            2 
   31000    1.2391089   -6.0668073    10.051068  0.027018999  0.044615126            4 
   32000    1.2521628   -6.0379213    10.567966  0.027520743  0.044278647            2 
   33000     1.239329   -6.0813882     11.06955   0.02795341   0.04403473            4 
   34000     1.241632   -6.0429367    11.630583   0.02850633  0.043853252            2 
   35000    1.2310282   -6.0708544    12.218811  0.029092406  0.043763455            3 
   36000    1.2196588   -6.0676112    12.791283   0.02960945  0.043720571            4 
   37000    1.2416469   -6.0547328    13.262377  0.029870218  0.043702409            2 
   38000    1.2169609   -6.0650003     13.89908  0.030480438  0.043708549            2 
   39000    1.2326197   -6.0747599    14.414621  0.030800471  0.043714843            1 
   40000    1.2166628   -6.1217065    14.855794  0.030949571  0.043730133            2 
   41000    1.2419067   -6.0930429    15.334472  0.031167626  0.043699714            3 
   42000    1.2440616   -6.0800302    15.848691  0.031445816  0.043638008            4 
   43000    1.2423731   -6.0641536    16.447857  0.031875691  0.043636114            3 
   44000    1.2312609   -6.1148461      16.7731  0.031767235  0.043614724            5 
   45000    1.2546169   -6.0867058    17.457385  0.032328491  0.043583361            1 
   46000    1.2212351   -6.0558881    18.036608  0.032675013  0.043578761            4 
   47000    1.2313145   -6.0899292    18.532087  0.032858311  0.043569463            4 
   48000    1.2325825   -6.1124799    19.048744  0.033070735    0.0435825            3 
   49000    1.2566188   -6.0782887    19.537123    0.0332264  0.043583868            4 
   50000    1.2480403   -6.1002254    20.094582   0.03349097   0.04358648            2 
   51000    1.2302296   -6.0991254    20.634878   0.03371712  0.043597979            2 
   52000      1.24271   -6.0838008    21.209907  0.033990234  0.043612695            3 
   53000    1.2742112   -6.0649318    21.683473   0.03409351  0.043626413            2 
   54000    1.2182021     -6.08196    22.157995  0.034194436  0.043623273            4 
   55000    1.2114274   -6.1185751    22.728009  0.034436377  0.043618333            3 
   56000    1.2584847   -6.0901018    23.264993  0.034620525  0.043619031            3 
   57000    1.2381087   -6.1291343     23.76638   0.03474617  0.043613736            3 
   58000    1.2272911   -6.0487529    24.322139  0.034945602  0.043621111            3 
   59000    1.2298206   -6.1281266    24.824973  0.035063521  0.043647299            4 
   60000    1.2526464   -6.0532077     25.48303  0.035393097  0.043665007            5 
   61000    1.2359792   -6.1119613    25.719009  0.035135257  0.043666174            9 
   62000    1.2369112   -6.0545831    26.273517  0.035313867   0.04363406            2 
   63000    1.2315926   -6.1105629    26.829418  0.035488648  0.043609923            2 
   64000    1.2279504   -6.0831508    27.315219  0.035566691  0.043599665            2 
   65000    1.2032385   -6.1133764    27.823211  0.035670783   0.04358057            3 
   66000    1.2372047   -6.0785389    28.457497  0.035931182  0.043576439            2 
   67000    1.2198557   -6.0747441      29.0104  0.036082587  0.043576289            4 
   68000    1.2053321    -6.128685    29.494037  0.036144653  0.043577953            3 
   69000    1.2213013   -6.1189821    30.191511  0.036463177  0.043586162            3 
   70000    1.2534599   -6.1051678    30.372514  0.036157754  0.043590013            3 
   71000    1.2465297   -6.0647193    31.087578  0.036487768   0.04357929            2 
   72000    1.2115991   -6.1178488    31.329523  0.036261021  0.043559602            2 
   73000    1.2145765   -6.1159445    31.918371  0.036436496  0.043535059            4 
   74000    1.1730153      -6.0911    32.788505  0.036923991   0.04352934            3 
   75000    1.2465165   -6.1153316     33.02902   0.03669891  0.043531276            4 
   76000    1.2380588   -6.0951679    33.651737  0.036898834  0.043531049            3 
   77000    1.1814159   -6.0929464    34.169433  0.036979906  0.043532324            6 
   78000     1.222486   -6.1438975     34.70447  0.037077425  0.043537099            3 
   79000    1.2347835   -6.0801028    35.319756  0.037257126  0.043535165            1 
   80000    1.2177681   -6.1277415    35.866568  0.037361008  0.043541708            5 
   81000    1.2143123   -6.1123229    36.284706  0.037329944  0.043552834            2 
   82000    1.2340294   -6.1008972    36.742396  0.037339833   0.04355378            2 
   83000    1.2399677   -6.0877215    37.219447  0.037368922   0.04354534            5 
   84000    1.2091203   -6.0978581     37.75702  0.037457361  0.043538575            2 
   85000    1.2216077   -6.1117919    38.376223  0.037623748  0.043531505            2 
   86000    1.2213417   -6.0906563    38.940816  0.037733349  0.043533651            3 
   87000    1.2164525   -6.1005133    39.413141  0.037752051  0.043532593            4 
   88000    1.2113615   -6.0886325    40.022127  0.037899741  0.043535507            4 
   89000    1.2201099   -6.1339509    40.460361  0.037884233  0.043547941            4 
   90000    1.2140587   -6.0942959    40.850486  0.037824524  0.043543179            2 
   91000    1.2195419   -6.0972003    41.585136  0.038081626   0.04353701            3 
   92000    1.2043587   -6.1083734    42.006741  0.038049584  0.043534475            2 
   93000    1.2215295   -6.1347208    42.235997  0.037845875  0.043523897            2 
   94000    1.2191497   -6.1227988    42.906699  0.038037853  0.043513144            4 
   95000    1.2169682   -6.1209545    43.755019  0.038381595  0.043517051            3 
   96000     1.237367   -6.1634208    44.102709  0.038283601  0.043526006            4 
   97000    1.2389691   -6.1375697    44.556672  0.038278927  0.043529793            3 
   98000    1.2081767   -6.0996376    45.297443  0.038518234  0.043535858            3 
   99000    1.2165101   -6.1388289    46.061185  0.038772041  0.043548148            1 
  100000     1.206313   -6.1381949    46.515402  0.038762835  0.043561146            4 
  101000    1.2047634   -6.1337989    46.978222  0.038760909  0.043577112            3 
  102000    1.2471645   -6.0669131    47.447371  0.038764192  0.043590053            3 
  103000    1.2228705   -6.1171934    47.890738  0.038746552  0.043598612            4 
  104000    1.1842425   -6.1340652    48.275018  0.038681905  0.043599374            4 
  105000    1.2052399   -6.1271413    48.706441  0.038655905  0.043594011            2 
  106000    1.2332544   -6.1152695    49.508155  0.038921505  0.043593311            3 
  107000     1.195777   -6.1574193    49.891647  0.038856423  0.043592393            7 
  108000     1.200528   -6.0747256    50.467998  0.038941356  0.043591845            4 
  109000    1.1934773   -6.1226941    50.525181  0.038627814  0.043577179            2 
  110000    1.2266944   -6.1115067    51.377921  0.038922667  0.043565529            2 
  111000    1.1957588    -6.148701    51.686776  0.038803886  0.043552874            6 
  112000    1.2122475   -6.0947535    52.418246  0.039001671  0.043541269            5 
  113000     1.214022   -6.1104964    52.916365  0.039023868  0.043534283            2 
  114000    1.2264814   -6.1495013    53.551789  0.039146044  0.043538521            9 
  115000    1.1992054   -6.1534032    54.203929  0.039278209  0.043543034            2 
  116000    1.1948966   -6.1410183    54.678792  0.039280741  0.043548945            2 
  117000    1.2163685   -6.1190818    55.371056  0.039438074  0.043559797            2 
  118000    1.2063679   -6.1000249    55.952549  0.039514512  0.043574998            5 
  119000    1.1636745   -6.1268437     56.39992  0.039495742  0.043586679            4 
  120000    1.2040939   -6.1127172    56.982285  0.039571031  0.043592832            3 
  121000    1.2063161   -6.1083863    57.415402  0.039542288  0.043599231            3 
  122000    1.1675835   -6.1747462     57.59947    0.0393439  0.043599609            2 
  123000    1.2148767   -6.1566254     57.93462  0.039251097  0.043594672            4 
  124000    1.2358077   -6.1853106    58.722953   0.03946435  0.043590848            3 
  125000    1.2164516   -6.0914179    59.043067  0.039362044  0.043579741            5 
  126000    1.2089429   -6.1322071    59.423334  0.039301147  0.043566206            5 
  127000    1.1932364   -6.1136306    60.022061  0.039384554  0.043548942            5 
  128000    1.2129063   -6.1204567    60.488506  0.039380538  0.043531514            4 
  129000    1.2081682   -6.1090106    61.191638  0.039529482  0.043521062            4 
  130000    1.2191536   -6.2006677    61.804195  0.039618074  0.043515213            3 
  131000     1.175528   -6.1465538    62.495789  0.039755591  0.043511893            4 
  132000    1.2250078   -6.1422106    62.733014  0.039604176  0.043508379            2 
  133000    1.2131757   -6.1579072    63.539061  0.039811441  0.043504104            2 
  134000    1.1885457   -6.1439401    63.738355   0.03963828  0.043502928            3 
  135000    1.1966876   -6.1290845    64.285063  0.039682137  0.043495565            1 
  136000    1.1951452   -6.1442005    64.709864  0.039650652  0.043486323            2 
  137000    1.1953875   -6.1409539    65.122958  0.039612505  0.043477248            2 
  138000     1.220426   -6.1592015    65.730563  0.039692369  0.043466062           11 
  139000    1.2067892   -6.1395334    66.100874  0.039628821   0.04345606            1 
  140000      1.18474    -6.107444    66.791484  0.039756836  0.043442255            4 
  141000    1.2220721   -6.1492196    67.048789  0.039626943  0.043430949            1 
  142000    1.1993591   -6.1861095    67.621941  0.039684238  0.043418427            4 
  143000    1.2168555     -6.14531     68.16141  0.039721101  0.043410743            4 
  144000    1.1891054     -6.13785    69.058899   0.03996464  0.043407057            4 
  145000    1.2053012   -6.1459514     69.56733  0.039981224  0.043405303            3 
  146000    1.2169612   -6.1637731    69.546225  0.039695334  0.043396768            5 
  147000    1.2038315   -6.1854614    70.314027  0.039860559  0.043390077            2 
  148000    1.1976631   -6.1452346    71.432591  0.040221053  0.043390976            4 
  149000    1.2041056    -6.183028    71.511553  0.039995275   0.04339141            3 
  150000    1.2093359   -6.1563024    72.189832  0.040105462  0.043391578            3 
  151000    1.1927378   -6.1386302    72.607146  0.040070169  0.043389515            5 
  152000    1.1699074   -6.1215334    72.970431  0.040005719   0.04338357            7 
  153000     1.187121   -6.1456756    73.003882  0.039762463  0.043374992            2 
  154000    1.1714389   -6.1475672    73.733097  0.039898862  0.043361766            5 
  155000    1.2126702   -6.1412141    74.128419  0.039853988  0.043347935            4 
  156000     1.173088   -6.1723251     74.15964  0.039615192  0.043327384            4 
  157000    1.1898079   -6.1874468    74.564042  0.039577517  0.043303364            2 
  158000    1.1610029   -6.0876004    75.325698  0.039728744  0.043279095            3 
  159000    1.1833455   -6.1630232    75.282357  0.039456162  0.043252235            2 
  160000    1.1758414   -6.1216087    76.058804   0.03961396  0.043224988            4 
  161000    1.1914858   -6.1640738    76.164872  0.039422812    0.0431963            4 
  162000    1.1776071   -6.1442555    76.603971  0.039405335  0.043163662            3 
  163000    1.2082156   -6.1787413    77.302188  0.039520546  0.043132302            3 
  164000    1.2013125   -6.1420282    77.656947   0.03945983  0.043099838            4 
  165000    1.1872599   -6.1517201    77.865204   0.03932586  0.043068535            2 
  166000    1.1887665   -6.1263172     78.57779  0.039446682  0.043035851            2 
  167000    1.1940522   -6.1858411    79.230697  0.039536276  0.043005015            2 
  168000    1.2026844   -6.1665831    79.661154  0.039514461  0.042976469            5 
  169000    1.1991795   -6.1799532    80.104842  0.039499429  0.042948666            2 
  170000    1.1692179   -6.1732733    80.430061  0.039426501  0.042919777            2 
  171000    1.1850361    -6.148727    81.007331  0.039477257  0.042892433            1 
  172000    1.1633585   -6.1939646    81.256711  0.039368561  0.042862728            3 
  173000    1.1715672   -6.1646627    81.694416  0.039351838  0.042831389            2 
  174000    1.1796341   -6.1684985    82.263605  0.039398278   0.04280126            2 
  175000    1.2133541   -6.1796065    82.766934  0.039412825  0.042769083            4 
  176000    1.1841716   -6.1727872    83.229244  0.039407786  0.042739972            4 
  177000    1.2042026   -6.1960263    83.675049  0.039395032  0.042713226            5 
  178000    1.1872684   -6.1727884    84.528003  0.039573035  0.042688749            5 
  179000    1.1892494   -6.1633959    85.585338  0.039844198  0.042667016            5 
  180000    1.1583313   -6.1265927    85.413623  0.039543344  0.042646076            2 
  181000    1.1691068   -6.1929522      86.3022  0.039733978  0.042627183            5 
  182000    1.1988884   -6.1511411    86.640585  0.039670597  0.042607086            5 
  183000    1.1729936   -6.1543871    87.164849  0.039692554  0.042588808            3 
  184000    1.1791428   -6.2046079    87.397747  0.039582313  0.042568682            4 
  185000    1.1847466   -6.1938778    87.538018   0.03943154  0.042544876            2 
  186000     1.176113   -6.2022966     88.16569  0.039500757  0.042523731            3 
  187000    1.1771039   -6.1971262    88.601885  0.039483906  0.042499683            4 
  188000    1.1895103   -6.1831188     89.10472  0.039496773  0.042476162            3 
  189000    1.1952868   -6.1735307    89.428299  0.039430467  0.042449675            4 
  190000    1.1687453   -6.1746414    89.780673  0.039377488   0.04242494            4 
  191000    1.2006388   -6.1857506    90.020913   0.03927614  0.042398859            3 
  192000    1.1504615   -6.1899432    90.786315  0.039403783  0.042375585            3 
  193000    1.1332426   -6.1712298    91.114001  0.039341106  0.042349731            2 
  194000    1.1755743   -6.1776001    91.176412  0.039165125  0.042320291            2 
  195000    1.1841857   -6.1808062    91.577627  0.039135738  0.042290961            2 
  196000    1.1681012   -6.1623479    92.519669  0.039336594   0.04226043            4 
  197000     1.166319   -6.1992281    92.755244  0.039236567  0.042228036            4 
  198000    1.1771679   -6.2006745    92.773757  0.039046194  0.042196075            3 
  199000      1.16616   -6.1983227    93.402393   0.03911323  0.042162991            2 
  200000    1.1791885   -6.1537952    94.330784  0.039304493  0.042131169            4 
  201000    1.1716897   -6.1822314    94.933463  0.039358815  0.042106087            6 
  202000    1.1864013   -6.2319363    95.209437   0.03927782  0.042080691            4 
  203000    1.1742825   -6.1896432     95.58786   0.03923968  0.042053862            4 
  204000    1.1664458   -6.2011697    95.866844  0.039161292  0.042027843            3 
  205000    1.1520485    -6.183176    96.607697  0.039271421  0.042002085            3 
  206000    1.1813304   -6.2226129    96.741394  0.039134868  0.041974843            3 
  207000    1.1793946   -6.2070528    97.545081  0.039269356  0.041949093            2 
  208000    1.1734405   -6.2375424    97.367335  0.039009349  0.041922224            6 
  209000    1.1726259   -6.1928083    98.419175  0.039242095  0.041896215            2 
  210000     1.154862   -6.1850406    98.930514   0.03925814  0.041868469            5 
  211000    1.1767152   -6.1634788    99.449248  0.039276954  0.041841671            2 
  212000    1.1852431   -6.2120563    99.741881  0.039206714  0.041815188            2 
  213000    1.1648299   -6.2161322    100.40998  0.039284029   0.04179089            5 
  214000    1.1637739   -6.2018924    100.59756  0.039173503  0.041765721            3 
  215000    1.1451262   -6.1958935    101.09621  0.039184579  0.041741738            6 
  216000    1.1865779   -6.1856996    101.65387  0.039218313  0.041718132            4 
  217000    1.1739542   -6.1649247    101.94847  0.039150718   0.04169347            6 
  218000    1.1859401   -6.1833774     102.1805  0.039059826  0.041667865            2 
  219000    1.1591492   -6.2197098    102.38406  0.038958925  0.041638704            4 
  220000    1.1696953   -6.2002625    102.92951  0.038988451   0.04160979            3 
  221000    1.1572236   -6.2253914    103.37786  0.038981094  0.041580946            3 
  222000    1.1431468   -6.2199909     103.9703  0.039027891  0.041553863            6 
  223000    1.1831473      -6.2191    104.46191  0.039036588  0.041527662            4 
  224000    1.1813702   -6.2102956    104.72514  0.038960245  0.041501671            2 
  225000    1.1643038   -6.2653467    105.24069  0.038978033  0.041475515            4 
  226000    1.1858674   -6.2340836    106.05118  0.039104418  0.041450289            3 
  227000    1.1696807   -6.2413676    106.12967  0.038960964   0.04142413           10 
  228000    1.1690664   -6.2123127    106.43144  0.038900381  0.041398021            4 
  229000    1.1443174   -6.2002036    107.16759  0.038998396  0.041372398            3 
  230000    1.1448264   -6.2248198    107.34975  0.038894837  0.041347099            4 
  231000    1.1515456   -6.2316073    107.75799  0.038873734  0.041320809            3 
  232000    1.1666348   -6.2381618    108.31799  0.038907323  0.041293427            2 
  233000    1.1626403    -6.199591    108.04862  0.038643999  0.041263831            2 
  234000    1.1562519   -6.2061096    108.59894  0.038674837  0.041234396            4 
  235000    1.1472764   -6.2199681    109.59933   0.03886501  0.041205577            4 
  236000    1.1393532    -6.210986    110.10116  0.038877528   0.04117846            4 
  237000    1.1484616   -6.2043868     110.1611  0.038734565  0.041151067            3 
  238000    1.1420525   -6.2080509    110.80061   0.03879573  0.041125597            4 
  239000    1.1666276   -6.2111302    111.18567  0.038767667   0.04110006            8 
  240000    1.1696221   -6.1819949    112.41354   0.03903248  0.041078131            3 
  241000    1.1447681   -6.2360596    112.46739   0.03888914  0.041056331            5 
  242000    1.1799559   -6.2360294    112.52468  0.038748166  0.041034397            4 
  243000    1.1649848   -6.1861788    113.36955  0.038878448  0.041011894            2 
  244000    1.1555007   -6.2281317    113.62146  0.038805142  0.040989757            4 
  245000    1.1592561    -6.228241    114.48177  0.038939377  0.040968824            3 
  246000      1.13824   -6.2162283    114.65945  0.038841276   0.04094814            5 
  247000    1.1669934   -6.2172077    115.39075  0.038930751  0.040929972            3 
  248000     1.156183   -6.2614015    116.04492  0.038993587  0.040912406            3 
  249000    1.1780823   -6.2028958    116.32753  0.038931568  0.040894209            3 
  250000    1.1645702   -6.1845461    116.82751  0.038942503  0.040878718            3 
  251000    1.1642856     -6.19986    117.23607  0.038922999  0.040862113            3 
  252000    1.1319908   -6.2152684    117.83435  0.038966385  0.040844316            2 
  253000    1.1431115   -6.2235133    118.09916  0.038899593  0.040826156            4 
  254000    1.1571719   -6.2081187    118.47936  0.038871182  0.040805866            2 
  255000    1.1397624   -6.2175085    118.74431   0.03880533  0.040786524            3 
  256000    1.1339072   -6.1795671     119.2208  0.038808855  0.040766313            2 
  257000    1.1624175   -6.2338562    119.85121  0.038862261  0.040744647            4 
  258000    1.1496175    -6.251953    119.52089  0.038604939  0.040723602            4 
  259000    1.1430571   -6.1992905    120.54997  0.038786991   0.04070224            3 
  260000    1.1772836   -6.2218483    120.97811  0.038775034  0.040681373            3 
  261000    1.1720666   -6.2119629    121.70474  0.038858473  0.040661252            6 
  262000    1.1593089   -6.2243403    121.97608  0.038796463  0.040641141            3 
  263000    1.1842482   -6.2373496    122.46218  0.038802972  0.040621632            4 
  264000     1.154591   -6.2230455     122.9715  0.038816761  0.040603234            1 
  265000    1.1350346   -6.2386067    122.96704   0.03866888  0.040582712            4 
  266000    1.1429727   -6.2131751     123.5749  0.038713941  0.040561262            5 
  267000    1.1382448   -6.2148392    123.90434  0.038671766  0.040541512            3 
  268000     1.137785   -6.2380835    124.08835  0.038584687  0.040520567            4 
  269000      1.16225   -6.2774029     124.4568  0.038555389  0.040496371            5 
  270000    1.1504884   -6.2516786    124.32964  0.038373346   0.04047176            4 
  271000    1.1208447   -6.2421915    124.62309  0.038321985  0.040446238            3 
  272000    1.1729139   -6.2428033    125.11313  0.038331229  0.040419747            3 
  273000    1.1354391   -6.2988337    125.78891  0.038397103  0.040392694            4 
  274000     1.143187   -6.2320137    126.21412  0.038386291  0.040366548            3 
  275000    1.1690539   -6.2464512     126.7289  0.038402696  0.040341411            5 
  276000    1.1301559   -6.2628148    127.63895  0.038538329  0.040318079            3 
  277000    1.1308157    -6.250239    127.53343  0.038367457  0.040293731            3 
  278000    1.1497583   -6.2097261    128.07247  0.038391029  0.040270225            4 
  279000    1.1507876   -6.2552796    127.82105  0.038178331   0.04024582            7 
  280000    1.1662567   -6.2550205    128.71547  0.038308176  0.040220971            4 
  281000    1.1276122   -6.2573958    129.07382  0.038278121  0.040196857            5 
  282000    1.1444247   -6.2477157    130.10586  0.038447359  0.040173152            6 
  283000    1.1397856   -6.2580775    129.92391  0.038257924  0.040150478            2 
  284000    1.1491315   -6.2566989    131.29425  0.038525307  0.040130283            8 
  285000    1.1367796   -6.2449501    131.46332  0.038439567  0.040109485            5 
  286000    1.1164548   -6.2244901    132.33889  0.038560283  0.040089919            5 
  287000    1.1461303   -6.2431501    132.25386  0.038401237  0.040070474            6 
  288000     1.146724   -6.2348044    133.05126  0.038498629  0.040051458            2 
  289000     1.158963   -6.2478942    133.14162   0.03839147  0.040032375            6 
  290000    1.1416188    -6.277673    133.51336  0.038365908   0.04001322            2 
  291000    1.1301495   -6.2355171    133.96208  0.038362566  0.039993834            3 
  292000    1.1603868    -6.266589    134.38539  0.038351994  0.039974467            5 
  293000    1.1426559   -6.2523709     134.6959  0.038309414  0.039955882            5 
  294000    1.1258413    -6.273091    134.58547  0.038147809  0.039935499            6 
  295000    1.1440378   -6.2561149    135.51846  0.038282052  0.039914657            3 
  296000    1.1403535   -6.2422639    135.75023   0.03821797  0.039892903            4 
  297000    1.1352177   -6.2632729    135.54616  0.038032031  0.039869843            3 
  298000    1.1353345   -6.2436556     135.9437  0.038015575  0.039845623            8 
  299000    1.1238191   -6.2364677    136.46359  0.038033332  0.039822164            5 
  300000    1.1264888   -6.2454139    137.08088  0.038078022  0.039799269            3 
  301000    1.1014298   -6.2551989    137.11835  0.037961891  0.039775893            2 
  302000    1.1481479   -6.2831805     137.5106  0.037944426  0.039751522            5 
  303000    1.1295346   -6.2320422    138.41409  0.038067682  0.039728917            5 
  304000    1.1355975   -6.2561405    138.85089  0.038062195  0.039706763            4 
  305000     1.120724   -6.2612292    138.96855  0.037969549  0.039683115            2 
  306000    1.1157568   -6.2830069     139.5349  0.037999701  0.039658724            2 
  307000    1.1196655   -6.2472319    140.49676  0.038137014   0.03963426            3 
  308000    1.1159462   -6.2504263    140.21286   0.03793638  0.039610674            7 
  309000    1.1535825   -6.2605555    140.86406   0.03798923  0.039588411            2 
  310000    1.1131975    -6.263585    141.15193  0.037944067  0.039566246            6 
  311000    1.1492996   -6.2524929    141.20516  0.037836323  0.039542753            2 
  312000    1.1471178   -6.2357321    141.72124  0.037852895   0.03951802            4 
  313000     1.122952   -6.2528667    141.73061  0.037734454  0.039493604            2 
  314000    1.1295748   -6.2921087    141.73484  0.037615402  0.039469017            5 
  315000    1.1431246   -6.2379926    143.35227   0.03792388   0.03944541            3 
  316000     1.124831   -6.2446426    143.28778  0.037786862  0.039422231            6 
  317000      1.13567   -6.2608607    143.85125  0.037815786  0.039400589            3 
  318000    1.1410606   -6.2422745    144.42721  0.037847801  0.039380001            3 
  319000    1.1202963   -6.2923707    144.57299  0.037767238  0.039359009            5 
  320000    1.1353946   -6.2453433    145.75448  0.037956895  0.039338233            2 
  321000    1.1325499   -6.2793161     145.4354  0.037755814   0.03931808            3 
  322000     1.117449    -6.312959    146.43335  0.037896829  0.039297078            6 
  323000    1.1135599   -6.2881431    146.37006  0.037763174  0.039277159            3 
  324000    1.1087435   -6.2848434     146.9778  0.037802932  0.039256654            4 
  325000    1.1264006   -6.2505482    147.55095  0.037833578  0.039236581            4 
  326000    1.1342423   -6.2745893    148.01982  0.037837376    0.0392164            7 
  327000    1.1330207    -6.229228    148.79306   0.03791872  0.039196423            5 
  328000    1.1560003   -6.2503205    147.95755   0.03759084  0.039176061            5 
  329000    1.0928748    -6.299698    148.50606  0.037615516  0.039155148            3 
  330000    1.1377988   -6.2858998     149.4886  0.037749648  0.039134261            6 
  331000    1.0964557   -6.2728365    149.62367  0.037669604  0.039114449            5 
  332000    1.1121629   -6.2593355    150.50926  0.037778428  0.039094463            3 
  333000    1.1180225   -6.2815876    150.85298  0.037750996  0.039075394            3 
  334000    1.1204913   -6.2603775    151.29201  0.037747508  0.039056249            3 
  335000    1.1019501    -6.278897    151.36023  0.037651797  0.039037251            4 
  336000    1.1109527    -6.252782     152.2093  0.037750321  0.039018025            2 
  337000    1.1293704   -6.3076717    152.41095  0.037688167  0.038998221            2 
  338000    1.1406698   -6.2917291    152.48831  0.037595736  0.038978537            5 
  339000    1.1090816   -6.2992778    153.10579  0.037636624  0.038958251            5 
  340000     1.101965    -6.307307    154.18024  0.037789275   0.03893951            3 
  341000    1.1192897   -6.2944171    153.90996  0.037612406  0.038921606            4 
  342000    1.0884721   -6.2974426    154.40607  0.037623311  0.038903134            6 
  343000    1.1128841    -6.272631     154.9526  0.037646405  0.038885028            4 
  344000      1.10988    -6.277903    154.99212  0.037546542  0.038868218            2 
  345000    1.1393004    -6.298307    155.83617  0.037641586  0.038850471            3 
  346000    1.0992597   -6.2678978    157.10696  0.037838863  0.038833132            4 
  347000    1.0975659   -6.2989079    156.77114  0.037649169  0.038817326            2 
  348000    1.1138423   -6.3382112    156.82358  0.037553538  0.038800275            3 
  349000    1.1062703   -6.2575814     157.1288  0.037518815  0.038781846            4 
  350000    1.1163841   -6.3174024     156.8995  0.037357023  0.038761585            5 
  351000    1.1091125   -6.3061936    157.53439  0.037401328  0.038738826            5 
  352000    1.1187828   -6.2942018    157.48677    0.0372838  0.038716638            2 
  353000     1.130088   -6.2970772    157.65213  0.037217217  0.038694197            4 
  354000    1.1009831   -6.2968592    157.52259   0.03708159  0.038670527            5 
  355000    1.1217231   -6.3216872    158.39404    0.0371817  0.038646201            3 
  356000     1.115398   -6.3160379    158.61775  0.037129623  0.038622683            6 
  357000    1.1172428   -6.2869591    159.14315   0.03714826  0.038598875            3 
  358000     1.131775   -6.2816157    159.60238  0.037151393  0.038575497            3 
  359000     1.086736   -6.2884596     160.1246  0.037169128  0.038551676            4 
  360000    1.1141602    -6.301514    160.26505  0.037098391  0.038528851            2 
  361000    1.1034073   -6.3084798     160.4347  0.037034788   0.03850536            4 
  362000    1.0876375   -6.2708755    160.84296  0.037026464  0.038481899            6 
  363000    1.1100816   -6.3632217    161.09506  0.036982336  0.038458093            8 
  364000    1.0946824   -6.3032647    161.82373  0.037047557  0.038434039            5 
  365000    1.0856465   -6.3013037    161.64066   0.03690426  0.038409317            3 
  366000    1.1243655   -6.3191659    162.16415  0.036922622  0.038385074            3 
  367000    1.0783844   -6.2572931    162.86578  0.036981331  0.038361783            3 
  368000    1.1309577   -6.3214329    162.99489  0.036910076  0.038338764           13 
  369000    1.1096552   -6.3303013    163.31789  0.036882992  0.038315492            4 
  370000    1.0930323   -6.3181507    163.67899  0.036864637  0.038291541            6 
  371000    1.0995382   -6.3014331    163.90825  0.036816767  0.038267661            5 
  372000    1.0814349   -6.3234191    164.02335  0.036743583  0.038243258            2 
  373000    1.0870472   -6.3246235    164.09418  0.036660898  0.038217598            4 
  374000    1.1004965   -6.3041233    164.83957  0.036728958  0.038191261            6 
  375000    1.0866237   -6.3202428    164.55071  0.036566824   0.03816513            4 
  376000    1.1147744   -6.2849246    165.21517  0.036616837  0.038138987            4 
  377000    1.0757707   -6.2947586    165.67033  0.036620321   0.03811325            3 
  378000    1.1122384   -6.2835626    165.90583   0.03657536  0.038087864            4 
  379000    1.0979291   -6.3180747    166.49885  0.036609246  0.038061751            3 
  380000    1.1016722   -6.3442232    166.06127  0.036416944   0.03803579            2 
  381000    1.1122543   -6.3345495    166.87582  0.036499524  0.038009459            7 
  382000    1.0977341   -6.3212036    167.82901  0.036611914  0.037983051           10 
  383000    1.1043406   -6.3303252    167.09587  0.036356805  0.037956866            5 
  384000    1.1159137   -6.3180034    168.18612  0.036498725  0.037930784           10 
  385000    1.0812637   -6.3570432    168.20984  0.036409057  0.037904852            3 
  386000    1.0762755    -6.322492    169.03257  0.036492351  0.037879366            2 
  387000     1.103686   -6.3201745    169.12389   0.03641772  0.037854188            3 
  388000    1.0956408   -6.3660779    169.31301  0.036364478  0.037828498            2 
  389000    1.0904412   -6.3134939    169.95486  0.036408496  0.037802976            2 
  390000     1.112511   -6.3283891    170.48346  0.036428091  0.037777864            3 
  391000    1.1002943   -6.3224095    170.13507  0.036260671  0.037752952            6 
  392000    1.1097986   -6.3389282    169.77011  0.036090584  0.037726598            3 
  393000    1.1187996   -6.3406163    170.02732   0.03605329  0.037699984            2 
  394000    1.0972799   -6.3153136    170.88498  0.036143185  0.037672827            2 
  395000    1.1009926   -6.3183528    171.71693  0.036227201  0.037645498            2 
  396000    1.1007298   -6.3365035     170.8955  0.035962857  0.037617287            2 
  397000    1.0841591   -6.2946501    172.35794  0.036179248   0.03758994            2 
  398000    1.0762858   -6.3618407    171.74174  0.035959325  0.037562408            7 
  399000    1.0809219   -6.3358438    172.29558  0.035984874  0.037534607            4 
  400000    1.1014912   -6.3058724    172.94089  0.036029352  0.037506657            3 
  401000     1.104179   -6.3643211    173.58939  0.036074271  0.037479042            4 
  402000    1.0775438   -6.3297312    173.97396  0.036064253  0.037454487            3 
  403000    1.0909344   -6.3246932    174.65767  0.036116144  0.037430022            4 
  404000    1.0867811   -6.3506356    174.52382  0.035999138   0.03740553            3 
  405000    1.1016138    -6.350057    175.52721   0.03611671  0.037381002            5 
  406000    1.0939179   -6.3196052    176.14365   0.03615428  0.037356932            5 
  407000    1.0869904   -6.3189792    176.37691  0.036113207  0.037332925            2 
  408000    1.0650338   -6.3072099    176.33888  0.036016928  0.037309215            3 
  409000    1.0933775   -6.3314813    177.17216  0.036098647  0.037284707            4 
  410000    1.0766851   -6.3677706    176.60132  0.035894578  0.037260378            5 
  411000    1.1065382   -6.3724977    177.31721  0.035952395  0.037235979            4 
  412000    1.0857438   -6.3068336    178.10313  0.036024097   0.03721203            7 
  413000    1.0644858   -6.3325251    177.64276  0.035843979  0.037188258            4 
  414000     1.108608   -6.3379493    178.19106  0.035867766  0.037164506            5 
  415000    1.0651914   -6.3297331    178.52473  0.035848339  0.037140364            4 
  416000    1.0681634   -6.3608312     179.4027  0.035938041  0.037116541            2 
  417000    1.0804017   -6.3718762    179.30576  0.035832486  0.037092704            2 
  418000     1.062129   -6.3580085    179.73488  0.035832313   0.03706866            3 
  419000    1.0919431   -6.3174324    180.17221  0.035833773  0.037044585            3 
  420000    1.1081231   -6.3584081      180.156  0.035745237  0.037019589            2 
  421000    1.0835012     -6.33508     180.3222  0.035693231  0.036994974            4 
  422000    1.0881308   -6.3358961    180.54808  0.035653255  0.036969337            6 
  423000    1.0962787   -6.3470567    180.64288  0.035587644  0.036942895            3 
  424000    1.0857029    -6.345313    180.99196  0.035572319  0.036916676            3 
  425000    1.1011927   -6.3621773    181.32702  0.035554318  0.036889863            3 
  426000    1.0810279   -6.3579917     180.9862  0.035404186  0.036863366            4 
  427000    1.0817683   -6.3140928    182.67815  0.035651474  0.036837598            3 
  428000    1.0879719   -6.3347504    182.51643  0.035536688  0.036811796            2 
  429000    1.0698427   -6.3729703    182.62617  0.035475168  0.036786075            4 
  430000    1.0884769   -6.3256836    183.46795  0.035555804   0.03675997            2 
  431000    1.0738263   -6.3925495    183.22706  0.035426732  0.036733589            2 
  432000    1.0965523   -6.3326174    183.80751  0.035456695   0.03670684            5 
  433000    1.0865573   -6.3517109    183.47334  0.035310497  0.036680264            4 
  434000     1.058006   -6.3865627    183.60452  0.035254325  0.036653448            4 
  435000    1.0783376   -6.3523374    185.11828  0.035463272  0.036627867            6 
  436000    1.0948739   -6.3453126    185.04463  0.035367858  0.036603201            3 
  437000    1.0725082   -6.3438541    185.46297  0.035366698  0.036578405            1 
  438000    1.0792594   -6.3572493    185.42123  0.035278013  0.036553461            7 
  439000    1.0630957   -6.3714437    185.53722  0.035219669  0.036528128            3 
  440000    1.0918181   -6.3947549    185.98858  0.035225109  0.036501824            7 
  441000     1.086265    -6.360821    186.92565  0.035322307  0.036475619            3 
  442000      1.07567   -6.3571352    187.15499  0.035285632  0.036449594            8 
  443000    1.0795182   -6.4048158    186.61338  0.035104097  0.036423214            1 
  444000    1.0574281   -6.3874024    187.21634  0.035138201  0.036397615            4 
  445000    1.0815101   -6.3762346    188.33573  0.035268864  0.036371985            4 
  446000    1.0984704   -6.3763419    187.37388  0.035010068  0.036345785            6 
  447000    1.0634441   -6.3654181    188.02337  0.035052828  0.036320033            3 
  448000    1.0574191   -6.3417615    188.07221  0.034983669   0.03629414            4 
  449000    1.0545937   -6.3390056    188.93342  0.035065594  0.036267794            3 
  450000    1.0820108   -6.3421368     189.3723  0.035068944  0.036241379            2 
  451000     1.050769   -6.3836988    189.30032  0.034977887  0.036215574            6 
  452000    1.0810843   -6.3374081    189.53448  0.034943673  0.036189815            5 
  453000    1.0495244   -6.3792679     189.7654  0.034909014  0.036163652            5 
  454000    1.0540157   -6.3450873    190.43126  0.034954343  0.036137994            2 
  455000    1.0425689   -6.3935089    190.48075  0.034886584  0.036112474            2 
  456000    1.0649806   -6.3599717     191.4152  0.034980848  0.036087155            5 
  457000    1.0830031   -6.3602587     191.1406  0.034854231  0.036062087            2 
  458000    1.0673242   -6.3779749    190.96045  0.034745351  0.036036117            3 
  459000    1.0980189   -6.3491004    192.20661  0.034895899  0.036010042            2 
  460000    1.0974079   -6.3662624    192.13131  0.034806397  0.035984333            2 
  461000    1.0753933   -6.3493529     192.4795  0.034793836  0.035958893            4 
  462000    1.0828244   -6.3697675    192.99594  0.034811678  0.035933239            4 
  463000     1.056735   -6.3814378    193.16014  0.034766043  0.035907593            2 
  464000    1.0838734    -6.367339    193.18252  0.034695136   0.03588181            7 
  465000    1.0580525   -6.3414885    193.67822  0.034709358  0.035856058            8 
  466000    1.0882215   -6.3695779    193.81309  0.034658994  0.035830453            4 
  467000    1.0911731   -6.3938869    194.16454  0.034647491  0.035804527            5 
  468000    1.0367126   -6.3935854    194.20614  0.034580865  0.035778906            5 
  469000     1.070855   -6.3832134    194.99953  0.034648103  0.035753362            5 
  470000    1.0462051   -6.3604112    195.70053  0.034698675  0.035727702            2 
  471000    1.0538202   -6.3865146    195.68286  0.034621879  0.035703052            8 
  472000    1.0635828   -6.3701661    195.99138  0.034602997  0.035678234            3 
  473000    1.0502799   -6.4294887    196.27228   0.03457933  0.035653117            5 
  474000    1.0956909   -6.4201073    197.16908  0.034664043  0.035629198            3 
  475000    1.0749568   -6.3719591    197.42093  0.034635251  0.035605229            3 
  476000    1.0794314   -6.3726527    197.85588  0.034638634  0.035581193            6 
  477000    1.0567603    -6.412326     197.7437  0.034546419  0.035557271            3 
  478000    1.0606709   -6.4002378    198.30314  0.034571677  0.035533323            3 
  479000    1.0626324   -6.3598177    198.69527  0.034567723  0.035509653            4 
  480000    1.0657259   -6.3936891    199.30709  0.034601925  0.035487293            7 
  481000    1.0608543   -6.4128557    199.69161  0.034596606  0.035465125            5 
  482000    1.0682582   -6.3939555    200.61412  0.034684322  0.035443538            3 
  483000    1.0415204    -6.355155    200.16403  0.034534857  0.035421839            5 
  484000    1.0785638   -6.3822173    200.63752  0.034545027  0.035399454            5 
  485000    1.0745975   -6.4078811    200.62953  0.034472428  0.035376518            3 
  486000    1.0413153   -6.4039734     201.4794  0.034547222  0.035353322            3 
  487000    1.0297482    -6.374414    202.05189  0.034574245  0.035330934            5 
  488000    1.0781918   -6.4003264    201.68082  0.034440031  0.035308518            4 
  489000     1.066426     -6.37672    202.11482  0.034443562  0.035285449            5 
  490000    1.0590877   -6.3857049    202.09516  0.034369925  0.035263068            4 
  491000     1.048488   -6.3962758    202.22731  0.034322353  0.035239851            7 
  492000    1.0480468   -6.4107085     202.3066  0.034266023  0.035216322            5 
  493000    1.0569258   -6.3744379    203.13918  0.034337252  0.035192675            6 
  494000    1.0360615   -6.4139903    203.48197  0.034325569  0.035169367            3 
  495000    1.0487692    -6.420414    203.49559  0.034258516  0.035146154            3 
  496000    1.0616628   -6.3910759    204.03976  0.034280874  0.035122819            5 
  497000    1.0591673   -6.4254664    204.40035   0.03427236  0.035100054            3 
  498000    1.0395159   -6.3959424    204.79114  0.034268933  0.035077251            4 
  499000    1.0814687    -6.390694    204.65128    0.0341769   0.03505432            6 
  500000    1.0536121   -6.4299305    205.63235  0.034272059  0.035031808            5 
  501000     1.072421   -6.4080241    206.25473  0.034307173  0.035009649            3 
  502000    1.0547651   -6.4097853    206.39027  0.034261332  0.034987843            6 
  503000    1.0496616   -6.3967321    206.08075  0.034141939  0.034966084            4 
  504000    1.0425711   -6.3694286    207.60015  0.034325422  0.034945014            4 
  505000    1.0698906    -6.422851    207.33264  0.034213307  0.034923988            4 
  506000    1.0406013   -6.3927103    208.11556   0.03427463  0.034903173            5 
  507000    1.0499996   -6.3949532    208.03226  0.034193336  0.034882537            3 
  508000    1.0615142   -6.4195452    208.96245  0.034278617   0.03486183            5 
  509000    1.0283664   -6.3867714      209.959  0.034374427  0.034842003            4 
  510000     1.041018   -6.3825273     209.4064  0.034216732  0.034821539            4 
  511000    1.0551511    -6.382761    209.04454  0.034090759  0.034800805            3 
  512000    1.0524403   -6.3846623    209.39227  0.034080773  0.034780385            4 
  513000    1.0594087   -6.3952523    210.10109  0.034129482  0.034759096            3 
  514000    1.0641328   -6.4327051    209.77051  0.034009486  0.034737977            2 
  515000    1.0405913   -6.3886613    210.43727  0.034051338  0.034717022            9 
  516000    1.0348633   -6.3976685    210.93895  0.034066369  0.034696619            6 
  517000    1.0383359   -6.4493009    210.57293  0.033941478  0.034675776           10 
  518000    1.0290336   -6.4060357    211.56529  0.034035601  0.034654217            5 
  519000    1.0451802   -6.4088401    211.12636  0.033899544  0.034632645            3 
  520000    1.0204027   -6.4106151    212.05827  0.033983698   0.03461115            3 
  521000    1.0303009   -6.4436158    212.54574  0.033996439  0.034590237            4 
  522000    1.0072893   -6.4488615    212.49215  0.033922757  0.034569633            4 
  523000    1.0575279   -6.4276727    212.60601  0.033876037  0.034548688            6 
  524000    1.0414015   -6.4510365    212.25575  0.033755686  0.034527407            5 
  525000    1.0344007   -6.4456065     212.9255  0.033797698  0.034505792            3 
  526000    1.0468542   -6.4495869    213.06539  0.033755606  0.034484111            3 
  527000    1.0592698   -6.4147741    213.29852  0.033728419  0.034461944            2 
  528000    1.0562002   -6.3754422    213.26442  0.033659157  0.034439828            4 
  529000    1.0167349   -6.4614345    213.24372  0.033592268  0.034417086            3 
  530000    1.0456828   -6.4461365    212.65782  0.033436764  0.034394538            7 
  531000    1.0420711   -6.4375921    213.36082  0.033484121  0.034371569            3 
  532000    1.0319483   -6.4319629    213.62329  0.033462294    0.0343483            2 
  533000    1.0360846   -6.4268958      213.995  0.033457629  0.034325411            6 
  534000    1.0263861   -6.4279124    215.06204  0.033561492  0.034302638            3 
  535000    1.0491549   -6.4273262    215.09504  0.033503901  0.034279866            4 
  536000    1.0392957   -6.4114177    215.18388  0.033455204  0.034256975            6 
  537000     1.030154   -6.4042098    216.29803  0.033565803  0.034234625            7 
  538000    1.0435826   -6.4143631    215.80182  0.033426553  0.034211739            2 
  539000    1.0519787     -6.43494    215.80109  0.033364423  0.034188542            5 
  540000    1.0386731    -6.430875     216.1402  0.033354969  0.034165665            9 
  541000    1.0633148     -6.44375    216.68035  0.033376517   0.03414317            5 
  542000    1.0643863   -6.4499419    216.85001  0.033341023  0.034121119            6 
  543000     1.053909   -6.4355591    217.74321  0.033416698  0.034098807            5 
  544000     1.036839   -6.4704712    217.44111  0.033308993  0.034076387            6 
  545000    1.0395141   -6.4305474    217.29281    0.0332252  0.034053961            5 
  546000    1.0149639   -6.4409867    217.78056  0.033238791  0.034031204            6 
  547000    1.0220457   -6.4795828     217.8735  0.033192185  0.034007986            5 
  548000    1.0333136   -6.4271054    218.59348  0.033241101  0.033984738            6 
  549000    1.0410478   -6.3981837    218.84241  0.033218338  0.033961685            3 
  550000    1.0504075   -6.4236599    218.64166  0.033127524  0.033938548            7 
  551000    1.0511079   -6.4112999    219.47741    0.0331938  0.033915702            3 
  552000    1.0341558   -6.4230166    219.96162  0.033206766  0.033892923            4 
  553000    1.0614538   -6.4117485    219.92153  0.033140677  0.033870288            4 
  554000    1.0351321   -6.4529182    220.86775  0.033223187  0.033847438            4 
  555000    1.0517084   -6.4303432    219.69216   0.03298681  0.033824813            3 
  556000     1.028578   -6.4486034     220.8493  0.033100914  0.033802203            5 
  557000    1.0393351   -6.4215806    220.64618  0.033011098  0.033779619            8 
  558000    1.0266535   -6.4382332    221.75973   0.03311824  0.033757281            3 
  559000    1.0126914   -6.4363267    221.62465  0.033038856  0.033734873            3 
  560000    1.0217216   -6.4582108    220.73451  0.032847398  0.033712236            6 
  561000     1.017311   -6.4623593    221.50906    0.0329039  0.033689251            4 
  562000    1.0461351   -6.4410604    222.50319  0.032992762  0.033667183            5 
  563000    1.0359437   -6.4510046    222.90401  0.032993488  0.033644866            2 
  564000    1.0292484   -6.4939505    222.38756  0.032858682  0.033622773            8 
  565000    1.0099741   -6.4567515    223.13792  0.032911197  0.033600333           11 
  566000     1.024676   -6.4466152    223.82034  0.032953524  0.033577953            3 
  567000    1.0232879   -6.4416092    223.80626  0.032893337  0.033555555            2 
  568000    1.0314214   -6.4352878    223.01896  0.032719918  0.033532968            5 
  569000    1.0168493    -6.470739    223.77731  0.032773478  0.033510645            7 
  570000    1.0195056   -6.4463857    224.00644   0.03274948  0.033488081            3 
  571000     1.035962   -6.4537627    223.95683  0.032684885  0.033465388            5 
  572000    1.0223879   -6.4224078     225.0042  0.032780332  0.033442831            6 
  573000    1.0211836   -6.4406154     224.9588  0.032716522  0.033420774            2 
  574000    1.0123428   -6.4508994    225.34402   0.03271545  0.033398337            4 
  575000    1.0322434   -6.4611712    225.07839  0.032620056  0.033375346            6 
  576000    1.0139686   -6.4922906     224.1696  0.032431945  0.033351743            6 
  577000     1.014478   -6.4413112    225.66552  0.032591785  0.033328444            5 
  578000    1.0436911   -6.4491668    225.14961  0.032461017  0.033305671            6 
  579000   0.99507914     -6.49417    225.58599  0.032467759  0.033282421            2 
  580000    1.0228802   -6.4704626    225.94056  0.032462723  0.033259325            2 
  581000    1.0153609   -6.4558667    226.36841  0.032468217  0.033236268            7 
  582000    1.0235394   -6.4666742    227.67588  0.032599639  0.033213324           13 
  583000    1.0134489   -6.4684685    227.76998  0.032557172  0.033190594            3 
  584000    1.0251524   -6.4610057    228.00216  0.032534554  0.033167913            4 
  585000    1.0401772   -6.4835954    228.39572  0.032535003  0.033145553            6 
  586000    1.0198176   -6.4796414    228.02829  0.032427231  0.033122829            5 
  587000   0.99292671   -6.4668685    228.19319  0.032395399   0.03310021            4 
  588000    1.0035689   -6.4581504      229.385  0.032509211  0.033077531            5 
  589000    1.0245309   -6.4981434    228.71828  0.032359689  0.033054949            6 
  590000    1.0167007   -6.4719289    229.61169  0.032431029  0.033032076            6 
  591000    1.0288762   -6.4682763     230.2018  0.032459363   0.03300974            4 
  592000    1.0147641   -6.4704299    229.92902  0.032366134  0.032987682            3 
  593000    1.0230971   -6.4702568    230.07482  0.032332043  0.032965989            6 
  594000    1.0320092   -6.4468333    230.68379  0.032363046  0.032944441            5 
  595000    1.0420263   -6.4863607    230.83341  0.032329609  0.032922527            4 
  596000    1.0393706   -6.4712978    231.19124  0.032325396  0.032900806            6 
  597000    1.0106184   -6.4668343    231.29675  0.032285979  0.032878876            5 
  598000    1.0222357   -6.4488161    231.53903  0.032265751   0.03285721            4 
  599000    1.0206734   -6.4886354    231.25101  0.032171816  0.032835182            5 
  600000    1.0077275    -6.481573    232.03789  0.032227485  0.032812712            6 
  601000     1.011531   -6.5132871    231.83426  0.032145626  0.032790814            5 
  602000    1.0276256    -6.475874    232.55052  0.032191378  0.032769038            4 
  603000   0.97353762   -6.4443005    232.51441  0.032133003  0.032747084            9 
  604000    1.0190598   -6.4721366    232.99223  0.032145728   0.03272508            5 
  605000   0.99546991   -6.4828909    232.46873  0.032020487  0.032702832            7 
  606000    1.0287674   -6.4797467    232.60963  0.031987022  0.032680391            5 
  607000   0.98931757   -6.4638176    232.97913  0.031985054  0.032658019            5 
  608000    1.0086023   -6.4724694    232.97599  0.031932017  0.032635098            7 
  609000     1.022852   -6.4818616    234.33732  0.032065862  0.032612534           10 
  610000    1.0190302   -6.4633259    234.01979  0.031969916  0.032589986            3 
  611000    1.0226805   -6.4840587     234.3674  0.031965003    0.0325673            6 
  612000   0.99526926   -6.4646409    234.22954  0.031894001  0.032544864            9 
  613000   0.99968255   -6.4861577    235.33048  0.031991637  0.032522755            4 
  614000    1.0176804   -6.4839637    234.99867    0.0318945  0.032500597            4 
  615000    1.0217371   -6.4942022    235.28998  0.031882111  0.032478239            8 
  616000    1.0063083   -6.5045806    235.80474  0.031899992  0.032456549            4 
  617000    1.0076791   -6.4828497     236.0559  0.031882212  0.032434909            5 
  618000    1.0277059   -6.4854013    236.30214  0.031863827  0.032413783            7 
  619000   0.98593331   -6.4992226     237.5862  0.031985218  0.032393276            4 
  620000    1.0126235   -6.5223163    237.33658  0.031900077  0.032373179            5 
  621000    1.0018635   -6.4693289    238.22023  0.031967288  0.032353175            8 
  622000    1.0002324   -6.5047431    238.04709  0.031892696  0.032333189            9 
  623000   0.99101658   -6.5121301     238.6816  0.031926378  0.032313085            8 
  624000   0.99229133   -6.5002962     239.4509  0.031977951  0.032293494            4 
  625000    1.0016657   -6.5014344    239.97546  0.031996728  0.032274093            4 
  626000    1.0318617   -6.5298173    239.62825  0.031899394  0.032254658            4 
  627000    1.0190069   -6.4928396    240.02199   0.03190085  0.032234905            9 
  628000    1.0052264   -6.5153142    239.81661  0.031822799  0.032215072            5 
  629000    0.9920553   -6.5127556    239.79447  0.031769273  0.032195172            6 
  630000    1.0183894   -6.4688951    240.05494  0.031753299  0.032174992            3 
  631000   0.99530173   -6.4853314    240.84811  0.031807727  0.032154934            5 
  632000    1.0009049   -6.4934895    241.10902  0.031791801  0.032134935            5 
  633000    1.0117807    -6.544898    240.70793  0.031688774  0.032114852            3 
  634000    1.0082734   -6.5118106    241.77511  0.031779063  0.032094753            6 
  635000    1.0080655   -6.5107996    241.94001  0.031750657  0.032074511            5 
  636000   0.99651716   -6.5020781    241.84103  0.031687766  0.032054426            6 
  637000   0.99090518   -6.4946666    242.21625  0.031687108  0.032034206            6 
  638000   0.99827376   -6.5020534    241.97534  0.031605974   0.03201388            8 
  639000    1.0065899   -6.5134082     242.7156  0.031653051  0.031993598            6 
  640000    1.0055675   -6.5252461     242.5327  0.031579779   0.03197305            5 
  641000    1.0060278    -6.535496    241.87279  0.031444721  0.031952324            9 
  642000   0.99408337   -6.5140953    242.39833  0.031463958  0.031931785            6 
  643000   0.99567413   -6.5223621    243.17183  0.031515271  0.031911158            5 
  644000   0.99916642   -6.5602082    242.88279  0.031428932  0.031890678            4 
  645000    1.0075074   -6.4960725    243.05646  0.031402643  0.031870247            3 
  646000   0.98773962   -6.5304689    243.27342   0.03138202  0.031849427            5 
  647000   0.97707319   -6.5297444    244.15795  0.031447443  0.031828666            4 
  648000   0.98927445   -6.5008921    245.00678  0.031508074  0.031808142            7 
  649000   0.99924086   -6.4907952     244.0381  0.031335143  0.031787964            6 
  650000   0.99978773   -6.5340841     245.0923   0.03142209  0.031767939            4 
  651000   0.99658421   -6.5162369    245.36731  0.031409026  0.031747759            2 
  652000    1.0302779   -6.5204447    245.48749  0.031376213  0.031727595            9 
  653000    1.0099963   -6.5554243    245.09631  0.031278243  0.031707229           10 
  654000   0.99304062   -6.4907866    245.44289  0.031274578  0.031686685            7 
  655000   0.99778763   -6.5067261    245.81927  0.031274716   0.03166603            3 
  656000    1.0145169   -6.5018961    245.31723  0.031163265  0.031644917            4 
  657000   0.99219263   -6.5334686    245.25405  0.031107819  0.031623782            8 
  658000   0.97320056    -6.530863    246.21185  0.031181845  0.031602907            4 
  659000    1.0083249   -6.5553438    245.90619  0.031095876  0.031582242            9 
  660000   0.98666478   -6.5013034    247.62722  0.031266063  0.031561332            5 
  661000   0.99062127   -6.5266354    246.86304  0.031122421  0.031540409            6 
  662000   0.98869247   -6.5491127     246.9685  0.031088683  0.031519674            8 
  663000   0.98781028   -6.5396849    247.71346  0.031135427  0.031499242            8 
  664000    0.9974346   -6.5372045    248.25357  0.031156322  0.031478898           13 
  665000   0.97395364   -6.5316296    248.56533  0.031148538  0.031458962            4 
  666000   0.99901749   -6.5405895    248.14128  0.031048709  0.031438777            6 
  667000   0.98231206   -6.5380601    248.50517  0.031047622  0.031418308            3 
  668000   0.97860036   -6.5055698    248.93098  0.031054264  0.031397879            6 
  669000    1.0086054   -6.5172242    249.42869  0.031069842  0.031377407            4 
  670000    0.9799775   -6.5292743    249.38636  0.031018204  0.031356969            6 
  671000   0.97736713   -6.5502134    248.45708  0.030856567  0.031336995           11 
  672000    0.9823364   -6.5395064    249.18007  0.030900307  0.031316405            4 
  673000   0.99639933   -6.5212555    249.88071  0.030941148  0.031295964           10 
  674000   0.99483865    -6.533488     250.2015  0.030934903   0.03127549            9 
  675000   0.97782755    -6.543858    249.83443  0.030843756  0.031255279            8 
  676000   0.99570293   -6.5506734    250.74934  0.030910915  0.031235269            5 
  677000   0.97508021   -6.5135822    251.87413  0.031003709  0.031215616           11 
  678000   0.96771816   -6.5359082    251.71214  0.030938071  0.031195804            3 
  679000   0.98717159   -6.5614243    251.62017  0.030881218  0.031175895            4 
  680000   0.98756868   -6.5462271    251.31043  0.030797847  0.031155998            5 
  681000    0.9554924   -6.5233867    251.34878  0.030757316  0.031136052            4 
  682000   0.97948456   -6.5502894    251.56515  0.030738655  0.031115789            6 
  683000   0.98867231   -6.5426328    252.00121  0.030746854  0.031095729            4 
  684000   0.97122502   -6.5642706    251.87518  0.030686547  0.031075547            5 
  685000   0.97740903   -6.5383117    252.81143  0.030755648  0.031055605            6 
  686000   0.97323678   -6.5594468    253.06794  0.030741975  0.031035856            4 
  687000   0.98530517   -6.5568558    254.04916   0.03081625  0.031016291            3 
  688000   0.97293078   -6.5638803    253.61027  0.030718298   0.03099671            2 
  689000    0.9880077   -6.5622672    253.91302  0.030710332  0.030977346            7 
  690000   0.97010018   -6.5478315    253.64362  0.030633287  0.030957844            6 
  691000   0.96843622   -6.5705281     254.1783  0.030653437  0.030938209            5 
  692000   0.99622921   -6.5494246    254.68432  0.030670077  0.030918763            6 
  693000   0.96193962   -6.5596185    254.02724  0.030546806  0.030899065            5 
  694000   0.97398125   -6.5468203    254.75984  0.030590759  0.030879442            8 
  695000   0.96277452   -6.5255849    254.51131  0.030516944  0.030860017            7 
  696000   0.96873069   -6.5128745    255.66548  0.030611288  0.030840452            3 
  697000    0.9585715    -6.544431    256.70924  0.030692162  0.030821186            3 
  698000    0.9877036   -6.5274201    256.43675  0.030615658  0.030801983            3 
  699000   0.96185756    -6.549456    256.04238  0.030524842  0.030782602            6 
  700000   0.97431784   -6.5481927    256.74825  0.030565268  0.030763181           11 
  701000   0.98188112    -6.551029    256.26232    0.0304639  0.030743967           11 
  702000   0.98820121   -6.5697842     256.5844  0.030458736  0.030724819            3 
  703000   0.97363316   -6.5715032    257.30758  0.030501135   0.03070576            9 
  704000   0.98220011   -6.5570046    258.22983  0.030566978  0.030686443            7 
  705000   0.95089638   -6.5555323    256.82415  0.030357464   0.03066717            4 
  706000   0.98087578   -6.5596317    257.94714  0.030447019  0.030647824            5 
  707000   0.98851833    -6.520881    257.97141  0.030406814  0.030628433            7 
  708000   0.95431628   -6.5629294    257.54696  0.030313908  0.030608971            4 
  709000   0.99088208   -6.5388981    258.36014   0.03036673  0.030589489            9 
  710000   0.97884595   -6.5650258    258.20606  0.030305876  0.030569664           14 
  711000   0.99028753   -6.5510304     258.2359  0.030266749  0.030549789            4 
  712000   0.98910003   -6.5588335    258.39131  0.030242429  0.030529934            5 
  713000   0.95965465   -6.5859501    257.90847   0.03014358   0.03050985            4 
  714000    0.9640286   -6.5287187    259.07937  0.030238022  0.030489898            5 
  715000    0.9505161   -6.6108203    258.22641  0.030096318  0.030470296            7 
  716000   0.96408043   -6.5619711     258.5817  0.030095635  0.030450435            6 
  717000   0.94829152   -6.5221874      260.143  0.030235123  0.030430649            3 
  718000   0.96245354   -6.5710048    260.40403  0.030223309  0.030411183            3 
  719000   0.96839419   -6.5860895    259.91974  0.030125144   0.03039153            5 
  720000   0.97753826   -6.5614811    260.57818  0.030159511  0.030371724            4 
  721000   0.96748804   -6.5871992    260.18722  0.030072494  0.030352276            6 
  722000   0.97998788   -6.5718999    261.35323  0.030165424  0.030332995            4 
  723000   0.97692098   -6.5902035    260.78855  0.030058616   0.03031354            3 
  724000   0.97504869   -6.5939379    260.47362  0.029980849  0.030293653            9 
  725000   0.96833705   -6.5887045    261.54268  0.030062377  0.030274074            5 
  726000   0.97392989   -6.5451141    261.40636  0.030005321  0.030254576            3 
  727000   0.98053737   -6.5581508     261.8816  0.030018523  0.030235332           11 
  728000   0.95567164   -6.5921907    261.69713  0.029956173  0.030216169            9 
  729000   0.94931567   -6.6113629    262.57201  0.030015091  0.030196979            6 
  730000   0.97204738   -6.5802057    262.99997  0.030022827  0.030177726            5 
  731000   0.97057947   -6.5659012    263.62471  0.030052977  0.030158752            6 
  732000   0.95067716   -6.5805883     263.4554  0.029992646  0.030139731            4 
  733000   0.98255447   -6.5944336    263.60718  0.029968983  0.030120737            9 
  734000   0.97382057   -6.5628321    263.35989  0.029900079  0.030101985            8 
  735000   0.95836674   -6.5813451    264.88753  0.030032599  0.030083257            5 
  736000   0.95022459   -6.5873493    265.15013  0.030021528   0.03006478            6 
  737000   0.92534872    -6.581892    264.23167  0.029876941   0.03004635            3 
  738000   0.97349471   -6.5371772    265.04247  0.029928012  0.030027689            8 
  739000    0.9712325   -6.6129396    264.37449  0.029812189  0.030008763            4 
  740000   0.94840802    -6.630878    265.10574   0.02985425  0.029989835            4 
  741000   0.96059716   -6.5815214    264.93368  0.029794611  0.029970833            4 
  742000   0.96040098   -6.6033913     265.4758  0.029815341  0.029951987            6 
  743000   0.95856883   -6.6208778    265.32558  0.029758365  0.029933008           11 
  744000   0.95065184   -6.6023124    265.86458  0.029778739  0.029914041            8 
  745000   0.95177091   -6.5623256     265.7956  0.029731051   0.02989532            6 
  746000   0.96932928   -6.5937683    266.06891  0.029721728  0.029876618            3 
  747000   0.94585032   -6.5935814    265.59406  0.029628967  0.029857577            7 
  748000   0.93862688   -6.6031686    265.44419  0.029572659  0.029838191            5 
  749000    0.9670459   -6.5952132    266.24751  0.029622553  0.029818961            6 
  750000   0.94370726   -6.5648872    267.19947   0.02968883  0.029800016            4 
  751000   0.93098908   -6.5782137    267.28047  0.029658286  0.029781017            5 
  752000   0.95019885   -6.5821202    266.99561  0.029587279  0.029761988            7 
  753000   0.94989926   -6.5973176    267.39649  0.029592352  0.029742938            4 
  754000   0.94465041   -6.6058789    266.96966  0.029505931  0.029723909            8 
  755000    0.9549617   -6.6100461    267.58516  0.029534786  0.029705074            5 
  756000   0.93994768   -6.5778822    268.38745  0.029584154  0.029686254            3 
  757000   0.95646026   -6.5867746    267.99268  0.029501616  0.029667338            5 
  758000   0.95507813   -6.5882353    268.07528  0.029471776  0.029648597            4 
  759000   0.95528618   -6.6044518    267.62137   0.02938311  0.029629169            5 
  760000   0.94927518   -6.6065952    268.19363  0.029407196  0.029609753            7 
  761000   0.94694626   -6.6099767    268.55291  0.029407896  0.029590491            4 
  762000   0.97585506   -6.6038982    268.58273  0.029372565  0.029570891            3 
  763000   0.94047448   -6.6061754    268.52075  0.029327299  0.029551344            9 
  764000   0.95506678   -6.5913667    268.62587  0.029300378  0.029532072            4 
  765000   0.96941423   -6.6242311    269.51039   0.02935843  0.029513165            5 
  766000   0.95920615   -6.5948266    269.58746  0.029328488  0.029493882           16 
  767000   0.94366677   -6.5942541    269.48407  0.029279017  0.029474664            9 
  768000   0.93004652   -6.6185636    269.70592  0.029264965  0.029455198           19 
  769000   0.95893952   -6.6085927    269.46707  0.029201027  0.029435812            6 
  770000   0.94810456   -6.6168213    270.37968   0.02926187  0.029416652           12 
  771000   0.93385275   -6.6087305    270.84353  0.029274052  0.029397561            5 
  772000   0.94307606   -6.6182723    271.38935  0.029295051  0.029378491            8 
  773000   0.93739915   -6.6079632    270.56473  0.029168254  0.029359507            4 
  774000   0.93772625   -6.5998632    271.29364  0.029209048  0.029340832           12 
  775000   0.95376876   -6.5918272    271.58561  0.029202754  0.029322009            7 
  776000   0.95522475   -6.6087057    271.62046  0.029168864  0.029303287           13 
  777000   0.93446065   -6.6176041    272.35735  0.029210355  0.029284705            7 
  778000   0.92519995   -6.6445483    272.01725   0.02913638  0.029265914            7 
  779000   0.94706396   -6.6287939    272.06537  0.029104126   0.02924707            6 
  780000   0.93984438   -6.6164145    272.70638  0.029135297  0.029228383            2 
  781000   0.92198789   -6.6266667      272.357  0.029060712  0.029209839            7 
  782000   0.92857709   -6.6187497    272.77328  0.029067911  0.029191092           11 
  783000   0.93460061   -6.5908802    272.92662  0.029047107  0.029172168            5 
  784000   0.93256331   -6.6460296    273.23124  0.029042436  0.029153446            6 
  785000   0.95142686   -6.6734628    272.68761   0.02894773  0.029134786            4 
  786000   0.93931986    -6.628121    273.58677  0.029006231  0.029116121            8 
  787000    0.9424546   -6.6380072    274.34775  0.029049952  0.029097336           15 
  788000   0.93233749   -6.6254449    273.48015  0.028921335  0.029078635           10 
  789000   0.94156496   -6.6457226    274.48252  0.028990549  0.029059955            7 
  790000   0.93836063   -6.6182768    275.24382  0.029034158  0.029041382            6 
  791000   0.93692302   -6.6220958    274.43338  0.028912071  0.029022875            5 
  792000    0.9546848   -6.6526766    274.62238  0.028895453  0.029004534            4 
  793000   0.93336964   -6.6397133    275.37983  0.028938612  0.028986075           11 
  794000   0.92614406   -6.6366198    275.93651  0.028960591  0.028967722            6 
  795000   0.93374298   -6.6462892     275.1629  0.028843071  0.028949331            6 
  796000   0.94572316   -6.6380484    276.71578  0.028969407  0.028930965            4 
  797000   0.95277747   -6.6396737    275.04144  0.028757993    0.0289124            8 
  798000   0.96095769   -6.6438668     276.2984  0.028853216   0.02889387            4 
  799000   0.93410609   -6.6465017     275.9494  0.028780706  0.028875214            5 
  800000   0.93626382   -6.6204501    276.64693  0.028817389  0.028856651            5 
  801000   0.93904071   -6.6586896    276.71497   0.02878849  0.028838424            5 
  802000   0.94294996   -6.6372875    276.75448  0.028756699  0.028820064            3 
  803000   0.93779232   -6.6476083    277.34463  0.028782133  0.028801782            4 
  804000   0.93949625   -6.6268842    277.01818  0.028712498  0.028783626            4 
  805000   0.93573531    -6.610228    277.23212  0.028698977  0.028765668            5 
  806000   0.92634197   -6.6073052    278.43201  0.028787429  0.028747523            9 
  807000   0.93155718   -6.6216403    278.42119   0.02875064  0.028729361            7 
  808000   0.92316126   -6.6387648    278.74182  0.028748125  0.028711411            7 
  809000   0.94485186   -6.6296521    279.11413   0.02875094  0.028693996            6 
  810000   0.93832259    -6.608835    278.80646  0.028683792  0.028676507            2 
  811000   0.90981134   -6.6306261    279.93783  0.028764677  0.028659318            7 
  812000   0.92682695   -6.6314913    280.04668  0.028740422  0.028641753            5 
  813000   0.91946787   -6.6546538    278.76803  0.028574009  0.028623845            3 
  814000   0.90708722   -6.6179161    279.72101  0.028636467  0.028606167            5 
  815000   0.92743453   -6.6649081    279.97363   0.02862716   0.02858847            6 
  816000   0.91983002   -6.6222328     279.9702  0.028591727  0.028570979            4 
  817000   0.95497206   -6.6295825    280.63849  0.028624897  0.028553236            7 
  818000   0.92951617   -6.6683897    280.72188  0.028598399  0.028535654            5 
  819000   0.92534978   -6.6259652    281.28601   0.02862088  0.028518043            4 
  820000    0.9276869   -6.6191906    281.52259   0.02861002  0.028500518            8 
  821000   0.93386547   -6.6743666     281.5497  0.028577923  0.028483149           11 
  822000   0.94863238    -6.651628    280.98511  0.028485919   0.02846584            9 
  823000    0.9084254   -6.5991971    281.99439  0.028553502  0.028448525           15 
  824000   0.94537689   -6.6360764    282.19861  0.028539504  0.028431431            6 
  825000   0.92259626   -6.6635306    282.03227  0.028488108  0.028414312           11 
  826000   0.92381966   -6.6800273    282.59272  0.028510161    0.0283971            7 
  827000   0.91756784    -6.636159    283.13329  0.028530159  0.028379738            8 
  828000   0.92461789   -6.6520339     282.9413  0.028476379  0.028362475            7 
  829000   0.93069856   -6.6693565    282.39128  0.028386739  0.028345383            4 
  830000    0.9415707   -6.6449137    282.35422  0.028348817  0.028328285            4 
  831000   0.91556423   -6.6657732    283.06252  0.028385732  0.028310941            5 
  832000   0.94387538   -6.6475627    282.47623  0.028292892  0.028293648            7 
  833000    0.9249152   -6.6379847    283.23422  0.028334756  0.028276252            5 
  834000   0.91996713   -6.6712089    283.60141  0.028337471  0.028258905            5 
  835000   0.92204976   -6.6543753    283.69435   0.02831281   0.02824147            6 
  836000   0.91439977   -6.6529528    284.62195  0.028371407  0.028224152            6 
  837000   0.91719464    -6.643849    284.60598   0.02833592  0.028207028            8 
  838000   0.89541161   -6.6477151    283.90765  0.028232662  0.028189563           10 
  839000   0.90948341   -6.6514999     283.8489  0.028193177  0.028172147            3 
  840000   0.93381873   -6.6593375    284.28555  0.028202932  0.028154724            7 
  841000   0.92205158   -6.6767966    284.31751  0.028172564  0.028137303           10 
  842000   0.91182111   -6.6562007    284.14456  0.028121987  0.028119872           18 
  843000   0.90799075   -6.6544025    285.86522   0.02825872  0.028102523            4 
  844000   0.93206328   -6.6288067    285.56677  0.028195771  0.028085332            9 
  845000   0.90984484   -6.6855234    285.94433  0.028199638  0.028068221           15 
  846000   0.94411525   -6.6597493     286.3357  0.028204856  0.028051291            9 
  847000   0.92888642   -6.6873336    286.27296  0.028165384  0.028034223            5 
  848000   0.90046856   -6.6774823    286.07628  0.028112842  0.028017332            6 
  849000   0.90008301   -6.7044811    286.56568  0.028127766  0.028000478            6 
  850000   0.90565249   -6.6733131    287.48698  0.028184998  0.027983758           11 
  851000   0.89229304   -6.6803805    287.94851  0.028197073  0.027967169           15 
  852000   0.92336808   -6.6733405    287.70583  0.028140242  0.027950443            6 
  853000   0.91832104   -6.6893829    287.27397  0.028065062   0.02793362            6 
  854000   0.92247491   -6.6801264    288.06402  0.028109291  0.027917137           12 
  855000   0.92382191   -6.6470775    288.32459  0.028101811  0.027900793            4 
  856000   0.91561278   -6.6723481    287.99646  0.028037039  0.027884393           10 
  857000   0.90517239   -6.6722417    289.08559  0.028110228   0.02786794            5 
  858000   0.92740244   -6.7011748    288.95151  0.028064444  0.027851501            6 
  859000   0.91072013   -6.6904035    289.17419  0.028053375  0.027835096            5 
  860000   0.89154317   -6.6916772     288.7862  0.027983159  0.027818709            6 
  861000   0.88883783   -6.7083519    289.82179  0.028050889  0.027802374            8 
  862000   0.88918016   -6.7059854    289.56684  0.027993701  0.027786106           11 
  863000   0.89441577    -6.693967    289.78203  0.027982042  0.027769804            7 
  864000    0.9064736   -6.6911484    290.85948  0.028053576  0.027753461            5 
  865000   0.90000551    -6.680461    290.98947  0.028033668  0.027737455            8 
  866000   0.91895159   -6.6950341    290.43569  0.027948007  0.027721476            5 
  867000    0.9148146   -6.6798674    290.18566   0.02789174  0.027705142            7 
  868000   0.89399171    -6.643969    291.18153  0.027955216  0.027688692            4 
  869000   0.91852497   -6.7157054    291.23698  0.027928364  0.027672412            7 
  870000   0.90608832    -6.687137    290.57261  0.027832625  0.027656211           17 
  871000   0.90241893   -6.7078629    292.17072  0.027953571  0.027640254            6 
  872000   0.92207317   -6.6869088    291.39453  0.027847336  0.027623996            6 
  873000   0.90697638   -6.6867959    292.02342  0.027875469  0.027607755            6 
  874000   0.92581706   -6.6958347    291.33732  0.027778158  0.027591395            9 
  875000    0.8889485   -6.6838448    291.42347  0.027754617  0.027575118            6 
  876000    0.9147794   -6.6939652    292.36852  0.027812835  0.027558931            4 
  877000    0.9076877   -6.6475091    292.31682  0.027776209  0.027542546            6 
  878000   0.90862186    -6.672213    292.61965  0.027773315  0.027526278            6 
  879000   0.91962224   -6.6625771    292.43982   0.02772467  0.027510023            5 
  880000   0.87441094    -6.699961    293.16155   0.02776151  0.027493637            8 
  881000   0.91308546   -6.6619366    293.14178  0.027728129  0.027477401            3 
  882000   0.88722269   -6.6394707    293.29614  0.027711275  0.027461147            3 
  883000   0.88877293   -6.7280768    292.79872  0.027632949  0.027444918            9 
  884000   0.88536585   -6.6971457    292.82696  0.027604351  0.027428557            3 
  885000   0.88518573   -6.7254193    293.54093  0.027640389  0.027412113           13 
  886000   0.91011682   -6.7031398    294.05039  0.027657109  0.027395715           12 
  887000    0.8960956   -6.7005267    294.25546  0.027645196  0.027379512           11 
  888000   0.89900008   -6.7190721    294.06987  0.027596647  0.027363344           11 
  889000   0.89863182   -6.7166414    294.62252  0.027617409  0.027347214           13 
  890000   0.90613058   -6.7067739    293.95425  0.027523806    0.0273311            6 
  891000   0.89810961   -6.7170402    294.53511  0.027547242  0.027315044            7 
  892000   0.90486915   -6.7116045    295.45394  0.027602199  0.027298912            7 
  893000   0.90366045   -6.6971201    295.93174  0.027615877  0.027282615            6 
  894000   0.88433058   -6.7026335    295.13578  0.027510792  0.027266343            9 
  895000   0.89371234   -6.6960721    296.07968   0.02756794  0.027250263            5 
  896000   0.87649654   -6.6793481    295.37069  0.027471232  0.027234289            7 
  897000   0.87753004   -6.7222469    295.47102  0.027449927   0.02721828           12 
  898000   0.90679744   -6.7396642    295.50265  0.027422295  0.027202179            7 
  899000   0.87912945   -6.7025607    296.29664  0.027465392  0.027186101            6 
  900000   0.92754129   -6.7339978    295.82849  0.027391527  0.027170171           12 
  901000   0.89901718   -6.6856407    296.77105  0.027448303  0.027154389           11 
  902000   0.88281437   -6.7162722    296.43325  0.027386664  0.027138604           10 
  903000   0.89054532   -6.7093639    297.22237  0.027429159  0.027122903            4 
  904000   0.89675644    -6.684102    298.20792  0.027489668  0.027107454           10 
  905000   0.89655621    -6.717982    297.48811  0.027393011  0.027091757           10 
  906000   0.90174784   -6.6934166    297.96167  0.027406334  0.027076201            5 
  907000   0.88286152   -6.7059133     297.8834  0.027368927   0.02706068            4 
  908000   0.88122947    -6.709267    298.67098  0.027411067  0.027045083            6 
  909000   0.90941373   -6.7129699     299.2938  0.027438009  0.027029527            5 
  910000   0.91100186   -6.6998656    298.75362   0.02735839  0.027013997            6 
  911000   0.88070664   -6.6786915    299.55178   0.02740137  0.026998552            4 
  912000   0.88584193   -6.7469493    298.49074  0.027274373  0.026983184           10 
  913000   0.90872499   -6.7052798    299.49005  0.027335711  0.026967839            6 
  914000   0.88827741   -6.7258583    298.97975  0.027259277  0.026952301            7 
  915000   0.89019108   -6.6963569    299.30328  0.027258951  0.026936541            5 
  916000   0.87843684   -6.7246033    299.41397  0.027239262  0.026921097            5 
  917000   0.90311416   -6.7121682    298.99268  0.027171272   0.02690554            3 
  918000   0.88723638   -6.6953352    299.97364  0.027230723  0.026890097            3 
  919000   0.90527728   -6.6931662    299.84003  0.027188976  0.026874656            3 
  920000   0.88554192   -6.7256478    300.77459  0.027244075  0.026859141           14 
  921000   0.89007345   -6.7249631    300.64407  0.027202685  0.026843526            6 
  922000    0.8918112   -6.7256431    300.17671  0.027130939  0.026828004            7 
  923000   0.88698285    -6.755213    300.67648  0.027146667  0.026812382            5 
  924000   0.87313407   -6.7269079     302.0301  0.027239367  0.026796944            7 
  925000   0.86021415   -6.7388053    300.96626  0.027114078  0.026781302           10 
  926000   0.89702755   -6.7247691    301.29018  0.027113947  0.026765921            3 
  927000   0.86277568   -6.6932459    302.29849  0.027175341  0.026750674            3 
  928000   0.87769199   -6.7151902      301.688  0.027091236  0.026735609            7 
  929000     0.877406   -6.7541052    301.93535  0.027084261  0.026720465           16 
  930000   0.87262856   -6.7180995    302.54063  0.027109375  0.026705185           14 
  931000   0.88808118   -6.6958475    303.12245  0.027132335  0.026690124            7 
  932000   0.87973107   -6.7333017    302.75811  0.027070646  0.026675269            5 
  933000   0.87729604   -6.7402457    303.21079  0.027082064  0.026660342            5 
  934000   0.89135197   -6.7121943    302.38902  0.026979748  0.026645399            5 
  935000   0.89097089   -6.7324054    303.13155  0.027017073  0.026630269            5 
  936000   0.86687286   -6.7337629    304.05902  0.027070782  0.026615189           10 
  937000   0.88671457   -6.7259687    303.25019  0.026969956  0.026600093           10 
  938000   0.88244365   -6.7323675    304.03823  0.027011214  0.026585038            5 
  939000   0.88618478   -6.7236006    304.07426  0.026985646  0.026569894           15 
  940000    0.8780526   -6.7390947    303.88766  0.026940396  0.026554874           14 
  941000   0.88057712   -6.7485878      303.819  0.026905685  0.026539756           18 
  942000   0.87072419   -6.7433795    304.46875  0.026934603  0.026524571           16 
  943000   0.89419162   -6.6961284    305.15979  0.026967107  0.026509716            6 
  944000   0.85031044   -6.7102986    305.09586  0.026932897  0.026494817            5 
  945000    0.8769632   -6.7554741    304.75787  0.026874591  0.026479735            9 
  946000   0.89180883   -6.7681121    304.84408  0.026853777  0.026464608            3 
  947000   0.88251618   -6.7315741    305.18473  0.026855397  0.026449636            8 
  948000   0.87205909   -6.7279423    305.72989   0.02687499  0.026434432            6 
  949000   0.86767773   -6.7312864    304.36233  0.026726583  0.026419139            8 
  950000   0.89884936   -6.7831229    304.88936  0.026744681   0.02640366           13 
  951000   0.87072574   -6.7823146    304.90757  0.026718154  0.026388199            6 
  952000   0.87132846    -6.747263    305.70348  0.026759759  0.026372857            4 
  953000   0.86895265   -6.7397102    305.62129  0.026724492  0.026357553           13 
  954000   0.86968519   -6.7614377    305.85487  0.026716883  0.026342046           16 
  955000   0.90038692   -6.7567691     306.0662  0.026707347  0.026326619           18 
  956000   0.88268085   -6.7677825    305.98918  0.026672697  0.026311436            7 
  957000   0.87968494   -6.7981009    306.66459  0.026703639  0.026296262           11 
  958000   0.87687612   -6.7493809     306.2471  0.026639448  0.026281097            6 
  959000   0.89273393   -6.7498047    306.46146  0.026630297  0.026265844           13 
  960000   0.88502764   -6.7863606    306.50729  0.026606536   0.02625063           10 
  961000   0.88586255   -6.7334675    307.21685  0.026640379  0.026235478            4 
  962000   0.88325333   -6.7475566    307.71444   0.02665579  0.026220409           12 
  963000   0.86309032   -6.7651569    307.51047  0.026610459  0.026205406            6 
  964000    0.8810025   -6.7582405    306.89712  0.026529834  0.026190335            9 
  965000   0.84879399   -6.7765722    307.37512   0.02654362   0.02617536            6 
  966000   0.86654301   -6.7421222    307.86352  0.026558275  0.026160372           10 
  967000   0.86925529   -6.7593204    308.31556  0.026569766  0.026145345            7 
  968000   0.87656211   -6.7678856    308.11862  0.026525363  0.026130264           28 
  969000   0.87909078   -6.7659256    307.47542  0.026442675  0.026115039            9 
  970000     0.860615   -6.7421667    308.45279  0.026499381  0.026099927            8 
  971000    0.8424104   -6.7630776    308.02908  0.026435726  0.026084741           12 
  972000   0.88463563    -6.785452    308.17723   0.02642123  0.026069521           11 
  973000   0.87903204   -6.7500867    308.98807  0.026463521  0.026054288           12 
  974000   0.87349371   -6.7661264    308.76505   0.02641727  0.026038996            9 
  975000   0.88383356   -6.7840002     308.9008  0.026401778  0.026023806            8 
  976000   0.85369865   -6.7683848    308.25107  0.026319251  0.026008497            9 
  977000   0.85028606   -6.7734518    308.16453  0.026284931  0.025993109           10 
  978000   0.86256454   -6.7614706     309.0391  0.026332575  0.025977754           21 
  979000   0.87385714   -6.7459306    309.03032   0.02630493  0.025962341           19 
  980000   0.86745078   -6.7839292    308.54254   0.02623661   0.02594688           11 
  981000   0.87277015   -6.7537114    309.42975  0.026285232  0.025931392            6 
  982000   0.84134693   -6.7843428    308.72641  0.026198779   0.02591598           17 
  983000   0.87474875   -6.7829882    309.52286  0.026239646  0.025900561            7 
  984000   0.84870537   -6.7575776    310.10911  0.026262628   0.02588509            6 
  985000    0.8553453   -6.7799002    309.08029  0.026148924  0.025869601            7 
  986000   0.85566462   -6.7781738    309.19752  0.026132312  0.025854189            5 
  987000    0.8660677   -6.7744083    310.15834  0.026186959  0.025838729            7 
  988000   0.84392595   -6.7617776    309.58966  0.026112488  0.025823317            7 
  989000   0.85430511   -6.7373008     310.7238  0.026181648  0.025808069            7 
  990000   0.87562525   -6.7774892    310.82321   0.02616357  0.025792803            4 
  991000   0.87467823    -6.764912    311.44981   0.02618986  0.025777621           11 
  992000   0.85800572   -6.7777144    310.74168  0.026103972   0.02576257           15 
  993000   0.85106325   -6.7489051    310.69501  0.026073767  0.025747332            7 
  994000   0.85919725   -6.7679115    311.76069  0.026136879  0.025732125            8 
  995000   0.85149592   -6.8063696    311.88059  0.026120653  0.025716885            8 
  996000   0.85991675   -6.7971572    311.02899  0.026023175  0.025701681            8 
  997000   0.85863078   -6.8137793    311.83932  0.026064804  0.025686466           12 
  998000   0.85598281    -6.749623    311.54966  0.026014501   0.02567144           11 
  999000   0.84753391   -6.8098479    311.83445  0.026012216  0.025656381           13 
 1000000   0.86264639   -6.7778055    312.88156  0.026073463  0.025641335            7 
 1001000   0.86225577   -6.7906171    312.81681  0.026042026  0.025626183            6 
 1002000   0.84611335   -6.7736544    313.63293   0.02608391  0.025611164            9 
 1003000   0.85379406   -6.7782258     311.9851  0.025920995  0.025596211            9 
 1004000   0.86141061   -6.7844385    313.23509  0.025998928  0.025581191            6 
 1005000    0.8378984   -6.7783191    313.22899  0.025972553  0.025565931           34 
 1006000   0.84043483   -6.7872047    312.21862   0.02586304  0.025550546            8 
 1007000   0.82948331   -6.8182485    313.13003   0.02591278  0.025535276           13 
 1008000   0.83792086   -6.8013137    313.10736  0.025885199  0.025519886           11 
 1009000   0.86245209   -6.8105136    312.88032  0.025840793  0.025504544           12 
 1010000   0.83952308   -6.7916734    313.94845  0.025903338  0.025489316           18 
 1011000   0.84667884   -6.7923372    313.54195  0.025844209  0.025473886            9 
 1012000   0.85119897   -6.8100125    314.33405  0.025883897  0.025458601           18 
 1013000   0.85562005   -6.8025337    313.88482   0.02582139    0.0254433            4 
 1014000   0.85166964    -6.838057    314.09108  0.025812877  0.025427905            8 
 1015000    0.8706425   -6.7665408    314.60875  0.025829947  0.025412536           10 
 1016000   0.85562756   -6.7978252    313.77697    0.0257363  0.025397292            7 
 1017000   0.85553636   -6.8105784    313.16756  0.025661059  0.025382118            5 
 1018000   0.84553876   -6.7820602    313.89838  0.025695676   0.02536682           10 
 1019000   0.85218888   -6.7583473    314.55312  0.025724004  0.025351569           10 
 1020000   0.87399073   -6.7736109    314.85281  0.025723269  0.025336314           11 
 1021000    0.8579466   -6.7811743    314.89769  0.025701738  0.025321125            9 
 1022000   0.84856091   -6.8047519    314.88407  0.025675479  0.025305703            7 
 1023000    0.8389547   -6.7968573    315.06912  0.025665454    0.0252903            5 
 1024000   0.83445299    -6.800336    313.91956   0.02554684  0.025274821            7 
 1025000   0.83127379    -6.807895    314.38738   0.02555995   0.02525932           10 
 1026000   0.84139785   -6.8073223    315.24224   0.02560447  0.025243863            7 
 1027000    0.8417028   -6.8225801    314.67128   0.02553321  0.025228424           15 
 1028000   0.84142134   -6.8093969    315.60776  0.025584286  0.025213148            7 
 1029000   0.84257902   -6.8048447     315.3607  0.025539415  0.025197853            9 
 1030000   0.84373776   -6.7878521    315.55138  0.025530047  0.025182669           12 
 1031000   0.83832795   -6.8024992    316.30124  0.025565894   0.02516753            8 
 1032000    0.8431462   -6.8260243    315.69045    0.0254918  0.025152426           10 
 1033000   0.83607646   -6.8252496    316.17005  0.025505813  0.025137276           13 
 1034000   0.84665086   -6.8002813    316.86642  0.025537268    0.0251223           25 
 1035000   0.83757516   -6.7918264    317.50659  0.025564138  0.025107269            9 
 1036000   0.85016705   -6.8114756    316.71619  0.025475884   0.02509225           12 
 1037000   0.82384103   -6.8142968    316.82912  0.025460392  0.025077259            5 
 1038000   0.83676451    -6.828547    317.29955  0.025473631  0.025062254            5 
 1039000   0.82781852    -6.813761    317.78989  0.025488442   0.02504732            9 
 1040000   0.83431712   -6.8358169    316.89363  0.025392118  0.025032273           11 
 1041000   0.82930768   -6.8135323    317.07672  0.025382382  0.025017121           11 
 1042000    0.8507353   -6.7959543    317.08772  0.025358903  0.025002058           18 
 1043000   0.85401653   -6.8187865    317.52176  0.025369268  0.024987013           26 
 1044000   0.83710198   -6.8278359    317.06521  0.025308526    0.0249719           11 
 1045000   0.86008874   -6.8236567    317.89268  0.025350294  0.024956699           10 
 1046000   0.84092957   -6.8162627    317.84369  0.025322155  0.024941555           11 
 1047000   0.84793181   -6.8165367    317.54359  0.025274084  0.024926326            8 
 1048000   0.85503694   -6.8531631    317.36478  0.025235749     0.024911            6 
 1049000   0.84639326    -6.873434    316.91358  0.025175848  0.024895694            5 
 1050000   0.83556944   -6.8027875    317.10543  0.025167097  0.024880327            8 
 1051000   0.83519076   -6.8229905    318.02683  0.025216209  0.024865103            6 
 1052000   0.84564921   -6.8545237      317.415  0.025143774  0.024849735            9 
 1053000   0.83130402   -6.8302226    317.48876  0.025125733  0.024834196            7 
 1054000   0.83942766   -6.8586664    317.31637  0.025088265  0.024818695           10 
 1055000   0.82817427   -6.8317046    318.43402  0.025152766  0.024803185           15 
 1056000   0.82834707   -6.8384282    318.16133  0.025107428  0.024787716           11 
 1057000   0.84221267   -6.8310665    317.98212  0.025069546  0.024772236            7 
 1058000   0.84322045   -6.8224608    318.55258  0.025090783  0.024756807           15 
 1059000   0.83696245   -6.8495901    318.71513  0.025079881  0.024741534           26 
 1060000     0.823709   -6.8355078    319.28115  0.025100719  0.024726277           16 
 1061000   0.82270848    -6.832268    319.34558  0.025082123  0.024710984           11 
 1062000   0.82082218   -6.8381813    318.69893  0.025007763  0.024695737            8 
 1063000   0.83384939   -6.8713707    320.21833   0.02510335  0.024680469           12 
 1064000   0.83261261   -6.8274363    319.74994  0.025043071  0.024665268            7 
 1065000   0.84423502     -6.82751    319.83268  0.025026031  0.024650123            8 
 1066000   0.81544531   -6.8546261    320.23072  0.025033671   0.02463494           20 
 1067000   0.80791447   -6.8521161    320.13323  0.025002596  0.024619709           15 
 1068000   0.82323943   -6.8341565    319.51367  0.024930842  0.024604476            8 
 1069000   0.83270692   -6.8495978    320.06851  0.024950772   0.02458934           11 
 1070000   0.83965543   -6.8389145    320.89591  0.024991893  0.024574297           14 
 1071000   0.82489851   -6.8587713    319.82478  0.024885215  0.024559327            6 
 1072000   0.82188745   -6.8339297    320.58399  0.024921019  0.024544277            8 
 1073000   0.82431849   -6.8207608    321.45949  0.024965788  0.024529202            5 
 1074000   0.81259316   -6.8346814    321.11425  0.024915755  0.024514165           10 
 1075000   0.82577809   -6.8416395    321.19178  0.024898587  0.024499083            8 
 1076000   0.81705205    -6.831116    321.16006  0.024872991  0.024483978            8 
 1077000   0.83002111   -6.8293867    320.18653  0.024774569  0.024468813           14 
 1078000   0.82878941   -6.8601953    321.77775  0.024874595  0.024453782           11 
 1079000   0.81736569   -6.8534524    321.34735    0.0248183  0.024438585           12 
 1080000   0.82932721   -6.8434263    320.65773  0.024742109  0.024423372           14 
 1081000    0.8237475   -6.8520149    320.97163  0.024743419  0.024408207           13 
 1082000   0.84598514   -6.8729117    321.30237  0.024746024  0.024393009           23 
 1083000   0.83232797   -6.8417381    321.20886  0.024715979  0.024377718           10 
 1084000   0.82403953   -6.8522642     321.1266  0.024686855  0.024362538            8 
 1085000   0.81959125   -6.8587473     320.8475  0.024642665  0.024347283           11 
 1086000   0.83354637   -6.8567938    322.09247  0.024715505  0.024331927           15 
 1087000   0.83154951    -6.873175    321.94083  0.024681143   0.02431671           15 
 1088000    0.8114188   -6.8308403    321.50565  0.024625126  0.024301492           13 
 1089000   0.80479346   -6.8585865    321.78194  0.024623656  0.024286278           12 
 1090000   0.82731289   -6.8684869    322.34033  0.024643756  0.024271063           11 
 1091000   0.80543443   -6.8367588     323.0721  0.024677062  0.024255822           17 
 1092000   0.78997115   -6.8619447    322.97472  0.024647033  0.024240711           19 
 1093000   0.81320221   -6.8401242    322.31437  0.024574136  0.024225631           11 
 1094000   0.82581561   -6.8397811    322.04265  0.024530976  0.024210498           12 
 1095000   0.81416745   -6.8177692    324.12981  0.024667413  0.024195474            7 
 1096000   0.82124967   -6.8572747    322.69798  0.024536039  0.024180363           12 
 1097000   0.80927241    -6.876395    322.98045   0.02453513  0.024165217            8 
 1098000   0.81754457   -6.8399804    322.64043  0.024486978  0.024150093            6 
 1099000   0.84764206   -6.8814511    323.37844  0.024520658  0.024134903           17 
 1100000   0.82741135   -6.8668321    323.21068  0.024485658  0.024119683            8 
 1101000   0.81976448   -6.8576911    322.90414  0.024440216  0.024104573            8 
 1102000   0.80234825    -6.873671    322.62888  0.024397223  0.024089324            9 
 1103000   0.80231806   -6.8760126    323.33559  0.024428497  0.024074071           13 
 1104000   0.82800011    -6.853271    323.46476   0.02441612  0.024058882            8 
 1105000   0.81383424   -6.8698676    322.89822  0.024351298  0.024043653           13 
 1106000   0.80771514   -6.9074846     323.1972  0.024351808  0.024028383           16 
 1107000   0.81063421   -6.8539373    323.82878  0.024377355  0.024013159           12 
 1108000   0.82092442   -6.8573022    323.85463  0.024357298  0.023997907            8 
 1109000   0.80169626   -6.8699689    323.66904  0.024321389  0.023982765           11 
 1110000   0.82832869   -6.9037079    323.19313  0.024263748  0.023967482           17 
 1111000    0.8131374   -6.8810526    323.98919   0.02430162  0.023952132           24 
 1112000   0.79923875   -6.8728606    323.60332  0.024250848  0.023936749            9 
 1113000   0.81375537   -6.8752681    323.86299  0.024248502  0.023921372           28 
 1114000    0.8147673   -6.8768042    324.05844  0.024241355  0.023906048           33 
 1115000   0.79210945   -6.8815475    324.02539  0.024217144  0.023890654           28 
 1116000    0.8087456   -6.9021784    323.91467  0.024187177  0.023875297           16 
 1117000   0.81376723   -6.9109683    323.96823  0.024169519  0.023859925           29 
 1118000    0.8166092   -6.8971572    324.40681  0.024180591  0.023844536           13 
 1119000     0.804597   -6.9157286    324.23049  0.024145851  0.023829141           10 
 1120000   0.81055048   -6.8822902    325.30875   0.02420452  0.023813941            6 
 1121000    0.8090911   -6.8990165    324.86739  0.024150118  0.023798765           11 
 1122000   0.80718908   -6.9048358    324.17608  0.024077249  0.023783583           14 
 1123000   0.79073868   -6.8816782    325.23387  0.024134303  0.023768429            9 
 1124000    0.8169837   -6.9077432    324.59749   0.02406565   0.02375328           14 
 1125000   0.79688181   -6.8811612    325.07333  0.024079506  0.023738203            5 
 1126000   0.81979973   -6.8651324    325.37574  0.024080502   0.02372302            8 
 1127000   0.80541754   -6.8793568    326.08818  0.024111815  0.023707874           21 
 1128000   0.79966955   -6.8828925    325.48025  0.024045527  0.023692686            8 
 1129000   0.81316558   -6.8988171    326.27477  0.024082874  0.023677513            6 
 1130000   0.80835029    -6.902558    325.12343  0.023976654  0.023662241           10 
 1131000   0.80437135   -6.9040335    325.62891  0.023992699   0.02364704            9 
 1132000   0.80624431   -6.8675521    324.90893  0.023918502  0.023631835           13 
 1133000   0.80244653    -6.891104    326.08006  0.023983529  0.023616716            7 
 1134000   0.80891531   -6.8863897    326.13866  0.023966685  0.023601532            5 
 1135000    0.8132286   -6.9061648    325.55754  0.023902903   0.02358632           12 
 1136000   0.77797895   -6.9003111    325.44283  0.023873447   0.02357108           12 
 1137000   0.81216133   -6.9144863    325.80975  0.023879342  0.023555855           11 
 1138000    0.7968733   -6.9027288    326.36785  0.023899227  0.023540649            7 
 1139000   0.79518885    -6.891844    327.06025  0.023928904  0.023525493            8 
 1140000   0.80281735   -6.9310768    326.87669  0.023894495  0.023510508           13 
 1141000   0.80009965   -6.8854533    326.69523    0.0238603  0.023495442            7 
 1142000   0.78264547   -6.9049054    326.99055  0.023860957  0.023480371           14 
 1143000     0.795017   -6.9048292    327.44982  0.023873565  0.023465247           12 
 1144000   0.81296946   -6.8935884    327.05119  0.023823659   0.02345017           10 
 1145000   0.78275804   -6.8992334    327.66225  0.023847325  0.023435223           10 
 1146000   0.78982814   -6.9060456    327.29712  0.023799965  0.023420242            6 
 1147000     0.776444   -6.9091236    326.69772  0.023735667   0.02340517           19 
 1148000   0.79785531   -6.9138016     327.4038  0.023766245  0.023390151           12 
 1149000   0.79911336   -6.8902567    328.08647  0.023795074  0.023375186           10 
 1150000   0.80918398   -6.9259777    327.77829   0.02375205  0.023360163            9 
 1151000   0.80116979   -6.8978939      327.928  0.023742253  0.023345101           18 
 1152000   0.80739855   -6.9219377    328.03577  0.023729439  0.023330167            5 
 1153000   0.79811997   -6.9070044    327.77538  0.023690039  0.023315212           14 
 1154000   0.79930677   -6.9304771    328.15216  0.023696719  0.023300213           21 
 1155000   0.80877208   -6.9371183    327.62651  0.023638276  0.023285157           13 
 1156000   0.78865391   -6.9078729    327.33407  0.023596746  0.023270121           12 
 1157000   0.78830971   -6.9266612    328.44661  0.023656483  0.023255056            5 
 1158000   0.79690055   -6.8937603    328.76891  0.023659248  0.023240029            7 
 1159000   0.78976987   -6.9109081     328.4379  0.023615034  0.023225028            8 
 1160000   0.81555537    -6.911718    328.66295  0.023610844  0.023209989           33 
 1161000   0.78964371   -6.9355355    327.95307  0.023539555  0.023194944           18 
 1162000   0.79563507   -6.9352703    328.18595  0.023535998  0.023179903           23 
 1163000   0.78244463   -6.9497554    328.94628  0.023570241  0.023164832           32 
 1164000   0.80184511   -6.9164712    328.96737  0.023551501  0.023149845           14 
 1165000   0.80220191   -6.9089223    328.98754  0.023532728  0.023134888           19 
 1166000   0.78997734   -6.9286055    328.84924  0.023502662  0.023119964           21 
 1167000   0.80034055   -6.9475218    328.43702  0.023453087  0.023105004           24 
 1168000   0.78681495   -6.9128669    330.00268  0.023544712   0.02309006           16 
 1169000   0.79501454   -6.9139307    328.80894  0.023439474  0.023075078           13 
 1170000   0.77395493   -6.9366787    328.74449   0.02341485   0.02306003           11 
 1171000   0.78883215   -6.9215083    329.13199   0.02342243  0.023045032           11 
 1172000   0.78623916    -6.905944    329.20415  0.023407576  0.023029986           12 
 1173000   0.78212228   -6.9338758    328.44783   0.02333389  0.023014928           23 
 1174000   0.79328409   -6.9576257    328.58332  0.023323632  0.022999886           11 
 1175000   0.78268885   -6.8956965    329.18451  0.023346419  0.022984837           12 
 1176000   0.77262276    -6.935773    329.14042  0.023323442  0.022969832           11 
 1177000   0.76976397   -6.9175735     329.3863  0.023321035  0.022954858           12 
 1178000   0.78556745   -6.9491152    329.85331  0.023334275  0.022939684           11 
 1179000   0.78982575   -6.9492567    329.20539  0.023268687  0.022924536           10 
 1180000   0.78511857   -6.9360138    329.27391  0.023253807  0.022909318            6 
 1181000   0.75982339   -6.9430857    329.78215   0.02326998  0.022894264           18 
 1182000   0.81260952   -6.9355449    329.61912  0.023238799  0.022879201            7 
 1183000   0.78598008   -6.9148656     330.2729  0.023265209  0.022864235            6 
 1184000   0.78685738   -6.9176013    330.71699  0.023276815  0.022849242           10 
 1185000   0.76347584   -6.9396997    330.07285  0.023211874  0.022834294            6 
 1186000   0.75285432   -6.9174693    330.72826  0.023238355  0.022819321           12 
 1187000   0.77959897   -6.9079875     330.6524  0.023213452   0.02280457            5 
 1188000   0.77164941   -6.9060874     330.0024  0.023148316  0.022789762           21 
 1189000   0.79723147   -6.9170125    330.86287  0.023189155  0.022774985           10 
 1190000   0.78147827   -6.9610402    330.29612  0.023129981  0.022760098           12 
 1191000    0.7698828   -6.9521828    330.62211  0.023133369  0.022745195           19 
 1192000   0.79492589   -6.9543881    330.96032  0.023137606  0.022730313           16 
 1193000   0.76587205   -6.9399076    331.42403  0.023150603  0.022715363            9 
 1194000   0.78686695   -6.9670527    331.30106  0.023122631  0.022700597            5 
 1195000   0.78460961   -6.9512804    330.77158  0.023066359  0.022685711           26 
 1196000   0.76956257      -6.9429    331.18134  0.023075623  0.022670922           15 
 1197000   0.76987837    -6.965421    330.80335   0.02303003  0.022656194           17 
 1198000   0.76249696   -6.9519134    331.93849  0.023089767  0.022641427           25 
 1199000    0.7819819   -6.9532434     331.4749  0.023038289  0.022626571            8 
 1200000   0.76867279   -6.9450682    331.44774  0.023017204  0.022611736           12 
 1201000   0.77408356   -6.9455793    331.91936  0.023030763  0.022596994           23 
 1202000   0.76022479   -6.9404943    331.78629  0.023002377   0.02258223           13 
 1203000   0.77386816   -6.9545159    332.21592  0.023013017  0.022567528           12 
 1204000   0.76972363   -6.9553472    331.83333  0.022967423  0.022552875            6 
 1205000   0.77918485   -6.9564891    332.42332  0.022989165  0.022538179            9 
 1206000    0.7640952    -6.966699    331.90888  0.022934555  0.022523395           17 
 1207000   0.78410659    -6.971756    331.40609   0.02288084  0.022508554            8 
 1208000   0.77871855   -6.9426245    331.89017  0.022895293  0.022493663           17 
 1209000   0.78389643   -6.9596524    332.63082  0.022927407  0.022478787           11 
 1210000   0.77349594    -6.952934    331.81725  0.022852428  0.022463854           14 
 1211000   0.76706175   -6.9506006    331.45384  0.022808549  0.022448989            9 
 1212000   0.76150184   -6.9800066    332.82044  0.022883693  0.022434084           13 
 1213000   0.76429239   -6.9551461    331.63644  0.022783488  0.022419132           10 
 1214000   0.77933396   -6.9882994    331.56512  0.022759824  0.022404133           21 
 1215000   0.75817186   -6.9693088    331.99101  0.022770303  0.022389142           14 
 1216000   0.75581542    -6.962134    332.58659  0.022792392  0.022374194           14 
 1217000   0.75478583   -6.9659179    332.88923  0.022794387    0.0223593           11 
 1218000   0.75831293   -6.9750792    331.64708  0.022690687  0.022344312           45 
 1219000   0.76438373   -6.9790578    332.28672    0.0227158  0.022329375           31 
 1220000    0.7621611   -7.0026499     332.3568  0.022701967  0.022314361           23 
 1221000    0.7739317   -6.9760807    332.67616  0.022705171  0.022299405           17 
 1222000   0.75994328   -7.0187368    332.77349  0.022693228  0.022284467           23 
 1223000   0.77736864   -7.0066933    332.19106  0.022634986  0.022269461           18 
 1224000   0.77319972   -6.9743503    331.64468  0.022579295  0.022254426           25 
 1225000   0.77376824    -6.967373    332.46536  0.022616691  0.022239435           10 
 1226000   0.77203134   -6.9422359    332.57775  0.022605883  0.022224536           24 
 1227000   0.77388315   -6.9697553    332.70391  0.022596028  0.022209641           12 
 1228000   0.77232919   -6.9894155     333.3673  0.022622645  0.022194689           24 
 1229000    0.7655837   -6.9743101    332.14962  0.022521672  0.022179725           19 
 1230000     0.771331   -6.9662376    332.88782  0.022553375  0.022164767           13 
 1231000   0.77152991   -6.9835699    332.22893   0.02249045  0.022149778           22 
 1232000    0.7623403   -6.9824133    332.36489  0.022481391  0.022134736           13 
 1233000   0.78326844   -6.9859155    331.97979  0.022437131  0.022119711           24 
 1234000   0.75549274   -6.9741521      332.726  0.022469341  0.022104626           26 
 1235000   0.77406329   -6.9922256    332.66413  0.022446972  0.022089624           10 
 1236000   0.75970678   -6.9672505    333.42345  0.022480006  0.022074638            8 
 1237000   0.75524878   -6.9606502    332.63713  0.022408861  0.022059673           18 
 1238000   0.75683994   -6.9743857    333.27091  0.022433421  0.022044735           17 
 1239000   0.75911651    -6.981258    333.60278  0.022437636  0.022029767           19 
 1240000   0.74479893   -6.9353717    333.46144  0.022410043  0.022014919           37 
 1241000   0.76355968   -6.9735478     333.5396  0.022397233  0.022000062           29 
 1242000   0.75869222   -6.9831696     333.2602  0.022360454  0.021985154           28 
 1243000   0.76731007   -6.9768184    334.04013  0.022394752   0.02197013           28 
 1244000   0.74913032   -7.0119191    333.46701  0.022338358  0.021955181           30 
 1245000   0.75310284   -6.9926661    333.11876  0.022297106  0.021940206           25 
 1246000   0.76364336   -6.9983738    333.60099  0.022311463   0.02192525           25 
 1247000   0.76243467   -6.9973689    333.14442  0.022263059  0.021910217           30 
 1248000    0.7588816   -6.9984825    333.25673   0.02225272  0.021895212           22 
 1249000   0.75877556    -6.985107    333.56419  0.022255417  0.021880239           10 
 1250000   0.75948897   -6.9866566    333.82656  0.022255104   0.02186533            6 
 1251000   0.77246332   -6.9977269    333.72212  0.022230357  0.021850458           12 
 1252000    0.7515481    -6.961927    334.25949  0.022248368  0.021835577           11 
 1253000    0.7488752   -6.9707573    333.87168  0.022204821  0.021820745           10 
 1254000   0.75701392   -6.9752935    333.60598  0.022169456  0.021805922           20 
 1255000   0.75308826   -6.9793342    333.80469  0.022164986  0.021791055           17 
 1256000   0.76498966   -7.0090477    334.35019  0.022183532  0.021776195           16 
 1257000   0.74860262   -6.9815744    333.99935  0.022142625   0.02176136           10 
 1258000   0.75570955   -6.9841018    334.58724  0.022163966  0.021746478           10 
 1259000   0.74351033   -6.9802381    334.46884  0.022138525  0.021731665           16 
 1260000   0.75791904   -7.0046018    334.01695  0.022091068   0.02171685           18 
 1261000   0.76557446   -6.9781871    334.68995  0.022118024  0.021701982            8 
 1262000   0.76474132   -7.0023793    333.69671  0.022034912  0.021687169            9 
 1263000   0.76372808   -6.9977477    334.18281  0.022049539   0.02167227           18 
 1264000   0.74416587   -6.9988769    334.26959  0.022037816  0.021657468           15 
 1265000   0.75056237   -6.9974959    334.36906  0.022026947  0.021642688           10 
 1266000   0.75482712    -7.019373    334.75808  0.022035156  0.021627897            8 
 1267000   0.73024728   -7.0415078    335.07621  0.022038688  0.021613088           27 
 1268000   0.74037162   -6.9784489    334.94141  0.022012448  0.021598416           20 
 1269000   0.74906565   -6.9970627      335.219  0.022013331  0.021583668           21 
 1270000   0.75927706   -6.9630226    336.02742  0.022049043  0.021568842           16 
 1271000   0.76599799   -7.0269077    334.81312   0.02195208  0.021554101           23 
 1272000   0.75186545   -7.0241166    334.72452  0.021929017  0.021539308           20 
 1273000   0.75296047   -6.9922931    335.02533  0.021931483   0.02152452            9 
 1274000   0.74781621   -6.9706849    335.29283  0.021931766  0.021509819           18 
 1275000   0.74078644   -6.9826234    334.41557  0.021857226  0.021495144           12 
 1276000   0.75540868   -6.9808314    335.54224  0.021913678  0.021480545           15 
 1277000   0.73751684   -6.9899886    335.44172  0.021889958  0.021465896           10 
 1278000   0.73863448   -7.0205003     335.2511    0.0218604  0.021451234           15 
 1279000   0.73958942   -6.9933368    335.87818  0.021884166   0.02143656           42 
 1280000   0.73087659    -7.016236    334.31744  0.021765458  0.021421855           20 
 1281000   0.73588641   -7.0373615    335.34624  0.021815395  0.021407113           27 
 1282000   0.74872512   -7.0081647      335.077  0.021780876  0.021392389           40 
 1283000   0.73796138    -7.041682    335.67631  0.021802826  0.021377637            9 
 1284000   0.76593114   -7.0232197    335.95062  0.021803649  0.021362906           31 
 1285000   0.73046449   -7.0112836    335.57581  0.021762374  0.021348122           24 
 1286000   0.72775504   -7.0302184    335.65431  0.021750538  0.021333352            9 
 1287000    0.7340948   -7.0122816    335.72001  0.021737892  0.021318583           22 
 1288000    0.7546898   -7.0143703    336.02383  0.021740672  0.021303846           15 
 1289000   0.73756338   -7.0055816     335.8314  0.021711365  0.021289079            8 
 1290000   0.74367526   -7.0368967    335.28599  0.021659302  0.021274378           31 
 1291000   0.72902849   -7.0281328    336.26114   0.02170547  0.021259753           15 
 1292000   0.73693716   -7.0079459    336.77238  0.021721645   0.02124516           18 
 1293000   0.74119205   -6.9870996    336.29742  0.021674234  0.021230631           25 
 1294000   0.73515091   -7.0432047    336.38299  0.021662995  0.021216074           16 
 1295000   0.73082784   -7.0272879    336.63886  0.021662732   0.02120146           30 
 1296000   0.72432556   -7.0319439    336.17256  0.021616034  0.021186795           20 
 1297000   0.73620729   -7.0128097    336.29776  0.021607412  0.021172164           21 
 1298000    0.7379815   -7.0264649    336.65276  0.021613557  0.021157615           29 
 1299000   0.73483421   -7.0172126    337.14126  0.021628256  0.021143056           14 
 1300000   0.74257243   -7.0490497    337.29135   0.02162124   0.02112849           16 
 1301000   0.73207895   -7.0203205    337.01164  0.021586705  0.021113979           15 
 1302000   0.73088026   -7.0133675    336.19535   0.02151788  0.021099415           15 
 1303000   0.74626223   -7.0387396    335.81624   0.02147712  0.021084863           18 
 1304000   0.74044652   -7.0389954    336.74317  0.021519886  0.021070291           14 
 1305000    0.7231357   -7.0465409    336.69913  0.021500583  0.021055777           24 
 1306000   0.75439359   -7.0362385    337.06523   0.02150748  0.021041263           21 
 1307000   0.72154914   -7.0218894    336.66096  0.021465249  0.021026806           21 
 1308000   0.73631684   -7.0646049    336.46252  0.021436195  0.021012325           33 
 1309000   0.71850887   -7.0575356    337.21194  0.021467529  0.020997816           28 
 1310000   0.73319685   -7.0560248    336.28474  0.021392159   0.02098324           41 
 1311000   0.73257467   -7.0415828    337.17349  0.021432335  0.020968653           40 
 1312000   0.74092953   -7.0511583    336.69622  0.021385685  0.020954084           19 
 1313000   0.73263032   -7.0221836    337.21189  0.021402125  0.020939452           33 
 1314000   0.74151303   -7.0532241    337.28641  0.021390564  0.020924889           39 
 1315000   0.71939236    -7.051899    337.10287  0.021362666  0.020910314           39 
 1316000   0.74830779   -7.0374443    336.93658  0.021335903  0.020895755           32 
 1317000   0.73120168   -7.0610604    337.19375  0.021335975  0.020881174           46 
 1318000   0.72851567   -7.0359496    337.30067  0.021326547  0.020866677           24 
 1319000   0.73543265   -7.0548241    337.53575  0.021325231  0.020852166           57 
 1320000   0.73130625   -7.0360281    337.96788  0.021336356  0.020837748           34 
 1321000   0.71758702   -7.0330026    336.93626  0.021255126  0.020823311           60 
 1322000   0.72613106   -7.0667073     336.9611  0.021240614  0.020808762          100 
 1323000   0.72332681   -7.0621012    336.30753  0.021183392  0.020794187           88 
 1324000   0.72952382   -7.0727894    337.20173  0.021223674   0.02077962           60 
 1325000   0.71503643   -7.0638239    336.66731  0.021174044  0.020765006           39 
 1326000   0.73017449   -7.0589712    337.28799  0.021197083  0.020750445           33 
 1327000   0.71764161   -7.0441631    338.65344  0.021266857  0.020735913           14 
 1328000   0.71471391   -7.0382794    336.98307  0.021146026  0.020721404           32 
 1329000   0.72481251    -7.041407    337.30963  0.021150592  0.020706905           33 
 1330000   0.73269646   -7.0663799    338.19397  0.021190098  0.020692333           47 
 1331000   0.72973448   -7.0698959    336.27525  0.021054047  0.020677791           22 
 1332000   0.71871773    -7.053126    337.33285  0.021104407  0.020663217           22 
 1333000   0.73991699   -7.0723829    337.08655  0.021073178  0.020648575           20 
 1334000   0.71594961    -7.075401    337.10318  0.021058419  0.020633939           32 
 1335000    0.7238837   -7.0773776    338.09829  0.021104762  0.020619457           34 
 1336000   0.73214609   -7.0478736    338.05461  0.021086241  0.020605012           20 
 1337000   0.72932156   -7.0817468    336.86378  0.020996247  0.020590501           17 
 1338000   0.70426078   -7.0543512    338.43996  0.021078722  0.020575956           10 
 1339000   0.71307299   -7.0762347    337.87137  0.021027593  0.020561459           35 
 1340000   0.72523941   -7.0756851    337.74572  0.021004087  0.020546973           21 
 1341000   0.71410771   -7.0469603    337.81716  0.020992863  0.020532572           24 
 1342000   0.73696334   -7.0776946    337.93857   0.02098476  0.020518103           23 
 1343000   0.71294718   -7.0547984    337.72851    0.0209561  0.020503542           34 
 1344000   0.72467126   -7.0928098    337.69928  0.020938696   0.02048896           37 
 1345000   0.70349735   -7.0811851    338.01703  0.020942815  0.020474343           25 
 1346000   0.70865447   -7.0938558    337.51671  0.020896279  0.020459745           21 
 1347000   0.71078057   -7.0849501    337.48752  0.020878961  0.020445223           11 
 1348000    0.7277882   -7.0725247    338.22603  0.020909127  0.020430711           15 
 1349000   0.71245325   -7.0818016    338.07022  0.020884002  0.020416289           32 
 1350000   0.71389932   -7.0528209    337.66294  0.020843391   0.02040188           15 
 1351000    0.6980336   -7.0642385    339.07488  0.020915055  0.020387428           18 
 1352000   0.70966348    -7.086353    338.36047  0.020855552  0.020373051           39 
 1353000   0.72465417   -7.0955546    338.34847  0.020839398  0.020358635           33 
 1354000   0.71929578   -7.0884711    337.97097  0.020800774  0.020344194           65 
 1355000   0.72046745   -7.0809657    338.15219  0.020796568  0.020329848           33 
 1356000   0.71518693    -7.059255    338.62987  0.020810587  0.020315502           24 
 1357000   0.69984883   -7.0649328    338.37152  0.020779386  0.020301183           17 
 1358000   0.71472103   -7.0869285    338.90114  0.020796584  0.020286962           19 
 1359000   0.71142768   -7.0740716    338.19557  0.020738016  0.020272694           24 
 1360000   0.72189646   -7.0832567    338.74811  0.020756624  0.020258386           23 
 1361000   0.71252703   -7.0746985    338.28293  0.020712891  0.020244035           20 
 1362000   0.70866516   -7.0832788    338.37341  0.020703219  0.020229635           19 
 1363000   0.70293107   -7.0852602    338.72183  0.020709332  0.020215337           16 
 1364000   0.71639694   -7.0897108    339.56188  0.020745472  0.020201124           30 
 1365000   0.71253648   -7.0786093    338.76106  0.020681384  0.020186869           52 
 1366000   0.71704121   -7.1013325     339.0684  0.020684993  0.020172605           70 
 1367000   0.69598759   -7.0885148    338.28973  0.020622393  0.020158375           30 
 1368000   0.69569114   -7.0978628    339.03315  0.020652604  0.020144116           10 
 1369000   0.71035998   -7.0828861    338.65496  0.020614497   0.02012981           12 
 1370000   0.70031615   -7.0955626    338.77856  0.020606969   0.02011552           15 
 1371000    0.7056384   -7.1111514    338.91505  0.020600234  0.020101249           11 
 1372000   0.70368638   -7.1003473    339.23451  0.020604623  0.020086997           28 
 1373000   0.69089975   -7.1189998    338.98472  0.020574455  0.020072762           17 
 1374000   0.68912823   -7.0990174    338.97722  0.020559026  0.020058552           10 
 1375000   0.71714884   -7.0697577     339.2282  0.020559285  0.020044382           11 
 1376000   0.69065219   -7.0809355    339.10821  0.020537076  0.020030166           17 
 1377000   0.70430149   -7.0975844    339.30233   0.02053391  0.020015959           62 
 1378000   0.68813955   -7.0792108    340.21888  0.020574436  0.020001749           55 
 1379000   0.69684321   -7.0974349    339.39567   0.02050977  0.019987538           40 
 1380000   0.70057245   -7.1016191    340.05176  0.020534526  0.019973318           28 
 1381000    0.7161088   -7.0925342    338.58237   0.02043099  0.019959139           15 
 1382000   0.69189111   -7.0917982    338.85058  0.020432379  0.019944981           15 
 1383000   0.70323073   -7.0600605    339.64662  0.020465571  0.019930829           14 
 1384000    0.6937942   -7.0949515    340.26934  0.020488279  0.019916702           12 
 1385000   0.70362123   -7.1051473    339.77898  0.020443982  0.019902527           15 
 1386000   0.69780156   -7.0898643    339.23718  0.020396656  0.019888372           16 
 1387000   0.68366037    -7.111162    339.28659  0.020384919  0.019874173           23 
 1388000   0.70101403   -7.1064465    339.82102  0.020402319  0.019860012           24 
 1389000   0.69311982   -7.1128888    339.60604  0.020374732  0.019845895           14 
 1390000   0.69972722   -7.0697249    340.09908  0.020389633  0.019831844           16 
 1391000   0.69240736   -7.0993694    339.20424  0.020321366  0.019817807           40 
 1392000   0.69518731   -7.0907429    339.73831   0.02033874  0.019803736            9 
 1393000   0.70246763   -7.1061227    340.50914  0.020370252  0.019789668           29 
 1394000   0.69909899   -7.0883651    339.41104  0.020289995  0.019775654           21 
 1395000   0.70303702   -7.1037466    340.00371  0.020310855  0.019761619           25 
 1396000   0.69084719   -7.1098786    340.06975  0.020300248  0.019747594           12 
 1397000   0.71118006   -7.0972093    340.43842  0.020307708   0.01973359           11 
 1398000   0.69019358   -7.1127935     339.8281  0.020256801  0.019719641           10 
 1399000   0.68758284   -7.1005618    340.18664  0.020263679  0.019705652           32 
 1400000   0.71520827   -7.0912977    339.93881  0.020234453  0.019691722           45 
 1401000   0.69401678   -7.0993301    339.45363  0.020191151  0.019677842           41 
 1402000   0.68375613   -7.0826341    340.86691  0.020260753  0.019663979           17 
 1403000   0.68386777   -7.0720266    341.24671  0.020268871  0.019650152           18 
 1404000   0.69211225   -7.0954108    340.81591  0.020228864  0.019636301           31 
 1405000   0.68860607   -7.1120578    340.10909  0.020172544  0.019622404           66 
 1406000   0.70302018     -7.10006    340.83956  0.020201491  0.019608513           33 
 1407000   0.67614602   -7.1250503    340.79342    0.0201844  0.019594639           65 
 1408000   0.70462986   -7.0996053    340.45529  0.020150053  0.019580788           34 
 1409000    0.6830926   -7.1313634    339.62409  0.020086591  0.019566948           25 
 1410000   0.69349662   -7.1288876    341.45572  0.020180598  0.019553113           11 
 1411000   0.68473359   -7.1024549    340.89363  0.020133099   0.01953936           18 
 1412000   0.68697795    -7.124467    340.44463  0.020092341  0.019525512           28 
 1413000   0.68153079   -7.1427728    340.47168  0.020079717  0.019511636           24 
 1414000   0.66845687   -7.1274733     340.4784  0.020065912  0.019497757           17 
 1415000   0.70504098   -7.1101862    340.72356  0.020066169  0.019483893           25 
 1416000   0.66668125   -7.1097035     340.9737   0.02006672  0.019470066           36 
 1417000   0.68085185    -7.107072    341.22174  0.020067145  0.019456277           32 
 1418000   0.68313248   -7.1202643    340.37669  0.020003331  0.019442523           19 
 1419000    0.6862836   -7.0971046     341.3994  0.020049295  0.019428794           62 
 1420000   0.69124696   -7.1214668     341.5295  0.020042811  0.019415093           45 
 1421000   0.67486287   -7.1417802     341.4845  0.020026067  0.019401416           79 
 1422000   0.68818849   -7.1285981    341.46592  0.020010895  0.019387704           65 
 1423000    0.6837283    -7.125866    341.00837  0.019970038   0.01937395           99 
 1424000   0.68677734   -7.1358371    341.00695  0.019955931   0.01936025           69 
 1425000   0.69335975   -7.1223375    341.78981  0.019987708  0.019346555          121 
 1426000   0.68403296   -7.1395956    341.30577  0.019945405  0.019332853          119 
 1427000   0.69806788   -7.1653086    341.69579  0.019954204  0.019319119          151 
 1428000   0.68608736   -7.1442519    341.34869  0.019919975   0.01930538           81 
 1429000   0.68013763   -7.1426206    340.98818  0.019885012  0.019291664          103 
 1430000   0.67467018   -7.1586827     340.9753  0.019870355  0.019277999          143 
 1431000   0.68118989   -7.1624123    341.44502  0.019883824  0.019264379          111 
 1432000   0.67985448   -7.1467404    341.85671  0.019893896  0.019250783          156 
 1433000   0.67985018   -7.1450015    340.98355  0.019829237  0.019237181           76 
 1434000    0.6741966    -7.145118    341.09964  0.019822155  0.019223545          124 
 1435000   0.67038355   -7.1645465    341.73686  0.019845346  0.019209947          164 
 1436000   0.69358438   -7.1392887    342.54934  0.019878676   0.01919638           77 
 1437000   0.67969253    -7.157545    341.37136   0.01979653  0.019182821          203 
 1438000    0.6769396   -7.1600894    341.37158  0.019782776  0.019169284          101 
 1439000   0.66887618   -7.1620826    341.72419  0.019789448  0.019155748           74 
 1440000   0.69315376   -7.1480306    342.26165  0.019806809  0.019142231          189 
 1441000   0.67417029   -7.1794803    342.51763  0.019807867  0.019128682           88 
 1442000   0.68903493   -7.1713141    341.99142   0.01976372  0.019115161          121 
 1443000   0.67529842   -7.1428087    342.08822  0.019755615  0.019101643          108 
 1444000   0.68548912   -7.1681786    341.83142  0.019727113   0.01908814          127 
 1445000   0.66483324   -7.1750578    341.36572  0.019686604  0.019074608          240 
 1446000   0.66772528   -7.1767217    341.98769  0.019708834  0.019061099          206 
 1447000   0.66818029   -7.1570297    341.95427  0.019693289  0.019047559          211 
 1448000   0.66762474     -7.17938    341.45409  0.019650903  0.019033994          117 
 1449000   0.67783295   -7.1875466    341.16951  0.019620975  0.019020418          280 
 1450000   0.67521169   -7.1903272    341.19202  0.019608737  0.019006826          148 
 1451000   0.66948386   -7.1843546    341.84972  0.019632995  0.018993232          297 
 1452000   0.68132707   -7.1849458    341.79089  0.019616098  0.018979681          177 
 1453000   0.66085538   -7.2031282    341.36666  0.019578267  0.018966097          222 
 1454000   0.66718384   -7.1819543    341.70391  0.019584131   0.01895255          283 
 1455000   0.68166926   -7.1961088    342.19476  0.019598783  0.018938991          194 
 1456000   0.65195418   -7.1882403    341.38251  0.019538834  0.018925414          248 
 1457000   0.66844703   -7.1916997    341.51015  0.019532724  0.018911827          219 
 1458000   0.67573408   -7.2005422     342.2869  0.019563723  0.018898239          188 
 1459000   0.68731217   -7.1853617    341.92129  0.019529432  0.018884679          228 
 1460000   0.66826917   -7.2185329    341.77838  0.019507899  0.018871122          214 
 1461000   0.67200323   -7.2073961     341.7076  0.019490509  0.018857555          200 
 1462000   0.67782141    -7.205105    340.71035  0.019420335  0.018843928           95 
 1463000   0.67595636   -7.2264899    341.35323  0.019443679  0.018830324          163 
 1464000   0.65524322   -7.2058274    342.50737  0.019496094  0.018816714          169 
 1465000   0.66805612   -7.1893567    342.41232  0.019477379  0.018803113          181 
 1466000   0.65911765    -7.216718     341.3433  0.019403325  0.018789525          208 
 1467000   0.67167641   -7.2084013    342.12272  0.019434374  0.018775948          330 
 1468000   0.67085897   -7.1984519    342.28223   0.01943019  0.018762406          364 
 1469000   0.66569113    -7.210721    342.23029  0.019414017  0.018748893          180 
 1470000   0.67328485   -7.1788173    342.54957   0.01941891  0.018735392          234 
 1471000    0.6695272   -7.1892105    341.97151  0.019372961  0.018721865          391 
 1472000   0.64896499   -7.1776531    341.89161  0.019355277  0.018708372          219 
 1473000   0.67413076   -7.1908972    341.98639  0.019347499  0.018694906          235 
 1474000   0.65694223   -7.2075481     341.6453  0.019315089  0.018681441          210 
 1475000   0.66470465   -7.2085433    341.90374  0.019316596  0.018667951          409 
 1476000   0.66634694   -7.2004832    342.21764  0.019321231  0.018654493          267 
 1477000   0.67265095   -7.1948009    342.75875  0.019338679  0.018641026          295 
 1478000   0.64888768   -7.2157115    341.76067  0.019269321   0.01862756          276 
 1479000   0.65844928    -7.174636    341.79749  0.019258366  0.018614096          321 
 1480000   0.66309509   -7.2108621      342.188  0.019267342  0.018600577          157 
 1481000   0.65377559   -7.2046908    342.00052  0.019243784  0.018587111          160 
 1482000   0.66446443    -7.202051    342.00454  0.019231025  0.018573694          423 
 1483000   0.66133759   -7.1978658    342.07962  0.019222276  0.018560318          155 
 1484000    0.6630088   -7.2070725    342.55827  0.019236201  0.018546915          199 
 1485000   0.66024309   -7.2311164    342.06564  0.019195603  0.018533535          189 
 1486000   0.66038556   -7.2136419    342.47284  0.019205521  0.018520155          207 
 1487000   0.67524802   -7.2082831    341.45477  0.019135551  0.018506792          136 
 1488000   0.65847256   -7.2169392    342.07252  0.019157287   0.01849339          121 
 1489000   0.66928074   -7.2307002    342.55923  0.019171661  0.018480043          144 
 1490000   0.65496013   -7.2081277    341.86892  0.019120186  0.018466667          231 
 1491000   0.67064153   -7.1996708    342.66165  0.019151669  0.018453312          153 
 1492000   0.66073534   -7.2082305    342.19997  0.019113046  0.018439924          294 
 1493000   0.65182704   -7.2150783    341.67146  0.019070745  0.018426535          388 
 1494000   0.66638211   -7.2098264    342.09172  0.019081421  0.018413171          156 
 1495000   0.67335904   -7.2067304    341.68178  0.019045807  0.018399815          135 
 1496000   0.67000402   -7.2066467     342.2497  0.019064711  0.018386472           92 
 1497000   0.65841893   -7.2169303    342.31356  0.019055531   0.01837315          101 
 1498000    0.6457199   -7.2465853    342.37376  0.019046159  0.018359833          103 
 1499000   0.66712378   -7.2184685    342.35252  0.019032273  0.018346568          181 
 1500000   0.65498428   -7.2018311    341.93977  0.018996654  0.018333261          240 
 1501000   0.64678501   -7.2135067    341.59679  0.018964956  0.018319898          235 
 1502000   0.64140974   -7.2210358    341.91224  0.018969831  0.018306563          182 
 1503000   0.66427992    -7.226891     342.0946  0.018967321   0.01829324          204 
 1504000   0.65954167   -7.2369443    342.32226  0.018967324  0.018279923          118 
 1505000   0.65119568   -7.2287323    342.31724  0.018954443  0.018266589          157 
 1506000   0.66516896    -7.225067    341.62886  0.018903766  0.018253237          177 
 1507000   0.63834483   -7.2126148     342.0915  0.018916805  0.018239924          221 
 1508000   0.64985409   -7.2107216    342.65701  0.018935511  0.018226657          150 
 1509000   0.65926163   -7.2136177    342.56426  0.018917841  0.018213381          121 
 1510000   0.64351427   -7.2404848    342.29117  0.018890241   0.01820013          151 
 1511000   0.64780343   -7.2069487    342.20402  0.018872933  0.018186849          191 
 1512000   0.64253713   -7.2106125    342.77006  0.018891648   0.01817358           92 
 1513000   0.63595617   -7.2343191    342.70116  0.018875367  0.018160324          124 
 1514000   0.66018654    -7.214093    342.79096  0.018867843  0.018147096          117 
 1515000   0.65033685   -7.1843767    342.42256  0.018835124  0.018133873          118 
 1516000   0.65062336   -7.2043505     341.7057  0.018783295  0.018120652          297 
 1517000   0.65259101   -7.2338287    342.11197  0.018793231  0.018107418          190 
 1518000    0.6375914   -7.2115594    342.62772  0.018809164  0.018094184          276 
 1519000   0.64003958   -7.2078285    341.88657  0.018756121  0.018080977          165 
 1520000   0.64204815   -7.2273008    342.50065  0.018777448  0.018067724          256 
 1521000   0.63521834   -7.2382198    342.58702  0.018769835  0.018054545          147 
 1522000   0.64697871   -7.1998666    342.08064  0.018729776  0.018041328          193 
 1523000   0.63773302   -7.2224684    342.18268  0.018723062  0.018028113          338 
 1524000   0.62873846   -7.2284026    342.23043  0.018713387  0.018014871          364 
 1525000   0.64914483   -7.2253294     342.4979  0.018715732  0.018001657          241 
 1526000   0.63522459   -7.2368536    342.70085   0.01871455  0.017988472          229 
 1527000   0.64800128    -7.239082    342.49765  0.018691205  0.017975286          355 
 1528000   0.64136817   -7.2324017    342.98844   0.01870574   0.01796214          261 
 1529000   0.65024834    -7.230154    342.90879  0.018689165  0.017948995          227 
 1530000   0.64946264   -7.2341979    342.86151  0.018674374  0.017935849          315 
 1531000   0.64029728     -7.22605    342.43589   0.01863901  0.017922681          285 
 1532000   0.64818583   -7.2396506    342.07619  0.018607277  0.017909524          350 
 1533000   0.63991111   -7.2218539     342.5318  0.018619906  0.017896376          373 
 1534000   0.63376962   -7.2348424    342.36588  0.018598755  0.017883241          405 
 1535000   0.63097342   -7.2480722    342.52294  0.018595165  0.017870101          408 
 1536000    0.6392984   -7.2349001     342.2136  0.018566276   0.01785698          477 
 1537000    0.6437355   -7.2128822    342.53796  0.018571783  0.017843858          411 
 1538000   0.64270122   -7.2235444      342.537  0.018559656  0.017830741          422 
 1539000   0.62647514   -7.2363665    341.55269  0.018494298  0.017817622          445 
 1540000   0.63809197    -7.249247    342.12098   0.01851304  0.017804502          422 
 1541000   0.63229148   -7.2482388    342.61052    0.0185275  0.017791373          227 
 1542000    0.6413434   -7.2721963    341.71011  0.018466824  0.017778254          424 
 1543000   0.62845815   -7.2532659    342.53778  0.018499556  0.017765117          420 
 1544000   0.63652625   -7.2531904    342.18276  0.018468413  0.017751977          505 
 1545000   0.63849918   -7.2562624     342.0692  0.018450335  0.017738855          485 
 1546000   0.63298221   -7.2433385    342.10401  0.018440276   0.01772574          429 
 1547000   0.63786148   -7.2665443    341.79467  0.018411693  0.017712582          501 
 1548000   0.63949299   -7.2616669    341.37118  0.018377001  0.017699419          508 
 1549000   0.63096896   -7.2403722    341.42917  0.018368257  0.017686233          544 
 1550000   0.63400271   -7.2615171     342.4766   0.01841272  0.017673075          530 
 1551000   0.64142227   -7.2674739    342.65278  0.018410315  0.017659952          517 
 1552000    0.6214412   -7.2766107    342.13798  0.018370811  0.017646857          567 
 1553000   0.65176376   -7.2648834    342.45082  0.018375769  0.017633759          534 
 1554000   0.63191449    -7.257089    341.94337  0.018336732  0.017620724          478 
 1555000    0.6359894   -7.2513794    342.69744   0.01836535  0.017607711          411 
 1556000   0.63045709   -7.2768614    342.61497  0.018349131  0.017594707          449 
 1557000    0.6405507   -7.2622395    342.07695   0.01830855  0.017581689          483 
 1558000   0.62946017   -7.2708417    342.28013  0.018307666  0.017568687          581 
 1559000   0.63435674   -7.2806528    341.93915  0.018277697  0.017555655          503 
 1560000   0.63584737   -7.2714664     342.0206  0.018270331   0.01754262          451 
 1561000   0.62738512   -7.2789924    342.49679  0.018284048  0.017529628          478 
 1562000   0.63055203   -7.2699499    342.29886  0.018261783  0.017516598          507 
 1563000    0.6256218   -7.2948704    341.91565  0.018229668  0.017503596          545 
 1564000   0.61914597   -7.2865949    341.46077  0.018193775  0.017490562          538 
 1565000    0.6364266   -7.2797585    342.34235  0.018229092  0.017477547          539 
 1566000   0.62936693   -7.3086744    342.10962  0.018205067  0.017464544          517 
 1567000    0.6330109    -7.278031    341.59013  0.018165823  0.017451538          505 
 1568000   0.62465457    -7.303693    341.46534  0.018147605  0.017438534          577 
 1569000   0.64799632   -7.2995774     341.7408  0.018150669  0.017425541          580 
 1570000   0.62059623   -7.2903684    341.76736  0.018140518  0.017412551          606 
 1571000   0.64030744   -7.2986607    341.58282  0.018119182  0.017399602          544 
 1572000   0.62863537   -7.2879352    341.98491  0.018128971  0.017386654          592 
 1573000   0.62374323   -7.3096739    342.13911  0.018125615  0.017373713          621 
 1574000   0.62759399   -7.2967704      341.901  0.018101493  0.017360754          551 
 1575000   0.63441158   -7.2928147    341.34357  0.018060506  0.017347796          619 
 1576000   0.62248055   -7.3028055    341.27573  0.018045459  0.017334861          685 
 1577000   0.61883559   -7.3175867    342.20716  0.018083236  0.017321917          597 
 1578000   0.62356315   -7.2890617    342.13115  0.018067762  0.017308965          562 
 1579000    0.6293928   -7.2988344     341.5596  0.018026156  0.017296015          566 
 1580000   0.63020952   -7.3014964    342.02175  0.018039122  0.017283065          684 
 1581000   0.63467559   -7.3074529    342.00176  0.018026658  0.017270133          585 
 1582000   0.63127011   -7.2863267    341.34262  0.017980543  0.017257186          627 
 1583000   0.61717266   -7.3064212    342.00086  0.018003836  0.017244254          815 
 1584000   0.62062974   -7.3000908    341.68919  0.017976073  0.017231326          746 
 1585000   0.62768269   -7.2983808    341.90874  0.017976274  0.017218429          714 
 1586000   0.61866498   -7.3197884     342.0687  0.017973345  0.017205485          686 
 1587000   0.62215132   -7.3301417    341.80428  0.017948135  0.017192547          730 
 1588000   0.62045882   -7.3129449    341.55241  0.017923615  0.017179617          736 
 1589000   0.63656488   -7.3103591    341.35465  0.017901964  0.017166687          692 
 1590000   0.61171598   -7.3174619    341.69286  0.017908431  0.017153761          764 
 1591000   0.63214331   -7.3345858    341.91526  0.017908824   0.01714083          736 
 1592000   0.60860786   -7.3344846     341.3342  0.017867159   0.01712789          701 
 1593000   0.60857177    -7.315735    341.72315   0.01787629  0.017114986          739 
 1594000   0.61016308   -7.3385412    341.33915     0.017845  0.017102081          768 
 1595000    0.6200867   -7.3078169     341.2848  0.017830972  0.017089157          701 
 1596000   0.59546152   -7.3127842    341.54177  0.017833217  0.017076262          783 
 1597000   0.63169015   -7.3385782    341.89287  0.017840371  0.017063373          770 
 1598000   0.61607216   -7.3175483     341.1327  0.017789565  0.017050483          788 
 1599000   0.61952935   -7.3289853     340.5298  0.017747019  0.017037596          853 
 1600000   0.60851464   -7.3065039    341.28059  0.017775031   0.01702473          753 
 1601000   0.62682335   -7.3060671    341.77451  0.017789637  0.017011886          787 
 1602000   0.60029464   -7.3149058    341.34163  0.017756015  0.016999036          765 
 1603000     0.608052   -7.3353912    340.99904  0.017727128  0.016986187          740 
 1604000   0.60658155   -7.3104765    340.83431  0.017707518  0.016973304          736 
 1605000   0.61237748   -7.3274415     340.6656  0.017687726  0.016960439          810 
 1606000   0.60781065    -7.345993    340.77231   0.01768225  0.016947577          741 
 1607000   0.59833135    -7.350799    341.58946  0.017713621  0.016934729          726 
 1608000   0.60837415   -7.3415525    340.85282  0.017664429  0.016921878          716 
 1609000   0.61157969   -7.3451455    341.06603  0.017664493  0.016909021          756 
 1610000   0.60995606   -7.3234512     340.6682  0.017632929  0.016896153          771 
 1611000   0.61379857   -7.3488333    340.74892   0.01762616  0.016883301          811 
 1612000   0.61027256   -7.3565697    341.68636  0.017663687  0.016870443          843 
 1613000   0.60820334   -7.3477026    341.12535  0.017623753  0.016857601          765 
 1614000   0.60075026   -7.3548188    340.94072    0.0176033   0.01684477          762 
 1615000   0.60114902   -7.3164496    340.74873  0.017582494   0.01683194          731 
 1616000   0.60547498   -7.3444768    340.73186  0.017570744  0.016819136          855 
 1617000   0.61258089   -7.3530673    341.16973  0.017582443  0.016806352          806 
 1618000   0.59570746   -7.3475982    341.44581  0.017585796  0.016793569          841 
 1619000   0.61718679   -7.3574296    340.97302  0.017550598  0.016780806          866 
 1620000   0.60245567   -7.3284639    340.70334  0.017525892  0.016768045          765 
 1621000   0.60208027   -7.3580923    341.69838  0.017566234  0.016755298          750 
 1622000   0.60762755   -7.3458736    340.95911  0.017517422  0.016742567          757 
 1623000   0.60494598   -7.3639097    341.22259  0.017520157  0.016729836          720 
 1624000   0.59053303   -7.3559076    341.55521  0.017526437  0.016717128          687 
 1625000   0.60872656   -7.3144237    341.31076  0.017503116  0.016704423          724 
 1626000   0.60590066   -7.3407275    340.82455  0.017467433  0.016691696          759 
 1627000   0.59359891   -7.3892866    340.87654   0.01745936  0.016678969          729 
 1628000   0.60438225   -7.3583509    341.25587  0.017468052  0.016666256          710 
 1629000   0.61889203   -7.3589972    340.78629  0.017433307  0.016653565          718 
 1630000   0.60612459   -7.3683216    341.02464  0.017434797  0.016640864          772 
 1631000   0.60355889   -7.3620626    341.23139  0.017434671  0.016628188          811 
 1632000   0.60177023   -7.3651224    340.11886  0.017367181  0.016615519          806 
 1633000    0.6014067     -7.36655    341.00612  0.017401823  0.016602872          817 
 1634000   0.60501095   -7.3659228    341.17452  0.017399761  0.016590225          743 
 1635000   0.59948095   -7.3850584    341.00597  0.017380529  0.016577569          713 
 1636000   0.60236158    -7.347898      340.968   0.01736797  0.016564908          782 
 1637000   0.60267141   -7.3598099     340.6816  0.017342781  0.016552265          762 
 1638000   0.59725158   -7.3465249    340.44633  0.017320225  0.016539641          816 
 1639000   0.60380686   -7.3589346    340.15265  0.017294725  0.016527005          798 
 1640000   0.59317777   -7.3833066    340.90238  0.017322275  0.016514384          817 
 1641000   0.58768801   -7.3710508    340.83345  0.017308219  0.016501748          742 
 1642000   0.60162114   -7.3516422    340.28515  0.017269851  0.016489151          802 
 1643000   0.60392059   -7.3586372     340.4805  0.017269248  0.016476556          806 
 1644000   0.60432178   -7.3630484    341.39605  0.017305152  0.016463954          838 
 1645000   0.59216182   -7.3706517    341.15125  0.017282231  0.016451367          699 
 1646000   0.60810194   -7.3755575    340.79119  0.017253503  0.016438792          907 
 1647000   0.60063667   -7.3628359    341.19137  0.017263275  0.016426215          845 
 1648000    0.5929998   -7.3567546    340.37397  0.017211467  0.016413643          853 
 1649000   0.59708357   -7.3500867    340.59769  0.017212335  0.016401094          777 
 1650000   0.58851904   -7.3630896    340.66046  0.017205074   0.01638857          799 
 1651000   0.59223617   -7.3897799    341.30516  0.017227193  0.016376031          821 
 1652000   0.60258085    -7.373263    341.10866  0.017206853  0.016363485          732 
 1653000   0.59794752   -7.3835153      340.643  0.017172968  0.016350972          795 
 1654000   0.59748181   -7.3655741    340.34911  0.017147779  0.016338427          855 
 1655000   0.59421779   -7.3692062    340.43618  0.017141801  0.016325928          903 
 1656000   0.60730048   -7.3901702    341.09273  0.017164489  0.016313418          892 
 1657000   0.59986287   -7.3780771     340.4187  0.017120232  0.016300892          836 
 1658000   0.59913198   -7.3760455    340.86657  0.017132417  0.016288378          889 
 1659000    0.5884457   -7.3676895    340.51521  0.017104441    0.0162759          855 
 1660000   0.60487251   -7.3727864    340.74167  0.017105506  0.016263403          839 
 1661000   0.60055465   -7.3569412    340.97589  0.017106958  0.016250932          790 
 1662000   0.58499171   -7.3774552     341.0936  0.017102567  0.016238483          827 
 1663000   0.57995417   -7.3935289    340.43607  0.017059334  0.016226037          862 
 1664000   0.59365827   -7.3913242    340.43348  0.017048952  0.016213603          842 
 1665000   0.57308521   -7.3819862    340.30077  0.017032071  0.016201171          860 
 1666000   0.60456499   -7.4043362    340.47559  0.017030592  0.016188735          880 
 1667000   0.60258377   -7.3891828    340.68243  0.017030715  0.016176316          897 
 1668000    0.5943745   -7.3821169    340.07264   0.01699004   0.01616392          882 
 1669000   0.59228364   -7.3737854    341.19583  0.017035941  0.016151513          882 
 1670000   0.59663491   -7.3962237    340.74625  0.017003306  0.016139132          847 
 1671000   0.56987102   -7.4098294       340.69  0.016990325  0.016126734          897 
 1672000    0.5898166     -7.38936    340.82499  0.016986891  0.016114351          925 
 1673000   0.57719487   -7.4013292    341.09401  0.016990138  0.016102004          830 
 1674000    0.5892642   -7.3772289    341.16196  0.016983371  0.016089655          810 
 1675000   0.57204358    -7.399753     340.9385  0.016962114   0.01607732          869 
 1676000   0.59048741   -7.3998529    339.93284  0.016901991  0.016064979          823 
 1677000   0.59137029   -7.4033668    340.43844  0.016917036  0.016052636          895 
 1678000   0.57713212   -7.4001151    340.77629  0.016923733  0.016040296          822 
 1679000   0.56493571   -7.3906896    341.02081   0.01692579  0.016027978          891 
 1680000   0.59272715   -7.4060358    340.68918  0.016899265  0.016015678          922 
 1681000   0.56882022   -7.3836568    340.52443  0.016881045  0.016003371          889 
 1682000   0.58931253    -7.387297    339.83993  0.016837095  0.015991077          878 
 1683000   0.57549685    -7.380253    341.00844   0.01688495  0.015978792          929 
 1684000   0.58478737   -7.3941807    340.99766  0.016874389  0.015966524          909 
 1685000   0.58448351   -7.4077866    340.11373  0.016820659  0.015954258          889 
 1686000   0.57670073   -7.3891798    340.32356  0.016821054  0.015942002          954 
 1687000   0.59402253   -7.4034842    340.85427  0.016837299  0.015929741          947 
 1688000   0.57697596   -7.4113069    340.71199  0.016820299  0.015917507          957 
 1689000   0.57615903   -7.4062675      340.571  0.016803385  0.015905244          954 
 1690000   0.57494986   -7.3853574    340.63773  0.016796732  0.015893005          883 
 1691000    0.5790995   -7.4245998    340.39309  0.016774743  0.015880777          883 
 1692000     0.579023   -7.4071965    340.32396  0.016761424  0.015868558         1034 
 1693000   0.57493072   -7.4140337    340.44584  0.016757523  0.015856321          927 
 1694000   0.58594866   -7.4271805    340.15121  0.016733137  0.015844103          997 
 1695000   0.58018246   -7.4108687    340.64308  0.016747448  0.015831894          964 
 1696000    0.5730041   -7.4094046    339.91241  0.016701671   0.01581969          983 
 1697000   0.57812391   -7.4213638    340.60911  0.016726042  0.015807498          915 
 1698000   0.58550274   -7.4156451    339.75303  0.016674177  0.015795322         1006 
 1699000   0.59378289    -7.424494     339.5902  0.016656376  0.015783136          991 
 1700000   0.57735094   -7.4337744    339.76604  0.016655198  0.015770955          984 
 1701000   0.57165465   -7.4359603     340.1847  0.016665917  0.015758783          957 
 1702000   0.56125742   -7.4290055    340.28576  0.016661073  0.015746624          984 
 1703000   0.56835917   -7.4086958    340.11558  0.016642962  0.015734482          991 
 1704000   0.56451448   -7.4225012    340.07886  0.016631399  0.015722348         1019 
 1705000   0.56934058   -7.4054798    340.35133  0.016634962  0.015710225          999 
 1706000   0.57585747   -7.4325851    340.20473   0.01661805  0.015698104         1028 
 1707000   0.58033381   -7.4438614    339.56739  0.016577201  0.015685999         1093 
 1708000   0.56233312   -7.4173864    339.84729  0.016581152  0.015673908         1019 
 1709000   0.56360724   -7.4360713    339.98255  0.016578045  0.015661814         1054 
 1710000   0.56616264   -7.4550965    340.50997  0.016594053  0.015649726         1076 
 1711000   0.57401167   -7.4312059    340.57196  0.016587374  0.015637655         1002 
 1712000   0.55737084   -7.4420748    340.29121  0.016564019  0.015625608         1038 
 1713000   0.57943955    -7.432042    340.23738  0.016551731  0.015613577         1035 
 1714000   0.56909035   -7.4261391    339.92932  0.016527096  0.015601568         1059 
 1715000   0.56784501   -7.4123917    340.00639  0.016521205  0.015589547         1094 
 1716000   0.56640986   -7.4370171    340.25865  0.016523827  0.015577538         1043 
 1717000   0.56245588   -7.4343737    339.90913   0.01649724  0.015565535         1022 
 1718000    0.5612305   -7.4042876    340.37663  0.016510314  0.015553542         1027 
 1719000   0.56517945   -7.4133895    340.07598  0.016486134  0.015541563         1081 
 1720000   0.55505058   -7.4214167    340.05589  0.016475576  0.015529585         1039 
 1721000   0.57150769   -7.4231351    339.92176  0.016459508  0.015517602         1047 
 1722000   0.55940558   -7.4091171    339.80851  0.016444469  0.015505634         1082 
 1723000   0.55706436   -7.4353617     340.3674  0.016461956  0.015493658         1062 
 1724000   0.55567451   -7.4347327    339.66819  0.016418609  0.015481718         1103 
 1725000   0.57008688   -7.4505113    340.04063  0.016427083   0.01546978         1124 
 1726000   0.55354846   -7.4226105    340.32491  0.016431291  0.015457852         1050 
 1727000    0.5627072   -7.4355684    340.08878  0.016410383  0.015445943         1044 
 1728000   0.55220008   -7.4258054    340.24865  0.016408596  0.015434047         1068 
 1729000   0.56049289   -7.4180559    339.86542  0.016380635  0.015422139         1157 
 1730000   0.55523282   -7.4427963    339.78182   0.01636714  0.015410237         1097 
 1731000   0.55276146   -7.4371766    339.64028   0.01635087  0.015398326         1058 
 1732000   0.55480158   -7.4349766    339.53912  0.016336563  0.015386442         1160 
 1733000   0.55413326   -7.4531298    340.34841  0.016366051  0.015374575         1112 
 1734000   0.56536814   -7.4489278    340.10781  0.016345051  0.015362706         1107 
 1735000   0.56358227   -7.4505115    339.79619  0.016320662  0.015350867         1155 
 1736000   0.56666629   -7.4408548    339.65156  0.016304318  0.015338999         1192 
 1737000   0.54598265   -7.4430103    339.79098  0.016301621  0.015327147         1207 
 1738000   0.55065331   -7.4448613    339.76604  0.016291045  0.015315289         1187 
 1739000   0.56861802   -7.4731656    339.94631  0.016290316  0.015303449         1251 
 1740000   0.56565127   -7.4440132    339.87385  0.016277483  0.015291619         1226 
 1741000   0.56684457   -7.4447528     339.2161   0.01623665   0.01527979         1216 
 1742000   0.55392011   -7.4473266    339.63956  0.016247587  0.015267959         1168 
 1743000   0.55004189   -7.4509187    340.58973  0.016283693  0.015256143         1198 
 1744000   0.56655129   -7.4644019    339.66042  0.016229951  0.015244355         1164 
 1745000   0.55050593   -7.4497945    339.67667  0.016221426  0.015232552         1145 
 1746000   0.56804888   -7.4546174    339.81225  0.016218607  0.015220755         1225 
 1747000   0.55818941   -7.4737215    339.44514  0.016191811  0.015208969         1201 
 1748000   0.56329909   -7.4630294    339.88699  0.016203613  0.015197192         1229 
 1749000   0.55936258   -7.4504996    339.30676  0.016166703  0.015185404         1219 
 1750000   0.55378158    -7.463401    339.67571  0.016175034  0.015173618         1170 
 1751000   0.54923795   -7.4516378    339.91237  0.016177059  0.015161853         1238 
 1752000   0.54954477   -7.4706638     339.4364  0.016145187  0.015150119         1280 
 1753000   0.55374079   -7.4767051    339.16144  0.016122906   0.01513838         1235 
 1754000   0.54534941   -7.4424307    339.27872  0.016119285  0.015126646         1194 
 1755000   0.55713789   -7.4432541    339.46562  0.016118975  0.015114926         1206 
 1756000   0.55260968   -7.4519379    339.77681  0.016124564  0.015103214         1226 
 1757000   0.56832741   -7.4459543    339.45931  0.016100327  0.015091524         1270 
 1758000   0.54974119   -7.4644124    339.37325   0.01608709  0.015079809         1260 
 1759000   0.54667587   -7.4717726     339.6177  0.016089525  0.015068114         1238 
 1760000   0.55733339    -7.470157    339.27221  0.016064025  0.015056459         1207 
 1761000   0.54646684   -7.4679552    339.19299  0.016051154  0.015044795         1246 
 1762000   0.55422062   -7.4536076    339.86404  0.016073782  0.015033146         1276 
 1763000   0.54958483   -7.4498036    339.34904  0.016040321  0.015021514         1207 
 1764000   0.55049472   -7.4640103    339.30089  0.016028954  0.015009871         1204 
 1765000   0.56180449   -7.4802767    339.34769  0.016022082  0.014998253         1217 
 1766000   0.54637285   -7.4747673     339.0237  0.015997721  0.014986644         1220 
 1767000   0.54769546   -7.4909713    339.44454  0.016008514  0.014975015         1263 
 1768000   0.54846432   -7.4703913    339.84409  0.016018292  0.014963406         1278 
 1769000    0.5344006    -7.480727    339.64758   0.01599998  0.014951825         1252 
 1770000    0.5365069   -7.4859925     339.6101  0.015989176  0.014940232         1244 
 1771000   0.55338124   -7.4654261    339.67417  0.015983163  0.014928652         1218 
 1772000   0.54239391   -7.4627287    338.98136  0.015941561  0.014917079         1322 
 1773000   0.54257203   -7.4728946    339.42462  0.015953404  0.014905514         1269 
 1774000   0.55785144   -7.4890428    338.93696  0.015921503  0.014893949         1317 
 1775000   0.55279981   -7.4538857    338.69719  0.015901276  0.014882393         1272 
 1776000   0.53614587    -7.478388    339.38759  0.015924718  0.014870866         1304 
 1777000   0.56278972   -7.4645821    339.19202  0.015906585  0.014859333         1289 
 1778000   0.54056333   -7.4746982     338.8809  0.015883057  0.014847824         1318 
 1779000    0.5379749   -7.4643243    339.43477  0.015900073  0.014836316         1315 
 1780000   0.55711591   -7.4699914    339.56196  0.015897096  0.014824817         1330 
 1781000   0.55954718    -7.487289    339.11796  0.015867395  0.014813313         1277 
 1782000   0.54506802   -7.4935075    339.60421   0.01588123  0.014801832         1349 
 1783000   0.53089189   -7.4772496    339.62329  0.015873214  0.014790358         1295 
 1784000   0.52378875   -7.4836855    338.95173  0.015832947   0.01477889         1297 
 1785000   0.55708519   -7.4801563    338.68271  0.015811518  0.014767434         1311 
 1786000   0.53356328    -7.477639    339.05995  0.015820267  0.014755977         1346 
 1787000   0.53995292   -7.4964655     339.5029   0.01583207  0.014744541         1279 
 1788000   0.53435814   -7.4903962    339.52381  0.015824189  0.014733098         1212 
 1789000   0.53670643   -7.4666834    338.65147   0.01577471  0.014721664         1315 
 1790000   0.54317368   -7.4802452     339.0806  0.015785875  0.014710237         1289 
 1791000   0.53819048   -7.4885711    339.06957  0.015776548  0.014698823         1279 
 1792000   0.54490812   -7.4854616    339.09622  0.015768983  0.014687413         1279 
 1793000   0.52955389   -7.4913744    338.80584  0.015746692  0.014676019         1360 
 1794000   0.53636541   -7.5121941     338.8098  0.015738099  0.014664626         1316 
 1795000   0.53365886   -7.4900695    339.25786  0.015750133  0.014653248         1252 
 1796000    0.5414375   -7.4806338    338.89095  0.015724339  0.014641875         1255 
 1797000   0.53767299   -7.4926376     338.8664   0.01571445  0.014630506         1334 
 1798000   0.53485327   -7.4927066    339.66879  0.015742899  0.014619152         1298 
 1799000     0.532083   -7.4878349    339.09378  0.015707513  0.014607805         1330 
 1800000   0.55454704   -7.5104523    338.91567   0.01569054  0.014596471         1325 
 1801000   0.53111001   -7.4919535    339.09424  0.015690091  0.014585144         1280 
 1802000     0.535912   -7.5027715    339.00965  0.015677472  0.014573834         1332 
 1803000   0.53341024    -7.490257    338.90316  0.015663855  0.014562524         1398 
 1804000   0.53306801   -7.4995717    339.24185  0.015670817  0.014551236         1314 
 1805000   0.53394594   -7.4930123    338.68001  0.015636196   0.01453993         1392 
 1806000   0.54973325   -7.5021111    338.48394  0.015618491  0.014528639         1373 
 1807000   0.53548609   -7.4869228    338.66359  0.015618133   0.01451736         1341 
 1808000   0.53080044   -7.5034401    339.07635  0.015628519  0.014506078         1393 
 1809000   0.52619843   -7.4885948    339.03329  0.015617896  0.014494806         1404 
 1810000   0.52878811   -7.4934107    338.68864  0.015593399  0.014483538         1453 
 1811000   0.52699875   -7.4976578    339.31528  0.015613624   0.01447229         1359 
 1812000   0.53271987   -7.5027361    339.18052   0.01559881   0.01446105         1374 
 1813000   0.52266589   -7.5103567    339.19949  0.015591078  0.014449806         1410 
 1814000   0.51942491   -7.4989627    338.44384  0.015547769   0.01443857         1339 
 1815000   0.53234032   -7.5075194    338.77297  0.015554315  0.014427362         1390 
 1816000    0.5222551   -7.5108577    338.62507  0.015538963  0.014416155         1409 
 1817000   0.52069951   -7.5113245    338.93785  0.015544756  0.014404936         1404 
 1818000   0.52465457   -7.4893218    338.92001  0.015535387  0.014393743         1369 
 1819000   0.51839615   -7.5132628    338.53233  0.015509086  0.014382564         1431 
 1820000   0.52649186   -7.5110483    338.33028  0.015491313  0.014371391         1438 
 1821000   0.54079394   -7.5235103    339.04731  0.015515619  0.014360237         1442 
 1822000    0.5146874   -7.5086081    338.38794  0.015476946  0.014349086         1492 
 1823000   0.53556034   -7.5134362     339.1429  0.015502967  0.014337937         1408 
 1824000   0.51935912    -7.521398    338.65174  0.015472027  0.014326789         1375 
 1825000    0.5302325   -7.5163155    338.94102  0.015476759   0.01431566         1406 
 1826000   0.52562746   -7.4976728    339.25286  0.015482514  0.014304544         1445 
 1827000   0.53282427   -7.5340676     339.2361  0.015473276  0.014293423         1494 
 1828000   0.52386812   -7.5116912    338.77291  0.015443696  0.014282315         1498 
 1829000   0.51788783   -7.5258216    338.19603  0.015408968  0.014271212         1440 
 1830000   0.52496708   -7.5116545    338.95919    0.0154353  0.014260119         1460 
 1831000   0.52254849   -7.5091659    338.28008  0.015395962  0.014249045         1468 
 1832000   0.52242146   -7.5241303    338.84108  0.015413077  0.014237983         1423 
 1833000   0.51867761   -7.5173762    338.28757  0.015379504  0.014226924         1482 
 1834000   0.52570426   -7.5249583    338.61499  0.015385995  0.014215894         1485 
 1835000   0.51486298   -7.5229506    338.84074  0.015387863  0.014204863         1447 
 1836000   0.52701478   -7.5145139     338.7224   0.01537411  0.014193833         1453 
 1837000    0.5189622   -7.5239258    338.60791  0.015360548  0.014182816         1463 
 1838000   0.52367207   -7.5174199    338.36545  0.015341197  0.014171798         1434 
 1839000   0.51676733    -7.513632    337.82354  0.015308299  0.014160796         1367 
 1840000    0.5187766   -7.5256211    338.06771  0.015311037  0.014149807         1478 
 1841000   0.51750045   -7.5266816    338.37953  0.015316836  0.014138836         1445 
 1842000   0.53340347   -7.5236119    338.11836  0.015296705   0.01412787         1457 
 1843000    0.5214668   -7.5340704    338.56038  0.015308391  0.014116905         1434 
 1844000   0.51942434   -7.5205018    337.72072  0.015262144  0.014105942         1458 
 1845000   0.51218062   -7.5291185    337.89483  0.015261736  0.014094989         1519 
 1846000   0.51910473   -7.5161071    338.02649  0.015259412  0.014084059         1543 
 1847000   0.51312109   -7.5092312    338.05365  0.015252375  0.014073148         1447 
 1848000   0.52035374   -7.5260953    338.86588  0.015280749  0.014062229         1509 
 1849000    0.5186949   -7.5238006    338.93675  0.015275678  0.014051318         1468 
 1850000   0.50166087   -7.5364808    338.15211  0.015232077  0.014040422         1556 
 1851000   0.52921739   -7.5422731    338.40416  0.015235196  0.014029519         1535 
 1852000   0.52071509   -7.5243363    338.05153  0.015211102  0.014018643         1397 
 1853000     0.519643   -7.5204356    338.20951  0.015209998  0.014007774         1539 
 1854000   0.52705507   -7.5205654    338.68507  0.015223169   0.01399692         1421 
 1855000   0.51364179   -7.5306565    338.00589  0.015184451  0.013986065         1500 
 1856000   0.51591297   -7.5258925    337.99588  0.015175821  0.013975216         1451 
 1857000   0.51637353   -7.5256552    339.00435  0.015212904   0.01396438         1471 
 1858000   0.51072086   -7.5311078    338.03259  0.015161131  0.013953564         1476 
 1859000   0.51358717   -7.5078915    337.95767  0.015149617  0.013942758         1464 
 1860000   0.51982988   -7.5319439    338.48809  0.015165237  0.013931953         1463 
 1861000   0.49296698   -7.5433657    338.23354   0.01514569   0.01392115         1466 
 1862000   0.51612137   -7.5363944    338.45202  0.015147334  0.013910359         1532 
 1863000   0.50590578   -7.5204168     338.2159  0.015128641  0.013899562         1530 
 1864000    0.5013267   -7.5404838    338.17022  0.015118482  0.013888785         1518 
 1865000   0.50705209   -7.5284473    338.77332  0.015137324  0.013878015         1523 
 1866000   0.50587714   -7.5376886    337.97412  0.015093521   0.01386725         1497 
 1867000   0.51068751   -7.5415723    338.66171  0.015116127  0.013856511         1533 
 1868000   0.50435191   -7.5267013    337.76793  0.015068162  0.013845769         1547 
 1869000   0.51051001   -7.5507216    338.26096  0.015082083  0.013835042         1506 
 1870000   0.51819604   -7.5367713    338.07911  0.015065914  0.013824323         1549 
 1871000   0.50425713   -7.5636856    338.38049  0.015071285   0.01381362         1515 
 1872000   0.49325396   -7.5365347    337.96707   0.01504483  0.013802917         1593 
 1873000   0.50159963   -7.5374741    338.44194  0.015057926  0.013792225         1568 
 1874000   0.49727639   -7.5317341    338.25874  0.015041744  0.013781548         1563 
 1875000   0.50674338   -7.5427649    337.09609  0.014982049  0.013770873         1605 
 1876000   0.51627047   -7.5278158    338.03403  0.015015726    0.0137602         1565 
 1877000   0.49648937   -7.5591332    338.09119  0.015010264  0.013749538         1577 
 1878000     0.513848   -7.5451145    338.25732  0.015009643  0.013738895         1538 
 1879000   0.49460371   -7.5566053    337.87798  0.014984832  0.013728266         1537 
 1880000    0.5048558   -7.5442435    338.27965  0.014994665  0.013717656         1583 
 1881000   0.50068995   -7.5542482    338.21854  0.014983986  0.013707043         1523 
 1882000   0.50011928   -7.5627756    338.27267  0.014978422  0.013696444         1552 
 1883000   0.50206856   -7.5474665     337.9207   0.01495489  0.013685841         1483 
 1884000   0.50618025   -7.5521402    337.93055  0.014947388  0.013675256         1588 
 1885000   0.49420664   -7.5487292    337.98675  0.014941943  0.013664669         1587 
 1886000   0.49689139   -7.5581347    337.89936  0.014930159  0.013654096         1517 
 1887000   0.49748062   -7.5509932    337.62903  0.014910308   0.01364353         1601 
 1888000   0.51085914   -7.5696407    338.34101  0.014933837  0.013632989         1591 
 1889000   0.49415973   -7.5567172    337.95983  0.014909116  0.013622448         1591 
 1890000   0.49724075   -7.5492283    338.02419  0.014904065  0.013611908         1652 
 1891000   0.49720198   -7.5407954    337.60083  0.014877526  0.013601387         1600 
 1892000   0.50215338    -7.570613    337.79174  0.014878072  0.013590868         1577 
 1893000   0.50096592   -7.5424347    337.84591  0.014872597   0.01358036         1503 
 1894000   0.50454321   -7.5382027    337.65574  0.014856377  0.013569866         1541 
 1895000   0.50050533   -7.5626963    337.62522  0.014847195  0.013559381         1551 
 1896000   0.49743612   -7.5548837    337.93438  0.014852953  0.013548887         1559 
 1897000   0.49432238   -7.5643575    338.11253  0.014852949    0.0135384         1546 
 1898000   0.49450551   -7.5677164     338.1866  0.014848376  0.013527933         1521 
 1899000   0.49906163   -7.5469079     338.1072  0.014837072  0.013517473         1595 
 1900000   0.49773324   -7.5426613     338.3083  0.014838083  0.013507035         1610 
 1901000   0.50521987    -7.560778      337.832  0.014809398  0.013496601         1592 
 1902000   0.48808484   -7.5668832    338.25253  0.014820037  0.013486169         1582 
 1903000   0.49522019   -7.5685163    337.51591  0.014779993  0.013475753         1576 
 1904000   0.49698002   -7.5619687    337.57234    0.0147747  0.013465338         1585 
 1905000   0.48926221   -7.5651024    337.77966  0.014776013  0.013454936         1540 
 1906000   0.48950369   -7.5536827    337.62203  0.014761369  0.013444546         1641 
 1907000   0.48816167   -7.5633734    338.00899  0.014770538   0.01343416         1535 
 1908000   0.48985285   -7.5631953    337.43816  0.014737865   0.01342379         1560 
 1909000   0.49369473   -7.5694038    337.10989  0.014715815  0.013413424         1653 
 1910000   0.48970968   -7.5516521    337.53395  0.014726612  0.013403069         1539 
 1911000   0.49092339   -7.5661608    337.75253  0.014728437  0.013392723         1584 
 1912000   0.49816837   -7.5708959    337.45356  0.014707704  0.013382392         1607 
 1913000   0.49278191   -7.5612052    337.48391  0.014701338  0.013372064         1619 
 1914000    0.4839607   -7.5872459     337.5212   0.01469528  0.013361753         1609 
 1915000   0.48102856   -7.5729934    338.09524  0.014712587  0.013351441         1594 
 1916000   0.48085209   -7.5899313    337.92733  0.014697605  0.013341132         1549 
 1917000   0.49220929   -7.5562037      337.341   0.01466445  0.013330842         1630 
 1918000   0.48838262   -7.5766386    337.57758  0.014667083  0.013320559         1669 
 1919000   0.48775252   -7.5721442    337.17322   0.01464188   0.01331029         1585 
 1920000   0.49257116   -7.5829264    337.75883  0.014659671  0.013300031         1615 
 1921000   0.48120224   -7.5880883    337.41709  0.014637215   0.01328978         1608 
 1922000   0.49531014   -7.5639026    337.80176  0.014646278  0.013279545         1565 
 1923000   0.49012123    -7.568546    337.97212  0.014646044  0.013269312         1544 
 1924000   0.48524521   -7.5567287    337.79151   0.01463061  0.013259084         1594 
 1925000   0.48624922   -7.5732689    337.16268  0.014595787   0.01324886         1573 
 1926000   0.48267041   -7.5744884    337.24231  0.014591654  0.013238648         1601 
 1927000   0.47404451   -7.5691622    336.68403  0.014559939  0.013228445         1547 
 1928000   0.48494143   -7.5771897    337.56535   0.01459048   0.01321825         1628 
 1929000   0.48349206   -7.5782029     337.4033  0.014575916  0.013208071         1589 
 1930000   0.47785056   -7.5897641    337.37901  0.014567315  0.013197894         1600 
 1931000    0.4856996   -7.5854372    337.35577  0.014558768   0.01318772         1579 
 1932000   0.47833514   -7.5818677    337.91222  0.014575234  0.013177572         1627 
 1933000   0.47276551   -7.5762341    337.61858  0.014555034  0.013167448         1600 
 1934000   0.47295042   -7.5685683    337.25712  0.014531934  0.013157311         1552 
 1935000   0.48362552   -7.5820849    337.61325  0.014539761  0.013147187         1532 
 1936000   0.47813372   -7.5825867    338.27079  0.014560554  0.013137067         1547 
 1937000   0.46917143   -7.5876297    337.29119  0.014510893  0.013126956         1602 
 1938000   0.47762506    -7.584334    337.39579  0.014507903  0.013116849         1606 
 1939000   0.47850287   -7.6008079    337.40021  0.014500611  0.013106743         1604 
 1940000    0.4820868   -7.5934553    337.24396  0.014486425  0.013096644         1614 
 1941000   0.47325947   -7.5885696    337.27799  0.014480422   0.01308656         1567 
 1942000   0.47346517   -7.5961608    337.14944   0.01446745  0.013076484         1570 
 1943000   0.47407187   -7.5813181      337.035  0.014455095   0.01306642         1556 
 1944000   0.48030051   -7.6023216    337.09809  0.014450364   0.01305636         1529 
 1945000   0.47026217   -7.5806254       336.83  0.014431448  0.013046306         1573 
 1946000   0.46936006   -7.5863683    336.99368  0.014431042  0.013036266         1552 
 1947000    0.4740512   -7.5966334    337.42853  0.014442242  0.013026222         1582 
 1948000   0.47271776   -7.5950911    336.97791   0.01441555  0.013016195         1502 
 1949000   0.47511286   -7.6124719    337.28831  0.014421426   0.01300618         1545 
 1950000   0.46569771   -7.6054113    337.58234  0.014426596  0.012996172         1525 
 1951000   0.47337932   -7.6119815    336.56269  0.014375649  0.012986171         1535 
 1952000   0.48006465   -7.6044735    337.51602  0.014408983  0.012976177         1576 
 1953000   0.47820285   -7.6008748    337.39583  0.014396477  0.012966193         1546 
 1954000   0.46672292   -7.6031656    336.92207  0.014368904  0.012956217         1526 
 1955000   0.47156684   -7.5963708    337.35231  0.014379894  0.012946249         1549 
 1956000   0.47745997   -7.6116734    337.59869  0.014383039  0.012936299         1551 
 1957000   0.47235764   -7.6011609    336.78965  0.014341239  0.012926352         1540 
 1958000   0.46750649   -7.5917986    337.21024  0.014351815  0.012916412         1572 
 1959000    0.4691667   -7.5908754    337.22132   0.01434496   0.01290649         1584 
 1960000   0.48342008   -7.5927465    337.40982  0.014345656  0.012896581         1532 
 1961000   0.46510435    -7.593682     337.3876  0.014337396  0.012886667         1607 
 1962000   0.47317565   -7.5931449    337.20454  0.014322313  0.012876764         1528 
 1963000   0.47029632   -7.5969047     336.8561  0.014300225  0.012866864         1598 
 1964000   0.47915533    -7.600037    337.07822  0.014302368  0.012856987         1522 
 1965000   0.45554892   -7.6133753    337.39296  0.014308438  0.012847128         1533 
 1966000   0.47812039   -7.6018842    336.73872  0.014273428  0.012837261         1572 
 1967000   0.45878889    -7.617406     337.1189  0.014282278  0.012827412         1568 
 1968000   0.47689476    -7.601096    337.05194  0.014272186  0.012817578         1563 
 1969000   0.47288062   -7.6025003    337.24489  0.014273103  0.012807739         1599 
 1970000   0.46317178   -7.6046169    336.84314  0.014248864  0.012797912         1585 
 1971000   0.46736976   -7.6115832    337.09848   0.01425243  0.012788097         1578 
 1972000   0.45790076   -7.5872771    337.42958  0.014259195  0.012778299         1576 
 1973000   0.46502415   -7.6086734    337.20134  0.014242327  0.012768506         1590 
 1974000    0.4620895   -7.6007079    337.45869  0.014245977  0.012758712         1568 
 1975000   0.45878741   -7.5839103    337.26213   0.01423047  0.012748941         1590 
 1976000   0.46361833   -7.5922372    336.88014  0.014207158  0.012739177         1553 
 1977000   0.46122568   -7.6045208    337.11892  0.014210037  0.012729414         1536 
 1978000   0.46851005   -7.6084545    336.84771  0.014191427  0.012719669         1578 
 1979000   0.45754345    -7.627926    337.58504  0.014215304  0.012709924         1591 
 1980000   0.46401434   -7.6218293    336.90859  0.014179654  0.012700186         1590 
 1981000   0.45345933   -7.6221598     337.1327  0.014181924  0.012690455         1570 
 1982000   0.45893827   -7.6025529    336.73003  0.014157839   0.01268073         1566 
 1983000   0.46413969   -7.6200007     336.8474  0.014155631  0.012671029         1617 
 1984000   0.47112232   -7.6164457     337.1237  0.014160102  0.012661326         1618 
 1985000   0.45441049   -7.6028524    336.84272  0.014141172  0.012651625         1579 
 1986000   0.45265209   -7.6079406    337.12977  0.014146097  0.012641931         1624 
 1987000   0.45194471   -7.5985504    336.76929  0.014123859  0.012632248         1572 
 1988000   0.45355215   -7.6097214    337.07005  0.014129362  0.012622577         1597 
 1989000    0.4503037   -7.6216829    337.63322  0.014145853  0.012612917         1541 
 1990000   0.46314998   -7.6230682    337.15702  0.014118803  0.012603261         1587 
 1991000   0.47322679   -7.6251801    336.96816  0.014103807  0.012593617         1585 
 1992000   0.45515968   -7.6048824    336.71742  0.014086237  0.012583981         1642 
 1993000   0.45173369   -7.6254732    336.63676  0.014075797  0.012574355         1590 
 1994000   0.45638848   -7.6346902      337.315  0.014097083  0.012564732         1608 
 1995000   0.45152619   -7.6083408    336.57104  0.014058941  0.012555124         1627 
 1996000    0.4608535   -7.6054446    336.87377  0.014064536  0.012545525         1615 
 1997000   0.45077986   -7.6178875    336.70322  0.014050377  0.012535937         1610 
 1998000   0.46416941   -7.6083565    336.83619   0.01404889  0.012526357         1600 
 1999000   0.45856438   -7.6274776    337.08069  0.014052055  0.012516784         1635 
 2000000   0.45994449   -7.6293127    336.94512   0.01403938  0.012507214         1636 
 2001000   0.45526152   -7.6246957    336.56377  0.014016482  0.012497649         1611 
 2002000   0.44859858   -7.6488593    336.82189  0.014020225  0.012488105         1601 
 2003000   0.45410862   -7.6241191    336.64636  0.014005923  0.012478569         1593 
 2004000   0.46401987   -7.6314068    336.71615  0.014001836  0.012469042         1609 
 2005000   0.46096288   -7.6195349    336.40912  0.013982092  0.012459516         1629 
 2006000   0.44999347   -7.6154396    336.37012  0.013973501  0.012449997         1664 
 2007000   0.45276132   -7.6176211    336.59609  0.013975922  0.012440489         1608 
 2008000   0.45216728   -7.6354605    336.46785  0.013963639  0.012430982         1661 
 2009000   0.44614192    -7.629567    336.73856  0.013967918  0.012421492         1619 
 2010000    0.4578287   -7.6269154    336.91432  0.013968255  0.012412011         1621 
 2011000   0.43847355    -7.633004    336.55125  0.013946264  0.012402545         1606 
 2012000    0.4531487   -7.6201826    336.28327  0.013928234   0.01239308         1592 
Loop time of 4277.45 on 48 procs for 2000000 steps with 4000 atoms

Performance: 80795.778 tau/day, 467.568 timesteps/s
99.4% CPU use with 48 MPI tasks x no OpenMP threads

MPI task timing breakdown:
Section |  min time  |  avg time  |  max time  |%varavg| %total
---------------------------------------------------------------
Pair    | 266.72     | 278.57     | 288.02     |  26.7 |  6.51
Neigh   | 26.863     | 27.286     | 27.721     |   3.8 |  0.64
Comm    | 231.76     | 246.08     | 257.9      |  37.5 |  5.75
Output  | 4.3251     | 4.3268     | 4.3593     |   0.2 |  0.10
Modify  | 3658.2     | 3673.2     | 3688.5     |  12.1 | 85.87
Other   |            | 47.96      |            |       |  1.12

Nlocal:        83.3333 ave          92 max          78 min
Histogram: 6 8 5 5 8 8 4 2 0 2
Nghost:        1776.85 ave        1794 max        1762 min
Histogram: 4 3 7 7 5 8 3 6 4 1
Neighs:        10815.1 ave       12308 max       10122 min
Histogram: 11 7 4 10 7 5 1 2 0 1
FullNghs:      21630.0 ave       24068 max       20061 min
Histogram: 4 9 4 9 7 7 2 4 1 1

Total # of neighbors = 1038242
Ave neighs/atom = 259.56050
Neighbor list builds = 107965
Dangerous builds = 1

#clear
#
#next RN
#
#jump SELF
Total wall time: 1:11:20
