
units lj                  # Use reduced LJ style units
atom_style atomic         # Uncharged point particles
atom_modify map hash      # Needed for indexing of clusters etc
                          # Used to be able to find where atoms are in relation to each other.

lattice fcc 1.0 spacing 1 1 1
Lattice spacing in x,y,z = 1.5874011 1.5874011 1.5874011
region box block 0 10 0 10 0 10 units lattice
create_box 2 box
Created orthogonal box = (0.0000000 0.0000000 0.0000000) to (15.874011 15.874011 15.874011)
  3 by 4 by 4 MPI processor grid
create_atoms 1 box
Created 4000 atoms
  using lattice units in orthogonal box = (0.0000000 0.0000000 0.0000000) to (15.874011 15.874011 15.874011)
  create_atoms CPU = 0.003 seconds
set type 1 type/fraction 2 0.2 78393
Setting atom values ...
  836 settings made for type/fraction
mass 1 1.0
mass 2 1.0
pair_style lj/cut  3.5
pair_modify tail  yes
pair_coeff 1  1  1.0  1.0   # Intearaction between 1 and 1 set with epsilon = 1 and sigma = 1
pair_coeff 1  2  1.5  0.8
pair_coeff 2  2  0.5  0.88

write_data data.0
System init for write_data ...
Neighbor list info ...
  update every 1 steps, delay 10 steps, check yes
  max neighbors/atom: 2000, page size: 100000
  master list distance cutoff = 3.8
  ghost atom cutoff = 3.8
  binsize = 1.9, bins = 9 9 9
  1 neighbor lists, perpetual/occasional/extra = 1 0 0
  (1) pair lj/cut, perpetual
      attributes: half, newton on
      pair build: half/bin/atomonly/newton
      stencil: half/bin/3d
      bin: standard
WARNING: Not all mixed pair coeffs generated from mixing. Use write_data with 'pair ij' option to store all pair coeffs. (../write_data.cpp:312)


#############################
#   M E L T   S Y S T E M   #
#############################

velocity all create 2.4 5300450 mom yes dist gaussian # Assign velocities
                                                    # Temperature 2.4, random number seed, zero linear momentum
                                                                                # Gaussian distribution

timestep 0.002   # simulation timestep
thermo 1000       # output thermodynamic data every 1000 steps bf 100

# Define a fix  in this case with index 1 applied to all
# particles in the simulation. This fix is for simulations
# in the anisotropic NPT ensemble. Note that we use the MTK
# correction.
fix 1 all npt temp 2.4 2.4 0.1 iso 5.68 5.68 0.5 mtk yes tchain 5 pchain 5 # Use NPT ensemble
                                                                         # Set temperature and pressure and damping
                                                                         # Numbers of thermostats in chain and in barostat
run 10000          # run for 10000 steps
Per MPI rank memory allocation (min/avg/max) = 3.642 | 3.644 | 3.648 Mbytes
Step Temp E_pair E_mol TotEng Press Volume 
       0          2.4   -7.0365901            0   -3.4374901   -3.6176696         4000 
    1000    2.3642879   -4.8030396            0   -1.2574944    5.6642492    4486.8531 
    2000    2.3953812   -4.7895843            0   -1.1974107    5.6896044    4496.0984 
    3000    2.3809997   -4.7999978            0   -1.2293911    5.2499463    4532.9279 
    4000    2.4389265   -4.8429874            0   -1.1855122    5.8067324    4453.5894 
    5000    2.4366038   -4.8412642            0   -1.1872723     5.668965    4466.5997 
    6000    2.4046271   -4.8361195            0   -1.2300806    5.8547217    4461.7038 
    7000    2.3772278   -4.8230264            0   -1.2580763    5.4477774     4499.533 
    8000    2.3611537   -4.9029919            0   -1.3621468    5.4780317    4452.8701 
    9000    2.3989221   -4.8158926            0   -1.2184091    5.5405279    4481.2693 
   10000    2.3395356   -4.8774491            0    -1.369023    5.2490134    4498.0317 
Loop time of 2.25242 on 48 procs for 10000 steps with 4000 atoms

Performance: 767173.886 tau/day, 4439.664 timesteps/s
99.7% CPU use with 48 MPI tasks x no OpenMP threads

MPI task timing breakdown:
Section |  min time  |  avg time  |  max time  |%varavg| %total
---------------------------------------------------------------
Pair    | 0.95245    | 1.0278     | 1.1126     |   3.2 | 45.63
Neigh   | 0.19733    | 0.20435    | 0.22392    |   1.0 |  9.07
Comm    | 0.655      | 0.77581    | 0.84455    |   4.2 | 34.44
Output  | 0.00023685 | 0.00024113 | 0.00030678 |   0.0 |  0.01
Modify  | 0.19938    | 0.22973    | 0.26092    |   3.6 | 10.20
Other   |            | 0.01453    |            |       |  0.65

Nlocal:        83.3333 ave          95 max          74 min
Histogram: 3 5 4 7 9 12 4 1 1 2
Nghost:        1515.31 ave        1545 max        1484 min
Histogram: 2 4 5 6 8 6 4 7 1 5
Neighs:        8473.94 ave        9707 max        7111 min
Histogram: 1 3 6 6 3 13 5 5 4 2

Total # of neighbors = 406749
Ave neighs/atom = 101.68725
Neighbor list builds = 910
Dangerous builds = 232

# Equilibrate just above the melting temperature to avoid step fn in T

fix 1 all npt temp 1.25 1.25 0.1 iso 5.68 5.68 0.5 mtk yes tchain 5 pchain 5
run 2000
Per MPI rank memory allocation (min/avg/max) = 3.642 | 3.645 | 3.649 Mbytes
Step Temp E_pair E_mol TotEng Press Volume 
   10000    2.3395356   -4.8774491            0    -1.369023    5.2490134    4498.0317 
   11000    1.2574647   -6.5367402            0   -4.6510146    5.5519207    3656.1016 
   12000     1.246867   -6.5268057            0   -4.6569728    5.7030843    3651.1731 
Loop time of 0.513647 on 48 procs for 2000 steps with 4000 atoms

Performance: 672835.630 tau/day, 3893.725 timesteps/s
99.6% CPU use with 48 MPI tasks x no OpenMP threads

MPI task timing breakdown:
Section |  min time  |  avg time  |  max time  |%varavg| %total
---------------------------------------------------------------
Pair    | 0.21814    | 0.24349    | 0.29031    |   2.4 | 47.40
Neigh   | 0.032117   | 0.034422   | 0.041081   |   0.8 |  6.70
Comm    | 0.13629    | 0.17875    | 0.20459    |   3.2 | 34.80
Output  | 4.9749e-05 | 5.135e-05  | 6.4917e-05 |   0.0 |  0.01
Modify  | 0.037866   | 0.0525     | 0.068234   |   4.5 | 10.22
Other   |            | 0.00444    |            |       |  0.86

Nlocal:        83.3333 ave          90 max          72 min
Histogram: 1 0 2 5 3 8 10 7 8 4
Nghost:        1744.67 ave        1775 max        1709 min
Histogram: 2 3 4 4 7 8 6 6 4 4
Neighs:        10452.8 ave       11465 max        8866 min
Histogram: 1 2 2 1 9 5 11 8 4 5

Total # of neighbors = 501734
Ave neighs/atom = 125.43350
Neighbor list builds = 143
Dangerous builds = 10

#############################
# L I N E A R  Q U E N C H  #
#############################

# Define solid atoms. This closely follows ten Wolde  Ruiz-Montero and Frenkel  Faraday Discuss  1996  104  93-110
# Compute components of the per-atom q6 vector
compute q6 all orientorder/atom degrees 1 6 components 6 nnn NULL cutoff 1.3 # compute the Q6 parameter.
                                                                             # Use all neighbours within 1.3 unit cell.

# get number of connections
compute coord_number all coord/atom orientorder q6 0.5

# An atom is solid if it has 8 or more connections (of a possible 14)
variable is_solid atom c_coord_number>=8
group solid dynamic all var is_solid    # Must be dynamic to update
dynamic group solid defined

# do clustering
compute cluster solid cluster/atom 1.3 # Create a cluster where all atoms within are solid and max 1.3 units from another member

# define chunks one chunk per cluster
compute clus_chunks solid chunk/atom c_cluster nchunk every compress yes  # Says which atoms are in which chunk

# count the size of each chunk
compute size_chunks solid property/chunk clus_chunks count


# Find the maximum entry in the vector of chunk sizes
variable max_n equal max(c_size_chunks)


# Thermo style which includes this variable
# thermo_style custom step temp pe vol v_max_n

thermo ${N}  # Print the thermo information every 100 steps
thermo 1000  

# Reset the npt fix at a lower temperature (below freezing)
fix 1  all npt temp  ${temp} ${temp}  0.1  iso  5.68  5.68  0.5  mtk yes tchain  5  pchain  5
fix 1  all npt temp  0.45 ${temp}  0.1  iso  5.68  5.68  0.5  mtk yes tchain  5  pchain  5
fix 1  all npt temp  0.45 0.45  0.1  iso  5.68  5.68  0.5  mtk yes tchain  5  pchain  5

dump dmp2 all dcd ${N} traj.dcd
dump dmp2 all dcd 1000 traj.dcd


compute msd all msd com yes
variable twopoint equal c_msd[4]/6/(step*dt+1.0e-6)
fix 9 all vector 10 c_msd[4]
variable fit equal slope(f_9)/6/(10*dt)
thermo_style custom step temp pe c_msd[4] v_twopoint v_fit v_max_n

fix 1 all npt temp 1.25 ${temp} 0.1 iso 5.68 5.68 0.5 mtk yes tchain 5 pchain 5
fix 1 all npt temp 1.25 0.45 0.1 iso 5.68 5.68 0.5 mtk yes tchain 5 pchain 5
run 5000000 # 5000000  # Run for this many steps
Neighbor list info ...
  update every 1 steps, delay 10 steps, check yes
  max neighbors/atom: 2000, page size: 100000
  master list distance cutoff = 3.8
  ghost atom cutoff = 3.8
  binsize = 1.9, bins = 9 9 9
  4 neighbor lists, perpetual/occasional/extra = 1 3 0
  (1) pair lj/cut, perpetual
      attributes: half, newton on
      pair build: half/bin/atomonly/newton
      stencil: half/bin/3d
      bin: standard
  (2) compute orientorder/atom, occasional
      attributes: full, newton on
      pair build: full/bin/atomonly
      stencil: full/bin/3d
      bin: standard
  (3) compute coord/atom, occasional
      attributes: full, newton on
      pair build: full/bin/atomonly
      stencil: full/bin/3d
      bin: standard
  (4) compute cluster/atom, occasional
      attributes: full, newton on
      pair build: full/bin/atomonly
      stencil: full/bin/3d
      bin: standard
Per MPI rank memory allocation (min/avg/max) = 9.773 | 9.779 | 9.784 Mbytes
Step Temp PotEng c_msd[4] v_twopoint v_fit v_max_n 
   12000     1.246867   -6.5268057 2.5996911e-30 1.805341e-32 8.3333333e+20            2 
   13000    1.2286596   -6.5686336   0.55641667 0.0035667734  0.045994928            2 
   14000    1.2434278   -6.6066941    1.0815173 0.0064376025  0.044652536            1 
   15000     1.274665    -6.567076    1.5855098 0.0088083875  0.043490751            2 
   16000    1.2489946   -6.5860037     2.087351   0.01087162   0.04297857            3 
   17000    1.2838143   -6.5641439    2.5369496  0.012436027  0.042198314            1 
   18000    1.2457329   -6.5334813    3.1291866  0.014486975  0.042248484            2 
   19000    1.2477614   -6.5800894    3.6348576  0.015942358  0.042540056            2 
   20000    1.2721983   -6.5061843    4.2077129  0.017532137   0.04284297            2 
   21000    1.2662237   -6.5756263    4.7619065  0.018896454   0.04329721            2 
   22000    1.2212408   -6.5853735    5.3582273  0.020296315  0.043802633            3 
   23000    1.2388589   -6.5627267    5.8047524  0.021031711  0.044055933            2 
   24000     1.256861   -6.5473327      6.21483   0.02157927  0.043913188            2 
   25000    1.2462914   -6.5546422    6.6572872  0.022190957  0.043576107            3 
   26000     1.233761   -6.5291891    7.2558584  0.023255956  0.043290395            3 
   27000     1.235646   -6.5560375    7.7749845  0.023996865  0.043130992            1 
   28000    1.2300152    -6.605237    8.3344952  0.024805045  0.043172456            4 
   29000    1.2428925    -6.541905    8.7718614  0.025206498  0.043074507            1 
   30000    1.2483168   -6.5378548    9.2909661  0.025808239  0.043024637            4 
   31000    1.2233018   -6.6146474    9.7390958  0.026180365  0.042964502            1 
   32000    1.2525402   -6.6104581    10.233683  0.026650215  0.042836995            1 
   33000    1.2520339    -6.522944    10.816968  0.027315575  0.042776107            1 
   34000    1.2376748   -6.5670762    11.329495  0.027768369  0.042741206            2 
   35000    1.2505172   -6.5493854    11.900807  0.028335255  0.042741135            1 
   36000    1.2171635   -6.5824107    12.516955  0.028974433  0.042821526            2 
   37000    1.2532686   -6.5782824    13.096905  0.029497534   0.04297156            3 
   38000    1.2337069   -6.5847238     13.59484  0.029813246  0.043071584            3 
   39000    1.2556822   -6.6166896    14.187449  0.030315062  0.043182539            2 
   40000    1.2487012   -6.6092845    14.746906   0.03072272  0.043286029            2 
   41000    1.2304457   -6.5660006    15.137558  0.030767395  0.043362024            3 
   42000    1.2352028   -6.5756679    15.642286   0.03103628  0.043372412            2 
   43000     1.258301   -6.5072086    16.177958  0.031352632  0.043364343            2 
   44000     1.258343   -6.6160498    16.558472  0.031360743  0.043357362            3 
   45000    1.2626513   -6.5791246      17.1747     0.031805  0.043340369            1 
   46000     1.241931   -6.5612989    17.733986  0.032126787  0.043341177            2 
   47000    1.2558055   -6.5998685    18.037776  0.031981872  0.043323732            2 
   48000    1.2189857   -6.5699809    18.658597  0.032393398  0.043284215            1 
   49000    1.2431954   -6.5572081    19.018514  0.032344411  0.043236441            3 
   50000     1.235493   -6.5848763    19.578672   0.03263112  0.043179618            1 
   51000    1.2554517   -6.5929966    19.926061  0.032558923  0.043118847            2 
   52000    1.2446365   -6.6065679    20.469396  0.032803519  0.043056445            2 
   53000    1.2497119   -6.5575196    21.139303  0.033237898  0.042990081            4 
   54000    1.2287447   -6.6025456    21.839576  0.033703049  0.042982322            2 
   55000    1.2364991   -6.5879119     22.39747   0.03393556  0.043018499            2 
   56000    1.2386436     -6.56333    22.674342   0.03374158  0.043019742            3 
   57000    1.2294716   -6.6139709    23.240969  0.033978025  0.043004236            1 
   58000    1.2806916   -6.5646404    23.662019  0.033997153  0.042987616            2 
   59000    1.2202757   -6.5543274    24.277548  0.034290322  0.042963822            3 
   60000    1.2348065   -6.5810155    24.676006   0.03427223  0.042941232            4 
   61000    1.2399159   -6.5609677    25.074698  0.034255051  0.042900272            2 
   62000    1.2123164   -6.5522258    25.700265  0.034543367  0.042872966            1 
   63000    1.2241045    -6.605565    26.215964  0.034677201    0.0428649            2 
   64000    1.2230728    -6.591424    26.651161  0.034702033  0.042855549            1 
   65000    1.2300103   -6.6014311    27.061364  0.034694057  0.042821007            3 
   66000    1.2611219   -6.5357848    27.350072  0.034532919  0.042755863            3 
   67000    1.2422625    -6.557476    27.713539  0.034469575  0.042663566            2 
   68000    1.2334665   -6.5890586    28.241978  0.034610267  0.042568449            1 
   69000    1.2248587    -6.616194    28.777792  0.034755788  0.042490436            3 
   70000    1.2414139   -6.5611395    29.477056  0.035091733  0.042431932            2 
   71000    1.2248022   -6.5798511    29.986418  0.035195326  0.042390541            3 
   72000    1.2189917   -6.5600034    30.425236  0.035214393  0.042358772            2 
   73000    1.2288043   -6.6040076    31.048621  0.035443631  0.042335143            2 
   74000    1.2069897   -6.6121377    31.531511  0.035508458  0.042309735            1 
   75000      1.25771   -6.6155427    31.729467  0.035254963  0.042273636            1 
   76000    1.2572985   -6.6153477    32.424044  0.035552679   0.04222941            1 
   77000     1.256529   -6.6113942    33.017833  0.035733586  0.042198587            1 
   78000    1.2711047   -6.5594346     33.72636  0.036032435  0.042197539            3 
   79000    1.2424997   -6.5784845     34.01805  0.035884019  0.042191141            4 
   80000    1.2465278   -6.5999288    34.234059  0.035660478   0.04217238            5 
   81000     1.226673   -6.6096237    34.888939   0.03589397    0.0421423            1 
   82000    1.2623302    -6.567865    35.145458  0.035716929  0.042103217            2 
   83000    1.2241481   -6.5931143    35.535745  0.035678458  0.042051162            2 
   84000    1.2252973   -6.6210709    36.092881  0.035806429  0.041997413            2 
   85000    1.2234883    -6.566669    36.747471  0.036026932  0.041959849            3 
   86000    1.2213557   -6.6006164    37.183782  0.036030796  0.041926552            1 
   87000     1.247466   -6.5908657    37.634857  0.036048713  0.041889876            1 
   88000    1.2402352    -6.625053     38.01307  0.035997225  0.041847991            4 
   89000    1.2344913   -6.5970752    38.527022   0.03607399  0.041809317            1 
   90000    1.2450131   -6.5741747    39.227197  0.036321478  0.041779168            3 
   91000    1.2574082   -6.6058609    39.599672  0.036263436  0.041753586            3 
   92000    1.2174693   -6.5664397    40.246594  0.036455248  0.041737645            3 
   93000    1.2479878   -6.6023744    40.827974  0.036584206  0.041722642            1 
   94000    1.2199749    -6.614898    41.328995  0.036639179  0.041719666            2 
   95000    1.2527402   -6.6040551    41.896754  0.036751539  0.041723124            1 
   96000    1.2172098   -6.6075527    42.256105  0.036680647  0.041713978            1 
   97000    1.2347416   -6.5907991    42.767826  0.036742118  0.041708955            2 
   98000    1.2488881   -6.5757576    43.062937  0.036618143  0.041691179            1 
   99000    1.2365713   -6.5924865    43.646103  0.036739144  0.041672758            3 
  100000    1.2238892   -6.5808221    44.171298  0.036809415  0.041654084            3 
  101000    1.2216927   -6.6168782    44.536711  0.036746461  0.041636818            2 
  102000    1.2548951   -6.6155102    44.855708   0.03664682  0.041619792            2 
  103000    1.2102932   -6.6089353     45.68407  0.036961222  0.041607884            1 
  104000    1.2419494   -6.5958498    46.225072   0.03703932  0.041596548            1 
  105000    1.2394185   -6.5865116    46.840837  0.037175267  0.041589584            1 
  106000    1.2112481   -6.5961947    47.287085  0.037175381  0.041584789            1 
  107000     1.249844   -6.5633901    48.159487  0.037507388  0.041593902            2 
  108000    1.2414596   -6.5923999    48.538992  0.037452926  0.041605164            3 
  109000    1.2672377   -6.6206345    49.181464  0.037600508  0.041622528            2 
  110000    1.2312153   -6.5539697    49.691672  0.037645206  0.041638993            2 
  111000    1.2229818   -6.6292293    50.245377  0.037721755  0.041655767            1 
  112000     1.223643    -6.588233    50.757936  0.037766321  0.041667732            1 
  113000    1.2384771   -6.5985179    51.175865  0.037740313  0.041681617            1 
  114000    1.2382665   -6.6006384    51.546749  0.037680372  0.041691235            2 
  115000    1.2201482   -6.5775452    52.073193  0.037734198  0.041700161            5 
  116000    1.2313442   -6.5849701    52.722184  0.037875132  0.041707022            2 
  117000      1.24556   -6.6340676    52.777977  0.037591151   0.04171104            1 
  118000    1.2573412   -6.5560355    53.979082  0.038120821  0.041717182            1 
  119000    1.2218568   -6.6172624    54.029218  0.037835587  0.041726674            2 
  120000    1.2440665   -6.5531754    54.607707  0.037922019  0.041731908            2 
  121000    1.2358369   -6.6157413    55.084492  0.037936978  0.041737287            2 
  122000    1.2585378   -6.6248297    55.528841  0.037929536  0.041742501            2 
  123000    1.2339895   -6.6181293    55.955817  0.037910445  0.041744113            1 
  124000    1.2301165   -6.6182228    56.430464  0.037923699  0.041741873            5 
  125000    1.2575166   -6.6344502    56.757468  0.037838312  0.041733204            2 
  126000    1.2275573    -6.591117    57.308942  0.037902739  0.041727043            1 
  127000    1.2220951   -6.6394262    57.677174  0.037845915  0.041725202            2 
  128000    1.2413509   -6.5726916    58.509758   0.03809229  0.041727711            1 
  129000     1.232817   -6.6035691    58.849453  0.038016442   0.04173014            2 
  130000    1.2480033   -6.5739731    59.674267  0.038252735  0.041730625            1 
  131000    1.2260974   -6.5893131    59.760356  0.038015493  0.041726985            1 
  132000    1.2365255   -6.5872899    59.849461  0.037783751  0.041711953            3 
  133000    1.2231306   -6.5639087    60.648714  0.038000448  0.041695571            2 
  134000    1.2405512   -6.6098815    60.756395  0.037783828  0.041673814            2 
  135000    1.2233517   -6.6030868     61.28032  0.037827358  0.041651252            2 
  136000    1.2172505   -6.6092898    61.846883  0.037896374  0.041629734            2 
  137000    1.2147155   -6.6262201    62.046574  0.037741225   0.04160793            1 
  138000    1.2121733   -6.6291985    62.366316  0.037660818   0.04158259            2 
  139000    1.2234054   -6.5860642    62.987893  0.037762526  0.041557362            2 
  140000    1.2159367   -6.4999482    64.146361  0.038182358  0.041540428            2 
  141000    1.2209456   -6.6366355    64.126164  0.037899624  0.041523604            3 
  142000    1.2503979   -6.5548053    64.738293  0.037991956  0.041508683            3 
  143000    1.2410279   -6.5873244    65.230327  0.038013011  0.041491283            1 
  144000    1.2113715   -6.5782219    65.619608   0.03797431  0.041473079            1 
  145000    1.2127758    -6.634795    65.985882  0.037922921  0.041455646            2 
  146000    1.2165911   -6.6168235    66.431401  0.037917466  0.041438361            1 
  147000    1.2199141   -6.6434284    66.833665  0.037887565  0.041421083            5 
  148000    1.2187572   -6.5764808    67.542451  0.038030659  0.041408301            5 
  149000    1.2358187   -6.6005964    68.108617  0.038092068  0.041395182            1 
  150000     1.222687   -6.5879686    68.562482  0.038090268  0.041381849            2 
  151000    1.2339103   -6.5761112    69.191624  0.038185223  0.041370285            2 
  152000    1.2194238   -6.6161913    69.576642  0.038145089   0.04136022            1 
  153000    1.1851335   -6.5897857    69.969551  0.038109777   0.04134973            1 
  154000    1.2143911    -6.571622    71.015324  0.038428206  0.041343064            3 
  155000    1.2175582   -6.6263254    71.193875  0.038276277  0.041338647            2 
  156000    1.2275623   -6.5975887    71.997271  0.038460081  0.041331801            1 
  157000    1.2145929   -6.6628424    71.819525  0.038120767  0.041319948            3 
  158000    1.2275166   -6.6000547    72.359801  0.038164452  0.041307531            2 
  159000    1.2312661   -6.5952442    72.529293  0.038013256  0.041291055            1 
  160000    1.2290913    -6.637378    73.111579  0.038078947  0.041270295            1 
  161000    1.2057682   -6.6293762    73.273954  0.037926477  0.041250463            2 
  162000    1.2319222   -6.5842843    73.739131  0.037931651   0.04122818            2 
  163000    1.2200439   -6.6546987    74.234922  0.037952414  0.041203626            2 
  164000    1.2346866   -6.5919134    74.619965  0.037916649  0.041179051            4 
  165000    1.2390554   -6.6069187    75.403862  0.038082758  0.041160535            2 
  166000    1.2497308   -6.5791977    75.847555  0.038076082  0.041140912            1 
  167000    1.2180575   -6.6021286     76.28682  0.038067275  0.041121423            3 
  168000    1.2243257   -6.5907963    76.827175  0.038108718  0.041101627            1 
  169000    1.2202217   -6.6566061    77.057396  0.037996743  0.041083623            2 
  170000    1.2363516   -6.6192849    77.970207   0.03822069  0.041066316            1 
  171000    1.1895501   -6.6483927    78.527644  0.038268832  0.041054486            1 
  172000    1.2337624   -6.5689725    78.743171  0.038150761   0.04104018            1 
  173000    1.2338509    -6.619406    79.125501  0.038114403  0.041025909            2 
  174000    1.2256647   -6.5878501    79.709212   0.03817491  0.041011787            2 
  175000    1.2139348   -6.6019738    80.074998  0.038130951   0.04099381            1 
  176000    1.2427784   -6.5672646    80.512487  0.038121443  0.040976098            1 
  177000    1.2174578   -6.6288393    80.512268  0.037905964  0.040954516            2 
  178000    1.2337958   -6.6356645    81.221299  0.038024952   0.04093245            3 
  179000     1.212913   -6.6565221    81.819191  0.038090871  0.040909587            2 
  180000    1.2435097   -6.6056723    82.535539  0.038210898  0.040893708            2 
  181000    1.2393576   -6.6035406    83.333463  0.038367156  0.040881669            3 
  182000    1.2332778   -6.6371666    83.788203  0.038364562  0.040873839            3 
  183000    1.2038452   -6.6163042    84.527266  0.038491469  0.040869905            3 
  184000    1.2083815   -6.5964947     85.21561  0.038594026  0.040867047            3 
  185000    1.2334385   -6.6219935     85.40344  0.038470018  0.040862945            3 
  186000    1.2127875   -6.6248372    86.066177  0.038560115  0.040859929            2 
  187000    1.2417228   -6.6470677     86.37808  0.038492905  0.040855431            2 
  188000    1.2252846   -6.6382857    87.185201  0.038645922  0.040855699            4 
  189000    1.2287428   -6.6422696    87.595742  0.038622461  0.040853412            5 
  190000    1.2302816   -6.5695593    88.423661  0.038782307  0.040856466            1 
  191000    1.2096056   -6.6010248    89.073423   0.03886275  0.040859129            2 
  192000    1.2098863   -6.5921373    89.671432  0.038919892  0.040864167            2 
  193000    1.2479783   -6.6013652    89.835925  0.038789259  0.040869342            3 
  194000    1.2083999    -6.626931    90.370896  0.038819113  0.040872589            3 
  195000    1.2257977   -6.6135655    90.601333  0.038718518  0.040875624            1 
  196000    1.2398154   -6.6192403    90.790575  0.038601435  0.040873354            1 
  197000     1.228098   -6.6141615    91.603328  0.038749293  0.040871768            2 
  198000    1.2065253    -6.609633    92.312545  0.038852081  0.040871211            3 
  199000    1.1972498   -6.6335382    92.203532  0.038611194  0.040870875            2 
  200000    1.2114918   -6.6456294    92.666662  0.038611109  0.040867859            2 
  201000    1.2046902   -6.6574003    93.379781  0.038714669  0.040864257            1 
  202000    1.2237555   -6.5955122    93.938107  0.038753344  0.040863423            2 
  203000    1.2156501   -6.6115439    93.887779  0.038541781  0.040856571            7 
  204000    1.2124924   -6.6198449    94.131712  0.038452497  0.040849117            4 
  205000    1.1976382   -6.6405664     94.64324  0.038472862  0.040841577            1 
  206000     1.205433   -6.5978395    95.410593  0.038596518  0.040832618            2 
  207000    1.2261061   -6.6539127    95.597784   0.03848542  0.040821446            2 
  208000    1.2167402   -6.6083312     96.04744  0.038480545  0.040807195            1 
  209000    1.2079964   -6.6394149    95.967074  0.038264383  0.040792008            2 
  210000    1.2251675   -6.6033811    96.745049  0.038390892  0.040773254            3 
  211000    1.2031207   -6.6342278    96.896313  0.038268686  0.040758401            3 
  212000    1.2162838   -6.5944456    97.682373  0.038397159  0.040744714            1 
  213000    1.2144349   -6.6027415    98.533568  0.038549909  0.040734747            1 
  214000     1.233763   -6.6257498    98.869851  0.038500721  0.040725496            3 
  215000    1.1965582   -6.5871671    99.554677  0.038587084  0.040713759            2 
  216000    1.2278041   -6.6329482    99.914817  0.038547383  0.040703083            2 
  217000    1.2208168   -6.6173149    100.65121  0.038652539  0.040693619            2 
  218000    1.1921226   -6.6206343    100.71385  0.038499177   0.04068555            3 
  219000    1.1876218   -6.6392058    101.37932  0.038576604  0.040678065            3 
  220000    1.2362254   -6.6050737    102.10101  0.038674623  0.040669387            1 
  221000    1.2011281   -6.6014304     102.4081  0.038615423  0.040663676            2 
  222000    1.2208012   -6.6083769     102.7719  0.038578039  0.040659228            3 
  223000    1.2205745   -6.5818494    103.62929  0.038725446  0.040653158            4 
  224000     1.224486   -6.6269721    103.90614  0.038655556  0.040646513            2 
  225000    1.2073729   -6.6383525    104.07789  0.038547366  0.040638253            1 
  226000    1.2339473   -6.6163046    104.53064  0.038543746  0.040631882            1 
  227000    1.2113326   -6.6118333    105.49968  0.038729692  0.040625112            2 
  228000    1.2029596   -6.6398245    105.79142  0.038666455  0.040616056            1 
  229000    1.2272838   -6.6255717    105.97818  0.038565568  0.040606263            2 
  230000    1.2147993   -6.6210438    106.53925  0.038601178  0.040598118            2 
  231000     1.223222   -6.6163563    106.99852  0.038599756   0.04058932            2 
  232000    1.2140938   -6.6038981    107.49944  0.038613303   0.04058283            2 
  233000    1.2024561   -6.6657262    107.88745  0.038586354   0.04057454            1 
  234000    1.2361777   -6.6019418    107.99939   0.03846132  0.040563903            3 
  235000    1.2074059   -6.6044162    108.54139  0.038489855  0.040552641            2 
  236000    1.1918739    -6.646761    108.22983  0.038216749  0.040539294            3 
  237000    1.2183135   -6.6581562    108.97431  0.038317269  0.040524152            2 
  238000    1.2240782     -6.61574    109.57073    0.0383651  0.040509636            1 
  239000    1.2490396    -6.626132    110.22455   0.03843255  0.040496849            2 
  240000     1.230237   -6.5942526    111.11442  0.038581396  0.040484601            3 
  241000    1.2379676   -6.6281291    111.38134  0.038513603  0.040471395            2 
  242000    1.2618372   -6.6171746    111.83572  0.038510924  0.040460747            4 
  243000    1.1846555   -6.6347849    112.13426  0.038454822  0.040449693            2 
  244000    1.2184977   -6.6605251    112.20149  0.038320179  0.040439023            2 
  245000    1.1848682   -6.6355104    113.03812   0.03844834  0.040425385            2 
  246000    1.2230337   -6.6476723      113.381  0.038408198  0.040412507            1 
  247000    1.2177184   -6.6106627    114.54191  0.038644369  0.040403392            1 
  248000    1.1987789   -6.6448638    114.68504  0.038536638  0.040394397            3 
  249000    1.1844039   -6.6325328    114.70183  0.038387495  0.040384436            1 
  250000     1.231813   -6.6488633    115.05724  0.038352414  0.040370611            2 
  251000    1.2095603    -6.649337    115.59864  0.038379364   0.04035901            2 
  252000    1.2268206   -6.6111918    116.51674  0.038530667  0.040348388            3 
  253000    1.2319347    -6.660142    116.67798  0.038431484  0.040338351            1 
  254000    1.2101934   -6.6505895    117.37145  0.038507693  0.040329089            2 
  255000    1.2272574   -6.6312278    117.79926  0.038496491  0.040320083            3 
  256000    1.2085861   -6.6763903     118.0327  0.038422102  0.040310372            3 
  257000    1.2045119   -6.6133641    119.05483  0.038604031  0.040300068            1 
  258000    1.1930302   -6.6032185    119.48943  0.038594776  0.040290916            2 
  259000    1.1889817   -6.6386895    119.74997   0.03852959  0.040282375            4 
  260000    1.1955039    -6.633061    120.10733  0.038495939  0.040273831            2 
  261000    1.2174196   -6.6558929    120.65433  0.038523094  0.040265313            2 
  262000    1.2182706   -6.6080537    121.76853   0.03873045  0.040257697            2 
  263000    1.2127176   -6.6363107     121.5141  0.038502566  0.040251288            4 
  264000     1.198843   -6.6436046    122.02851  0.038519099  0.040242518            2 
  265000    1.2185433   -6.6511887    121.77688  0.038294616    0.0402314            2 
  266000    1.2030461   -6.6509663    122.99397  0.038531946   0.04022004            1 
  267000     1.201059   -6.6432326    122.66578    0.0382852   0.04020842            1 
  268000    1.2331551   -6.6527835    123.35868  0.038357799  0.040196034            3 
  269000     1.232595   -6.6121563    123.57056  0.038280841  0.040183957            1 
  270000    1.2169337   -6.6324215    123.83704  0.038221309  0.040170755            2 
  271000    1.1871699   -6.6416906    124.35235   0.03823873   0.04015685            2 
  272000    1.2234138   -6.6528798    124.47227  0.038134886  0.040141084            1 
  273000    1.2264822   -6.6326566    125.26532  0.038237278  0.040124921            2 
  274000    1.1867378   -6.6727583    125.25585  0.038094846  0.040108379            1 
  275000     1.244397   -6.6266375    125.72004  0.038096981  0.040089734            4 
  276000    1.2280113   -6.6441274    125.84069  0.037995379  0.040071152            1 
  277000    1.2011266   -6.6897677     126.7145  0.038121089  0.040053562            2 
  278000    1.2149477   -6.6432382    127.14625  0.038113386  0.040035776            2 
  279000    1.2015403   -6.6673774    127.23587  0.038003546  0.040017149            2 
  280000    1.2120775   -6.6531367    127.88507  0.038061031  0.040000264            1 
  281000    1.2080154   -6.6407891     128.6561   0.03815424  0.039983464            2 
  282000    1.2066652   -6.6518571    128.50403  0.037974004  0.039966604            3 
  283000    1.2082647   -6.6663637    129.34249  0.038086716  0.039949411            1 
  284000    1.2013507   -6.6413537      129.195  0.037909331  0.039933334            1 
  285000    1.2010327   -6.6775921    129.60422  0.037895972  0.039915042            3 
  286000    1.1958567   -6.6692184     130.0557  0.037895017  0.039895161            3 
  287000    1.2042098   -6.6111627    130.78235   0.03797397  0.039875849            2 
  288000    1.2143783   -6.6362115    130.91448  0.037880348  0.039856461            3 
  289000    1.2176074   -6.6737097    130.92581  0.037752541  0.039836358            2 
  290000    1.2134307   -6.6281466    131.86962   0.03789357  0.039817541            2 
  291000    1.2180295   -6.6409251    132.54397  0.037956463  0.039800212            1 
  292000    1.1858625   -6.6798534    132.65945  0.037859431  0.039781782            5 
  293000    1.2055331   -6.6550143    133.46691  0.037959873  0.039763567            2 
  294000    1.1807342   -6.6434691     133.6224  0.037874829   0.03974615            1 
  295000    1.2195179   -6.6935687    133.73175  0.037777331  0.039728075            2 
  296000    1.2047617   -6.6199427    134.77586  0.037943655  0.039710543            2 
  297000    1.1967155   -6.6725891    134.61305  0.037770215  0.039691611            3 
  298000    1.1949001    -6.600294    134.82951  0.037704002  0.039672292            3 
  299000    1.2145405   -6.6366521    135.31595  0.037713476  0.039651557            1 
  300000    1.2212628   -6.6998595    135.58851  0.037663475  0.039631943            2 
  301000    1.1991413   -6.6748623    135.94211  0.037636244  0.039613533            1 
  302000    1.1919904   -6.6257517    137.56259  0.037958773  0.039596855            1 
  303000    1.1956466   -6.5973122    137.77241  0.037891203   0.03957985            2 
  304000     1.193934   -6.6701121    137.72573  0.037753764   0.03956364            2 
  305000    1.2178919   -6.6258456    138.09472  0.037730796  0.039546968            2 
  306000    1.2110049    -6.652351    138.40456  0.037691875   0.03953076            2 
  307000    1.1879249   -6.6330114    139.25249  0.037799264  0.039514405            2 
  308000    1.2186138   -6.6596119    139.83991  0.037835473  0.039498238            1 
  309000     1.196254   -6.6674344    139.81858  0.037707275  0.039481416            1 
  310000    1.2092968    -6.651671    141.13784  0.037940279  0.039465692            2 
  311000    1.1914028   -6.6931225    141.18586  0.037831152  0.039450762            6 
  312000    1.2185101   -6.6478772    141.62992  0.037828505  0.039436046            2 
  313000    1.1806944   -6.6756923    141.81615  0.037757229   0.03942108            1 
  314000    1.1906005   -6.6988993    142.20486  0.037740144  0.039404437            2 
  315000    1.2297171   -6.7181125    142.69644  0.037750382  0.039388366            1 
  316000    1.1736256   -6.6838845    143.95758  0.037963497  0.039374173            3 
  317000    1.2105288   -6.6800417    144.43137  0.037968288  0.039362375            2 
  318000     1.212093   -6.6122597    144.64548  0.037904999  0.039350513            1 
  319000    1.2280893   -6.6885083    145.01111   0.03788169  0.039337165            1 
  320000    1.2058755   -6.6274271    145.07736  0.037780562  0.039323042            2 
  321000    1.1653441   -6.6486967    145.49538  0.037771386  0.039310042            2 
  322000    1.2254457   -6.7086851    146.23986  0.037846756  0.039296729            1 
  323000    1.1872017   -6.6500224    146.89806  0.037899396  0.039283878            3 
  324000     1.196608   -6.6673984    147.88008     0.038035   0.03927307            2 
  325000    1.1932494   -6.6368814    148.05244  0.037962163  0.039263032            1 
  326000    1.2137508   -6.7324598    147.66424  0.037746483  0.039252481            3 
  327000    1.2109365     -6.66694     148.0127  0.037719853  0.039239145            1 
  328000    1.2368832   -6.6883113    148.57645  0.037748081  0.039226581            1 
  329000    1.2009592   -6.6773342    148.40406  0.037589681  0.039213374            2 
  330000    1.2056289   -6.6404999    149.52512  0.037758867  0.039200229            1 
  331000    1.1817778   -6.6672951    150.00549  0.037765733  0.039187907            3 
  332000    1.1733069   -6.6671022    150.89681  0.037875705  0.039175241            2 
  333000     1.187461   -6.6578254     150.8875  0.037759634  0.039162259            3 
  334000    1.2081686   -6.6640327    151.67122  0.037842121  0.039150407            2 
  335000    1.2069477   -6.6778205    152.00203   0.03781145  0.039138445            2 
  336000    1.2010869   -6.6609814    152.24961   0.03776032  0.039126483            2 
  337000    1.2018783   -6.6941323    152.59001  0.037732445  0.039113516            2 
  338000    1.1924137   -6.6875222    152.91512  0.037700968  0.039101241            4 
  339000    1.2083017   -6.6503924    154.49446   0.03797799  0.039090043            1 
  340000     1.185726   -6.6711302    154.51054  0.037870231  0.039080809            3 
  341000    1.2138348   -6.6302272    154.93733  0.037863473  0.039071049            1 
  342000    1.2216688   -6.6595605    156.01257  0.038014758  0.039061472            2 
  343000    1.2039432   -6.6617368     155.7175   0.03783224  0.039052271            1 
  344000    1.2044349   -6.6539705    155.41078  0.037647961  0.039040998            2 
  345000    1.2102425   -6.6720361    155.66015  0.037599069  0.039029476            3 
  346000    1.1887005   -6.7130104    156.31404   0.03764789  0.039017207            1 
  347000    1.1800835   -6.6549651    157.32211  0.037781485  0.039005761            3 
  348000    1.1967327   -6.7092818    157.30529  0.037668891  0.038993812            1 
  349000    1.1804243   -6.6458541    158.07476   0.03774469  0.038982634            1 
  350000    1.2079198   -6.6692179    158.15743   0.03765653  0.038971288            2 
  351000    1.1926454      -6.6821    158.72682  0.037684429  0.038959332            2 
  352000    1.1919892   -6.6876425    159.25165  0.037701622   0.03894696            2 
  353000    1.2083688   -6.6935622     159.3044  0.037607271  0.038935896            2 
  354000    1.1889986   -6.6496332    160.84763   0.03786432  0.038924276            3 
  355000    1.1879088   -6.6673849    160.00094  0.037558907  0.038912604            1 
  356000    1.2283328   -6.6771411    161.00701  0.037688906  0.038900298            2 
  357000    1.1925063   -6.6813515    161.08799  0.037602238  0.038887679            2 
  358000    1.1697325    -6.650646    162.39343  0.037801078  0.038875533            2 
  359000     1.181121   -6.6935178    161.72218  0.037539968  0.038863171            2 
  360000    1.2089449   -6.6642879    162.90499  0.037709488   0.03885126            2 
  361000    1.1705724   -6.7058073    162.20444  0.037443314  0.038839409            6 
  362000    1.2000632   -6.6608696     163.2135  0.037572168  0.038826472            4 
  363000    1.2016072   -6.6878395    164.26822  0.037710793  0.038814538            2 
  364000    1.2110451   -6.6573288    164.39415  0.037636023  0.038803155            1 
  365000     1.204866   -6.6856488    164.84735  0.037636382   0.03879213            1 
  366000    1.1998023   -6.6562028    165.16555  0.037605999  0.038782152            2 
  367000     1.176611   -6.6607926    165.86162  0.037661586  0.038773278            1 
  368000    1.2026197   -6.6438691    166.17946  0.037631218  0.038763588            2 
  369000    1.1704434   -6.6890417    166.54342  0.037611431  0.038753588            2 
  370000    1.1664724   -6.6534539    167.08698  0.037632203  0.038743009            1 
  371000    1.1836397   -6.6737197    167.80113  0.037691179  0.038733105            3 
  372000    1.1709002   -6.6602036    168.02205  0.037639347  0.038723415            1 
  373000    1.1844241   -6.6763137    168.49313  0.037643684  0.038714717            2 
  374000    1.1552886   -6.6903651    169.07201  0.037672015  0.038706925            1 
  375000    1.1821985   -6.6707773    169.00732  0.037557182  0.038697695            2 
  376000    1.2123924   -6.7014394    169.76045  0.037624213  0.038687835            3 
  377000    1.1813469   -6.6797487    170.81732  0.037758028  0.038678178            1 
  378000    1.1972819   -6.6826051    171.08275  0.037716656  0.038669701            1 
  379000     1.195121   -6.6583464    171.73685   0.03776096  0.038661507            2 
  380000    1.1900374   -6.6825523    172.02659   0.03772513  0.038653097            2 
  381000    1.2000012   -6.6815107    172.22866  0.037670311  0.038645066            2 
  382000    1.1887914   -6.6784153    172.25452  0.037577339  0.038636684            2 
  383000    1.1902332   -6.6444706    172.97331   0.03763562  0.038628267            2 
  384000     1.177659   -6.6931511    173.50002  0.037651914  0.038619765            3 
  385000    1.1892402   -6.6907951    173.83572  0.037626779  0.038610254            4 
  386000    1.1694508   -6.6583579     174.0483  0.037575195  0.038601097            1 
  387000    1.2179874   -6.7218442     174.8991  0.037661304  0.038592347            2 
  388000    1.1750363   -6.6978562    175.14077  0.037616145  0.038583963            1 
  389000    1.1668729   -6.6973495    175.61466  0.037620965  0.038576047            2 
  390000    1.2262371   -6.6721005    177.18236  0.037859479  0.038569414            2 
  391000    1.1979114   -6.7221875     176.2734  0.037568925  0.038562161            2 
  392000    1.2050847    -6.698261    176.70392  0.037564608  0.038553568            2 
  393000     1.206432   -6.6344927    177.60835  0.037660803  0.038544613            2 
  394000     1.198403   -6.6414184    177.72634  0.037590173  0.038536013            3 
  395000    1.2131484   -6.6817547    178.68562  0.037697388  0.038528249            3 
  396000    1.1775355   -6.7218175     178.8768  0.037642425  0.038520436            2 
  397000    1.1923157   -6.6951052    179.11417  0.037597432  0.038512732            3 
  398000    1.1820616   -6.7111097    178.44993  0.037363887  0.038504681            2 
  399000    1.1808898   -6.7112921     180.0912  0.037613032  0.038496172            3 
  400000    1.1903603   -6.6840511    180.09432  0.037519651  0.038487154            3 
  401000    1.1673518   -6.6621717    180.57124  0.037525195  0.038477728            1 
  402000    1.2080034    -6.712171    180.65208  0.037448606  0.038467833            3 
  403000    1.1879931    -6.677997    180.68776   0.03736306  0.038457363            1 
  404000    1.1888478   -6.6565972    181.33337  0.037403747  0.038446739            2 
  405000    1.1968927   -6.6934245    181.27726  0.037299847  0.038435812            2 
  406000    1.1823781   -6.6801408    182.22737   0.03740299  0.038425421            7 
  407000    1.1661967    -6.702409    182.48212  0.037363251  0.038414773            2 
  408000    1.2074786    -6.646914    183.67695  0.037515717  0.038405411            2 
  409000    1.1854615   -6.6492704     183.7766  0.037444294  0.038397236            1 
  410000    1.1754548   -6.6966419    183.97388  0.037393065  0.038388118            2 
  411000    1.1870851   -6.6340439    184.42136  0.037392815  0.038378474            2 
  412000    1.1548447   -6.6759343    185.35939  0.037491786  0.038367722            2 
  413000    1.1767945   -6.6939541    185.83879  0.037497737  0.038358241            2 
  414000    1.1733479   -6.6579336    185.89604  0.037418688  0.038349124            2 
  415000    1.1821768   -6.6841425    186.84944  0.037519968  0.038341392            3 
  416000    1.1922544   -6.7185602    186.51876  0.037363534  0.038333742            2 
  417000     1.188952   -6.7101525    187.57742  0.037485496  0.038326259            1 
  418000    1.1917047   -6.7159815    187.47967   0.03737633  0.038317337            3 
  419000    1.2168481   -6.6844839    188.69159   0.03752816  0.038309816            2 
  420000    1.1647608   -6.6631397    189.20545  0.037540764  0.038302065            2 
  421000    1.1656903   -6.7078516    189.44777  0.037499558  0.038294052            1 
  422000    1.1734346   -6.7215188    189.27736  0.037377046  0.038286296            2 
  423000    1.1779531   -6.6610571    190.48556  0.037526705  0.038278771            2 
  424000     1.199124   -6.6920407    191.49783  0.037637152  0.038271496            2 
  425000    1.1816222   -6.7043176     191.1431   0.03747904  0.038264784            2 
  426000    1.1991488   -6.6895122    192.07656  0.037573662  0.038258615            1 
  427000    1.1905033   -6.7190139    191.86691  0.037444752  0.038250724            2 
  428000    1.1695597   -6.7135515    191.86217  0.037356342  0.038243312            3 
  429000    1.2015449   -6.7276713    192.92664  0.037476038  0.038236059            6 
  430000    1.1741537   -6.6544529    193.94639   0.03758651  0.038229191            2 
  431000    1.1851507   -6.7067308    193.48072  0.037409266  0.038222829            2 
  432000    1.1899799   -6.7050876    194.48561  0.037516515  0.038216449            2 
  433000    1.1982575   -6.7211203     194.7671  0.037484045  0.038209532            2 
  434000     1.183374   -6.6724792    194.82585  0.037408958  0.038202832            1 
  435000    1.1599022   -6.6987005    194.91289  0.037339633  0.038196774            2 
  436000     1.164007   -6.6928976    196.62709   0.03758163  0.038191104            3 
  437000    1.1811947   -6.7024887    196.34781  0.037442374  0.038184243            1 
  438000    1.1751874   -6.6576381    196.89486  0.037460969  0.038177816            2 
  439000    1.1862883   -6.6966966    197.16044  0.037426051  0.038171537            1 
  440000    1.1748503   -6.7224056     197.4329  0.037392595  0.038164229            2 
  441000    1.1665867   -6.6555257    197.70147  0.037358554  0.038156682            3 
  442000    1.1579701   -6.7276874    198.12459  0.037353807   0.03814908            2 
  443000    1.1738851   -6.7139685    198.17676  0.037279301  0.038142122            2 
  444000    1.1940376   -6.6795363    198.90245   0.03733154  0.038133843            1 
  445000    1.1911596   -6.7052837    199.16247  0.037296343  0.038125394            1 
  446000    1.1980617   -6.6918725    199.84732  0.037340681  0.038116899            2 
  447000     1.161429   -6.7078324    199.77026  0.037242777  0.038108605            1 
  448000    1.1880548   -6.7017413    201.15834  0.037417846  0.038100397            2 
  449000    1.1855965    -6.660573    201.70586  0.037436128  0.038093286            3 
  450000    1.1917382   -6.6376791    202.73832  0.037544133  0.038087372            2 
  451000    1.1754008   -6.7123753    201.67123  0.037263715  0.038080905            4 
  452000    1.1857224   -6.7107387     202.4371  0.037322473  0.038073651            1 
  453000    1.2196392    -6.649785    202.98208  0.037340338    0.0380674            1 
  454000    1.1631991   -6.6947176    203.99978  0.037444894  0.038061402            2 
  455000    1.1904512   -6.7090916    204.44647  0.037444409  0.038055721            2 
  456000    1.1719678   -6.7053544    204.67393  0.037403861  0.038048902            3 
  457000     1.220057   -6.7302137    205.22209  0.037421971  0.038043227            1 
  458000    1.1799779   -6.6720811    205.77666  0.037441167  0.038037278            2 
  459000    1.2047057   -6.6686238     206.3284  0.037459767  0.038032303            2 
  460000    1.1654975   -6.6559425    207.13488  0.037524435  0.038027128            3 
  461000    1.1707949     -6.68578     206.7252   0.03736898  0.038020982            3 
  462000    1.1921195   -6.7129308    206.92777  0.037324634  0.038014864            5 
  463000    1.1993007   -6.7103893    206.87189  0.037233961  0.038007921            2 
  464000    1.1941323   -6.6701601     207.5319  0.037272252  0.038000243            1 
  465000    1.1937982   -6.6815616    207.85333    0.0372497  0.037992806            3 
  466000    1.1795815    -6.707535     208.3948  0.037266596   0.03798484            1 
  467000     1.184534   -6.6642415    209.33622  0.037354785  0.037977122            4 
  468000    1.1491679   -6.6787314    209.33991  0.037275626  0.037969418            2 
  469000    1.1889648   -6.6807733    210.69028  0.037436083  0.037962695            2 
  470000    1.1704919    -6.666294    210.85974  0.037386479  0.037956762            1 
  471000    1.1526173    -6.706302    211.03421  0.037337971   0.03795074            2 
  472000    1.1878782    -6.672866    211.71887  0.037379744  0.037944789            3 
  473000    1.1820113   -6.6646381    212.01618  0.037353097  0.037940107            1 
  474000    1.1569873   -6.6941254    212.72382  0.037398703  0.037935143            2 
  475000    1.1849039   -6.7099098    212.31625  0.037248464  0.037929978            2 
  476000    1.2007086   -6.6958831    213.94137  0.037454721  0.037924525            2 
  477000    1.1780804   -6.7113812    214.11875  0.037407189  0.037918854            2 
  478000    1.2048958   -6.7053403    214.49563  0.037394635  0.037913929            3 
  479000    1.1822391   -6.7247621    215.04668  0.037412435  0.037909138            3 
  480000     1.190203   -6.6985776    215.15444  0.037353201  0.037904254            1 
  481000    1.1577567   -6.7102532    215.79335  0.037386235  0.037900134            4 
  482000    1.1938824   -6.6783717      216.703   0.03746594  0.037896051            2 
  483000    1.1675516   -6.6995136    216.91235   0.03742449  0.037891591            2 
  484000    1.1816703   -6.6949257    217.42562  0.037435541  0.037887302            3 
  485000    1.1810312   -6.7169644    217.88899   0.03743797  0.037882435            2 
  486000    1.1786277   -6.7208413    217.58613  0.037309007  0.037877351            4 
  487000    1.1649445   -6.7365274    217.58106  0.037231529  0.037871576            2 
  488000    1.1525666   -6.6938922    217.95533  0.037219147  0.037866274            3 
  489000     1.173292   -6.7407543    218.28522  0.037199254  0.037859863            1 
  490000    1.1705935   -6.7315527    218.77781   0.03720711  0.037853606            2 
  491000     1.188865   -6.7177308    220.12157  0.037359397  0.037848355            1 
  492000    1.1751048   -6.7379741    220.06626  0.037274095  0.037843359            2 
  493000    1.1715142   -6.7195911    220.42888  0.037259784  0.037838257            6 
  494000    1.1620327   -6.7329982    221.26922  0.037326117  0.037832515            2 
  495000    1.1757092   -6.7021954     221.4343  0.037278502  0.037827129            2 
  496000    1.1804359   -6.7002331    221.73552  0.037253952  0.037822093            2 
  497000    1.1688746   -6.7441795    221.74151  0.037179998  0.037816669            1 
  498000    1.1813728   -6.7363641    222.79938  0.037282359  0.037811891            2 
  499000    1.1685585   -6.6967464    223.89265  0.037390223  0.037806998            2 
  500000    1.1613167   -6.7236811    223.89765  0.037316275  0.037801907            1 
  501000    1.1695626   -6.7023322    224.76322  0.037385766  0.037796788            6 
  502000    1.1766176   -6.6644606    225.50866  0.037435037  0.037792622            2 
  503000      1.18813   -6.6946925    226.64697    0.0375492   0.03778799            7 
  504000    1.1764671   -6.7363497    225.48036  0.037281806  0.037783799            4 
  505000    1.1660496   -6.7206279    225.38479   0.03719221  0.037779745            2 
  506000    1.1686132   -6.7180413    225.86337  0.037197524  0.037774819            2 
  507000    1.1468829   -6.7429076    226.51589  0.037231408  0.037769068            2 
  508000    1.1667503    -6.700685     226.1411  0.037096637  0.037762927            1 
  509000    1.1543368    -6.710384    227.57386  0.037258327  0.037757005            2 
  510000    1.1683922   -6.7045286    227.29306  0.037139389  0.037750807            2 
  511000     1.178497   -6.7324869    227.54954  0.037108536  0.037744329            2 
  512000    1.1776398   -6.7173098    228.98755  0.037270109  0.037737629            3 
  513000    1.1713653    -6.687712    229.06508  0.037210051  0.037732292            1 
  514000    1.1866245   -6.7453547    228.59608  0.037061622  0.037726407            2 
  515000    1.1769403   -6.7287212    229.02093  0.037058403  0.037719839            2 
  516000    1.1649917   -6.7253021    230.09472  0.037159999  0.037713214            3 
  517000    1.1707151   -6.7170735    229.63614  0.037014207  0.037706234            2 
  518000    1.1773114   -6.6964952    230.10237  0.037017756  0.037698727            2 
  519000    1.1470196    -6.689849    231.03173  0.037095653  0.037691509            3 
  520000    1.1772991   -6.7253292    231.45313  0.037091848  0.037684666            2 
  521000    1.1783985   -6.7487253    231.29375  0.036995162  0.037677448            2 
  522000    1.1765624   -6.7280461    231.63764   0.03697919  0.037669792            1 
  523000    1.1814999   -6.7059684    232.09087    0.0369807  0.037662177            3 
  524000    1.1542019   -6.7507567    231.71997  0.036851141   0.03765421            2 
  525000     1.147326   -6.7028514    232.91472  0.036970591  0.037645996            3 
  526000    1.1820639    -6.746003    232.91422  0.036900225  0.037638416            2 
  527000    1.1605108   -6.7185734    233.08248  0.036856811  0.037630884            1 
  528000    1.1468673   -6.7010717    233.39515  0.036836356   0.03762229            1 
  529000    1.1701562   -6.6869074    233.94477  0.036853303  0.037613458            3 
  530000    1.1524476   -6.7392348    233.85192  0.036769169  0.037604354            1 
  531000    1.1977071   -6.7189225    234.87219  0.036860043  0.037594744            2 
  532000    1.1332218    -6.729772    234.35339  0.036709491  0.037585437            3 
  533000    1.1663852   -6.7191658    235.07497  0.036753435  0.037576096            1 
  534000    1.1711798   -6.7075141    236.39247   0.03689021  0.037567068            1 
  535000    1.1670279   -6.7338405    236.15723  0.036784616  0.037558248            2 
  536000    1.1636146   -6.7235944    236.27809  0.036734777  0.037548862            2 
  537000    1.1568477   -6.7472963    236.18283  0.036651587  0.037539377            4 
  538000    1.1492608   -6.7688007    236.53195  0.036637539  0.037529869            2 
  539000    1.1770189   -6.7306453     236.4441  0.036555983  0.037520204            1 
  540000    1.1526218   -6.7177966    237.82174  0.036700886   0.03751056            1 
  541000    1.1575523   -6.7406392    237.83949  0.036635781  0.037501259            3 
  542000     1.153635   -6.7307148    239.27667  0.036789156  0.037492504            1 
  543000    1.1635834   -6.7243668    239.63394  0.036776234   0.03748386            1 
  544000    1.1604479   -6.7136034    239.61528  0.036705773  0.037474677            2 
  545000    1.1778749   -6.7191541    239.73059  0.036656054  0.037466047            1 
  546000    1.2019044    -6.729072    240.98491  0.036780359  0.037457342            1 
  547000    1.1482347   -6.7501659     240.8004  0.036685009  0.037448345            1 
  548000    1.1441498   -6.7307065    241.67867  0.036751623  0.037439792            1 
  549000    1.1626515   -6.7611062    241.76588  0.036697918  0.037430828            2 
  550000    1.1341862   -6.7137765    242.38704  0.036725308  0.037422526            3 
  551000    1.1540031   -6.6956666    242.78663  0.036719091  0.037414047            1 
  552000    1.1615744   -6.7180203    242.92842  0.036673977  0.037405962            1 
  553000    1.1622981    -6.766179    243.79832  0.036738746  0.037397158            4 
  554000    1.1723988    -6.692066    244.04751  0.036709914  0.037388885            1 
  555000    1.1678198   -6.7237003    244.60446  0.036727396  0.037381196            2 
  556000    1.1557043   -6.7350678    244.41579  0.036633062  0.037372437            3 
  557000    1.1299469   -6.7394402     245.0237  0.036658243  0.037363545            2 
  558000     1.175952   -6.6985584    245.09948  0.036603865  0.037354778            1 
  559000    1.1471326    -6.780362     244.2339  0.036409347  0.037345448            2 
  560000    1.1716712   -6.7262189    245.12751  0.036477309  0.037335622            1 
  561000    1.1623892   -6.7218948    245.55821  0.036476264   0.03732533            3 
  562000    1.1684528   -6.7405515    245.67609  0.036428838   0.03731501            3 
  563000    1.1562058   -6.7280251     246.5954  0.036500208  0.037304548            2 
  564000    1.1540956   -6.7591873    247.14046  0.036516025  0.037294423            3 
  565000    1.1570591   -6.7224158     247.2535  0.036468068  0.037284856            1 
  566000    1.1444977   -6.7604157    247.70101  0.036469525  0.037275218            4 
  567000    1.1775434   -6.7301006    248.21671  0.036480998  0.037266142            2 
  568000    1.1538699   -6.7048255    249.27561  0.036572126    0.0372567            7 
  569000    1.1551366   -6.7371058    249.25557  0.036504917  0.037247155            1 
  570000    1.1730267   -6.7504217     248.6152  0.036347251  0.037237687            1 
  571000    1.1508742   -6.7478236    249.50811   0.03641391  0.037228098            1 
  572000    1.1426007   -6.7445773    249.65098  0.036371063  0.037218708            2 
  573000    1.1405875   -6.7238422    251.02409  0.036507285  0.037209564            1 
  574000    1.1647639   -6.7415637     250.9952   0.03643949  0.037200088            1 
  575000    1.1282344   -6.7350912    250.76657  0.036342981  0.037190157            1 
  576000    1.1597979     -6.69199    251.82766  0.036433399  0.037180369            7 
  577000    1.1482211   -6.7442691    251.73804  0.036357314  0.037170185            1 
  578000    1.1481911   -6.6978198    250.94997  0.036180791  0.037159969            2 
  579000    1.1392659   -6.7452276    252.00732  0.036270483  0.037149111            2 
  580000    1.1435751   -6.7467015    251.37176  0.036116632  0.037138498            1 
  581000    1.1397364   -6.6996549    253.27166  0.036326973  0.037127735            1 
  582000    1.1320588   -6.7729131    253.83034  0.036344551  0.037117658            2 
  583000    1.1639837    -6.764857    253.51484  0.036237113  0.037107422            2 
  584000    1.1466717   -6.7458764    253.77755   0.03621255  0.037097169            2 
  585000    1.1488784   -6.7046823    255.33715  0.036372814  0.037087137            2 
  586000    1.1659222   -6.7452686    255.43584  0.036324779  0.037077429            1 
  587000    1.1416636    -6.694094    256.41323   0.03640165  0.037068241            3 
  588000    1.1481298   -6.7354736    255.79459  0.036252068  0.037059246            3 
  589000    1.1425041   -6.7439874    257.43099  0.036422041  0.037049925            1 
  590000    1.1572078   -6.7546119    257.37716  0.036352706  0.037040554            2 
  591000     1.168542   -6.7550305    257.84583  0.036357279  0.037031835            2 
  592000     1.174725   -6.7550708    258.08947  0.036330161  0.037023148            2 
  593000    1.1795321   -6.7353397    259.36174  0.036447687  0.037014701            2 
  594000    1.1392802   -6.7323241    259.30883  0.036378904  0.037006733            3 
  595000    1.1666003    -6.719232    260.31879  0.036459215  0.036998332            3 
  596000    1.1458367   -6.7126461    260.47863   0.03642039  0.036989746            2 
  597000    1.1332828   -6.7320372    260.60146   0.03637653  0.036981191            2 
  598000    1.1656369   -6.7652929    260.38971  0.036286191  0.036972298            1 
  599000     1.167509   -6.7265505    261.20503  0.036339041  0.036963112            2 
  600000    1.1423175   -6.7270201    261.47051  0.036315349  0.036953788            2 
  601000    1.1466503   -6.7423681    261.66459  0.036281835  0.036944784            5 
  602000    1.1735719   -6.7870419    260.56272  0.036069036  0.036935249            1 
  603000    1.1270353   -6.7083439    261.26443  0.036106195  0.036925071            2 
  604000    1.1292227   -6.7649079    262.25716  0.036183383  0.036914999            2 
  605000    1.1481227    -6.739215    263.02447  0.036229265  0.036905516            2 
  606000    1.1502441   -6.7184626    263.22621  0.036197223   0.03689579            1 
  607000    1.1259952   -6.7161902    263.13759  0.036125425   0.03688646            2 
  608000    1.1117972   -6.7524782    264.14073    0.0362035  0.036876808            1 
  609000    1.1551786   -6.7801067    264.43667  0.036184547  0.036867638            2 
  610000    1.1286675   -6.7295488    264.58932  0.036146082  0.036858568            4 
  611000    1.1710217   -6.7730825    265.00126  0.036143107  0.036849442            2 
  612000    1.1614794   -6.7887713    264.98298   0.03608156  0.036840187            1 
  613000    1.1529017   -6.7409549    265.47977  0.036090236  0.036830819            3 
  614000    1.1670519   -6.7745538    266.88067  0.036221589  0.036821634            2 
  615000    1.1430734   -6.7603538    268.17994  0.036338745  0.036812586            2 
  616000    1.1650922   -6.7574682     267.6274  0.036205005   0.03680382            3 
  617000    1.1428639   -6.7845816    267.72482  0.036159483   0.03679533            2 
  618000    1.1389718   -6.7458034    267.88613  0.036122726  0.036786893            1 
  619000    1.1422395   -6.7203902    268.60397  0.036161009  0.036777918            3 
  620000    1.1591549   -6.7680269    268.59152   0.03610101  0.036768805            3 
  621000    1.1199786   -6.7683052    268.99541  0.036097076   0.03675954            2 
  622000    1.1675273   -6.7099898     270.5118  0.036242202  0.036750761            3 
  623000    1.1671087   -6.7566525    269.91568  0.036104291  0.036742264            1 
  624000     1.173559   -6.7032437    270.83804  0.036169611  0.036733774            3 
  625000    1.1504729   -6.7692954    270.97655  0.036130206  0.036725312            2 
  626000    1.1331711   -6.7583095    271.32615   0.03611903  0.036717133            2 
  627000    1.1430497   -6.7492757    272.41034   0.03620552  0.036709188            2 
  628000    1.1724554    -6.711968    272.52827  0.036163518  0.036701568            2 
  629000    1.1291345   -6.7620926    272.95395  0.036162421  0.036694519            2 
  630000    1.1770362   -6.7376076    274.42109  0.036299086  0.036687172            2 
  631000    1.1449405   -6.7526535    275.27529   0.03635437  0.036680851            1 
  632000    1.1522471   -6.7194842    275.37526   0.03631003  0.036674499            3 
  633000    1.1482686   -6.7615184    275.10782  0.036217459  0.036667743            2 
  634000    1.1672618   -6.7720377    275.99693  0.036277199  0.036661345            2 
  635000    1.1576406   -6.7832398    275.63785  0.036172946  0.036654471            3 
  636000    1.1589472   -6.7608008    277.98547  0.036423672   0.03664792            1 
  637000    1.1584258   -6.7294297    278.42614  0.036424142  0.036642251            1 
  638000    1.1544412   -6.7439254    278.12474  0.036327683  0.036636786            1 
  639000    1.1427598   -6.7219467    278.98888  0.036383526  0.036631403            1 
  640000    1.1376018   -6.7783516     279.1322  0.036345339  0.036625605            2 
  641000    1.1638673   -6.7606284    279.27258  0.036306887  0.036619589            2 
  642000    1.1427645   -6.7495669    279.42196  0.036269725  0.036613938            2 
  643000    1.1604438   -6.7712134     279.6405   0.03624164  0.036607817            3 
  644000    1.1710609   -6.7403113    280.25917   0.03626542  0.036602047            3 
  645000    1.1375884   -6.7742594     280.4416  0.036232765  0.036596037            2 
  646000    1.1181289   -6.7472737    280.92858  0.036239497  0.036590196            1 
  647000    1.1460529   -6.7849675     281.3572  0.036238692  0.036584129            1 
  648000    1.1323978   -6.7144042    282.12724  0.036281795    0.0365782            3 
  649000    1.1472891   -6.7902708    282.12866  0.036226073  0.036572249            2 
  650000    1.1283254   -6.7821947    282.29988  0.036192293  0.036566274            3 
  651000    1.1553268   -6.7748263    282.80609  0.036201496  0.036560444            1 
  652000    1.1702869   -6.7288454    284.16675  0.036319881  0.036554536            2 
  653000    1.1570942   -6.7816287    283.18439  0.036138895  0.036549114            1 
  654000    1.1370628   -6.7813578    284.05753  0.036194894  0.036543105            2 
  655000    1.1396275   -6.7642515    284.49674  0.036195514  0.036537112            2 
  656000    1.1327416   -6.7826032    284.24375  0.036108201  0.036530822            2 
  657000    1.1586519   -6.7845283    285.18488  0.036172612  0.036524084            2 
  658000    1.1535457   -6.7470052     286.1471  0.036239501  0.036517798            2 
  659000    1.1627206   -6.7750166    285.68634  0.036126244  0.036511259            2 
  660000    1.1641645   -6.7823109    286.40149  0.036161804  0.036504974            2 
  661000    1.1600703   -6.7696975     286.4007  0.036106997  0.036498536            2 
  662000    1.1175188   -6.7441209    287.91674  0.036243296  0.036492492            4 
  663000    1.1371166   -6.7569998    287.44107  0.036128842  0.036486383            2 
  664000    1.1400224   -6.7548264    288.82456  0.036248062  0.036480108            1 
  665000    1.1479127   -6.7827679    288.27128  0.036124221  0.036473557            3 
  666000    1.1334494    -6.780067    287.31302  0.035950078  0.036466658            3 
  667000    1.1692944    -6.761974    288.82628  0.036085243  0.036460157            3 
  668000    1.1746899   -6.8041013    289.21084  0.036079197  0.036453287            2 
  669000     1.114059   -6.7723544    289.62875  0.036077323  0.036446741            5 
  670000    1.1549226   -6.8048286    289.33904  0.035987443  0.036440103            1 
  671000    1.1468658   -6.7563746    289.95154  0.036009878  0.036433625            3 
  672000    1.1659185   -6.7869274    289.65057  0.035918969  0.036427257            2 
  673000    1.1506773   -6.8054276    290.47881  0.035968154  0.036421023            2 
  674000     1.139013   -6.7479031    291.58276  0.036051281  0.036414607            1 
  675000    1.1444811   -6.7854083    292.00669  0.036050209  0.036407809            6 
  676000    1.1268122   -6.7349614    291.91493  0.035985568  0.036401004            3 
  677000    1.1422479   -6.7790904    291.89485  0.035929943  0.036393979            3 
  678000    1.1471615   -6.7756657    293.33261  0.036053664  0.036387012            1 
  679000    1.1417133   -6.7795733    292.88829  0.035946035  0.036380208            4 
  680000    1.1698107    -6.766762    292.95857  0.035901785  0.036373298            2 
  681000    1.1329479   -6.8030978    293.35711  0.035897836  0.036366458            1 
  682000    1.1410934   -6.7396669    295.54936  0.036113069  0.036359654            2 
  683000    1.1444411   -6.8000496    294.22817  0.035898995  0.036352392            2 
  684000    1.1433866   -6.7648992    294.72957  0.035907598  0.036345551            3 
  685000    1.1221554   -6.7531237    295.71697  0.035975301  0.036339023            2 
  686000    1.1379579   -6.7653689    297.21662  0.036105031  0.036333237            1 
  687000    1.1476048   -6.7781568    297.05937  0.036033403  0.036326888            1 
  688000    1.1563193   -6.7654292    297.08745  0.035984429  0.036320731            2 
  689000    1.1399962   -6.7524301    297.08431  0.035931823  0.036314784            2 
  690000    1.1203309   -6.7794715    297.77449  0.035963102  0.036308557            2 
  691000    1.1332553   -6.7218863    298.67702  0.036019901  0.036302747            4 
  692000    1.1490333   -6.7322828    298.76337  0.035978248  0.036296573            4 
  693000     1.132057   -6.7932463    298.79734  0.035930416  0.036290469            3 
  694000    1.1361554   -6.7880441     298.9276  0.035894284  0.036284206            2 
  695000    1.1530374   -6.7743557    300.34396  0.036012465   0.03627794            4 
  696000    1.1379712    -6.741411     300.7137  0.036004993  0.036271301            2 
  697000    1.1581888   -6.8042328    299.43348  0.035800273   0.03626457            2 
  698000    1.1542407   -6.7740798    301.28795  0.035970385  0.036257996            2 
  699000    1.1315306   -6.8016399    300.92659  0.035875845  0.036251176            3 
  700000     1.184318   -6.7438407    300.94441  0.035826715  0.036244376            2 
  701000    1.1571967   -6.7775123    302.09413  0.035912284  0.036238025            3 
  702000    1.1443669   -6.7673037     303.2511  0.035998468    0.0362319            1 
  703000    1.1599307   -6.7598046    302.76858  0.035890064  0.036225703            3 
  704000    1.1440073   -6.7537075    303.94286  0.035978084  0.036219407            2 
  705000    1.1535641   -6.8074803    303.95769  0.035928805  0.036213572            2 
  706000    1.1134926   -6.7769408    304.37195  0.035926812   0.03620806            2 
  707000    1.1430114    -6.791649    305.08331  0.035959843   0.03620267            2 
  708000    1.1437562   -6.8110531    304.58042  0.035849861  0.036196559            2 
  709000    1.1417328    -6.764224    305.76763  0.035938837  0.036190394            1 
  710000    1.1071387   -6.7688481    305.38806  0.035843669  0.036184205            2 
  711000     1.150042   -6.8032965    304.82743  0.035727547  0.036177753            4 
  712000    1.1346677   -6.7684856    306.31353  0.035851302   0.03617121            3 
  713000    1.1588102   -6.7455836    306.92977  0.035873045   0.03616499            1 
  714000    1.1149363   -6.7859982    306.95456  0.035825696  0.036158681            2 
  715000    1.1564311   -6.7845113    307.78524  0.035872406  0.036152121            1 
  716000    1.1081262   -6.8085936    307.93173  0.035839354  0.036145836            2 
  717000    1.1489185   -6.7942771    307.50755  0.035740069  0.036139174            2 
  718000    1.1626849   -6.7444209    308.66125  0.035824194  0.036132728            1 
  719000    1.1211479    -6.829704    308.08349  0.035707404  0.036126147            3 
  720000     1.157511   -6.7921378    309.37462  0.035807247  0.036119581            3 
  721000    1.1261293   -6.7757636    310.81387  0.035923933  0.036112991            2 
  722000     1.164809    -6.798083    310.31677  0.035816801  0.036106457            4 
  723000    1.1312319   -6.7796743    310.90967    0.0358356  0.036099785            1 
  724000    1.1383989    -6.808783    310.66847  0.035758342    0.0360936            4 
  725000    1.1241454   -6.7776883    311.81443  0.035840739  0.036087275            2 
  726000    1.1306375   -6.7634407    310.98523  0.035696193  0.036081109            2 
  727000     1.149639    -6.789577    310.92646  0.035640355  0.036074371            3 
  728000    1.1353412   -6.7628858    312.57072  0.035779616  0.036068148            2 
  729000    1.1402699   -6.7583234    312.56594  0.035729989  0.036062335            2 
  730000    1.1510788   -6.7756045    313.51793  0.035789718  0.036056416            2 
  731000    1.1319231   -6.8032451    313.45397  0.035733467  0.036050431            2 
  732000    1.1315699   -6.7378016    313.97641  0.035744127  0.036044591            3 
  733000    1.1343215   -6.7950347    316.25367   0.03595426  0.036039182            1 
  734000    1.1477665   -6.7728561    315.74354  0.035847359  0.036033464            2 
  735000    1.1388537    -6.760502    315.16111  0.035732552  0.036027793            4 
  736000    1.1591443   -6.7960036    315.26209  0.035695436  0.036021864            2 
  737000    1.1171894   -6.7532549    316.12171    0.0357442  0.036015917            1 
  738000     1.143327    -6.770314    315.90581  0.035671387  0.036009422            3 
  739000    1.1392693   -6.7890787    317.06983  0.035754378  0.036003331            1 
  740000    1.1285227   -6.7929542    316.21627   0.03560994  0.035997047            2 
  741000    1.1409516    -6.786095     318.4147   0.03580912  0.035990866            1 
  742000    1.1331323   -6.8071302    318.32031   0.03575026   0.03598511            3 
  743000    1.1505259   -6.7818345    318.39458  0.035710474  0.035979143            2 
  744000    1.1308269   -6.8034372    319.31925  0.035766046  0.035973162            3 
  745000    1.1153776   -6.8138884     319.5904  0.035748367  0.035967109            1 
  746000    1.1341932   -6.7989555    319.90305  0.035735371  0.035961275            1 
  747000    1.1377032   -6.7590983    319.82828  0.035679192  0.035955541            2 
  748000    1.1161155   -6.8288953      319.667  0.035613525  0.035949604            3 
  749000    1.1468301   -6.8004646     320.8229  0.035694582   0.03594391            1 
  750000     1.116732   -6.8437563    320.57726  0.035619696   0.03593787            1 
  751000    1.1065529   -6.7884965    321.78413  0.035706184  0.035931771            4 
  752000    1.1895816   -6.7259616    322.61201  0.035750445  0.035926003            3 
  753000     1.132757    -6.820497    322.51895  0.035692669   0.03592029            1 
  754000    1.1360952   -6.8088462    322.43379  0.035635918  0.035914656            1 
  755000    1.1310543   -6.8034792    323.37871  0.035693015  0.035908976            2 
  756000    1.1386413   -6.7911556    324.18468  0.035734643  0.035903235            2 
  757000    1.1359745   -6.7785059    325.03288  0.035780811  0.035897688            3 
  758000     1.138611   -6.7631627    324.92015  0.035721212  0.035892071            3 
  759000    1.1087414    -6.797154    325.01532  0.035684598   0.03588622            3 
  760000    1.1579839   -6.8252693    323.85795   0.03551074  0.035879904            2 
  761000     1.117206   -6.8201096     325.2724  0.035618966    0.0358736       -1e+20 
  762000    1.1462439   -6.8032493    324.75129  0.035515233  0.035866797            4 
  763000    1.1267233   -6.7916418     324.5046  0.035441743  0.035860066            1 
  764000    1.1441165   -6.7704781    325.52388  0.035506531  0.035853555            3 
  765000      1.14098    -6.781148    326.10048  0.035522928  0.035846674            2 
  766000    1.1305004   -6.8196981    325.99436  0.035465009  0.035839508            2 
  767000    1.1428593   -6.8117634      326.352  0.035457627  0.035832164            2 
  768000    1.1437408   -6.7909188    326.92246  0.035473357  0.035825168            2 
  769000    1.1352448    -6.783766    327.87873  0.035530855   0.03581889            2 
  770000    1.1108174   -6.8098927    325.95056  0.035276035  0.035812144            2 
  771000    1.1252739   -6.8449328    328.05502  0.035457741  0.035805153            1 
  772000    1.1139154   -6.7801144    327.76691  0.035380711   0.03579801            1 
  773000    1.1314862   -6.8195863    327.74054  0.035332097  0.035790452            3 
  774000    1.1192991   -6.8061853    328.18732  0.035334552   0.03578284            1 
  775000    1.1071771   -6.8283649    328.61169   0.03533459    0.0357755            3 
  776000    1.1357294   -6.7622076     330.0708  0.035445748  0.035768344            3 
  777000    1.1088597   -6.7746083    329.36013  0.035323909  0.035761146            2 
  778000    1.1239015   -6.7937867    329.51741  0.035295352  0.035753739            3 
  779000     1.107578   -6.8096485    330.70399  0.035376978  0.035746121            2 
  780000    1.1311758    -6.804145    331.67371  0.035435226  0.035738861            2 
  781000    1.1296772   -6.7822219    331.59697  0.035381665  0.035731579            2 
  782000    1.1334822   -6.7981533    332.16168  0.035396599  0.035724559            2 
  783000    1.1275958   -6.7796999     333.3484  0.035477692  0.035717336            2 
  784000     1.104259    -6.849149    330.97516  0.035180183    0.0357101            3 
  785000    1.1131017   -6.8415424    333.16266  0.035367586   0.03570313            1 
  786000    1.1322375   -6.8027167    333.27405  0.035334399   0.03569624            2 
  787000    1.1117958   -6.7808978    333.21329  0.035283067  0.035689608            1 
  788000    1.1027294   -6.8056656    335.09366  0.035437147  0.035682785            3 
  789000    1.1336862   -6.8390574    334.32108  0.035310634  0.035676064            1 
  790000    1.1367515   -6.8367989    334.10775  0.035243434  0.035669081            2 
  791000    1.1199454   -6.7889616    334.63641  0.035254574  0.035662031            2 
  792000    1.1119214   -6.7879417    334.99319    0.0352476  0.035654599            1 
  793000    1.1324003   -6.7876395    335.95434  0.035304155  0.035647148            1 
  794000     1.143271   -6.8106249    335.38371  0.035199802  0.035639851            4 
  795000    1.0971378   -6.8175004    335.70451  0.035189152  0.035632512            3 
  796000    1.1156041   -6.8042662    336.18911  0.035195677  0.035624911            3 
  797000    1.1297489   -6.8237912    336.93547  0.035229556   0.03561772            2 
  798000    1.1203812   -6.8047889    336.36647  0.035125989  0.035610469            2 
  799000    1.1169914   -6.8220816    336.47938  0.035093802  0.035602916            1 
  800000     1.113641   -6.8481311    337.22298  0.035127393  0.035595556            2 
  801000    1.0989947   -6.7945321    338.35083  0.035200877  0.035588026            2 
  802000    1.1120091   -6.7654761    338.43413  0.035165641  0.035580381            1 
  803000    1.1073864   -6.8433699    338.25122  0.035102866   0.03557253            3 
  804000    1.1025003   -6.7976253    338.98957  0.035135734  0.035564775            3 
  805000    1.1031267   -6.8397745    338.95967  0.035088993  0.035557084            3 
  806000    1.1092163   -6.7779959    339.33969  0.035084749   0.03554928            4 
  807000    1.1350642   -6.8450861    338.12586   0.03491593  0.035540916            2 
  808000    1.1060826    -6.797217    339.01976  0.034964909  0.035532669            1 
  809000    1.1128175   -6.8159767    340.09125  0.035032061  0.035524094            4 
  810000    1.1307964   -6.7819851    340.61969  0.035043178  0.035516122            2 
  811000    1.1284847   -6.7823959    342.39985  0.035182886  0.035508746            2 
  812000    1.1259448   -6.8359503    341.90524  0.035088797  0.035501211            4 
  813000    1.1141577   -6.8246867    340.63265  0.034915196  0.035493297            3 
  814000    1.1293073   -6.7959748    342.99116  0.035113755  0.035485971            1 
  815000     1.121228   -6.8023273    343.80817  0.035154209   0.03547871            2 
  816000     1.136546   -6.8034475    344.39578  0.035171138  0.035471955            2 
  817000    1.1383152   -6.8106105    344.98545  0.035188235  0.035465101            2 
  818000    1.1406502   -6.8467952    344.53826   0.03509966  0.035458333            1 
  819000    1.1236339   -6.7653926    346.23216  0.035229158  0.035451752            2 
  820000    1.1282584   -6.7827513    347.03685  0.035267973  0.035445575            5 
  821000    1.1234202   -6.7760621    346.99423  0.035220689  0.035439336            2 
  822000    1.1308325   -6.7662785    348.38094  0.035318425  0.035433248            2 
  823000    1.1429509   -6.7952551    347.37173  0.035173323  0.035427468            4 
  824000    1.1218304    -6.839594    348.05266    0.0351995  0.035421429            2 
  825000    1.1111868   -6.7777942    349.80649  0.035333989  0.035415787            2 
  826000    1.1228197   -6.8497036    348.45916  0.035155282  0.035410074            2 
  827000    1.1080954   -6.8326114    349.79866  0.035247749  0.035404366            2 
  828000    1.1140309   -6.8475797    350.00102  0.035225545  0.035398366            2 
  829000    1.1131981   -6.7917128    350.25301  0.035208384  0.035392621            2 
  830000     1.104044   -6.8102639    351.53671  0.035294851  0.035386942            2 
  831000      1.11452    -6.801435    351.35449  0.035234104  0.035381211            2 
  832000     1.116244   -6.8085338    351.96024  0.035252428  0.035375438            3 
  833000    1.1493276   -6.8034162    352.94345  0.035308469  0.035369895            3 
  834000    1.1107983   -6.8252231    352.06481  0.035178338  0.035364305            1 
  835000    1.1206575   -6.7837633    352.31178  0.035160857  0.035358619            4 
  836000    1.1152654   -6.8062766    354.06089  0.035293151  0.035352835            1 
  837000    1.1405724   -6.8278038    353.16912  0.035162198  0.035347528            2 
  838000    1.1122541   -6.8253309     354.3118   0.03523387  0.035342661            2 
  839000    1.1159924   -6.8832558    354.63847  0.035224322   0.03533753            2 
  840000    1.1187623   -6.8301977    355.27061  0.035245101  0.035332449            3 
  841000    1.1454156   -6.8067762    355.06322  0.035182641  0.035327307            3 
  842000    1.1212983   -6.8474544    356.57325  0.035290305  0.035322578            2 
  843000    1.1233842   -6.8227472     357.7013  0.035359954  0.035318224            3 
  844000    1.1149081   -6.7766955    358.81231  0.035427755    0.0353135            1 
  845000    1.1233275   -6.8286325    358.79016  0.035383645   0.03530888            3 
  846000    1.1553027   -6.8536784    357.77152  0.035241481  0.035304056            2 
  847000    1.1078936   -6.8309937    359.10086  0.035330663  0.035299226            1 
  848000    1.1275591   -6.8279658    359.18175  0.035296949  0.035294767            1 
  849000    1.1199645   -6.8484601    358.98174  0.035235742  0.035290116            2 
  850000    1.1005706   -6.8288093    359.63158  0.035257998  0.035285409            4 
  851000    1.1138372   -6.8249645    361.85844   0.03543463  0.035281169            5 
  852000    1.1290649    -6.801782    360.62446  0.035272345  0.035276958            3 
  853000    1.1027311   -6.7877081    360.91055  0.035258944  0.035272789            3 
  854000    1.1364905    -6.785412    362.70967  0.035393215   0.03526863            2 
  855000    1.0823024   -6.8254377    362.00125  0.035282773  0.035264612            3 
  856000    1.1169794   -6.8329195    363.19389  0.035357661  0.035260388            2 
  857000    1.1360263   -6.8187803    363.20403  0.035317389  0.035256362            2 
  858000    1.0912812     -6.80919     363.6558  0.035320105  0.035252528            5 
  859000    1.1159574   -6.8179995    363.92048  0.035304665  0.035248433            1 
  860000    1.1061294   -6.8462125    364.12374  0.035283308  0.035244574            2 
  861000    1.0931833   -6.8314558    364.35093  0.035264318  0.035240557            1 
  862000    1.1163449   -6.8080882    364.86526   0.03527313  0.035236185            2 
  863000    1.1219653   -6.8367691    364.45521  0.035192663  0.035231862            1 
  864000    1.1213921   -6.8027502    365.31809  0.035235155  0.035227631            2 
  865000    1.1326134    -6.871169    365.95551  0.035255829  0.035223359            3 
  866000    1.1135693   -6.8353886    366.16416  0.035235196  0.035219215            1 
  867000    1.1147213   -6.8021041    366.98401  0.035273357  0.035215115            3 
  868000    1.1009133   -6.8236967    366.35069  0.035171917   0.03521084            2 
  869000    1.1081472   -6.8089279    367.48673  0.035240385  0.035206544            1 
  870000    1.1309598   -6.8341891    367.19612  0.035172042  0.035202336            3 
  871000    1.1206944   -6.7773844    368.75298  0.035280614  0.035197937            4 
  872000    1.1276219   -6.8341606    369.25782    0.0352884  0.035193777            2 
  873000    1.1316986   -6.8426438    367.65291   0.03509478  0.035189767            1 
  874000    1.1148621   -6.8369651    368.69063  0.035153569   0.03518547            2 
  875000    1.1207589   -6.8366755     370.1092  0.035248495  0.035181494            1 
  876000    1.1122465   -6.8502848    368.94495  0.035097503  0.035177638            2 
  877000    1.0944751   -6.8360575    370.43099  0.035198687  0.035173439            1 
  878000    1.1201435   -6.8097553    371.48434  0.035258574  0.035169399            2 
  879000      1.10485   -6.8340506    371.51056  0.035220948   0.03516507            4 
  880000    1.1322378   -6.8487425    371.06345  0.035138584  0.035160608            2 
  881000    1.1117799   -6.8533555    371.31626  0.035122612    0.0351564            3 
  882000    1.1172809   -6.8228326    372.79342  0.035222357  0.035152103            3 
  883000    1.1251116   -6.8378302    371.97672  0.035105391  0.035147656            6 
  884000    1.1124082   -6.7833645    373.07496  0.035169209  0.035142917            2 
  885000    1.0829031   -6.8488991    372.87317  0.035110468  0.035138318            2 
  886000    1.1339551   -6.8427381    372.76298  0.035060475  0.035133698            2 
  887000    1.1269884   -6.8427217    373.47809  0.035088133  0.035129261            1 
  888000    1.1397972   -6.8606073     374.6384  0.035157508  0.035124782            5 
  889000    1.1094579   -6.8732273    374.31613  0.035087751  0.035120292            2 
  890000    1.1038047   -6.8172852      375.718  0.035179588  0.035115859            2 
  891000    1.1213161   -6.8705503    375.33347   0.03510414  0.035111206            2 
  892000    1.1080079   -6.8461568    375.15135  0.035047772  0.035106622            3 
  893000    1.1067123   -6.8191257    376.86556  0.035168492  0.035101999            1 
  894000    1.1126745   -6.8161317    376.80829  0.035123815  0.035097352            2 
  895000     1.102208   -6.7921119    378.79781  0.035269814  0.035092709            3 
  896000    1.1223629     -6.84133    376.03915  0.034973879  0.035087789            1 
  897000    1.1200768   -6.8768928    376.54796  0.034982159  0.035083131            3 
  898000     1.126549   -6.8240567    377.81965  0.035061214  0.035078305            1 
  899000    1.0958575   -6.8616333    376.75358  0.034923394  0.035073358            4 
  900000    1.1201537   -6.8338844     378.8841  0.035081861  0.035068382            4 
  901000    1.0964906    -6.868524    377.21342  0.034888403   0.03506282            2 
  902000     1.106565   -6.8534101    377.31308  0.034858932  0.035057291            4 
  903000    1.1057494   -6.8585428    378.24291  0.034906138  0.035052007            2 
  904000    1.0997106   -6.8354883    379.52537  0.034985746  0.035046777            3 
  905000    1.0953991   -6.8347051    379.34858  0.034930809  0.035041738            1 
  906000    1.1043028   -6.8540828     380.7792  0.035023841  0.035036748            4 
  907000    1.1000392   -6.8069094    381.77423  0.035076648  0.035031897            2 
  908000    1.1266983   -6.8115771    381.28025  0.034992681  0.035027148            3 
  909000    1.0936732   -6.8308818     381.0973  0.034937413  0.035022484            2 
  910000    1.1047751   -6.8585941    381.69328  0.034953597  0.035017889            2 
  911000    1.1146214   -6.7966265    383.00583  0.035035293  0.035013385            4 
  912000    1.1145128   -6.8367028     383.5857  0.035049863  0.035008996            2 
  913000    1.0833511   -6.8273552     383.6691  0.035019086  0.035004567            1 
  914000    1.0901048   -6.8412769    384.15806  0.035025352  0.035000281            2 
  915000    1.1230055   -6.8562821    383.97473  0.034970376   0.03499601            4 
  916000    1.1164222   -6.8016644    384.82622  0.035009663  0.034991766            3 
  917000    1.1089792   -6.8177563    386.77709  0.035148772  0.034987874            2 
  918000    1.1197538   -6.8469114    385.98822  0.035038873  0.034984076            1 
  919000    1.1355415    -6.861146    387.09605  0.035101201  0.034979917            1 
  920000    1.0866667   -6.8868461    385.77939  0.034943786  0.034975722            3 
  921000    1.0989014   -6.8448821    387.09355  0.035024752  0.034971583            4 
  922000    1.0989107   -6.8711999    386.46847  0.034930267  0.034967462            4 
  923000    1.1043409   -6.8568904    388.66282   0.03509054  0.034963466            4 
  924000    1.1042214   -6.8245284    387.76892  0.034971944   0.03495932            2 
  925000    1.1095021   -6.8817633    387.95595  0.034950987  0.034955033            2 
  926000    1.0753414   -6.8509421    388.26268  0.034940846  0.034950748            1 
  927000    1.0884363   -6.8378694    388.36733  0.034912561  0.034946469            2 
  928000     1.102872   -6.8593805     390.0358  0.035024766  0.034941926            3 
  929000    1.0950316   -6.8394395    389.14817  0.034907443  0.034937283            3 
  930000    1.0923782   -6.9002984    388.99234  0.034855944  0.034932794            2 
  931000    1.0931802   -6.8549639    389.51405  0.034865203  0.034928117            2 
  932000    1.1003015   -6.8221149    390.28843  0.034897034  0.034923368            2 
  933000    1.0863822   -6.8822649    389.34064  0.034774977  0.034918808            2 
  934000    1.1072058   -6.8633363    391.12445  0.034896899  0.034914268            4 
  935000    1.1032453   -6.8653546    391.42701  0.034886543  0.034909441            4 
  936000    1.0808627   -6.8661277    390.79245  0.034792775  0.034904684            1 
  937000    1.1147599    -6.843023    392.27279  0.034887299  0.034899831            2 
  938000    1.0960481    -6.833832    392.48019  0.034868531  0.034895302            1 
  939000    1.1209958   -6.8648081    391.59868  0.034753166  0.034890533            1 
  940000    1.0731435   -6.8522305    394.76866  0.034997222   0.03488578            2 
  941000    1.1134559   -6.8665963     392.9968  0.034803117  0.034881168            1 
  942000    1.1053242   -6.8538706    394.12433  0.034865917   0.03487678            2 
  943000    1.1017593   -6.8649874    395.32153  0.034934741  0.034872305            2 
  944000    1.1187469   -6.8518293    395.01544  0.034870713   0.03486782            2 
  945000    1.0924677   -6.8076451    396.07609  0.034927345  0.034863405            1 
  946000    1.0765036   -6.8329284    397.75642  0.035038444  0.034859398            1 
  947000    1.1107927   -6.8235611    397.33675  0.034964515  0.034855447            3 
  948000    1.1001033   -6.8675548    395.28507  0.034747281   0.03485117            4 
  949000    1.0921796   -6.8697168    397.08036  0.034868314  0.034846482            4 
  950000     1.111302   -6.8820896    397.89491  0.034903062  0.034841953            5 
  951000    1.1022825   -6.8322877    397.77336   0.03485571  0.034837753            1 
  952000    1.0863895   -6.8547061    398.72454  0.034902358  0.034833577            2 
  953000    1.0954366   -6.8546691    398.97966  0.034888043  0.034829347            1 
  954000     1.082473   -6.8604327    399.45156  0.034892694  0.034824915            1 
  955000    1.0946943   -6.8272209    401.82785  0.035063512  0.034820768            2 
  956000    1.0758452   -6.8224707    401.40064  0.034989595  0.034816383            2 
  957000    1.0902561   -6.8543798    399.63449  0.034799242  0.034811988            2 
  958000    1.1206864   -6.8645312    399.89451  0.034785535  0.034807925            2 
  959000    1.0694599   -6.8406598    401.13442  0.034857006  0.034803673            4 
  960000     1.108352   -6.8888209    401.02109  0.034810859  0.034799078            1 
  961000    1.0933305   -6.8352073    401.81617  0.034843581  0.034794722            3 
  962000    1.0976516   -6.8674329     400.7032   0.03471095  0.034790201            2 
  963000    1.0961055   -6.8356143    401.53859  0.034747195  0.034785388            3 
  964000    1.1102872   -6.8179484    402.39139  0.034784871  0.034780844            1 
  965000    1.0868291   -6.8644276    401.51872  0.034673465  0.034776344            1 
  966000    1.0955209   -6.8666756    402.94878  0.034760937  0.034771953            2 
  967000    1.0807805   -6.8625648    404.07145  0.034821739   0.03476753            3 
  968000    1.1065184   -6.8378223    405.25234  0.034887426  0.034763292            1 
  969000    1.0773816   -6.8459103    402.89123  0.034648369  0.034759121            2 
  970000    1.0976301   -6.8645071    405.86275  0.034867934  0.034754828            3 
  971000    1.0548811   -6.8393472    404.64217  0.034727271  0.034750419            9 
  972000    1.0827447   -6.8635983    405.24535  0.034743257  0.034745933            3 
  973000    1.0937425   -6.8753649    404.94453  0.034681786  0.034741517            2 
  974000    1.0966996   -6.8429718    405.32665  0.034678872  0.034736761            1 
  975000    1.0769245   -6.8506647    406.24889  0.034722127  0.034732579            3 
  976000    1.0914597   -6.8432201    407.66788  0.034807708  0.034728279            3 
  977000    1.1256036   -6.8789877    407.20582   0.03473267  0.034723934            2 
  978000     1.098404   -6.8618583    407.27995  0.034703472  0.034719414            5 
  979000    1.0949568   -6.8456414    409.56648  0.034862656  0.034714842            2 
  980000    1.0797459   -6.8783141    407.16438  0.034622821   0.03471035            1 
  981000    1.0894008   -6.8412308    409.17686  0.034758483  0.034705695            2 
  982000    1.0848143    -6.855573    409.41757  0.034743514  0.034701177            1 
  983000     1.105541   -6.8356797    409.21026  0.034690595  0.034696957            2 
  984000    1.0753779   -6.8522868     409.9756  0.034720156  0.034692687            3 
  985000    1.0700829   -6.8575862    409.41785   0.03463772  0.034688079            2 
  986000    1.0825548   -6.8279335    410.35328  0.034681649  0.034683523            2 
  987000    1.0932961   -6.8894882    410.36847  0.034647794  0.034678726            4 
  988000    1.0724384   -6.8786448    411.27707  0.034689362  0.034673925            4 
  989000    1.0958845   -6.8610985    410.78052  0.034612447  0.034669138            2 
  990000    1.0687078   -6.8542237    411.05197  0.034600334   0.03466417            2 
  991000    1.0861283   -6.8589815    411.61625   0.03461287  0.034659569            7 
  992000    1.1034604   -6.8383338    412.44299  0.034647429  0.034654885            1 
  993000    1.1171047   -6.8826074    413.39263  0.034692232  0.034650494            3 
  994000    1.0813386   -6.8297105    414.32923  0.034735851  0.034646197            2 
  995000    1.0857289   -6.8772876    412.91596  0.034582576  0.034641998            1 
  996000    1.0921819   -6.8470598    414.76701  0.034702728  0.034637694            4 
  997000    1.0886093   -6.8447093    413.90812  0.034596132  0.034633228            1 
  998000     1.105076   -6.8675732    415.35539  0.034682313  0.034628781            1 
  999000    1.1090576   -6.8833032    414.87843  0.034607811  0.034624317            3 
 1000000    1.0824709   -6.8693777    414.31934  0.034526612  0.034619852            3 
 1001000    1.0976929   -6.8984655    414.91979  0.034542107  0.034615442            2 
 1002000     1.097879   -6.8678733    416.65846  0.034652234  0.034611129            3 
 1003000    1.0934868   -6.8709935    416.72856   0.03462351    0.0346069            3 
 1004000     1.097266   -6.8756007    418.12427   0.03470487  0.034602621            3 
 1005000    1.0670553   -6.8621434    418.24704  0.034680517  0.034598218            2 
 1006000    1.0776823   -6.8650662    417.82021  0.034610686  0.034593719            4 
 1007000     1.103649   -6.8805292    417.60248  0.034558299  0.034589217            1 
 1008000    1.1077126   -6.8785889    417.77615  0.034538372  0.034584317            1 
 1009000    1.0840887   -6.8751328      418.789  0.034587793  0.034579695            1 
 1010000     1.087269   -6.8502462    418.10549  0.034497153  0.034574941            4 
 1011000    1.0931247   -6.9156184    419.13141  0.034547594  0.034570328            3 
 1012000    1.1014707   -6.8597409    419.95641  0.034581391  0.034565566            2 
 1013000    1.0960738   -6.8785105    418.20973  0.034403565  0.034560769            3 
 1014000    1.1056877   -6.9145694    418.21857  0.034370363  0.034555644            2 
 1015000    1.0840072   -6.8537049    420.61299  0.034533086  0.034550661            1 
 1016000    1.1121254    -6.887837    419.13961  0.034378249  0.034545565            2 
 1017000    1.0862006   -6.8609497      418.861  0.034321616  0.034540487            2 
 1018000     1.079358   -6.9068133    419.47235  0.034337946  0.034535024            4 
 1019000    1.0940461   -6.8930936    420.79177   0.03441215  0.034529722            3 
 1020000    1.0995469   -6.8791421    422.06303  0.034482273  0.034524423            5 
 1021000    1.0791412   -6.8723153    421.58162  0.034409208  0.034519075            2 
 1022000    1.0783581    -6.869615    421.84031  0.034396633  0.034513833            3 
 1023000    1.1021846   -6.8549459    423.13369  0.034468369  0.034508749            2 
 1024000     1.085598   -6.9000467    422.73495  0.034402258   0.03450355            1 
 1025000    1.0783125   -6.8268551    423.07684  0.034396491  0.034498375            2 
 1026000    1.1111973   -6.8581576    422.46975  0.034313658  0.034492857            4 
 1027000    1.0731709   -6.8850914    423.69071  0.034379317  0.034487239            2 
 1028000    1.0847719   -6.8903791    422.73936  0.034268755  0.034481899            1 
 1029000    1.0877187    -6.857445    423.97549  0.034335559  0.034476472            1 
 1030000    1.1197038   -6.8661008    423.67574  0.034277972  0.034471163            2 
 1031000    1.0995614   -6.8924635     425.3114  0.034376932  0.034465506            3 
 1032000    1.1006508   -6.8618274    424.12337  0.034247688  0.034459835            3 
 1033000    1.0466307   -6.8847225    424.51806  0.034246375  0.034454265            2 
 1034000    1.1043399   -6.8488264    425.72224  0.034310303  0.034448611            3 
 1035000    1.0952745    -6.859276    426.01437  0.034300674  0.034443258            1 
 1036000    1.0850253   -6.9109141    426.29178  0.034289879  0.034437856            3 
 1037000    1.0703816   -6.8702079    426.02345   0.03423525  0.034432332            1 
 1038000    1.0839116   -6.8695733    428.52191  0.034402851  0.034426894            3 
 1039000    1.0777214    -6.907056    427.10859  0.034256384  0.034421459            3 
 1040000     1.056964   -6.9180385    427.26538  0.034236008  0.034416239            1 
 1041000    1.0805809   -6.9107247    428.01052   0.03426277  0.034410874            8 
 1042000    1.0911236    -6.906995    427.88322  0.034219707  0.034405307            1 
 1043000    1.0688799   -6.9020175    428.21961  0.034213775    0.0343998            3 
 1044000    1.0736642   -6.8626166    430.09432  0.034330645  0.034394511            1 
 1045000    1.0951457   -6.8800813    429.73282  0.034268965  0.034389409            3 
 1046000    1.0798157   -6.9211279    430.07895  0.034263779  0.034384074            1 
 1047000    1.0640802    -6.917923    431.00162   0.03430449  0.034378645            3 
 1048000    1.0680995   -6.8762712     430.3739  0.034221844  0.034373103            2 
 1049000    1.0824044    -6.879543    430.64652  0.034210877  0.034367725            4 
 1050000    1.0742723   -6.8523649    432.84411  0.034352707  0.034362268            1 
 1051000    1.0750004   -6.8910748     432.4744  0.034290707  0.034356935            2 
 1052000    1.0926402   -6.8877454    431.66159  0.034193725  0.034351747            3 
 1053000     1.073247   -6.8754075    431.48085  0.034146949  0.034346404            4 
 1054000    1.0836223   -6.8930479    432.18639  0.034170334  0.034341255            2 
 1055000    1.1094266    -6.881401    434.53301  0.034323303  0.034336122            1 
 1056000    1.0756382    -6.891873    433.72593  0.034227109  0.034331091            4 
 1057000    1.0755795    -6.880865    434.25684  0.034236584  0.034326009            4 
 1058000    1.0750449   -6.8749849    434.89037  0.034254125  0.034320998            4 
 1059000    1.0870366   -6.9189281    433.18986  0.034087965  0.034315847            3 
 1060000    1.0698287   -6.8629269    435.25406  0.034218086   0.03431063            6 
 1061000    1.0925822    -6.899315    436.66396  0.034296572   0.03430562            3 
 1062000    1.1046998   -6.8539904    436.84594  0.034278558  0.034300611            2 
 1063000    1.1011728   -6.8998692    436.78898  0.034241845  0.034295657            2 
 1064000    1.0771164   -6.8911256    436.15759  0.034160212  0.034290552            2 
 1065000    1.0731358   -6.8962966    436.46463  0.034152162  0.034285442            4 
 1066000    1.0751632   -6.8851382    437.98455  0.034238942  0.034280154            2 
 1067000    1.0759015   -6.9169407    437.97851  0.034206382  0.034274987            2 
 1068000     1.076911   -6.9001651    436.55833   0.03406354  0.034269871            3 
 1069000    1.0657143   -6.8896772     437.7234  0.034122498  0.034264475            3 
 1070000    1.0692018   -6.9027997    438.75824  0.034171203  0.034259153            2 
 1071000    1.0737527   -6.8842846    440.46605  0.034272179  0.034254116            7 
 1072000    1.1066531   -6.8863878    440.70207  0.034258557  0.034249207            2 
 1073000    1.0881033   -6.8597891    440.72506  0.034228414  0.034244414            2 
 1074000    1.0636679   -6.9122726    440.45621  0.034175683  0.034239813            2 
 1075000    1.0834844   -6.8984368    441.40335  0.034217314  0.034235027            5 
 1076000    1.0668779   -6.8981339    442.70861  0.034286602  0.034230176            3 
 1077000    1.1043642   -6.8615063    441.60659  0.034169498  0.034225664            1 
 1078000    1.0629829   -6.9125482    441.81384  0.034153822  0.034220881            5 
 1079000    1.0818153   -6.9338723    443.19862  0.034229118  0.034215984            1 
 1080000    1.0837559   -6.9126885    443.83808  0.034246765  0.034211113            2 
 1081000    1.0799448   -6.8718918    443.31889  0.034175061  0.034206199            1 
 1082000    1.0698978   -6.8898354    443.30135  0.034142125   0.03420127            2 
 1083000    1.0651581   -6.8954067    444.35147  0.034191403  0.034196287            1 
 1084000    1.0726877   -6.9259685    444.59422  0.034178523  0.034191533            3 
 1085000    1.0822355   -6.9084443    444.17244  0.034114626  0.034186542            2 
 1086000    1.0870765   -6.9044635    443.98748  0.034069021  0.034181651            1 
 1087000     1.049908   -6.9060812    443.89015  0.034030217  0.034176626            2 
 1088000    1.0556184   -6.9021871    444.03642  0.034010143   0.03417158            2 
 1089000    1.0808733   -6.9456608    443.79305  0.033960288  0.034166488            2 
 1090000    1.0845411   -6.8967449    445.39034  0.034051249  0.034161366            3 
 1091000    1.0610406   -6.8918502    445.84967  0.034055123  0.034156433            1 
 1092000    1.0879907   -6.8762609    445.93058  0.034030111  0.034151349            3 
 1093000    1.0799873   -6.9197689    447.25885  0.034100248  0.034146072            3 
 1094000    1.0771572   -6.8920574    446.89409  0.034041293  0.034140659            3 
 1095000    1.0680675   -6.9219015    447.49034  0.034055582  0.034135414            2 
 1096000    1.0907126   -6.9251169    447.69759  0.034040267  0.034130152            4 
 1097000    1.0724945   -6.8775208    449.05131  0.034112071  0.034124743            2 
 1098000    1.0756471   -6.9313924    448.23446  0.034019009  0.034119577            2 
 1099000    1.0887442   -6.9120522    448.25172  0.033989363   0.03411439            4 
 1100000    1.0678668   -6.9024307    449.52912  0.034055236  0.034109027            1 
 1101000    1.0781047   -6.8801056    447.74406  0.033889197  0.034103761            5 
 1102000    1.0858044   -6.8890567    449.29401  0.033975651   0.03409841            1 
 1103000    1.0644016   -6.8953012    450.33737  0.034023675  0.034093293            3 
 1104000    1.0629574   -6.9024511    450.82061  0.034029334  0.034088045            2 
 1105000    1.0645054   -6.9106838    451.19302  0.034026623  0.034082695            2 
 1106000    1.0783648   -6.9360873    450.20803  0.033921642   0.03407734            3 
 1107000    1.0661068   -6.8928347    452.46285  0.034060738  0.034072195            2 
 1108000    1.0695928   -6.8752983    452.16517  0.034007609  0.034067368            3 
 1109000    1.0720201    -6.873764    453.84316  0.034103033  0.034062426            1 
 1110000    1.0786867   -6.9393826    451.04107  0.033861942  0.034057248            5 
 1111000    1.0577927   -6.9288691    451.88757  0.033894957   0.03405206            6 
 1112000    1.0891826    -6.893495    453.79167   0.03400717  0.034046815            5 
 1113000    1.0514797   -6.9003929    453.15126  0.033928666  0.034041638            2 
 1114000    1.0683982   -6.8999306     453.7955  0.033946402  0.034036508            2 
 1115000    1.0762591   -6.8864607    453.92251   0.03392545    0.0340311            6 
 1116000    1.0712995   -6.9286606    454.63314  0.033948114  0.034025946            3 
 1117000    1.0739012   -6.9260797    453.57599  0.033838853  0.034020788            2 
 1118000    1.0621736   -6.9252748    454.97025  0.033912511  0.034015359            2 
 1119000    1.0612386    -6.917064    453.59165  0.033779539  0.034009703           10 
 1120000    1.0723183   -6.9072901    454.24148  0.033797729  0.034004297            2 
 1121000    1.1075939   -6.9418142    455.93235  0.033893276  0.033998791            2 
 1122000    1.0636883   -6.8925239    456.66283  0.033917323  0.033993161            3 
 1123000    1.0699221    -6.907945    455.72914  0.033817834  0.033987521            3 
 1124000    1.0977375   -6.8923867    455.99747  0.033807642  0.033981957            2 
 1125000    1.0563613   -6.8809247    455.92498  0.033772221    0.0339766            2 
 1126000    1.0664428   -6.9046741    456.77357   0.03380503  0.033971159            7 
 1127000    1.0772625   -6.9084753    456.07881  0.033723662  0.033965451            3 
 1128000    1.0700462   -6.8931595    456.36096   0.03371461  0.033959849            2 
 1129000     1.055138    -6.867701    457.33563  0.033756689  0.033954298            3 
 1130000    1.0729882   -6.9160786    456.76695  0.033684878   0.03394882            3 
 1131000    1.0816339   -6.9188155    457.26037  0.033691451  0.033943229            3 
 1132000    1.0774453   -6.9615911    458.06829  0.033721164   0.03393735            3 
 1133000    1.0584701   -6.9413649    458.84435  0.033748481   0.03393145            3 
 1134000    1.0811566   -6.9105878    459.67314  0.033779625  0.033925513            3 
 1135000    1.0661003   -6.8903665    458.88109   0.03369171  0.033919692            3 
 1136000     1.076885   -6.9296371    460.50338  0.033781058  0.033913839            2 
 1137000    1.0828728   -6.9568726    458.76297  0.033623789   0.03390774            1 
 1138000    1.0580531   -6.8897783    460.83949  0.033746301  0.033901689            3 
 1139000    1.0672802   -6.9258503    460.21186  0.033670754  0.033895661            3 
 1140000    1.0489239   -6.9010426    460.23771  0.033643107  0.033889815            3 
 1141000    1.0481017   -6.9226424    460.40192  0.033625615  0.033883756            4 
 1142000    1.0483038    -6.910247    461.27227  0.033659681  0.033877758            3 
 1143000    1.0715216   -6.9280563     461.0675  0.033615304  0.033871893            5 
 1144000    1.0562727   -6.9310349    461.84961  0.033642891  0.033865751            2 
 1145000    1.0556458   -6.8957778    463.48615  0.033732616  0.033859644            2 
 1146000    1.0750028   -6.9179408    461.34979  0.033547832  0.033853713            2 
 1147000    1.0862487   -6.9020137     463.9172  0.033705115   0.03384779            5 
 1148000    1.0558607    -6.935896    462.95324  0.033605781   0.03384202            1 
 1149000    1.0811746   -6.9206525    463.87131  0.033643118  0.033836217            2 
 1150000    1.0653169   -6.9198311     463.3257  0.033574326  0.033830398            3 
 1151000     1.064283   -6.9023686    464.72711  0.033646619  0.033824621            2 
 1152000    1.0762207   -6.8980569    464.95649  0.033634005  0.033818925            1 
 1153000    1.0637213   -6.9047615    465.39292  0.033636378  0.033813318            2 
 1154000     1.070776   -6.9220622    465.39702  0.033607526  0.033807645            1 
 1155000    1.0644546    -6.895931    465.24166   0.03356722  0.033802055            4 
 1156000    1.0770694   -6.9387958    465.46926  0.033554589  0.033796103            3 
 1157000    1.0579899   -6.9165413     465.6655  0.033539722  0.033790428            1 
 1158000    1.0709272   -6.9316985    467.03692   0.03360945   0.03378448            2 
 1159000    1.0410808   -6.9141749    466.61258  0.033549941  0.033778712            7 
 1160000     1.076239   -6.9264647    467.40128  0.033577678  0.033772928            2 
 1161000    1.0892771    -6.920774    467.71107  0.033570992  0.033767115            2 
 1162000    1.0339994   -6.9103492    467.68175  0.033539999  0.033761315            3 
 1163000    1.0327861   -6.9214991    469.55878  0.033645656  0.033755739            1 
 1164000    1.0570007   -6.9552939    470.06349  0.033652884   0.03375008            3 
 1165000    1.0924899   -6.9456433    468.85816   0.03353778  0.033744285            3 
 1166000    1.0549822   -6.9028885     468.6336  0.033492967  0.033738567            1 
 1167000     1.075146   -6.9467454    469.24439  0.033507883  0.033732485            5 
 1168000    1.0414321   -6.9174355    469.22478  0.033477796  0.033726503            1 
 1169000    1.0661486   -6.9071449    470.84453  0.033564623  0.033720624            2 
 1170000    1.0584224    -6.936328    470.94981  0.033543434   0.03371493            2 
 1171000    1.0824902   -6.9312918    471.19442  0.033532196  0.033708879            4 
 1172000    1.0899159   -6.9189373    471.54676  0.033528638  0.033702934            2 
 1173000      1.05629   -6.9486611     471.6075  0.033504369  0.033696893            1 
 1174000    1.0687118   -6.8985252    472.79718  0.033560277  0.033690968            2 
 1175000    1.0640872   -6.9203325    472.28304  0.033495251  0.033685083            2 
 1176000    1.0650969    -6.919379    471.33727   0.03339975  0.033679263            3 
 1177000    1.0665814   -6.9077996    474.00188  0.033560031  0.033673453            1 
 1178000    1.0498297   -6.8992803    474.70685  0.033581413  0.033667745            2 
 1179000    1.0432518   -6.9415857    472.22972  0.033377843   0.03366183            3 
 1180000    1.0853727   -6.9601618    472.11989    0.0333418  0.033655612            3 
 1181000    1.0797027   -6.8969018      472.728  0.033356477  0.033649542            1 
 1182000    1.0532336   -6.9194782    475.19879  0.033502453  0.033643595            4 
 1183000     1.052641   -6.9749923    473.40885  0.033348045  0.033637557            7 
 1184000    1.0254984   -6.8890931    475.68111  0.033479808  0.033631552            1 
 1185000    1.0606766    -6.943518    473.80334  0.033319503  0.033625535            1 
 1186000      1.04764   -6.9058095    475.28611  0.033395595   0.03361946            1 
 1187000    1.0521696    -6.934702     476.4958  0.033452387  0.033613199            2 
 1188000    1.0435777   -6.9394458    475.32939  0.033342409  0.033607022            1 
 1189000    1.0337017   -6.9409625     474.7126  0.033271138   0.03360071            5 
 1190000    1.0689751     -6.92174    475.03794  0.033265962   0.03359444            3 
 1191000    1.0509309   -6.9354833    475.03443  0.033237786  0.033588086            4 
 1192000    1.0560671   -6.9229071    475.90188  0.033270545  0.033581547            2 
 1193000    1.0607382   -6.9216279    475.46843  0.033212379  0.033575007            2 
 1194000    1.0779418   -6.9474425    476.36801  0.033247349  0.033568277            6 
 1195000    1.0651305   -6.9402333    475.58225  0.033164732  0.033561586            2 
 1196000    1.0515634   -6.9235246    476.34696  0.033190284   0.03355485            2 
 1197000    1.0634988   -6.9000961    476.35114  0.033162847  0.033548003            5 
 1198000    1.0672333   -6.9041891    477.49857  0.033214981  0.033541333            1 
 1199000    1.0608968   -6.9328254    476.43516   0.03311337  0.033534579            2 
 1200000    1.0662606   -6.9510252    479.39916  0.033291608  0.033527928            2 
 1201000    1.0600217   -6.9322957    478.23726  0.033183268  0.033521289            1 
 1202000    1.0634839   -6.9605359    477.67105  0.033116407  0.033514498            2 
 1203000    1.0557121   -6.9794729    477.44378  0.033073135  0.033507731            3 
 1204000    1.0705444   -6.9225747    478.51359  0.033119712  0.033500914            3 
 1205000    1.0799663   -6.8945678    478.84988  0.033115483  0.033494118            2 
 1206000     1.041658   -6.9271484    479.12949  0.033107345  0.033487153            3 
 1207000    1.0430118   -6.9029824    479.11589  0.033078976  0.033480367            2 
 1208000     1.055598   -6.9285532    477.95989  0.032971847  0.033473353            2 
 1209000    1.0539943    -6.923792    479.11288  0.033024048   0.03346645            3 
 1210000    1.0721952   -6.9529228    480.57663  0.033097564  0.033459447            3 
 1211000    1.0581283   -6.9785714    478.77668  0.032946372  0.033452305            4 
 1212000    1.0719123    -6.980919    479.89772  0.032996268  0.033444969            2 
 1213000    1.0620264   -6.9058971    481.60908  0.033086637  0.033437762            2 
 1214000    1.0560472   -6.9144561    481.20484  0.033031634  0.033430468            2 
 1215000    1.0690802   -6.9242043    481.61423  0.033032526    0.0334234            2 
 1216000     1.037525   -6.9590419    481.24253  0.032979888  0.033416251            1 
 1217000    1.0474331   -6.9449928    480.07544  0.032872873  0.033408748            3 
 1218000    1.0533823   -6.9362646    480.58262  0.032880585  0.033401275            2 
 1219000    1.0456653   -6.9601181    481.09632  0.032888729  0.033393787            4 
 1220000    1.0536574   -6.9911078     482.3375   0.03294655  0.033386445            1 
 1221000    1.0533416   -6.9345802    483.48306  0.032997752  0.033379005            3 
 1222000    1.0435915   -6.9498548    480.93567  0.032797032  0.033371712            1 
 1223000    1.0307945   -6.9228228    482.77506  0.032895548  0.033364458            2 
 1224000    1.0442142   -6.9177339    483.76115  0.032935808  0.033357008            3 
 1225000    1.0329643   -6.9567564    482.92358  0.032851945  0.033349693            1 
 1226000    1.0704995   -6.9907615    482.76759  0.032814546  0.033342235            3 
 1227000    1.0545295   -6.9608358    482.88872  0.032796028  0.033334808            4 
 1228000    1.0814418   -6.9550664    484.04827   0.03284801  0.033327342            1 
 1229000    1.0706261   -6.9666118    484.42211  0.032846631  0.033319878            1 
 1230000    1.0518303   -6.9698508    483.68852  0.032770225  0.033312485            2 
 1231000    1.0380512   -6.9599794    483.55939  0.032734862  0.033304875            2 
 1232000    1.0611601    -6.932105    484.59562  0.032778383  0.033297396            3 
 1233000    1.0506298   -6.9234954    486.70733  0.032894521  0.033290095            2 
 1234000    1.0474498   -6.9155188    485.72235  0.032801348   0.03328264            2 
 1235000    1.0709367   -6.9905171    485.67953  0.032771898  0.033275085            3 
 1236000    1.0440721   -6.9254427    486.38571  0.032792996  0.033267646            3 
 1237000    1.0635394   -6.9728715    486.32281  0.032762248   0.03326022            1 
 1238000    1.0465456   -6.9360637    488.55322  0.032885919  0.033252849            2 
 1239000    1.0539561   -6.9473516    489.16582   0.03290058  0.033245595            3 
 1240000    1.0471722   -6.9209839    487.06094   0.03273259  0.033238309            1 
 1241000    1.0584338   -6.9681028    487.98094  0.032767992  0.033231094            2 
 1242000    1.0521273   -6.9538249    488.27235  0.032761161  0.033223832            3 
 1243000    1.0576213   -6.9436626     489.3939  0.032809996  0.033216674            3 
 1244000    1.0324497   -6.9858175    488.68078  0.032735851  0.033209321            4 
 1245000    1.0392819   -6.9556341    487.56082  0.032634593   0.03320205            2 
 1246000     1.027564   -6.9721949     489.5908  0.032744168  0.033194757            3 
 1247000    1.0284805   -6.9230762    490.01663  0.032746367  0.033187498            3 
 1248000    1.0412936   -6.9292429    490.94509  0.032782124  0.033180348            2 
 1249000    1.0590048   -6.9807567    489.98579  0.032691873  0.033173196            2 
 1250000    1.0548554   -6.9422507    491.42589  0.032761726  0.033165908            3 
 1251000    1.0402731   -6.9542646    489.09511  0.032580276  0.033158541            3 
 1252000    1.0597356   -6.9412878     490.3898  0.032640429  0.033151114            1 
 1253000    1.0487138   -6.9655632    488.03316  0.032457645  0.033143605            3 
 1254000    1.0311895   -6.9466358    491.60132  0.032668881  0.033136021            3 
 1255000    1.0412609   -6.9527452    491.71016  0.032650077  0.033128655            1 
 1256000    1.0523174   -6.9716143    491.39668  0.032603283  0.033121174            3 
 1257000    1.0527753   -6.9384944    491.80792  0.032604609  0.033113633            2 
 1258000     1.057972   -6.9566907    493.02032  0.032659004  0.033106278            3 
 1259000    1.0502956   -6.9385142    492.72423  0.032613465  0.033098951            2 
 1260000    1.0630774   -6.9403473    493.17715  0.032617536  0.033091619            1 
 1261000    1.0770955    -6.912073    495.07827  0.032717306  0.033084212            2 
 1262000    1.0740454   -6.9758025    493.04289  0.032556979  0.033076635            4 
 1263000    1.0495505   -6.9523172    493.01216  0.032529174  0.033069112            3 
 1264000    1.0406471   -6.9485091    494.18152  0.032580533  0.033061622            6 
 1265000    1.0508798   -6.9850051    493.70361  0.032523294  0.033054185            4 
 1266000    1.0091661   -6.9453179    494.25919  0.032534175  0.033046537            2 
 1267000    1.0629711   -6.9876266    494.41699  0.032518876  0.033038895            2 
 1268000    1.0454883   -6.9718961    496.01689  0.032598376  0.033031381            3 
 1269000    1.0340194   -6.9509131    495.47339  0.032536997  0.033023942            3 
 1270000    1.0461969   -6.9714253    496.69897  0.032591796  0.033016612            2 
 1271000    1.0481338    -6.988988    496.09966   0.03252686  0.033009384            1 
 1272000    1.0378692   -6.9641069    495.88627  0.032487308   0.03300196            4 
 1273000      1.03983   -6.9604732    497.16223  0.032545315   0.03299446            2 
 1274000    1.0355944   -6.9957268    495.41393  0.032405411  0.032987023            2 
 1275000    1.0338658   -6.9469074    497.53035  0.032518324  0.032979631            2 
 1276000     1.059744   -6.9890591    495.57336  0.032365031  0.032972054            2 
 1277000    1.0415168   -6.9929808    496.90655  0.032426687  0.032964467            3 
 1278000    1.0412345   -6.9590452    497.44523  0.032436439  0.032957023            5 
 1279000    1.0292445   -6.9638205    498.14397  0.032456605  0.032949418            2 
 1280000    1.0499975    -6.918908    499.35981  0.032510404  0.032941937            3 
 1281000    1.0602348   -6.9927123    498.18417  0.032408546  0.032934401            1 
 1282000     1.062095    -6.953685    500.04808  0.032504425  0.032926867            3 
 1283000    1.0345511   -6.9894015    498.13801  0.032355028  0.032919329            2 
 1284000    1.0334313   -6.9459101    499.37944    0.0324104  0.032911703            2 
 1285000    1.0578808   -6.9908583    499.29542  0.032379729   0.03290409            2 
 1286000    1.0363402   -6.9771375     498.3207  0.032291388  0.032896438            2 
 1287000    1.0527133   -6.9698832    500.48094  0.032406173  0.032888869            2 
 1288000    1.0631898   -6.9611072    500.70961  0.032395808  0.032881207            2 
 1289000    1.0385056    -6.968355    501.02232  0.032390892  0.032873443            3 
 1290000    1.0385436   -6.9664984    500.64367  0.032341322   0.03286569            1 
 1291000    1.0410004   -6.9520878    501.36763  0.032363002  0.032858027            2 
 1292000    1.0358338   -6.9586827    502.06039  0.032382636  0.032850268            3 
 1293000    1.0477032   -6.9611777    501.17737  0.032300681  0.032842504            1 
 1294000    1.0115865   -6.9724803    500.38637  0.032224779  0.032834673            1 
 1295000    1.0521643   -6.9807285    500.89264  0.032232474  0.032826793            3 
 1296000    1.0699941   -6.9462678    501.43741  0.032242632  0.032818668            3 
 1297000    1.0606961   -6.9549422    501.36151  0.032212896  0.032810698            4 
 1298000    1.0562157   -6.9491144    501.96945  0.032227109  0.032802509            1 
 1299000    1.0555124   -6.9417631    502.12043  0.032211986  0.032794472            2 
 1300000    1.0589081   -6.9547356    502.12216  0.032187318  0.032786291            2 
 1301000    1.0371164   -6.9830753    501.39495  0.032115997  0.032778089            3 
 1302000    1.0473449   -6.9751973    502.45473  0.032159161  0.032769836            3 
 1303000     1.050128   -6.9376939    503.29916  0.032188485  0.032761629            2 
 1304000     1.053832   -6.9581566    502.74006  0.032128072  0.032753425            3 
 1305000    1.0596648   -6.9970353    502.45059  0.032084967  0.032745139            6 
 1306000    1.0451907   -6.9942856    504.02006  0.032160545  0.032736825            5 
 1307000    1.0654113   -6.9914915    502.18568   0.03201898  0.032728501            5 
 1308000    1.0253668   -6.9710665    504.58549  0.032147394  0.032720196            3 
 1309000    1.0532055   -6.9681358    504.48916  0.032116702  0.032711992            2 
 1310000     1.059764   -6.9844872    504.34797  0.032083204  0.032703869            1 
 1311000    1.0448084   -6.9265121    505.69168  0.032144144  0.032695671            4 
 1312000    1.0339013   -6.9642108    504.23041   0.03202683  0.032687439            3 
 1313000      1.04082   -7.0085773    504.47166  0.032017749   0.03267948            2 
 1314000     1.056414   -7.0067284    505.00048  0.032026921  0.032671211            4 
 1315000    1.0276173   -6.9586194    506.39119  0.032090696  0.032662974            2 
 1316000    1.0431211   -6.9916727    505.23977    0.0319934  0.032654736            5 
 1317000    1.0203256   -6.9707318    505.12249  0.031961686  0.032646602            2 
 1318000     1.042723   -6.9562814    505.47904   0.03195998  0.032638245            4 
 1319000    1.0110325   -6.9499779    508.33968  0.032116482  0.032630097            1 
 1320000    1.0498603   -7.0098708    505.42642  0.031908233  0.032621788            4 
 1321000    1.0258423   -6.9753603    507.46544  0.032012707  0.032613447            1 
 1322000    1.0386263    -6.966668    506.95087  0.031956056  0.032605094            3 
 1323000    1.0395246   -7.0101896    505.73833  0.031855526  0.032596739           13 
 1324000    1.0176431    -6.971384    507.42677  0.031937738   0.03258848            2 
 1325000    1.0546773   -6.9712447    507.66329  0.031928509  0.032580287            3 
 1326000    1.0410526   -6.9430502     509.1733  0.031999328  0.032572048            2 
 1327000    1.0498356   -6.9761868    508.02014  0.031902797  0.032563809            2 
 1328000    1.0491534   -6.9513594     509.5863  0.031977052  0.032555538            2 
 1329000    1.0372178   -7.0224026    507.50416  0.031822433  0.032547244            3 
 1330000     1.036481   -6.9788478    509.88399  0.031947619   0.03253895            1 
 1331000    1.0446257    -6.996965    509.66323  0.031909794   0.03253075            3 
 1332000    1.0481599   -6.9733505    510.18336  0.031918379  0.032522737            6 
 1333000    1.0354272   -6.9868918    510.74514  0.031929553  0.032514661            4 
 1334000    1.0279595   -7.0147478    511.27335  0.031938615  0.032506592            2 
 1335000    1.0320297   -6.9763676    511.03262  0.031899664  0.032498609            2 
 1336000    1.0477701   -6.9798359    511.56413   0.03190894  0.032490577            2 
 1337000    1.0576203   -6.9481909    511.50082  0.031881128  0.032482523            3 
 1338000     1.050682   -6.9695802    511.25697  0.031842113  0.032474254            2 
 1339000    1.0402018   -6.9785948    512.78815  0.031913627  0.032466244            2 
 1340000     1.024868    -6.952668    515.63205   0.03206667  0.032458363            4 
 1341000    1.0413582   -6.9508668    512.90811  0.031873484  0.032450451            1 
 1342000    1.0506493   -6.9952558    512.80675   0.03184344  0.032442366            2 
 1343000    1.0449848   -6.9443593    513.84368   0.03188407  0.032434339            2 
 1344000    1.0277521   -6.9651303    514.65637  0.031910737  0.032426298            2 
 1345000    1.0465088   -6.9709164    513.73264  0.031829779  0.032418337            4 
 1346000    1.0204166    -6.954077    514.61566  0.031860801  0.032410271            2 
 1347000    1.0231486    -6.976937    514.23838  0.031813807  0.032402236            4 
 1348000     1.037964   -6.9771071    515.25713  0.031853186  0.032394462            3 
 1349000    1.0366324   -6.9718828    514.70876  0.031795698  0.032386331            2 
 1350000     1.027195   -6.9978759    513.92433  0.031723724  0.032378194            2 
 1351000    1.0761063   -6.9773309    516.19763  0.031840466  0.032370228            2 
 1352000    1.0283248   -6.9536213    516.33136  0.031825158  0.032362452            1 
 1353000    1.0296192   -7.0027671    516.70391  0.031824582  0.032354499            2 
 1354000    1.0191272   -6.9504881    516.20399  0.031770309  0.032346578            3 
 1355000    1.0191213   -6.9959812    516.15093    0.0317436  0.032338531            2 
 1356000    1.0314712    -7.005524      513.838  0.031578048   0.03233028            2 
 1357000    1.0431151   -6.9830583    516.91358  0.031743649  0.032322033            2 
 1358000    1.0365036   -7.0037814    516.45888  0.031692371  0.032313597            2 
 1359000    1.0277967   -6.9752729     516.0202  0.031642151  0.032305155            1 
 1360000    1.0359904    -6.994945    516.46541  0.031646165  0.032296695            4 
 1361000    1.0312446   -7.0015723    514.53347  0.031504621  0.032288082            3 
 1362000    1.0331441   -7.0047083    515.85699  0.031562469  0.032279589            2 
 1363000    1.0512783   -6.9758377    516.36929  0.031570634  0.032271079            2 
 1364000    1.0371036   -6.9999848    517.20002  0.031598242  0.032262238            2 
 1365000    1.0221611   -6.9972704    516.39146   0.03152573  0.032253396            3 
 1366000    1.0199549    -6.950728    515.86508  0.031470539  0.032244536            2 
 1367000    1.0424093   -7.0026517    516.02401  0.031457206  0.032235641            2 
 1368000    1.0369187   -6.9925591    517.03797  0.031495978   0.03222676            2 
 1369000    1.0371398   -6.9979769    518.38046   0.03155469  0.032217983            2 
 1370000    1.0619437   -6.9772115    516.69871  0.031429362  0.032209348            3 
 1371000    1.0288754   -6.9879702    518.09413  0.031491255  0.032200537            2 
 1372000    1.0416293   -6.9189185    521.03556  0.031646961   0.03219199            3 
 1373000    1.0349245   -7.0077782    518.63156  0.031478002  0.032183566            5 
 1374000    1.0318214    -6.984553    519.42829  0.031503414  0.032175051            2 
 1375000    1.0225263   -6.9971593    520.55903  0.031549032  0.032166593            4 
 1376000      1.06523    -7.005887    520.04447  0.031494941  0.032158076            3 
 1377000    1.0542757   -6.9426635    521.94441   0.03158705  0.032149831            2 
 1378000     1.018008    -6.991433    521.16035  0.031516712  0.032141666            3 
 1379000    1.0390145    -6.994917    522.34024  0.031565158  0.032133528            2 
 1380000    1.0325662   -6.9734696    524.40967  0.031667251  0.032125319            3 
 1381000    1.0336569    -7.001331    523.02376   0.03156069  0.032117248            5 
 1382000    1.0325827   -6.9788579    523.01697  0.031537444  0.032109157            2 
 1383000    1.0292791    -7.019142    521.94438  0.031450011  0.032101025            4 
 1384000    1.0474594   -6.9706138    525.02021  0.031612488  0.032093144            2 
 1385000    1.0352292    -6.981443      524.221  0.031541576  0.032085153            3 
 1386000    1.0553224   -6.9930893    523.76968  0.031491684  0.032077052            1 
 1387000    1.0434499   -7.0306928    524.73029  0.031526694  0.032069012            5 
 1388000     1.031263   -6.9887911    526.09234  0.031585755  0.032060997            2 
 1389000    1.0304102    -7.011364    525.36916  0.031519628  0.032053016            4 
 1390000    1.0279439   -7.0042667    526.17356  0.031545177  0.032045013            2 
 1391000    1.0186033   -7.0178988    525.81032  0.031500738   0.03203707            2 
 1392000    1.0397182   -7.0507225    525.70124  0.031471578  0.032029006            1 
 1393000    1.0160735   -6.9890621    527.64994  0.031565562   0.03202079            4 
 1394000    1.0283896   -7.0263897    526.58567  0.031479297  0.032012709            5 
 1395000     1.016531   -6.9976697    527.09629  0.031487233  0.032004844            3 
 1396000    1.0314377   -6.9983997    527.72047  0.031501938  0.031996809            1 
 1397000    1.0535974   -7.0162241    527.59674  0.031472008  0.031988901            2 
 1398000    1.0361386   -6.9722228    526.77332  0.031400412  0.031980843            4 
 1399000    1.0211221   -7.0238634    528.78728  0.031497932  0.031972807            1 
 1400000    1.0412642   -6.9786735    528.82443  0.031477645  0.031964973            2 
 1401000    1.0372104   -7.0264483    529.51612   0.03149632  0.031957134            2 
 1402000    1.0207676   -7.0237375    529.81862  0.031491834  0.031949226            2 
 1403000     1.013096   -6.9799752    529.68002  0.031461156  0.031941323            6 
 1404000    1.0283306   -7.0266219    529.75044  0.031442928  0.031933424            4 
 1405000    1.0117434   -6.9699563    531.17485  0.031505033  0.031925533            3 
 1406000    1.0122334   -6.9934476    531.61735  0.031508852  0.031917649            2 
 1407000    1.0417598   -7.0010503     531.2205  0.031462953  0.031909855            2 
 1408000    1.0248063    -6.969593    529.66474  0.031348528  0.031901991            2 
 1409000    1.0215131   -6.9811171    531.57262  0.031439119   0.03189408            1 
 1410000      1.01396   -7.0091213    531.02592  0.031384511  0.031886167            1 
 1411000    1.0277973   -7.0036187    533.22477  0.031492132  0.031878242            4 
 1412000    1.0200456   -7.0224371     530.5198  0.031310186  0.031870391            4 
 1413000    1.0367391   -7.0133502    531.09011  0.031321663  0.031862347            4 
 1414000     1.010336   -6.9720561    530.57893  0.031269385  0.031854318            3 
 1415000    1.0190238   -6.9939117    532.51332  0.031361209  0.031846326            3 
 1416000    1.0362171   -7.0138932    532.14209  0.031317214    0.0318383            7 
 1417000    1.0220976   -7.0080636    532.40519  0.031310585  0.031830219            3 
 1418000    1.0103479   -6.9855056    533.26916  0.031339278  0.031822133            3 
 1419000    1.0366686    -7.015399    531.83985  0.031233254  0.031814098            2 
 1420000    1.0346432   -7.0136219    532.49417  0.031249658  0.031805964            2 
 1421000    1.0290141   -7.0056288    532.86972   0.03124969  0.031797775            4 
 1422000    1.0278938   -7.0137621    533.28973  0.031252328  0.031789437            2 
 1423000     1.021827   -6.9967731    532.88517  0.031206674  0.031781058            1 
 1424000    1.0251268   -7.0281482    532.13829  0.031141052  0.031772737            1 
 1425000    1.0320585   -7.0175816    531.90418  0.031105507   0.03176451            5 
 1426000    1.0192366   -6.9856279    534.38923  0.031228917  0.031756339            2 
 1427000    1.0458533   -6.9692578    534.00352  0.031184508  0.031748306            5 
 1428000    1.0212238   -7.0258926    535.36564  0.031242159  0.031740311            2 
 1429000    1.0214565   -7.0000989    534.53555  0.031171889  0.031732224            2 
 1430000    1.0155586    -6.948552    535.07728   0.03118166  0.031723995            1 
 1431000    1.0177434   -6.9954021    535.24082  0.031169393  0.031715832            3 
 1432000    1.0039176   -7.0155886    536.67133  0.031230873  0.031707681            5 
 1433000    1.0437183   -7.0096021    535.27645  0.031127963  0.031699339            2 
 1434000    1.0342077   -7.0175588     535.0323  0.031092068  0.031691184            3 
 1435000    1.0420763   -7.0689393    535.31982  0.031087098  0.031682934            3 
 1436000    0.9954486   -7.0337871    536.46069  0.031131656  0.031674684            2 
 1437000    1.0329612   -6.9880383    535.71133  0.031066535  0.031666498            2 
 1438000    1.0216342   -6.9954217    538.53932  0.031208816  0.031658363            6 
 1439000    1.0197321   -7.0268273    536.55261  0.031072076  0.031650285            3 
 1440000    0.9951161   -6.9919182    537.25959  0.031091411  0.031642047            2 
 1441000    1.0373868   -6.9965891    536.38715  0.031019382  0.031633885            3 
 1442000    1.0440494   -7.0171131    538.31551   0.03110931  0.031625859            2 
 1443000   0.99744246   -7.0085844    537.93346  0.031065688    0.0316179            4 
 1444000    1.0334752   -7.0237376    538.62586  0.031084133  0.031609849            2 
 1445000    1.0331553   -7.0055638    541.24558  0.031213701  0.031601951            2 
 1446000    1.0354005   -7.0678836    537.66856  0.030985971  0.031593997            4 
 1447000    1.0087721   -7.0081635     540.1404  0.031106911   0.03158594            4 
 1448000    1.0038359   -6.9870991    541.73273  0.031177068  0.031578002            3 
 1449000    1.0181316   -7.0240662     540.0308  0.031057672  0.031570006            2 
 1450000    1.0197343   -7.0513673    538.64953   0.03095687  0.031561976            2 
 1451000    1.0333949   -7.0026857    540.58651  0.031046779   0.03155379            6 
 1452000    1.0092077   -7.0232991    539.38791  0.030956607  0.031545534            3 
 1453000    1.0376766   -7.0033792    540.95578  0.031025223  0.031537373            3 
 1454000    1.0063158   -7.0347181    539.78481  0.030936773  0.031529221            3 
 1455000    1.0117229   -7.0359341    541.74291  0.031027658  0.031520946            3 
 1456000    1.0313622    -7.015373    541.11636  0.030970488  0.031512684            5 
 1457000    1.0294987   -7.0033853    543.19382  0.031068052  0.031504397            4 
 1458000    1.0166045   -7.0244891    541.40323    0.0309444  0.031496223            2 
 1459000    1.0060711   -7.0115029    541.35937  0.030920686  0.031488043            2 
 1460000    1.0239811   -7.0340886    541.33318  0.030898013  0.031479896            3 
 1461000    1.0273705   -7.0397342    541.32147  0.030876196   0.03147166            5 
 1462000    1.0256491   -7.0221797    542.34328   0.03091332  0.031463496            3 
 1463000    1.0293191    -7.030283    543.39163  0.030951904  0.031455401            2 
 1464000    1.0040355   -7.0778969    542.45322  0.030877346  0.031447357            3 
 1465000    1.0190998   -6.9763987    543.60102  0.030921559  0.031439229            1 
 1466000    1.0114809   -7.0638954    543.47765  0.030893454  0.031431203            3 
 1467000    1.0237957   -7.0351579    544.31224  0.030919805  0.031423112            2 
 1468000      1.01904    -7.037659    545.58478   0.03097098  0.031414967            2 
 1469000    1.0285543   -7.0422935    544.32533  0.030878451  0.031406876            3 
 1470000    1.0071527   -7.0086981    543.98916  0.030838388  0.031398932            2 
 1471000    1.0098274   -6.9983429    546.05561   0.03093449  0.031390914            3 
 1472000    1.0119024   -7.0278339    544.74485  0.030839269  0.031382905            1 
 1473000    1.0064452   -7.0596031    544.35921  0.030796516  0.031374873            2 
 1474000    1.0047442   -6.9928592      546.632  0.030904116     0.031367            2 
 1475000    1.0161614   -7.0409755    545.63889  0.030827056  0.031359082            4 
 1476000    1.0011184   -7.0094848    547.72934  0.030924195  0.031351148            1 
 1477000    1.0220145     -7.05428    547.08867  0.030867111  0.031343226            3 
 1478000    1.0333635   -7.0282017    548.00185  0.030897714  0.031335419            2 
 1479000    1.0111051   -7.0462317    549.34078  0.030952264  0.031327547           11 
 1480000    1.0070972   -7.0121989    548.78609  0.030900117  0.031319567            3 
 1481000    1.0155591   -7.0051663    548.47101  0.030861524  0.031311521            3 
 1482000    0.9959532   -7.0224212    548.75027  0.030856403  0.031303632            2 
 1483000    1.0382346   -7.0307272    547.69695  0.030776408  0.031295734            4 
 1484000    1.0136485   -7.0237688     547.2213  0.030728959  0.031287601            2 
 1485000    1.0237257   -7.0363187    550.17168  0.030873832  0.031279468            3 
 1486000    1.0094024   -7.0502132     547.9164  0.030726582  0.031271178            2 
 1487000    1.0112988    -7.063192    545.37373  0.030563424  0.031262857            2 
 1488000   0.99245567   -7.0075619    549.97405  0.030800518   0.03125461            4 
 1489000   0.99789704   -7.0160817    548.36104  0.030689559  0.031246406            4 
 1490000     1.023137    -7.055183    547.59234   0.03062597  0.031238141            2 
 1491000      1.01815   -7.0140886    549.50193  0.030712158  0.031229883            4 
 1492000    1.0203658   -7.0345022    548.99528  0.030663275  0.031221554            4 
 1493000    1.0040071   -7.0022351    550.54982  0.030729505  0.031213234            1 
 1494000   0.99350221   -7.0344314    548.43559  0.030591008  0.031204998            2 
 1495000    1.0277651   -7.0531252    548.41693  0.030569506  0.031196692            3 
 1496000    1.0060709   -7.0407333    549.45603  0.030606954  0.031188428            1 
 1497000    1.0280671   -7.0253214    548.51788  0.030534284  0.031180152            2 
 1498000    1.0200151   -7.0303131    550.70435  0.030635533  0.031171948            1 
 1499000    1.0110604   -7.0284714    552.18552  0.030697438  0.031163839            2 
 1500000    1.0050412     -7.03972    550.75376  0.030597431  0.031155639            1 
 1501000    1.0394554   -7.0604521    551.09176  0.030595812   0.03114747            2 
 1502000   0.98324981   -7.0611339    550.27445  0.030530096   0.03113921            3 
 1503000    1.0026391    -7.029701    551.88788  0.030599239  0.031130984            3 
 1504000      1.01427   -7.0596726     554.3286  0.030714129  0.031122946            2 
 1505000    1.0325845   -7.0124081    554.04321  0.030677919  0.031114882            6 
 1506000   0.99043854   -7.0164075    554.52389  0.030684146  0.031106877            1 
 1507000    1.0085722    -7.044386      554.972  0.030688565  0.031098883            7 
 1508000    1.0064367   -7.0298607    554.10515  0.030620311  0.031090991            4 
 1509000   0.99872184   -7.0555986     554.8839  0.030643025  0.031083114            1 
 1510000     1.010039   -7.0273815    556.72785  0.030724495  0.031075199            3 
 1511000     1.029575   -7.0085319    556.30638  0.030680917  0.031067334            3 
 1512000    1.0051746   -7.0249646    555.58566  0.030620903  0.031059405            1 
 1513000    1.0180018   -7.0463927    556.23305  0.030636321  0.031051496            2 
 1514000   0.99074754   -7.0681096    555.02365  0.030549518  0.031043527            5 
 1515000    1.0090083   -7.0413233    555.92372  0.030578863  0.031035525            1 
 1516000    1.0092049   -7.0579373    557.46457  0.030643391  0.031027573            2 
 1517000    1.0115647   -7.0374301     556.4222  0.030565931  0.031019726            2 
 1518000    1.0100385   -7.0299033    558.34088  0.030651125   0.03101199            2 
 1519000    1.0084742   -7.0138519    557.09247  0.030562457  0.031004141            2 
 1520000    1.0077928   -7.0349845    558.11954  0.030598659  0.030996406            2 
 1521000    1.0304167   -7.0719104    556.00567  0.030462726  0.030988489            2 
 1522000   0.99266754   -7.0501094     557.4053  0.030519344  0.030980598            2 
 1523000    1.0232651   -7.0418599    558.82161    0.0305768  0.030972748            2 
 1524000    1.0094578   -7.0501071    558.63779  0.030546686  0.030964982            3 
 1525000    1.0187566   -7.0622835    559.56917   0.03057755  0.030957167            4 
 1526000    1.0201882   -7.0651183     559.8999  0.030575573  0.030949255            1 
 1527000    1.0088457   -7.0596674    559.37543  0.030526928  0.030941678            3 
 1528000    1.0140177   -7.0357129    560.86784  0.030588342  0.030933982            2 
 1529000    1.0149578   -7.0397123    559.84171  0.030512411  0.030926208            1 
 1530000   0.99794585   -7.0849192    559.46143  0.030471755  0.030918346            4 
 1531000    1.0272209   -7.0719277    560.20875  0.030492529  0.030910558            4 
 1532000    1.0217725   -7.0609867    558.91618  0.030402316  0.030902804            1 
 1533000    1.0024086    -7.074585    558.83014  0.030377807  0.030894939            5 
 1534000   0.97074688   -7.0446536    561.54739  0.030505617  0.030887056            3 
 1535000    1.0049277   -7.0631855    560.17806  0.030411404  0.030879211            3 
 1536000   0.99654188    -7.046308    560.10145  0.030387448   0.03087133            3 
 1537000   0.99077774     -7.01986    561.05053  0.030419135  0.030863545            4 
 1538000   0.99864082   -7.0430197    560.72651  0.030381801  0.030855683            2 
 1539000    1.0046244   -7.0349176    562.50316  0.030458261  0.030847865            4 
 1540000     1.002842   -7.0612956    562.67973  0.030448037  0.030839995            3 
 1541000    1.0006874    -7.030563    562.22217  0.030403535  0.030832085            3 
 1542000   0.99919726   -7.0515529    560.99224   0.03031735  0.030824162            7 
 1543000   0.98095616   -7.0539623    562.22202  0.030364119  0.030816173            2 
 1544000   0.98554346   -7.0776414    561.15132  0.030286665  0.030808074            1 
 1545000    1.0076305   -7.0343415    562.70839  0.030351046  0.030799954            4 
 1546000   0.98568547   -7.0707045    562.29914  0.030309354  0.030791973            4 
 1547000    1.0108525   -7.0478273    561.76505  0.030260992  0.030783886            5 
 1548000    1.0177963   -7.0558217    562.26405  0.030268306  0.030775852            3 
 1549000   0.99629385   -7.0616041    562.79951  0.030277572  0.030767891            2 
 1550000    0.9945019   -7.0463278    562.35479  0.030234128  0.030759912            2 
 1551000    1.0031482   -7.0439373    565.42278  0.030379474  0.030752125            2 
 1552000   0.99242249   -7.0461417    563.66035  0.030265268  0.030744407            4 
 1553000    1.0225325   -7.0820981    564.60616  0.030296531  0.030736594            3 
 1554000    1.0059847   -7.0436296    566.26689  0.030366092  0.030728706            7 
 1555000   0.99347406   -7.0495426    566.23503  0.030344857   0.03072096            1 
 1556000     1.014849   -7.0630859     564.7394  0.030245255  0.030713139            2 
 1557000   0.98545872   -7.0943496    564.06421  0.030189692  0.030705227            2 
 1558000    1.0041747   -7.0219757    564.86378  0.030213082   0.03069719            3 
 1559000    1.0035562   -7.0535669    567.01567  0.030308727  0.030689338            3 
 1560000   0.98680173   -7.0581498    566.57383  0.030265696  0.030681545            2 
 1561000   0.99553982   -7.0678151     567.1492  0.030277023  0.030673808            2 
 1562000    1.0060123   -7.0315194    568.08273  0.030307444  0.030666034            5 
 1563000    1.0238338   -7.0451742    567.06679  0.030233887  0.030658371            3 
 1564000   0.99059294   -7.0525666    568.73398  0.030303388  0.030650797            5 
 1565000    1.0018561   -7.0560347    569.05111  0.030300911  0.030643188            2 
 1566000    1.0017208   -7.0426668    569.03108  0.030280496  0.030635568            3 
 1567000    1.0027031   -7.0700526    568.36035  0.030225502  0.030627824            5 
 1568000    1.0005326   -7.0538376    568.79436  0.030229292  0.030620275            3 
 1569000   0.99279571   -7.0795624    570.41012  0.030295842  0.030612609            2 
 1570000   0.97169935    -7.051571    569.52401  0.030229512  0.030605004            3 
 1571000   0.98500056   -7.0489964    569.94287  0.030232488  0.030597363            5 
 1572000    0.9912609   -7.0285619    569.10548  0.030168866  0.030589607            3 
 1573000   0.99226026   -7.0574051    569.47368  0.030169193  0.030581939            2 
 1574000    1.0021855   -7.0683381    569.35752  0.030143875  0.030574209            4 
 1575000   0.99039049   -7.0330058    571.36723  0.030231071  0.030566434            3 
 1576000    1.0100593   -7.0578817    570.91355  0.030187899  0.030558729            3 
 1577000    1.0012026   -7.0838486    569.94931  0.030117803  0.030551051            2 
 1578000    0.9976857   -7.0448696     572.2637  0.030220939  0.030543272            1 
 1579000    1.0086462   -7.0583602    571.80145  0.030177404  0.030535637            2 
 1580000   0.98805175   -7.0491902    573.55999  0.030251054  0.030528229            2 
 1581000    1.0160831   -7.0731931     572.3327  0.030167231  0.030520699            2 
 1582000    1.0323562   -7.0185056    572.46676  0.030155223  0.030513141            3 
 1583000     1.015201   -7.0455918    574.19427  0.030227115  0.030505723            3 
 1584000    1.0061314   -7.0916017    573.08826  0.030149845  0.030498152            4 
 1585000   0.98818764   -7.0649809    572.78312   0.03011478  0.030490595            5 
 1586000     1.025906   -7.0584268    572.34759  0.030072908  0.030483101            3 
 1587000   0.99774634   -7.0940808    574.02228  0.030141896  0.030475529            1 
 1588000   0.99969887   -7.0460788    574.64811  0.030155757  0.030467924            2 
 1589000   0.99409868   -7.0564528    574.39582  0.030123548  0.030460373            4 
 1590000   0.97700122   -7.0795122    576.27103  0.030202884   0.03045284            3 
 1591000    1.0064501   -7.0643811    575.30998  0.030133563  0.030445182            3 
 1592000    1.0089154   -7.0475459    576.63279  0.030183877  0.030437644            8 
 1593000   0.99177704    -7.081745    575.02479  0.030080811  0.030430154            2 
 1594000   0.99050031   -7.0782124     575.5454  0.030089157  0.030422637            2 
 1595000   0.97666704   -7.0450625    576.14503  0.030101621  0.030415133            2 
 1596000    1.0182205   -7.0619204    577.31468  0.030143833  0.030407651            2 
 1597000   0.98694013   -7.0815257    577.07145  0.030112265  0.030400193            4 
 1598000   0.98978992   -7.0445032    577.98367  0.030140992  0.030392782            2 
 1599000     1.037829   -7.0533691    578.55953  0.030152154  0.030385315            2 
 1600000   0.97627461   -7.0508105    577.86556  0.030097165  0.030377888            2 
 1601000    1.0198343   -7.0426925    576.46192  0.030005305  0.030370439            3 
 1602000   0.98728199    -7.095971     576.3328  0.029979859  0.030362978            4 
 1603000    1.0006051    -7.084487     576.8935  0.029990305  0.030355513            2 
 1604000    0.9975294   -7.0717715     578.9946  0.030080767  0.030348128            3 
 1605000     1.007527   -7.0647595    578.98954  0.030061762  0.030340715            2 
 1606000    1.0164524   -7.0479758    578.49451  0.030017357   0.03033334            2 
 1607000   0.98827179   -7.0917977    577.89315  0.029967494  0.030325953            2 
 1608000   0.98823862   -7.0579468    577.82616  0.029945386  0.030318512            3 
 1609000    1.0034642   -7.0762098     580.5821   0.03006951  0.030311236            2 
 1610000   0.99102941   -7.0530188     581.3915  0.030092728  0.030304012            4 
 1611000   0.98983776   -7.0786342    581.28303  0.030068438  0.030296761            1 
 1612000    1.0077449   -7.0742709    580.35184  0.030001646  0.030289462            1 
 1613000   0.99619745    -7.038423    582.64542  0.030101541   0.03028223            6 
 1614000   0.99384508   -7.1007668    580.33559   0.02996363  0.030274899            4 
 1615000   0.97367529     -7.09575    578.85046  0.029868445  0.030267474            8 
 1616000   0.99622388   -7.0591692    580.29731  0.029924572  0.030260015            3 
 1617000    1.0001383   -7.1079718     581.5987  0.029973134  0.030252679            3 
 1618000   0.98560779   -7.1052989     580.8172  0.029914359   0.03024522            1 
 1619000   0.98192566   -7.1031128    581.55921  0.029934075  0.030237792            2 
 1620000   0.98664705   -7.0616301    582.79748  0.029979294  0.030230457            3 
 1621000   0.98106381   -7.0823841    583.21688  0.029982361  0.030223205            2 
 1622000   0.99409542   -7.0539013    584.09509  0.030008995  0.030215912            2 
 1623000    1.0159206   -7.0488577    584.55711  0.030014228  0.030208527            2 
 1624000   0.98812299   -7.0720263    581.00406  0.029813427  0.030201162            2 
 1625000    1.0030025   -7.0620914    582.95329   0.02989504  0.030193741            4 
 1626000   0.99897506   -7.0870894    584.04889  0.029932805  0.030186415            3 
 1627000   0.97038791   -7.0968193    582.52303  0.029836254  0.030179057            4 
 1628000   0.98970943   -7.0720808    582.56328  0.029819988   0.03017156            2 
 1629000   0.98213017   -7.0646828    584.96224  0.029924404  0.030164003            3 
 1630000     1.025734   -7.0442732    584.85266  0.029900442  0.030156578            1 
 1631000   0.97872611   -7.0471845    586.22471  0.029952213  0.030149208            4 
 1632000    1.0050568   -7.0292758    585.67143  0.029905608  0.030141778            2 
 1633000   0.99723955   -7.0776789    583.42985  0.029772905  0.030134356            2 
 1634000   0.97645847   -7.0863927    583.18704  0.029742301  0.030126844            5 
 1635000   0.98188286   -7.0630385    584.60108  0.029796182  0.030119435            2 
 1636000   0.96925681    -7.091433    585.83494  0.029840818  0.030112171            3 
 1637000    1.0020995   -7.0743276    586.15896  0.029839084   0.03010484            3 
 1638000   0.97876908   -7.0443904    588.11535  0.029920398  0.030097596            3 
 1639000   0.98369872   -7.0715982    588.03942  0.029898282   0.03009043            4 
 1640000   0.97371799   -7.0730192    586.37769  0.029795615  0.030083153            5 
 1641000   0.97170141   -7.0644149    587.24575  0.029821539  0.030075813            2 
 1642000   0.98711728     -7.10088    586.77683  0.029779579  0.030068363            1 
 1643000   0.98796729   -7.0505549     587.0843  0.029777049   0.03006103            3 
 1644000    1.0023785   -7.0726938    588.94579  0.029853294  0.030053707            2 
 1645000   0.99119933   -7.1187188    586.05561  0.029688734  0.030046384            6 
 1646000   0.97670559   -7.1098195     588.8556  0.029812454  0.030039038            2 
 1647000   0.98806776   -7.0726845    587.52231  0.029726893  0.030031598            6 
 1648000   0.99061992   -7.1032482    587.78545  0.029722161  0.030024163            5 
 1649000   0.97252836   -7.0747701    588.56839  0.029743703  0.030016663            2 
 1650000   0.98300476   -7.0716335    588.55435  0.029724967  0.030009324            3 
 1651000   0.98998784   -7.0800984    590.01904  0.029780892  0.030001968            3 
 1652000   0.99719731   -7.1020382    588.99352  0.029711134  0.029994687            2 
 1653000    0.9868551   -7.0848428    589.65552  0.029726534  0.029987332            3 
 1654000   0.98909194   -7.0938425    589.33812   0.02969257  0.029979987            3 
 1655000   0.99358001   -7.1105719    589.52107   0.02968384  0.029972671            2 
 1656000   0.98190294   -7.0711863    591.18413  0.029749604  0.029965373            4 
 1657000   0.98352139   -7.0956538    590.20743   0.02968253  0.029958137            2 
 1658000   0.97033367   -7.1124966    591.18004  0.029713512  0.029950839            2 
 1659000     1.001714   -7.0908376    591.60916  0.029717157  0.029943739            3 
 1660000   0.99655861   -7.1049571    592.50523  0.029744239  0.029936664            2 
 1661000   0.96869284   -7.1056597    591.98737   0.02970035  0.029929423            4 
 1662000    1.0087319   -7.0593168    592.92014  0.029729249  0.029922262            1 
 1663000    1.0244753   -7.0932862    593.21307  0.029726051  0.029915158            3 
 1664000   0.97727863   -7.0902415    593.18791  0.029706926  0.029908053            4 
 1665000   0.98159171   -7.0893778    592.47388  0.029653347  0.029900878            3 
 1666000   0.98172159   -7.0504655    594.52689   0.02973824  0.029893937            4 
 1667000   0.98121611   -7.1108221    593.69624  0.029678876  0.029886941            4 
 1668000   0.97702012    -7.113181    594.14462  0.029683484  0.029879947            3 
 1669000   0.98098966    -7.083673    594.71517  0.029694187  0.029872989            2 
 1670000   0.97867001   -7.0870416    595.45298  0.029713223  0.029865986            3 
 1671000   0.97677853   -7.0820399    596.96642  0.029770917  0.029859069            3 
 1672000   0.99801264   -7.1164214    595.58623  0.029684322  0.029852061            2 
 1673000   0.98090443   -7.1015928    595.82545  0.029678494  0.029845027            2 
 1674000   0.98113926   -7.1104319    593.02374  0.029521294  0.029837964            4 
 1675000   0.98713131   -7.1209865    596.10568  0.029656999  0.029830948            4 
 1676000   0.99414204   -7.0717838    596.08856  0.029638453  0.029823841            8 
 1677000   0.96490804   -7.1082715    595.55186   0.02959411  0.029816808            4 
 1678000   0.97449442   -7.1050294    593.91816   0.02949534  0.029809659            3 
 1679000   0.98114444    -7.114659    596.95142  0.029628321  0.029802598            1 
 1680000   0.97516804   -7.1021725    596.32773  0.029579748  0.029795473            3 
 1681000   0.97658373   -7.0730332    597.85047   0.02963764  0.029788383            1 
 1682000   0.97300271   -7.0929538    598.64538  0.029659402  0.029781358            9 
 1683000   0.99622626   -7.1173724    597.30151  0.029575238  0.029774379            1 
 1684000   0.99948975   -7.0601315    599.96166  0.029689314  0.029767528            3 
 1685000    1.0119368   -7.1004721    598.45705  0.029597282  0.029760644            2 
 1686000   0.98734122    -7.057403    599.74302  0.029643289  0.029753742            3 
 1687000   0.97398631   -7.1025164    600.28217   0.02965235  0.029746791            2 
 1688000   0.98117506   -7.1078776    599.41395  0.029591921  0.029739817            3 
 1689000   0.98358165   -7.1052579    599.57694  0.029582442  0.029732879            2 
 1690000   0.98285668     -7.07924    600.48325  0.029609627  0.029725931            5 
 1691000   0.98993978   -7.0901621     600.8281  0.029609112  0.029719099            1 
 1692000   0.96665942   -7.1023957     601.7255  0.029635811  0.029712277            3 
 1693000   0.98660554   -7.0823936    601.76685  0.029620341  0.029705331            4 
 1694000   0.96803046   -7.0658863    601.72243   0.02960067  0.029698551            3 
 1695000   0.97007145   -7.1024632    600.66825  0.029531379  0.029691679            2 
 1696000   0.98662591   -7.1075072    599.47921  0.029455543  0.029684729            4 
 1697000   0.95798451   -7.1155966    601.18553  0.029521976  0.029677899            3 
 1698000   0.98367701   -7.1442692    601.63927  0.029526858  0.029671021            3 
 1699000   0.98356907   -7.0962083    604.33256  0.029641581   0.02966417            4 
 1700000    1.0015578   -7.0663943    602.03568  0.029511553  0.029657446            1 
 1701000   0.96936792   -7.1060665     603.0715  0.029544949  0.029650604            3 
 1702000   0.97319268   -7.0881828    603.49566  0.029548358  0.029643752            2 
 1703000   0.99606026   -7.1255047    602.22245  0.029468705  0.029636808            3 
 1704000   0.96873503   -7.0921147    603.56488  0.029517062   0.02962992            3 
 1705000   0.98654082    -7.099965    602.91087  0.029467784   0.02962317            3 
 1706000   0.99107166   -7.0784577    602.41325  0.029426204  0.029616272            2 
 1707000   0.98073144   -7.1296545    602.55029  0.029415656  0.029609236            5 
 1708000   0.98109546   -7.1209681    602.35202   0.02938876  0.029602204            2 
 1709000   0.98557041    -7.091169    604.47834  0.029475246  0.029595298            2 
 1710000   0.97871493   -7.1071095    603.97587  0.029433522  0.029588364            3 
 1711000   0.98787304   -7.0843052    603.47369  0.029391861   0.02958148            4 
 1712000   0.98977628    -7.079373    605.72953  0.029484498  0.029574602            4 
 1713000   0.97580084   -7.1017294    605.03641  0.029433567  0.029567796            2 
 1714000    0.9758296   -7.0883677    606.30456  0.029478051  0.029560895            5 
 1715000   0.97775176   -7.0930469    605.96213  0.029444224  0.029554143            5 
 1716000    0.9837784    -7.082268    607.70634  0.029511768  0.029547392            4 
 1717000   0.96643666   -7.1337191    606.72973  0.029447182  0.029540605            4 
 1718000   0.98780536   -7.1269856    606.58599  0.029423069  0.029533862            2 
 1719000   0.97361021   -7.0946277    607.86558  0.029467984  0.029527108            2 
 1720000   0.97368437   -7.1202645    606.58749  0.029388929  0.029520434            3 
 1721000   0.99783056   -7.1249065     607.3179   0.02940722  0.029513701            3 
 1722000   0.97135902   -7.1404403    608.13415  0.029429643   0.02950704            2 
 1723000   0.96035424   -7.1087054    610.13221    0.0295092  0.029500462            4 
 1724000    1.0015792    -7.107247    609.26752  0.029450286  0.029493921            3 
 1725000   0.96789809   -7.1211829    609.01921  0.029421218   0.02948741            2 
 1726000   0.99189117   -7.1453616    607.21291  0.029316962  0.029480703            4 
 1727000   0.96690735   -7.1165382    608.78461  0.029375825  0.029473995            1 
 1728000   0.97685723   -7.1222463    609.74378  0.029405082  0.029467323            1 
 1729000    1.0040215   -7.1068567     610.5619  0.029427506  0.029460691            5 
 1730000   0.97815599   -7.1061141    608.89899  0.029330394  0.029454004            4 
 1731000   0.97736649   -7.1148071    610.64672  0.029397589  0.029447381            2 
 1732000   0.97010857   -7.1186895    611.20012  0.029407242   0.02944074            2 
 1733000    1.0016607   -7.1329413    609.18579  0.029293412  0.029434065            3 
 1734000   0.97589823   -7.1182451    610.83866  0.029355952  0.029427335            4 
 1735000   0.98516401   -7.1197716    611.38119  0.029365091  0.029420628            2 
 1736000   0.96202259   -7.1299263    611.62267  0.029359767  0.029414019            2 
 1737000   0.98836692   -7.1124292    612.71026  0.029395042  0.029407342            4 
 1738000   0.95006217   -7.1374609    611.63894  0.029326762  0.029400648            3 
 1739000    1.0057848   -7.1298755    611.38646  0.029297799  0.029393839            2 
 1740000   0.95194013   -7.0958943    611.20492  0.029272266  0.029387219            2 
 1741000    0.9859866   -7.0964078    613.17558  0.029349779   0.02938056            1 
 1742000   0.95646445   -7.1183765    612.02443  0.029277862  0.029373918            5 
 1743000   0.98655497   -7.1519975    613.00209  0.029307807   0.02936732            3 
 1744000   0.98209545   -7.1089043    614.62528  0.029368563  0.029360657            2 
 1745000   0.95430775   -7.0749737    614.85858  0.029362874  0.029354095            2 
 1746000   0.97549425   -7.1450651    612.14209  0.029216404  0.029347461            6 
 1747000   0.97200877   -7.1471084    612.58545  0.029220828  0.029340712            2 
 1748000   0.98388211   -7.1396137    612.25828  0.029188515  0.029333991            3 
 1749000   0.96775944   -7.1368367    613.64833  0.029238057  0.029327337            4 
 1750000   0.98877298   -7.1378481    613.88784  0.029232754  0.029320636            3 
 1751000   0.98155156   -7.1211859    615.43446  0.029289666  0.029313991            1 
 1752000   0.98906086   -7.1064613    615.34282  0.029268589  0.029307372            3 
 1753000   0.98385653   -7.1043921    617.25587  0.029342835  0.029300821            4 
 1754000   0.96394598   -7.1276503    614.87673  0.029213072  0.029294361            4 
 1755000   0.97454549    -7.162625    615.13664  0.029208767  0.029287806            5 
 1756000   0.97077738   -7.1253102    617.30113  0.029294852  0.029281251            5 
 1757000   0.96516228   -7.1327498    616.65848  0.029247698  0.029274681            2 
 1758000   0.96019063   -7.1154486    618.24887   0.02930645  0.029268332            2 
 1759000   0.96766385   -7.1415247    617.16569  0.029238473  0.029261867            3 
 1760000   0.98598284    -7.135188    617.59315    0.0292421  0.029255531            3 
 1761000   0.96305906   -7.1555245    617.78794  0.029234712  0.029249183            2 
 1762000   0.96840824   -7.1618855     616.4651  0.029155557  0.029242732           18 
 1763000   0.95781816     -7.11294    618.70881  0.029245075  0.029236304            3 
 1764000   0.95621462   -7.1189936    618.75772  0.029230807  0.029229894            2 
 1765000   0.98206439   -7.1271979    618.86436   0.02921928  0.029223458            5 
 1766000   0.95821838   -7.1427866    619.33691  0.029225033  0.029217048            2 
 1767000   0.97715349   -7.1720227    619.81405  0.029230997  0.029210517            2 
 1768000   0.97744664   -7.1244799    619.43941  0.029196805  0.029204099            2 
 1769000   0.97462362   -7.1242248    621.54225   0.02927936  0.029197694            4 
 1770000   0.96290715   -7.1031378    619.70337  0.029176242  0.029191223            5 
 1771000   0.96530503   -7.1394185    619.33888  0.029142616   0.02918467            4 
 1772000   0.95961758   -7.1330707    618.76139  0.029099012  0.029178012            3 
 1773000   0.97008695    -7.144625    620.72196  0.029174749  0.029171441            2 
 1774000    0.9513248   -7.1165942    620.31725  0.029139292  0.029164774            2 
 1775000    0.9739574   -7.1125873     618.5934  0.029041944  0.029158059            2 
 1776000   0.96408563   -7.1270079    618.86809   0.02903848  0.029151362            3 
 1777000   0.96628189   -7.1233782     619.3912   0.02904667  0.029144738            2 
 1778000   0.97964238   -7.1484964    620.50276  0.029082432   0.02913811            4 
 1779000   0.98052976   -7.1143867    621.58138  0.029116609  0.029131375            1 
 1780000   0.98115457   -7.1298258    618.89512  0.028974491   0.02912471            3 
 1781000   0.98406469   -7.1375922    621.45729  0.029078106  0.029118023            4 
 1782000   0.97059649   -7.1388207    621.27885  0.029053444  0.029111305            3 
 1783000   0.98785803   -7.1356477     621.1638  0.029031772  0.029104425            4 
 1784000   0.95352354   -7.1500052    619.73583  0.028948796    0.0290975            2 
 1785000   0.96778225   -7.1016362    621.18578   0.02900027  0.029090532            2 
 1786000   0.96236322   -7.1358982    618.61216  0.028863949  0.029083554            3 
 1787000   0.97174729   -7.0995472    620.94273  0.028956479   0.02907658            3 
 1788000   0.94113919    -7.116738    621.82973  0.028981624  0.029069578            2 
 1789000   0.95165423   -7.1299732    621.17379   0.02893487  0.029062618            3 
 1790000   0.99212285   -7.1202036    620.62464  0.028893139  0.029055633            2 
 1791000   0.98050302   -7.1253981    621.36883  0.028911634   0.02904858            2 
 1792000   0.96514647   -7.1596117    620.59781  0.028859645  0.029041642            2 
 1793000   0.94607043   -7.1221172    621.32407  0.028877304  0.029034647            2 
 1794000   0.95443058   -7.1383873    621.60325  0.028874176  0.029027626            3 
 1795000   0.96198499   -7.1676348    620.17066  0.028791581  0.029020522            3 
 1796000   0.96457639   -7.1710526    619.92063  0.028763949  0.029013503            3 
 1797000   0.98544445   -7.1281553    622.60223  0.028872298  0.029006484            2 
 1798000   0.95991791   -7.1684754    621.20619  0.028791536  0.028999418            2 
 1799000   0.95220126   -7.1324395    622.75793  0.028847412  0.028992298            2 
 1800000    0.9612563   -7.1647547    620.74005  0.028737965  0.028985213            2 
 1801000   0.97697455    -7.158875    623.71651  0.028859731  0.028978165            3 
 1802000     0.952441   -7.1458998    622.25867  0.028776298  0.028971167            3 
 1803000   0.97937146   -7.1439747    621.78302  0.028738354  0.028964226            4 
 1804000   0.95460916   -7.1432776    623.14654  0.028785409  0.028957177            3 
 1805000   0.94901772   -7.1565928    624.33685  0.028824416   0.02895018            4 
 1806000   0.96321036   -7.1239427     624.0585  0.028795612  0.028943204            2 
 1807000   0.96833059   -7.1779249     623.2169  0.028740864  0.028936099            1 
 1808000   0.95158201   -7.1480432    624.65689  0.028791339  0.028928998            3 
 1809000   0.96974608   -7.1598724    622.99939  0.028699069  0.028921875            4 
 1810000   0.97681549   -7.1254361    624.18992  0.028738026  0.028914767            2 
 1811000   0.95461933   -7.1384922    626.02139  0.028806432  0.028907644            3 
 1812000   0.95306596   -7.1308914    624.36909  0.028714546  0.028900567            3 
 1813000   0.97095776   -7.1589314    622.99434  0.028635519  0.028893451            1 
 1814000   0.95932571   -7.1407094    626.59623    0.0287852  0.028886331            3 
 1815000   0.96689098   -7.1481512    624.68264   0.02868148  0.028879277            4 
 1816000   0.97236558   -7.1685004    624.01538  0.028635067  0.028872154            2 
 1817000   0.97291821   -7.1534077    626.05901  0.028713035  0.028865087            5 
 1818000   0.94333217    -7.148296    624.40017  0.028621203  0.028857985            3 
 1819000   0.97976429   -7.1479934    625.73282  0.028666521  0.028850913            5 
 1820000    0.9599336    -7.165541    625.19942  0.028626347  0.028843879            4 
 1821000    0.9752134    -7.146905    627.18987  0.028701715  0.028836683            2 
 1822000   0.96175163   -7.1549489    625.48023  0.028607768  0.028829523            3 
 1823000   0.95812426    -7.162782     624.4042  0.028542887  0.028822355            1 
 1824000   0.97009506   -7.1255133    626.85426  0.028639175   0.02881518            2 
 1825000    0.9600411    -7.160444    627.09464  0.028634458  0.028808089            4 
 1826000   0.96682279   -7.1343124    628.07361  0.028663454   0.02880111            7 
 1827000   0.95865801   -7.1062467    629.17301  0.028697911  0.028794091            7 
 1828000   0.97076707   -7.1381701    628.63105  0.028657506  0.028787063            4 
 1829000   0.95063495   -7.1329332      629.216  0.028668489  0.028779918            2 
 1830000   0.96371276   -7.1318185      628.628  0.028626048  0.028772881            3 
 1831000   0.95908937   -7.1308571    626.37355  0.028507808  0.028765684            7 
 1832000   0.96522093   -7.1141155    629.90195  0.028652745    0.0287585            4 
 1833000   0.97251691   -7.1418187    628.47127  0.028572071  0.028751273            2 
 1834000   0.96386449    -7.172649    628.93192  0.028577423  0.028744034            2 
 1835000   0.94694588   -7.1639659    627.50578  0.028497084  0.028736874            5 
 1836000    0.9755265   -7.1472803    629.16128  0.028556703  0.028729775            4 
 1837000   0.95525819   -7.1504267    629.28901  0.028546952  0.028722671            2 
 1838000   0.95953235    -7.123419    631.25066   0.02862036  0.028715519            3 
 1839000   0.97511089   -7.1538889    628.87116  0.028496971   0.02870853            3 
 1840000   0.96842514   -7.1521015    631.35598  0.028594021  0.028701525            4 
 1841000   0.96125504   -7.1343786    631.30177  0.028576035   0.02869445            6 
 1842000    0.9878177   -7.1835926    629.73884  0.028489814   0.02868738            3 
 1843000   0.94556197   -7.1580313    630.09753  0.028490574   0.02868034            2 
 1844000   0.95940193   -7.1264702    631.58962  0.028542553  0.028673236            1 
 1845000   0.96459071   -7.1033863    631.79507  0.028536363  0.028666191            2 
 1846000   0.96233184   -7.1432073    630.95501  0.028482982  0.028659178            3 
 1847000   0.95665554   -7.1075704    631.43081  0.028489028    0.0286522            4 
 1848000    0.9536993   -7.1625142    630.22889  0.028419412  0.028645108            1 
 1849000   0.94607001    -7.182286    631.72973  0.028471684  0.028637977            8 
 1850000   0.95076607   -7.1455431    631.93411  0.028465501  0.028630851            2 
 1851000   0.94556426   -7.1522068    631.24122  0.028418928  0.028623593            3 
 1852000   0.96016056   -7.1694343    630.54589  0.028372295   0.02861649            4 
 1853000   0.94271861   -7.1451328     632.1231  0.028427914  0.028609431            2 
 1854000   0.96497308   -7.1795533    633.68762  0.028482903   0.02860253            2 
 1855000   0.95933596   -7.1638607    633.52815  0.028460384   0.02859548            4 
 1856000   0.95996989   -7.1485371    633.24124  0.028432168  0.028588445            3 
 1857000    0.9562789   -7.1305737     634.3947  0.028468619  0.028581453            6 
 1858000   0.94902192   -7.1469804    634.20172  0.028444641  0.028574581            5 
 1859000   0.95565803   -7.1214467    634.41287  0.028438805  0.028567639            6 
 1860000   0.96886955   -7.1520539    632.03518  0.028316988  0.028560733            2 
 1861000   0.98289952   -7.1619871    634.99636  0.028434371  0.028553757            6 
 1862000    0.9680697   -7.1336052    635.14035  0.028425544  0.028546861            1 
 1863000   0.94804372   -7.1980008    631.50095  0.028247493  0.028539883            4 
 1864000   0.95202801   -7.1767615    634.88531  0.028383642  0.028532732            2 
 1865000   0.95078665   -7.1656468    635.79327  0.028408993  0.028525712            3 
 1866000   0.95227319   -7.1849219    635.83082  0.028395446  0.028518724            2 
 1867000   0.93762558   -7.1714601    635.74545  0.028376426  0.028511666            4 
 1868000   0.96928841   -7.1604876     636.5942  0.028399099   0.02850464            3 
 1869000   0.95462816   -7.1438184     635.1906  0.028321321  0.028497619            5 
 1870000   0.95053071   -7.1656729    635.90566  0.028338042  0.028490564            2 
 1871000   0.96283532   -7.1915382    634.28531  0.028250727  0.028483489            3 
 1872000   0.95330588   -7.1337957      635.998  0.028311877  0.028476439            3 
 1873000   0.95079171   -7.1845998    635.42176  0.028271123  0.028469266            4 
 1874000   0.95128039   -7.1355938    636.80019  0.028317333   0.02846226            3 
 1875000   0.95608082   -7.1647672    636.95112  0.028308939  0.028455251            2 
 1876000   0.93598371   -7.1465635    636.89042  0.028291152  0.028448244            3 
 1877000   0.94813077    -7.196628    637.07966  0.028284482  0.028441146            2 
 1878000   0.95976304    -7.183608     635.7634  0.028211014  0.028434073            2 
 1879000   0.95711171   -7.1882557    634.76997  0.028151941  0.028426966            3 
 1880000   0.94894817   -7.1808551    638.91299  0.028320611  0.028419869            3 
 1881000   0.91972775   -7.1844032    639.48196  0.028330762  0.028412852            3 
 1882000   0.94829398   -7.1344621    640.11892  0.028343912  0.028405963            4 
 1883000   0.95233488   -7.1684866    638.82154  0.028271444  0.028399172            4 
 1884000   0.95298468   -7.1720359    639.57871  0.028289929  0.028392399            2 
 1885000   0.96068854   -7.1825946    639.26878  0.028261219  0.028385633            2 
 1886000   0.94118058   -7.1552679    640.69536  0.028309268  0.028378854            2 
 1887000    0.9489059   -7.1742606    639.58961  0.028245434  0.028372129            1 
 1888000   0.93117252   -7.1814676    639.01693  0.028205196   0.02836525            4 
 1889000   0.95001119   -7.1648182    640.79632  0.028268763  0.028358346            2 
 1890000   0.93847461   -7.1648475    639.27552  0.028186752  0.028351447            4 
 1891000    0.9362134   -7.1641754    641.44695  0.028267537  0.028344568            5 
 1892000   0.93010967   -7.1419329    640.96688  0.028231452  0.028337711            4 
 1893000    0.9638874   -7.2108695    639.71426  0.028161396  0.028330756            3 
 1894000   0.94294377   -7.1624748    640.81536  0.028194973  0.028323779            3 
 1895000   0.93644683   -7.1903928    641.34813  0.028203524  0.028316758            6 
 1896000   0.92652915   -7.1950184    640.79806  0.028164472   0.02830976            5 
 1897000   0.94336065   -7.1586151    641.33442  0.028173186  0.028302778            3 
 1898000   0.93183054   -7.1981397    642.68696  0.028217727  0.028295845            2 
 1899000   0.94134333   -7.1348563    643.96036  0.028258749  0.028289038            6 
 1900000   0.94343742   -7.1478296    642.82667  0.028194152  0.028282216            2 
 1901000   0.94669235   -7.1465311    642.61025  0.028169834   0.02827533            4 
 1902000   0.94522755    -7.180152    643.26123  0.028183545  0.028268517            3 
 1903000   0.94693198   -7.1832575    643.86218  0.028195051  0.028261598            2 
 1904000   0.97320905   -7.1638288    643.20685   0.02815156  0.028254671            3 
 1905000   0.96723257   -7.1368086    643.88567  0.028166477  0.028247742            3 
 1906000   0.95447779   -7.1686176    642.97702  0.028111972  0.028240874            4 
 1907000   0.92866841    -7.185407    642.72597   0.02808626  0.028233945            3 
 1908000   0.94344343   -7.1743038    645.02446  0.028171928  0.028227074            5 
 1909000   0.96419165   -7.1842366    643.22621  0.028078672  0.028220131            2 
 1910000   0.94444344   -7.1543806    645.20564  0.028150333   0.02821331            1 
 1911000   0.93083364    -7.196469    644.03517  0.028084562  0.028206415            4 
 1912000   0.94433321    -7.194401    644.67853  0.028097913  0.028199581            3 
 1913000   0.94777693    -7.179885    644.87836  0.028091931  0.028192716            7 
 1914000   0.94287868   -7.1509107    644.93114  0.028079552  0.028185928            4 
 1915000   0.93544677   -7.1690916    647.69922  0.028185345  0.028179014            5 
 1916000   0.95672515   -7.1677984    645.44153   0.02807244  0.028172146            3 
 1917000   0.93774513   -7.1790804    645.53803   0.02806199  0.028165281            2 
 1918000   0.93866331   -7.2285301     643.7878  0.027971316  0.028158404            4 
 1919000   0.91979512   -7.2191732    645.13937  0.028015432  0.028151455            6 
 1920000   0.95784642   -7.1642194    648.62698  0.028152213  0.028144661            3 
 1921000    0.9550405   -7.1985101    645.57983  0.028005372   0.02813778            4 
 1922000   0.95029551   -7.1883403     646.4532  0.028028668  0.028130857            4 
 1923000   0.95418089   -7.1657038    649.27833   0.02813652  0.028124025            5 
 1924000   0.95160555   -7.1686158    646.69065  0.028009817  0.028117138            7 
 1925000   0.92898761    -7.195515    649.21144  0.028104391  0.028110232            2 
 1926000   0.93760152   -7.1826123      646.434  0.027969626  0.028103348            2 
 1927000   0.93433034   -7.2031548    645.98177  0.027935555  0.028096414            2 
 1928000   0.94453947   -7.1528941    647.61897   0.02799183  0.028089467            2 
 1929000   0.92391198   -7.1808984    648.62866  0.028020937  0.028082533            3 
 1930000   0.94736426   -7.1367057    650.30491  0.028078796  0.028075636            4 
 1931000   0.95085504   -7.1538297    649.05927  0.028010498  0.028068852            1 
 1932000   0.93633286   -7.2033707    646.99117  0.027906797  0.028061964            4 
 1933000   0.94458986   -7.2155709    646.30389   0.02786273     0.028055            4 
 1934000   0.93273187    -7.180506    649.25987  0.027975692  0.028048074            4 
 1935000   0.94285418   -7.1852401     649.5012  0.027971628  0.028041088            2 
 1936000   0.96141982   -7.1789813    648.62828  0.027919606  0.028034112            3 
 1937000   0.94060555   -7.1810165    648.70744  0.027908597  0.028027155            3 
 1938000    0.9539682   -7.2015525    649.65673  0.027935016   0.02802014            5 
 1939000   0.93697404   -7.1947802    648.87163  0.027886868  0.028013164            5 
 1940000    0.9738552   -7.1731355    649.93203  0.027918043  0.028006181            5 
 1941000    0.9564073   -7.1699937    646.81029  0.027769633   0.02799925            3 
 1942000   0.94411358   -7.1825881    650.41665  0.027910086  0.027992308            6 
 1943000   0.94370722   -7.1886424    648.98785  0.027834442  0.027985422            4 
 1944000   0.93774667   -7.2008122    648.84311  0.027813919  0.027978503            6 
 1945000   0.93238367   -7.1844959    650.89835  0.027887676  0.027971637            5 
 1946000   0.94207598   -7.1881199    650.50941  0.027856689  0.027964705            3 
 1947000   0.93046856   -7.1888379    648.02452  0.027736026   0.02795779            3 
 1948000   0.93357748   -7.1828367    651.54852  0.027872541  0.027950845            7 
 1949000   0.92845061   -7.1743624    651.03793  0.027836409  0.027943952            2 
 1950000    0.9549095   -7.2098205      651.097  0.027824658  0.027937007            2 
 1951000   0.93763766   -7.1931502    651.59315  0.027831588  0.027930092            7 
 1952000   0.93462965     -7.17928    650.02975  0.027750587  0.027923144            2 
 1953000   0.93525668   -7.2129959    649.96995  0.027733826   0.02791619            4 
 1954000   0.93784942    -7.160599    653.00545   0.02784909   0.02790923            1 
 1955000   0.94939057    -7.224339     652.2485  0.027802579  0.027902317            4 
 1956000   0.93463742    -7.196386     651.6709  0.027763757  0.027895331            3 
 1957000   0.93698427   -7.1823393    651.04808  0.027723049  0.027888407            1 
 1958000   0.95472362   -7.1869623    653.87761  0.027829316  0.027881497            4 
 1959000   0.92033657     -7.16843    653.41997  0.027795643  0.027874582            2 
 1960000   0.94223539    -7.174626    654.62553  0.027832718  0.027867621            4 
 1961000   0.93168565   -7.1801786     651.3328  0.027678599  0.027860678            1 
 1962000   0.93604405   -7.1856294    653.08001  0.027738702  0.027853738            3 
 1963000   0.92638557   -7.1742481    653.77665  0.027754145  0.027846757            2 
 1964000   0.94309544   -7.2004908    652.94315  0.027704648  0.027839795            2 
 1965000   0.93183567   -7.2347109    652.25041  0.027661171  0.027832729            2 
 1966000   0.93589483   -7.2217413    650.93468  0.027591331  0.027825664            4 
 1967000   0.94370211   -7.1849752    652.23296  0.027632306  0.027818609            2 
 1968000   0.95719155   -7.1765309    655.57995  0.027759991  0.027811676            2 
 1969000    0.9329411   -7.1623442     655.3631  0.027736715  0.027804736            3 
 1970000   0.94185205   -7.1755775    655.13978  0.027713188  0.027797823            3 
 1971000   0.95846987   -7.2157944     653.5497    0.0276319  0.027790844            4 
 1972000   0.94373137   -7.1875516    654.32136  0.027650497  0.027783862            4 
 1973000   0.94088076   -7.2101347    653.66915  0.027608935  0.027776921            2 
 1974000   0.93550505   -7.1842581    654.50376  0.027630182  0.027770036            2 
 1975000    0.9399814    -7.220266    653.94547  0.027592636   0.02776307            3 
 1976000   0.91840778   -7.1906146    656.07007  0.027668272  0.027756143            2 
 1977000   0.94171779   -7.2037492    656.49493  0.027672185  0.027749275            2 
 1978000   0.93543937     -7.21123    655.55365  0.027618539  0.027742339            3 
 1979000   0.95865672    -7.193613    655.86552  0.027617716  0.027735437            4 
 1980000   0.93510802   -7.1755665    656.18391  0.027617168   0.02772845            2 
 1981000   0.91673163   -7.2120715     656.1026  0.027599806  0.027721444            3 
 1982000   0.93024434   -7.2080638    656.80858  0.027615564  0.027714414            4 
 1983000   0.92687512   -7.1891307    654.73157  0.027514354   0.02770742            3 
 1984000     0.941574   -7.2154249    657.43486  0.027614031  0.027700515            2 
 1985000   0.93288205   -7.1904416    656.26098  0.027550839  0.027693548            2 
 1986000   0.92967563   -7.2079097     657.2425  0.027578151  0.027686655            4 
 1987000   0.94930197   -7.1728606    658.45785  0.027615243   0.02767977            2 
 1988000   0.91648087   -7.2150902    657.74664  0.027571539  0.027672785            2 
 1989000   0.92731714    -7.177214    656.75283   0.02751604  0.027665783            2 
 1990000   0.93175773   -7.2220202    657.01026  0.027512993  0.027658814            2 
 1991000   0.92799722   -7.2036014    656.49957  0.027477799  0.027651703            4 
 1992000   0.92688396   -7.1925562    657.53885  0.027507482  0.027644701            2 
 1993000    0.8985811   -7.1938964    657.57033  0.027494996  0.027637679            2 
 1994000   0.92829385   -7.1879278    657.36586  0.027472662  0.027630649            4 
 1995000   0.91780627   -7.2026533    656.69995  0.027431076  0.027623628            4 
 1996000   0.93741291   -7.1995074    656.82159  0.027422411  0.027616597            3 
 1997000   0.92961031   -7.2063432    659.50362  0.027520598  0.027609561            3 
 1998000   0.93026229   -7.2439593    657.24934  0.027412802  0.027602504            4 
 1999000    0.9202489   -7.2122443     659.6751  0.027500212    0.0275955            3 
 2000000   0.95528232   -7.1998344    659.83193  0.027492997  0.027588485            2 
 2001000   0.93254153   -7.2301061    658.42018  0.027420464   0.02758147            2 
 2002000   0.92473256    -7.190317    660.08393  0.027476021  0.027574514            3 
 2003000   0.95615925   -7.2056075    658.44164  0.027393978  0.027567601            4 
 2004000    0.9369006   -7.1737953    659.56279  0.027426929  0.027560758            5 
 2005000    0.9475985   -7.1916913    661.54263  0.027495537  0.027553901            5 
 2006000   0.95617746   -7.1995247    660.65318  0.027444881  0.027546992            4 
 2007000   0.93656318     -7.19903    661.99168  0.027486783  0.027540018            2 
 2008000   0.94922474    -7.181581    659.85336  0.027384352  0.027533143            1 
 2009000   0.93125437   -7.2135467    658.76962  0.027325768  0.027526245            3 
 2010000   0.92448336   -7.1891614    661.35965  0.027419554  0.027519269            2 
 2011000   0.93253487   -7.2238896    661.23892  0.027400917  0.027512348            2 
 2012000   0.94068238   -7.2166671    661.87882  0.027413801  0.027505395            7 
 2013000   0.93460916   -7.1858274    662.79409  0.027438073  0.027498525            1 
 2014000   0.92045414   -7.2343001    660.57452   0.02733261  0.027491589            2 
 2015000   0.92691463   -7.2152991     663.1902  0.027427221  0.027484631            1 
 2016000   0.93135509   -7.2343562    660.28591  0.027293564  0.027477575            3 
 2017000    0.9240357   -7.2122114    662.59706  0.027375519  0.027470498            3 
 2018000   0.93271066   -7.1845927    662.08827  0.027340943  0.027463601            3 
 2019000   0.89882439   -7.1905243    663.61938  0.027390597  0.027456658            3 
 2020000   0.92108207   -7.2261076    663.42961  0.027369208   0.02744975            4 
 2021000   0.89693002   -7.1923405    663.49909  0.027358531  0.027442737            2 
 2022000   0.93572684   -7.2310072    663.03938  0.027326054  0.027435736            3 
 2023000   0.93574072    -7.222729    663.59611   0.02733548  0.027428751            4 
 2024000   0.91997158   -7.2207211    662.77076  0.027287992  0.027421816            2 
 2025000   0.96202389   -7.2188566    661.28396  0.027213332  0.027414799            3 
 2026000   0.92934017   -7.1885743    664.36496  0.027326627  0.027407828            3 
 2027000   0.92499735   -7.2337598    661.04253  0.027176555  0.027400875            3 
 2028000   0.93437597   -7.2240659    663.02386   0.02724457  0.027393875            3 
 2029000   0.92757085   -7.2192238    664.19781  0.027279358  0.027386898            5 
 2030000   0.91067462   -7.2165224    663.13235  0.027222182   0.02737999            1 
 2031000   0.94005161    -7.207222    664.06256  0.027246946  0.027373038            2 
 2032000   0.91860386   -7.2221855    664.46894  0.027250203  0.027366058            3 
 2033000   0.92578665    -7.215516    664.25919  0.027228201  0.027359083            2 
 2034000   0.93830892   -7.2100899    663.47312  0.027182609  0.027352109            9 
 2035000   0.91707269   -7.1826366    665.51751  0.027252969   0.02734514            1 
 2036000   0.92402184   -7.2478105    665.23494  0.027228018  0.027338242            3 
 2037000    0.9219488   -7.2067407    665.44179  0.027223113  0.027331282            3 
 2038000   0.93628924   -7.2191992    665.59135  0.027215871  0.027324352            3 
 2039000   0.92215697   -7.2122296    665.00301  0.027178478   0.02731738            3 
 2040000   0.93279089   -7.2031647    667.00946  0.027247118  0.027310467            3 
 2041000   0.92692711   -7.2068809    666.85641   0.02722752  0.027303667            3 
 2042000   0.92218921   -7.1979273    666.50023   0.02719965  0.027296864            3 
 2043000   0.91105251   -7.2213784    667.81488  0.027239961  0.027290014            2 
 2044000   0.92496333   -7.2155537    666.45765    0.0271713  0.027283152            2 
 2045000   0.91715879   -7.2094525    668.38042  0.027236366  0.027276317            2 
 2046000   0.92552803   -7.1960685    671.35509  0.027344212  0.027269623            6 
 2047000   0.93517581   -7.2192954    668.64205  0.027220406  0.027262872            2 
 2048000   0.90808471   -7.2318296    667.60662  0.027164983  0.027256132            2 
 2049000   0.92597727   -7.2445397    667.91263  0.027164171  0.027249294            3 
 2050000   0.92881012   -7.2181259    671.40582  0.027292919  0.027242609            3 
 2051000   0.92290345   -7.2572025    668.33608  0.027154887  0.027235989            4 
 2052000   0.92903883    -7.246924    670.42184  0.027226358  0.027229282           12 
 2053000   0.92638601   -7.2396679    669.32931   0.02716875   0.02722266            3 
 2054000   0.89561706   -7.2380127      671.337  0.027236977  0.027216045            3 
 2055000   0.91493896   -7.2448841    669.12042  0.027133837  0.027209397            3 
 2056000    0.9177814   -7.2482818    669.81263  0.027148696   0.02720274            6 
 2057000   0.91030156   -7.2242893    671.80434  0.027216186  0.027196061            3 
 2058000   0.92707277   -7.2354528    671.45176  0.027188685  0.027189305            6 
 2059000   0.91789162   -7.2160385    671.30743  0.027169639  0.027182617           10 
 2060000   0.92309191   -7.2323262    670.88269  0.027139268  0.027175978            2 
 2061000   0.93302942   -7.2156634    671.20577  0.027139163  0.027169395            3 
 2062000   0.94682083   -7.1993428    672.53547  0.027179739  0.027162858            2 
 2063000   0.89654289   -7.2442297    672.26918  0.027155808  0.027156292            2 
 2064000   0.91987327   -7.2190286     674.7515  0.027242874  0.027149766            1 
 2065000    0.9190159   -7.2130083    673.03038  0.027160225  0.027143205            3 
 2066000   0.92915306   -7.2293745     675.6244   0.02725171  0.027136703            2 
 2067000   0.94285769   -7.1991394    673.64698  0.027158804  0.027130234            3 
 2068000   0.90339505   -7.2120425    673.89563  0.027155691  0.027123819            3 
 2069000    0.8982209   -7.2253039    673.73985  0.027136292  0.027117352            7 
 2070000   0.91713944   -7.2453398    672.89401  0.027089131  0.027110824            2 
 2071000   0.93417509   -7.2497057    675.34437  0.027174649  0.027104214            2 
 2072000   0.90701839   -7.2583545    674.12606  0.027112534  0.027097643            3 
 2073000   0.94476915   -7.2710952    673.03048  0.027055414   0.02709111            2 
 2074000   0.91544479   -7.2639447    674.21885  0.027090118  0.027084504            2 
 2075000   0.91591001   -7.2634715    673.46084   0.02704662  0.027077886            2 
 2076000   0.93454514    -7.182219    675.11489  0.027099988  0.027071282            1 
 2077000   0.93807971   -7.2116837    676.04318  0.027124185  0.027064782            1 
 2078000   0.91012895   -7.2323701    676.11153  0.027113873  0.027058297            2 
 2079000   0.92884031   -7.2604907    674.66468  0.027042836  0.027051789            2 
 2080000   0.93347287   -7.2483223    675.55933  0.027065678  0.027045187            2 
 2081000   0.92710696   -7.2340367    673.94769  0.026988134  0.027038635            2 
 2082000   0.92273724   -7.2426948    675.96179  0.027055787  0.027032059            2 
 2083000   0.93693051   -7.2449596    676.02941  0.027045504  0.027025557            5 
 2084000   0.93812188   -7.2442334    676.52934  0.027052517  0.027019088            3 
 2085000    0.9086562   -7.2409648      677.297  0.027070224   0.02701261            2 
 2086000    0.9157575   -7.2338293    678.41072  0.027101738  0.027006178            3 
 2087000   0.89070687   -7.2446315    675.72982  0.026981705   0.02699971            3 
 2088000   0.92513792   -7.2467778    677.09372  0.027023217  0.026993285            4 
 2089000   0.91375258    -7.249775    678.32781  0.027059511  0.026986867            3 
 2090000   0.90728123   -7.2130501    678.48553  0.027052852  0.026980429            2 
 2091000   0.91499165   -7.2489059    679.05304  0.027062532  0.026973963            4 
 2092000   0.91604037   -7.2521778    678.22998  0.027016809  0.026967454            2 
 2093000   0.90135697   -7.2300047    679.42659  0.027051545   0.02696098            2 
 2094000   0.91527761    -7.220872    680.60983  0.027085714  0.026954588            3 
 2095000   0.91767827   -7.2340539    679.06783  0.027011449  0.026948144            3 
 2096000   0.91622949   -7.2479521    678.34236  0.026969718  0.026941643            5 
 2097000   0.89728934   -7.2071447    679.72624  0.027011852  0.026935152            1 
 2098000   0.92305952   -7.2493371    679.14691  0.026975966    0.0269287            3 
 2099000   0.92390444    -7.233147    679.18708  0.026964709  0.026922234            3 
 2100000   0.93138202   -7.2432809    679.58144  0.026967517  0.026915766            4 
 2101000   0.90321216    -7.240044    679.58186  0.026954699  0.026909285            2 
 2102000   0.92459018   -7.2236026      679.916  0.026955122  0.026902819            3 
 2103000   0.94069227   -7.2397014    681.93229  0.027022202  0.026896336            4 
 2104000   0.93220937   -7.2176318    681.44576  0.026990089   0.02688993            4 
 2105000   0.92482506   -7.2547255    680.84203  0.026953366  0.026883594            2 
 2106000   0.93201715   -7.2297027    680.38216  0.026922371  0.026877188            2 
 2107000   0.91365775    -7.252979    680.35379  0.026908471  0.026870784            4 
 2108000   0.91443054    -7.253892    681.05484   0.02692342  0.026864355            6 
 2109000   0.90367777   -7.2592799    680.81987   0.02690137  0.026857901            6 
 2110000   0.90997506   -7.2636791    680.60007   0.02687994  0.026851385            4 
 2111000   0.91249214   -7.2347909    682.09531  0.026926232  0.026844961            3 
 2112000    0.9162115   -7.2443292    682.17471  0.026916616  0.026838546            2 
 2113000   0.92360161   -7.2412651    682.11009  0.026901329  0.026832122            3 
 2114000   0.91054821   -7.2448513    682.11682  0.026888868  0.026825641            3 
 2115000   0.93689248   -7.2479314    681.98238  0.026870858  0.026819156            3 
 2116000   0.91084048   -7.2122944    683.21565  0.026906728  0.026812739            2 
 2117000   0.90868897   -7.2069972    682.52771  0.026866938   0.02680637            5 
 2118000   0.91647895   -7.2144203    684.19109    0.0269197  0.026800005            2 
 2119000   0.91066154   -7.2159644    682.87259  0.026855144  0.026793571            3 
 2120000   0.92366709   -7.2633057    682.27478  0.026818977   0.02678712            2 
 2121000   0.91577144   -7.2473009    683.12711  0.026839821  0.026780575            4 
 2122000   0.91412336   -7.2522031    684.25411  0.026871431  0.026774115            2 
 2123000   0.91304564   -7.2800181    682.47318  0.026788867  0.026767652            3 
 2124000   0.92397065   -7.2379931    683.10284  0.026800959  0.026761165            3 
 2125000   0.91739194    -7.215555     685.8926  0.026897749  0.026754813            5 
 2126000   0.90757359   -7.2349968     684.0393  0.026812453  0.026748455            4 
 2127000   0.90591181   -7.2402753    684.97021  0.026836319  0.026742094            3 
 2128000   0.90537956   -7.2518365    685.27789  0.026835757  0.026735759            4 
 2129000   0.90079691   -7.2697301    686.79108  0.026882381  0.026729471            6 
 2130000   0.91097607    -7.237985     683.9061   0.02675689  0.026723202            2 
 2131000   0.90699211   -7.2301649    685.41265  0.026803248  0.026716967            3 
 2132000   0.92984614   -7.2483857    686.12021  0.026818332  0.026710681            4 
 2133000    0.8986202   -7.2698093    685.58966  0.026785031  0.026704366            2 
 2134000   0.91029155   -7.2704128    686.36782  0.026802867  0.026698059            4 
 2135000   0.90766507   -7.2250545    686.57576  0.026798429   0.02669175            2 
 2136000   0.90522263   -7.2307465    685.35294  0.026738177  0.026685379            2 
 2137000   0.91611053   -7.2867065    685.73686  0.026740635  0.026679036            3 
 2138000   0.92169879   -7.2816981    685.72071  0.026727499  0.026672668            2 
 2139000   0.90178361   -7.2358956    685.08826  0.026690364  0.026666263            4 
 2140000   0.91651829   -7.2793409    685.73858  0.026703216  0.026659937            3 
 2141000   0.92605882   -7.3087288    686.64068  0.026725855  0.026653559            4 
 2142000   0.91487001   -7.2769073    687.46967   0.02674563  0.026647254            5 
 2143000   0.91442606   -7.2413468    687.30587   0.02672678  0.026640876            4 
 2144000   0.89715041     -7.23329    688.27258  0.026751888  0.026634579            3 
 2145000   0.90407487   -7.2298389    689.43956  0.026784754  0.026628259            2 
 2146000    0.9101284   -7.2743982    686.41324  0.026654755  0.026621917            3 
 2147000   0.90473113   -7.3026503    688.29621  0.026715425    0.0266156            2 
 2148000   0.92704813   -7.2596834    688.87131  0.026725299  0.026609278            2 
 2149000   0.92370097   -7.2543716    690.31224  0.026768739  0.026602981            6 
 2150000   0.88167976   -7.2380508    690.42849  0.026760794  0.026596734            6 
 2151000   0.90355483   -7.2710214    689.35914  0.026706925   0.02659052            2 
 2152000   0.90349374   -7.2603601    690.50424  0.026738857  0.026584326            2 
 2153000   0.91866382   -7.2458546    691.47054  0.026763839  0.026578131            2 
 2154000   0.90949565   -7.2677038    690.31345  0.026706648  0.026571956            1 
 2155000   0.89754695   -7.2610443    691.27853  0.026731575  0.026565759            2 
 2156000   0.90820339   -7.2717257    689.79987  0.026662023  0.026559555            4 
 2157000   0.90979717   -7.2996452    689.80105  0.026649708  0.026553288            3 
 2158000   0.90328307   -7.2519443    690.96934  0.026682474  0.026547057            3 
 2159000   0.87785323   -7.2621003    691.15814  0.026677402  0.026540856            4 
 2160000   0.90304358   -7.2348886      691.151  0.026664776   0.02653469            2 
 2161000   0.92441516   -7.2625127    691.37103  0.026660922  0.026528506            4 
 2162000    0.9127072   -7.2376916    693.05785  0.026713608  0.026522302            3 
 2163000    0.9008258   -7.2893807    692.44029  0.026677465  0.026516144            4 
 2164000   0.89579735   -7.2593059    691.86819  0.026643107  0.026509934            4 
 2165000   0.92415824   -7.2600607    692.77679  0.026665773  0.026503772            3 
 2166000   0.90462167   -7.2466951    693.09003  0.026665513  0.026497584            3 
 2167000   0.89268178   -7.2877065    693.27165  0.026660193  0.026491397            1 
 2168000   0.89748832   -7.2827545    693.24905  0.026647027   0.02648527            6 
 2169000    0.9186295   -7.2601463    692.54602  0.026607731  0.026479084            2 
 2170000   0.91929288   -7.2637034    693.92713  0.026648507  0.026472856            4 
 2171000   0.90076484   -7.2680641    692.55638  0.026583617  0.026466698            2 
 2172000   0.91583238   -7.2637853    693.34156  0.026601503  0.026460591            3 
 2173000   0.90767958   -7.2456591    694.01823  0.026615211  0.026454418            2 
 2174000   0.91174062   -7.2795553    693.44939  0.026581164  0.026448202            7 
 2175000   0.91858621   -7.2607921     694.7197  0.026617613  0.026441945            5 
 2176000   0.91038994    -7.283939    694.47109   0.02659586  0.026435692            3 
 2177000   0.89457973   -7.2606575    692.58055  0.026511275  0.026429526            2 
 2178000   0.91780051   -7.2719306    694.31157  0.026565334   0.02642331            2 
 2179000   0.90610411   -7.2764316    694.26891  0.026551511  0.026417174            2 
 2180000   0.91630239   -7.2749752    694.23789  0.026538146  0.026411001            6 
 2181000   0.89315686   -7.2734473    693.24269  0.026487953  0.026404816            4 
 2182000   0.91509326   -7.3094078    693.89553  0.026500746  0.026398599            2 
 2183000   0.90163329   -7.2422877    695.15424  0.026536656  0.026392395            4 
 2184000   0.90514485   -7.2658211    695.74574  0.026547075  0.026386227            3 
 2185000   0.91525294   -7.2831985    693.83801  0.026462167  0.026380013            6 
 2186000   0.88789838   -7.2846189    693.19906  0.026425704  0.026373753            4 
 2187000    0.8925539   -7.3125698     692.8046   0.02639859  0.026367474            3 
 2188000   0.89630052   -7.2599094     696.7769  0.026537816  0.026361221            4 
 2189000   0.91604525   -7.2851971    696.95353  0.026532417  0.026355049            3 
 2190000   0.89840173   -7.2900373    696.17788  0.026490787  0.026348867            3 
 2191000   0.89150757   -7.2643668    696.49437  0.026490734   0.02634274            4 
 2192000   0.88077171    -7.260141    696.95242  0.026496062  0.026336595            3 
 2193000   0.91544191   -7.2588016    697.42524  0.026501947  0.026330499            4 
 2194000   0.91799388   -7.2570377    697.79154  0.026503781  0.026324352            3 
 2195000   0.90517755   -7.2600345    699.76817  0.026566749  0.026318239            3 
 2196000   0.88778595   -7.2828315    697.76381   0.02647859  0.026312121            4 
 2197000   0.90953495   -7.2887267    696.83675  0.026431374  0.026306022            3 
 2198000   0.89361262   -7.2788183    698.47693  0.026481534  0.026299925            2 
 2199000    0.9183068   -7.3012994    698.12633  0.026456205  0.026293755            4 
 2200000   0.89514223    -7.291174    697.40442  0.026416834  0.026287585            7 
 2201000   0.88959524   -7.2597074    699.05551  0.026467345  0.026281401            3 
 2202000   0.87716609   -7.2704017    699.36444  0.026467016  0.026275259            2 
 2203000   0.90042927   -7.2753282     698.0254   0.02640435  0.026269119            5 
 2204000   0.90180963   -7.3017487    698.11452   0.02639574  0.026262991            7 
 2205000   0.89956152   -7.2663805    699.22053  0.026425568  0.026256927            4 
 2206000   0.90834735   -7.2995741    698.42566  0.026383562  0.026250871            2 
 2207000   0.88641665   -7.2846442    699.27071  0.026403516  0.026244783            4 
 2208000   0.88615593   -7.2551444    699.33582  0.026394015  0.026238696            3 
 2209000    0.8845223   -7.2786307    700.80118  0.026437346  0.026232573            2 
 2210000   0.86749089   -7.3010198     698.7392  0.026347632  0.026226421            2 
 2211000     0.908474   -7.2622692    702.21651  0.026466776  0.026220313            4 
 2212000   0.88403353   -7.2684296    701.53684  0.026429206  0.026214206            3 
 2213000   0.90755196   -7.2996059    697.99807  0.026284006  0.026208085            7 
 2214000   0.88533437   -7.2645054    700.78024  0.026376853  0.026201953            4 
 2215000   0.88964984   -7.2820272    701.09762  0.026376885  0.026195834            2 
 2216000   0.88897005   -7.2621961     699.9367  0.026321326  0.026189662            2 
 2217000   0.88926541     -7.31088    698.98853  0.026273813  0.026183416            5 
 2218000   0.88950202   -7.2939004    700.13649  0.026305098  0.026177151            6 
 2219000    0.8846016   -7.2835087    701.65819   0.02635039  0.026170944            6 
 2220000   0.90905747   -7.2991226    702.15274  0.026357085  0.026164765            6 
 2221000   0.91576359   -7.2969612    700.75209  0.026292664   0.02615855            5 
 2222000    0.9081316   -7.2653674    699.33307  0.026227613  0.026152276            2 
 2223000   0.90228671   -7.3009647    700.73937  0.026268533  0.026146057            3 
 2224000   0.88934706   -7.3368677    699.36729  0.026205309  0.026139758            3 
 2225000   0.89621468   -7.2912938    700.40769  0.026232498  0.026133476            2 
 2226000   0.88522108   -7.2953702    700.79949  0.026235381  0.026127171            3 
 2227000   0.90000869   -7.2844914    701.01132  0.026231527  0.026120926            2 
 2228000   0.89545316   -7.2858981     700.8327  0.026213072  0.026114656            2 
 2229000   0.90646093    -7.295141    702.26574  0.026254888  0.026108411            2 
 2230000   0.88273995   -7.2989547     700.5618   0.02617944  0.026102138            3 
 2231000   0.88688975   -7.2505954     701.6193  0.026207205  0.026095883            2 
 2232000   0.91624684   -7.2875944    702.46025  0.026226861  0.026089613            4 
 2233000   0.89681524   -7.2888242    700.78965  0.026152771  0.026083348            5 
 2234000   0.87658275   -7.2922244    699.88787  0.026107426  0.026077012            2 
 2235000   0.89016129   -7.3160084    701.98995  0.026174122  0.026070669            5 
 2236000   0.89304762   -7.2539682    701.26874  0.026135537  0.026064376            3 
 2237000   0.89493212    -7.284648    702.12647  0.026155807  0.026058091            5 
 2238000   0.87651454   -7.2428211    701.42588  0.026118033  0.026051789           12 
 2239000   0.87430013   -7.2925992    701.73075  0.026117714  0.026045451            3 
 2240000   0.92000375   -7.3094346    700.60599  0.026064211  0.026039096            2 
 2241000   0.88525626   -7.3085654    702.23803  0.026113269  0.026032728            4 
 2242000   0.90277873   -7.3012352    703.63595  0.026153581  0.026026314            7 
 2243000   0.91501852   -7.3276245    702.03508  0.026082445  0.026019914            4 
 2244000   0.89869245   -7.2689803    703.54628  0.026126941  0.026013519            3 
 2245000    0.8850285   -7.2441211    702.69083   0.02608355  0.026007129            3 
 2246000   0.88543341   -7.2731255    704.27192  0.026130599  0.026000714            2 
 2247000   0.88995574   -7.2808046    702.29953  0.026045821  0.025994352            3 
 2248000   0.88429619   -7.2980305    702.31679  0.026034875   0.02598795            2 
 2249000   0.90607595   -7.3281075    701.43221  0.025990522  0.025981569            3 
 2250000   0.89929417   -7.2942541    704.31953  0.026085909  0.025975174            2 
 2251000   0.89553781   -7.2816921    703.41029  0.026040659  0.025968772            2 
 2252000   0.87751394   -7.2949548    702.18551  0.025983774  0.025962368            4 
 2253000   0.89541148   -7.3142381    702.74181  0.025992817  0.025955939            6 
 2254000   0.88282469    -7.287848    703.91926  0.026024817   0.02594953            1 
 2255000   0.89136358   -7.2924081    703.93674  0.026013922  0.025943093            3 
 2256000   0.89655239   -7.2929559    705.81634  0.026071821  0.025936663            4 
 2257000   0.88705155   -7.2851125    703.26935  0.025966229  0.025930278            3 
 2258000   0.88092002   -7.3068269     704.2655  0.025991493  0.025923821            4 
 2259000   0.88671321   -7.3021198    704.15094  0.025975761  0.025917401            3 
 2260000   0.85774413   -7.3255085    702.94053  0.025919636  0.025910939            3 
 2261000   0.89092956   -7.3356319    703.38943  0.025924717  0.025904456            5 
 2262000   0.88961682   -7.3175942    703.41603  0.025914236  0.025897952            3 
 2263000   0.90939218   -7.2966322    704.30591  0.025935554  0.025891418            3 
 2264000    0.8852321   -7.3217096    702.04515  0.025840885  0.025884914            5 
 2265000    0.9068686   -7.2987279    704.79912  0.025930799  0.025878397            2 
 2266000   0.90150123   -7.2781327    704.76938  0.025918262  0.025871895            4 
 2267000   0.88119519   -7.3015545    703.89978  0.025874863  0.025865379            2 
 2268000   0.90463188   -7.2933437    704.95816  0.025902343  0.025858836            3 
 2269000   0.88643835   -7.3136094    704.56536  0.025876501  0.025852348            3 
 2270000   0.88884068   -7.2718177    705.77239  0.025909412   0.02584594            4 
 2271000   0.89643196   -7.3177641    705.14385  0.025874939  0.025839536            7 
 2272000   0.90066559   -7.2787677    706.29591  0.025905807  0.025833068            4 
 2273000   0.89289625   -7.2979057    705.48379  0.025864635  0.025826658            2 
 2274000   0.89521678   -7.2933067    706.66551  0.025896567  0.025820189            3 
 2275000   0.89207597   -7.2784339    707.84923  0.025928543  0.025813808            4 
 2276000   0.89603262   -7.3195985    705.60985  0.025835158  0.025807363            1 
 2277000   0.88055008   -7.2797671    708.81692  0.025941184  0.025800958            3 
 2278000   0.88265152   -7.2655123    706.80327  0.025856134  0.025794607            3 
 2279000   0.88947454   -7.2774305    707.40883  0.025866931  0.025788221            2 
 2280000   0.88358281   -7.2851712    706.80326  0.025833452  0.025781883            4 
 2281000   0.90575624   -7.2977441    706.93386  0.025826898  0.025775503            5 
 2282000   0.85615703   -7.2706364    708.12592  0.025859112  0.025769101            3 
 2283000   0.89663923   -7.3035471    706.62905  0.025793147  0.025762703            3 
 2284000   0.90103606   -7.3234836    707.70586  0.025821142  0.025756305            2 
 2285000   0.89144967   -7.3051806    707.62756  0.025806986  0.025749873            3 
 2286000   0.87625585   -7.2947763    710.46418  0.025899103  0.025743532            4 
 2287000   0.86747122   -7.3150754    708.67766  0.025822681  0.025737199            5 
 2288000   0.88726652   -7.2863603    710.74302  0.025886619  0.025730844            2 
 2289000   0.89717576   -7.3212096    709.17721  0.025818305  0.025724517            3 
 2290000   0.87220577   -7.3081889     711.6149  0.025895739  0.025718213            3 
 2291000   0.90897577   -7.3293049    708.04959   0.02575475  0.025711846            3 
 2292000   0.87959183   -7.3039333    710.45022  0.025830796  0.025705532            3 
 2293000   0.86967936   -7.2871017    709.34875  0.025779501  0.025699216            3 
 2294000   0.89495111   -7.3159467    709.62265  0.025778213   0.02569291            5 
 2295000   0.86837335   -7.2985588    711.76846  0.025844897  0.025686621            2 
 2296000   0.88224339   -7.2922695    710.91846  0.025802789  0.025680362            1 
 2297000   0.89414615   -7.3244416    711.08307  0.025797528   0.02567404            2 
 2298000   0.88511489   -7.3085943     711.3144  0.025794691  0.025667719            3 
 2299000   0.87207304   -7.3327568     709.0941   0.02570299  0.025661395            4 
 2300000   0.87710823   -7.3121749    711.88536  0.025792948  0.025655085            2 
 2301000   0.87874043   -7.3073795    710.64152  0.025736691  0.025648786            2 
 2302000    0.8815219   -7.3136753    712.64529  0.025798048  0.025642419            3 
 2303000    0.8874773   -7.3378992    711.69658  0.025752518   0.02563614            7 
 2304000   0.88688102   -7.3031824    711.82463  0.025745972  0.025629884            6 
 2305000   0.87513093   -7.3014444    713.49573  0.025795218  0.025623589            4 
 2306000   0.88791376   -7.3160832    711.06647  0.025696244  0.025617307            4 
 2307000   0.87441369   -7.3338659    711.42891  0.025698198  0.025610999            2 
 2308000   0.88633433   -7.3348713    710.47052   0.02565246  0.025604689            3 
 2309000   0.87851558   -7.3537458    711.00792  0.025660745  0.025598347            2 
 2310000    0.8690738   -7.3208597    711.64665  0.025672679  0.025592019            3 
 2311000   0.88439773   -7.2908468     713.4153  0.025725346  0.025585695           13 
 2312000   0.88456582   -7.3069063    712.59704  0.025684726  0.025579362            1 
 2313000   0.88880056   -7.3374599    711.81101  0.025645302  0.025573014            5 
 2314000   0.88285261    -7.330426    712.69645  0.025666107    0.0255667            2 
 2315000    0.8821433   -7.2969113    711.95419  0.025628301  0.025560404            4 
 2316000   0.88730978   -7.3325417    713.00973  0.025655215   0.02555415            2 
 2317000   0.88885959   -7.3139235    712.53234  0.025626972  0.025547804            6 
 2318000    0.8779764   -7.2939739    715.47493  0.025721704  0.025541498            2 
 2319000   0.87608992   -7.3357946    714.81935  0.025687055  0.025535259            8 
 2320000   0.89243557   -7.3349389    714.41243  0.025661366  0.025528997            4 
 2321000   0.87930943   -7.3549272    712.11206  0.025567717  0.025522699            3 
 2322000   0.89367825    -7.335492    714.16178  0.025630268  0.025516402            3 
 2323000   0.90023208   -7.3123122    714.52116  0.025632126  0.025510151            3 
 2324000   0.86772614   -7.3247003    716.08939  0.025677331  0.025503902            2 
 2325000   0.88192741   -7.2882909    714.69891  0.025616448  0.025497655            2 
 2326000   0.87896614   -7.2816512    716.19986   0.02565921   0.02549141            2 
 2327000    0.8824912   -7.3041274    714.38589  0.025583222  0.025485213            4 
 2328000   0.89356906   -7.3204841    713.29249  0.025533093  0.025478945            2 
 2329000   0.88006418   -7.3513704    715.20963  0.025590727    0.0254727            3 
 2330000   0.87902006   -7.3341325    714.57518  0.025557052   0.02546643            3 
 2331000   0.88593059   -7.3459707    714.38201  0.025539182  0.025460193            2 
 2332000   0.86637615   -7.3190402    716.92529  0.025619114  0.025453952            2 
 2333000   0.88363044    -7.335036    715.49527  0.025557053  0.025447742            6 
 2334000   0.87717701   -7.3324381    714.84822  0.025523001  0.025441491            1 
 2335000   0.88836893   -7.3035838     718.6044  0.025646124  0.025435222            4 
 2336000    0.8922816    -7.315179    717.10376  0.025581612   0.02542899            7 
 2337000   0.86595936   -7.2965033    717.24448  0.025575684  0.025422737            2 
 2338000   0.88789263    -7.330295    715.91722  0.025517437  0.025416522            1 
 2339000   0.86836876   -7.3256672    715.66467   0.02549753  0.025410213            3 
 2340000   0.86806782   -7.2917635    716.64561  0.025521567  0.025403947            2 
 2341000   0.89932306   -7.3183543    716.82724  0.025517131  0.025397704            3 
 2342000   0.86855478    -7.343795    715.61893  0.025463241  0.025391398            2 
 2343000   0.88239137    -7.334067    716.44547  0.025481771  0.025385087            9 
 2344000   0.87881565   -7.2981997    717.84473  0.025520646  0.025378797            5 
 2345000   0.89434948   -7.3250541     716.4351   0.02545967  0.025372509            4 
 2346000   0.87905201    -7.303719    720.04169  0.025576928  0.025366197            4 
 2347000   0.87788752   -7.2968514    718.02185  0.025494314  0.025359923           11 
 2348000   0.87082783   -7.3235774    717.16039  0.025452881  0.025353709            2 
 2349000   0.90860936   -7.3249513    718.28047  0.025481782  0.025347461            9 
 2350000   0.89180338   -7.3542471     716.6415  0.025412819  0.025341167            4 
 2351000   0.87418462   -7.3377519    716.90083  0.025411202  0.025334818            3 
 2352000     0.865055   -7.3312669    716.35999  0.025381235  0.025328489            4 
 2353000   0.88646962   -7.3653133    718.59953  0.025449764  0.025322163            3 
 2354000   0.87369727   -7.3510832    717.07683  0.025385048  0.025315794            4 
 2355000   0.86028617   -7.3275338    717.77488   0.02539897  0.025309518            3 
 2356000   0.87271628   -7.3297071    718.08792  0.025399261  0.025303233            4 
 2357000   0.86488161   -7.3102699     719.5149  0.025438937  0.025296983            7 
 2358000   0.87204481   -7.3429225    717.94341  0.025372611   0.02529073            7 
 2359000   0.88341065   -7.3221433    719.20556  0.025406442  0.025284456            3 
 2360000   0.86712688   -7.3570481    718.87428  0.025383979  0.025278146            3 
 2361000    0.8744752   -7.3116095    718.73852  0.025368436  0.025271789            2 
 2362000   0.87230732   -7.3126674    721.10706  0.025441259   0.02526553            4 
 2363000   0.86896663   -7.3338657    717.86578  0.025316186   0.02525926            4 
 2364000   0.86461749   -7.3036402    719.34554   0.02535764  0.025252974            3 
 2365000   0.89211213   -7.3461399     717.6778  0.025288154  0.025246749            4 
 2366000   0.89579929   -7.3626456    718.92892  0.025321532  0.025240469            7 
 2367000   0.87115844   -7.3286231    720.34151  0.025360566  0.025234217            3 
 2368000   0.85417817   -7.3415539    720.76238  0.025364667  0.025228032            3 
 2369000   0.85155109    -7.280717    722.09204  0.025400733  0.025221832            2 
 2370000   0.86237514   -7.3224754    720.68912  0.025340686  0.025215596            6 
 2371000   0.88345529   -7.3592216    721.44693  0.025356633   0.02520934            3 
 2372000   0.87442621   -7.3799814     721.2862  0.025340296  0.025203095            3 
 2373000    0.8710551   -7.3549212    721.53088   0.02533821  0.025196893            2 
 2374000   0.87266145    -7.351911    719.97601  0.025272957  0.025190691            3 
 2375000   0.88729278   -7.3347225    719.99429  0.025262958  0.025184484            6 
 2376000   0.86390086   -7.3425837    722.79256  0.025350468  0.025178267            2 
 2377000   0.85715863   -7.3635128    720.43735  0.025257234  0.025172049            3 
 2378000   0.88158835   -7.3268408    719.25805  0.025205286  0.025165786            2 
 2379000   0.87442627   -7.3408019    721.04762  0.025257378  0.025159497            3 
 2380000   0.85384896   -7.3381699    722.89628  0.025311495   0.02515324            2 
 2381000   0.87642882   -7.3828328    720.33105  0.025211082  0.025146921            3 
 2382000   0.88242653   -7.3616657    720.80194  0.025216973  0.025140664            6 
 2383000   0.86794722   -7.3302995    721.29315  0.025223568  0.025134407            2 
 2384000   0.87450826   -7.3058238    723.23766  0.025280959  0.025128225            5 
 2385000   0.87492415   -7.3299243    723.77848  0.025289255  0.025122058            2 
 2386000   0.86140436   -7.2990017    724.27254  0.025295911   0.02511587            4 
 2387000   0.84900003   -7.3680352    723.13783    0.0252457  0.025109656            4 
 2388000   0.87185428   -7.3623019    722.52398  0.025213707  0.025103385            3 
 2389000   0.87201124   -7.3526851    722.72849  0.025210286  0.025097126            5 
 2390000   0.84913302    -7.352346    723.79227   0.02523683  0.025090835            6 
 2391000   0.87419674   -7.3130578    722.98642  0.025198188  0.025084552            5 
 2392000   0.88080124   -7.3449308    721.56866  0.025138262  0.025078242            3 
 2393000   0.85916291   -7.3655235    723.62599  0.025199401  0.025071908            2 
 2394000   0.86775107      -7.3454    723.77019  0.025193894  0.025065623            5 
 2395000   0.86099509   -7.3519594    723.25614  0.025165489   0.02505936            4 
 2396000   0.87780993   -7.3142441    723.97506   0.02517999  0.025053125            2 
 2397000   0.88593349   -7.3405537    725.18237  0.025211458  0.025046875            5 
 2398000   0.86148322   -7.3396087    724.85803  0.025189673  0.025040647            2 
 2399000    0.8654498     -7.31816    725.34147  0.025195966  0.025034439            4 
 2400000   0.85967878   -7.3406147    725.32893  0.025185032  0.025028198            3 
 2401000   0.85682946   -7.3240337    725.07545  0.025165745  0.025021979            3 
 2402000    0.8662086   -7.3384674    724.45147   0.02513362  0.025015779            3 
 2403000   0.85179281   -7.3158543    724.35348  0.025119763    0.0250096            2 
 2404000   0.84876926   -7.3720791    726.61456  0.025187693  0.025003349            4 
 2405000   0.87817373   -7.3255725    725.43558  0.025136368  0.024997079            2 
 2406000    0.8591291   -7.3595551    723.78923  0.025068898  0.024990802            3 
 2407000    0.8782129   -7.3486287     723.8907  0.025061996  0.024984553            7 
 2408000   0.87160431   -7.3528021    725.12618  0.025094344  0.024978302            2 
 2409000    0.8643307   -7.3476153    725.16559  0.025085291  0.024972045            4 
 2410000   0.86408948   -7.3647594    725.67438  0.025092475  0.024965806            4 
 2411000    0.8508737   -7.3492103    725.64283  0.025080977    0.0249595            2 
 2412000   0.84301727   -7.3581183    725.36528   0.02506099  0.024953207            6 
 2413000   0.84866625   -7.3673476    725.52593  0.025056152  0.024946952            4 
 2414000   0.87934483   -7.3250487    727.12651  0.025101026  0.024940691            4 
 2415000   0.85339176   -7.3579763    725.87061  0.025047295  0.024934476            5 
 2416000    0.8591877   -7.3732412    726.12406   0.02504567  0.024928203            3 
 2417000   0.86397662   -7.3540688    728.60595  0.025120878  0.024921953            5 
 2418000   0.88519442    -7.398101    726.42715    0.0250354  0.024915755            4 
 2419000   0.87926307   -7.3555088    727.89941  0.025075769  0.024909618            5 
 2420000   0.85406076   -7.3564666    727.19372  0.025041106  0.024903411            3 
 2421000   0.86680681   -7.3731324    726.78518    0.0250167  0.024897206            2 
 2422000   0.85516073   -7.3843843    727.05851  0.025015776  0.024891002            3 
 2423000   0.87250311   -7.3319817    725.83729  0.024963451  0.024884761            2 
 2424000    0.8535248   -7.3578797     726.5592   0.02497797  0.024878541            5 
 2425000   0.86888486   -7.3517738    728.18992  0.025023709  0.024872278            6 
 2426000   0.88143817   -7.3841101    726.25708  0.024947001  0.024866028            3 
 2427000   0.86546012   -7.3608493    727.99533  0.024996406  0.024859727            3 
 2428000   0.87026712   -7.3590371    728.56633  0.025005709  0.024853441            4 
 2429000   0.86420493   -7.3652153    727.79419  0.024968924  0.024847172            3 
 2430000   0.87099939   -7.3932537    726.39972  0.024910827  0.024840885            3 
 2431000   0.85209342   -7.3741696    726.68861  0.024910483  0.024834571            4 
 2432000   0.87552389   -7.3349101    728.54758  0.024963938  0.024828297            2 
 2433000   0.87134784   -7.3369994    728.92684  0.024966668  0.024822091            3 
 2434000   0.85888527    -7.341085    727.45637  0.024906066  0.024815813            1 
 2435000   0.85542672   -7.3649222     726.9886  0.024879829  0.024809505            2 
 2436000   0.87033759   -7.3710198    728.91774  0.024935609  0.024803216            2 
 2437000   0.86740451   -7.3295022    729.69593  0.024951988   0.02479693            3 
 2438000   0.85827046   -7.3336133    728.61041  0.024904649  0.024790627            5 
 2439000   0.87193246   -7.3840865    726.93768  0.024837286  0.024784305            3 
 2440000    0.8708633   -7.3680013    727.67681   0.02485235  0.024777985            4 
 2441000   0.87010616   -7.3676189    728.18494  0.024859516  0.024771697            4 
 2442000   0.86685309   -7.3634252    729.52469  0.024895055  0.024765383            2 
 2443000   0.86051037   -7.3713756    728.57982  0.024852634  0.024759084            4 
 2444000   0.84898098   -7.3786044    727.89683  0.024819177  0.024752768            5 
 2445000   0.84566022   -7.3864113    727.06743  0.024780758  0.024746404            2 
 2446000    0.8464411    -7.384066    727.57869  0.024788045  0.024740033            5 
 2447000   0.86697889   -7.3629659    729.32452   0.02483737  0.024733679            4 
 2448000   0.86463727   -7.3832311    730.46763  0.024866137  0.024727374            1 
 2449000   0.86676716    -7.390492    729.25128  0.024814594  0.024721073            3 
 2450000   0.85276663   -7.3785105    730.45263  0.024845327  0.024714744            2 
 2451000   0.86744906   -7.3817222    729.40537  0.024799584  0.024708444            3 
 2452000   0.85667377   -7.3248288    732.06223  0.024879766    0.0247022            3 
 2453000   0.85274122   -7.3494899    731.24559   0.02484188  0.024695962            6 
 2454000   0.84540587   -7.3561483    731.97019  0.024856363    0.0246897            2 
 2455000   0.87463113     -7.38327    729.30075  0.024755626  0.024683402            2 
 2456000   0.84957778   -7.3854527    730.29153  0.024779164  0.024677073            3 
 2457000   0.83974944    -7.370009    729.34027  0.024736815  0.024670752            4 
 2458000   0.83611307   -7.3726589    729.60313  0.024735664  0.024664382            4 
 2459000   0.85339364   -7.3829936    729.23577  0.024713155  0.024657983            5 
 2460000   0.84532848   -7.3764641     730.8837  0.024758933  0.024651564            6 
 2461000   0.85413685   -7.3753615    730.05938   0.02472096  0.024645161            4 
 2462000   0.86198782   -7.3588335    730.00677  0.024709138  0.024638771            6 
 2463000   0.85649717   -7.3818184    731.42724  0.024747166  0.024632384            3 
 2464000   0.86007909   -7.3395177    731.04837  0.024724309  0.024626061            5 
 2465000   0.88190385   -7.3779974    730.41324  0.024692807  0.024619745            5 
 2466000   0.85020434   -7.3308344    730.59808   0.02468904   0.02461345            2 
 2467000   0.85217863   -7.3591016    731.21838  0.024699986  0.024607139            3 
 2468000   0.87887927   -7.3936464     730.3688  0.024661291  0.024600785            8 
 2469000   0.84560014   -7.3724267    731.15291  0.024677768  0.024594412            3 
 2470000   0.86039578   -7.3471726    730.81657  0.024656429  0.024588083            4 
 2471000    0.8586335   -7.3837738    731.66396  0.024675029  0.024581729            4 
 2472000   0.85405603   -7.3933106    731.52675  0.024660422  0.024575402            4 
 2473000   0.84699372   -7.3539244    731.22965  0.024640439  0.024569029            3 
 2474000   0.85095641   -7.3609679    729.64128  0.024576976  0.024562638            2 
 2475000   0.86859542   -7.3420056    731.93681  0.024644337  0.024556311            4 
 2476000   0.85902476   -7.3573745    731.70476  0.024626574  0.024550033            2 
 2477000   0.84006563   -7.3610482    731.05694  0.024594837  0.024543719            2 
 2478000   0.84741943   -7.3482226    734.64339  0.024705522   0.02453743            3 
 2479000   0.84005425   -7.3909707    732.05577  0.024608571  0.024531122            3 
 2480000   0.87357834   -7.3785267    732.89347  0.024626797   0.02452477            3 
 2481000   0.84506663   -7.3594966    732.30379  0.024597064  0.024518458            3 
 2482000   0.85456458   -7.3758877    733.43073  0.024624991  0.024512111            2 
 2483000   0.85134068   -7.3941738    733.14495  0.024605482  0.024505767            5 
 2484000   0.85948175    -7.404555    732.97953  0.024590027  0.024499464            6 
 2485000   0.85845449   -7.3698393    734.90851  0.024644819  0.024493165            4 
 2486000   0.85889248   -7.4072253    731.78721  0.024530276  0.024486847            3 
 2487000   0.84160973   -7.3394871    735.13203   0.02463249  0.024480559            4 
 2488000   0.85656667     -7.39588    733.52698   0.02456883   0.02447424            3 
 2489000   0.85840163   -7.3497816    733.40244  0.024554789  0.024467873            4 
 2490000   0.84473196   -7.3645315    731.61527  0.024485116  0.024461526           10 
 2491000   0.85157435   -7.3767042    733.32876  0.024532609  0.024455191            2 
 2492000   0.84629757     -7.36332    734.04921  0.024546857  0.024448823            5 
 2493000   0.86208071   -7.3828117     732.5127   0.02448565  0.024442508            5 
 2494000   0.83910252   -7.3811981    733.48102  0.024508187  0.024436152            3 
 2495000   0.86217845   -7.3683474    732.36634  0.024461134  0.024429807            3 
 2496000   0.84785276   -7.3742976    732.77292  0.024464908  0.024423427            6 
 2497000   0.85180704   -7.3745423    733.85014  0.024491061  0.024417096            3 
 2498000   0.84400031   -7.3550377    732.87197  0.024448625   0.02441077            3 
 2499000   0.86221448   -7.3545872    734.64457  0.024497952  0.024404458            2 
 2500000   0.85617125   -7.3757735    734.81892  0.024493964  0.024398069            3 
 2501000   0.86228581   -7.3796705    735.01987  0.024490866  0.024391723            3 
 2502000   0.86702109   -7.3814363     736.2893  0.024523358  0.024385389            3 
 2503000    0.8452358   -7.3957297    735.15611  0.024475833  0.024379097            2 
 2504000   0.86860633   -7.3499789    734.14326   0.02443235  0.024372824            2 
 2505000    0.8688611   -7.3954869    735.37488  0.024463569  0.024366578            5 
 2506000   0.84074394   -7.3641186    735.54937  0.024459609  0.024360256            8 
 2507000   0.83673097   -7.3781062    736.61349  0.024485224  0.024353971            5 
 2508000    0.8382808   -7.3743757    736.90642  0.024485195  0.024347666            4 
 2509000   0.84354007   -7.3907903    735.48867  0.024428347  0.024341345            2 
 2510000   0.83584797   -7.3897679    735.46065  0.024417684  0.024335006            2 
 2511000   0.83822722   -7.4148647    734.01092  0.024359847   0.02432866            3 
 2512000   0.85881473   -7.3649561    737.86771  0.024478095  0.024322352            4 
 2513000   0.86753298   -7.3841355    736.04119  0.024407786   0.02431605            2 
 2514000   0.85606242   -7.4006468    735.92535  0.024394237  0.024309776            5 
 2515000   0.83195086   -7.3613767    738.87731  0.024482349  0.024303493            2 
 2516000   0.85161185   -7.4058654    736.63194  0.024398249  0.024297236            2 
 2517000   0.85419587   -7.4130598    736.26165  0.024376296  0.024290915           10 
 2518000     0.845007   -7.3952929    737.32682  0.024401867  0.024284587            2 
 2519000   0.85842117   -7.3876597     736.3995  0.024361503  0.024278255            5 
 2520000   0.85734413   -7.3777741    736.34639  0.024350079   0.02427191            5 
 2521000   0.85417832   -7.3629118    737.67977  0.024384496  0.024265596            4 
 2522000   0.85682632   -7.4011372    735.90777  0.024316276   0.02425925            4 
 2523000   0.86755737   -7.3922069     736.6692  0.024331787  0.024252862            6 
 2524000   0.85076429   -7.4035271    735.16478  0.024272477  0.024246439            2 
 2525000   0.82840559   -7.4187578    736.41442  0.024304106  0.024240017            8 
 2526000   0.84520737   -7.4254953    735.59027  0.024267296  0.024233555            3 
 2527000    0.8518124   -7.4214728    735.95947  0.024269868  0.024227194            3 
 2528000   0.84049553    -7.374934    738.69567  0.024350464  0.024220824            3 
 2529000   0.84723915   -7.3990229    737.33331  0.024295944  0.024214517            2 
 2530000   0.85485535    -7.385324    737.20933  0.024282257   0.02420818            3 
 2531000   0.84910756   -7.3830745    738.35869  0.024310506  0.024201848            2 
 2532000   0.84607095    -7.370723    738.14948  0.024294019    0.0241955            2 
 2533000   0.83618608   -7.3787938    737.06629  0.024248792  0.024189165            2 
 2534000   0.86492784   -7.3628267    739.26525  0.024311538  0.024182842            2 
 2535000   0.85204885   -7.3688476    738.71888  0.024283987  0.024176573            3 
 2536000   0.82748833   -7.3715199    737.69363  0.024240721  0.024170271            4 
 2537000   0.85900848   -7.3685932    739.44086  0.024288558  0.024163942            2 
 2538000   0.85009915   -7.4139619    737.56054  0.024217249  0.024157606            2 
 2539000   0.84384666   -7.4007497    738.13736  0.024226643  0.024151263            7 
 2540000   0.83636046   -7.3992361    738.08039  0.024215236   0.02414494            3 
 2541000   0.84438569   -7.4434464    737.31619  0.024180644  0.024138602            3 
 2542000   0.84636188   -7.3787556    741.72435  0.024315642  0.024132326            2 
 2543000   0.84013463   -7.3428494    740.66504  0.024271367  0.024126049            4 
 2544000   0.83655823   -7.3892346    740.17832  0.024245883  0.024119775            3 
 2545000   0.84480909   -7.3825108    739.79648  0.024223853  0.024113465            2 
 2546000   0.83970187   -7.3867306    739.07958  0.024190874  0.024107141            3 
 2547000    0.8383786   -7.3951816    740.35199  0.024223007  0.024100804            3 
 2548000    0.8377223   -7.3922468    739.20954  0.024176136  0.024094489            5 
 2549000   0.85830741   -7.4265292    738.85561  0.024155081  0.024088188            2 
 2550000    0.8472702   -7.4023331    740.91356  0.024212861  0.024081908            2 
 2551000   0.84921306    -7.413754    740.02824  0.024174449  0.024075587            4 
 2552000   0.83627155   -7.4185406     738.5819  0.024117748  0.024069227            3 
 2553000   0.85019675   -7.4263748    739.19053  0.024128167  0.024062897            4 
 2554000   0.86450466   -7.3993149    739.62492  0.024132894  0.024056597            2 
 2555000   0.83067526   -7.4112886    740.33328  0.024146552  0.024050251            8 
 2556000   0.85320687   -7.4126891    738.55133  0.024079008  0.024043894            2 
 2557000   0.83951456   -7.4047697    741.17206  0.024155001  0.024037534           10 
 2558000   0.84300408   -7.4240131    739.07807  0.024077341  0.024031145            2 
 2559000   0.84164888   -7.4094275    738.18368  0.024038807  0.024024781            4 
 2560000    0.8303419   -7.4101572    741.66454  0.024142726  0.024018422            4 
 2561000   0.84202967   -7.3850181    742.04614  0.024145716  0.024012089            2 
 2562000    0.8394374   -7.4224091    740.62163  0.024089957  0.024005746            2 
 2563000   0.83130875   -7.4159428    741.40711  0.024106097  0.023999352            2 
 2564000   0.84347614   -7.4056585    741.21371  0.024090409  0.023992964            3 
 2565000   0.85871402   -7.4150299    738.90203  0.024005914  0.023986544            3 
 2566000   0.83036823   -7.4128703    737.84543  0.023962245  0.023980102            2 
 2567000   0.84462764   -7.3636774    739.68067  0.024012488  0.023973699            3 
 2568000   0.85532554   -7.4161627    739.11011  0.023984622  0.023967282            2 
 2569000   0.83833036   -7.4329275    740.12306  0.024008144   0.02396083            3 
 2570000   0.86768771   -7.4324216    741.01999  0.024027885  0.023954441            2 
 2571000   0.83882811    -7.402168    741.27298   0.02402674  0.023948088            2 
 2572000    0.8435113   -7.4069066    739.94943  0.023974515  0.023941689            4 
 2573000    0.8474313   -7.4211769    740.31386     0.023977  0.023935322            5 
 2574000   0.84648034   -7.4365133    741.92069  0.024019706  0.023928924            5 
 2575000   0.86927574   -7.4227666    741.94506  0.024011167  0.023922515            3 
 2576000   0.84841623   -7.4068795     739.7868  0.023932026  0.023916134            3 
 2577000   0.84851007   -7.4199529     740.9191  0.023959355  0.023909732            6 
 2578000   0.84634607   -7.3941259    741.38912  0.023965255  0.023903359            1 
 2579000   0.83987908    -7.412758     742.1416  0.023980277  0.023896972            5 
 2580000    0.8487863   -7.4024691    741.59828  0.023953433  0.023890656            7 
 2581000   0.83679704   -7.4233886    742.13856  0.023961596  0.023884341            5 
 2582000   0.84665514   -7.4174555    739.85541  0.023878628  0.023877898            4 
 2583000   0.83670309    -7.421991    741.03726  0.023907512   0.02387143            3 
 2584000   0.83171289   -7.4178869    742.69369   0.02395168  0.023865038            2 
 2585000   0.83269463   -7.3978793    742.86244  0.023947854  0.023858686            3 
 2586000   0.82742325   -7.4211854    741.92097  0.023908255  0.023852335            3 
 2587000   0.82519323   -7.3967456    743.07979  0.023936341  0.023845969            5 
 2588000   0.82748542   -7.4413137    740.38806  0.023840419  0.023839581            3 
 2589000   0.83913248   -7.4103027    743.32734  0.023925819  0.023833196            2 
 2590000   0.82663953   -7.4184371    743.84933  0.023933376  0.023826828            4 
 2591000   0.84486693   -7.4154542    743.04839  0.023898379  0.023820471            2 
 2592000   0.84639054   -7.3867453    743.16647  0.023892955  0.023814129            5 
 2593000   0.83936716   -7.4314147    742.65978  0.023867456  0.023807741            1 
 2594000   0.84046772   -7.4513261    741.51045  0.023821333  0.023801332            2 
 2595000   0.83398181   -7.4119565    742.58517  0.023846666  0.023794949            2 
 2596000   0.85045956   -7.4173189    743.86905  0.023878693  0.023788602            5 
 2597000    0.8322757   -7.4061703     743.9331  0.023871554  0.023782268            7 
 2598000   0.82136061   -7.4248399    743.78921   0.02385775  0.023775933            5 
 2599000     0.854165   -7.4007121    742.45921  0.023805926  0.023769585            3 
 2600000   0.85325251   -7.4207666    742.98333  0.023813568  0.023763211            2 
 2601000   0.83648542   -7.3993931    741.45095  0.023755317  0.023756826            3 
 2602000    0.8429686   -7.4014734    745.25845  0.023868129  0.023750469            2 
 2603000   0.82543018     -7.43495    744.53014  0.023835643  0.023744122            3 
 2604000   0.83663673   -7.4305849    744.28091  0.023818513  0.023737772            6 
 2605000   0.83712903   -7.4247412    743.72449   0.02379157  0.023731394            7 
 2606000    0.8257595    -7.415274     743.9552  0.023789818  0.023725051            9 
 2607000   0.83936784   -7.3953735    743.30233  0.023759824  0.023718666            3 
 2608000   0.83529312    -7.407004    743.92039  0.023770462  0.023712265            3 
 2609000   0.83765901   -7.4535637      743.268  0.023740514  0.023705878            2 
 2610000   0.83147043   -7.4118953    744.02103  0.023755461  0.023699485            4 
 2611000   0.83249613   -7.4377309    745.03274  0.023778653  0.023693117            4 
 2612000   0.81333735   -7.4328338     744.0651  0.023738677  0.023686713            5 
 2613000    0.8357853   -7.4321269    743.15304  0.023700505  0.023680355            2 
 2614000   0.84401227   -7.4024125    746.79967  0.023807692  0.023673991            3 
 2615000   0.82995974   -7.4100278    745.28558  0.023750337  0.023667648            8 
 2616000    0.8255181   -7.4568893    744.12132   0.02370417  0.023661292            4 
 2617000   0.84184743   -7.4264329    745.72383  0.023746142   0.02365489            5 
 2618000   0.83622383    -7.436014    747.13738  0.023782066  0.023648524            3 
 2619000   0.83262462   -7.4244754    744.47136  0.023688156  0.023642183            6 
 2620000   0.84051323   -7.4166568     745.1147  0.023699577    0.0236358            4 
 2621000   0.82464534   -7.4197974    746.16705  0.023723994  0.023629475            5 
 2622000   0.81721822   -7.4255057    747.19599  0.023747648  0.023623145            7 
 2623000   0.82299095   -7.4370451    744.48103  0.023652339  0.023616803            7 
 2624000    0.8143405   -7.4394842    744.14918  0.023632786  0.023610399            3 
 2625000   0.82776911   -7.4202175    745.98642  0.023682109  0.023604002            3 
 2626000   0.84412429   -7.4150825      747.001  0.023705287  0.023597668            4 
 2627000   0.83044984   -7.4155568    745.38563  0.023645021  0.023591286            7 
 2628000   0.83579888   -7.4424775     745.3198  0.023633936  0.023584921            6 
 2629000   0.82021634   -7.4486518    746.35082  0.023657627  0.023578554            2 
 2630000   0.83154598   -7.4163532    747.16841  0.023674538  0.023572227            2 
 2631000   0.85210336   -7.4220598    746.26002  0.023636767  0.023565896            3 
 2632000   0.84371172   -7.4159044     748.0809  0.023685439  0.023559584            6 
 2633000   0.82866908   -7.4361828    746.36538  0.023622148   0.02355326            3 
 2634000   0.82999649   -7.4070237    746.12947  0.023605716   0.02354696            4 
 2635000     0.838616   -7.4361865    745.77256   0.02358547  0.023540615            4 
 2636000     0.830686   -7.4419735    746.65529  0.023604429  0.023534267            6 
 2637000    0.8458386   -7.4297933    747.08814  0.023609156  0.023527927            2 
 2638000   0.82177525   -7.4434403    746.39845  0.023578419  0.023521559            3 
 2639000   0.82984168   -7.4265694    747.42454  0.023601887  0.023515175            2 
 2640000   0.83318778   -7.4142198    749.19224  0.023648745  0.023508842            5 
 2641000   0.81195897   -7.4387215    747.14089  0.023575063  0.023502532            8 
 2642000   0.83467724   -7.4337696     747.3817  0.023573735  0.023496208            4 
 2643000    0.8272985   -7.4316132    747.97441  0.023583504  0.023489902            3 
 2644000   0.83314941   -7.4303496    749.30478  0.023616515   0.02348356           10 
 2645000   0.82549557   -7.3951323    751.38907  0.023673254  0.023477365            2 
 2646000   0.82495185   -7.4027465    749.54248   0.02360615  0.023471117            8 
 2647000   0.80524839   -7.4534668    748.44437  0.023562661   0.02346481            5 
 2648000   0.84083477   -7.4265845    749.44992  0.023585408  0.023458548            4 
 2649000   0.83256563   -7.4393551    748.45844  0.023545314  0.023452247            4 
 2650000   0.83532477    -7.422098    748.59856  0.023540835  0.023445899            5 
 2651000   0.80336507   -7.4457692    749.78579  0.023569275  0.023439594            7 
 2652000   0.83839973    -7.443361     748.4575  0.023518649  0.023433301            2 
 2653000   0.80756226   -7.4428247    748.68853  0.023517041   0.02342701            7 
 2654000   0.84972092   -7.4362433    748.81997  0.023512307    0.0234207            5 
 2655000   0.82747716    -7.462292     745.9036  0.023411915    0.0234144            7 
 2656000   0.82972315   -7.4477779    749.33685   0.02351082  0.023408071            2 
 2657000   0.81694727   -7.4321975    749.06901  0.023493571  0.023401794            3 
 2658000    0.8114344   -7.4533882    749.24315  0.023490191  0.023395478            4 
 2659000   0.83390258   -7.4316872    752.08142  0.023570309  0.023389191            3 
 2660000    0.8375802   -7.4271016    750.34417  0.023507023  0.023382894            9 
 2661000   0.81514503    -7.408097    748.76126  0.023448618  0.023376615            8 
 2662000   0.84783014   -7.4362198    749.42946  0.023460727  0.023370314            2 
 2663000   0.81940442   -7.4589762    750.61241  0.023488935  0.023364003           10 
 2664000   0.82527166   -7.4214518    751.00803  0.023492494  0.023357684            3 
 2665000    0.8231451    -7.453878    750.04707  0.023453629  0.023351369            5 
 2666000   0.82316175   -7.4533313    751.00468  0.023474765  0.023345086            2 
 2667000   0.82165706   -7.4441684    750.34292  0.023445286  0.023338808            3 
 2668000      0.83457   -7.4848629    749.86199  0.023421477  0.023332511            4 
 2669000    0.8237458   -7.4469348    750.08282  0.023419596  0.023326234            3 
 2670000   0.83360559   -7.4240464    752.64243  0.023490712   0.02331995            3 
 2671000   0.81371417   -7.4502739    749.83404  0.023394298   0.02331367            3 
 2672000   0.83244719   -7.4786351    749.97305  0.023389878  0.023307358            4 
 2673000   0.82876221   -7.4370808     751.4638  0.023427603  0.023301063            4 
 2674000   0.83565054   -7.4397303    751.98706  0.023435149  0.023294776            5 
 2675000   0.80588944   -7.4382627    752.55908  0.023444208  0.023288511            4 
 2676000   0.82820024   -7.4152902    751.51748  0.023403011  0.023282278            5 
 2677000   0.84670034   -7.4485571    753.06265  0.023442369  0.023276041            3 
 2678000   0.84218964    -7.457507    751.77219  0.023393459    0.0232698            5 
 2679000   0.83813421   -7.4614819    749.30114  0.023307862  0.023263486            5 
 2680000   0.82272808   -7.4616037     751.9371  0.023381129  0.023257182            2 
 2681000   0.80447014   -7.4647284    750.27084  0.023320615  0.023250885            3 
 2682000   0.81992166   -7.4669398    750.43593   0.02331705  0.023244559            6 
 2683000   0.81436248   -7.4591567     751.3715  0.023337418  0.023238259            5 
 2684000   0.81501003   -7.4520026    752.70346  0.023370078  0.023231954            4 
 2685000   0.83346293   -7.4460613    751.11074  0.023311941  0.023225659            3 
 2686000   0.83394039   -7.4685564    751.55605  0.023317078  0.023219378            2 
 2687000   0.80598187   -7.4534833    751.77017  0.023315041  0.023213061            4 
 2688000   0.80994849   -7.4267166    752.01872  0.023314073  0.023206731            3 
 2689000   0.84336474   -7.4943302    750.25082  0.023250614  0.023200366            3 
 2690000   0.83216509   -7.4618724    750.24737  0.023241864  0.023194022            4 
 2691000   0.81553124   -7.4714598    750.93451  0.023254506  0.023187668            2 
 2692000   0.81391236   -7.4373775    750.98056  0.023247293  0.023181336            3 
 2693000   0.83758153   -7.4499749    751.49098  0.023254455  0.023175018            4 
 2694000   0.79537442   -7.4146829    750.14622  0.023204226   0.02316869            6 
 2695000   0.81148967   -7.4726435    752.46078  0.023267186  0.023162372            4 
 2696000   0.83527479   -7.4579377    752.07948  0.023246769  0.023156035            5 
 2697000   0.81475314   -7.4386238    752.62007  0.023254853  0.023149702            4 
 2698000   0.82021048   -7.4624579    754.83242  0.023314567  0.023143398            1 
 2699000   0.82413114   -7.4626582    751.54369  0.023204387  0.023137087            3 
 2700000   0.79937539   -7.4904216    751.93481  0.023207865  0.023130721            4 
 2701000   0.82261911   -7.4541758     752.7341  0.023223932  0.023124381            2 
 2702000    0.8145664   -7.4835165    751.79648   0.02318642  0.023118032            6 
 2703000   0.81626383   -7.4413325    752.07938  0.023186564  0.023111708            7 
 2704000   0.82412651   -7.4789244    751.71887  0.023166878  0.023105376            4 
 2705000   0.82296008   -7.4882202    752.21703  0.023173661  0.023099047            5 
 2706000   0.82318248   -7.4566335    753.94607  0.023218344  0.023092713            6 
 2707000    0.8126489   -7.4668804    753.16821  0.023185821  0.023086424            5 
 2708000   0.81816791   -7.4398585     752.0565  0.023143048  0.023080141            5 
 2709000   0.83244715   -7.4348932    755.64134  0.023244781  0.023073865            3 
 2710000   0.81578239   -7.4612748    751.95363  0.023122805  0.023067582            2 
 2711000    0.8002799   -7.4773238     752.7828  0.023139764  0.023061267            5 
 2712000   0.82955845   -7.4617458    754.79395  0.023193029  0.023054952            4 
 2713000   0.81131167   -7.4653946    753.16656  0.023134493  0.023048634            4 
 2714000   0.80483336   -7.4760856    753.11094  0.023124261  0.023042325            4 
 2715000   0.79809208   -7.4420688    753.37522  0.023123856  0.023035995            3 
 2716000   0.82447712   -7.4597211    752.48959  0.023088169  0.023029711            3 
 2717000   0.85286479   -7.4633534    754.05208  0.023127594  0.023023393            3 
 2718000   0.82324269   -7.4334338    752.92317  0.023084473  0.023017106            3 
 2719000   0.79797502   -7.4563923     754.3095  0.023118472   0.02301083            2 
 2720000   0.81211619   -7.4803585    754.95281  0.023129682  0.023004537            3 
 2721000   0.82050285    -7.478672    753.32344   0.02307128  0.022998231            5 
 2722000   0.81457633   -7.4600415    754.54975  0.023100347  0.022991984            3 
 2723000   0.81021122   -7.4730916    754.54431  0.023091698  0.022985699            5 
 2724000   0.81996204   -7.4688716    754.79157  0.023090785   0.02297942            3 
 2725000   0.81459429   -7.4367282    755.09558  0.023091608  0.022973139            4 
 2726000   0.83024668   -7.4505203     756.7769  0.023134535  0.022966871            2 
 2727000   0.82387103   -7.4430249    754.09578   0.02304412  0.022960599            4 
 2728000   0.80447916   -7.4623385    755.99309  0.023093631  0.022954281            3 
 2729000    0.8240659   -7.4592673    754.47714  0.023038877  0.022947989            2 
 2730000    0.8167428     -7.49105    753.53971  0.023001823  0.022941677            2 
 2731000   0.83497511   -7.4504562    755.65833  0.023058047  0.022935366            2 
 2732000   0.82540509   -7.4944178    755.86873  0.023056025  0.022929087            4 
 2733000   0.80031576   -7.4737402    753.88132   0.02298699  0.022922789            4 
 2734000   0.80433492   -7.4840282    755.25437  0.023020433  0.022916478            3 
 2735000   0.80396257   -7.4771866    756.54823  0.023051439  0.022910216            2 
 2736000   0.80865207   -7.4535159     756.4198  0.023039102  0.022903957            4 
 2737000   0.81377311    -7.448976    756.39147  0.023029822  0.022897721            3 
 2738000   0.81633646   -7.4716854    754.55314   0.02296546  0.022891446            6 
 2739000   0.82328068   -7.4844539    756.56925  0.023018415  0.022885192            2 
 2740000   0.81282767   -7.4681959    755.77055  0.022985722  0.022878958            4 
 2741000   0.80076148   -7.4493821    756.76878  0.023007685  0.022872717            5 
 2742000   0.81862052   -7.4583903    756.97854  0.023005669  0.022866469            7 
 2743000   0.81436225   -7.4830804    757.13318   0.02300198   0.02286022            6 
 2744000   0.83759081   -7.4772821    757.34451  0.023000015  0.022853987            5 
 2745000   0.81599082    -7.486356    756.92487  0.022978897  0.022847733            6 
 2746000   0.82418644   -7.4689462    755.57206  0.022929475   0.02284147            3 
 2747000   0.83135191   -7.4636636    757.07435  0.022966702   0.02283524            6 
 2748000   0.80805582   -7.4484982    757.98969  0.022986102  0.022828999            2 
 2749000   0.79548786   -7.4713839    757.76308  0.022970871  0.022822765            2 
 2750000   0.81258598   -7.4648851    757.82226  0.022964311  0.022816546            2 
 2751000   0.81301391   -7.5127885    756.41679  0.022913389  0.022810302            2 
 2752000   0.80612309    -7.485285     756.5145  0.022908022  0.022804051            5 
 2753000   0.80412392   -7.4622605    756.96022  0.022913192  0.022797782            4 
 2754000   0.80457891   -7.4466176    759.57479  0.022983986  0.022791551            5 
 2755000   0.81319796   -7.4873011    753.86175  0.022802836   0.02278531            4 
 2756000   0.80118728   -7.4701542    758.12719  0.022923536  0.022779051            5 
 2757000   0.80234099   -7.4669738    758.01323  0.022911777  0.022772819            2 
 2758000   0.80432435   -7.4780921    756.34946  0.022853199  0.022766579            3 
 2759000   0.80117517   -7.4625749     756.9878  0.022864196  0.022760365            4 
 2760000   0.80284877   -7.4746927    758.97214  0.022915825  0.022754149            3 
 2761000    0.8234125   -7.4629668    759.03402  0.022909393  0.022747944            9 
 2762000    0.8058043    -7.451346    759.91751  0.022927755  0.022741752            3 
 2763000   0.79684258   -7.4579816    759.90699   0.02291914   0.02273557            2 
 2764000   0.79893001    -7.490597    758.54542  0.022869797  0.022729372            6 
 2765000   0.81058946   -7.4574053    759.70391  0.022896441  0.022723169            8 
 2766000   0.81892091   -7.4637469    758.52144  0.022852538  0.022716982            8 
 2767000   0.80792184   -7.4782865    759.67474  0.022879013  0.022710772            3 
 2768000   0.80775767   -7.4923746    759.25653  0.022858157  0.022704535            3 
 2769000   0.80329967   -7.4718189    758.56132  0.022828979  0.022698315            5 
 2770000   0.80034382   -7.4672383    758.40567  0.022816055  0.022692122           11 
 2771000   0.80496746   -7.4648401    758.26609  0.022803624  0.022685917            6 
 2772000   0.79720772   -7.4573819    759.73979    0.0228397  0.022679737            5 
 2773000   0.80981961   -7.4973947    759.16537  0.022814201  0.022673502            3 
 2774000   0.81215945   -7.5099215    757.04978  0.022742423   0.02266724            2 
 2775000   0.80177316   -7.4851611    756.99073  0.022732454  0.022660964            4 
 2776000   0.81184199   -7.4542435    758.87108  0.022780712  0.022654695            4 
 2777000   0.80392939   -7.4771484    758.24543  0.022753734  0.022648402            4 
 2778000   0.81331958   -7.4921045    758.45457  0.022751817  0.022642079           12 
 2779000   0.81029997   -7.4835752    757.49884  0.022714971  0.022635809            3 
 2780000    0.8121734   -7.5145555     758.2834  0.022730318   0.02262954            2 
 2781000    0.8042679    -7.507413    760.33399  0.022783591  0.022623278            4 
 2782000    0.7961369    -7.469587     758.4441   0.02271879  0.022617033            7 
 2783000   0.78191786   -7.5176112    757.83767  0.022692468  0.022610755            8 
 2784000   0.80931197   -7.4816817    758.34143  0.022699396  0.022604477            8 
 2785000    0.7986733   -7.4932163     759.2008   0.02271696  0.022598184            2 
 2786000   0.80708292   -7.5132087    759.39787  0.022714701  0.022591881            2 
 2787000   0.81260562   -7.4883763    760.07095  0.022726676  0.022585605            5 
 2788000   0.81600671   -7.4815525    759.30336  0.022695581   0.02257934            5 
 2789000   0.80851649   -7.4723991    759.30709  0.022687555  0.022573088            3 
 2790000   0.81240084   -7.4899767     760.3418  0.022710329  0.022566829            8 
 2791000   0.80287249   -7.4894301    760.76729  0.022714896  0.022560569            3 
 2792000   0.79729765   -7.4791099    759.27908  0.022662341  0.022554322            4 
 2793000   0.79544009   -7.4735542    761.25067  0.022713053  0.022548099            7 
 2794000   0.81299401   -7.4381352    762.34674  0.022737615  0.022541926            3 
 2795000   0.80522739   -7.4459503    762.19014   0.02272481   0.02253575            2 
 2796000   0.82297517   -7.4580148    761.23992  0.022688362  0.022529527            6 
 2797000   0.80339514   -7.4797007    760.72261  0.022664838  0.022523369            1 
 2798000   0.80037356   -7.4859585    760.76895  0.022658117  0.022517161            6 
 2799000   0.81267589   -7.4967952    759.58241  0.022614696  0.022510947            2 
 2800000   0.78464313   -7.4815862    760.68488  0.022639431  0.022504733            5 
 2801000   0.80988884    -7.495316      760.629  0.022629686  0.022498518            5 
 2802000   0.79248834   -7.5182367    760.75555  0.022625373  0.022492294            4 
 2803000   0.81773738   -7.5078364    759.47138  0.022579123  0.022486101            6 
 2804000    0.7977466   -7.5078092    760.96459  0.022615448  0.022479889            4 
 2805000   0.81815737   -7.4911746    761.06247  0.022610293  0.022473693            3 
 2806000   0.80157882   -7.4537603    762.31711  0.022639496  0.022467522            2 
 2807000    0.8046165   -7.4768163    761.84692  0.022617472  0.022461374            3 
 2808000   0.80637525   -7.5070373    761.87205  0.022610163  0.022455187            3 
 2809000   0.79843949   -7.4817878    762.53219  0.022621698     0.022449            2 
 2810000   0.81718262   -7.5244821    761.30327  0.022577203  0.022442812            2 
 2811000   0.80902733    -7.481556     763.3981  0.022631273  0.022436639            3 
 2812000   0.81282299   -7.4897981    762.89828  0.022608413  0.022430468            3 
 2813000   0.77357374   -7.4829674    763.53199  0.022619149  0.022424294            3 
 2814000   0.78801314   -7.5006314    763.47594  0.022609451   0.02241817            5 
 2815000    0.8141738   -7.4551609    762.93275  0.022585339  0.022412023            2 
 2816000   0.79204101   -7.4765205    765.16172   0.02264328  0.022405886            3 
 2817000   0.81192104   -7.5054298    761.75259  0.022534392  0.022399783            7 
 2818000   0.80536749    -7.478885    764.18406  0.022598298  0.022393645            4 
 2819000    0.8134842    -7.534249    764.16192  0.022589627  0.022387502            5 
 2820000   0.81426019   -7.5123272    762.91362  0.022544729  0.022381354            6 
 2821000   0.79600529   -7.5092959    762.80656  0.022533574  0.022375186            4 
 2822000   0.77768736    -7.504218    763.04644  0.022532673  0.022369036            3 
 2823000   0.80321731   -7.4995157    764.71421  0.022573923  0.022362894            4 
 2824000   0.79662058   -7.4922769    763.10119  0.022518331  0.022356762            3 
 2825000   0.80401983    -7.513283    761.68274  0.022468517  0.022350568            2 
 2826000   0.80313196   -7.4957414     762.3766  0.022481027  0.022344349            3 
 2827000   0.80699052   -7.5256359    760.90526  0.022429704  0.022338139            4 
 2828000   0.78192759   -7.4816432    762.57646  0.022471018  0.022331881            7 
 2829000   0.79179061    -7.520824    761.40541  0.022428579  0.022325646            2 
 2830000   0.81012751   -7.5029031    762.91368  0.022465067  0.022319442           10 
 2831000   0.78708659   -7.4950375    762.57194  0.022447072  0.022313264            3 
 2832000   0.80857686   -7.5067331    762.10784   0.02242549  0.022307123            4 
 2833000   0.79344424   -7.5187595    762.28797  0.022422872  0.022300917            3 
 2834000   0.78092116   -7.5102762    761.71981  0.022398254  0.022294707            2 
 2835000   0.80317754   -7.5140669     763.4751  0.022441949  0.022288495            7 
 2836000    0.7907083   -7.5324134    761.93356  0.022388739   0.02228229            7 
 2837000   0.78022109   -7.4999924    760.96016  0.022352255  0.022276083            2 
 2838000   0.80813158   -7.4965161    763.85549  0.022429395  0.022269899            3 
 2839000   0.80690475   -7.5250881    762.58122  0.022384091  0.022263688            2 
 2840000   0.78501969   -7.5098231    761.55304   0.02234604  0.022257462            4 
 2841000   0.80233709   -7.5113129    763.86381  0.022405955  0.022251261            3 
 2842000   0.79985132   -7.5242365    763.76501  0.022395174  0.022245051            5 
 2843000   0.79013906    -7.517887    763.49926  0.022379507  0.022238867            2 
 2844000   0.78594859   -7.4864529    763.75926  0.022379256  0.022232684            4 
 2845000   0.78042234   -7.5000196    763.49089  0.022363529  0.022226518            7 
 2846000   0.78849363   -7.5222435    763.85092  0.022366213  0.022220298            3 
 2847000   0.80846525   -7.5399583    764.00663  0.022362915   0.02221405            5 
 2848000   0.79448912   -7.5022825     763.7386   0.02234722  0.022207818            3 
 2849000   0.77105259   -7.5166984    762.38724  0.022299849  0.022201575            2 
 2850000   0.79049758   -7.5100312    762.12747  0.022284429  0.022195365            6 
 2851000   0.78918287   -7.5109778    763.22412  0.022308667  0.022189139            5 
 2852000   0.78390939   -7.5088306    763.85557  0.022319296  0.022182951            6 
 2853000   0.80643175   -7.5091159    763.66545  0.022305919  0.022176736            2 
 2854000   0.79331406   -7.5311691    764.81501  0.022331669  0.022170513            3 
 2855000    0.8058921   -7.5261374    764.51298  0.022315031  0.022164296            2 
 2856000   0.80393206   -7.5388486    762.73719  0.022255403  0.022158067            3 
 2857000   0.81298518   -7.4957911    764.58582  0.022301535  0.022151816            5 
 2858000   0.80250128   -7.4923139     761.9747  0.022217597  0.022145568            5 
 2859000   0.80500831    -7.498109    763.36521  0.022250356  0.022139329            4 
 2860000   0.79980127    -7.482981     764.8717  0.022286471    0.0221331            3 
 2861000   0.80977046   -7.5185704     764.3266  0.022262804  0.022126869            4 
 2862000   0.79514717   -7.5254129    763.68545  0.022236357  0.022120604            2 
 2863000    0.7978276   -7.5189359     764.4801   0.02225172  0.022114348            7 
 2864000   0.78884351   -7.5207213    764.80912  0.022253524  0.022108086            3 
 2865000   0.77498224   -7.5462249     762.7315  0.022185326  0.022101816           10 
 2866000   0.77527573   -7.5194091    764.59733  0.022231837  0.022095544            6 
 2867000   0.78964971    -7.506805    764.14149  0.022210833  0.022089293            3 
 2868000   0.78753419   -7.5201234    764.74896  0.022220739  0.022083056            3 
 2869000   0.80866173   -7.5063318    765.40163  0.022231951  0.022076841            5 
 2870000   0.80605525    -7.514157    764.18058  0.022188751  0.022070641            6 
 2871000   0.79768982   -7.5099036    765.93897  0.022232061  0.022064411            7 
 2872000   0.80389181   -7.5058058    764.83608  0.022192319  0.022058211            3 
 2873000    0.7860894   -7.5006211    766.82964  0.022242419   0.02205203            3 
 2874000   0.79213072   -7.4962505    765.05717  0.022183286   0.02204585            2 
 2875000   0.79415779   -7.5093385    764.97888  0.022173301  0.022039632            5 
 2876000   0.79531073   -7.5487328    767.49127  0.022238389  0.022033396            3 
 2877000   0.78512463   -7.5254875    765.44701  0.022171446   0.02202721            7 
 2878000   0.79681828   -7.5097763    764.73752  0.022143199  0.022021016            2 
 2879000   0.80657418   -7.5216248    764.43123  0.022126642  0.022014795            3 
 2880000   0.79413926   -7.5349441     765.9522  0.022162969  0.022008593            3 
 2881000   0.79459402   -7.4989434    765.55164   0.02214369  0.022002383            3 
 2882000   0.79426205   -7.5219715    766.16801  0.022153829  0.021996197            3 
 2883000   0.78654684   -7.5357588     764.7082  0.022103948  0.021989976            3 
 2884000   0.78767472   -7.5199137    765.98548  0.022133191  0.021983739            4 
 2885000   0.78451322   -7.5555903    765.51146  0.022111827  0.021977495            5 
 2886000   0.78202837   -7.5038151    766.64826  0.022136991  0.021971261            2 
 2887000   0.79471501   -7.5198254    766.13392  0.022114476  0.021965045            3 
 2888000   0.78867511   -7.5058205    767.46348  0.022145184  0.021958816            5 
 2889000    0.7860706    -7.540813    763.26994  0.022016555  0.021952574            4 
 2890000   0.78458608   -7.5542069     764.6341  0.022048273  0.021946333            4 
 2891000   0.79605282   -7.5449391     764.5271  0.022037562   0.02194011            5 
 2892000   0.79379223   -7.5064535    766.37264  0.022083121  0.021933903            3 
 2893000   0.79324105   -7.5672374    765.08752   0.02203847  0.021927696            6 
 2894000   0.78177685    -7.535286    766.56575  0.022073421  0.021921455            1 
 2895000   0.78076749   -7.5098578    767.05215  0.022079797  0.021915236            4 
 2896000   0.77316993   -7.5392717    766.39194  0.022053175  0.021909056            6 
 2897000   0.80801866   -7.5215607    767.32717  0.022072465  0.021902869            2 
 2898000   0.77419553   -7.5361297      766.523  0.022041724  0.021896719            3 
 2899000   0.80850627   -7.5291941    765.85204  0.022014834  0.021890542            2 
 2900000   0.78103111   -7.5126907    766.52383  0.022026547  0.021884335            3 
 2901000   0.77289458   -7.5120466     766.9292  0.022030599  0.021878152            3 
 2902000   0.78703427   -7.5248517    765.69997  0.021987709  0.021871949            4 
 2903000     0.783468   -7.5377145    766.86764  0.022013654  0.021865752            3 
 2904000   0.77692133   -7.5451952     768.1179  0.022041951  0.021859538            5 
 2905000   0.78446675   -7.5029207    768.22206  0.022037351  0.021853371            8 
 2906000   0.78000572   -7.5412099    766.98998  0.021994436  0.021847193            5 
 2907000   0.79075695   -7.5665911    766.57497  0.021974973  0.021841003            2 
 2908000   0.78277545   -7.5456869     765.9056  0.021948235  0.021834793            3 
 2909000   0.80174949    -7.554099     767.0919  0.021974673  0.021828607            4 
 2910000   0.79762049   -7.5425971    767.45475  0.021977513  0.021822399            5 
 2911000   0.78977794   -7.5155784    767.98025  0.021985007  0.021816219            4 
 2912000   0.77920314    -7.525559    767.38837  0.021960519  0.021810054            4 
 2913000    0.7720767   -7.5089898    769.62694   0.02201702  0.021803922            4 
 2914000   0.78236648   -7.5194079    767.58296  0.021951011  0.021797765            2 
 2915000    0.7803877    -7.536382    769.06574   0.02198587  0.021791593            3 
 2916000   0.78900951   -7.5532728    767.66495  0.021938299  0.021785415            3 
 2917000   0.80713149   -7.5384853    767.54725  0.021927415  0.021779234            5 
 2918000   0.79424058   -7.5421106    767.56713  0.021920469  0.021773043            3 
 2919000   0.78299668   -7.5258286    767.42182  0.021908811  0.021766873            6 
 2920000   0.79784524   -7.5663249    766.77057  0.021882722  0.021760707            9 
 2921000    0.7855111   -7.5167078      767.644  0.021900148  0.021754499            4 
 2922000   0.77728643   -7.5403275    766.42187  0.021857799  0.021748347            6 
 2923000   0.78332739   -7.5179519    768.02679  0.021896077  0.021742187            4 
 2924000   0.78501958   -7.5513534    767.34799  0.021869243  0.021736009            4 
 2925000   0.78544917    -7.549885    765.46362   0.02180808  0.021729806            4 
 2926000   0.79174013   -7.5581247    767.25779  0.021851726  0.021723591            4 
 2927000   0.78351165   -7.5404007    768.14313  0.021869466   0.02171739            9 
 2928000   0.77774741   -7.5194012    767.48428  0.021843246  0.021711184            5 
 2929000   0.77375751   -7.4969551    769.29204  0.021887221  0.021705045            4 
 2930000    0.7786927   -7.5141478    768.73107  0.021863796  0.021698901            1 
 2931000   0.78025591   -7.5414335    769.37428  0.021874624  0.021692746            3 
 2932000   0.78040355   -7.5325101    768.59993  0.021845155  0.021686535           11 
 2933000    0.7772624   -7.5188513     768.7016  0.021840596  0.021680321            4 
 2934000    0.7899668   -7.5552917    768.03045  0.021814089  0.021674102            3 
 2935000   0.77014012   -7.5586275    768.58236  0.021822327  0.021667884            2 
 2936000   0.77012831   -7.5447245    766.39414  0.021752785  0.021661654            3 
 2937000   0.77337876   -7.5561276    768.44039  0.021803439  0.021655418            4 
 2938000   0.76747922   -7.5704607    766.76401  0.021748469   0.02164917            3 
 2939000   0.77977775   -7.5520388    766.92816  0.021745723   0.02164293            5 
 2940000   0.77030297   -7.5405118    769.06034  0.021798762  0.021636697            9 
 2941000   0.77037719   -7.5488212    768.72074  0.021781728  0.021630462            3 
 2942000   0.76450183   -7.5560708    768.06781   0.02175583  0.021624244            3 
 2943000   0.77842322   -7.5186373    768.16907  0.021751305  0.021618025            2 
 2944000   0.77298945   -7.5413466    768.18028  0.021744233  0.021611814            6 
 2945000   0.78664371   -7.5400698    767.26347  0.021710907  0.021605586            3 
 2946000   0.78182804   -7.5363091    768.19176  0.021729796  0.021599359            3 
 2947000   0.80379432   -7.5389835    769.71574  0.021765517  0.021593141            9 
 2948000   0.79202665    -7.539288     767.3104   0.02169014  0.021586919            3 
 2949000   0.77093231   -7.5469476    768.32098  0.021711342  0.021580649            4 
 2950000   0.78262841   -7.5519238    767.58956  0.021683321  0.021574406            3 
 2951000   0.78034476   -7.5388345    767.32218  0.021668423  0.021568153            4 
 2952000   0.77961882   -7.5351031    767.95383  0.021678913  0.021561929            3 
 2953000   0.79759379   -7.5386969    768.02754  0.021673652   0.02155573            4 
 2954000   0.78495955   -7.5399397    767.42945  0.021649443  0.021549482            5 
 2955000   0.76371236   -7.5267537    768.69522  0.021677812  0.021543243            6 
 2956000   0.77172519   -7.5492242    767.67472   0.02164171  0.021536989            6 
 2957000   0.78849788   -7.5303723    768.18214  0.021648691  0.021530725            8 
 2958000   0.78494384   -7.5667075    767.58717   0.02162461  0.021524463            4 
 2959000   0.76839851   -7.5439628    768.95714  0.021655884  0.021518177            4 
 2960000   0.76658783   -7.5473507    768.02554  0.021622341  0.021511906            2 
 2961000   0.77677622   -7.5807314     766.0589   0.02155969   0.02150559            4 
 2962000   0.77915819   -7.5684432    765.26105  0.021529964  0.021499259            3 
 2963000   0.77119541   -7.5622444    766.94449  0.021570044  0.021492919            7 
 2964000   0.77841895   -7.5540485    765.50783  0.021522375  0.021486617            3 
 2965000    0.7642397   -7.5342452    766.60467  0.021545944  0.021480316            2 
 2966000   0.80396444   -7.5785962     767.7872  0.021571904  0.021474005            1 
 2967000   0.78164911   -7.5818814    767.65234  0.021560845  0.021467718            3 
 2968000   0.78005443   -7.5748141    768.80856  0.021586044  0.021461416            4 
 2969000    0.7695365   -7.5621944     766.9173  0.021525691  0.021455079            4 
 2970000   0.78369977   -7.5397484    767.61198  0.021537934  0.021448756            3 
 2971000    0.7776252   -7.5415254    767.86307  0.021537728  0.021442463           13 
 2972000   0.76945561   -7.5349236    768.85151  0.021558196  0.021436175            2 
 2973000   0.76698268   -7.5393518     768.7415  0.021547861  0.021429912            5 
 2974000   0.76646404   -7.5481496    768.58746    0.0215363  0.021423655            4 
 2975000   0.77718518   -7.5286413    767.79775   0.02150694  0.021417398            6 
 2976000    0.7660204   -7.5428871    766.93993  0.021475692  0.021411133            4 
 2977000   0.77713827   -7.5543414    767.36439   0.02148036  0.021404862            4 
 2978000   0.76089363   -7.5367138    768.56237   0.02150667  0.021398538            7 
 2979000    0.7675246   -7.5475383    769.24345  0.021518503  0.021392254            3 
 2980000   0.77009278   -7.5232594    767.07794  0.021450725  0.021385982            2 
 2981000   0.78044536   -7.5478053    766.48736   0.02142702  0.021379726            4 
 2982000   0.77218574   -7.5445513    768.38326  0.021472816  0.021373457            8 
 2983000   0.76825325     -7.55775    767.60022  0.021443743  0.021367178            7 
 2984000   0.77981303   -7.5331381    769.42368   0.02148748  0.021360898            3 
 2985000   0.78745787    -7.551197    767.88742  0.021437393  0.021354605            3 
 2986000   0.77840557   -7.5423633    767.26668   0.02141289  0.021348307            3 
 2987000    0.7725904   -7.5329719    768.86827  0.021450404  0.021342012            3 
 2988000    0.7759121    -7.557109     768.1959  0.021424473  0.021335724            7 
 2989000   0.77799049   -7.5449045    769.21608  0.021445748  0.021329422            3 
 2990000   0.77478575   -7.5323106    769.60558  0.021449431    0.0213231            3 
 2991000   0.77100681   -7.5711693     767.4343  0.021381765  0.021316794            3 
 2992000   0.75599815    -7.545774    768.04257   0.02139156  0.021310491            3 
 2993000    0.7770838   -7.5844703    769.07667  0.021413205  0.021304199            2 
 2994000   0.76677529   -7.5514718    768.25112  0.021383075  0.021297909            3 
 2995000   0.76372649   -7.5748746    769.51012  0.021410966  0.021291615            5 
 2996000   0.75989799   -7.5822731    768.77775  0.021383449  0.021285281            5 
 2997000   0.77846833   -7.5549733    768.65269  0.021372837   0.02127898            3 
 2998000   0.77630613   -7.5760721     767.2785   0.02132751   0.02127267            4 
 2999000   0.77161046    -7.538929    766.71569   0.02130476  0.021266374            4 
 3000000   0.78138146   -7.5764741    768.18028  0.021338341  0.021260088            2 
 3001000   0.79427339   -7.5875408    766.51061  0.021284866  0.021253797            4 
 3002000   0.76715554   -7.5785597    768.00391  0.021319229  0.021247493            5 
 3003000   0.78351903   -7.5617305    770.62272  0.021384802  0.021241215            4 
 3004000   0.75234381     -7.52894    772.37471  0.021426285  0.021234964            3 
 3005000   0.75760258   -7.5961759     768.5414  0.021312851  0.021228702            5 
 3006000   0.77504765   -7.5764125    768.55153  0.021306042  0.021222454            3 
 3007000   0.76382341   -7.5409719    771.13285  0.021370492  0.021216225            1 
 3008000   0.78057511   -7.5743357    770.65616  0.021350182  0.021209998            2 
 3009000    0.7618672   -7.5531046    769.76129  0.021318303  0.021203752            1 
 3010000   0.75892393   -7.5850004    769.50562  0.021304142  0.021197477            3 
 3011000   0.77863053   -7.5828682    769.94432  0.021309209  0.021191194            3 
 3012000   0.76248403   -7.5582902    770.09769  0.021306377  0.021184951            4 
 3013000   0.76573442   -7.5692674    768.98026    0.0212684  0.021178711            2 
 3014000   0.75563779   -7.5708413    771.26514  0.021324517  0.021172471            5 
 3015000   0.77147603    -7.582506    769.68352  0.021273729  0.021166236            2 
 3016000   0.77254358   -7.5777071    770.31529  0.021284131  0.021159976            3 
 3017000   0.76632051   -7.5471267    771.19841   0.02130147  0.021153749            8 
 3018000   0.76137953   -7.5776117    769.84986  0.021257175  0.021147505            5 
 3019000   0.76434604   -7.5775614     768.7902  0.021220885  0.021141255            4 
 3020000   0.76817297   -7.5461038    770.41042  0.021258566  0.021134971            5 
 3021000   0.75735331   -7.5736094    769.95252  0.021238898  0.021128687            6 
 3022000   0.77383526   -7.5570162    769.42857  0.021217421  0.021122422            4 
 3023000   0.77744827   -7.5798242    769.08065  0.021200812  0.021116154            7 
 3024000   0.78557801   -7.5691149    768.48539  0.021177397  0.021109867            3 
 3025000   0.77071801   -7.5686961    768.61433  0.021173949  0.021103565            4 
 3026000   0.76466102     -7.55486    770.46366   0.02121788  0.021097274            3 
 3027000   0.75752163    -7.579143    767.87248  0.021139535  0.021090959            6 
 3028000   0.77004799   -7.5643428    769.46967   0.02117651  0.021084648            3 
 3029000   0.76302023   -7.5782077    771.06175   0.02121332  0.021078356            3 
 3030000   0.81464168   -7.5944331    771.15815   0.02120897  0.021072069            5 
 3031000   0.77554664   -7.6053529    769.39037   0.02115337  0.021065786            4 
 3032000   0.75191967   -7.5709817    770.54372  0.021178093  0.021059506            4 
 3033000   0.76480118   -7.5869848    771.33677    0.0211929  0.021053236            8 
 3034000   0.77625402   -7.5991783     771.1161  0.021179853  0.021046979            7 
 3035000   0.77337952   -7.5852933    771.40717  0.021180867   0.02104072            3 
 3036000   0.78057108   -7.6203681    770.84378  0.021158426  0.021034462            4 
 3037000    0.7589116    -7.562248    771.03572  0.021156726  0.021028192            7 
 3038000   0.73797295   -7.5810213    771.17222  0.021153506  0.021021904            5 
 3039000   0.77098016   -7.5792143    770.22643  0.021120611  0.021015602            3 
 3040000   0.76571066   -7.5846474    770.32711  0.021116423  0.021009324            3 
 3041000   0.76169855   -7.5729838    770.73926  0.021120773  0.021003059            6 
 3042000   0.76509341   -7.5975851    771.27914   0.02112862  0.020996805            3 
 3043000    0.7649216   -7.5658673    771.93733  0.021139701  0.020990588            4 
 3044000   0.75172443   -7.5864926    771.87007  0.021130915  0.020984361            4 
 3045000   0.75544265   -7.5525059    771.25051   0.02110702  0.020978128            3 
 3046000    0.7718473    -7.583636    769.59467   0.02105479  0.020971878            4 
 3047000   0.74828818   -7.5910598    771.35865  0.021096123  0.020965652            2 
 3048000   0.76341036   -7.5778669    770.05154  0.021053465  0.020959426            4 
 3049000   0.76972496   -7.6077682    769.29703  0.021025938  0.020953194            4 
 3050000   0.76111036   -7.6098143     769.5137  0.021024964  0.020946937            9 
 3051000   0.76597893   -7.5827954    771.43535   0.02107056  0.020940674            3 
 3052000   0.75266556   -7.5999663    771.28421  0.021059529  0.020934441            4 
 3053000   0.77015358    -7.578886    773.03562  0.021100437  0.020928218           11 
 3054000   0.78541437   -7.5999514    771.86765  0.021061658  0.020922012            5 
 3055000   0.78686689   -7.5616513      771.987   0.02105802  0.020915818            2 
 3056000   0.76423825   -7.5977161    770.37286  0.021007113  0.020909614            3 
 3057000   0.75487062   -7.6056406    772.38333  0.021055047  0.020903388            5 
 3058000   0.74957894   -7.5789572     772.5197  0.021051878  0.020897157            4 
 3059000   0.77569844   -7.6201752    771.36341  0.021013496  0.020890918            2 
 3060000   0.75349017   -7.5960695    770.94424  0.020995214  0.020884663            6 
 3061000   0.77908482   -7.6113959    772.59217  0.021033218  0.020878444            2 
 3062000   0.74178585   -7.6137106    771.34351  0.020992366  0.020872227            3 
 3063000   0.73735673   -7.5804967    772.54972   0.02101833  0.020866028            2 
 3064000    0.7611874   -7.6030967    772.35367  0.021006138   0.02085985            5 
 3065000   0.76531965   -7.5938403    771.12362  0.020965841  0.020853664            4 
 3066000   0.75483107   -7.6049344    773.08315  0.021012262  0.020847487            2 
 3067000   0.74805821   -7.5797261    773.10535  0.021006014  0.020841298            3 
 3068000   0.75254136   -7.5651083    774.44237  0.021035484  0.020835132            4 
 3069000   0.75593552   -7.5786743    772.15913  0.020966632  0.020828942            4 
 3070000   0.77229363   -7.6019975    770.51144  0.020915077  0.020822754            5 
 3071000   0.76177374   -7.5990879    773.17367  0.020980508  0.020816537            4 
 3072000   0.77731287   -7.6124033    772.43199  0.020953559  0.020810321            6 
 3073000   0.75422463   -7.5881821    771.35767  0.020917607  0.020804099            3 
 3074000   0.74892344    -7.600312    772.17356   0.02093292  0.020797918            3 
 3075000   0.75855049   -7.5958914    774.11159  0.020978634  0.020791751            4 
 3076000   0.76550495   -7.6089575     773.3351  0.020950777  0.020785571            5 
 3077000   0.75936164   -7.5952144    772.84152  0.020930601  0.020779393            6 
 3078000   0.76290493   -7.5764159    773.76597   0.02094883  0.020773223            6 
 3079000   0.76600001   -7.5796452    773.92732  0.020946393  0.020767047            3 
 3080000   0.75409272   -7.6013841    774.35292  0.020951107  0.020760882            7 
 3081000   0.76469929   -7.5725692    775.21241  0.020967554  0.020754718            5 
 3082000   0.74533059   -7.5887287    772.26188  0.020880972  0.020748553            6 
 3083000   0.76716488   -7.5930821    771.99868  0.020867085  0.020742358            4 
 3084000   0.76466886   -7.6130846    772.36031   0.02087009   0.02073617            7 
 3085000   0.74224265    -7.586212    770.47911   0.02081251  0.020729965            3 
 3086000   0.76652917   -7.6194409    773.16054  0.020878174  0.020723749            3 
 3087000   0.76408466   -7.6068677    772.09741  0.020842712  0.020717561            2 
 3088000   0.76193737   -7.6099561     772.5766  0.020848894  0.020711367            3 
 3089000   0.76193826   -7.6090901    772.25409  0.020833444   0.02070514            8 
 3090000   0.75758191   -7.6022041    771.72268   0.02081237  0.020698912            2 
 3091000   0.76376194   -7.6219253    773.88639   0.02086397  0.020692715            2 
 3092000   0.76651796   -7.5866287    773.22982  0.020839527  0.020686548            7 
 3093000   0.75698022    -7.613286    773.01382   0.02082697  0.020680373            4 
 3094000   0.76104111   -7.6171992    772.71479  0.020812185  0.020674179            1 
 3095000   0.76283656   -7.5760106    773.60949   0.02082955  0.020668017            3 
 3096000   0.75860058   -7.5932854    772.49119  0.020792722  0.020661881            3 
 3097000   0.73823235   -7.5612273    775.14214  0.020857339  0.020655765            5 
 3098000   0.76247971   -7.5977842    773.15862  0.020797251  0.020649647            2 
 3099000   0.75484207   -7.6226017    772.91966  0.020784115  0.020643493            5 
 3100000   0.76024594   -7.6118947    775.00461  0.020833457  0.020637333            5 
 3101000   0.75335219   -7.5932144    775.88259  0.020850333  0.020631225            7 
 3102000   0.73616287   -7.5775683    774.34106  0.020802199  0.020625114            4 
 3103000   0.75222866   -7.5966074    773.02941   0.02076027  0.020619011            4 
 3104000   0.75875087   -7.5933723    775.17911  0.020811295  0.020612915            4 
 3105000   0.74633885   -7.5906261    775.32054  0.020808388  0.020606806            5 
 3106000   0.76481473   -7.6054848    774.61241   0.02078269  0.020600676            3 
 3107000   0.73868724   -7.6288002    773.92293  0.020757508  0.020594556            5 
 3108000   0.76235593   -7.5930095    776.14047  0.020810287  0.020588431            2 
 3109000   0.75673159   -7.5990054    775.53638  0.020787402  0.020582336            3 
 3110000   0.75852532   -7.6042215    773.95726  0.020738404  0.020576253            3 
 3111000   0.76591454    -7.618385    775.03503  0.020760608  0.020570158            6 
 3112000   0.74023842   -7.6189419    776.19618   0.02078503  0.020564075           15 
 3113000   0.76438321    -7.580449    775.38239  0.020756569  0.020557997            2 
 3114000   0.76074521    -7.596774    772.78869  0.020680494  0.020551904            4 
 3115000   0.75339756   -7.6147534    774.73749   0.02072599  0.020545817            7 
 3116000   0.72711686     -7.61528     775.6846  0.020744667  0.020539716            4 
 3117000   0.76858245   -7.6348821    775.42191  0.020730989  0.020533613            6 
 3118000   0.75216508    -7.608331    775.80892  0.020734684  0.020527538            4 
 3119000    0.7407115    -7.612124    774.83832  0.020702103  0.020521455            5 
 3120000    0.7470689   -7.6128308    775.65595  0.020717306  0.020515374            4 
 3121000   0.76631324   -7.5917373    776.01653  0.020720296  0.020509326            2 
 3122000   0.74654149   -7.5945236    777.32592   0.02074861  0.020503286            3 
 3123000   0.76470567   -7.6097159    775.79369   0.02070108  0.020497284            5 
 3124000    0.7628334   -7.6028104    776.09006   0.02070236  0.020491267            4 
 3125000   0.74921142   -7.6059811    774.27064  0.020647217  0.020485207            6 
 3126000   0.76475029   -7.6432719    775.50826  0.020673605  0.020479158            3 
 3127000   0.74521927   -7.5790191    775.42596    0.0206648   0.02047308            4 
 3128000   0.75836747   -7.5952973    777.17679  0.020704838  0.020467062            6 
 3129000   0.76463128   -7.5966156    777.32055  0.020702049  0.020461032            2 
 3130000   0.75585201   -7.6101381    777.62057  0.020703423  0.020454997           11 
 3131000   0.72959904   -7.6093399    776.73037  0.020673117  0.020448946            5 
 3132000   0.75472779   -7.6534046    774.84012  0.020616223  0.020442876            4 
 3133000   0.75181736   -7.5917385    775.66083  0.020631472  0.020436805            4 
 3134000    0.7661685   -7.5808087    777.17277  0.020665092  0.020430769            5 
 3135000   0.75989787   -7.6432521    774.90258  0.020598155  0.020424724            9 
 3136000   0.74896143    -7.612911     775.0839  0.020596405  0.020418659            7 
 3137000   0.74645389   -7.6141763    776.50263  0.020627527  0.020412599            3 
 3138000   0.77403009   -7.6191928    775.77823  0.020601716  0.020406546            5 
 3139000   0.76144563   -7.6136076    775.30506  0.020582592  0.020400475            4 
 3140000    0.7499634   -7.6091822    774.63374   0.02055822  0.020394406            5 
 3141000   0.74369085   -7.6423503    777.57594  0.020629734  0.020388362            7 
 3142000    0.7491823   -7.6247549    777.35359  0.020617271  0.020382305            5 
 3143000   0.75357192   -7.6177496    775.38637  0.020558553   0.02037626            7 
 3144000   0.75889333   -7.6127568    777.74281  0.020614472  0.020370205            3 
 3145000   0.74976023   -7.5914851    776.02694  0.020562452  0.020364161            6 
 3146000    0.7344884   -7.6187856    777.26399  0.020588684  0.020358136            5 
 3147000   0.74633435   -7.6184017    776.97133  0.020574392  0.020352085            5 
 3148000    0.7761787   -7.6073704    776.45441  0.020554172  0.020346031            3 
 3149000   0.74480044   -7.6330727    777.70872  0.020580838  0.020339994            6 
 3150000   0.74241877   -7.6064176    777.44315  0.020567279  0.020333943            9 
 3151000   0.75989005   -7.5931401    778.08137  0.020577631  0.020327908            4 
 3152000   0.76106065   -7.6398051     776.8759  0.020539232  0.020321877            5 
 3153000   0.74612765   -7.6157152    778.26903  0.020569538  0.020315856            4 
 3154000   0.73718221   -7.6368335    778.31649   0.02056427    0.0203098            4 
 3155000   0.73723876   -7.6471471    775.16691  0.020474562  0.020303761            5 
 3156000   0.74855943   -7.6188878    776.13925  0.020493749  0.020297706            9 
 3157000   0.76408006   -7.6218015    775.90544  0.020481085  0.020291649            6 
 3158000   0.73329785   -7.6459232    776.64808  0.020494197  0.020285616            5 
 3159000   0.75184717   -7.6163507    778.41156  0.020534229  0.020279585            9 
 3160000   0.74465173   -7.6342099    776.80846  0.020485455  0.020273564            5 
 3161000    0.7447115   -7.6126666    776.65337  0.020474886  0.020267529            2 
 3162000   0.73300829   -7.6082531    776.85385  0.020473694  0.020261489            3 
 3163000   0.73968567   -7.6755109    776.20665   0.02045017  0.020255447            3 
 3164000    0.7539552     -7.62166    778.40609  0.020501635  0.020249422            5 
 3165000   0.74986335   -7.5973872    778.98595  0.020510425  0.020243417            4 
 3166000   0.74018167   -7.6421927    778.20065  0.020483277    0.0202374            5 
 3167000   0.75472998   -7.6330664    777.60481  0.020461131  0.020231361            6 
 3168000   0.73724332   -7.5802848    778.63487  0.020481767  0.020225351           11 
 3169000   0.74962955   -7.6270901    777.45999  0.020444409  0.020219361            3 
 3170000   0.74920066   -7.6008672    780.21296   0.02051033  0.020213356            4 
 3171000   0.74159398   -7.6166919    778.43498  0.020457137  0.020207355            2 
 3172000   0.74236941   -7.6619609    777.04011  0.020414042  0.020201351            3 
 3173000   0.74878088   -7.6476556    777.58021  0.020421793  0.020195303            4 
 3174000   0.74066735   -7.6406954    777.56309   0.02041491   0.02018925            9 
 3175000   0.74254163   -7.6370446    776.20625  0.020372867  0.020183217            3 
 3176000   0.73428733   -7.6607204    779.95644  0.020464852  0.020177217            6 
 3177000   0.74479772   -7.6499533    777.67167   0.02039848  0.020171206            4 
 3178000   0.74612068   -7.6358441    778.85969  0.020423214  0.020165199            4 
 3179000   0.72382942   -7.6552292    777.26903  0.020375093  0.020159187            4 
 3180000   0.76591049   -7.6605285    777.36371  0.020371166  0.020153164            5 
 3181000   0.74734053   -7.6463318    777.68509  0.020373182  0.020147153            3 
 3182000   0.74420054   -7.6414665    778.57678  0.020390131  0.020141164            3 
 3183000   0.74958505   -7.6164405    779.32234  0.020403245  0.020135149            4 
 3184000   0.74018025   -7.6073142    778.61169  0.020378237  0.020129141            3 
 3185000   0.73981541   -7.6319238    777.03977  0.020330711  0.020123116            9 
 3186000   0.75379861   -7.6538125    778.23667  0.020355636  0.020117108            9 
 3187000   0.74055223    -7.617944    778.08443  0.020345268  0.020111108            3 
 3188000   0.74791231   -7.6543108    776.51492   0.02029786   0.02010511            9 
 3189000   0.73403902   -7.6364966     779.5388  0.020370513  0.020099122            3 
 3190000   0.73647385   -7.6395344    779.29123   0.02035766  0.020093142            9 
 3191000   0.75910452   -7.6316195    777.40983  0.020302148  0.020087153            3 
 3192000   0.75666995   -7.6207219    779.22254  0.020343111  0.020081163            7 
 3193000   0.73269402   -7.6202157    776.04554  0.020253825   0.02007516            5 
 3194000   0.74679727   -7.6439909     777.5754  0.020287398  0.020069142            4 
 3195000   0.74178528    -7.673333    778.87394  0.020314917  0.020063111            4 
 3196000   0.73212357   -7.6230433    779.54488  0.020326055  0.020057086            7 
 3197000   0.74457917   -7.6619838    778.06752  0.020281189  0.020051054            5 
 3198000   0.74225258    -7.648234    776.21931  0.020226686  0.020045013            4 
 3199000   0.73206943    -7.647202    778.52405  0.020280401  0.020038966            7 
 3200000   0.74291194   -7.6343892    777.74431  0.020253758  0.020032945            5 
 3201000   0.74044281   -7.6267784    778.42916   0.02026526  0.020026916            5 
 3202000   0.74681125   -7.6450071    777.97466  0.020247102  0.020020904            3 
 3203000    0.7319622   -7.6233139      779.299  0.020275237  0.020014895            3 
 3204000    0.7443476   -7.6468887    778.26864   0.02024211  0.020008892            3 
 3205000   0.73682321   -7.6358058    778.46943  0.020241015   0.02000288            4 
 3206000   0.73282475    -7.636026    778.33231  0.020231137  0.019996873            5 
 3207000   0.74342822    -7.623448    778.63517  0.020232699  0.019990878            6 
 3208000   0.73517009   -7.6424531    777.95776  0.020208795  0.019984884            5 
 3209000   0.73860374   -7.6399982    778.64536  0.020220353  0.019978884            4 
 3210000   0.74257689   -7.6363626    776.50738  0.020158551  0.019972878            5 
 3211000   0.73058857   -7.6331571    778.14079  0.020194664  0.019966853           10 
 3212000   0.74198362   -7.6559864    778.38325  0.020194667  0.019960864            3 
 3213000   0.73564148   -7.6455143    778.86204    0.0202008  0.019954859           16 
 3214000   0.74024321   -7.6464932    777.89324  0.020169395  0.019948868            6 
 3215000   0.73452484   -7.6569222    779.51281  0.020205101  0.019942846            4 
 3216000   0.75175478   -7.6444113    778.19641  0.020164708  0.019936861            4 
 3217000   0.73609755    -7.641865    777.19212  0.020132425  0.019930845            4 
 3218000    0.7382914   -7.6567753    777.87682  0.020143899  0.019924812            5 
 3219000   0.74189294   -7.6288636    776.76615  0.020108889  0.019918803            5 
 3220000   0.73936524   -7.6320147    777.93886  0.020132993  0.019912806            4 
 3221000   0.73950168   -7.6433775    780.02569  0.020180733  0.019906826            6 
 3222000   0.73875395   -7.6507222    780.40875  0.020184377  0.019900871            3 
 3223000   0.73653741   -7.6452042    779.49048  0.020154372    0.0198949            5 
 3224000   0.73026389   -7.6269142    779.98208  0.020160827  0.019888937            7 
 3225000   0.73053392   -7.6334947    779.46357  0.020141177   0.01988298            3 
 3226000   0.73126917   -7.6319156    779.93854  0.020147204  0.019877009           13 
 3227000   0.73015955   -7.6172202    779.00657  0.020116893  0.019871031            2 
 3228000   0.72760468   -7.6594257    777.87874  0.020081545  0.019865042            5 
 3229000   0.73832454   -7.6634115    779.30802  0.020112213  0.019859064            3 
 3230000   0.72922047   -7.6514253    779.40272  0.020108429  0.019853098            2 
 3231000   0.72445809   -7.6420106    780.63614  0.020134018  0.019847125            6 
 3232000   0.73014982   -7.6473083    781.03503  0.020138073  0.019841183            9 
 3233000   0.72389897   -7.6420692    779.44367  0.020090826  0.019835234            5 
 3234000   0.73376201   -7.6584914    781.70038  0.020142764  0.019829268            5 
 3235000    0.7236799   -7.6523871    780.19866  0.020097853  0.019823319            4 
 3236000   0.73342945   -7.6585309    779.06513  0.020062452  0.019817378            2 
 3237000   0.72689752   -7.6363865    778.73768  0.020047824   0.01981143            5 
 3238000   0.72118224   -7.6516933     781.1051  0.020102561  0.019805485            5 
 3239000   0.73020079   -7.6152796    780.71748  0.020086382   0.01979957            9 
 3240000   0.73702811   -7.6458541    779.10965  0.020038828  0.019793644            3 
 3241000   0.74718903   -7.6750745    780.75697  0.020075002  0.019787722            5 
 3242000    0.7121632   -7.6362149    781.16294  0.020079245  0.019781797            5 
 3243000   0.73800435   -7.6369718    781.26663  0.020075718  0.019775887            2 
 3244000   0.72969207   -7.6505289    781.01672  0.020063109  0.019769973            4 
 3245000    0.7352813   -7.6849176    779.47209   0.02001726  0.019764027            6 
 3246000   0.72200049   -7.6825954    779.17545  0.020003477  0.019758062            4 
 3247000   0.74093822    -7.661325    780.69523  0.020036321  0.019752116            5 
 3248000   0.74059951   -7.6582474    780.40666  0.020022749   0.01974615            5 
 3249000   0.74211778   -7.6737872    779.05179  0.019981835  0.019740167            8 
 3250000   0.72401334   -7.6742994    779.72476  0.019992943  0.019734197            7 
 3251000   0.75144418   -7.6639966    780.65873  0.020010733  0.019728229            4 
 3252000   0.72157783   -7.6685623    780.78184  0.020007735   0.01972229            6 
 3253000   0.71741848   -7.6575867    780.08509  0.019983735   0.01971633            6 
 3254000   0.74014714   -7.6838675    778.04909  0.019925453  0.019710363            3 
 3255000    0.7261655   -7.6811523      779.912  0.019967025  0.019704407            6 
 3256000    0.7428028   -7.6778494    779.04128  0.019938608  0.019698426            4 
 3257000   0.73721494   -7.6536414    780.66428  0.019974012  0.019692476            6 
 3258000   0.74538354   -7.6821529    779.79713  0.019945701  0.019686521            3 
 3259000    0.7385672   -7.6529121    780.04678  0.019945964  0.019680554           12 
 3260000   0.73533643   -7.6604672    779.67366  0.019930308  0.019674592            8 
 3261000    0.7356739    -7.652312    779.95927  0.019931495  0.019668635            4 
 3262000   0.72476717   -7.6705159     779.6592  0.019917719  0.019662696            3 
 3263000   0.72452048   -7.6626771    779.91573  0.019918166  0.019656759            4 
 3264000   0.72921751    -7.669004    780.36828  0.019923618   0.01965083            3 
 3265000   0.74501476   -7.6746436    780.91155  0.019931382  0.019644901            6 
 3266000   0.73059703   -7.6334701     781.7419  0.019946466   0.01963899            2 
 3267000   0.71594066    -7.632976    780.26969  0.019902808  0.019633072            4 
 3268000   0.73214348   -7.6555062    780.55787  0.019904067  0.019627143            4 
 3269000   0.73590481   -7.6625958    781.64031  0.019925571  0.019621248            4 
 3270000   0.72928028   -7.6408131    782.74555  0.019947644  0.019615345            9 
 3271000    0.7339679   -7.6526773     782.7394  0.019941389  0.019609433            4 
 3272000   0.74275242   -7.6781406    779.31174  0.019847997  0.019603521            3 
 3273000   0.72305852   -7.6575492    781.08191  0.019887002  0.019597615            5 
 3274000   0.71068298   -7.6749414    781.28233  0.019886029  0.019591696            3 
 3275000   0.73897155   -7.6629827    781.18961  0.019877598  0.019585766            4 
 3276000   0.71391908   -7.6557736     781.2816  0.019873871  0.019579855            8 
 3277000   0.74384442   -7.6820823    780.80291  0.019855633  0.019573937            4 
 3278000   0.73421556   -7.6914026    780.95582  0.019853463  0.019568004            3 
 3279000   0.71402021   -7.6546253    780.70767  0.019841102  0.019562081            4 
 3280000   0.71587064   -7.7027784     780.8705   0.01983919  0.019556155            4 
 3281000   0.74052351   -7.6532177    781.77118  0.019856019  0.019550225           11 
 3282000    0.7361519   -7.6670119    782.71206  0.019873859  0.019544328            6 
 3283000   0.71714468   -7.6750691    780.13842  0.019802478  0.019538407            4 
 3284000   0.72343866   -7.6718022    779.26651  0.019774323  0.019532495            4 
 3285000   0.73535034   -7.6652235    781.90957  0.019835352   0.01952656            6 
 3286000   0.71841149   -7.6817062    781.58102  0.019820983  0.019520638            4 
 3287000   0.74021478   -7.6679323    781.84303  0.019821596  0.019514739            7 
 3288000   0.71211964   -7.6729227    780.72375    0.0197872  0.019508844            3 
 3289000   0.73295981   -7.6580044     781.3313  0.019796577  0.019502934            4 
 3290000   0.73984643   -7.6906286    780.17457  0.019761261  0.019497013            4 
 3291000   0.72169336   -7.6911046    780.54921  0.019764743   0.01949108            5 
 3292000   0.73805519   -7.6906984    779.68433  0.019736845  0.019485138            7 
 3293000   0.75331831   -7.7057167    781.01264  0.019764466  0.019479222            5 
 3294000   0.72923549   -7.6713049    780.94345  0.019756716  0.019473314            4 
 3295000   0.71896824   -7.6444886    782.88593  0.019799846  0.019467446            9 
 3296000   0.71843093   -7.6518155    783.30238  0.019804368  0.019461587            3 
 3297000   0.71015691   -7.6502162    780.83136  0.019735905  0.019455748            4 
 3298000   0.71338041   -7.6661953    781.94095  0.019757958  0.019449911            4 
 3299000   0.71858678   -7.6616191     782.6368  0.019769546  0.019444057            3 
 3300000   0.71676825   -7.6441721    782.06844  0.019749203  0.019438191            6 
 3301000   0.71247383   -7.6671269    782.13027  0.019744781  0.019432323            7 
 3302000   0.72277034    -7.678147    780.95317  0.019709095  0.019426442            8 
 3303000   0.73305179    -7.698495    781.31511  0.019712259  0.019420554            7 
 3304000   0.71554458   -7.6976033    780.85118  0.019694592  0.019414669            4 
 3305000   0.74156868   -7.6637604    782.68632  0.019734905  0.019408803            4 
 3306000   0.73969042   -7.6804361    782.21506  0.019717056  0.019402912            6 
 3307000    0.7309316   -7.6788425    782.42616  0.019716414  0.019397039           11 
 3308000   0.71712664   -7.7042554    780.26769  0.019656078  0.019391146            3 
 3309000   0.71266812   -7.6787627    782.29521  0.019701199  0.019385261            4 
 3310000   0.72679882   -7.6844947    781.04931   0.01966388  0.019379367           13 
 3311000   0.72219722   -7.6712288     780.8653   0.01965331  0.019373472            4 
 3312000   0.73169076   -7.6930381    780.83866  0.019646705  0.019367591            5 
 3313000   0.70658457   -7.6897113    782.36473  0.019679161  0.019361702            4 
 3314000   0.71317202   -7.6994824    781.68711  0.019656184  0.019355795            4 
 3315000   0.71455047   -7.6817592    781.58432   0.01964767  0.019349905            3 
 3316000   0.69342573   -7.6814446    780.46263  0.019613556  0.019344009            7 
 3317000    0.7303659   -7.6893999    780.30691  0.019603731  0.019338109            7 
 3318000    0.7283981   -7.6851711    782.11516  0.019643238  0.019332206            7 
 3319000   0.73661687   -7.6928245    779.38263  0.019568711  0.019326298            6 
 3320000   0.73878522   -7.7245881    780.41914  0.019588834  0.019320395            3 
 3321000   0.72082849   -7.7230894    779.96454  0.019571528  0.019314499            3 
 3322000   0.71862197   -7.7148607    782.97898  0.019641255  0.019308592            3 
 3323000   0.71065919   -7.6900477     780.8915  0.019582995  0.019302708            5 
 3324000   0.73013188   -7.6984774    782.14423   0.01960851  0.019296825           17 
 3325000   0.70668568    -7.701774    780.65033  0.019565171  0.019290925            7 
 3326000   0.71165322   -7.6776067    782.12627  0.019596268  0.019285035            6 
 3327000   0.71516074   -7.6665326    781.95786   0.01958616  0.019279158            3 
 3328000   0.71796827   -7.7111199    781.54096  0.019569836  0.019273293            7 
 3329000   0.69871433   -7.7056849    780.51776  0.019538344  0.019267407            8 
 3330000   0.71944516   -7.6873934    783.09855  0.019597061  0.019261523            3 
 3331000   0.71637636   -7.7233434    781.20327  0.019543762  0.019255653            9 
 3332000    0.7229426   -7.6716202    781.24419   0.01953892   0.01924978            9 
 3333000   0.71832317   -7.6734503    783.04802  0.019578158  0.019243897            4 
 3334000    0.7292366   -7.6973727    782.27215  0.019552893  0.019238029            3 
 3335000   0.72104403    -7.689477    781.75986  0.019534229  0.019232153            4 
 3336000   0.72062817   -7.6858837    782.16249  0.019538432  0.019226288            6 
 3337000   0.70925899   -7.6836396    780.25437  0.019484926  0.019220429            4 
 3338000   0.71923865   -7.6640913    782.26626  0.019529316  0.019214583            3 
 3339000   0.71258839   -7.6875415    782.18954  0.019521552  0.019208718            5 
 3340000   0.72326277   -7.6848943    782.59237  0.019525758  0.019202869            4 
 3341000   0.71843827   -7.6885828     781.6615  0.019496695  0.019197021            4 
 3342000      0.71163   -7.6992984    784.62361  0.019564722  0.019191156            5 
 3343000   0.69974411   -7.7012818    782.02038  0.019493977  0.019185297            3 
 3344000   0.72685122   -7.7050597    782.44055  0.019498618  0.019179443            5 
 3345000   0.69751243   -7.7036344     782.5136  0.019494609  0.019173592            6 
 3346000    0.7294283   -7.7121312    782.45098  0.019487223  0.019167739            3 
 3347000   0.71270436   -7.6869677    782.89091  0.019492354    0.0191619            4 
 3348000   0.71820146   -7.6921356    782.84976  0.019485508  0.019156064            7 
 3349000   0.71371809   -7.6846996    783.98618  0.019507967  0.019150255            3 
 3350000   0.72862911   -7.6912173    782.83542  0.019473518  0.019144423            5 
 3351000   0.71781201   -7.6786508    782.57876  0.019461324  0.019138606            6 
 3352000   0.70857211   -7.6942641    782.19754  0.019446041  0.019132762            3 
 3353000    0.7160889   -7.6910333    781.40522  0.019420549  0.019126909            7 
 3354000   0.71594728   -7.7201438    781.08273  0.019406746  0.019121056            5 
 3355000   0.71010473   -7.7305249    782.17966  0.019428208  0.019115166            3 
 3356000   0.70683006   -7.7368726    781.47073  0.019404815  0.019109291            9 
 3357000     0.705856   -7.7317933    781.27358  0.019394141  0.019103414            6 
 3358000   0.72120949   -7.7183528    783.13197  0.019434484  0.019097556            6 
 3359000   0.71583128   -7.6942579    781.38609  0.019385385  0.019091698            7 
 3360000   0.72912498   -7.6833255    782.12863  0.019398031  0.019085858            5 
 3361000   0.72397416   -7.7189224    782.60554  0.019404085  0.019080021            4 
 3362000   0.72878716   -7.7154355    781.95037  0.019382073  0.019074181            4 
 3363000   0.70090631   -7.7151978    780.50432  0.019340478  0.019068328            3 
 3364000   0.71340926   -7.7026791    781.86257  0.019368375  0.019062468            4 
 3365000   0.71522903   -7.7296679    782.12305   0.01936907   0.01905664            7 
 3366000   0.71828815   -7.6965983    782.07825  0.019362207  0.019050806            3 
 3367000   0.70538612    -7.685171    782.96147  0.019378316  0.019044972            7 
 3368000   0.70348126   -7.6898218    782.29319  0.019356027  0.019039134            9 
 3369000   0.70487027   -7.7046555    783.68159  0.019384624  0.019033295           18 
 3370000   0.69598679   -7.7119958    782.10674  0.019339929  0.019027471           11 
 3371000   0.70880836   -7.7201916    782.70552  0.019348994  0.019021646            5 
 3372000   0.72515612   -7.7028343    782.50274  0.019338245  0.019015814            4 
 3373000   0.70694071    -7.707451    783.06098  0.019346303  0.019010006            9 
 3374000   0.72255816   -7.6994292    782.16832  0.019318522  0.019004184           12 
 3375000   0.71190349     -7.71027    783.26016  0.019339757   0.01899837            8 
 3376000   0.72994582   -7.7163439    783.28025  0.019334524   0.01899255            5 
 3377000   0.72075655   -7.6826917    781.98469  0.019296829  0.018986764            6 
 3378000    0.7035753    -7.698556      782.134    0.0192948  0.018980983            2 
 3379000    0.7175428   -7.6978389    783.06534  0.019312058  0.018975173            4 
 3380000   0.70647155   -7.6880367    783.09745  0.019307136  0.018969348            7 
 3381000   0.71572222   -7.7034573    783.03578  0.019299906   0.01896356            7 
 3382000   0.70024908   -7.7166028    782.14029  0.019272134  0.018957757            3 
 3383000   0.69636164    -7.685541    781.13279   0.01924162  0.018951944            3 
 3384000   0.71626084   -7.7080468     782.9262  0.019280098  0.018946114            4 
 3385000   0.71478582   -7.7096442    782.59792   0.01926632  0.018940304            7 
 3386000   0.71441217   -7.7029001    784.19085  0.019299834  0.018934504            8 
 3387000   0.70248137   -7.6906542    783.27777   0.01927167  0.018928705            5 
 3388000   0.70625542   -7.6966025    781.97738  0.019233997  0.018922902            4 
 3389000   0.70052434   -7.6850137     782.8589  0.019249997  0.018917116            3 
 3390000   0.72940527   -7.7085119    782.23684  0.019229028  0.018911354            6 
 3391000   0.70319053   -7.6979689    786.02911  0.019316551   0.01890558            6 
 3392000   0.69296178   -7.7085142    782.49522  0.019224037  0.018899793            6 
 3393000   0.71741126   -7.6986343    784.85665  0.019276369  0.018894025            5 
 3394000   0.71020977   -7.7171976    782.24342  0.019206527  0.018888267            3 
 3395000   0.69948066   -7.6959196    783.38192  0.019228815  0.018882498            3 
 3396000   0.73320652   -7.6813194    784.79392  0.019257801  0.018876741            5 
 3397000    0.7018127   -7.6948395    784.82144  0.019252807  0.018870997            3 
 3398000   0.70951134    -7.703247    784.99704  0.019251448  0.018865242            5 
 3399000     0.710015   -7.7181708     782.9307  0.019195124  0.018859487            6 
 3400000    0.6984194   -7.7088578    781.33158  0.019150284  0.018853714           18 
 3401000   0.72465895   -7.7260733    782.45998  0.019172302  0.018847957            5 
 3402000     0.704634   -7.7208631    783.21672  0.019185203  0.018842201            4 
 3403000   0.71351315   -7.7136327     784.5754  0.019212837  0.018836447            6 
 3404000   0.70705972   -7.7294778    784.56116  0.019206844  0.018830702            6 
 3405000   0.69807376   -7.7076832    785.28062  0.019218811  0.018824947            5 
 3406000   0.72122912   -7.7257595    783.78659  0.019176615  0.018819192            8 
 3407000   0.71552584   -7.7527159    784.13896  0.019179605   0.01881344            8 
 3408000    0.7082403   -7.7233997    784.63651  0.019186143  0.018807678            4 
 3409000   0.69702086   -7.7305538    784.28251  0.019171861  0.018801932            7 
 3410000   0.72098926   -7.7396557    783.17018  0.019139056  0.018796176            5 
 3411000   0.71271993   -7.7164943    782.90702  0.019127016  0.018790416            5 
 3412000   0.70349704   -7.7102764    784.45142   0.01915913  0.018784663            3 
 3413000   0.70155349   -7.7108036    783.91771  0.019140485  0.018778906           13 
 3414000   0.70161112   -7.7492081     783.8025  0.019132066  0.018773136            7 
 3415000   0.69459364   -7.7361983    781.24859  0.019064143  0.018767355           12 
 3416000   0.71678805   -7.7101516    784.76139  0.019144257  0.018761587           22 
 3417000   0.70188811   -7.7345443    783.02519  0.019096312  0.018755815            5 
 3418000   0.70765982   -7.7070954    782.58267  0.019079936  0.018750043            6 
 3419000   0.70934702   -7.7429438    782.17289  0.019064368  0.018744254            4 
 3420000   0.69785669   -7.7156759    782.86671    0.0190757  0.018738468            5 
 3421000   0.70194015   -7.7395679    781.97554  0.019048415  0.018732699            3 
 3422000   0.70295903   -7.7328024    784.07231   0.01909391  0.018726931            5 
 3423000    0.7059813   -7.7564064    783.50257  0.019074461  0.018721165            5 
 3424000   0.69249374   -7.7358774    782.44673  0.019043193  0.018715398            2 
 3425000   0.71213835   -7.7337495    784.33361  0.019083543  0.018709634            4 
 3426000   0.70482483   -7.7190509    783.88393  0.019067035  0.018703894            3 
 3427000   0.72546645   -7.7376402    783.39387  0.019049554  0.018698154            4 
 3428000   0.69373633   -7.7112999    784.67139  0.019075053  0.018692412            7 
 3429000   0.70937094   -7.7341708    784.95333  0.019076342  0.018686658            2 
 3430000   0.69744414   -7.7176835      785.067  0.019073542  0.018680907            7 
 3431000   0.70449281   -7.7055729    784.92962  0.019064646  0.018675177            6 
 3432000   0.71360882   -7.7220911    783.88403  0.019033703  0.018669457            4 
 3433000   0.70643407   -7.7515285    783.28967  0.019013731  0.018663737            5 
 3434000    0.7115577   -7.7209488    783.40056  0.019010885  0.018657993           11 
 3435000   0.70724349   -7.7076918    785.42642  0.019054498  0.018652266            3 
 3436000   0.69371284   -7.7383691    785.18095  0.019042999  0.018646523            5 
 3437000   0.70172917   -7.7272788     785.4828  0.019044777  0.018640793           10 
 3438000    0.6853182   -7.7098605    784.98658   0.01902721  0.018635062            7 
 3439000   0.71108066   -7.7123814     785.3802  0.019031216  0.018629356            3 
 3440000     0.720527   -7.7178292    783.85807   0.01898881   0.01862364            5 
 3441000   0.69188747   -7.7073806    784.19991   0.01899157  0.018617932            3 
 3442000   0.70699649   -7.7285641    783.21025  0.018962092  0.018612234           13 
 3443000   0.69241777   -7.6923917    784.99741   0.01899984  0.018606536            6 
 3444000    0.7037665   -7.6913814    785.11714  0.018997221  0.018600819            2 
 3445000   0.69819812   -7.7142827    784.24462    0.0189706   0.01859512            6 
 3446000   0.71036294   -7.7460613     783.6813  0.018951473    0.0185894            6 
 3447000   0.69847433   -7.7368965    784.45383  0.018964651  0.018583679            5 
 3448000     0.695943   -7.7428101    784.14861  0.018951774  0.018577961            4 
 3449000   0.69788034   -7.7222752    783.90671  0.018940435  0.018572255           10 
 3450000   0.69382576   -7.7430768    785.31295  0.018968912  0.018566553            2 
 3451000   0.69920438   -7.7233413    783.05226  0.018908825  0.018560842            4 
 3452000    0.6986924   -7.7406002      784.338  0.018934386   0.01855513           11 
 3453000   0.70182077   -7.7123503    784.98968   0.01894463  0.018549412            3 
 3454000   0.69990944    -7.749915    784.17601  0.018919514   0.01854371            7 
 3455000   0.71016841   -7.7067331    784.52157  0.018922373  0.018538027           14 
 3456000   0.68658169   -7.7183142    784.37014  0.018913246  0.018532315            6 
 3457000   0.69072121   -7.7457061    783.35493  0.018883303  0.018526611            8 
 3458000   0.70686224   -7.7410722    785.64104  0.018932934  0.018520915            4 
 3459000   0.70452875   -7.7230124    785.15243  0.018915689   0.01851524            5 
 3460000   0.73329721   -7.7270419    784.61789  0.018897348  0.018509561            4 
 3461000   0.68884632   -7.7260854    785.01419   0.01890143  0.018503872            4 
 3462000   0.67978183   -7.7336212    784.27299  0.018878129  0.018498183            7 
 3463000     0.690986   -7.7313573    783.89206  0.018863511  0.018492494            4 
 3464000   0.69836083   -7.7315644    785.44652  0.018895461  0.018486813            5 
 3465000   0.71097135   -7.7538377     785.3041  0.018886582  0.018481114            4 
 3466000   0.69680327   -7.7643184    785.17064  0.018877925  0.018475423            4 
 3467000   0.70369737   -7.7378482    785.81444  0.018887954  0.018469742            6 
 3468000   0.70958566   -7.7164041    784.97461  0.018862327  0.018464068            6 
 3469000   0.70146518   -7.7301449    783.55899  0.018822883  0.018458395            6 
 3470000   0.69477044   -7.7160001    786.00872   0.01887629   0.01845271            4 
 3471000   0.69285423   -7.7584026    784.33534  0.018830677  0.018447058            3 
 3472000   0.68550966   -7.7416941    784.88284  0.018838394  0.018441394            9 
 3473000     0.696336    -7.742119    785.71546  0.018852948  0.018435732            6 
 3474000    0.6836273   -7.7542418    785.89385    0.0188518  0.018430063            9 
 3475000   0.71189143   -7.7327446    783.73702  0.018794653  0.018424382           10 
 3476000   0.69886472   -7.7379725    785.20819  0.018824515  0.018418701            4 
 3477000   0.68437252   -7.7460371    785.15343  0.018817789  0.018413022            4 
 3478000   0.69402705   -7.7293703    785.32941  0.018816595  0.018407346            3 
 3479000   0.70390815   -7.7526119    784.98035  0.018802825  0.018401677            7 
 3480000   0.69755177   -7.7573392    786.53416   0.01883463     0.018396           10 
 3481000   0.68557405   -7.7465382    782.90033  0.018742228  0.018390328            6 
 3482000   0.68603192   -7.7708518    785.72737  0.018804503  0.018384648            6 
 3483000   0.69325358   -7.7716517    785.24477  0.018787558  0.018378977            5 
 3484000   0.68613762   -7.7652371    784.19776  0.018757122   0.01837331            6 
 3485000   0.68049074   -7.7679707    783.92628  0.018745248  0.018367647            9 
 3486000   0.68867661   -7.7420042    785.84941  0.018785844  0.018361988            3 
 3487000   0.69847043   -7.7347179    784.45638  0.018747165  0.018356345            4 
 3488000   0.69752431   -7.7408189    786.62712  0.018793652  0.018350704            5 
 3489000   0.69103242   -7.7371749    786.27114  0.018779764  0.018345087            5 
 3490000   0.69602107   -7.7421786    785.42917  0.018754278  0.018339441            9 
 3491000   0.68664773   -7.7325751    787.59431   0.01880059  0.018333803            4 
 3492000   0.70740111   -7.7512643    785.61371  0.018747941  0.018328147            2 
 3493000   0.69288872   -7.7410548    784.57034  0.018717682  0.018322487            4 
 3494000    0.6834571   -7.7499934    784.66546  0.018714593  0.018316837            3 
 3495000   0.70891678    -7.780062    785.15918   0.01872101  0.018311192            8 
 3496000   0.69642684   -7.7080385    786.06066  0.018737144  0.018305549            3 
 3497000   0.70460664   -7.7350072    786.89978  0.018751782  0.018299924            7 
 3498000   0.68306595   -7.7689232    786.36941  0.018733786  0.018294301            6 
 3499000   0.69867889   -7.7752338    785.30654  0.018703119   0.01828866            3 
 3500000   0.69062804   -7.7321999    786.10938   0.01871689  0.018283017            3 
 3501000   0.69911082   -7.7453041    784.04192  0.018662333  0.018277386            3 
 3502000   0.69795096   -7.7511975    785.81605  0.018699221  0.018271755            5 
 3503000   0.70677029   -7.7240734    786.74642  0.018716015  0.018266133            6 
 3504000   0.68160607   -7.7518767    786.31709  0.018700463  0.018260514            7 
 3505000   0.69118127   -7.7798185    785.47488  0.018675104   0.01825489            3 
 3506000   0.68361526   -7.7590962    785.09835  0.018660828  0.018249241            3 
 3507000   0.70266188   -7.7735122    784.98284  0.018652762  0.018243594            3 
 3508000   0.68179585   -7.7530428    787.27471  0.018701889  0.018237948            3 
 3509000    0.6991102   -7.7691066    784.80173   0.01863783  0.018232319            4 
 3510000   0.69702874   -7.7535172     784.5592  0.018626762  0.018226683            6 
 3511000   0.69297701   -7.7599026     785.7233  0.018649086   0.01822106            6 
 3512000   0.70554258   -7.7310822    785.34373   0.01863477  0.018215427            4 
 3513000   0.69149487   -7.7491947      786.952  0.018667615  0.018209823            5 
 3514000   0.68979797   -7.7502293    785.78951  0.018634735  0.018204195            4 
 3515000     0.670928   -7.7551665    784.53358  0.018599658   0.01819857            5 
 3516000   0.68577667   -7.7506408     785.7599  0.018623433  0.018192951            7 
 3517000   0.68433779   -7.7537369    786.56408  0.018637193  0.018187337            5 
 3518000   0.68081208   -7.7713384    786.71611  0.018635496  0.018181732            3 
 3519000   0.70820547   -7.7672241    786.71312   0.01863013   0.01817614            7 
 3520000   0.68675976    -7.747289    787.05412   0.01863291  0.018170552            3 
 3521000   0.69116639   -7.7554594    786.65701  0.018618219  0.018164958            6 
 3522000   0.67986528   -7.7442746    786.69042  0.018613724  0.018159367           14 
 3523000   0.70392241    -7.761812    786.94421  0.018614443  0.018153772            4 
 3524000   0.68298574   -7.7564394    785.51019   0.01857525  0.018148182            3 
 3525000   0.68661022   -7.7647075    786.21491  0.018586641  0.018142572            5 
 3526000   0.67643025   -7.7836288    783.97831   0.01852851  0.018136956            4 
 3527000   0.69010139   -7.7386107    785.94041  0.018569616  0.018131354            3 
 3528000   0.69366825   -7.7376502    787.56296  0.018602678  0.018125754            5 
 3529000   0.68317552   -7.7702255    785.38843  0.018546057  0.018120167            7 
 3530000   0.70669841   -7.7979663    785.65729   0.01854715  0.018114564            6 
 3531000   0.69421023   -7.7717025    785.22687  0.018531739  0.018108964            6 
 3532000   0.69086644   -7.7579217    786.10595  0.018547234   0.01810338            4 
 3533000   0.68243796   -7.7482943    786.01771  0.018539903  0.018097803            8 
 3534000   0.68321347   -7.7658861      787.974  0.018580787  0.018092224            5 
 3535000   0.67477847   -7.7508299    786.04099  0.018529962   0.01808663           11 
 3536000   0.68812991   -7.7544088    787.21692  0.018552435  0.018081054            7 
 3537000   0.68087683   -7.7886528    787.87719  0.018562746  0.018075488            2 
 3538000   0.68497492   -7.7662221    786.81044  0.018532373  0.018069929            6 
 3539000   0.68960484   -7.7870473    787.07588  0.018533387  0.018064376            6 
 3540000   0.67914655   -7.7824775    787.35252  0.018534664  0.018058804            9 
 3541000   0.68009155    -7.778978    785.37489  0.018482888  0.018053224            2 
 3542000   0.67795041   -7.7786549     786.0222  0.018492899  0.018047628            6 
 3543000   0.68027768   -7.7785711    785.26662  0.018469908  0.018042056            9 
 3544000   0.66735092   -7.7826763     786.1108  0.018484547   0.01803649            3 
 3545000   0.66419841   -7.7846904     786.9715  0.018499565  0.018030893            3 
 3546000   0.68486039   -7.7977778    786.72784  0.018488622  0.018025315            5 
 3547000   0.67108691    -7.782758    787.69572  0.018506149  0.018019734            7 
 3548000   0.66498446   -7.7944037    786.04921  0.018462261  0.018014146            9 
 3549000   0.69262886   -7.7885328    786.14454  0.018459297   0.01800856            3 
 3550000   0.68989451   -7.7974567    787.23183  0.018479621  0.018002983            7 
 3551000   0.69399958   -7.8046578    784.96474  0.018421213  0.017997411            4 
 3552000   0.67586248   -7.7824681    787.10601  0.018466263  0.017991843            4 
 3553000   0.67922517   -7.8003605    785.20201  0.018416409  0.017986276            3 
 3554000   0.67873269   -7.7770084    785.19562  0.018411077    0.0179807            4 
 3555000   0.67654046   -7.7840951    786.05034  0.018425934  0.017975146            9 
 3556000   0.66945551   -7.7930103    785.29461  0.018403042  0.017969584            2 
 3557000   0.66684625   -7.7727846    787.24432  0.018443546  0.017964021            4 
 3558000   0.68588295   -7.7868794    785.97843  0.018408714  0.017958462            4 
 3559000     0.678113   -7.7795679    785.70681  0.018397181  0.017952913            4 
 3560000   0.68780438    -7.787368    787.20713  0.018427133   0.01794736            2 
 3561000   0.70482803   -7.7792731    785.98158  0.018393279  0.017941791            2 
 3562000   0.69208096   -7.7936293    785.56483  0.018378365  0.017936238            5 
 3563000   0.67579733    -7.802672    786.57496  0.018396832  0.017930665            6 
 3564000   0.69733403   -7.8141407    785.79085  0.018373336  0.017925085           10 
 3565000   0.68108922   -7.7713611    785.21626  0.018354751  0.017919535            3 
 3566000   0.67723067   -7.7720691    784.94724  0.018343317  0.017913986            3 
 3567000    0.6761584   -7.7751465    785.30371  0.018346503  0.017908443            5 
 3568000   0.66418787   -7.7785305    786.76106  0.018375399  0.017902893            4 
 3569000   0.68394754   -7.7847949    786.97567  0.018375261  0.017897337            4 
 3570000   0.67909193   -7.7927567    785.39123  0.018333129  0.017891782            4 
 3571000   0.69485194   -7.7614601    786.57865  0.018355704  0.017886235            5 
 3572000   0.67043348   -7.7769448    785.72584   0.01833067  0.017880691            3 
 3573000   0.68223289   -7.7867058    787.34726  0.018363356  0.017875145            4 
 3574000   0.66024631   -7.7616206    786.38342  0.018335745  0.017869607            5 
 3575000   0.67987902   -7.7745221    786.11184  0.018324285  0.017864079            6 
 3576000   0.68848071   -7.7754091     785.3189  0.018300683   0.01785855            4 
 3577000   0.68613506   -7.7749314    786.89879  0.018332373  0.017853017            3 
 3578000   0.67060455   -7.7619348    786.22552  0.018311569  0.017847484            6 
 3579000   0.68028906    -7.793902    786.42429  0.018311081  0.017841946            6 
 3580000    0.6882583   -7.7808628    786.10108  0.018298442  0.017836405            6 
 3581000   0.70432915   -7.7389663    788.22713  0.018342808  0.017830889            3 
 3582000   0.68004184   -7.7615268    787.86896  0.018329354  0.017825379            5 
 3583000   0.67061351   -7.7936853    786.62147  0.018295225  0.017819862            4 
 3584000   0.67234448   -7.7732657    786.87264   0.01829596  0.017814339            5 
 3585000   0.67498793   -7.7585421    786.48943  0.018281949  0.017808823            5 
 3586000   0.68476104    -7.757789     785.4442  0.018252561   0.01780331            7 
 3587000   0.68207959   -7.7746517    786.89836  0.018281255  0.017797812            4 
 3588000   0.68373915   -7.7819407    787.92377  0.018299976  0.017792307            5 
 3589000   0.67573572   -7.7680513    786.13723  0.018253395  0.017786793            8 
 3590000    0.6892657   -7.7712181    786.43864  0.018255307  0.017781275            5 
 3591000   0.69420694   -7.7772815    785.13583  0.018219991  0.017775756            6 
 3592000   0.68295114   -7.7762314    785.47153  0.018222706  0.017770221            6 
 3593000   0.67467841    -7.787631    786.62915  0.018244483  0.017764685            6 
 3594000   0.68159558   -7.7859988      786.654  0.018239983  0.017759147            6 
 3595000   0.67743981   -7.7901404    784.91944  0.018194702  0.017753602           10 
 3596000   0.67504011   -7.7867808    788.71776  0.018277664  0.017748077            9 
 3597000    0.6646081   -7.7771282    786.79903  0.018228131  0.017742561            5 
 3598000   0.67036707   -7.8073017    787.00859  0.018227918  0.017737053            8 
 3599000   0.67081011   -7.8180225    787.49118  0.018234028  0.017731538           10 
 3600000   0.67810261   -7.8172419     785.1901  0.018175697  0.017726029           14 
 3601000   0.67730431    -7.812764    785.60044  0.018180145  0.017720508           11 
 3602000   0.66647993   -7.7972253     787.4116     0.018217  0.017715004            6 
 3603000   0.68932357   -7.7852867    786.29353  0.018186084  0.017709487            6 
 3604000   0.68082597   -7.7967051    787.61865  0.018211678  0.017703973            7 
 3605000   0.69373139   -7.8065383    787.19387  0.018196807   0.01769846            5 
 3606000    0.6813016   -7.8128631    786.73683  0.018181199  0.017692936            5 
 3607000   0.69279495   -7.7810492    786.77133  0.018176955  0.017687424            8 
 3608000   0.68334663   -7.7999114    787.23799  0.018182696  0.017681912           11 
 3609000   0.68407967   -7.8046245    785.22114  0.018131088   0.01767639           11 
 3610000   0.66823606   -7.8130862    785.39779  0.018130143  0.017670866            3 
 3611000    0.6842756   -7.8007081    786.24735  0.018144728  0.017665349            4 
 3612000   0.67163817   -7.8146462    787.21119  0.018161941  0.017659819            6 
 3613000   0.65864451   -7.8132529    788.52389  0.018187192  0.017654302           19 
 3614000    0.6786922   -7.8167371    786.58022  0.018137341  0.017648782           15 
 3615000   0.67802583   -7.8291317    785.83059  0.018115044  0.017643253            7 
 3616000   0.65457228    -7.801951    787.19458  0.018141468  0.017637754            6 
 3617000   0.67342084   -7.8138306    786.61074  0.018123001  0.017632247            3 
 3618000   0.67658274   -7.8135846    786.16772  0.018107788  0.017626739           11 
 3619000   0.67212959   -7.8075112     785.5562  0.018088703  0.017621247            6 
 3620000   0.66101937    -7.814692    785.84386  0.018090328  0.017615753            4 
 3621000   0.66382235   -7.8093091    786.45773   0.01809946  0.017610256            3 
 3622000   0.67672777   -7.8046476    786.15488  0.018087495  0.017604766            6 
 3623000    0.6710653    -7.817729    785.62145  0.018070233  0.017599272            5 
 3624000    0.6666915   -7.8115519    785.39316  0.018059997   0.01759377            7 
 3625000   0.67697541   -7.8175616    785.39617  0.018055084  0.017588264            4 
 3626000   0.68041779   -7.8033423    788.19614  0.018114454  0.017582756            5 
 3627000   0.67379271   -7.7823248    787.37566  0.018090609  0.017577259            4 
 3628000   0.67105412   -7.7989484    786.42954  0.018063891  0.017571767            6 
 3629000   0.65935204   -7.8213751    787.30779   0.01807908  0.017566284            8 
 3630000   0.67433115   -7.8116502    787.39524  0.018076107  0.017560767            7 
 3631000   0.66272038   -7.8178881    784.75729  0.018010587  0.017555264            6 
 3632000   0.67096408   -7.8148562    786.80094  0.018052518  0.017549766            4 
 3633000   0.66459245   -7.8143069    786.24535  0.018034805  0.017544268            3 
 3634000   0.67786532   -7.7873774    787.70182  0.018063241  0.017538786            6 
 3635000   0.65829454   -7.8137868    785.93948   0.01801787   0.01753329            6 
 3636000   0.67747801    -7.825278    785.63372  0.018005907   0.01752779            4 
 3637000   0.68163832   -7.8085382    784.29514  0.017970285  0.017522308            3 
 3638000   0.67428572   -7.8025182    786.64357   0.01801914  0.017516817           12 
 3639000   0.67584183   -7.8027924    787.59018  0.018035866  0.017511346            7 
 3640000   0.67504676   -7.8412161    786.52977  0.018006634  0.017505873            7 
 3641000    0.6564357   -7.8188037    785.94152  0.017988225  0.017500374            4 
 3642000   0.66089661   -7.8094675    786.91815  0.018005632  0.017494876            3 
 3643000   0.67327151   -7.8039048    785.17692  0.017960859  0.017489383            6 
 3644000    0.6710309   -7.8090838    784.65355  0.017943962  0.017483901            7 
 3645000   0.67852947   -7.8196052    786.46335  0.017980415  0.017478417           13 
 3646000   0.68091477   -7.8301323    785.44668  0.017952246  0.017472931           10 
 3647000   0.66543741   -7.8112557    788.61215  0.018019654  0.017467441           14 
 3648000   0.66493601   -7.8137211    785.16048  0.017935866  0.017461955            7 
 3649000   0.68254276   -7.8129196    785.85908  0.017946905  0.017456476            2 
 3650000   0.66910713   -7.8097762    785.92187  0.017943422  0.017450992            6 
 3651000   0.67541051   -7.8224517    786.14983   0.01794371  0.017445507           13 
 3652000   0.66774849   -7.7537839    786.82538  0.017954212  0.017440031            3 
 3653000   0.66010413   -7.8306059    785.29907  0.017914478  0.017434566            4 
 3654000   0.66928599   -7.8325601    785.97259  0.017924936  0.017429088            4 
 3655000   0.65285002   -7.8271344     786.2286  0.017925869  0.017423603            6 
 3656000   0.67376287   -7.8211009    786.26559  0.017921809  0.017418137            5 
 3657000   0.66511787   -7.8223628    786.94591  0.017932411  0.017412651            6 
 3658000   0.67362483     -7.83446    786.52889  0.017918008  0.017407171            6 
 3659000   0.66577615   -7.8222579    785.96017  0.017900159  0.017401708            3 
 3660000   0.67437563   -7.7995316    786.74562  0.017913152  0.017396256            5 
 3661000   0.66526926    -7.822758    785.35256  0.017876549  0.017390794            6 
 3662000   0.65400287    -7.807066    785.12259  0.017866434  0.017385318            4 
 3663000   0.67853276   -7.8112395    785.71682  0.017875075  0.017379844            5 
 3664000   0.66535851   -7.8288639    785.40406  0.017863084  0.017374381            4 
 3665000   0.65854504    -7.815017    786.88256  0.017891827  0.017368935            9 
 3666000   0.67621027   -7.8175119    787.60782  0.017903433    0.0173635            6 
 3667000   0.66638319   -7.8278203    786.38249  0.017870705   0.01735805           14 
 3668000   0.66293848   -7.8231258    785.32692  0.017841851  0.017352594            4 
 3669000    0.6699393   -7.8254872     785.4513  0.017839813   0.01734714           10 
 3670000   0.67520117   -7.8067266    785.18089  0.017828812  0.017341691            9 
 3671000    0.6645192   -7.8239024    787.12086  0.017867994  0.017336246            7 
 3672000    0.6630678   -7.8288763    786.02225  0.017838195  0.017330803            6 
 3673000   0.66718798   -7.8166703    787.08192  0.017857381  0.017325359            2 
 3674000   0.66295525   -7.8206654    785.77512   0.01782288  0.017319923            4 
 3675000   0.65953811   -7.7828441    786.32106   0.01783041  0.017314483            7 
 3676000   0.66976141   -7.8072177    786.29481  0.017824964   0.01730904           13 
 3677000   0.66745234   -7.7828235    787.28842  0.017842635  0.017303609            4 
 3678000    0.6696138   -7.8084603    788.50747  0.017865404  0.017298182            5 
 3679000   0.68139534   -7.8066468    786.99475  0.017826283   0.01729276            9 
 3680000   0.66823437   -7.7991448    786.59738  0.017812441  0.017287325            5 
 3681000   0.65671231   -7.7949114    787.02967  0.017817388  0.017281922            8 
 3682000   0.66596442   -7.8109966    787.80766  0.017830157  0.017276504            9 
 3683000   0.66980471    -7.811812     788.2042  0.017834288  0.017271099            9 
 3684000   0.66928558   -7.8001466    786.21325  0.017784411  0.017265688            8 
 3685000   0.66160187   -7.8247505    785.00023  0.017752154   0.01726028            5 
 3686000   0.65369171   -7.8094197    786.87556  0.017789735  0.017254858            8 
 3687000   0.65912767   -7.8139238    786.13594  0.017768193  0.017249443            5 
 3688000   0.65600943   -7.7894855    785.78085  0.017755352  0.017244003            5 
 3689000   0.66060393   -7.8332409    787.10875  0.017780536  0.017238577            5 
 3690000   0.65297849   -7.8335976    784.44586  0.017715579  0.017233139            3 
 3691000   0.64925522   -7.8340688    784.63722    0.0177151  0.017227704            5 
 3692000   0.67593948    -7.809678    784.85645   0.01771525   0.01722227            7 
 3693000   0.66352467   -7.8249419    786.26701  0.017742283  0.017216839            5 
 3694000   0.65626812    -7.834758    786.12389  0.017734251  0.017211406            4 
 3695000   0.65469109    -7.805573    785.64862  0.017718733  0.017205981           10 
 3696000   0.65053691    -7.845754    784.75656  0.017693826  0.017200548            7 
 3697000   0.65929276   -7.8102995    786.76746  0.017734367  0.017195121            5 
 3698000   0.67455022   -7.8271674    786.07283  0.017713918  0.017189705            4 
 3699000   0.64328863   -7.8228729    786.22343  0.017712522  0.017184297            6 
 3700000   0.67990863   -7.8510444    786.00368  0.017702786   0.01717888            6 
 3701000   0.64341342   -7.8200675    786.84342   0.01771691  0.017173472            3 
 3702000     0.644117   -7.8436537    785.61208  0.017684407  0.017168027            4 
 3703000   0.66636102   -7.8434793    786.58626  0.017701554  0.017162604            4 
 3704000   0.65967603   -7.8149037    785.53531  0.017673131  0.017157188            5 
 3705000   0.66669228   -7.8310193    787.93966  0.017722439  0.017151777            5 
 3706000   0.64862135   -7.8233877    787.54154  0.017708705  0.017146374            5 
 3707000    0.6431773   -7.8231962    786.97294  0.017691146  0.017140981            9 
 3708000   0.65574564   -7.8299595    785.91248  0.017662542  0.017135577            7 
 3709000    0.6655402   -7.8122763     786.8356  0.017678521  0.017130162            7 
 3710000   0.65385786   -7.8233765    786.01287  0.017655276  0.017124757            4 
 3711000   0.66923163   -7.8223463    785.60238    0.0176413  0.017119363            7 
 3712000   0.65852972   -7.8235343    786.29164  0.017652021  0.017113965            4 
 3713000   0.65620874   -7.8462327     786.4133  0.017649998   0.01710856            6 
 3714000   0.66182904    -7.816436     784.7992  0.017609029  0.017103139            5 
 3715000   0.65222672   -7.8321772    785.68681  0.017624199  0.017097739            6 
 3716000   0.66019787   -7.8350143    785.99822   0.01762644  0.017092335            5 
 3717000   0.65962743   -7.8584239    787.13327  0.017647145  0.017086933            4 
 3718000   0.65304995   -7.8289347    786.14487  0.017620245  0.017081543           10 
 3719000   0.66205127   -7.8384206    785.10527  0.017592213  0.017076139            8 
 3720000   0.66022948   -7.8159395    786.52675  0.017619327  0.017070745            3 
 3721000   0.64960647   -7.8401537    786.50513  0.017614107  0.017065343            6 
 3722000   0.66017276   -7.8575945    785.55757   0.01758816  0.017059947            4 
 3723000   0.65713697   -7.8488912    787.14978  0.017619075  0.017054552            7 
 3724000   0.65234399   -7.8360812    785.85653  0.017585404   0.01704916            4 
 3725000   0.66609632   -7.8079229    786.18497  0.017588031  0.017043792            3 
 3726000   0.64582979   -7.8106137    786.13292  0.017582146  0.017038413            3 
 3727000   0.65910744   -7.8473835    786.65502  0.017589103  0.017033048            7 
 3728000   0.66833916    -7.830951    786.89625  0.017589777  0.017027681            6 
 3729000   0.65980383   -7.8483146    785.82725   0.01756117  0.017022304            6 
 3730000   0.65306539   -7.8261383    786.45361  0.017570456  0.017016937            6 
 3731000   0.63380325   -7.8105782    787.38997  0.017586661  0.017011578            5 
 3732000   0.65801948   -7.8261356    786.21625   0.01755574   0.01700621            6 
 3733000   0.64446296   -7.8343402    785.21316  0.017528645   0.01700084            4 
 3734000    0.6521978   -7.8237035    787.80168  0.017581719   0.01699548            5 
 3735000   0.66115355   -7.8292181    786.75015  0.017553551  0.016990128           11 
 3736000   0.65025882   -7.8257978    786.42921  0.017541694  0.016984781           14 
 3737000   0.64591438   -7.8153622    786.70045  0.017543048  0.016979435            5 
 3738000   0.65868883   -7.8487872    786.40101  0.017531679  0.016974077            7 
 3739000   0.64843661   -7.8401555    787.96938  0.017561946  0.016968725            5 
 3740000   0.64865071   -7.8277307     787.3651  0.017543786  0.016963389            4 
 3741000   0.65989415   -7.8171418    786.61518  0.017522391  0.016958056            5 
 3742000   0.65095299   -7.8378861    786.55147   0.01751629  0.016952717            3 
 3743000   0.65641548   -7.8364683    786.16138  0.017502925  0.016947364            3 
 3744000   0.65405854   -7.8154173    787.88297  0.017536569  0.016942021            5 
 3745000   0.64137988   -7.8134557    786.33586   0.01749746  0.016936672            6 
 3746000   0.65316292   -7.8405523    786.52598  0.017497019  0.016931326            8 
 3747000   0.66455959   -7.8695551    784.51104  0.017447537  0.016925973            4 
 3748000   0.65711553   -7.8570908    786.11429  0.017478528  0.016920625            6 
 3749000   0.64990003   -7.8474997    785.70402  0.017464747   0.01691528            4 
 3750000   0.65943106   -7.8417491    786.11421  0.017469205  0.016909937            5 
 3751000   0.65251942    -7.845734    786.89698  0.017481938  0.016904579            6 
 3752000   0.66574053   -7.8696489    786.27117  0.017463379  0.016899226            4 
 3753000   0.63934106   -7.8401949    785.98663  0.017452408  0.016893875           12 
 3754000    0.6586466   -7.8630089    786.70691  0.017463748  0.016888514           13 
 3755000   0.65970348    -7.878179    785.73815  0.017437598   0.01688316           11 
 3756000   0.65854539   -7.8585355    786.62672   0.01745267  0.016877803           13 
 3757000   0.65889756   -7.8502438    786.77092  0.017451223  0.016872457            5 
 3758000    0.6693662   -7.8281403    787.58734  0.017464683   0.01686712            5 
 3759000   0.66301142   -7.8624385    787.63269  0.017461042  0.016861767            6 
 3760000   0.65523293   -7.8639066     785.1064  0.017400408  0.016856407            6 
 3761000   0.64884729   -7.8479047    784.65132  0.017385698  0.016851048            8 
 3762000   0.65023452   -7.8763902    785.64982  0.017403195  0.016845684           19 
 3763000   0.64787237   -7.8716665    784.01659  0.017362401  0.016840332            7 
 3764000   0.65355194   -7.8679914    786.42719  0.017411158  0.016834978            5 
 3765000   0.65781969   -7.8824793     784.4773  0.017363375   0.01682962            5 
 3766000    0.6501469   -7.8726297    785.41768  0.017379573  0.016824263            8 
 3767000   0.63776318   -7.8694453    785.85953  0.017384734  0.016818911           11 
 3768000   0.64633406   -7.8742444    787.70741  0.017420988  0.016813562            6 
 3769000    0.6456373   -7.8723508     785.9181  0.017376804  0.016808213            5 
 3770000   0.65816341    -7.878199    786.35158  0.017381777  0.016802876            5 
 3771000   0.66270282   -7.8478362    786.04279  0.017370344  0.016797545            5 
 3772000   0.64748275   -7.8571516    784.59889  0.017333839  0.016792206           13 
 3773000   0.65514679   -7.8668176    785.26368  0.017343928  0.016786867            6 
 3774000   0.65270065   -7.8957091    785.01518  0.017333845  0.016781538            9 
 3775000   0.64675381    -7.892315    785.24883  0.017334411  0.016776202           13 
 3776000    0.6498863   -7.8638482    786.43483  0.017355995  0.016770868            7 
 3777000   0.65297866   -7.8664846    785.16018  0.017323276  0.016765554            9 
 3778000   0.65083647   -7.8713829    786.40453  0.017346138  0.016760242            4 
 3779000    0.6521178   -7.8548151     784.7088  0.017304154  0.016754933           10 
 3780000    0.6548722   -7.8621154    786.04153  0.017328958   0.01674962            4 
 3781000   0.65979283   -7.8603567    786.68008  0.017338448  0.016744319            3 
 3782000   0.65401438   -7.8533473    786.54629  0.017330916  0.016739009            7 
 3783000   0.65617639   -7.8578639    786.05435  0.017315498   0.01673371           10 
 3784000   0.63602268   -7.8710759    785.44182  0.017297433  0.016728407           11 
 3785000   0.65845843   -7.8466614    785.57607  0.017295818  0.016723093            8 
 3786000   0.64385812   -7.8636975    786.88802  0.017320127  0.016717801            7 
 3787000    0.6453663   -7.8766337    785.52225    0.0172855  0.016712492            5 
 3788000   0.64029005   -7.8811978    785.70332   0.01728492  0.016707181            4 
 3789000    0.6512713   -7.8748243    786.08542  0.017288762  0.016701864            6 
 3790000   0.65387633   -7.8941472    785.53941  0.017272195  0.016696552            5 
 3791000    0.6489821   -7.8653482    786.92447  0.017298085  0.016691249            7 
 3792000   0.64958891   -7.8953547    786.39509  0.017281889  0.016685951            5 
 3793000   0.63331753   -7.8466482    785.42997  0.017256129  0.016680651            6 
 3794000   0.65077941   -7.8745684    786.44119  0.017273792  0.016675365            6 
 3795000   0.66265218   -7.8775399    786.05679  0.017260799  0.016670072            7 
 3796000   0.65141815   -7.8631354    785.55805  0.017245303  0.016664773            8 
 3797000   0.64201734   -7.8803095    786.73671   0.01726663  0.016659488            7 
 3798000   0.63152082   -7.8735046    786.17904  0.017249847  0.016654204            4 
 3799000   0.63622803    -7.884732    786.44785  0.017251203  0.016648922            8 
 3800000   0.63985208    -7.873325    786.10971  0.017239248  0.016643648            4 
 3801000   0.62899642   -7.8634032    784.91208  0.017208456  0.016638374            4 
 3802000   0.63132516   -7.8586719    786.13779  0.017230795  0.016633109            3 
 3803000   0.65575223   -7.8704136    787.56544  0.017257548   0.01662785            7 
 3804000   0.64586907   -7.8750334    787.22702  0.017245597  0.016622594            4 
 3805000   0.64950753   -7.8453074    787.69483   0.01725131  0.016617343            3 
 3806000   0.65059451    -7.873398    788.45085  0.017263331  0.016612095           12 
 3807000   0.63537745   -7.8758925    786.76982  0.017221999  0.016606835            3 
 3808000    0.6374954   -7.8620083    787.51557  0.017233797  0.016601584            6 
 3809000   0.64358854   -7.8774272     786.3376    0.0172035  0.016596334            7 
 3810000    0.6465704   -7.8753619    784.67382  0.017162595  0.016591078           10 
 3811000   0.65299642    -7.878194    786.37288  0.017195244  0.016585818            7 
 3812000   0.64938006   -7.8695319    784.80074  0.017156365  0.016580557            9 
 3813000   0.64700014   -7.8942472    785.40557  0.017165084  0.016575291            6 
 3814000   0.64361302   -7.9025278    786.58015  0.017186247  0.016570026            4 
 3815000   0.63811871   -7.8767044    787.19006  0.017195065  0.016564765            9 
 3816000   0.64683264   -7.8531168     786.1104  0.017166981  0.016559511           10 
 3817000   0.64919405   -7.8600741    786.00861  0.017160261   0.01655426            2 
 3818000   0.65029087    -7.886402    784.43898  0.017121507  0.016549007            5 
 3819000   0.66566383   -7.8719711    785.01774  0.017129653  0.016543744           16 
 3820000   0.63515507    -7.874864    785.93684  0.017145219  0.016538484            8 
 3821000   0.65630331   -7.8867485     784.8124  0.017116209  0.016533231            5 
 3822000   0.64602228   -7.8748135    786.90275  0.017157308  0.016527976            6 
 3823000   0.63223505   -7.8821344    786.54859    0.0171451  0.016522741           12 
 3824000   0.63833049   -7.8781538    786.10243  0.017130893  0.016517494            8 
 3825000   0.64605784   -7.8782499    786.50099  0.017135098  0.016512249            3 
 3826000   0.64326607   -7.8833589    786.76228   0.01713631  0.016507006            6 
 3827000   0.63938046   -7.8947836    786.58591  0.017127992   0.01650176            7 
 3828000   0.63305045   -7.8835044    786.20067  0.017115131  0.016496511            4 
 3829000   0.64088392    -7.875227    784.60531   0.01707594  0.016491267            5 
 3830000   0.64004532   -7.9049392    784.58648  0.017071072  0.016486015           12 
 3831000   0.64412459   -7.8722493    786.45043  0.017107162  0.016480773           10 
 3832000   0.64665061   -7.9046587    785.76139  0.017087713  0.016475536            6 
 3833000   0.64696594   -7.8755549    786.34602  0.017095965  0.016470315            6 
 3834000   0.64156474   -7.8765971    786.11684  0.017086525  0.016465096            4 
 3835000   0.62745453   -7.8878049    787.87306  0.017120232  0.016459871            5 
 3836000   0.64179107   -7.8929851    786.33221  0.017082295  0.016454652           15 
 3837000   0.64435008   -7.8733835    786.65907  0.017084942  0.016449433            7 
 3838000   0.64412942   -7.8701701    787.27187  0.017093796  0.016444217            7 
 3839000   0.63447517   -7.8735371     786.9121  0.017081534  0.016439004            7 
 3840000   0.64936912   -7.8926618    785.41409  0.017044576    0.0164338           11 
 3841000   0.64317996   -7.8863319    786.14259  0.017055944  0.016428581            6 
 3842000   0.63970083   -7.8927454    787.42884  0.017079404  0.016423363            6 
 3843000   0.63588255   -7.9243085    787.69266   0.01708068  0.016418149            7 
 3844000   0.63332442   -7.8870679    786.16336  0.017043083  0.016412928            6 
 3845000   0.62519213   -7.8915557    785.69722  0.017028548  0.016407711            8 
 3846000   0.61998285   -7.9027989    786.23455  0.017035763  0.016402483            8 
 3847000   0.62758637   -7.8979284    787.78927  0.017065013  0.016397267            3 
 3848000   0.64157244   -7.8933307    786.71145  0.017037237  0.016392055            5 
 3849000   0.62342682   -7.8886722    786.09192  0.017019397  0.016386837           11 
 3850000   0.64011657   -7.8838318    787.90073  0.017054128   0.01638162            4 
 3851000   0.62782102   -7.9121044     787.4251  0.017039408  0.016376417           11 
 3852000   0.63870744   -7.8887183    786.97504  0.017025248  0.016371203           11 
 3853000   0.64325725   -7.8911459    786.59379  0.017012583  0.016365998            7 
 3854000     0.616129   -7.9159876    786.48442  0.017005804  0.016360792            7 
 3855000   0.62429737   -7.8571094    785.84391  0.016987547  0.016355584            6 
 3856000   0.61973168    -7.896512    785.48503  0.016975385  0.016350377            7 
 3857000   0.64420577   -7.9064364    786.32466  0.016989125  0.016345186            5 
 3858000   0.63730299   -7.9060767    786.47047  0.016987871  0.016339996           13 
 3859000   0.63370803   -7.8958455    786.06069   0.01697462  0.016334799            5 
 3860000   0.63102164   -7.8933224    786.87578  0.016987819  0.016329602           14 
 3861000   0.62684171   -7.8960007    784.68376  0.016936108  0.016324416            8 
 3862000   0.62348073    -7.877965    787.56839  0.016993967  0.016319229            5 
 3863000   0.63291605   -7.8906751    787.38726   0.01698566  0.016314046            5 
 3864000   0.64576987   -7.8860307    786.50674  0.016962274  0.016308869            6 
 3865000   0.63578707   -7.8761239    787.74365  0.016984555   0.01630369            6 
 3866000   0.64093787   -7.9164398    785.48952  0.016931573   0.01629851            8 
 3867000   0.63770476   -7.8815052    786.16005  0.016941644  0.016293336           16 
 3868000   0.62507776   -7.9026261    784.89715  0.016910056  0.016288159           13 
 3869000    0.6200543   -7.8681454    785.34417  0.016915313  0.016282984            7 
 3870000    0.6328105   -7.9047621    785.62144  0.016916913  0.016277812            8 
 3871000   0.62480592   -7.8835905    786.10946  0.016923049   0.01627264            8 
 3872000   0.62842019   -7.9039645    784.49122   0.01688385  0.016267462            6 
 3873000   0.63829667   -7.8763514    785.78461   0.01690732   0.01626229            9 
 3874000   0.64049762    -7.898993     786.9031  0.016927015  0.016257122           11 
 3875000   0.63885296    -7.892179    787.64476  0.016938597   0.01625197            7 
 3876000   0.62685622   -7.8989086    787.65172  0.016934376  0.016246809            8 
 3877000   0.62593146   -7.9173414    786.51068  0.016905483  0.016241646           10 
 3878000   0.63209732   -7.9230812    784.81667  0.016864721  0.016236489            7 
 3879000   0.63240598   -7.9010574    785.03701  0.016865107  0.016231326            6 
 3880000   0.63211824   -7.8756339    785.63202   0.01687354  0.016226176            5 
 3881000   0.62280742     -7.88042    786.88803  0.016896161   0.01622103            5 
 3882000   0.62878514   -7.8941838    785.97142  0.016872132  0.016215881            6 
 3883000   0.63527927    -7.880642    785.97785  0.016867925  0.016210722            5 
 3884000     0.628589   -7.9056614    786.89483  0.016883257  0.016205569            4 
 3885000   0.61935311   -7.9073163    785.60673  0.016851281  0.016200411            8 
 3886000   0.64714883   -7.8970516    786.82366  0.016873041  0.016195252            4 
 3887000   0.61700913   -7.8836209    787.65496  0.016886523  0.016190096            4 
 3888000    0.6369376   -7.8786652    787.63464  0.016881744  0.016184949            8 
 3889000   0.62162781   -7.9000885    787.06918  0.016865286  0.016179796            4 
 3890000   0.62222502   -7.9013439    785.88317  0.016835543  0.016174645            8 
 3891000   0.62341984   -7.9098817    786.27327  0.016839572   0.01616951            7 
 3892000   0.63098699   -7.8978921    786.20109  0.016833699  0.016164364            6 
 3893000   0.61581329   -7.8896703    787.14156  0.016849507  0.016159223            7 
 3894000   0.64146378   -7.8813374    785.98064  0.016820336  0.016154093            4 
 3895000    0.6354727   -7.8773844    787.22717  0.016842687  0.016148955            4 
 3896000   0.62583431    -7.900157    786.92127   0.01683182  0.016143831           11 
 3897000    0.6308621   -7.8789021    786.04244  0.016808708  0.016138717            5 
 3898000   0.63862794   -7.8639496    787.26192  0.016830467  0.016133599            7 
 3899000   0.63844256   -7.8893422    786.67268  0.016813556  0.016128474            6 
 3900000   0.63546582   -7.9085539    786.12185  0.016797476  0.016123344            9 
 3901000   0.62008099   -7.9217125    786.67362  0.016804956  0.016118217           13 
 3902000   0.63226318   -7.9176493    786.40729  0.016794962  0.016113076            6 
 3903000   0.60707956   -7.8854875    786.97976  0.016802881  0.016107952            4 
 3904000   0.62568512   -7.8966667     785.8261  0.016773952  0.016102815            8 
 3905000   0.64492212   -7.8920312     786.5921  0.016786003  0.016097678            6 
 3906000   0.62809348   -7.9464248     785.8272  0.016765387  0.016092546           11 
 3907000   0.62721438   -7.9366734    786.26847  0.016770508  0.016087421            7 
 3908000   0.63330933   -7.9114007     785.9342  0.016759088  0.016082289           14 
 3909000   0.63072841    -7.925222    786.59913  0.016768976  0.016077154            9 
 3910000   0.62197658   -7.9050521    784.98888  0.016730368  0.016072025           16 
 3911000    0.6406241   -7.9061841    786.49224  0.016758123   0.01606689           14 
 3912000   0.61590111    -7.903658    786.59105  0.016755944  0.016061761           16 
 3913000   0.62672988   -7.9201761    785.98996  0.016738861  0.016056621            7 
 3914000   0.61891327   -7.9236958    784.02877  0.016692829  0.016051483           10 
 3915000   0.62804025   -7.9292128    784.50143  0.016698626  0.016046342            6 
 3916000     0.624953   -7.8981021    786.26279  0.016731844  0.016041207            7 
 3917000   0.61953182   -7.9077079    786.27612  0.016727856  0.016036087            5 
 3918000   0.62048043   -7.9153485    786.03836  0.016718529  0.016030961           18 
 3919000    0.6365153   -7.9089957    784.97628  0.016691679  0.016025832           12 
 3920000   0.63146079   -7.9268304    786.03722  0.016709975  0.016020708           10 
 3921000   0.61636967   -7.9146256    786.99353  0.016726038  0.016015589           26 
 3922000   0.63456917   -7.9192258    786.75518  0.016716709  0.016010475           13 
 3923000   0.62840271   -7.9253798    787.30916  0.016724215  0.016005354           12 
 3924000   0.62227013   -7.9193518     785.9159  0.016690365  0.016000243           12 
 3925000   0.63208452   -7.9004684    784.55801  0.016657283  0.015995127           11 
 3926000   0.63555662   -7.9111171    786.00929  0.016683845  0.015990012            7 
 3927000    0.6264357    -7.924498    786.28916  0.016685535  0.015984892            5 
 3928000    0.6176356   -7.9180893     785.6421   0.01666756  0.015979783           19 
 3929000    0.6212324   -7.9041603    783.56895  0.016619347  0.015974671            5 
 3930000   0.63462582   -7.9267575    785.04585  0.016646434  0.015969564            7 
 3931000   0.62406401   -7.9227767    785.69832  0.016656032  0.015964466            9 
 3932000   0.62771488   -7.9198654    787.82161  0.016696796  0.015959368           11 
 3933000   0.61667532   -7.9251645    785.50022  0.016643364  0.015954264            5 
 3934000   0.62355689   -7.9293752    785.50885  0.016639316  0.015949156            6 
 3935000   0.61976021   -7.9180054    785.52076   0.01663534  0.015944047           14 
 3936000   0.61954683   -7.9223864    786.09188  0.016643205  0.015938944            5 
 3937000   0.62323934   -7.9303096    786.37509  0.016644973  0.015933845            8 
 3938000   0.62072832   -7.9065242    786.38926  0.016641046  0.015928747            9 
 3939000   0.62454159     -7.92703    785.43711  0.016616677  0.015923651            6 
 3940000   0.62873759   -7.9129075    785.68757  0.016617757  0.015918552           11 
 3941000   0.63457267   -7.9187221    785.87194  0.016617439  0.015913454            8 
 3942000   0.60768072   -7.9231577    785.31535  0.016601458  0.015908361            8 
 3943000   0.60566459   -7.9186594    785.98913  0.016611487  0.015903258            5 
 3944000   0.62962207   -7.9252792    786.38243  0.016615585   0.01589817            8 
 3945000    0.6256053   -7.9196338     784.3982  0.016569459  0.015893081            5 
 3946000   0.61300978    -7.926306    785.53906  0.016589353  0.015887989           11 
 3947000   0.63920225   -7.9124052    785.54035  0.016585177  0.015882908           11 
 3948000   0.62662929   -7.9307326      785.524  0.016580632  0.015877821            3 
 3949000   0.60561607   -7.9277544    786.25934   0.01659195  0.015872732            5 
 3950000   0.62510674   -7.9092606    786.90694  0.016601412  0.015867651            5 
 3951000   0.62532142    -7.906285    785.60374  0.016569724  0.015862573            4 
 3952000   0.61416242   -7.9329915    784.42562  0.016540689  0.015857492            4 
 3953000   0.62567545   -7.9226811      786.042  0.016570579  0.015852402            4 
 3954000   0.61819845   -7.9296711    786.34685  0.016572813  0.015847322            7 
 3955000   0.63165915   -7.9525808    785.92387  0.016559711  0.015842243            5 
 3956000   0.63493085   -7.9150412    785.66047  0.016549976  0.015837169            4 
 3957000   0.61502027   -7.9232416    785.47814  0.016541954  0.015832092            5 
 3958000   0.62098312   -7.9321232    784.42248  0.016515548  0.015827013            5 
 3959000   0.60180187   -7.9131311     786.5762   0.01655671  0.015821936            5 
 3960000      0.62004   -7.9255494    784.37319   0.01650617  0.015816861            4 
 3961000   0.62909683   -7.9304545    786.43158  0.016545308  0.015811788            4 
 3962000   0.60725101   -7.9238069    785.26345  0.016516562  0.015806712            6 
 3963000   0.62378485   -7.9297814    784.70383  0.016500627  0.015801647            5 
 3964000   0.61437415   -7.9517341    784.87444  0.016500051   0.01579659            4 
 3965000   0.61157961   -7.9044681    785.22734  0.016503307  0.015791536            9 
 3966000   0.64049702   -7.9207803    785.47213  0.016504289  0.015786478            9 
 3967000   0.62279026   -7.9189395    786.34431   0.01651845  0.015781408            9 
 3968000   0.60875122   -7.9386995    784.61519  0.016477973  0.015776345           11 
 3969000   0.61298544    -7.931533    785.89862  0.016500769  0.015771283            7 
 3970000     0.625294   -7.9464519    784.83841  0.016474358  0.015766225            9 
 3971000   0.61468607   -7.9327977    785.57508  0.016485669  0.015761158            5 
 3972000   0.63554787   -7.9415081    784.71451  0.016463463  0.015756103            8 
 3973000   0.61173582   -7.9250347    784.41705   0.01645308  0.015751054            6 
 3974000   0.60459073   -7.9371718    783.79882  0.016435976  0.015745997           12 
 3975000   0.61827308   -7.9409602    784.65854  0.016449864  0.015740942            6 
 3976000   0.60598387   -7.9457159     785.7842   0.01646932  0.015735896            5 
 3977000    0.6195041     -7.95572    785.68219  0.016463042  0.015730852            6 
 3978000   0.62225469   -7.9564548    784.68373  0.016437987  0.015725807            8 
 3979000   0.61376054   -7.9161681    785.36061  0.016448032  0.015720763            8 
 3980000    0.6098205   -7.9645756    784.61977  0.016428387  0.015715715            7 
 3981000   0.61821625   -7.9425047    785.65836  0.016446001   0.01571067            6 
 3982000   0.61420611    -7.931082    784.99959  0.016428085  0.015705626            7 
 3983000   0.61284437   -7.9531446    783.90748  0.016401111  0.015700583            3 
 3984000   0.61380646   -7.9445148    785.50367  0.016430381  0.015695546            5 
 3985000   0.60967496   -7.9387817    785.65584   0.01642944  0.015690508            5 
 3986000   0.62204087   -7.9432099    785.28581  0.016417583  0.015685472            7 
 3987000   0.62614786   -7.9410229     784.0108  0.016386816   0.01568044            5 
 3988000   0.61328119   -7.9508989    785.86282  0.016421406  0.015675405            7 
 3989000   0.61028707    -7.937413    786.06558  0.016421525  0.015670382            3 
 3990000   0.60219582   -7.9628318    785.81312  0.016412137  0.015665353            7 
 3991000   0.61173423   -7.9453454    784.55364  0.016381726  0.015660322           10 
 3992000   0.60339191   -7.9457497    784.58989  0.016378379  0.015655293           10 
 3993000   0.61750152   -7.9401756    784.94895  0.016381771   0.01565026           15 
 3994000   0.61868525   -7.9542209    784.63779  0.016371177  0.015645228            6 
 3995000   0.62121128   -7.9388252    785.17962  0.016378382  0.015640199            6 
 3996000   0.60843786   -7.9546824    785.33184  0.016377458  0.015635173            6 
 3997000   0.60882396   -7.9446037    786.12568  0.016389911  0.015630157            7 
 3998000   0.60548863   -7.9472201    786.12988  0.016385899  0.015625146            9 
 3999000   0.61597021   -7.9728064    783.70518  0.016331274  0.015620131            6 
 4000000   0.61676389   -7.9433926     785.5939   0.01636654  0.015615119            8 
 4001000   0.60545781   -7.9363017    784.53494  0.016340393  0.015610113            8 
 4002000   0.60512299   -7.9379573    786.24125   0.01637184  0.015605097            7 
 4003000   0.61733639   -7.9648632     785.3293  0.016348765  0.015600092           16 
 4004000   0.60334407   -7.9446281    786.19018    0.0163626  0.015595089            3 
 4005000   0.60491227   -7.9562931    784.75453  0.016328642  0.015590091            5 
 4006000   0.60901927   -7.9444419    785.28404  0.016335581  0.015585092            8 
 4007000   0.61083213   -7.9686849    785.21381  0.016330043  0.015580093            9 
 4008000   0.60847391   -7.9466428    784.67571  0.016314781  0.015575104            6 
 4009000   0.60718707    -7.941496    785.31187  0.016323935  0.015570105            6 
 4010000   0.61917867   -7.9862587    785.35044  0.016320666  0.015565117           12 
 4011000   0.60963517   -7.9565799    785.68831  0.016323616  0.015560124            7 
 4012000   0.60181662   -7.9556187    784.30681  0.016290853   0.01555513            6 
 4013000     0.608853   -7.9716452    784.90805  0.016299278  0.015550132            5 
 4014000    0.6083798   -7.9429603    786.61153  0.016330583  0.015545139            9 
 4015000   0.61482593   -7.9663383    784.28458  0.016278219  0.015540143           12 
 4016000   0.60629028   -7.9459003    786.71021  0.016324498  0.015535161            5 
 4017000    0.6032306   -7.9311273    784.75515  0.016279876  0.015530169            8 
 4018000   0.62771859   -7.9462475    784.91353  0.016279109  0.015525183           10 
 4019000   0.61362676   -7.9379465    784.54465   0.01626741  0.015520202           11 
 4020000    0.6047741   -7.9516063    784.14215   0.01625502  0.015515222           13 
 4021000   0.58703475   -7.9535693    785.14671  0.016271796  0.015510243            6 
 4022000   0.61464233   -7.9667095    784.24887  0.016249148  0.015505269            7 
 4023000    0.6280768   -7.9545547    785.02764   0.01626124  0.015500295            6 
 4024000   0.61623824   -7.9475424    785.17756  0.016260304  0.015495327            7 
 4025000   0.60730067   -7.9461653    783.49565  0.016221442  0.015490353            5 
 4026000   0.60776017   -7.9689353    784.71559  0.016242664   0.01548538            6 
 4027000     0.614368   -7.9603404    784.92828  0.016243032  0.015480414            7 
 4028000   0.61434708   -7.9523254    784.82141  0.016236789  0.015475438            7 
 4029000   0.60935248   -7.9498091    785.13356  0.016239215  0.015470472            8 
 4030000   0.60531506   -7.9552451    785.63471  0.016245548  0.015465509           10 
 4031000   0.60449493   -7.9716475    785.14982  0.016231494  0.015460545           10 
 4032000   0.59742191   -7.9701026    785.89814  0.016242934  0.015455582            6 
 4033000   0.61310795   -7.9633453    786.26731  0.016246535  0.015450624           10 
 4034000   0.60375594   -7.9699047    784.19962  0.016199794  0.015445664            9 
 4035000   0.60805593   -7.9787983    784.57477  0.016203527   0.01544071            7 
 4036000   0.60839461   -7.9652916    784.87704  0.016205753  0.015435756           16 
 4037000   0.62926284    -7.969901     785.5066  0.016214735   0.01543081           14 
 4038000   0.61098574   -7.9596146    785.19939  0.016204379  0.015425858            6 
 4039000   0.59700945   -7.9638462    785.23537  0.016201109  0.015420916            6 
 4040000   0.59776127   -7.9651149     784.9713  0.016191652  0.015415974            7 
 4041000   0.59589685   -7.9784961    785.11152  0.016190537  0.015411032            7 
 4042000   0.60251506   -7.9595477    785.06302  0.016185532  0.015406093            6 
 4043000   0.61204735   -7.9623596     784.0428    0.0161605  0.015401145            7 
 4044000   0.60438635    -7.978417    784.70413  0.016170131  0.015396203           11 
 4045000   0.60814023   -7.9832627    785.17403  0.016175814  0.015391255           11 
 4046000    0.5967989   -7.9519427    784.50767  0.016158092  0.015386318            9 
 4047000   0.60569432    -7.982296    784.85243  0.016161198  0.015381375            4 
 4048000   0.61162171   -7.9709019      784.908   0.01615835  0.015376434            8 
 4049000    0.6016764   -7.9740745    784.54135  0.016146813  0.015371494            3 
 4050000   0.59195459   -7.9781939    782.74956  0.016105958  0.015366559            7 
 4051000   0.60660864   -7.9787704    783.20102  0.016111269  0.015361615            9 
 4052000   0.60315761    -7.961123    784.76398  0.016139437  0.015356682           11 
 4053000   0.61695438   -7.9643262    783.60495  0.016111624   0.01535175            5 
 4054000    0.5943347   -7.9831194      783.585   0.01610724  0.015346812           10 
 4055000   0.62292509    -7.993823    784.50313  0.016122136  0.015341886            7 
 4056000   0.60509581   -7.9763115    784.34385  0.016114889  0.015336957            6 
 4057000   0.59991066   -7.9899941    784.93369  0.016123032  0.015332029            7 
 4058000   0.60936993   -7.9596488    785.58258  0.016132384  0.015327104            7 
 4059000   0.61553007   -7.9546379    784.35009  0.016103106  0.015322191           11 
 4060000   0.59753875   -7.9898001    783.70085  0.016085814  0.015317277            7 
 4061000   0.61340235   -7.9884719    784.83896  0.016105207  0.015312362            6 
 4062000   0.60297418   -7.9622945    786.92561  0.016144051  0.015307446            6 
 4063000   0.60955789   -7.9786937    786.46254   0.01613058  0.015302535            5 
 4064000   0.60454132   -7.9748425    786.11118  0.016119406  0.015297637           11 
 4065000   0.58881305   -7.9810331    785.97457   0.01611264   0.01529273            7 
 4066000   0.58182034   -7.9714424     783.3204  0.016054279  0.015287827           11 
 4067000   0.61692233   -7.9722215    785.07785  0.016086342  0.015282924            9 
 4068000   0.61664905   -7.9553583    784.17931  0.016063981   0.01527803           11 
 4069000    0.6071369   -7.9671887    784.38175  0.016064179  0.015273135            6 
 4070000   0.60118106   -7.9761986    785.12909  0.016075534   0.01526824            4 
 4071000   0.60367052   -7.9693003    785.54643  0.016080128  0.015263345            8 
 4072000    0.6201997     -7.97599    785.69512  0.016079222  0.015258452           11 
 4073000   0.60291603   -7.9646146    784.76334   0.01605621  0.015253555            9 
 4074000   0.58846309   -7.9677836    784.28297  0.016042443  0.015248658           10 
 4075000   0.60464684   -8.0023294    784.75631  0.016048186  0.015243766           13 
 4076000   0.58816865   -7.9647213    784.36632  0.016036276  0.015238873            8 
 4077000   0.58865899   -7.9691827    784.28813  0.016030744  0.015233987           15 
 4078000   0.59869382   -7.9707067    785.17206  0.016044876  0.015229099           16 
 4079000   0.59051152   -7.9762363    785.51665  0.016047982  0.015224214           21 
 4080000   0.59395098   -7.9726223    786.22231  0.016058462  0.015219337            5 
 4081000   0.60665322   -7.9709042    785.10869  0.016031787  0.015214456            5 
 4082000   0.59719964   -7.9805411    785.81187  0.016042215  0.015209577            6 
 4083000   0.59804931   -7.9788026    785.06567  0.016023056  0.015204705           12 
 4084000   0.59825923   -7.9571481    784.79615  0.016013633  0.015199828           10 
 4085000   0.59042081    -7.968429    784.94012   0.01601265  0.015194953           11 
 4086000   0.59350618   -7.9707237    784.38739  0.015997459  0.015190081           14 
 4087000   0.59105362   -7.9785871    784.47637  0.015995359  0.015185212            6 
 4088000   0.58982971   -7.9963478    785.53472   0.01601302  0.015180346           12 
 4089000    0.5943237   -7.9816923    785.38364  0.016006025  0.015175476            8 
 4090000   0.58860718   -7.9882207    786.23253  0.016019408  0.015170618           11 
 4091000   0.58836032   -7.9680569    786.29033  0.016016669  0.015165752            7 
 4092000   0.59428052   -7.9958456    785.23879  0.015991341  0.015160884           21 
 4093000   0.59107283   -7.9928305    784.54512  0.015973311  0.015156019           14 
 4094000   0.61762642   -7.9903104    783.65725  0.015951336  0.015151158           12 
 4095000   0.59325737   -7.9805336    784.46819  0.015963944  0.015146289           10 
 4096000   0.59099735   -7.9983885    783.83787  0.015947222  0.015141417            7 
 4097000   0.58889632   -7.9958565    784.75947  0.015962075  0.015136552            8 
 4098000   0.59340229   -7.9875471    783.90849  0.015940876  0.015131688            7 
 4099000   0.60421173   -7.9864297    784.30804  0.015945109  0.015126815            5 
 4100000   0.60113559   -8.0051185    783.93254  0.015933588  0.015121949           14 
 4101000    0.5985024   -7.9841424    783.94943  0.015930046  0.015117089            5 
 4102000   0.59825153    -7.980898     786.0595  0.015969029  0.015112231           12 
 4103000   0.59436928   -7.9990939    785.47933  0.015953354  0.015107376           12 
 4104000   0.60334666   -8.0101147    783.53698  0.015910026  0.015102516           13 
 4105000   0.59397588   -7.9949372    784.13467  0.015918284   0.01509766           10 
 4106000    0.6074877     -7.98475    782.80739  0.015887469  0.015092809           11 
 4107000   0.58966123   -7.9816236    784.11803  0.015910195  0.015087956            9 
 4108000   0.59522143   -7.9921027    783.08962   0.01588546  0.015083099            8 
 4109000   0.60309929   -8.0046305    783.24673   0.01588478   0.01507825            8 
 4110000   0.58855519   -8.0346168    784.49518  0.015906228  0.015073398            5 
 4111000    0.5813014   -8.0020283    783.00694  0.015872191  0.015068541           20 
 4112000    0.5879151   -7.9970974    784.67243  0.015902084  0.015063696            7 
 4113000   0.59236817   -8.0044954    785.31831  0.015911304  0.015058853           15 
 4114000   0.59539304   -8.0106599    785.15719  0.015904173  0.015054016           10 
 4115000   0.58025185   -8.0011034    784.48123  0.015886619  0.015049173           17 
 4116000   0.59733016    -7.992952    785.96042  0.015912707  0.015044338           15 
 4117000   0.59053698   -8.0041837    784.96206  0.015888634  0.015039505            9 
 4118000   0.59704693   -7.9888114    783.98468  0.015864997  0.015034672           10 
 4119000   0.58033791   -7.9952871    784.18398  0.015865177  0.015029837           14 
 4120000   0.58682555   -7.9950942    783.85426  0.015854657   0.01502501           12 
 4121000   0.60162459   -8.0107982     783.5189  0.015844029  0.015020176            7 
 4122000   0.57383079   -8.0035288    784.47057  0.015859425  0.015015355           18 
 4123000   0.58462068   -7.9892719    783.55768  0.015837127  0.015010532            9 
 4124000   0.60102807   -7.9814754    785.08322  0.015864113  0.015005712           10 
 4125000   0.59939517   -7.9879901    783.64209  0.015831153  0.015000887           14 
 4126000   0.58758171   -8.0161546    784.10879  0.015836742  0.014996066           16 
 4127000   0.58159897   -8.0039901    785.19206  0.015854779  0.014991246           11 
 4128000   0.59649995   -8.0060953    784.54616  0.015837899  0.014986424           21 
 4129000   0.58942924   -7.9884165    782.54527   0.01579368  0.014981601           20 
 4130000   0.59314347   -8.0059786    784.70898  0.015833515  0.014976782           21 
 4131000   0.57960868   -8.0098306    784.75434  0.015830597  0.014971972           13 
 4132000   0.58246884   -7.9919763    784.34535  0.015818517  0.014967161           29 
 4133000   0.57569646   -8.0152099    785.20624  0.015832048  0.014962353            3 
 4134000   0.59756909    -8.008454    784.63556  0.015816714  0.014957538           10 
 4135000   0.59069709   -7.9932554    783.71824  0.015794402  0.014952733            5 
 4136000   0.60052284    -7.993715     784.8417  0.015813219  0.014947925           13 
 4137000   0.59413015    -8.021311    785.56356  0.015823938  0.014943121           26 
 4138000   0.58834746   -7.9883509    785.77105  0.015824292  0.014938323           18 
 4139000    0.5933051   -8.0013871    783.51838  0.015775114  0.014933519            6 
 4140000   0.59918936   -7.9911977    784.53416   0.01579175  0.014928726           17 
 4141000   0.59007681    -8.009839    783.93543  0.015775888  0.014923933           11 
 4142000   0.59659064   -8.0148522    784.98482  0.015793192  0.014919134           24 
 4143000   0.59040317   -8.0160557    784.66095  0.015782866  0.014914344           13 
 4144000    0.5887186   -8.0068432     784.0575  0.015766922  0.014909555            6 
 4145000   0.59275434   -8.0108337    784.01976   0.01576236  0.014904757           12 
 4146000    0.5896681   -8.0010573    785.85783  0.015795502  0.014899973            5 
 4147000   0.58226218   -8.0176595    785.84235  0.015791382  0.014895188           12 
 4148000   0.59812818   -7.9987993    784.63117  0.015763243  0.014890406            9 
 4149000   0.59058515   -7.9918403     784.4915  0.015756638   0.01488562           32 
 4150000   0.57613636   -8.0280381    784.57522  0.015754523  0.014880833           20 
 4151000   0.58706454   -8.0193343      784.676   0.01575275  0.014876048            7 
 4152000   0.58249032   -8.0303777    784.63461  0.015748126  0.014871262           22 
 4153000   0.59271161   -7.9922962     784.1375  0.015734359  0.014866481           14 
 4154000   0.57563972   -8.0256305    784.15387  0.015730899  0.014861696           13 
 4155000   0.58890194   -8.0061851    783.38902  0.015711773  0.014856921           19 
 4156000   0.60157852    -8.016213    785.50193   0.01575036  0.014852147           22 
 4157000    0.5967721   -8.0147366    784.20035  0.015720479  0.014847372           33 
 4158000   0.59869766   -8.0278269    783.68152    0.0157063  0.014842596           20 
 4159000   0.59579861   -7.9873018    783.77162  0.015704328  0.014837824           27 
 4160000   0.59550929   -8.0118808    784.80405  0.015721235  0.014833059           24 
 4161000   0.58526539   -7.9884505    783.22953  0.015685923  0.014828299           26 
 4162000   0.58480805    -7.997302    784.07435   0.01569907  0.014823531           20 
 4163000   0.58428806   -8.0264081    782.80609  0.015669911  0.014818765           23 
 4164000    0.5787718   -8.0159739    784.61263  0.015702302  0.014814007           24 
 4165000   0.58865209   -8.0283678     783.6377  0.015679026  0.014809245           24 
 4166000   0.57855522   -8.0034513    783.67035  0.015675915  0.014804483           34 
 4167000   0.58993881   -8.0010669    784.71069  0.015692958   0.01479973           25 
 4168000   0.58899921   -8.0162579    783.57396  0.015666466  0.014794977           28 
 4169000   0.57400287   -8.0185495    784.77034  0.015686622  0.014790225           34 
 4170000   0.58626145   -8.0113059     783.5821  0.015659115  0.014785475           36 
 4171000   0.58708544   -8.0058182    784.46283  0.015672957  0.014780722           19 
 4172000   0.58570444   -8.0202901    783.89663  0.015657891  0.014775972           35 
 4173000   0.58808135   -8.0188116    785.48653  0.015685888  0.014771224           16 
 4174000   0.59180303   -8.0111472    784.47977   0.01566203   0.01476648           22 
 4175000   0.58501416   -8.0122456    785.12806  0.015671219  0.014761739           30 
 4176000   0.58231281   -8.0274416     783.9238  0.015643435  0.014756992           23 
 4177000   0.58150246   -8.0211187    782.78993  0.015617068  0.014752242           22 
 4178000   0.57197985   -8.0275134    784.16661  0.015640789  0.014747499           22 
 4179000   0.58401471   -8.0106543    783.88475  0.015631426   0.01474276           26 
 4180000   0.58527592   -8.0171459    784.11926  0.015632362  0.014738023           30 
 4181000   0.57042931    -8.031041    784.28551  0.015631936  0.014733288           23 
 4182000   0.57695298     -8.00561    783.93591  0.015621232  0.014728552           23 
 4183000   0.57715832   -8.0394851    785.09879  0.015640664  0.014723814           15 
 4184000   0.57954039   -8.0250738    783.81329  0.015611323  0.014719073           13 
 4185000   0.57582117   -8.0266668    783.53856  0.015602122  0.014714334           10 
 4186000   0.58748488   -8.0262249    784.19509  0.015611465    0.0147096           17 
 4187000   0.58073391   -8.0188516      784.493  0.015613665  0.014704868           10 
 4188000    0.5877286   -8.0159195    784.12434  0.015602601  0.014700145           10 
 4189000    0.5764814   -7.9971994    783.40361  0.015584539  0.014695413           23 
 4190000   0.58846594   -8.0183221    782.97736  0.015572342  0.014690687           12 
 4191000   0.58259208   -8.0127669    783.79578    0.0155849  0.014685958           26 
 4192000   0.57375404   -8.0128632    783.68399   0.01557896  0.014681233           18 
 4193000   0.56778595   -8.0211607    784.41136    0.0155897  0.014676511           12 
 4194000   0.57935489   -8.0131009    783.90153  0.015575853  0.014671784           14 
 4195000   0.58934455   -8.0229982    783.05992  0.015555422  0.014667064           19 
 4196000   0.56707129   -8.0024991     782.6516  0.015543605  0.014662352           11 
 4197000   0.57315709   -8.0140825    782.01099  0.015527182  0.014657626           12 
 4198000   0.56678507   -8.0359766    782.91286  0.015541386  0.014652902            7 
 4199000   0.58256115   -8.0250437    782.14018   0.01552235  0.014648185            7 
 4200000   0.58540862   -8.0142708    782.80589  0.015531863  0.014643469           11 
 4201000   0.57692595   -8.0312179    784.49332  0.015561639  0.014638757           12 
 4202000   0.56427496   -8.0423067    783.74774  0.015543149  0.014634041            9 
 4203000   0.58378424   -8.0357101    782.88749  0.015522395  0.014629335           15 
 4204000   0.59361412   -8.0421649    784.64277  0.015553496  0.014624624           16 
 4205000   0.57883556   -8.0205314    783.35794  0.015524335  0.014619917           23 
 4206000   0.58180034   -8.0272302    782.69897  0.015507588  0.014615209           11 
 4207000   0.56498553   -8.0182243    782.90095  0.015507902   0.01461051           14 
 4208000   0.59074918   -8.0173399    782.74915  0.015501211  0.014605807           11 
 4209000   0.58626751   -8.0487641    784.18914  0.015526038   0.01460111           14 
 4210000   0.57888643   -8.0254813    782.81032  0.015495058  0.014596409           14 
 4211000   0.57210712   -8.0498315    782.77128  0.015490606  0.014591706           14 
 4212000   0.58037105   -8.0190108    783.66454  0.015504601  0.014587015            8 
 4213000    0.5736024    -8.026622    784.62184  0.015519856  0.014582324           14 
 4214000   0.57369188   -8.0312637     783.8455  0.015500821  0.014577633           16 
 4215000   0.58056264   -8.0298423    783.97138  0.015499632   0.01457295           14 
 4216000   0.57347677   -8.0417704    783.41335  0.015484926  0.014568265           17 
 4217000   0.56768711   -8.0249423    783.82414  0.015489371  0.014563588           14 
 4218000   0.57783284   -8.0117382    782.70478  0.015463584  0.014558909           17 
 4219000   0.58034764    -8.010916    782.31702   0.01545226  0.014554229           17 
 4220000   0.57720241   -8.0357388    782.18362  0.015445964  0.014549549           11 
 4221000   0.56945194     -8.04644    784.18314   0.01548178  0.014544867           21 
 4222000   0.58086838   -8.0330424    783.03484  0.015455448  0.014540192           12 
 4223000   0.57588256   -8.0400204    783.37005  0.015458403  0.014535517           13 
 4224000   0.58367423   -8.0197624    784.94156  0.015485747  0.014530844           12 
 4225000   0.56956222   -8.0317884    784.37708  0.015470948  0.014526175           16 
 4226000   0.57211398   -8.0427455    784.72272  0.015474103  0.014521509           21 
 4227000   0.56657963   -8.0175297    783.95936  0.015455393  0.014516846            7 
 4228000   0.56856187   -8.0474658    783.71678  0.015446956  0.014512178            9 
 4229000   0.55678688   -8.0341219    784.42922  0.015457343  0.014507514           14 
 4230000   0.56463291   -8.0189753    783.67636  0.015438856  0.014502853           14 
 4231000   0.56576579    -8.028852    782.92038  0.015420318  0.014498189           30 
 4232000    0.5754555   -8.0384646    783.00428  0.015418326  0.014493526           19 
 4233000   0.57575639   -8.0510262    784.05858  0.015435439  0.014488869           13 
 4234000   0.56224583   -8.0226839    783.98982   0.01543044  0.014484202           11 
 4235000   0.56596951   -8.0438978    783.59468  0.015419022  0.014479542           14 
 4236000   0.56457251   -8.0071025    783.71558   0.01541776  0.014474881           10 
 4237000   0.56635638   -8.0567303    782.79466  0.015396009  0.014470224           13 
 4238000   0.57199837   -8.0372557    783.92869  0.015414675  0.014465563           10 
 4239000   0.56373555    -8.040772    782.16866  0.015376438  0.014460903           12 
 4240000   0.55928549   -8.0481501    783.56983  0.015400351  0.014456248            9 
 4241000   0.57752119   -8.0367977    782.93665  0.015384278  0.014451595            5 
 4242000   0.58496008   -8.0371799    782.98275  0.015381556  0.014446941           16 
 4243000   0.57543492   -8.0434692    783.45872  0.015387279  0.014442292           12 
 4244000   0.57737004   -8.0542419    783.38932  0.015382291  0.014437642           13 
 4245000   0.56789055   -8.0313422    783.81915  0.015387105  0.014432995            8 
 4246000   0.57101845   -8.0333357    783.70758  0.015381292  0.014428349           14 
 4247000   0.56939194   -8.0488835    783.19562  0.015367625   0.01442371           23 
 4248000   0.57101778   -8.0370074    782.83025  0.015356839  0.014419063           10 
 4249000    0.5798508   -8.0266437    782.48763  0.015346506  0.014414425           11 
 4250000    0.5695741   -8.0310442    784.55433  0.015383418  0.014409781           11 
 4251000   0.57951695   -8.0230787    783.02046  0.015349731  0.014405138            9 
 4252000   0.57541984   -8.0463845    782.92326  0.015344216  0.014400497           10 
 4253000   0.56821412   -8.0636661    782.21899  0.015326808  0.014395855           15 
 4254000   0.57201879   -8.0280523    783.14968  0.015341437  0.014391206           12 
 4255000   0.57789909   -8.0303458    782.65231  0.015328091  0.014386566           11 
 4256000   0.56451665   -8.0362089    782.14102  0.015314478  0.014381925           12 
 4257000   0.57987719   -8.0180788    783.69601   0.01534132  0.014377287            9 
 4258000   0.57536016   -8.0502512    783.17811  0.015327582  0.014372655            8 
 4259000   0.57954912   -8.0433296    782.17822  0.015304418  0.014368016           20 
 4260000   0.57580194   -8.0332516    782.42617  0.015305676  0.014363377           14 
 4261000   0.55497703   -8.0189618    783.25619  0.015318317  0.014358744           13 
 4262000   0.58560103   -8.0544478     780.7977  0.015266653  0.014354117            9 
 4263000   0.56949092   -8.0526643    781.88237  0.015284275  0.014349485           12 
 4264000   0.57898797   -8.0490068      782.067  0.015284299   0.01434486           21 
 4265000   0.58409933   -8.0376937    782.32453  0.015285747  0.014340234           11 
 4266000   0.57715027   -8.0258771    783.61919  0.015307454  0.014335614            7 
 4267000   0.57018752     -8.03174    782.11112  0.015274415  0.014330996           10 
 4268000   0.57825193   -8.0413891    781.30874  0.015255169  0.014326378            9 
 4269000   0.57204052   -8.0400305    782.61466  0.015277088  0.014321764            8 
 4270000   0.56273627    -8.040539    782.67643  0.015274716  0.014317157           16 
 4271000   0.57797176   -8.0438383    781.82638  0.015254554  0.014312552            7 
 4272000   0.57511991   -8.0555559    782.75568   0.01526911  0.014307945            9 
 4273000   0.56918739   -8.0338359    783.28414  0.015275843  0.014303337           15 
 4274000   0.57205556   -8.0358516    783.54758  0.015277406  0.014298737           14 
 4275000   0.56014351   -8.0437417    782.40934  0.015251644  0.014294141           17 
 4276000   0.58052309   -8.0513726    781.67015  0.015233672  0.014289549           23 
 4277000   0.56393372   -8.0565481    783.74296  0.015270496  0.014284959            7 
 4278000   0.56217531   -8.0408596    782.45404  0.015241819  0.014280363            8 
 4279000   0.55722277   -8.0370171    782.58295  0.015240768  0.014275773            8 
 4280000   0.56885759   -8.0489001    782.70062  0.015239498  0.014271177           16 
 4281000   0.57640893   -8.0463641    783.16206  0.015244921  0.014266586           13 
 4282000   0.56615605   -8.0435466    784.08595   0.01525934  0.014261993           11 
 4283000   0.56824345   -8.0253811    782.28603  0.015220757  0.014257398           11 
 4284000    0.5616845   -8.0488536    783.26956  0.015236336  0.014252809           14 
 4285000   0.55462312   -8.0581472    783.07256  0.015228949  0.014248221            6 
 4286000   0.56448261    -8.042306    783.21847  0.015228233  0.014243634           11 
 4287000   0.56154291   -8.0569614    781.66531  0.015194489   0.01423905           12 
 4288000   0.57297322   -8.0419585    783.50179  0.015226636  0.014234465           11 
 4289000   0.55192407    -8.041782    783.50953  0.015223236   0.01422988           12 
 4290000   0.57028653     -8.06502    784.02089  0.015229621    0.0142253           14 
 4291000   0.57385664    -8.034398    782.16786  0.015190085  0.014220722           12 
 4292000   0.56678318   -8.0411818    782.48065  0.015192619  0.014216144            9 
 4293000   0.57114332   -8.0628636    783.23363  0.015203696  0.014211565           16 
 4294000    0.5806129   -8.0655174    782.35807  0.015183164  0.014206994           11 
 4295000   0.57693107   -8.0508582    780.85152  0.015150398  0.014202424           12 
 4296000   0.56500477   -8.0437828    782.55517  0.015179919  0.014197855           15 
 4297000   0.56643277   -8.0483618    782.83146  0.015181744  0.014193286            5 
 4298000    0.5731778   -8.0622764    782.98625  0.015181213  0.014188724            5 
 4299000   0.55465951   -8.0541334    783.49871  0.015187616  0.014184165           12 
 4300000   0.55822705   -8.0627571    782.79095  0.015170367  0.014179601           11 
 4301000   0.54859503   -8.0525357    783.37798  0.015178214  0.014175041           20 
 4302000   0.56805551   -8.0477455    783.49715  0.015176994  0.014170477            8 
 4303000   0.56730651   -8.0509644     782.7013  0.015158054  0.014165917            7 
 4304000   0.55885292    -8.047202      783.406  0.015168177  0.014161364            8 
 4305000   0.56986965   -8.0678523    781.89438  0.015135393  0.014156804            7 
 4306000   0.56432072   -8.0568095    782.30553  0.015139834  0.014152254            5 
 4307000    0.5469161   -8.0567018    783.24611  0.015154518  0.014147698            6 
 4308000   0.55359042   -8.0796487    781.79976  0.015123022  0.014143144           16 
 4309000   0.56395733   -8.0624497    781.45635  0.015112871  0.014138592           10 
 4310000   0.57273883   -8.0672538    782.20386  0.015123818  0.014134039           16 
 4311000    0.5620579   -8.0629876    782.42478   0.01512458  0.014129488           13 
 4312000   0.56549272   -8.0589665    782.45612  0.015121678  0.014124942            8 
 4313000   0.55707139   -8.0639501    784.26997  0.015153218  0.014120395           12 
 4314000   0.56727274   -8.0464878    784.34675  0.015151189  0.014115845            9 
 4315000   0.56044904   -8.0475547    782.34277  0.015108976  0.014111303           11 
 4316000    0.5587127   -8.0484305    782.71348  0.015112633  0.014106759           13 
 4317000   0.55355276   -8.0759913    780.64301  0.015069165  0.014102219           19 
 4318000   0.55523792    -8.075511    781.44061  0.015081068  0.014097677            8 
 4319000   0.57215502   -8.0598176    781.12214  0.015071431  0.014093136           15 
 4320000   0.56308863   -8.0477894    781.01607  0.015065897  0.014088595           10 
 4321000     0.571649   -8.0404232    782.34163  0.015087974  0.014084058           16 
 4322000     0.565065   -8.0759136    783.08155   0.01509875  0.014079526           13 
 4323000   0.55985652   -8.0441873    782.51234  0.015084285  0.014074993           12 
 4324000   0.55237407   -8.0588863    782.09544  0.015072761  0.014070457            6 
 4325000   0.56628277   -8.0578882    782.08649  0.015069104  0.014065924           11 
 4326000    0.5670343   -8.0444232    782.40685  0.015071792  0.014061399            7 
 4327000   0.56561978   -8.0540151    780.87758  0.015038856  0.014056872           14 
 4328000    0.5549034    -8.050157    781.67371  0.015050711  0.014052348            6 
 4329000   0.56024009    -8.052126    783.54858  0.015083325  0.014047829           10 
 4330000   0.57434395   -8.0377726    781.71982  0.015044646  0.014043314            8 
 4331000   0.55689709   -8.0715542     782.0662  0.015047837  0.014038796           10 
 4332000   0.54310688   -8.0728085    781.89893  0.015041146  0.014034273           11 
 4333000   0.56264303   -8.0511157    783.13876  0.015061519   0.01402975            9 
 4334000   0.54924688   -8.0659839    782.53232  0.015046384  0.014025241            9 
 4335000   0.55679533   -8.0627387     782.9217  0.015050398  0.014020736           11 
 4336000   0.55924585   -8.0653771     781.6449  0.015022388  0.014016228           11 
 4337000    0.5646693   -8.0629666    781.89618  0.015023753  0.014011724            8 
 4338000   0.55518255   -8.0465238    783.05989  0.015042644  0.014007223            8 
 4339000   0.55899086   -8.0546193    782.54371  0.015029264  0.014002727           10 
 4340000   0.55213226   -8.0707107    781.68695   0.01500935  0.013998226           15 
 4341000   0.56083231   -8.0674922    783.03463  0.015031764  0.013993734           13 
 4342000    0.5571325   -8.0625912    783.40898  0.015035486  0.013989239            5 
 4343000   0.56000067    -8.053982    782.57128  0.015015951  0.013984746            9 
 4344000   0.56587999    -8.050527     783.5328  0.015030939  0.013980253            8 
 4345000   0.55311747   -8.0753993    781.62204  0.014990833   0.01397576            7 
 4346000   0.54904587   -8.0757744    783.72994  0.015027802   0.01397127            5 
 4347000   0.54631685   -8.0664452    782.44842  0.014999778  0.013966781           18 
 4348000   0.55164554   -8.0732445    782.35086  0.014994458  0.013962292            8 
 4349000   0.54452174   -8.0654757    782.38159  0.014991599  0.013957808            6 
 4350000   0.55252761   -8.0689709    783.45608  0.015008737  0.013953327           11 
 4351000   0.55837708   -8.0656747    782.12177  0.014979732  0.013948849           12 
 4352000   0.54732427   -8.0671988     782.7709   0.01498872  0.013944362           15 
 4353000   0.56311294   -8.0603331    781.51223  0.014961181  0.013939875           16 
 4354000   0.55555268   -8.0743249    781.37751  0.014955166  0.013935393            8 
 4355000   0.55492732   -8.0710069    782.88578  0.014980593  0.013930918           13 
 4356000   0.55239122   -8.0718264    782.31302  0.014966196  0.013926441            7 
 4357000   0.54892339   -8.0362816    782.72767  0.014970692  0.013921971            6 
 4358000   0.55738542   -8.0543489    781.11709   0.01493646    0.0139175            6 
 4359000   0.54753049   -8.0723979    782.72433  0.014963759  0.013913029           10 
 4360000   0.56083875   -8.0565586    781.93785  0.014945295  0.013908562           14 
 4361000   0.56336875   -8.0612301    783.20139  0.014966013  0.013904096            7 
 4362000   0.54459872   -8.0437594    782.13269  0.014942165  0.013899624           12 
 4363000   0.55616767   -8.0728626    781.85283  0.014933395  0.013895163           11 
 4364000   0.55814134   -8.0553993    783.17947  0.014955306  0.013890702           10 
 4365000   0.55459738   -8.0900445    783.09531  0.014950273  0.013886242           11 
 4366000   0.55220243    -8.063651    781.87428  0.014923543  0.013881776           11 
 4367000   0.55348948   -8.0725962    782.20151   0.01492637  0.013877313           13 
 4368000   0.54601764   -8.0820786    781.78824  0.014915069  0.013872846           15 
 4369000   0.55255313   -8.0874124    782.69176  0.014928888   0.01386838            9 
 4370000   0.55633067   -8.0529412    782.83347  0.014928175  0.013863916            8 
 4371000   0.56080395   -8.0981866    782.45019  0.014917452  0.013859455           10 
 4372000   0.54717406   -8.0720007    781.01267   0.01488664  0.013854996            6 
 4373000   0.56083942   -8.0645898     781.5979  0.014894388   0.01385054            9 
 4374000   0.55218329   -8.0847085     782.9078  0.014915939  0.013846092            7 
 4375000   0.56278821   -8.0669469     781.2761   0.01488145  0.013841642            9 
 4376000   0.55586703   -8.0853257    781.67408  0.014885628  0.013837194           10 
 4377000   0.56595422    -8.076818    782.73747  0.014902473  0.013832753           11 
 4378000   0.55833912   -8.0691524    782.41578  0.014892945   0.01382831           12 
 4379000   0.54909113   -8.0833599    783.79055  0.014915707  0.013823864            6 
 4380000   0.55339545   -8.0604967    782.79899  0.014893436  0.013819421            9 
 4381000   0.55059605   -8.0758861    782.48027  0.014883974  0.013814983            6 
 4382000   0.55845788   -8.0776379    781.74044  0.014866508  0.013810548            8 
 4383000   0.55339736   -8.0815073     782.0693  0.014869368  0.013806105           12 
 4384000   0.56584839   -8.0711559    780.65968  0.014839182   0.01380167           13 
 4385000   0.55769123   -8.0754393    781.95379  0.014860391  0.013797229           14 
 4386000   0.54809547   -8.0836071    780.94377  0.014837813  0.013792794            8 
 4387000   0.54921089   -8.0789959    781.81207  0.014850924  0.013788357           13 
 4388000   0.54894752   -8.0762594    782.81461  0.014866579  0.013783923            9 
 4389000   0.54402686   -8.0871777    781.91932  0.014846194  0.013779487            4 
 4390000   0.54481919   -8.0634599    781.90237   0.01484249  0.013775058            8 
 4391000   0.54306902   -8.0761175    780.70086  0.014816307   0.01377063            5 
 4392000   0.54601985    -8.086324    781.14228  0.014821309  0.013766204            9 
 4393000   0.54752252   -8.0804851    781.44054  0.014823593  0.013761776            9 
 4394000   0.54948973   -8.0926708     782.0439  0.014831663  0.013757355            8 
 4395000   0.54185455   -8.0770918    782.72198  0.014841145  0.013752935            5 
 4396000    0.5394126   -8.0933112    782.54014  0.014834322  0.013748516            4 
 4397000   0.54550863   -8.0725043    781.41049  0.014809539  0.013744098            4 
 4398000   0.54162074   -8.0765037    781.70201  0.014811695  0.013739677           13 
 4399000   0.55017164   -8.0750164    782.77163   0.01482859  0.013735259           11 
 4400000   0.55610237   -8.0866345    781.54546  0.014801997  0.013730842            7 
 4401000   0.54107268   -8.0879222     780.8374  0.014785227  0.013726423            9 
 4402000   0.56007074   -8.0924528    780.82655  0.014781663  0.013722012            7 
 4403000   0.54609205   -8.0918696    781.56057  0.014792198  0.013717595           11 
 4404000   0.55447354   -8.0947507    781.48895  0.014787484  0.013713188            9 
 4405000   0.53829989   -8.0905908    781.46964  0.014783762  0.013708775           10 
 4406000   0.54414708    -8.087671    781.54243  0.014781783  0.013704363           19 
 4407000    0.5503581   -8.0858624    781.92999  0.014785757   0.01369996           10 
 4408000   0.54943392   -8.0765805    782.35183  0.014790378  0.013695555           11 
 4409000   0.54424584   -8.0787818     781.1708  0.014764701   0.01369115           10 
 4410000   0.53789946   -8.0986728    780.46602  0.014748035  0.013686748           17 
 4411000   0.53911661   -8.0956141    781.86013  0.014771029  0.013682351           12 
 4412000   0.54691053   -8.0934286    780.28879  0.014738002  0.013677955            8 
 4413000   0.53880638   -8.0809208    781.72952  0.014761869  0.013673558           12 
 4414000   0.55270404   -8.0851264    781.47602  0.014753738  0.013669162            9 
 4415000   0.55518714   -8.0811458    780.53199  0.014732578  0.013664766           20 
 4416000   0.54020787   -8.0952058    781.34073  0.014744503  0.013660373           16 
 4417000   0.54665595   -8.0784733    781.96111   0.01475287  0.013655986           12 
 4418000    0.5538421   -8.0934892    781.18892  0.014734965  0.013651604           14 
 4419000     0.534189   -8.0968299    780.53877   0.01471937  0.013647219           15 
 4420000   0.55106085   -8.1049162    782.08308  0.014745156  0.013642833           14 
 4421000   0.54961267   -8.1040273    780.61254  0.014714102  0.013638452            9 
 4422000   0.54342616   -8.0810845    782.85777  0.014753086  0.013634071           10 
 4423000   0.55004795   -8.0910889    780.45461  0.014704473  0.013629694           14 
 4424000   0.55023395   -8.0695503    781.78391  0.014726189  0.013625317            9 
 4425000    0.5463238   -8.1075992    780.44341  0.014697616  0.013620938            7 
 4426000   0.53088806   -8.0873219     782.0239  0.014724053  0.013616562           20 
 4427000   0.53331519   -8.0855607    780.64224  0.014694719  0.013612191           16 
 4428000   0.54229214   -8.0862219    781.45786   0.01470675  0.013607814           10 
 4429000   0.54480492    -8.087595    782.12904  0.014716058  0.013603444            7 
 4430000   0.54459547   -8.0832171    781.27879  0.014696742  0.013599074            7 
 4431000   0.54502649   -8.0793174      780.635  0.014681317  0.013594702           11 
 4432000   0.54357641   -8.0973556     779.9095  0.014664363  0.013590336            8 
 4433000   0.53969852   -8.0782703    781.69789  0.014694674  0.013585974           11 
 4434000   0.53771651     -8.10334    782.21816  0.014701138  0.013581618           13 
 4435000   0.53310797   -8.0977139    781.83801   0.01469068   0.01357726            7 
 4436000   0.53931619   -8.0930432    780.75086  0.014666946  0.013572903           15 
 4437000   0.54670873   -8.0783139    782.61516  0.014698654   0.01356855           23 
 4438000   0.53556913   -8.0849828    782.43491  0.014691958  0.013564199           19 
 4439000   0.55001787   -8.0845358    781.42444  0.014669679  0.013559851            6 
 4440000   0.53844396   -8.0851689    782.34126  0.014683582  0.013555501            5 
 4441000   0.54757246   -8.0815599    781.74958  0.014669173  0.013551151            7 
 4442000   0.54089821   -8.0795764     781.7239  0.014665389  0.013546803            8 
 4443000   0.53897848   -8.0907517    781.05615  0.014649564  0.013542456            7 
 4444000   0.53763919   -8.1058839    781.84776  0.014661112  0.013538112            8 
 4445000   0.53256907   -8.0888582    780.82586  0.014638655  0.013533771            7 
 4446000   0.53358882   -8.0862714    780.56832  0.014630535  0.013529431            3 
 4447000   0.54349873   -8.1008439    780.89875  0.014633437   0.01352509            4 
 4448000   0.54451229   -8.0971632    780.50393  0.014622751  0.013520747            7 
 4449000   0.55204422   -8.0885014    781.01305     0.014629  0.013516405           10 
 4450000   0.54033726   -8.0890163    782.15798  0.014647153   0.01351207            7 
 4451000   0.52657441   -8.0683475    782.14259  0.014643574  0.013507735           11 
 4452000   0.53737434   -8.1065463    780.77918  0.014614765  0.013503404            9 
 4453000   0.53601655   -8.0897353    782.11117  0.014636409  0.013499073           12 
 4454000   0.52946368   -8.0821532    781.36408  0.014619145  0.013494737           11 
 4455000   0.53749051   -8.1174481    781.88106  0.014625534  0.013490401           11 
 4456000   0.52997364   -8.0945806    780.65469  0.014599317  0.013486072            9 
 4457000   0.53381374   -8.0923972    780.51498  0.014593429  0.013481745            9 
 4458000   0.53437641   -8.0874177    780.36423  0.014587338  0.013477416           10 
 4459000    0.5438172   -8.0727748    782.09316  0.014616378  0.013473092           10 
 4460000   0.53469736   -8.0940342    781.94548  0.014610342  0.013468772            9 
 4461000   0.54404538   -8.1053558    781.79608  0.014604276  0.013464453            7 
 4462000   0.53325687   -8.0773095    779.72058   0.01456224   0.01346014           11 
 4463000   0.55327977     -8.09239    780.87043  0.014580447  0.013455827           12 
 4464000    0.5343038   -8.0937454    781.80352    0.0145946  0.013451506            6 
 4465000   0.53834124   -8.0953062    781.00018  0.014576338  0.013447186           18 
 4466000   0.53741777   -8.0839093    781.51679  0.014582714  0.013442872           10 
 4467000   0.53548395   -8.1033433    780.18062  0.014554522  0.013438555           11 
 4468000   0.54133061   -8.0985333    779.55028  0.014539508  0.013434241           18 
 4469000   0.52137754   -8.1132069    780.60351  0.014555895  0.013429929           15 
 4470000   0.54917753    -8.088777    781.01957  0.014560395   0.01342562           23 
 4471000   0.53350009   -8.0817362    780.18815  0.014541641  0.013421313           22 
 4472000   0.53762792   -8.1021678    781.71006   0.01456675  0.013417004            9 
 4473000    0.5259508   -8.0934586    780.35584  0.014538264  0.013412695            7 
 4474000   0.54632848   -8.0992211    780.10149  0.014530277  0.013408387            9 
 4475000   0.53520086   -8.0969974     779.9045  0.014523361  0.013404078           23 
 4476000   0.53167451   -8.0935827    780.46472  0.014530547  0.013399772           20 
 4477000   0.53650395   -8.1002824    780.26285  0.014523544  0.013395462           19 
 4478000   0.53582097   -8.1024241    781.11096  0.014536083  0.013391158           23 
 4479000    0.5440953   -8.1190126    781.04706  0.014531649  0.013386854           10 
 4480000   0.53316151   -8.0951386     780.7264   0.01452244  0.013382551           12 
 4481000   0.53749357   -8.0955172    779.82765  0.014502486  0.013378257            9 
 4482000   0.53925463   -8.1089467    781.04607  0.014521904  0.013373963            6 
 4483000    0.5345409   -8.1004428    780.43721  0.014507346  0.013369671           15 
 4484000   0.52933726   -8.1120431    780.84569  0.014511703  0.013365379            8 
 4485000   0.53939773   -8.0966993    780.07997   0.01449424  0.013361081           12 
 4486000   0.53361162   -8.0963059    780.65377  0.014501668  0.013356785           12 
 4487000    0.5362376   -8.1037529    780.37336  0.014493228  0.013352495           11 
 4488000   0.54066027   -8.1182107    779.43108  0.014472502  0.013348206           11 
 4489000   0.53871789   -8.0984158    779.97146   0.01447931  0.013343919           10 
 4490000   0.52633819   -8.1110954    779.16478  0.014461113  0.013339633           13 
 4491000    0.5339248   -8.1017042    779.69514  0.014467734   0.01333535           17 
 4492000    0.5401565   -8.1162423    780.94095  0.014487625  0.013331068           18 
 4493000   0.53003683   -8.1007617    780.71191  0.014480153  0.013326783           17 
 4494000   0.52168681   -8.1085341    780.34442  0.014470116  0.013322504            6 
 4495000   0.52630962   -8.0858129    779.64551   0.01445394  0.013318224           16 
 4496000   0.53419066   -8.0942943    780.22194  0.014461409  0.013313946            7 
 4497000   0.53853241   -8.1059191    782.94807  0.014508711  0.013309671           14 
 4498000   0.53222446    -8.107796    781.61935  0.014480868  0.013305394           15 
 4499000    0.5240971    -8.106917    779.42986  0.014437094  0.013301118           13 
 4500000   0.52891062   -8.1102943    779.89236  0.014442451  0.013296846           13 
 4501000   0.52565441   -8.1061046    780.88755  0.014457668  0.013292576           10 
 4502000   0.53523298   -8.1069521    780.07974  0.014439504  0.013288307            6 
 4503000   0.52379912   -8.1071305    778.91783  0.014414794  0.013284038           17 
 4504000   0.52784095   -8.1139415    779.99128  0.014431455  0.013279766           14 
 4505000   0.54657129   -8.1115855    779.69736  0.014422815  0.013275503           16 
 4506000   0.53895001   -8.1027171    780.72876  0.014438688  0.013271239           14 
 4507000   0.52643086   -8.1118397     781.0832  0.014442038  0.013266978           13 
 4508000   0.53294726   -8.1014644    780.93968  0.014436182   0.01326272           13 
 4509000   0.52989744   -8.1142587    781.38278  0.014441169  0.013258463            8 
 4510000   0.52621772   -8.1083092    781.05261  0.014431866  0.013254209            9 
 4511000   0.51925547   -8.1091652     780.3523   0.01441573  0.013249956           11 
 4512000   0.51122066   -8.0984551    780.52726  0.014415767  0.013245709            7 
 4513000   0.52177325   -8.1035193    779.32867   0.01439044  0.013241453           14 
 4514000   0.52097803    -8.111934    780.28877  0.014404977  0.013237205            9 
 4515000   0.53025973   -8.1076356    780.24071  0.014400899  0.013232956            8 
 4516000   0.52705844    -8.123546    778.88187  0.014372636  0.013228706           13 
 4517000   0.54015765   -8.0988739    779.16016  0.014374588  0.013224461           10 
 4518000   0.53261708   -8.1016072    781.38644  0.014412469  0.013220218            7 
 4519000   0.54918521    -8.121283    781.43723  0.014410217  0.013215979           12 
 4520000   0.51984361   -8.1333791    779.59953  0.014373148  0.013211737           21 
 4521000   0.53592489   -8.1215406     779.8952  0.014375418  0.013207493           12 
 4522000   0.53215552   -8.1032477    780.48385  0.014383087  0.013203258            9 
 4523000   0.52180763    -8.114528    780.82405  0.014386175  0.013199017           14 
 4524000   0.53505658   -8.1260442    779.46049  0.014357878  0.013194775           11 
 4525000   0.53063021   -8.1121038    780.78326  0.014379066  0.013190539            9 
 4526000   0.52495902   -8.1244013    779.47846  0.014351864  0.013186302           13 
 4527000   0.52512542   -8.1088337    778.97706  0.014339464  0.013182068            8 
 4528000   0.52760832   -8.1164171    780.40131  0.014362509  0.013177836           11 
 4529000   0.52505161   -8.1177586    781.11667  0.014372501  0.013173607            9 
 4530000   0.52542401   -8.1141916    780.30101  0.014354323  0.013169376           12 
 4531000   0.52182835   -8.1254659    779.24285  0.014331694  0.013165151            9 
 4532000   0.53213198   -8.1330574    780.26827  0.014347387  0.013160929            8 
 4533000   0.51704575   -8.1140882    780.76461  0.014353346  0.013156708            5 
 4534000   0.53298248   -8.1072284    779.45447    0.0143261  0.013152483           11 
 4535000   0.51705623   -8.1177552    779.80063  0.014329302  0.013148261            7 
 4536000   0.51747666   -8.0954105    781.58508  0.014358926  0.013144044           11 
 4537000    0.5270274   -8.1278238    780.43858  0.014334703  0.013139829           15 
 4538000   0.52534421   -8.1329595    779.96613  0.014322869  0.013135613           17 
 4539000   0.52537043   -8.0993652    780.45054  0.014328607  0.013131396           11 
 4540000   0.52488527   -8.1203805    778.93003  0.014297541  0.013127182            6 
 4541000   0.52846577   -8.1141822    779.68456  0.014308239  0.013122968           11 
 4542000   0.52053574   -8.1291075    778.40917  0.014281689  0.013118758            8 
 4543000   0.51529017   -8.1247372    780.23964  0.014312122  0.013114547            9 
 4544000   0.52179855   -8.1168382    780.34424  0.014310891  0.013110339           10 
 4545000   0.52919349   -8.1158608    780.55002  0.014311515  0.013106132           15 
 4546000   0.53800247    -8.139737    780.06392  0.014299456  0.013101923            6 
 4547000   0.52299493   -8.1158566    780.40383  0.014302541  0.013097716           15 
 4548000   0.52143777   -8.1258154    780.97462  0.014309854  0.013093512           12 
 4549000   0.51867542   -8.1298125    780.22113  0.014292906  0.013089307            8 
 4550000   0.53497995   -8.1318333    779.59744  0.014278341  0.013085103            7 
 4551000   0.52041985   -8.1270025    779.19238  0.014267787  0.013080902           11 
 4552000   0.52995081   -8.1297873    779.17374  0.014264311  0.013076703            6 
 4553000   0.52387809    -8.112569    778.68517  0.014252236  0.013072511           11 
 4554000   0.51969565   -8.1121786    779.75167  0.014268622  0.013068314            8 
 4555000   0.51803858   -8.1222854    780.90756  0.014286637  0.013064128            4 
 4556000   0.52978839   -8.1293837    780.56866  0.014277302  0.013059937            7 
 4557000   0.51819613   -8.1215715    781.23763  0.014286402  0.013055747            8 
 4558000   0.51815598   -8.1166275    780.43887  0.014268664  0.013051557            7 
 4559000   0.52778515   -8.1326824    778.42749  0.014228769  0.013047368            7 
 4560000   0.52601215   -8.1227922    779.27933  0.014241216  0.013043181            6 
 4561000   0.52648254   -8.1371408    778.64011  0.014226414  0.013038997            9 
 4562000   0.52405067   -8.1198044    779.05215  0.014230823   0.01303481            8 
 4563000   0.52410186   -8.1329665    781.11856  0.014265442  0.013030625            6 
 4564000   0.51280113   -8.1288187    778.30582  0.014210959  0.013026441            9 
 4565000   0.52690533    -8.137229    779.55165  0.014230589  0.013022258           11 
 4566000   0.50740041   -8.1265532    779.50728  0.014226662  0.013018076           11 
 4567000   0.52139727   -8.1378324    779.58812  0.014225022  0.013013896            5 
 4568000   0.51070577   -8.1306015    778.64256  0.014204659  0.013009715            8 
 4569000   0.51263962   -8.1233748    779.59143  0.014218856  0.013005541           14 
 4570000   0.51506207   -8.1163399    779.95729  0.014222416   0.01300137           11 
 4571000   0.51734598   -8.1357597     780.3604  0.014226654  0.012997198           12 
 4572000   0.52404939    -8.138801    781.37813  0.014242092  0.012993028           16 
 4573000   0.51713241   -8.1305865    779.90003  0.014212042  0.012988856           13 
 4574000   0.51623999   -8.1226674    779.99187  0.014210608  0.012984689           21 
 4575000   0.51755061   -8.1328025    778.98774  0.014189212  0.012980521            6 
 4576000   0.52437564   -8.1186854    779.87584  0.014202284  0.012976357           12 
 4577000   0.52116882    -8.141058    779.03337  0.014183843  0.012972191           17 
 4578000   0.51591672   -8.1323912    779.87739  0.014196108  0.012968029            9 
 4579000   0.51331207   -8.1227268    778.49706  0.014167887  0.012963868           11 
 4580000   0.52119698   -8.1452854     778.6213  0.014167054  0.012959706            8 
 4581000   0.51123516    -8.143844    779.79446  0.014185303  0.012955549           10 
 4582000   0.51697878   -8.1436088    779.66506  0.014179853  0.012951387            8 
 4583000   0.52885827   -8.1292105       780.31  0.014188487  0.012947233            8 
 4584000    0.5243529   -8.1416957    780.05798   0.01418081  0.012943074            9 
 4585000   0.51626818   -8.1317151    778.21428  0.014144207  0.012938921           12 
 4586000   0.51402659   -8.1396117    778.91878  0.014153925  0.012934772           14 
 4587000   0.50961117   -8.1415689    779.71573  0.014165317  0.012930626           13 
 4588000   0.51880175   -8.1392202    778.98643  0.014148983  0.012926478            8 
 4589000     0.517127   -8.1346226    779.86868  0.014161921  0.012922335            7 
 4590000   0.51998893   -8.1257376    779.36256  0.014149647  0.012918192           11 
 4591000   0.53087953   -8.1464944    780.08694  0.014159714  0.012914052           12 
 4592000   0.53310184   -8.1398234    779.90325  0.014153297  0.012909908            9 
 4593000     0.505714   -8.1226861    780.77576  0.014166045  0.012905769            7 
 4594000   0.52312491   -8.1421233    780.35704  0.014155366  0.012901629            8 
 4595000   0.52156291   -8.1265665    778.10084  0.014111368  0.012897489           12 
 4596000   0.52220064   -8.1478433    778.07256  0.014107785  0.012893355           11 
 4597000   0.50855336   -8.1248351    779.84563  0.014136858  0.012889218            7 
 4598000   0.51220831   -8.1540878    778.85024  0.014115743  0.012885088           10 
 4599000   0.51141057   -8.1419775    778.81852  0.014112099  0.012880956           10 
 4600000   0.51162482   -8.1404495    779.44808  0.014120436  0.012876825            8 
 4601000   0.51197561   -8.1173234    780.05501   0.01412836  0.012872698           10 
 4602000   0.51505782   -8.1284196    780.01755  0.014124612  0.012868572           13 
 4603000    0.5152864   -8.1519924    778.93121  0.014101876  0.012864448            9 
 4604000   0.51315728   -8.1357256    779.16894  0.014103116  0.012860328            9 
 4605000   0.51750638   -8.1455092    779.43941  0.014104948  0.012856204           14 
 4606000   0.52145717   -8.1537177    778.38243  0.014082762  0.012852083            8 
 4607000   0.51577266   -8.1454239     778.6596  0.014084719  0.012847963           11 
 4608000   0.51229183   -8.1413189    779.08667  0.014089386  0.012843847            9 
 4609000    0.5116206   -8.1348035    779.60766  0.014095748  0.012839728            9 
 4610000   0.52778586   -8.1361456    778.41091  0.014071058  0.012835614           11 
 4611000   0.51549787   -8.1335939    779.03358  0.014079259  0.012831498           11 
 4612000   0.50986141   -8.1393525    779.37535  0.014082382  0.012827386            9 
 4613000   0.51597419   -8.1418869    780.18713  0.014093994  0.012823275           11 
 4614000     0.515026   -8.1336494    778.97158  0.014068985  0.012819168           11 
 4615000   0.52625072   -8.1431508     779.0744  0.014067793  0.012815064           10 
 4616000   0.51100039   -8.1376639    779.16718  0.014066421  0.012810959           14 
 4617000   0.51363408    -8.150365    779.00068  0.014060369  0.012806857            6 
 4618000   0.52123196   -8.1353267    778.44951  0.014047378  0.012802755            8 
 4619000   0.49583042   -8.1369803    778.71996  0.014049216  0.012798656           14 
 4620000   0.51453748   -8.1275938    780.12975  0.014071604  0.012794562            6 
 4621000   0.51595068   -8.1489843    779.36398   0.01405475  0.012790466            9 
 4622000    0.4989794   -8.1274911    779.84879   0.01406045  0.012786369            7 
 4623000   0.52383636   -8.1373206    777.87741  0.014021873  0.012782273            8 
 4624000   0.50421899   -8.1441729    780.14091  0.014059633  0.012778183            9 
 4625000   0.50291875   -8.1400275    777.57289  0.014010322   0.01277409           13 
 4626000   0.51394794   -8.1456722    779.10914  0.014034968  0.012769998            7 
 4627000   0.50669493   -8.1493354    778.77563  0.014025928  0.012765908            9 
 4628000   0.52199912   -8.1498362    778.31234  0.014014555  0.012761817            9 
 4629000   0.51243792   -8.1502349    778.08159  0.014007374  0.012757733           18 
 4630000   0.51143033   -8.1232352    778.56614   0.01401307  0.012753646           10 
 4631000   0.51084079   -8.1447093    778.81326   0.01401449  0.012749561           13 
 4632000   0.50118039   -8.1392596    779.16082  0.014017718   0.01274548            7 
 4633000   0.51384147   -8.1371944    779.50972  0.014020968  0.012741395            6 
 4634000    0.5021744   -8.1469402    779.24164  0.014013121  0.012737314            9 
 4635000   0.50371352   -8.1416514    778.78651  0.014001915  0.012733233            4 
 4636000   0.50614167   -8.1394774    778.94312   0.01400171  0.012729153           10 
 4637000   0.50999153   -8.1463135    779.15886  0.014002567  0.012725074            7 
 4638000   0.50678811   -8.1507885    778.87912  0.013994522  0.012720998           12 
 4639000   0.51726554   -8.1428095    777.99509  0.013975625  0.012716923            7 
 4640000   0.51694418    -8.149522    778.79477  0.013986975  0.012712847            6 
 4641000    0.5085453   -8.1371162    777.68557  0.013964045  0.012708776           15 
 4642000   0.50275928   -8.1302834    779.32428  0.013990455  0.012704705           13 
 4643000   0.51799785   -8.1469493    778.44477  0.013971656  0.012700634           17 
 4644000   0.50207092   -8.1577891    778.62297  0.013971845  0.012696567           10 
 4645000   0.51333711   -8.1440767    777.45074  0.013947807  0.012692504            9 
 4646000   0.50774311   -8.1547597    780.07075  0.013991799  0.012688438            9 
 4647000   0.50581128   -8.1422472    778.92588  0.013968257  0.012684375           19 
 4648000   0.51369117   -8.1443178    779.33942  0.013972666  0.012680317            7 
 4649000   0.51058216   -8.1497014    777.92361  0.013944282  0.012676259           11 
 4650000   0.50436285   -8.1401803    779.10244  0.013962409  0.012672201           14 
 4651000   0.51346527     -8.14454    779.78871  0.013971703  0.012668144           11 
 4652000   0.50092098   -8.1532386    778.58181   0.01394708  0.012664087            7 
 4653000   0.51715603   -8.1366776     778.7287  0.013946714  0.012660035           21 
 4654000   0.49961531   -8.1512347    780.30967  0.013972025  0.012655986            8 
 4655000   0.50103953   -8.1473829    778.73334  0.013940805  0.012651935           10 
 4656000   0.50583275   -8.1615821    778.99208  0.013942441  0.012647886           12 
 4657000    0.4950121   -8.1539397    779.52613  0.013949004   0.01264384            8 
 4658000   0.51244906   -8.1415239    778.37791  0.013925467  0.012639795            8 
 4659000   0.50510137    -8.174007    779.34521   0.01393978  0.012635753           10 
 4660000   0.50734746   -8.1548972    778.39857   0.01391986  0.012631707           10 
 4661000   0.50843034   -8.1407005    779.43122  0.013935336  0.012627668            9 
 4662000   0.50120881   -8.1437406    778.18455  0.013910063  0.012623628           11 
 4663000   0.50951575   -8.1549403    778.47568  0.013912283  0.012619589            9 
 4664000   0.50458116   -8.1476236    778.94036  0.013917602  0.012615554            7 
 4665000   0.50210936   -8.1384601    778.02459   0.01389826  0.012611517           10 
 4666000   0.50844516   -8.1593931    778.35678  0.013901214  0.012607482           13 
 4667000   0.50295935   -8.1549171    780.24116  0.013931883  0.012603448            9 
 4668000   0.51166329   -8.1560105    778.88522  0.013904692  0.012599416            8 
 4669000   0.51032864   -8.1615364    778.78836  0.013899985  0.012595388            9 
 4670000   0.52195599   -8.1545832    778.36686  0.013889487  0.012591363           16 
 4671000   0.49522459   -8.1668667    777.65632  0.013873837  0.012587332           10 
 4672000   0.51218795     -8.15014    778.74813  0.013890342  0.012583306            6 
 4673000    0.5081078   -8.1388216    778.20788  0.013877735  0.012579284           12 
 4674000   0.50529826   -8.1494427    777.90354   0.01386934  0.012575266            8 
 4675000   0.51212943   -8.1606232    779.41264  0.013893273  0.012571243            8 
 4676000   0.51495089   -8.1523325    778.56476  0.013875192  0.012567229           11 
 4677000   0.50803766   -8.1497203    778.28364  0.013867216   0.01256321           12 
 4678000   0.51511067   -8.1559175    779.04687  0.013877848  0.012559197            8 
 4679000     0.498522   -8.1507762    778.59569  0.013866846  0.012555179           14 
 4680000   0.50493061   -8.1533384    777.88199  0.013851175  0.012551167            6 
 4681000   0.50488745   -8.1357405    777.98343  0.013850022  0.012547157           13 
 4682000   0.50436826   -8.1492275      779.299  0.013870479  0.012543149            9 
 4683000   0.50745996   -8.1657964    778.13198   0.01384675  0.012539141           10 
 4684000   0.49895468   -8.1532553     777.5604  0.013833625  0.012535133           11 
 4685000   0.49966923    -8.167078    778.37252  0.013845118  0.012531124           10 
 4686000   0.50177067   -8.1620814    778.43602  0.013843292  0.012527118            9 
 4687000   0.49697502   -8.1734376    778.46407  0.013840838  0.012523114            7 
 4688000   0.49845875   -8.1569012    778.27392  0.013834505  0.012519111           12 
 4689000    0.5023065   -8.1541381    779.12614    0.0138467  0.012515111           11 
 4690000    0.4994611   -8.1455295    777.96524  0.013823121  0.012511114           12 
 4691000   0.48944659   -8.1426444    778.27456  0.013825669  0.012507123           12 
 4692000   0.51040205   -8.1610329    778.65467  0.013829473  0.012503126           15 
 4693000   0.49733106   -8.1615261    776.71093  0.013792012  0.012499131            7 
 4694000   0.49916938   -8.1494636    778.18066  0.013815166  0.012495137            9 
 4695000   0.50743015   -8.1673385    779.74964  0.013840072  0.012491149           10 
 4696000   0.49219009   -8.1497288    778.77162  0.013819769  0.012487159           13 
 4697000   0.50008574    -8.162146    777.62178  0.013796426  0.012483175           11 
 4698000   0.49664868   -8.1572862    777.77938  0.013796285  0.012479186           14 
 4699000   0.50864756   -8.1710195    777.47132  0.013787886  0.012475197            8 
 4700000    0.5078371   -8.1846144    777.78029  0.013790431  0.012471208            8 
 4701000   0.49814975   -8.1631556    777.74915  0.013786945  0.012467224           11 
 4702000    0.4929597   -8.1735906    779.76245  0.013819695  0.012463241            8 
 4703000   0.50656273   -8.1782328      778.471  0.013793873  0.012459258            8 
 4704000   0.50006329   -8.1473265    778.69122  0.013794842  0.012455279            8 
 4705000   0.49021432   -8.1552002    777.35006  0.013768155  0.012451301           10 
 4706000   0.50032869   -8.1729344    777.56113  0.013768967  0.012447324           12 
 4707000   0.50884469    -8.171045    778.35842  0.013780158  0.012443349           16 
 4708000   0.49772436   -8.1528925    775.89192  0.013733573  0.012439374           11 
 4709000   0.49129431   -8.1620241    778.12005  0.013770087  0.012435403            8 
 4710000   0.50560583   -8.1699764    779.12895  0.013785013  0.012431435            7 
 4711000   0.49594589   -8.1692489    777.75412  0.013757768  0.012427465            7 
 4712000   0.49994068   -8.1647214    779.20419  0.013780493  0.012423497           14 
 4713000     0.513931   -8.1696162    777.75093  0.013751873  0.012419529            9 
 4714000   0.49438986   -8.1639336    778.80005  0.013767502  0.012415567           15 
 4715000   0.50305892   -8.1624378    778.77402  0.013764122  0.012411602            6 
 4716000   0.50479085   -8.1889273    778.40586  0.013754698  0.012407638           13 
 4717000   0.49973558   -8.1577674    776.93031  0.013725714  0.012403677           12 
 4718000   0.49046049   -8.1577268    777.75993  0.013737458  0.012399718           10 
 4719000   0.49647346   -8.1700313    777.77842  0.013734874   0.01239576           10 
 4720000   0.50564467   -8.1648334    778.24392  0.013740182  0.012391804           11 
 4721000   0.50104706   -8.1736702    779.35941  0.013756962  0.012387846           11 
 4722000   0.49711588   -8.1657903     777.3319  0.013718267  0.012383889            8 
 4723000     0.510585   -8.1528516     776.8258  0.013706433  0.012379932           14 
 4724000   0.49979483   -8.1758806    778.27913  0.013729169  0.012375982           10 
 4725000   0.50963123   -8.1551101    778.23562  0.013725496   0.01237203           10 
 4726000   0.50351216   -8.1592549    778.07345  0.013719732  0.012368086            8 
 4727000   0.50153976   -8.1664824    777.80796  0.013712149  0.012364139            6 
 4728000   0.48963247   -8.1788094    777.02928  0.013695525  0.012360198           12 
 4729000   0.50122897   -8.1869295    778.54847  0.013719399  0.012356257           13 
 4730000   0.49471624   -8.1697313    777.14736  0.013691814  0.012352314           10 
 4731000   0.48526874   -8.1557275    776.37634  0.013675339  0.012348377            8 
 4732000   0.49395689   -8.1765992    777.29528  0.013688632  0.012344438           10 
 4733000   0.48795179   -8.1672209    778.79431  0.013712133  0.012340504           11 
 4734000   0.48311918   -8.1589529    777.75219  0.013690892  0.012336569           16 
 4735000   0.48218556   -8.1641487    777.36299  0.013681151  0.012332632           14 
 4736000   0.49567713   -8.1619438     777.0513  0.013672778  0.012328701            7 
 4737000   0.49135268   -8.1598826    777.91437  0.013685074  0.012324772           14 
 4738000   0.50575977    -8.182575    776.44126  0.013656277  0.012320844           11 
 4739000   0.48782079   -8.1812313    777.53943  0.013672706  0.012316918           10 
 4740000    0.4892146   -8.1592517    778.83131  0.013692534  0.012312992           12 
 4741000   0.49433558   -8.1772053    778.61476  0.013685839  0.012309067            9 
 4742000   0.48362809   -8.1712916    776.37766  0.013643639  0.012305142           11 
 4743000   0.49855034   -8.1876742    777.80407  0.013665825   0.01230122           14 
 4744000   0.50278833   -8.1722087    779.10055  0.013685718  0.012297302            9 
 4745000   0.48963598   -8.1782455    776.78663  0.013642196  0.012293381           15 
 4746000   0.49164745   -8.1645684    777.40374  0.013650157  0.012289462           18 
 4747000   0.49994503   -8.1790238    777.71848  0.013652807  0.012285542           15 
 4748000   0.49542503   -8.1765517    777.75599   0.01365059  0.012281624           19 
 4749000   0.49129334   -8.1807989    776.38431  0.013623645  0.012277708           17 
 4750000   0.48262196   -8.1623145    777.77185   0.01364512  0.012273791           14 
 4751000   0.50306722   -8.1861031    777.66769  0.013640421  0.012269882           20 
 4752000    0.4924132   -8.1754761    776.96663  0.013625257  0.012265969           10 
 4753000   0.49271309   -8.1908603    777.01351  0.013623212   0.01226206           11 
 4754000   0.48953726   -8.1917714    776.92468  0.013618789  0.012258151            9 
 4755000   0.50516383    -8.181877     777.4019  0.013624288  0.012254243           10 
 4756000   0.48852924   -8.1825459    776.55342  0.013606557   0.01225034           12 
 4757000   0.48431677   -8.1795257    777.13123  0.013613819  0.012246438            7 
 4758000   0.48647178   -8.1710309    777.96889  0.013625629  0.012242537           11 
 4759000   0.48698318   -8.1745278    777.52912  0.013615065  0.012238637           16 
 4760000   0.48883457   -8.1814771    777.74475  0.013615979  0.012234739           12 
 4761000   0.48766748   -8.1940239    776.03011  0.013583108  0.012230841            8 
 4762000   0.49108222   -8.1984388    776.45134  0.013587627   0.01222694           10 
 4763000   0.49559922   -8.1819274    777.54911  0.013603981  0.012223043           18 
 4764000     0.481638   -8.1815083    776.84454    0.0135888   0.01221915           18 
 4765000   0.47962269   -8.1759507    777.06572  0.013589817  0.012215256           17 
 4766000   0.49673627   -8.1822728    778.14593  0.013605853  0.012211364           13 
 4767000    0.4934206   -8.1833703    778.56371  0.013610302  0.012207476           11 
 4768000   0.48292371   -8.1848355    778.89171   0.01361318  0.012203586           10 
 4769000   0.48593096   -8.1828131    777.02262  0.013577665    0.0121997           11 
 4770000   0.48465975   -8.1767877    776.70118  0.013569203  0.012195811           11 
 4771000   0.48991226   -8.1831194    777.39332  0.013578448  0.012191924           12 
 4772000   0.48846799   -8.1940789    777.08706  0.013570255  0.012188039           14 
 4773000   0.49399196    -8.193243    778.05228  0.013584264  0.012184156           12 
 4774000   0.49081829   -8.1899758    777.98345  0.013580217  0.012180276           17 
 4775000   0.48052364   -8.1861785    776.72522  0.013555414  0.012176398           10 
 4776000   0.49819523   -8.1705655    776.66709  0.013551562  0.012172522           16 
 4777000   0.48225734   -8.1959158    776.41506  0.013544328  0.012168648           21 
 4778000   0.48802253   -8.1915702    777.91618  0.013567674  0.012164777           16 
 4779000   0.49786006   -8.1954684    776.76377   0.01354474  0.012160903           14 
 4780000   0.48365407   -8.1822641    777.24614  0.013550316  0.012157032           21 
 4781000   0.48603133   -8.1883406    777.62949  0.013554164  0.012153164           17 
 4782000   0.48725211   -8.1890642    777.24252  0.013544586  0.012149297           11 
 4783000   0.49123783   -8.2032718    778.75369  0.013568083  0.012145433            9 
 4784000   0.47993174   -8.1813791    777.46218   0.01354275  0.012141568           17 
 4785000   0.48590641   -8.2056479    776.69307  0.013526525  0.012137707            7 
 4786000   0.48303538   -8.1913557    776.19817  0.013515082  0.012133845           14 
 4787000   0.48575104   -8.1930705    777.43386   0.01353377  0.012129984           13 
 4788000    0.4847325   -8.1890348    777.35808  0.013529624  0.012126126            8 
 4789000   0.48403698   -8.1850786    777.87046  0.013535715  0.012122276           14 
 4790000   0.48078257   -8.1741139    777.10313  0.013519539  0.012118425           15 
 4791000   0.48181465   -8.1728113     777.9347  0.013531182  0.012114574           13 
 4792000   0.48631828   -8.1976447    776.91273  0.013510586  0.012110723           11 
 4793000   0.47099685    -8.201603    776.65002  0.013503199  0.012106872           25 
 4794000   0.49320956   -8.1935319    776.79732  0.013502943  0.012103022           11 
 4795000   0.47766649   -8.1986747    778.28472  0.013525977  0.012099177           10 
 4796000    0.4903224   -8.1834326    777.77218  0.013514251  0.012095333            8 
 4797000   0.48672983   -8.1882344    776.06643  0.013481802   0.01209149           10 
 4798000   0.49192365   -8.2070221     776.3539  0.013483985  0.012087649           11 
 4799000   0.49313202   -8.1823808    777.71421  0.013504796  0.012083807           13 
 4800000    0.4812776   -8.2007238    777.16697  0.013492482  0.012079967           13 
 4801000   0.48977616   -8.1749208    776.89684  0.013484983  0.012076131           16 
 4802000   0.47469679   -8.1794234    777.03407  0.013484556  0.012072298           13 
 4803000   0.48469604   -8.1743434    776.90682  0.013479541  0.012068463            7 
 4804000     0.477404   -8.1968162    777.55874  0.013488044  0.012064628           11 
 4805000   0.48994604    -8.191774    779.05598  0.013511203  0.012060795           10 
 4806000    0.4839534   -8.1771687    776.09716  0.013457088  0.012056965           10 
 4807000   0.48424243   -8.1946716    776.77389   0.01346602  0.012053133           15 
 4808000   0.48496125   -8.1885373     777.4178  0.013474379  0.012049307            8 
 4809000   0.48561806   -8.1950525    777.15987  0.013467108  0.012045482           10 
 4810000   0.48298986   -8.1935371    777.77558  0.013474975  0.012041653           11 
 4811000   0.49110391   -8.1875714    776.30924  0.013446775  0.012037831            9 
 4812000   0.47847563   -8.1970266    776.86565  0.013453617  0.012034008           11 
 4813000   0.48606271   -8.1922877    777.55565  0.013462768  0.012030189           20 
 4814000    0.4848879   -8.1978961    776.81953  0.013447229   0.01202637           10 
 4815000   0.47332492   -8.2009559    777.05989  0.013448596   0.01202255           13 
 4816000   0.48983756   -8.2039162    776.64805  0.013438678   0.01201873           12 
 4817000   0.48797397   -8.2087094    776.92323  0.013440648  0.012014912           12 
 4818000   0.48342249   -8.2056232    777.14193  0.013441641  0.012011093           12 
 4819000    0.4723881   -8.1914784    777.60349  0.013446833  0.012007283            9 
 4820000   0.46998929   -8.2202642    776.02451  0.013416745  0.012003473           16 
 4821000   0.47985958   -8.2006544    777.65567  0.013442157  0.011999665           13 
 4822000    0.4710895    -8.201988    776.62424  0.013421544  0.011995853           11 
 4823000   0.47562723   -8.2216067    776.84538  0.013422582  0.011992045            9 
 4824000   0.48109069   -8.1995942    777.11226   0.01342441  0.011988235            9 
 4825000   0.48749762     -8.20231    777.19288   0.01342302  0.011984432           13 
 4826000    0.4832312   -8.1912245    776.91525  0.013415445  0.011980629           15 
 4827000   0.48328064   -8.1895362    776.54652    0.0134063  0.011976824           20 
 4828000   0.47883156   -8.1975684    777.52071  0.013420338  0.011973021           12 
 4829000   0.47685829   -8.1935327    776.32537  0.013396931  0.011969219            9 
 4830000   0.47322598   -8.1995259    776.56925  0.013398365  0.011965422           17 
 4831000   0.48280641   -8.2046973    777.28702  0.013407973  0.011961627           12 
 4832000   0.47975871   -8.1930371     776.8337   0.01339738  0.011957833           11 
 4833000   0.48374893   -8.1908068    777.18652  0.013400692  0.011954039            8 
 4834000   0.46546048   -8.2017315    778.14134   0.01341438  0.011950251           10 
 4835000   0.48118058    -8.190194    777.57606  0.013401862  0.011946459            8 
 4836000   0.48478309    -8.184144    776.46702   0.01337998  0.011942675           13 
 4837000   0.48340876   -8.1788275     776.2421  0.013373339   0.01193889           12 
 4838000   0.48206438   -8.1911857    776.45102  0.013374174  0.011935105           13 
 4839000    0.4828769   -8.1861248    777.57556  0.013390776  0.011931322           14 
 4840000    0.4801928   -8.1911613    776.41018  0.013367944  0.011927544           13 
 4841000   0.48352182   -8.1936051    776.99156   0.01337519  0.011923766            7 
 4842000   0.47120225   -8.1882043    777.24724  0.013376828  0.011919985            9 
 4843000   0.47877658    -8.181597    778.26464  0.013391573  0.011916207            7 
 4844000   0.47439787   -8.1973486    777.90954  0.013382699  0.011912429           12 
 4845000   0.46857181   -8.2101596    776.74089  0.013359836  0.011908651           13 
 4846000   0.46949695   -8.1925237    775.52686  0.013336203  0.011904875           16 
 4847000   0.47417263   -8.2008586    775.48729  0.013332771  0.011901103           13 
 4848000   0.47298358   -8.1910115    776.22293  0.013342666  0.011897331           14 
 4849000   0.47297943    -8.205356    776.42201  0.013343336  0.011893559           10 
 4850000   0.47291686   -8.1930466    776.90513  0.013348885  0.011889789            9 
 4851000   0.47681763   -8.2050511    775.71148  0.013325628  0.011886023           13 
 4852000    0.4699233   -8.1925572     776.9808  0.013344683  0.011882256           11 
 4853000   0.48187686    -8.199651    776.50691  0.013333795  0.011878495           15 
 4854000   0.47319686   -8.1898756    776.35442   0.01332843  0.011874734           11 
 4855000    0.4861258   -8.2037572    777.70738  0.013348908  0.011870974            9 
 4856000   0.48162375   -8.2109473    775.84892  0.013314266  0.011867211            7 
 4857000   0.47519215   -8.1993517    776.59891  0.013324393  0.011863454           13 
 4858000   0.47723067   -8.2009079    777.31686  0.013333966  0.011859697           13 
 4859000    0.4730687   -8.2002311    776.67792  0.013320263  0.011855941           13 
 4860000   0.47671204   -8.1933125    776.22515  0.013309759  0.011852185           14 
 4861000   0.48270144   -8.2021558    774.78171  0.013282276  0.011848434           18 
 4862000   0.47331619   -8.2110374    777.48654  0.013325904  0.011844681            7 
 4863000   0.49433551   -8.1976012    776.24198  0.013301837  0.011840932           11 
 4864000   0.46439506   -8.2101925     776.4222   0.01330219  0.011837182            9 
 4865000   0.47207019     -8.21391    775.80053  0.013288807  0.011833431           10 
 4866000   0.46847001   -8.1938028    776.64643  0.013300562  0.011829686           12 
 4867000   0.47135793    -8.195154    775.09314  0.013271234  0.011825941           12 
 4868000   0.47158595   -8.1941171    775.96943  0.013283508  0.011822198           15 
 4869000   0.46425939   -8.2068288    776.98698  0.013298196  0.011818453           19 
 4870000   0.46915056   -8.2147274    777.81939  0.013309709  0.011814715           13 
 4871000   0.46921176   -8.1990556    775.75326  0.013271629  0.011810973           10 
 4872000   0.47780011   -8.2166759    775.66793  0.013267445  0.011807234            9 
 4873000   0.46433104   -8.2119035    775.89527   0.01326861  0.011803495           12 
 4874000   0.47028448    -8.211232    776.06283  0.013268753  0.011799757           17 
 4875000    0.4687483   -8.2124087    776.76917  0.013278105  0.011796023            9 
 4876000   0.47958292   -8.2258471    776.64444  0.013273251   0.01179229           19 
 4877000   0.47698201   -8.1945937    775.73086  0.013254919  0.011788559           11 
 4878000   0.47246697   -8.1983905    775.67552  0.013251256  0.011784829           11 
 4879000   0.47947423   -8.2007298    776.61441  0.013264576  0.011781103            8 
 4880000   0.46967478    -8.192756    777.05958   0.01326946  0.011777379           10 
 4881000   0.48270545   -8.2180158    776.85336  0.013263221  0.011773654           15 
 4882000   0.47080808   -8.2085677    776.95076  0.013262167  0.011769931            8 
 4883000   0.46369147   -8.2159769    774.88534  0.013224202  0.011766207            9 
 4884000   0.46632579    -8.206397    775.66005  0.013234713  0.011762484           10 
 4885000   0.46878813    -8.209889    775.52639  0.013229724  0.011758763           11 
 4886000   0.46708463   -8.2072601     775.9443  0.013234143  0.011755047            9 
 4887000   0.46317551   -8.2160504    776.24113  0.013236497  0.011751326           12 
 4888000   0.46102006   -8.2156345    776.50252  0.013238245  0.011747611            9 
 4889000   0.45515419    -8.182007     777.0708  0.013245224  0.011743898            7 
 4890000   0.46659516   -8.2014117     775.9775  0.013223884  0.011740186            9 
 4891000   0.45630562    -8.231611    777.10752  0.013240434  0.011736474           12 
 4892000    0.4642168     -8.21033    776.81408  0.013232728  0.011732762           10 
 4893000   0.46380342   -8.2319065    775.09111   0.01320068  0.011729053           10 
 4894000   0.46558606   -8.2160372    776.78481  0.013226822  0.011725344            6 
 4895000   0.47277993   -8.2029291     776.1923  0.013214033  0.011721635            7 
 4896000   0.46674396   -8.2243389    776.21594  0.013211736  0.011717928           13 
 4897000     0.472586   -8.2041583    775.04149  0.013189053  0.011714227           15 
 4898000   0.45821885   -8.2269146    776.53258  0.013211729  0.011710524           14 
 4899000   0.46678678   -8.2233705    775.65427  0.013194092  0.011706823           12 
 4900000   0.46652876   -8.2131636    776.16747  0.013200127  0.011703125           10 
 4901000    0.4684249   -8.2062609     776.7619  0.013207541  0.011699426           14 
 4902000   0.46998717   -8.2019812     777.0514  0.013209768  0.011695737           10 
 4903000   0.47712826   -8.2194798    774.23405  0.013159189  0.011692044           11 
 4904000   0.46360697   -8.2121307    775.44106  0.013177016  0.011688351           11 
 4905000   0.46501617   -8.2321202    776.23018  0.013187737  0.011684658           11 
 4906000   0.46791474   -8.2198897    776.07349  0.013182387  0.011680965           12 
 4907000   0.46382408   -8.2210773    775.80757  0.013175185  0.011677278            8 
 4908000   0.46869285   -8.2179379    776.62898  0.013186447  0.011673591           12 
 4909000   0.46485848   -8.2309525    777.07821  0.013191387  0.011669905            9 
 4910000   0.46320051    -8.227839    775.44044  0.013160904  0.011666217           10 
 4911000   0.46780142   -8.2419867    776.57461  0.013177469  0.011662535           10 
 4912000   0.46302689   -8.2032912     775.8454  0.013162415   0.01165885           10 
 4913000   0.46497932   -8.2291425    775.71561  0.013157535  0.011655167            8 
 4914000   0.46770708   -8.2181279    776.22205  0.013163445  0.011651489           16 
 4915000   0.46468409   -8.2198167     776.0193   0.01315733  0.011647814           12 
 4916000    0.4673363   -8.2082249    775.75248   0.01315013  0.011644137           16 
 4917000   0.46640685   -8.2197468    774.64146  0.013128626  0.011640463           11 
 4918000   0.46204671   -8.2170668    774.85258  0.013129534  0.011636789           10 
 4919000    0.4698369   -8.2190747    775.48567   0.01313759  0.011633116           10 
 4920000    0.4721018   -8.2219093    776.46282   0.01315147  0.011629444           10 
 4921000   0.46806387   -8.2100454    776.04353  0.013141698  0.011625775           12 
 4922000   0.47316219   -8.2383745    775.98283     0.013138  0.011622108           12 
 4923000   0.46729279    -8.243296    776.24948  0.013139845  0.011618443            7 
 4924000   0.45863355   -8.2233808     774.8067  0.013112759  0.011614777           10 
 4925000   0.45897283   -8.2229159    775.72557  0.013125644  0.011611112           15 
 4926000     0.458866   -8.2429975    775.45884  0.013118467   0.01160745           13 
 4927000   0.46729899   -8.2148707    775.34316  0.013113848  0.011603788           10 
 4928000   0.46201956   -8.2171336    775.33792  0.013111099  0.011600129           13 
 4929000   0.46494493   -8.2258871    775.78686  0.013116029  0.011596472           10 
 4930000   0.47526123   -8.2222272    775.22044  0.013103794  0.011592816           15 
 4931000   0.46800026     -8.22225    775.37922   0.01310382  0.011589161            9 
 4932000   0.46803951   -8.2410487    775.34132  0.013100522  0.011585509           12 
 4933000   0.46852104     -8.22657    775.96413  0.013108388  0.011581858           10 
 4934000   0.45447594   -8.2251044    777.08223  0.013124615  0.011578206           11 
 4935000    0.4498336   -8.2213083    775.39108  0.013093399  0.011574558           10 
 4936000   0.45894308   -8.2278855    774.86688  0.013081896  0.011570909            7 
 4937000   0.45961763   -8.2341081    776.75977  0.013111197  0.011567264           11 
 4938000   0.45502173   -8.2292219    776.46911  0.013103637   0.01156362           14 
 4939000    0.4611891   -8.2208219    776.38706  0.013099599  0.011559977           14 
 4940000   0.46174954   -8.2144357    774.94014  0.013072539  0.011556335           10 
 4941000   0.46630982   -8.2233983    775.98465   0.01308751  0.011552696           11 
 4942000   0.45989964   -8.2269493    775.59624  0.013078312  0.011549053           18 
 4943000   0.46553013   -8.2255912    776.13551  0.013084758  0.011545416            8 
 4944000   0.45691268   -8.2140696     775.6027  0.013073131  0.011541779           11 
 4945000   0.45621291   -8.2259443    775.27654  0.013064991  0.011538144           11 
 4946000   0.45601777   -8.2253193    775.16075  0.013060398  0.011534507           14 
 4947000   0.44621546   -8.2203454    773.82324  0.013035227  0.011530872            8 
 4948000   0.45890185   -8.2255451    776.08723  0.013070723  0.011527241           17 
 4949000   0.45374841   -8.2253286    776.69951  0.013078391  0.011523612            9 
 4950000   0.46404081   -8.2342082    776.10017  0.013065659  0.011519983           10 
 4951000   0.45170038   -8.2253664    775.21102  0.013048055  0.011516356           10 
 4952000   0.45390148   -8.2388205    775.79909  0.013055316  0.011512732           12 
 4953000   0.46359094   -8.2496414    776.00792  0.013056194  0.011509108           11 
 4954000   0.45716984   -8.2421385    775.20326  0.013040023  0.011505485           12 
 4955000   0.46570936   -8.2447471    775.25732    0.0130383  0.011501864           15 
 4956000   0.46484434    -8.241645    775.94221  0.013047185  0.011498248           10 
 4957000     0.457556   -8.2345498    775.83095  0.013042683  0.011494628           10 
 4958000   0.45830711   -8.2299103    775.06587  0.013027193  0.011491008           11 
 4959000   0.45632393   -8.2134669    776.30313  0.013045357  0.011487392            7 
 4960000     0.454599   -8.2243414    775.34316  0.013026599  0.011483778           12 
 4961000   0.45443886   -8.2234405    775.84809  0.013032455  0.011480163           14 
 4962000   0.44994271   -8.2242999    775.27615  0.013020223  0.011476551            8 
 4963000   0.45459737   -8.2298462    775.14671  0.013015426  0.011472941           10 
 4964000   0.44711114   -8.2391663    775.72829  0.013022567  0.011469332            9 
 4965000   0.44696701   -8.2303711     775.5602  0.013017123  0.011465722           12 
 4966000    0.4614162   -8.2377473    775.27198  0.013009665  0.011462115           16 
 4967000   0.45333399   -8.2390825    775.60901  0.013012701  0.011458508           13 
 4968000   0.46225291   -8.2399859    776.00804  0.013016775  0.011454903           10 
 4969000   0.44896181    -8.247419    775.52579  0.013006067    0.0114513           11 
 4970000   0.45704299   -8.2338118    775.92785  0.013010192    0.0114477           14 
 4971000   0.45433012   -8.2484233    775.81629  0.013005705  0.011444097            9 
 4972000   0.44813442   -8.2226181    774.90505  0.012987816    0.0114405           10 
 4973000   0.46154534   -8.2309576    775.88102  0.013001559  0.011436904           11 
 4974000    0.4514125   -8.2263813     774.0253  0.012967855   0.01143331           11 
 4975000   0.44720708   -8.2378528    775.91642  0.012996925  0.011429714           14 
 4976000    0.4587486   -8.2417993    774.49149   0.01297045  0.011426119            8 
 4977000   0.46258746    -8.238794    776.44979  0.013000633  0.011422527           12 
 4978000   0.44967987   -8.2327448     776.5245  0.012999272  0.011418937           14 
 4979000   0.45197565   -8.2386375    774.91564  0.012969734  0.011415344            9 
 4980000   0.45274936   -8.2326708    775.31347  0.012973786  0.011411756           12 
 4981000   0.45299967   -8.2403549    775.68659  0.012977424  0.011408168           10 
 4982000   0.45466141   -8.2366458    774.92481  0.012962077  0.011404585           12 
 4983000   0.44751762   -8.2439175    775.27547   0.01296534     0.011401            8 
 4984000    0.4574979   -8.2422757    775.65554  0.012969093  0.011397418           12 
 4985000   0.44709833   -8.2428754    774.33273  0.012944379  0.011393837           18 
 4986000   0.46105657   -8.2262604    774.79612  0.012949527  0.011390255           14 
 4987000   0.46452144   -8.2361113    775.44988  0.012957855  0.011386676            9 
 4988000   0.45612899   -8.2342558    775.73393  0.012960003  0.011383098            9 
 4989000   0.45906953   -8.2536146    775.85361  0.012959404   0.01137952           13 
 4990000   0.45122589    -8.233335    774.26793  0.012930326  0.011375945            9 
 4991000   0.45235604   -8.2502434    774.49959  0.012931603  0.011372372           13 
 4992000   0.45421528   -8.2578141    774.73087  0.012932874    0.0113688            7 
 4993000   0.45828633   -8.2402615    775.77089  0.012947641  0.011365232           10 
 4994000   0.45723723   -8.2585885    774.05112  0.012916352  0.011361659           11 
 4995000   0.44840334   -8.2507112    774.29796  0.012917884  0.011358089           10 
 4996000   0.45367257   -8.2256213    774.71146  0.012922195  0.011354524           12 
 4997000   0.46201677   -8.2391673    775.57907  0.012934078  0.011350961            8 
 4998000   0.45188771   -8.2473001    775.66118   0.01293286  0.011347395           13 
 4999000    0.4519166   -8.2406418     774.4603  0.012910254  0.011343832            7 
 5000000   0.45866811   -8.2372629    775.39694  0.012923282  0.011340272           12 
 5001000   0.45165585   -8.2459521    775.25221  0.012918287  0.011336714           11 
 5002000   0.45410415   -8.2535311    775.75441  0.012924071  0.011333157           12 
 5003000   0.44651811   -8.2269642    775.14072  0.012911265  0.011329599           15 
 5004000   0.45311521    -8.250071     774.6221  0.012900048  0.011326045            9 
 5005000   0.45590804    -8.238644    775.20617  0.012907196   0.01132249            8 
 5006000   0.44723152   -8.2296062    774.76881  0.012897337  0.011318937            9 
 5007000     0.444443   -8.2359351    774.30508  0.012887043  0.011315382            7 
 5008000   0.45043006   -8.2550051    775.87482   0.01291059  0.011311836           11 
 5009000   0.45970004   -8.2434852    774.99943  0.012893449  0.011308286           12 
 5010000   0.44750175   -8.2486862    776.57518  0.012917085  0.011304742           13 
 5011000    0.4579569   -8.2438632    774.52509  0.012880415  0.011301198           10 
 5012000   0.43881973   -8.2467837    775.56237  0.012895091  0.011297654           20 
Loop time of 11457.5 on 48 procs for 5000000 steps with 4000 atoms

Performance: 75409.183 tau/day, 436.396 timesteps/s
99.4% CPU use with 48 MPI tasks x no OpenMP threads

MPI task timing breakdown:
Section |  min time  |  avg time  |  max time  |%varavg| %total
---------------------------------------------------------------
Pair    | 713.73     | 757.84     | 810.39     |  86.2 |  6.61
Neigh   | 73.324     | 76.177     | 79.767     |  17.0 |  0.66
Comm    | 688.98     | 755.72     | 807.52     | 103.4 |  6.60
Output  | 13.432     | 13.437     | 13.536     |   0.4 |  0.12
Modify  | 9699.4     | 9737       | 9773.3     |  19.1 | 84.98
Other   |            | 117.3      |            |       |  1.02

Nlocal:        83.3333 ave          90 max          75 min
Histogram: 3 0 2 4 10 5 8 5 9 2
Nghost:        1931.67 ave        1951 max        1912 min
Histogram: 1 0 5 12 8 8 6 2 4 2
Neighs:        12228.0 ave       13461 max       10488 min
Histogram: 2 3 0 4 11 4 8 5 5 6
FullNghs:      24455.1 ave       26707 max       21375 min
Histogram: 2 1 2 6 6 7 7 9 6 2

Total # of neighbors = 1173847
Ave neighs/atom = 293.46175
Neighbor list builds = 268627
Dangerous builds = 0

#clear
#
#next RN
#
#jump SELF
Total wall time: 3:11:00
